Node Number	X Location (in)	Y Location (in)	Z Location (in)	Middle Principal Stress (psi)
1	8.5	2.1818	0.	159.65
2	8.5	2.3636	0.	-34.911
3	8.5	2.5455	0.	1.0154
4	8.5	2.7273	0.	-3.8227
5	8.5	2.9091	0.	-1.9619
6	8.5	3.0909	0.	-1.9619
7	8.5	3.2727	0.	-3.8227
8	8.5	3.4545	0.	1.0154
9	8.5	3.6364	0.	-34.911
10	8.5	3.8182	0.	159.65
11	8.6667	2.1818	0.	80.889
12	8.6667	2.3636	0.	-36.891
13	8.6667	2.5455	0.	1.5823
14	8.6667	2.7273	0.	-3.8354
15	8.6667	2.9091	0.	-1.8239
16	8.6667	3.0909	0.	-1.8239
17	8.6667	3.2727	0.	-3.8354
18	8.6667	3.4545	0.	1.5823
19	8.6667	3.6364	0.	-36.891
20	8.6667	3.8182	0.	80.889
21	8.3152	5.8182	0.	-21.097
22	8.3152	5.6364	0.	-9.9015
23	8.3152	5.4545	0.	-7.5089
24	8.3152	5.2727	0.	-6.6113
25	8.3152	5.0909	0.	-6.4756
26	8.3152	4.9091	0.	-8.1919
27	8.3152	4.7273	0.	-6.1424
28	8.3152	4.5455	0.	-22.986
29	8.3152	4.3636	0.	16.587
30	8.3152	4.1818	0.	-130.49
31	8.3152	4.	0.	-545.1
32	8.3152	3.8182	0.	18.441
33	8.3152	3.6364	0.	-15.628
34	8.3152	3.4545	0.	5.1228
35	8.3152	3.2727	0.	-3.1479
36	8.3152	3.0909	0.	-0.59227
37	8.3152	2.9091	0.	-0.59227
38	8.3152	2.7273	0.	-3.1479
39	8.3152	2.5455	0.	5.1228
40	8.3152	2.3636	0.	-15.628
41	8.3152	2.1818	0.	18.441
42	8.3152	2.	0.	-545.1
43	8.3152	1.8182	0.	-130.49
44	8.3152	1.6364	0.	16.587
45	8.3152	1.4545	0.	-22.986
46	8.3152	1.2727	0.	-6.1424
47	8.3152	1.0909	0.	-8.1919
48	8.3152	0.90909	0.	-6.4756
49	8.3152	0.72727	0.	-6.6113
50	8.3152	0.54545	0.	-7.5088
51	8.3152	0.36364	0.	-9.9015
52	8.3152	0.18182	0.	-21.097
53	8.1304	5.8182	0.	-4.914
54	8.1304	5.6364	0.	-2.4098
55	8.1304	5.4545	0.	-0.91478
56	8.1304	5.2727	0.	2.8573e-002
57	8.1304	5.0909	0.	0.40849
58	8.1304	4.9091	0.	0.82845
59	8.1304	4.7273	0.	0.62595
60	8.1304	4.5455	0.	0.22236
61	8.1304	4.3636	0.	5.0344
62	8.1304	4.1818	0.	14.419
63	8.1304	4.	0.	69.454
64	8.1304	3.8182	0.	34.351
65	8.1304	3.6364	0.	-5.7125
66	8.1304	3.4545	0.	1.3039
67	8.1304	3.2727	0.	-6.7466e-002
68	8.1304	3.0909	0.	-0.15086
69	8.1304	2.9091	0.	-0.15086
70	8.1304	2.7273	0.	-6.7464e-002
71	8.1304	2.5455	0.	1.3039
72	8.1304	2.3636	0.	-5.7125
73	8.1304	2.1818	0.	34.351
74	8.1304	2.	0.	69.454
75	8.1304	1.8182	0.	14.419
76	8.1304	1.6364	0.	5.0344
77	8.1304	1.4545	0.	0.22237
78	8.1304	1.2727	0.	0.62595
79	8.1304	1.0909	0.	0.82845
80	8.1304	0.90909	0.	0.4085
81	8.1304	0.72727	0.	2.8577e-002
82	8.1304	0.54545	0.	-0.91478
83	8.1304	0.36364	0.	-2.4098
84	8.1304	0.18182	0.	-4.914
85	7.9457	5.8182	0.	-1.9021
86	7.9457	5.6364	0.	-1.8346
87	7.9457	5.4545	0.	-1.5348
88	7.9457	5.2727	0.	-1.3867
89	7.9457	5.0909	0.	-1.3997
90	7.9457	4.9091	0.	-1.7755
91	7.9457	4.7273	0.	-2.0303
92	7.9457	4.5455	0.	-2.1228
93	7.9457	4.3636	0.	-9.4168
94	7.9457	4.1818	0.	-5.1633
95	7.9457	4.	0.	-13.443
96	7.9457	3.8182	0.	-8.5582
97	7.9457	3.6364	0.	5.68
98	7.9457	3.4545	0.	0.80585
99	7.9457	3.2727	0.	0.84399
100	7.9457	3.0909	0.	0.58492
101	7.9457	2.9091	0.	0.58492
102	7.9457	2.7273	0.	0.84399
103	7.9457	2.5455	0.	0.80585
104	7.9457	2.3636	0.	5.68
105	7.9457	2.1818	0.	-8.5582
106	7.9457	2.	0.	-13.443
107	7.9457	1.8182	0.	-5.1633
108	7.9457	1.6364	0.	-9.4168
109	7.9457	1.4545	0.	-2.1228
110	7.9457	1.2727	0.	-2.0303
111	7.9457	1.0909	0.	-1.7755
112	7.9457	0.90909	0.	-1.3997
113	7.9457	0.72727	0.	-1.3867
114	7.9457	0.54545	0.	-1.5348
115	7.9457	0.36364	0.	-1.8346
116	7.9457	0.18182	0.	-1.9021
117	7.7609	5.8182	0.	2.679e-002
118	7.7609	5.6364	0.	-0.5536
119	7.7609	5.4545	0.	-0.63444
120	7.7609	5.2727	0.	-0.73648
121	7.7609	5.0909	0.	-0.85014
122	7.7609	4.9091	0.	-0.98829
123	7.7609	4.7273	0.	-1.3382
124	7.7609	4.5455	0.	-1.7321
125	7.7609	4.3636	0.	-0.27573
126	7.7609	4.1818	0.	-1.331
127	7.7609	4.	0.	1.419
128	7.7609	3.8182	0.	3.0039
129	7.7609	3.6364	0.	0.46232
130	7.7609	3.4545	0.	1.1013
131	7.7609	3.2727	0.	0.94859
132	7.7609	3.0909	0.	0.79706
133	7.7609	2.9091	0.	0.79706
134	7.7609	2.7273	0.	0.94859
135	7.7609	2.5455	0.	1.1013
136	7.7609	2.3636	0.	0.46232
137	7.7609	2.1818	0.	3.0039
138	7.7609	2.	0.	1.419
139	7.7609	1.8182	0.	-1.331
140	7.7609	1.6364	0.	-0.27573
141	7.7609	1.4545	0.	-1.7321
142	7.7609	1.2727	0.	-1.3382
143	7.7609	1.0909	0.	-0.98829
144	7.7609	0.90909	0.	-0.85014
145	7.7609	0.72727	0.	-0.73648
146	7.7609	0.54545	0.	-0.63444
147	7.7609	0.36364	0.	-0.5536
148	7.7609	0.18182	0.	2.6792e-002
149	7.5761	5.8182	0.	0.43528
150	7.5761	5.6364	0.	-0.29415
151	7.5761	5.4545	0.	-0.39735
152	7.5761	5.2727	0.	-0.60469
153	7.5761	5.0909	0.	-0.76753
154	7.5761	4.9091	0.	-0.94281
155	7.5761	4.7273	0.	-1.0959
156	7.5761	4.5455	0.	-1.3286
157	7.5761	4.3636	0.	-1.8112
158	7.5761	4.1818	0.	-1.7114
159	7.5761	4.	0.	-2.0971
160	7.5761	3.8182	0.	-1.8508
161	7.5761	3.6364	0.	-0.39883
162	7.5761	3.4545	0.	0.36226
163	7.5761	3.2727	0.	0.64968
164	7.5761	3.0909	0.	0.74662
165	7.5761	2.9091	0.	0.74662
166	7.5761	2.7273	0.	0.64968
167	7.5761	2.5455	0.	0.36226
168	7.5761	2.3636	0.	-0.39883
169	7.5761	2.1818	0.	-1.8508
170	7.5761	2.	0.	-2.0971
171	7.5761	1.8182	0.	-1.7114
172	7.5761	1.6364	0.	-1.8112
173	7.5761	1.4545	0.	-1.3286
174	7.5761	1.2727	0.	-1.0959
175	7.5761	1.0909	0.	-0.94281
176	7.5761	0.90909	0.	-0.76752
177	7.5761	0.72727	0.	-0.60469
178	7.5761	0.54545	0.	-0.39735
179	7.5761	0.36364	0.	-0.29415
180	7.5761	0.18182	0.	0.43528
181	7.3913	5.8182	0.	0.50743
182	7.3913	5.6364	0.	-0.17796
183	7.3913	5.4545	0.	-0.21617
184	7.3913	5.2727	0.	-0.43162
185	7.3913	5.0909	0.	-0.58452
186	7.3913	4.9091	0.	-0.73872
187	7.3913	4.7273	0.	-0.8999
188	7.3913	4.5455	0.	-1.0578
189	7.3913	4.3636	0.	-1.2221
190	7.3913	4.1818	0.	-1.5271
191	7.3913	4.	0.	-1.7609
192	7.3913	3.8182	0.	-2.1657
193	7.3913	3.6364	0.	-3.4244
194	7.3913	3.4545	0.	-11.868
195	7.3913	3.2727	0.	-27.736
196	7.3913	3.0909	0.	-34.941
197	7.3913	2.9091	0.	-34.941
198	7.3913	2.7273	0.	-27.736
199	7.3913	2.5455	0.	-11.868
200	7.3913	2.3636	0.	-3.4245
201	7.3913	2.1818	0.	-2.1658
202	7.3913	2.	0.	-1.7609
203	7.3913	1.8182	0.	-1.5271
204	7.3913	1.6364	0.	-1.2221
205	7.3913	1.4545	0.	-1.0578
206	7.3913	1.2727	0.	-0.8999
207	7.3913	1.0909	0.	-0.73872
208	7.3913	0.90909	0.	-0.58452
209	7.3913	0.72727	0.	-0.43162
210	7.3913	0.54545	0.	-0.21617
211	7.3913	0.36364	0.	-0.17796
212	7.3913	0.18182	0.	0.50743
213	7.2065	5.8182	0.	0.41507
214	7.2065	5.6364	0.	-0.15658
215	7.2065	5.4545	0.	-0.13399
216	7.2065	5.2727	0.	-0.32699
217	7.2065	5.0909	0.	-0.46954
218	7.2065	4.9091	0.	-0.61975
219	7.2065	4.7273	0.	-0.78413
220	7.2065	4.5455	0.	-0.99807
221	7.2065	4.3636	0.	-1.3086
222	7.2065	4.1818	0.	-1.7889
223	7.2065	4.	0.	-2.807
224	7.2065	3.8182	0.	-7.4297
225	7.2065	3.6364	0.	-39.758
226	7.2065	3.4545	0.	-75.151
227	7.2065	3.2727	0.	-96.929
228	7.2065	3.0909	0.	-106.81
229	7.2065	2.9091	0.	-106.81
230	7.2065	2.7273	0.	-96.929
231	7.2065	2.5455	0.	-75.151
232	7.2065	2.3636	0.	-39.758
233	7.2065	2.1818	0.	-7.4297
234	7.2065	2.	0.	-2.807
235	7.2065	1.8182	0.	-1.7889
236	7.2065	1.6364	0.	-1.3086
237	7.2065	1.4545	0.	-0.99807
238	7.2065	1.2727	0.	-0.78413
239	7.2065	1.0909	0.	-0.61975
240	7.2065	0.90909	0.	-0.46954
241	7.2065	0.72727	0.	-0.32699
242	7.2065	0.54545	0.	-0.13399
243	7.2065	0.36364	0.	-0.15658
244	7.2065	0.18182	0.	0.41507
245	7.0217	5.8182	0.	0.30193
246	7.0217	5.6364	0.	-0.14537
247	7.0217	5.4545	0.	-8.3892e-002
248	7.0217	5.2727	0.	-0.24991
249	7.0217	5.0909	0.	-0.38155
250	7.0217	4.9091	0.	-0.53602
251	7.0217	4.7273	0.	-0.72317
252	7.0217	4.5455	0.	-0.98922
253	7.0217	4.3636	0.	-1.4339
254	7.0217	4.1818	0.	-2.4267
255	7.0217	4.	0.	-7.318
256	7.0217	3.8182	0.	-43.495
257	7.0217	3.6364	0.	-88.897
258	7.0217	3.4545	0.	-123.8
259	7.0217	3.2727	0.	-146.38
260	7.0217	3.0909	0.	-157.25
261	7.0217	2.9091	0.	-157.25
262	7.0217	2.7273	0.	-146.38
263	7.0217	2.5455	0.	-123.8
264	7.0217	2.3636	0.	-88.897
265	7.0217	2.1818	0.	-43.495
266	7.0217	2.	0.	-7.318
267	7.0217	1.8182	0.	-2.4267
268	7.0217	1.6364	0.	-1.4339
269	7.0217	1.4545	0.	-0.98922
270	7.0217	1.2727	0.	-0.72317
271	7.0217	1.0909	0.	-0.53602
272	7.0217	0.90909	0.	-0.38155
273	7.0217	0.72727	0.	-0.24991
274	7.0217	0.54545	0.	-8.3891e-002
275	7.0217	0.36364	0.	-0.14537
276	7.0217	0.18182	0.	0.30194
277	6.837	5.8182	0.	0.20461
278	6.837	5.6364	0.	-0.13362
279	6.837	5.4545	0.	-5.7126e-002
280	6.837	5.2727	0.	-0.20104
281	6.837	5.0909	0.	-0.32808
282	6.837	4.9091	0.	-0.49465
283	6.837	4.7273	0.	-0.72418
284	6.837	4.5455	0.	-1.1062
285	6.837	4.3636	0.	-1.9598
286	6.837	4.1818	0.	-6.0652
287	6.837	4.	0.	-38.821
288	6.837	3.8182	0.	-85.931
289	6.837	3.6364	0.	-127.9
290	6.837	3.4545	0.	-160.63
291	6.837	3.2727	0.	-182.6
292	6.837	3.0909	0.	-193.52
293	6.837	2.9091	0.	-193.52
294	6.837	2.7273	0.	-182.6
295	6.837	2.5455	0.	-160.63
296	6.837	2.3636	0.	-127.9
297	6.837	2.1818	0.	-85.931
298	6.837	2.	0.	-38.821
299	6.837	1.8182	0.	-6.0653
300	6.837	1.6364	0.	-1.9598
301	6.837	1.4545	0.	-1.1062
302	6.837	1.2727	0.	-0.72417
303	6.837	1.0909	0.	-0.49465
304	6.837	0.90909	0.	-0.32808
305	6.837	0.72727	0.	-0.20104
306	6.837	0.54545	0.	-5.7126e-002
307	6.837	0.36364	0.	-0.13362
308	6.837	0.18182	0.	0.20461
309	6.6522	5.8182	0.	0.13603
310	6.6522	5.6364	0.	-0.11686
311	6.6522	5.4545	0.	-4.4686e-002
312	6.6522	5.2727	0.	-0.17445
313	6.6522	5.0909	0.	-0.30648
314	6.6522	4.9091	0.	-0.50229
315	6.6522	4.7273	0.	-0.82449
316	6.6522	4.5455	0.	-1.5501
317	6.6522	4.3636	0.	-5.0943
318	6.6522	4.1818	0.	-33.891
319	6.6522	4.	0.	-78.019
320	6.6522	3.8182	0.	-121.35
321	6.6522	3.6364	0.	-159.49
322	6.6522	3.4545	0.	-189.7
323	6.6522	3.2727	0.	-210.39
324	6.6522	3.0909	0.	-220.85
325	6.6522	2.9091	0.	-220.85
326	6.6522	2.7273	0.	-210.39
327	6.6522	2.5455	0.	-189.7
328	6.6522	2.3636	0.	-159.49
329	6.6522	2.1818	0.	-121.35
330	6.6522	2.	0.	-78.02
331	6.6522	1.8182	0.	-33.891
332	6.6522	1.6364	0.	-5.0943
333	6.6522	1.4545	0.	-1.5501
334	6.6522	1.2727	0.	-0.82449
335	6.6522	1.0909	0.	-0.50229
336	6.6522	0.90909	0.	-0.30648
337	6.6522	0.72727	0.	-0.17445
338	6.6522	0.54545	0.	-4.4685e-002
339	6.6522	0.36364	0.	-0.11686
340	6.6522	0.18182	0.	0.13603
341	6.4674	5.8182	0.	9.3908e-002
342	6.4674	5.6364	0.	-9.753e-002
343	6.4674	5.4545	0.	-4.4817e-002
344	6.4674	5.2727	0.	-0.17166
345	6.4674	5.0909	0.	-0.32762
346	6.4674	4.9091	0.	-0.60411
347	6.4674	4.7273	0.	-1.25
348	6.4674	4.5455	0.	-4.8174
349	6.4674	4.3636	0.	-31.386
350	6.4674	4.1818	0.	-70.877
351	6.4674	4.	0.	-112.15
352	6.4674	3.8182	0.	-151.58
353	6.4674	3.6364	0.	-186.27
354	6.4674	3.4545	0.	-213.95
355	6.4674	3.2727	0.	-233.11
356	6.4674	3.0909	0.	-242.88
357	6.4674	2.9091	0.	-242.88
358	6.4674	2.7273	0.	-233.11
359	6.4674	2.5455	0.	-213.95
360	6.4674	2.3636	0.	-186.27
361	6.4674	2.1818	0.	-151.58
362	6.4674	2.	0.	-112.15
363	6.4674	1.8182	0.	-70.877
364	6.4674	1.6364	0.	-31.386
365	6.4674	1.4545	0.	-4.8174
366	6.4674	1.2727	0.	-1.25
367	6.4674	1.0909	0.	-0.60411
368	6.4674	0.90909	0.	-0.32762
369	6.4674	0.72727	0.	-0.17166
370	6.4674	0.54545	0.	-4.4816e-002
371	6.4674	0.36364	0.	-9.7528e-002
372	6.4674	0.18182	0.	9.3909e-002
373	6.2826	5.8182	0.	7.178e-002
374	6.2826	5.6364	0.	-7.9812e-002
375	6.2826	5.4545	0.	-6.0793e-002
376	6.2826	5.2727	0.	-0.20627
377	6.2826	5.0909	0.	-0.44573
378	6.2826	4.9091	0.	-1.0894
379	6.2826	4.7273	0.	-5.9238
380	6.2826	4.5455	0.	-31.741
381	6.2826	4.3636	0.	-66.452
382	6.2826	4.1818	0.	-104.23
383	6.2826	4.	0.	-142.42
384	6.2826	3.8182	0.	-178.49
385	6.2826	3.6364	0.	-210.15
386	6.2826	3.4545	0.	-235.48
387	6.2826	3.2727	0.	-253.09
388	6.2826	3.0909	0.	-262.11
389	6.2826	2.9091	0.	-262.11
390	6.2826	2.7273	0.	-253.09
391	6.2826	2.5455	0.	-235.48
392	6.2826	2.3636	0.	-210.15
393	6.2826	2.1818	0.	-178.49
394	6.2826	2.	0.	-142.42
395	6.2826	1.8182	0.	-104.23
396	6.2826	1.6364	0.	-66.452
397	6.2826	1.4545	0.	-31.742
398	6.2826	1.2727	0.	-5.9238
399	6.2826	1.0909	0.	-1.0894
400	6.2826	0.90909	0.	-0.44573
401	6.2826	0.72727	0.	-0.20627
402	6.2826	0.54545	0.	-6.0793e-002
403	6.2826	0.36364	0.	-7.981e-002
404	6.2826	0.18182	0.	7.1782e-002
405	6.0978	5.8182	0.	6.1045e-002
406	6.0978	5.6364	0.	-7.2616e-002
407	6.0978	5.4545	0.	-0.11329
408	6.0978	5.2727	0.	-0.3607
409	6.0978	5.0909	0.	-1.2013
410	6.0978	4.9091	0.	-10.187
411	6.0978	4.7273	0.	-34.514
412	6.0978	4.5455	0.	-64.87
413	6.0978	4.3636	0.	-98.892
414	6.0978	4.1818	0.	-134.69
415	6.0978	4.	0.	-170.24
416	6.0978	3.8182	0.	-203.5
417	6.0978	3.6364	0.	-232.56
418	6.0978	3.4545	0.	-255.8
419	6.0978	3.2727	0.	-271.97
420	6.0978	3.0909	0.	-280.26
421	6.0978	2.9091	0.	-280.26
422	6.0978	2.7273	0.	-271.97
423	6.0978	2.5455	0.	-255.8
424	6.0978	2.3636	0.	-232.56
425	6.0978	2.1818	0.	-203.5
426	6.0978	2.	0.	-170.24
427	6.0978	1.8182	0.	-134.69
428	6.0978	1.6364	0.	-98.892
429	6.0978	1.4545	0.	-64.87
430	6.0978	1.2727	0.	-34.514
431	6.0978	1.0909	0.	-10.187
432	6.0978	0.90909	0.	-1.2013
433	6.0978	0.72727	0.	-0.3607
434	6.0978	0.54545	0.	-0.11329
435	6.0978	0.36364	0.	-7.2614e-002
436	6.0978	0.18182	0.	6.1046e-002
437	5.913	5.8182	0.	4.6453e-002
438	5.913	5.6364	0.	-0.11452
439	5.913	5.4545	0.	-0.39019
440	5.913	5.2727	0.	-2.9943
441	5.913	5.0909	0.	-17.109
442	5.913	4.9091	0.	-38.673
443	5.913	4.7273	0.	-65.373
444	5.913	4.5455	0.	-95.996
445	5.913	4.3636	0.	-129.16
446	5.913	4.1818	0.	-163.3
447	5.913	4.	0.	-196.7
448	5.913	3.8182	0.	-227.65
449	5.913	3.6364	0.	-254.55
450	5.913	3.4545	0.	-275.99
451	5.913	3.2727	0.	-290.9
452	5.913	3.0909	0.	-298.55
453	5.913	2.9091	0.	-298.55
454	5.913	2.7273	0.	-290.9
455	5.913	2.5455	0.	-275.99
456	5.913	2.3636	0.	-254.55
457	5.913	2.1818	0.	-227.65
458	5.913	2.	0.	-196.7
459	5.913	1.8182	0.	-163.3
460	5.913	1.6364	0.	-129.16
461	5.913	1.4545	0.	-95.996
462	5.913	1.2727	0.	-65.373
463	5.913	1.0909	0.	-38.673
464	5.913	0.90909	0.	-17.109
465	5.913	0.72727	0.	-2.9943
466	5.913	0.54545	0.	-0.39019
467	5.913	0.36364	0.	-0.11452
468	5.913	0.18182	0.	4.6454e-002
469	5.7283	5.8182	0.	-9.4545e-002
470	5.7283	5.6364	0.	-1.7078
471	5.7283	5.4545	0.	-9.5699
472	5.7283	5.2727	0.	-23.469
473	5.7283	5.0909	0.	-42.706
474	5.7283	4.9091	0.	-66.689
475	5.7283	4.7273	0.	-94.617
476	5.7283	4.5455	0.	-125.47
477	5.7283	4.3636	0.	-158.02
478	5.7283	4.1818	0.	-190.9
479	5.7283	4.	0.	-222.63
480	5.7283	3.8182	0.	-251.75
481	5.7283	3.6364	0.	-276.89
482	5.7283	3.4545	0.	-296.86
483	5.7283	3.2727	0.	-310.72
484	5.7283	3.0909	0.	-317.81
485	5.7283	2.9091	0.	-317.81
486	5.7283	2.7273	0.	-310.72
487	5.7283	2.5455	0.	-296.86
488	5.7283	2.3636	0.	-276.89
489	5.7283	2.1818	0.	-251.75
490	5.7283	2.	0.	-222.63
491	5.7283	1.8182	0.	-190.9
492	5.7283	1.6364	0.	-158.02
493	5.7283	1.4545	0.	-125.47
494	5.7283	1.2727	0.	-94.617
495	5.7283	1.0909	0.	-66.689
496	5.7283	0.90909	0.	-42.706
497	5.7283	0.72727	0.	-23.469
498	5.7283	0.54545	0.	-9.5699
499	5.7283	0.36364	0.	-1.7078
500	5.7283	0.18182	0.	-9.4543e-002
501	5.5435	5.8182	0.	-4.0341
502	5.5435	5.6364	0.	-13.092
503	5.5435	5.4545	0.	-26.656
504	5.5435	5.2727	0.	-44.776
505	5.5435	5.0909	0.	-67.185
506	5.5435	4.9091	0.	-93.359
507	5.5435	4.7273	0.	-122.56
508	5.5435	4.5455	0.	-153.84
509	5.5435	4.3636	0.	-186.11
510	5.5435	4.1818	0.	-218.14
511	5.5435	4.	0.	-248.66
512	5.5435	3.8182	0.	-276.4
513	5.5435	3.6364	0.	-300.19
514	5.5435	3.4545	0.	-319.
515	5.5435	3.2727	0.	-332.01
516	5.5435	3.0909	0.	-338.66
517	5.5435	2.9091	0.	-338.66
518	5.5435	2.7273	0.	-332.01
519	5.5435	2.5455	0.	-319.
520	5.5435	2.3636	0.	-300.19
521	5.5435	2.1818	0.	-276.4
522	5.5435	2.	0.	-248.66
523	5.5435	1.8182	0.	-218.14
524	5.5435	1.6364	0.	-186.11
525	5.5435	1.4545	0.	-153.84
526	5.5435	1.2727	0.	-122.56
527	5.5435	1.0909	0.	-93.359
528	5.5435	0.90909	0.	-67.185
529	5.5435	0.72727	0.	-44.776
530	5.5435	0.54545	0.	-26.656
531	5.5435	0.36364	0.	-13.092
532	5.5435	0.18182	0.	-4.0341
533	5.3587	5.8182	0.	-9.5598
534	5.3587	5.6364	0.	-24.431
535	5.3587	5.4545	0.	-42.898
536	5.3587	5.2727	0.	-65.016
537	5.3587	5.0909	0.	-90.539
538	5.3587	4.9091	0.	-118.97
539	5.3587	4.7273	0.	-149.6
540	5.3587	4.5455	0.	-181.59
541	5.3587	4.3636	0.	-213.93
542	5.3587	4.1818	0.	-245.53
543	5.3587	4.	0.	-275.29
544	5.3587	3.8182	0.	-302.09
545	5.3587	3.6364	0.	-324.91
546	5.3587	3.4545	0.	-342.86
547	5.3587	3.2727	0.	-355.24
548	5.3587	3.0909	0.	-361.56
549	5.3587	2.9091	0.	-361.56
550	5.3587	2.7273	0.	-355.24
551	5.3587	2.5455	0.	-342.86
552	5.3587	2.3636	0.	-324.91
553	5.3587	2.1818	0.	-302.09
554	5.3587	2.	0.	-275.29
555	5.3587	1.8182	0.	-245.53
556	5.3587	1.6364	0.	-213.93
557	5.3587	1.4545	0.	-181.59
558	5.3587	1.2727	0.	-149.6
559	5.3587	1.0909	0.	-118.97
560	5.3587	0.90909	0.	-90.539
561	5.3587	0.72727	0.	-65.016
562	5.3587	0.54545	0.	-42.898
563	5.3587	0.36364	0.	-24.431
564	5.3587	0.18182	0.	-9.5598
565	5.1739	5.8182	0.	-14.695
566	5.1739	5.6364	0.	-35.087
567	5.1739	5.4545	0.	-58.286
568	5.1739	5.2727	0.	-84.34
569	5.1739	5.0909	0.	-113.02
570	5.1739	4.9091	0.	-143.84
571	5.1739	4.7273	0.	-176.15
572	5.1739	4.5455	0.	-209.14
573	5.1739	4.3636	0.	-241.93
574	5.1739	4.1818	0.	-273.52
575	5.1739	4.	0.	-302.94
576	5.1739	3.8182	0.	-329.2
577	5.1739	3.6364	0.	-351.42
578	5.1739	3.4545	0.	-368.81
579	5.1739	3.2727	0.	-380.77
580	5.1739	3.0909	0.	-386.86
581	5.1739	2.9091	0.	-386.86
582	5.1739	2.7273	0.	-380.77
583	5.1739	2.5455	0.	-368.81
584	5.1739	2.3636	0.	-351.42
585	5.1739	2.1818	0.	-329.2
586	5.1739	2.	0.	-302.94
587	5.1739	1.8182	0.	-273.52
588	5.1739	1.6364	0.	-241.93
589	5.1739	1.4545	0.	-209.14
590	5.1739	1.2727	0.	-176.15
591	5.1739	1.0909	0.	-143.84
592	5.1739	0.90909	0.	-113.02
593	5.1739	0.72727	0.	-84.34
594	5.1739	0.54545	0.	-58.286
595	5.1739	0.36364	0.	-35.087
596	5.1739	0.18182	0.	-14.695
597	4.9891	5.8182	0.	-19.447
598	4.9891	5.6364	0.	-45.148
599	4.9891	5.4545	0.	-72.972
600	4.9891	5.2727	0.	-102.96
601	4.9891	5.0909	0.	-134.89
602	4.9891	4.9091	0.	-168.29
603	4.9891	4.7273	0.	-202.53
604	4.9891	4.5455	0.	-236.87
605	4.9891	4.3636	0.	-270.48
606	4.9891	4.1818	0.	-302.48
607	4.9891	4.	0.	-331.97
608	4.9891	3.8182	0.	-358.09
609	4.9891	3.6364	0.	-380.05
610	4.9891	3.4545	0.	-397.16
611	4.9891	3.2727	0.	-408.88
612	4.9891	3.0909	0.	-414.84
613	4.9891	2.9091	0.	-414.84
614	4.9891	2.7273	0.	-408.88
615	4.9891	2.5455	0.	-397.16
616	4.9891	2.3636	0.	-380.05
617	4.9891	2.1818	0.	-358.09
618	4.9891	2.	0.	-331.97
619	4.9891	1.8182	0.	-302.48
620	4.9891	1.6364	0.	-270.48
621	4.9891	1.4545	0.	-236.87
622	4.9891	1.2727	0.	-202.53
623	4.9891	1.0909	0.	-168.29
624	4.9891	0.90909	0.	-134.89
625	4.9891	0.72727	0.	-102.96
626	4.9891	0.54545	0.	-72.972
627	4.9891	0.36364	0.	-45.148
628	4.9891	0.18182	0.	-19.447
629	4.8043	5.8182	0.	-23.85
630	4.8043	5.6364	0.	-54.719
631	4.8043	5.4545	0.	-87.122
632	4.8043	5.2727	0.	-121.1
633	4.8043	5.0909	0.	-156.42
634	4.8043	4.9091	0.	-192.61
635	4.8043	4.7273	0.	-229.07
636	4.8043	4.5455	0.	-265.1
637	4.8043	4.3636	0.	-299.92
638	4.8043	4.1818	0.	-332.72
639	4.8043	4.	0.	-362.68
640	4.8043	3.8182	0.	-389.04
641	4.8043	3.6364	0.	-411.06
642	4.8043	3.4545	0.	-428.16
643	4.8043	3.2727	0.	-439.83
644	4.8043	3.0909	0.	-445.76
645	4.8043	2.9091	0.	-445.76
646	4.8043	2.7273	0.	-439.83
647	4.8043	2.5455	0.	-428.16
648	4.8043	2.3636	0.	-411.06
649	4.8043	2.1818	0.	-389.04
650	4.8043	2.	0.	-362.68
651	4.8043	1.8182	0.	-332.72
652	4.8043	1.6364	0.	-299.92
653	4.8043	1.4545	0.	-265.1
654	4.8043	1.2727	0.	-229.07
655	4.8043	1.0909	0.	-192.61
656	4.8043	0.90909	0.	-156.42
657	4.8043	0.72727	0.	-121.1
658	4.8043	0.54545	0.	-87.122
659	4.8043	0.36364	0.	-54.719
660	4.8043	0.18182	0.	-23.85
661	4.6196	5.8182	0.	-27.931
662	4.6196	5.6364	0.	-63.901
663	4.6196	5.4545	0.	-100.89
664	4.6196	5.2727	0.	-138.95
665	4.6196	5.0909	0.	-177.85
666	4.6196	4.9091	0.	-217.08
667	4.6196	4.7273	0.	-256.08
668	4.6196	4.5455	0.	-294.15
669	4.6196	4.3636	0.	-330.56
670	4.6196	4.1818	0.	-364.56
671	4.6196	4.	0.	-395.38
672	4.6196	3.8182	0.	-422.32
673	4.6196	3.6364	0.	-444.73
674	4.6196	3.4545	0.	-462.05
675	4.6196	3.2727	0.	-473.85
676	4.6196	3.0909	0.	-479.83
677	4.6196	2.9091	0.	-479.83
678	4.6196	2.7273	0.	-473.85
679	4.6196	2.5455	0.	-462.05
680	4.6196	2.3636	0.	-444.73
681	4.6196	2.1818	0.	-422.32
682	4.6196	2.	0.	-395.38
683	4.6196	1.8182	0.	-364.56
684	4.6196	1.6364	0.	-330.56
685	4.6196	1.4545	0.	-294.15
686	4.6196	1.2727	0.	-256.08
687	4.6196	1.0909	0.	-217.08
688	4.6196	0.90909	0.	-177.85
689	4.6196	0.72727	0.	-138.95
690	4.6196	0.54545	0.	-100.89
691	4.6196	0.36364	0.	-63.901
692	4.6196	0.18182	0.	-27.931
693	4.4348	5.8182	0.	-31.706
694	4.4348	5.6364	0.	-72.783
695	4.4348	5.4545	0.	-114.43
696	4.4348	5.2727	0.	-156.72
697	4.4348	5.0909	0.	-199.41
698	4.4348	4.9091	0.	-241.97
699	4.4348	4.7273	0.	-283.83
700	4.4348	4.5455	0.	-324.3
701	4.4348	4.3636	0.	-362.69
702	4.4348	4.1818	0.	-398.27
703	4.4348	4.	0.	-430.33
704	4.4348	3.8182	0.	-458.21
705	4.4348	3.6364	0.	-481.29
706	4.4348	3.4545	0.	-499.07
707	4.4348	3.2727	0.	-511.16
708	4.4348	3.0909	0.	-517.27
709	4.4348	2.9091	0.	-517.27
710	4.4348	2.7273	0.	-511.16
711	4.4348	2.5455	0.	-499.07
712	4.4348	2.3636	0.	-481.29
713	4.4348	2.1818	0.	-458.21
714	4.4348	2.	0.	-430.33
715	4.4348	1.8182	0.	-398.27
716	4.4348	1.6364	0.	-362.69
717	4.4348	1.4545	0.	-324.3
718	4.4348	1.2727	0.	-283.83
719	4.4348	1.0909	0.	-241.97
720	4.4348	0.90909	0.	-199.41
721	4.4348	0.72727	0.	-156.72
722	4.4348	0.54545	0.	-114.43
723	4.4348	0.36364	0.	-72.783
724	4.4348	0.18182	0.	-31.706
725	4.25	5.8182	0.	-35.182
726	4.25	5.6364	0.	-81.441
727	4.25	5.4545	0.	-127.87
728	4.25	5.2727	0.	-174.59
729	4.25	5.0909	0.	-221.32
730	4.25	4.9091	0.	-267.52
731	4.25	4.7273	0.	-312.58
732	4.25	4.5455	0.	-355.85
733	4.25	4.3636	0.	-396.6
734	4.25	4.1818	0.	-434.15
735	4.25	4.	0.	-467.81
736	4.25	3.8182	0.	-496.94
737	4.25	3.6364	0.	-520.98
738	4.25	3.4545	0.	-539.44
739	4.25	3.2727	0.	-551.97
740	4.25	3.0909	0.	-558.3
741	4.25	2.9091	0.	-558.3
742	4.25	2.7273	0.	-551.97
743	4.25	2.5455	0.	-539.44
744	4.25	2.3636	0.	-520.98
745	4.25	2.1818	0.	-496.94
746	4.25	2.	0.	-467.81
747	4.25	1.8182	0.	-434.15
748	4.25	1.6364	0.	-396.6
749	4.25	1.4545	0.	-355.85
750	4.25	1.2727	0.	-312.58
751	4.25	1.0909	0.	-267.52
752	4.25	0.90909	0.	-221.32
753	4.25	0.72727	0.	-174.59
754	4.25	0.54545	0.	-127.87
755	4.25	0.36364	0.	-81.441
756	4.25	0.18182	0.	-35.182
757	4.0652	5.8182	0.	-38.353
758	4.0652	5.6364	0.	-89.94
759	4.0652	5.4545	0.	-141.33
760	4.0652	5.2727	0.	-192.72
761	4.0652	5.0909	0.	-243.79
762	4.0652	4.9091	0.	-293.97
763	4.0652	4.7273	0.	-342.62
764	4.0652	4.5455	0.	-389.05
765	4.0652	4.3636	0.	-432.56
766	4.0652	4.1818	0.	-472.46
767	4.0652	4.	0.	-508.07
768	4.0652	3.8182	0.	-538.77
769	4.0652	3.6364	0.	-564.03
770	4.0652	3.4545	0.	-583.39
771	4.0652	3.2727	0.	-596.5
772	4.0652	3.0909	0.	-603.11
773	4.0652	2.9091	0.	-603.11
774	4.0652	2.7273	0.	-596.5
775	4.0652	2.5455	0.	-583.39
776	4.0652	2.3636	0.	-564.03
777	4.0652	2.1818	0.	-538.77
778	4.0652	2.	0.	-508.07
779	4.0652	1.8182	0.	-472.46
780	4.0652	1.6364	0.	-432.56
781	4.0652	1.4545	0.	-389.05
782	4.0652	1.2727	0.	-342.62
783	4.0652	1.0909	0.	-293.97
784	4.0652	0.90909	0.	-243.79
785	4.0652	0.72727	0.	-192.72
786	4.0652	0.54545	0.	-141.33
787	4.0652	0.36364	0.	-89.94
788	4.0652	0.18182	0.	-38.353
789	3.8804	5.8182	0.	-41.204
790	3.8804	5.6364	0.	-98.33
791	3.8804	5.4545	0.	-154.92
792	3.8804	5.2727	0.	-211.27
793	3.8804	5.0909	0.	-267.02
794	3.8804	4.9091	0.	-321.55
795	3.8804	4.7273	0.	-374.18
796	3.8804	4.5455	0.	-424.19
797	3.8804	4.3636	0.	-470.86
798	3.8804	4.1818	0.	-513.48
799	3.8804	4.	0.	-551.38
800	3.8804	3.8182	0.	-583.97
801	3.8804	3.6364	0.	-610.7
802	3.8804	3.4545	0.	-631.15
803	3.8804	3.2727	0.	-644.97
804	3.8804	3.0909	0.	-651.94
805	3.8804	2.9091	0.	-651.94
806	3.8804	2.7273	0.	-644.97
807	3.8804	2.5455	0.	-631.15
808	3.8804	2.3636	0.	-610.7
809	3.8804	2.1818	0.	-583.97
810	3.8804	2.	0.	-551.38
811	3.8804	1.8182	0.	-513.48
812	3.8804	1.6364	0.	-470.86
813	3.8804	1.4545	0.	-424.19
814	3.8804	1.2727	0.	-374.18
815	3.8804	1.0909	0.	-321.55
816	3.8804	0.90909	0.	-267.02
817	3.8804	0.72727	0.	-211.27
818	3.8804	0.54545	0.	-154.92
819	3.8804	0.36364	0.	-98.33
820	3.8804	0.18182	0.	-41.204
821	3.6957	5.8182	0.	-43.706
822	3.6957	5.6364	0.	-106.65
823	3.6957	5.4545	0.	-168.75
824	3.6957	5.2727	0.	-230.4
825	3.6957	5.0909	0.	-291.22
826	3.6957	4.9091	0.	-350.51
827	3.6957	4.7273	0.	-407.54
828	3.6957	4.5455	0.	-461.55
829	3.6957	4.3636	0.	-511.77
830	3.6957	4.1818	0.	-557.49
831	3.6957	4.	0.	-598.03
832	3.6957	3.8182	0.	-632.78
833	3.6957	3.6364	0.	-661.23
834	3.6957	3.4545	0.	-682.95
835	3.6957	3.2727	0.	-697.61
836	3.6957	3.0909	0.	-705.
837	3.6957	2.9091	0.	-705.
838	3.6957	2.7273	0.	-697.61
839	3.6957	2.5455	0.	-682.95
840	3.6957	2.3636	0.	-661.23
841	3.6957	2.1818	0.	-632.78
842	3.6957	2.	0.	-598.03
843	3.6957	1.8182	0.	-557.49
844	3.6957	1.6364	0.	-511.77
845	3.6957	1.4545	0.	-461.55
846	3.6957	1.2727	0.	-407.54
847	3.6957	1.0909	0.	-350.51
848	3.6957	0.90909	0.	-291.22
849	3.6957	0.72727	0.	-230.4
850	3.6957	0.54545	0.	-168.75
851	3.6957	0.36364	0.	-106.65
852	3.6957	0.18182	0.	-43.706
853	3.5109	5.8182	0.	-45.82
854	3.5109	5.6364	0.	-114.94
855	3.5109	5.4545	0.	-182.89
856	3.5109	5.2727	0.	-250.26
857	3.5109	5.0909	0.	-316.58
858	3.5109	4.9091	0.	-381.1
859	3.5109	4.7273	0.	-442.98
860	3.5109	4.5455	0.	-501.42
861	3.5109	4.3636	0.	-555.62
862	3.5109	4.1818	0.	-604.8
863	3.5109	4.	0.	-648.3
864	3.5109	3.8182	0.	-685.5
865	3.5109	3.6364	0.	-715.88
866	3.5109	3.4545	0.	-739.03
867	3.5109	3.2727	0.	-754.64
868	3.5109	3.0909	0.	-762.5
869	3.5109	2.9091	0.	-762.5
870	3.5109	2.7273	0.	-754.64
871	3.5109	2.5455	0.	-739.03
872	3.5109	2.3636	0.	-715.88
873	3.5109	2.1818	0.	-685.5
874	3.5109	2.	0.	-648.3
875	3.5109	1.8182	0.	-604.8
876	3.5109	1.6364	0.	-555.62
877	3.5109	1.4545	0.	-501.42
878	3.5109	1.2727	0.	-442.98
879	3.5109	1.0909	0.	-381.1
880	3.5109	0.90909	0.	-316.58
881	3.5109	0.72727	0.	-250.26
882	3.5109	0.54545	0.	-182.89
883	3.5109	0.36364	0.	-114.94
884	3.5109	0.18182	0.	-45.82
885	3.3261	5.8182	0.	-47.495
886	3.3261	5.6364	0.	-123.22
887	3.3261	5.4545	0.	-197.46
888	3.3261	5.2727	0.	-271.01
889	3.3261	5.0909	0.	-343.34
890	3.3261	4.9091	0.	-413.57
891	3.3261	4.7273	0.	-480.8
892	3.3261	4.5455	0.	-544.14
893	3.3261	4.3636	0.	-602.71
894	3.3261	4.1818	0.	-655.73
895	3.3261	4.	0.	-702.49
896	3.3261	3.8182	0.	-742.38
897	3.3261	3.6364	0.	-774.89
898	3.3261	3.4545	0.	-799.62
899	3.3261	3.2727	0.	-816.27
900	3.3261	3.0909	0.	-824.65
901	3.3261	2.9091	0.	-824.65
902	3.3261	2.7273	0.	-816.27
903	3.3261	2.5455	0.	-799.62
904	3.3261	2.3636	0.	-774.89
905	3.3261	2.1818	0.	-742.38
906	3.3261	2.	0.	-702.49
907	3.3261	1.8182	0.	-655.73
908	3.3261	1.6364	0.	-602.71
909	3.3261	1.4545	0.	-544.14
910	3.3261	1.2727	0.	-480.8
911	3.3261	1.0909	0.	-413.57
912	3.3261	0.90909	0.	-343.34
913	3.3261	0.72727	0.	-271.01
914	3.3261	0.54545	0.	-197.46
915	3.3261	0.36364	0.	-123.22
916	3.3261	0.18182	0.	-47.495
917	3.1413	5.8182	0.	-48.667
918	3.1413	5.6364	0.	-131.5
919	3.1413	5.4545	0.	-212.55
920	3.1413	5.2727	0.	-292.82
921	3.1413	5.0909	0.	-371.73
922	3.1413	4.9091	0.	-448.24
923	3.1413	4.7273	0.	-521.35
924	3.1413	4.5455	0.	-590.05
925	3.1413	4.3636	0.	-653.41
926	3.1413	4.1818	0.	-710.62
927	3.1413	4.	0.	-760.92
928	3.1413	3.8182	0.	-803.72
929	3.1413	3.6364	0.	-838.53
930	3.1413	3.4545	0.	-864.95
931	3.1413	3.2727	0.	-882.71
932	3.1413	3.0909	0.	-891.64
933	3.1413	2.9091	0.	-891.64
934	3.1413	2.7273	0.	-882.71
935	3.1413	2.5455	0.	-864.95
936	3.1413	2.3636	0.	-838.53
937	3.1413	2.1818	0.	-803.72
938	3.1413	2.	0.	-760.92
939	3.1413	1.8182	0.	-710.62
940	3.1413	1.6364	0.	-653.41
941	3.1413	1.4545	0.	-590.05
942	3.1413	1.2727	0.	-521.35
943	3.1413	1.0909	0.	-448.24
944	3.1413	0.90909	0.	-371.73
945	3.1413	0.72727	0.	-292.82
946	3.1413	0.54545	0.	-212.55
947	3.1413	0.36364	0.	-131.5
948	3.1413	0.18182	0.	-48.667
949	2.9565	5.8182	0.	-49.263
950	2.9565	5.6364	0.	-139.8
951	2.9565	5.4545	0.	-228.26
952	2.9565	5.2727	0.	-315.92
953	2.9565	5.0909	0.	-402.04
954	2.9565	4.9091	0.	-485.46
955	2.9565	4.7273	0.	-565.
956	2.9565	4.5455	0.	-639.56
957	2.9565	4.3636	0.	-708.14
958	2.9565	4.1818	0.	-769.84
959	2.9565	4.	0.	-823.94
960	2.9565	3.8182	0.	-869.82
961	2.9565	3.6364	0.	-907.03
962	2.9565	3.4545	0.	-935.22
963	2.9565	3.2727	0.	-954.14
964	2.9565	3.0909	0.	-963.64
965	2.9565	2.9091	0.	-963.64
966	2.9565	2.7273	0.	-954.14
967	2.9565	2.5455	0.	-935.22
968	2.9565	2.3636	0.	-907.03
969	2.9565	2.1818	0.	-869.82
970	2.9565	2.	0.	-823.94
971	2.9565	1.8182	0.	-769.84
972	2.9565	1.6364	0.	-708.14
973	2.9565	1.4545	0.	-639.56
974	2.9565	1.2727	0.	-565.
975	2.9565	1.0909	0.	-485.46
976	2.9565	0.90909	0.	-402.04
977	2.9565	0.72727	0.	-315.92
978	2.9565	0.54545	0.	-228.26
979	2.9565	0.36364	0.	-139.8
980	2.9565	0.18182	0.	-49.263
981	2.7717	5.8182	0.	-49.199
982	2.7717	5.6364	0.	-148.15
983	2.7717	5.4545	0.	-244.75
984	2.7717	5.2727	0.	-340.53
985	2.7717	5.0909	0.	-434.63
986	2.7717	4.9091	0.	-525.64
987	2.7717	4.7273	0.	-612.24
988	2.7717	4.5455	0.	-693.17
989	2.7717	4.3636	0.	-767.33
990	2.7717	4.1818	0.	-833.82
991	2.7717	4.	0.	-891.89
992	2.7717	3.8182	0.	-940.97
993	2.7717	3.6364	0.	-980.64
994	2.7717	3.4545	0.	-1010.6
995	2.7717	3.2727	0.	-1030.7
996	2.7717	3.0909	0.	-1040.8
997	2.7717	2.9091	0.	-1040.8
998	2.7717	2.7273	0.	-1030.7
999	2.7717	2.5455	0.	-1010.6
1000	2.7717	2.3636	0.	-980.64
1001	2.7717	2.1818	0.	-940.97
1002	2.7717	2.	0.	-891.89
1003	2.7717	1.8182	0.	-833.82
1004	2.7717	1.6364	0.	-767.33
1005	2.7717	1.4545	0.	-693.17
1006	2.7717	1.2727	0.	-612.24
1007	2.7717	1.0909	0.	-525.64
1008	2.7717	0.90909	0.	-434.63
1009	2.7717	0.72727	0.	-340.53
1010	2.7717	0.54545	0.	-244.75
1011	2.7717	0.36364	0.	-148.15
1012	2.7717	0.18182	0.	-49.199
1013	2.587	5.8182	0.	-48.386
1014	2.587	5.6364	0.	-156.59
1015	2.587	5.4545	0.	-262.19
1016	2.587	5.2727	0.	-367.
1017	2.587	5.0909	0.	-469.94
1018	2.587	4.9091	0.	-569.33
1019	2.587	4.7273	0.	-663.63
1020	2.587	4.5455	0.	-751.43
1021	2.587	4.3636	0.	-831.54
1022	2.587	4.1818	0.	-903.02
1023	2.587	4.	0.	-965.16
1024	2.587	3.8182	0.	-1017.5
1025	2.587	3.6364	0.	-1059.6
1026	2.587	3.4545	0.	-1091.3
1027	2.587	3.2727	0.	-1112.5
1028	2.587	3.0909	0.	-1123.1
1029	2.587	2.9091	0.	-1123.1
1030	2.587	2.7273	0.	-1112.5
1031	2.587	2.5455	0.	-1091.3
1032	2.587	2.3636	0.	-1059.6
1033	2.587	2.1818	0.	-1017.5
1034	2.587	2.	0.	-965.16
1035	2.587	1.8182	0.	-903.02
1036	2.587	1.6364	0.	-831.54
1037	2.587	1.4545	0.	-751.43
1038	2.587	1.2727	0.	-663.63
1039	2.587	1.0909	0.	-569.33
1040	2.587	0.90909	0.	-469.94
1041	2.587	0.72727	0.	-367.
1042	2.587	0.54545	0.	-262.19
1043	2.587	0.36364	0.	-156.59
1044	2.587	0.18182	0.	-48.386
1045	2.4022	5.8182	0.	-46.73
1046	2.4022	5.6364	0.	-165.15
1047	2.4022	5.4545	0.	-280.82
1048	2.4022	5.2727	0.	-395.75
1049	2.4022	5.0909	0.	-508.55
1050	2.4022	4.9091	0.	-617.21
1051	2.4022	4.7273	0.	-719.9
1052	2.4022	4.5455	0.	-815.04
1053	2.4022	4.3636	0.	-901.37
1054	2.4022	4.1818	0.	-977.95
1055	2.4022	4.	0.	-1044.1
1056	2.4022	3.8182	0.	-1099.5
1057	2.4022	3.6364	0.	-1143.9
1058	2.4022	3.4545	0.	-1177.2
1059	2.4022	3.2727	0.	-1199.4
1060	2.4022	3.0909	0.	-1210.5
1061	2.4022	2.9091	0.	-1210.5
1062	2.4022	2.7273	0.	-1199.4
1063	2.4022	2.5455	0.	-1177.2
1064	2.4022	2.3636	0.	-1143.9
1065	2.4022	2.1818	0.	-1099.5
1066	2.4022	2.	0.	-1044.1
1067	2.4022	1.8182	0.	-977.95
1068	2.4022	1.6364	0.	-901.37
1069	2.4022	1.4545	0.	-815.04
1070	2.4022	1.2727	0.	-719.9
1071	2.4022	1.0909	0.	-617.21
1072	2.4022	0.90909	0.	-508.55
1073	2.4022	0.72727	0.	-395.75
1074	2.4022	0.54545	0.	-280.82
1075	2.4022	0.36364	0.	-165.15
1076	2.4022	0.18182	0.	-46.73
1077	2.2174	5.8182	0.	-44.151
1078	2.2174	5.6364	0.	-173.95
1079	2.2174	5.4545	0.	-301.
1080	2.2174	5.2727	0.	-427.37
1081	2.2174	5.0909	0.	-551.23
1082	2.2174	4.9091	0.	-670.15
1083	2.2174	4.7273	0.	-781.94
1084	2.2174	4.5455	0.	-884.84
1085	2.2174	4.3636	0.	-977.55
1086	2.2174	4.1818	0.	-1059.2
1087	2.2174	4.	0.	-1129.2
1088	2.2174	3.8182	0.	-1187.5
1089	2.2174	3.6364	0.	-1233.9
1090	2.2174	3.4545	0.	-1268.5
1091	2.2174	3.2727	0.	-1291.5
1092	2.2174	3.0909	0.	-1303.
1093	2.2174	2.9091	0.	-1303.
1094	2.2174	2.7273	0.	-1291.5
1095	2.2174	2.5455	0.	-1268.5
1096	2.2174	2.3636	0.	-1233.9
1097	2.2174	2.1818	0.	-1187.5
1098	2.2174	2.	0.	-1129.2
1099	2.2174	1.8182	0.	-1059.2
1100	2.2174	1.6364	0.	-977.55
1101	2.2174	1.4545	0.	-884.84
1102	2.2174	1.2727	0.	-781.94
1103	2.2174	1.0909	0.	-670.15
1104	2.2174	0.90909	0.	-551.23
1105	2.2174	0.72727	0.	-427.37
1106	2.2174	0.54545	0.	-301.
1107	2.2174	0.36364	0.	-173.95
1108	2.2174	0.18182	0.	-44.151
1109	2.0326	5.8182	0.	-40.601
1110	2.0326	5.6364	0.	-183.12
1111	2.0326	5.4545	0.	-323.23
1112	2.0326	5.2727	0.	-462.68
1113	2.0326	5.0909	0.	-599.05
1114	2.0326	4.9091	0.	-729.3
1115	2.0326	4.7273	0.	-850.89
1116	2.0326	4.5455	0.	-961.85
1117	2.0326	4.3636	0.	-1060.9
1118	2.0326	4.1818	0.	-1147.3
1119	2.0326	4.	0.	-1220.8
1120	2.0326	3.8182	0.	-1281.4
1121	2.0326	3.6364	0.	-1329.4
1122	2.0326	3.4545	0.	-1365.
1123	2.0326	3.2727	0.	-1388.5
1124	2.0326	3.0909	0.	-1400.3
1125	2.0326	2.9091	0.	-1400.3
1126	2.0326	2.7273	0.	-1388.5
1127	2.0326	2.5455	0.	-1365.
1128	2.0326	2.3636	0.	-1329.4
1129	2.0326	2.1818	0.	-1281.4
1130	2.0326	2.	0.	-1220.8
1131	2.0326	1.8182	0.	-1147.3
1132	2.0326	1.6364	0.	-1060.9
1133	2.0326	1.4545	0.	-961.85
1134	2.0326	1.2727	0.	-850.89
1135	2.0326	1.0909	0.	-729.3
1136	2.0326	0.90909	0.	-599.05
1137	2.0326	0.72727	0.	-462.68
1138	2.0326	0.54545	0.	-323.23
1139	2.0326	0.36364	0.	-183.12
1140	2.0326	0.18182	0.	-40.601
1141	1.8478	5.8182	0.	-36.122
1142	1.8478	5.6364	0.	-192.95
1143	1.8478	5.4545	0.	-348.25
1144	1.8478	5.2727	0.	-502.85
1145	1.8478	5.0909	0.	-653.44
1146	1.8478	4.9091	0.	-796.22
1147	1.8478	4.7273	0.	-928.18
1148	1.8478	4.5455	0.	-1047.3
1149	1.8478	4.3636	0.	-1152.3
1150	1.8478	4.1818	0.	-1242.9
1151	1.8478	4.	0.	-1319.1
1152	1.8478	3.8182	0.	-1381.4
1153	1.8478	3.6364	0.	-1430.3
1154	1.8478	3.4545	0.	-1466.3
1155	1.8478	3.2727	0.	-1490.1
1156	1.8478	3.0909	0.	-1501.8
1157	1.8478	2.9091	0.	-1501.8
1158	1.8478	2.7273	0.	-1490.1
1159	1.8478	2.5455	0.	-1466.3
1160	1.8478	2.3636	0.	-1430.3
1161	1.8478	2.1818	0.	-1381.4
1162	1.8478	2.	0.	-1319.1
1163	1.8478	1.8182	0.	-1242.9
1164	1.8478	1.6364	0.	-1152.3
1165	1.8478	1.4545	0.	-1047.3
1166	1.8478	1.2727	0.	-928.18
1167	1.8478	1.0909	0.	-796.22
1168	1.8478	0.90909	0.	-653.44
1169	1.8478	0.72727	0.	-502.85
1170	1.8478	0.54545	0.	-348.25
1171	1.8478	0.36364	0.	-192.95
1172	1.8478	0.18182	0.	-36.122
1173	1.663	5.8182	0.	-30.93
1174	1.663	5.6364	0.	-203.84
1175	1.663	5.4545	0.	-377.19
1176	1.663	5.2727	0.	-549.57
1177	1.663	5.0909	0.	-716.4
1178	1.663	4.9091	0.	-872.89
1179	1.663	4.7273	0.	-1015.6
1180	1.663	4.5455	0.	-1142.5
1181	1.663	4.3636	0.	-1252.8
1182	1.663	4.1818	0.	-1346.5
1183	1.663	4.	0.	-1424.4
1184	1.663	3.8182	0.	-1487.3
1185	1.663	3.6364	0.	-1536.2
1186	1.663	3.4545	0.	-1572.1
1187	1.663	3.2727	0.	-1595.5
1188	1.663	3.0909	0.	-1607.1
1189	1.663	2.9091	0.	-1607.1
1190	1.663	2.7273	0.	-1595.5
1191	1.663	2.5455	0.	-1572.1
1192	1.663	2.3636	0.	-1536.2
1193	1.663	2.1818	0.	-1487.3
1194	1.663	2.	0.	-1424.4
1195	1.663	1.8182	0.	-1346.5
1196	1.663	1.6364	0.	-1252.8
1197	1.663	1.4545	0.	-1142.5
1198	1.663	1.2727	0.	-1015.6
1199	1.663	1.0909	0.	-872.89
1200	1.663	0.90909	0.	-716.4
1201	1.663	0.72727	0.	-549.57
1202	1.663	0.54545	0.	-377.19
1203	1.663	0.36364	0.	-203.84
1204	1.663	0.18182	0.	-30.93
1205	1.4783	5.8182	0.	-25.57
1206	1.4783	5.6364	0.	-216.55
1207	1.4783	5.4545	0.	-411.81
1208	1.4783	5.2727	0.	-605.38
1209	1.4783	5.0909	0.	-790.78
1210	1.4783	4.9091	0.	-962.02
1211	1.4783	4.7273	0.	-1115.3
1212	1.4783	4.5455	0.	-1249.1
1213	1.4783	4.3636	0.	-1363.1
1214	1.4783	4.1818	0.	-1458.5
1215	1.4783	4.	0.	-1536.5
1216	1.4783	3.8182	0.	-1598.8
1217	1.4783	3.6364	0.	-1646.7
1218	1.4783	3.4545	0.	-1681.5
1219	1.4783	3.2727	0.	-1704.2
1220	1.4783	3.0909	0.	-1715.4
1221	1.4783	2.9091	0.	-1715.4
1222	1.4783	2.7273	0.	-1704.2
1223	1.4783	2.5455	0.	-1681.5
1224	1.4783	2.3636	0.	-1646.7
1225	1.4783	2.1818	0.	-1598.8
1226	1.4783	2.	0.	-1536.5
1227	1.4783	1.8182	0.	-1458.5
1228	1.4783	1.6364	0.	-1363.1
1229	1.4783	1.4545	0.	-1249.1
1230	1.4783	1.2727	0.	-1115.3
1231	1.4783	1.0909	0.	-962.02
1232	1.4783	0.90909	0.	-790.78
1233	1.4783	0.72727	0.	-605.38
1234	1.4783	0.54545	0.	-411.82
1235	1.4783	0.36364	0.	-216.55
1236	1.4783	0.18182	0.	-25.57
1237	1.2935	5.8182	0.	-20.75
1238	1.2935	5.6364	0.	-232.24
1239	1.2935	5.4545	0.	-454.81
1240	1.2935	5.2727	0.	-673.92
1241	1.2935	5.0909	0.	-880.34
1242	1.2935	4.9091	0.	-1066.8
1243	1.2935	4.7273	0.	-1229.6
1244	1.2935	4.5455	0.	-1368.3
1245	1.2935	4.3636	0.	-1483.9
1246	1.2935	4.1818	0.	-1578.6
1247	1.2935	4.	0.	-1654.9
1248	1.2935	3.8182	0.	-1714.9
1249	1.2935	3.6364	0.	-1760.7
1250	1.2935	3.4545	0.	-1793.6
1251	1.2935	3.2727	0.	-1815.
1252	1.2935	3.0909	0.	-1825.5
1253	1.2935	2.9091	0.	-1825.5
1254	1.2935	2.7273	0.	-1815.
1255	1.2935	2.5455	0.	-1793.6
1256	1.2935	2.3636	0.	-1760.7
1257	1.2935	2.1818	0.	-1714.9
1258	1.2935	2.	0.	-1654.9
1259	1.2935	1.8182	0.	-1578.6
1260	1.2935	1.6364	0.	-1483.9
1261	1.2935	1.4545	0.	-1368.3
1262	1.2935	1.2727	0.	-1229.6
1263	1.2935	1.0909	0.	-1066.8
1264	1.2935	0.90909	0.	-880.34
1265	1.2935	0.72727	0.	-673.92
1266	1.2935	0.54545	0.	-454.81
1267	1.2935	0.36364	0.	-232.24
1268	1.2935	0.18182	0.	-20.75
1269	1.1087	5.8182	0.	-17.528
1270	1.1087	5.6364	0.	-253.58
1271	1.1087	5.4545	0.	-511.34
1272	1.1087	5.2727	0.	-761.53
1273	1.1087	5.0909	0.	-991.08
1274	1.1087	4.9091	0.	-1191.9
1275	1.1087	4.7273	0.	-1361.6
1276	1.1087	4.5455	0.	-1501.8
1277	1.1087	4.3636	0.	-1615.6
1278	1.1087	4.1818	0.	-1707.
1279	1.1087	4.	0.	-1779.2
1280	1.1087	3.8182	0.	-1835.4
1281	1.1087	3.6364	0.	-1877.7
1282	1.1087	3.4545	0.	-1908.
1283	1.1087	3.2727	0.	-1927.6
1284	1.1087	3.0909	0.	-1937.1
1285	1.1087	2.9091	0.	-1937.1
1286	1.1087	2.7273	0.	-1927.6
1287	1.1087	2.5455	0.	-1908.
1288	1.1087	2.3636	0.	-1877.7
1289	1.1087	2.1818	0.	-1835.4
1290	1.1087	2.	0.	-1779.2
1291	1.1087	1.8182	0.	-1707.
1292	1.1087	1.6364	0.	-1615.6
1293	1.1087	1.4545	0.	-1501.8
1294	1.1087	1.2727	0.	-1361.6
1295	1.1087	1.0909	0.	-1191.9
1296	1.1087	0.90909	0.	-991.08
1297	1.1087	0.72727	0.	-761.53
1298	1.1087	0.54545	0.	-511.34
1299	1.1087	0.36364	0.	-253.58
1300	1.1087	0.18182	0.	-17.528
1301	0.92391	5.8182	0.	-14.333
1302	0.92391	5.6364	0.	-283.39
1303	0.92391	5.4545	0.	-587.33
1304	0.92391	5.2727	0.	-874.56
1305	0.92391	5.0909	0.	-1127.3
1306	0.92391	4.9091	0.	-1338.6
1307	0.92391	4.7273	0.	-1509.9
1308	0.92391	4.5455	0.	-1646.4
1309	0.92391	4.3636	0.	-1754.3
1310	0.92391	4.1818	0.	-1838.9
1311	0.92391	4.	0.	-1904.8
1312	0.92391	3.8182	0.	-1955.4
1313	0.92391	3.6364	0.	-1993.2
1314	0.92391	3.4545	0.	-2020.2
1315	0.92391	3.2727	0.	-2037.5
1316	0.92391	3.0909	0.	-2045.9
1317	0.92391	2.9091	0.	-2045.9
1318	0.92391	2.7273	0.	-2037.5
1319	0.92391	2.5455	0.	-2020.2
1320	0.92391	2.3636	0.	-1993.2
1321	0.92391	2.1818	0.	-1955.4
1322	0.92391	2.	0.	-1904.8
1323	0.92391	1.8182	0.	-1838.9
1324	0.92391	1.6364	0.	-1754.3
1325	0.92391	1.4545	0.	-1646.4
1326	0.92391	1.2727	0.	-1509.9
1327	0.92391	1.0909	0.	-1338.6
1328	0.92391	0.90909	0.	-1127.3
1329	0.92391	0.72727	0.	-874.56
1330	0.92391	0.54545	0.	-587.33
1331	0.92391	0.36364	0.	-283.39
1332	0.92391	0.18182	0.	-14.333
1333	0.73913	5.8182	0.	-18.38
1334	0.73913	5.6364	0.	-336.88
1335	0.73913	5.4545	0.	-705.48
1336	0.73913	5.2727	0.	-1035.3
1337	0.73913	5.0909	0.	-1306.8
1338	0.73913	4.9091	0.	-1520.3
1339	0.73913	4.7273	0.	-1685.
1340	0.73913	4.5455	0.	-1811.4
1341	0.73913	4.3636	0.	-1908.7
1342	0.73913	4.1818	0.	-1983.7
1343	0.73913	4.	0.	-2041.3
1344	0.73913	3.8182	0.	-2085.2
1345	0.73913	3.6364	0.	-2117.8
1346	0.73913	3.4545	0.	-2141.
1347	0.73913	3.2727	0.	-2155.8
1348	0.73913	3.0909	0.	-2163.1
1349	0.73913	2.9091	0.	-2163.1
1350	0.73913	2.7273	0.	-2155.8
1351	0.73913	2.5455	0.	-2141.
1352	0.73913	2.3636	0.	-2117.8
1353	0.73913	2.1818	0.	-2085.2
1354	0.73913	2.	0.	-2041.3
1355	0.73913	1.8182	0.	-1983.7
1356	0.73913	1.6364	0.	-1908.7
1357	0.73913	1.4545	0.	-1811.4
1358	0.73913	1.2727	0.	-1685.
1359	0.73913	1.0909	0.	-1520.3
1360	0.73913	0.90909	0.	-1306.8
1361	0.73913	0.72727	0.	-1035.3
1362	0.73913	0.54545	0.	-705.48
1363	0.73913	0.36364	0.	-336.88
1364	0.73913	0.18182	0.	-18.38
1365	0.55435	5.8182	0.	-0.64534
1366	0.55435	5.6364	0.	-410.97
1367	0.55435	5.4545	0.	-858.47
1368	0.55435	5.2727	0.	-1221.6
1369	0.55435	5.0909	0.	-1493.1
1370	0.55435	4.9091	0.	-1691.4
1371	0.55435	4.7273	0.	-1837.
1372	0.55435	4.5455	0.	-1945.5
1373	0.55435	4.3636	0.	-2027.5
1374	0.55435	4.1818	0.	-2090.
1375	0.55435	4.	0.	-2137.9
1376	0.55435	3.8182	0.	-2174.2
1377	0.55435	3.6364	0.	-2201.2
1378	0.55435	3.4545	0.	-2220.3
1379	0.55435	3.2727	0.	-2232.6
1380	0.55435	3.0909	0.	-2238.6
1381	0.55435	2.9091	0.	-2238.6
1382	0.55435	2.7273	0.	-2232.6
1383	0.55435	2.5455	0.	-2220.3
1384	0.55435	2.3636	0.	-2201.2
1385	0.55435	2.1818	0.	-2174.2
1386	0.55435	2.	0.	-2137.9
1387	0.55435	1.8182	0.	-2090.
1388	0.55435	1.6364	0.	-2027.5
1389	0.55435	1.4545	0.	-1945.5
1390	0.55435	1.2727	0.	-1837.
1391	0.55435	1.0909	0.	-1691.4
1392	0.55435	0.90909	0.	-1493.1
1393	0.55435	0.72727	0.	-1221.6
1394	0.55435	0.54545	0.	-858.47
1395	0.55435	0.36364	0.	-410.97
1396	0.55435	0.18182	0.	-0.64535
1397	0.36957	5.8182	0.	-81.544
1398	0.36957	5.6364	0.	-658.29
1399	0.36957	5.4545	0.	-1217.4
1400	0.36957	5.2727	0.	-1591.2
1401	0.36957	5.0909	0.	-1839.7
1402	0.36957	4.9091	0.	-2010.1
1403	0.36957	4.7273	0.	-2131.8
1404	0.36957	4.5455	0.	-2221.7
1405	0.36957	4.3636	0.	-2289.5
1406	0.36957	4.1818	0.	-2341.4
1407	0.36957	4.	0.	-2381.2
1408	0.36957	3.8182	0.	-2411.5
1409	0.36957	3.6364	0.	-2434.
1410	0.36957	3.4545	0.	-2450.1
1411	0.36957	3.2727	0.	-2460.4
1412	0.36957	3.0909	0.	-2465.4
1413	0.36957	2.9091	0.	-2465.4
1414	0.36957	2.7273	0.	-2460.4
1415	0.36957	2.5455	0.	-2450.1
1416	0.36957	2.3636	0.	-2434.
1417	0.36957	2.1818	0.	-2411.5
1418	0.36957	2.	0.	-2381.2
1419	0.36957	1.8182	0.	-2341.4
1420	0.36957	1.6364	0.	-2289.5
1421	0.36957	1.4545	0.	-2221.7
1422	0.36957	1.2727	0.	-2131.8
1423	0.36957	1.0909	0.	-2010.1
1424	0.36957	0.90909	0.	-1839.7
1425	0.36957	0.72727	0.	-1591.2
1426	0.36957	0.54545	0.	-1217.4
1427	0.36957	0.36364	0.	-658.29
1428	0.36957	0.18182	0.	-81.544
1429	0.18478	5.8182	0.	2.369
1430	0.18478	5.6364	0.	-819.64
1431	0.18478	5.4545	0.	-1256.6
1432	0.18478	5.2727	0.	-1506.9
1433	0.18478	5.0909	0.	-1664.5
1434	0.18478	4.9091	0.	-1773.2
1435	0.18478	4.7273	0.	-1852.1
1436	0.18478	4.5455	0.	-1911.3
1437	0.18478	4.3636	0.	-1956.5
1438	0.18478	4.1818	0.	-1991.5
1439	0.18478	4.	0.	-2018.5
1440	0.18478	3.8182	0.	-2039.2
1441	0.18478	3.6364	0.	-2054.7
1442	0.18478	3.4545	0.	-2065.7
1443	0.18478	3.2727	0.	-2072.8
1444	0.18478	3.0909	0.	-2076.3
1445	0.18478	2.9091	0.	-2076.3
1446	0.18478	2.7273	0.	-2072.8
1447	0.18478	2.5455	0.	-2065.7
1448	0.18478	2.3636	0.	-2054.7
1449	0.18478	2.1818	0.	-2039.2
1450	0.18478	2.	0.	-2018.5
1451	0.18478	1.8182	0.	-1991.5
1452	0.18478	1.6364	0.	-1956.5
1453	0.18478	1.4545	0.	-1911.3
1454	0.18478	1.2727	0.	-1852.1
1455	0.18478	1.0909	0.	-1773.2
1456	0.18478	0.90909	0.	-1664.5
1457	0.18478	0.72727	0.	-1506.9
1458	0.18478	0.54545	0.	-1256.6
1459	0.18478	0.36364	0.	-819.64
1460	0.18478	0.18182	0.	2.3689
1461	8.8514	5.8182	0.	-21.064
1462	9.0361	5.8182	0.	-6.8169
1463	9.2209	5.8182	0.	-3.2447
1464	9.4056	5.8182	0.	-0.99538
1465	9.5904	5.8182	0.	-0.26337
1466	9.7751	5.8182	0.	4.5414e-002
1467	9.9598	5.8182	0.	0.1263
1468	10.145	5.8182	0.	0.12957
1469	10.329	5.8182	0.	0.10535
1470	10.514	5.8182	0.	7.796e-002
1471	10.699	5.8182	0.	5.4899e-002
1472	10.884	5.8182	0.	3.765e-002
1473	11.068	5.8182	0.	2.5239e-002
1474	11.253	5.8182	0.	1.6e-002
1475	11.438	5.8182	0.	8.175e-003
1476	11.622	5.8182	0.	2.8395e-004
1477	11.807	5.8182	0.	-8.8229e-003
1478	11.992	5.8182	0.	-1.986e-002
1479	12.177	5.8182	0.	-3.2612e-002
1480	12.361	5.8182	0.	-4.5637e-002
1481	12.546	5.8182	0.	-5.6372e-002
1482	12.731	5.8182	0.	-6.2285e-002
1483	12.916	5.8182	0.	-6.2509e-002
1484	13.1	5.8182	0.	-5.8124e-002
1485	13.285	5.8182	0.	-5.1197e-002
1486	13.47	5.8182	0.	-4.3612e-002
1487	13.655	5.8182	0.	-3.6474e-002
1488	13.839	5.8182	0.	-3.0254e-002
1489	14.024	5.8182	0.	-2.5097e-002
1490	14.209	5.8182	0.	-2.0874e-002
1491	14.394	5.8182	0.	-1.741e-002
1492	14.578	5.8182	0.	-1.4566e-002
1493	14.763	5.8182	0.	-1.2245e-002
1494	14.948	5.8182	0.	-1.0391e-002
1495	15.133	5.8182	0.	-8.8685e-003
1496	15.317	5.8182	0.	-7.5738e-003
1497	15.502	5.8182	0.	-6.4806e-003
1498	15.687	5.8182	0.	-5.5498e-003
1499	15.871	5.8182	0.	-4.754e-003
1500	16.056	5.8182	0.	-4.1065e-003
1501	16.241	5.8182	0.	-3.5507e-003
1502	16.426	5.8182	0.	-3.0442e-003
1503	16.61	5.8182	0.	-2.5757e-003
1504	16.795	5.8182	0.	-2.1656e-003
1505	16.98	5.8182	0.	-1.8313e-003
1506	17.165	5.8182	0.	-1.5349e-003
1507	17.349	5.8182	0.	-1.2642e-003
1508	17.534	5.8182	0.	-1.0201e-003
1509	17.719	5.8182	0.	-7.7941e-004
1510	17.904	5.8182	0.	-5.686e-004
1511	18.088	5.8182	0.	-4.1669e-004
1512	18.273	5.8182	0.	-2.8965e-004
1513	18.458	5.8182	0.	-1.7324e-004
1514	18.643	5.8182	0.	-6.6882e-005
1515	18.827	5.8182	0.	6.1443e-006
1516	19.012	5.8182	0.	2.0853e-005
1517	19.197	5.8182	0.	-1.4579e-006
1518	19.382	5.8182	0.	-6.3745e-005
1519	19.566	5.8182	0.	-1.7145e-004
1520	19.751	5.8182	0.	-3.2735e-004
1521	19.936	5.8182	0.	-5.5684e-004
1522	20.12	5.8182	0.	-8.9089e-004
1523	20.305	5.8182	0.	-1.3306e-003
1524	20.49	5.8182	0.	-1.8789e-003
1525	20.675	5.8182	0.	-2.5642e-003
1526	20.859	5.8182	0.	-3.4361e-003
1527	21.044	5.8182	0.	-4.5325e-003
1528	21.229	5.8182	0.	-5.8982e-003
1529	21.414	5.8182	0.	-7.5874e-003
1530	21.598	5.8182	0.	-9.6786e-003
1531	21.783	5.8182	0.	-1.2271e-002
1532	21.968	5.8182	0.	-1.55e-002
1533	22.153	5.8182	0.	-1.955e-002
1534	22.337	5.8182	0.	-2.4656e-002
1535	22.522	5.8182	0.	-3.1108e-002
1536	22.707	5.8182	0.	-3.9472e-002
1537	22.892	5.8182	0.	-5.0018e-002
1538	23.076	5.8182	0.	-6.5257e-002
1539	23.261	5.8182	0.	-8.0751e-002
1540	23.446	5.8182	0.	-0.12082
1541	23.631	5.8182	0.	-0.10952
1542	23.815	5.8182	0.	-0.50795
1543	8.8514	5.6364	0.	-10.495
1544	9.0361	5.6364	0.	-4.8285
1545	9.2209	5.6364	0.	-3.4812
1546	9.4056	5.6364	0.	-1.615
1547	9.5904	5.6364	0.	-0.93517
1548	9.7751	5.6364	0.	-0.57906
1549	9.9598	5.6364	0.	-0.41147
1550	10.145	5.6364	0.	-0.31223
1551	10.329	5.6364	0.	-0.24711
1552	10.514	5.6364	0.	-0.19862
1553	10.699	5.6364	0.	-0.16065
1554	10.884	5.6364	0.	-0.1305
1555	11.068	5.6364	0.	-0.1071
1556	11.253	5.6364	0.	-9.0234e-002
1557	11.438	5.6364	0.	-8.0792e-002
1558	11.622	5.6364	0.	-8.1975e-002
1559	11.807	5.6364	0.	-0.10609
1560	11.992	5.6364	0.	-0.2326
1561	12.177	5.6364	0.	-1.133
1562	12.361	5.6364	0.	-2.4715
1563	12.546	5.6364	0.	-3.3976
1564	12.731	5.6364	0.	-3.9062
1565	12.916	5.6364	0.	-4.0633
1566	13.1	5.6364	0.	-3.9339
1567	13.285	5.6364	0.	-3.5761
1568	13.47	5.6364	0.	-3.0395
1569	13.655	5.6364	0.	-2.3663
1570	13.839	5.6364	0.	-1.5917
1571	14.024	5.6364	0.	-0.74772
1572	14.209	5.6364	0.	-2.2429e-002
1573	14.394	5.6364	0.	1.2969e-002
1574	14.578	5.6364	0.	1.4304e-002
1575	14.763	5.6364	0.	1.3416e-002
1576	14.948	5.6364	0.	1.1929e-002
1577	15.133	5.6364	0.	1.0268e-002
1578	15.317	5.6364	0.	8.599e-003
1579	15.502	5.6364	0.	6.9526e-003
1580	15.687	5.6364	0.	5.3476e-003
1581	15.871	5.6364	0.	3.7924e-003
1582	16.056	5.6364	0.	2.251e-003
1583	16.241	5.6364	0.	7.5888e-004
1584	16.426	5.6364	0.	-6.5528e-004
1585	16.61	5.6364	0.	-2.0019e-003
1586	16.795	5.6364	0.	-3.3096e-003
1587	16.98	5.6364	0.	-4.6203e-003
1588	17.165	5.6364	0.	-5.8961e-003
1589	17.349	5.6364	0.	-7.1442e-003
1590	17.534	5.6364	0.	-8.3713e-003
1591	17.719	5.6364	0.	-9.5672e-003
1592	17.904	5.6364	0.	-1.0765e-002
1593	18.088	5.6364	0.	-1.2003e-002
1594	18.273	5.6364	0.	-1.3255e-002
1595	18.458	5.6364	0.	-1.4513e-002
1596	18.643	5.6364	0.	-1.5783e-002
1597	18.827	5.6364	0.	-1.7094e-002
1598	19.012	5.6364	0.	-1.8482e-002
1599	19.197	5.6364	0.	-1.9924e-002
1600	19.382	5.6364	0.	-2.1431e-002
1601	19.566	5.6364	0.	-2.3014e-002
1602	19.751	5.6364	0.	-2.467e-002
1603	19.936	5.6364	0.	-2.6434e-002
1604	20.12	5.6364	0.	-2.8334e-002
1605	20.305	5.6364	0.	-3.0363e-002
1606	20.49	5.6364	0.	-3.2529e-002
1607	20.675	5.6364	0.	-3.4847e-002
1608	20.859	5.6364	0.	-3.7346e-002
1609	21.044	5.6364	0.	-4.006e-002
1610	21.229	5.6364	0.	-4.2996e-002
1611	21.414	5.6364	0.	-4.6171e-002
1612	21.598	5.6364	0.	-4.9611e-002
1613	21.783	5.6364	0.	-5.333e-002
1614	21.968	5.6364	0.	-5.7359e-002
1615	22.153	5.6364	0.	-6.1711e-002
1616	22.337	5.6364	0.	-6.6374e-002
1617	22.522	5.6364	0.	-7.1248e-002
1618	22.707	5.6364	0.	-7.633e-002
1619	22.892	5.6364	0.	-8.0761e-002
1620	23.076	5.6364	0.	-8.5807e-002
1621	23.261	5.6364	0.	-8.1891e-002
1622	23.446	5.6364	0.	-9.5152e-002
1623	23.631	5.6364	0.	5.6983e-003
1624	23.815	5.6364	0.	-0.28525
1625	8.8514	5.4545	0.	-7.975
1626	9.0361	5.4545	0.	-2.7582
1627	9.2209	5.4545	0.	-3.0695
1628	9.4056	5.4545	0.	-1.8573
1629	9.5904	5.4545	0.	-1.266
1630	9.7751	5.4545	0.	-0.84301
1631	9.9598	5.4545	0.	-0.59555
1632	10.145	5.4545	0.	-0.43431
1633	10.329	5.4545	0.	-0.32987
1634	10.514	5.4545	0.	-0.26091
1635	10.699	5.4545	0.	-0.21688
1636	10.884	5.4545	0.	-0.19203
1637	11.068	5.4545	0.	-0.18505
1638	11.253	5.4545	0.	-0.20158
1639	11.438	5.4545	0.	-0.27099
1640	11.622	5.4545	0.	-0.60642
1641	11.807	5.4545	0.	-2.8218
1642	11.992	5.4545	0.	-5.8986
1643	12.177	5.4545	0.	-8.2646
1644	12.361	5.4545	0.	-9.895
1645	12.546	5.4545	0.	-10.888
1646	12.731	5.4545	0.	-11.35
1647	12.916	5.4545	0.	-11.376
1648	13.1	5.4545	0.	-11.053
1649	13.285	5.4545	0.	-10.454
1650	13.47	5.4545	0.	-9.6412
1651	13.655	5.4545	0.	-8.6686
1652	13.839	5.4545	0.	-7.5793
1653	14.024	5.4545	0.	-6.4093
1654	14.209	5.4545	0.	-5.1875
1655	14.394	5.4545	0.	-3.9368
1656	14.578	5.4545	0.	-2.6756
1657	14.763	5.4545	0.	-1.4182
1658	14.948	5.4545	0.	-0.18779
1659	15.133	5.4545	0.	6.3002e-005
1660	15.317	5.4545	0.	9.0937e-004
1661	15.502	5.4545	0.	7.1708e-004
1662	15.687	5.4545	0.	3.3998e-004
1663	15.871	5.4545	0.	-8.375e-005
1664	16.056	5.4545	0.	-5.5117e-004
1665	16.241	5.4545	0.	-1.0106e-003
1666	16.426	5.4545	0.	-1.4278e-003
1667	16.61	5.4545	0.	-1.8076e-003
1668	16.795	5.4545	0.	-2.1764e-003
1669	16.98	5.4545	0.	-2.5651e-003
1670	17.165	5.4545	0.	-2.9398e-003
1671	17.349	5.4545	0.	-3.2992e-003
1672	17.534	5.4545	0.	-3.6434e-003
1673	17.719	5.4545	0.	-3.9581e-003
1674	17.904	5.4545	0.	-4.2733e-003
1675	18.088	5.4545	0.	-4.6193e-003
1676	18.273	5.4545	0.	-4.965e-003
1677	18.458	5.4545	0.	-5.2962e-003
1678	18.643	5.4545	0.	-5.6127e-003
1679	18.827	5.4545	0.	-5.937e-003
1680	19.012	5.4545	0.	-6.2916e-003
1681	19.197	5.4545	0.	-6.6519e-003
1682	19.382	5.4545	0.	-7.0183e-003
1683	19.566	5.4545	0.	-7.3895e-003
1684	19.751	5.4545	0.	-7.7551e-003
1685	19.936	5.4545	0.	-8.1364e-003
1686	20.12	5.4545	0.	-8.5448e-003
1687	20.305	5.4545	0.	-8.966e-003
1688	20.49	5.4545	0.	-9.3772e-003
1689	20.675	5.4545	0.	-9.7808e-003
1690	20.859	5.4545	0.	-1.018e-002
1691	21.044	5.4545	0.	-1.0579e-002
1692	21.229	5.4545	0.	-1.0938e-002
1693	21.414	5.4545	0.	-1.1241e-002
1694	21.598	5.4545	0.	-1.1451e-002
1695	21.783	5.4545	0.	-1.151e-002
1696	21.968	5.4545	0.	-1.1355e-002
1697	22.153	5.4545	0.	-1.0868e-002
1698	22.337	5.4545	0.	-9.8805e-003
1699	22.522	5.4545	0.	-8.0488e-003
1700	22.707	5.4545	0.	-5.0653e-003
1701	22.892	5.4545	0.	4.5108e-004
1702	23.076	5.4545	0.	7.6729e-003
1703	23.261	5.4545	0.	2.8671e-002
1704	23.446	5.4545	0.	3.2005e-002
1705	23.631	5.4545	0.	0.18452
1706	23.815	5.4545	0.	-3.3686e-002
1707	8.8514	5.2727	0.	-7.0879
1708	9.0361	5.2727	0.	-1.5344
1709	9.2209	5.2727	0.	-2.6998
1710	9.4056	5.2727	0.	-1.9406
1711	9.5904	5.2727	0.	-1.5855
1712	9.7751	5.2727	0.	-1.2269
1713	9.9598	5.2727	0.	-0.97428
1714	10.145	5.2727	0.	-0.78751
1715	10.329	5.2727	0.	-0.65843
1716	10.514	5.2727	0.	-0.57509
1717	10.699	5.2727	0.	-0.53485
1718	10.884	5.2727	0.	-0.54725
1719	11.068	5.2727	0.	-0.66159
1720	11.253	5.2727	0.	-1.1635
1721	11.438	5.2727	0.	-3.9386
1722	11.622	5.2727	0.	-8.7361
1723	11.807	5.2727	0.	-12.818
1724	11.992	5.2727	0.	-15.878
1725	12.177	5.2727	0.	-18.
1726	12.361	5.2727	0.	-19.311
1727	12.546	5.2727	0.	-19.94
1728	12.731	5.2727	0.	-20.007
1729	12.916	5.2727	0.	-19.62
1730	13.1	5.2727	0.	-18.872
1731	13.285	5.2727	0.	-17.845
1732	13.47	5.2727	0.	-16.606
1733	13.655	5.2727	0.	-15.213
1734	13.839	5.2727	0.	-13.713
1735	14.024	5.2727	0.	-12.145
1736	14.209	5.2727	0.	-10.54
1737	14.394	5.2727	0.	-8.9223
1738	14.578	5.2727	0.	-7.3103
1739	14.763	5.2727	0.	-5.7188
1740	14.948	5.2727	0.	-4.1586
1741	15.133	5.2727	0.	-2.6376
1742	15.317	5.2727	0.	-1.1646
1743	15.502	5.2727	0.	-4.3781e-002
1744	15.687	5.2727	0.	-6.8364e-003
1745	15.871	5.2727	0.	-3.3049e-003
1746	16.056	5.2727	0.	-2.2783e-003
1747	16.241	5.2727	0.	-1.9405e-003
1748	16.426	5.2727	0.	-1.8498e-003
1749	16.61	5.2727	0.	-1.8671e-003
1750	16.795	5.2727	0.	-1.9543e-003
1751	16.98	5.2727	0.	-2.116e-003
1752	17.165	5.2727	0.	-2.2943e-003
1753	17.349	5.2727	0.	-2.4805e-003
1754	17.534	5.2727	0.	-2.6638e-003
1755	17.719	5.2727	0.	-2.8301e-003
1756	17.904	5.2727	0.	-2.9977e-003
1757	18.088	5.2727	0.	-3.2011e-003
1758	18.273	5.2727	0.	-3.4041e-003
1759	18.458	5.2727	0.	-3.5867e-003
1760	18.643	5.2727	0.	-3.7499e-003
1761	18.827	5.2727	0.	-3.9125e-003
1762	19.012	5.2727	0.	-4.1002e-003
1763	19.197	5.2727	0.	-4.2802e-003
1764	19.382	5.2727	0.	-4.4539e-003
1765	19.566	5.2727	0.	-4.6132e-003
1766	19.751	5.2727	0.	-4.7497e-003
1767	19.936	5.2727	0.	-4.8769e-003
1768	20.12	5.2727	0.	-5.0063e-003
1769	20.305	5.2727	0.	-5.1154e-003
1770	20.49	5.2727	0.	-5.1794e-003
1771	20.675	5.2727	0.	-5.1936e-003
1772	20.859	5.2727	0.	-5.1519e-003
1773	21.044	5.2727	0.	-5.0434e-003
1774	21.229	5.2727	0.	-4.8334e-003
1775	21.414	5.2727	0.	-4.4808e-003
1776	21.598	5.2727	0.	-3.9254e-003
1777	21.783	5.2727	0.	-3.1013e-003
1778	21.968	5.2727	0.	-1.9081e-003
1779	22.153	5.2727	0.	-2.0484e-004
1780	22.337	5.2727	0.	2.2331e-003
1781	22.522	5.2727	0.	5.7823e-003
1782	22.707	5.2727	0.	1.0821e-002
1783	22.892	5.2727	0.	1.8819e-002
1784	23.076	5.2727	0.	2.8911e-002
1785	23.261	5.2727	0.	5.3557e-002
1786	23.446	5.2727	0.	6.2415e-002
1787	23.631	5.2727	0.	0.22185
1788	23.815	5.2727	0.	2.0789e-002
1789	8.8514	5.0909	0.	-7.0934
1790	9.0361	5.0909	0.	-1.0915
1791	9.2209	5.0909	0.	-2.6242
1792	9.4056	5.0909	0.	-2.0582
1793	9.5904	5.0909	0.	-1.8808
1794	9.7751	5.0909	0.	-1.6227
1795	9.9598	5.0909	0.	-1.442
1796	10.145	5.0909	0.	-1.3121
1797	10.329	5.0909	0.	-1.2536
1798	10.514	5.0909	0.	-1.2966
1799	10.699	5.0909	0.	-1.5515
1800	10.884	5.0909	0.	-2.5334
1801	11.068	5.0909	0.	-6.4506
1802	11.253	5.0909	0.	-12.881
1803	11.438	5.0909	0.	-18.66
1804	11.622	5.0909	0.	-23.192
1805	11.807	5.0909	0.	-26.512
1806	11.992	5.0909	0.	-28.754
1807	12.177	5.0909	0.	-30.066
1808	12.361	5.0909	0.	-30.594
1809	12.546	5.0909	0.	-30.474
1810	12.731	5.0909	0.	-29.829
1811	12.916	5.0909	0.	-28.765
1812	13.1	5.0909	0.	-27.378
1813	13.285	5.0909	0.	-25.747
1814	13.47	5.0909	0.	-23.939
1815	13.655	5.0909	0.	-22.013
1816	13.839	5.0909	0.	-20.012
1817	14.024	5.0909	0.	-17.975
1818	14.209	5.0909	0.	-15.93
1819	14.394	5.0909	0.	-13.902
1820	14.578	5.0909	0.	-11.906
1821	14.763	5.0909	0.	-9.9555
1822	14.948	5.0909	0.	-8.06
1823	15.133	5.0909	0.	-6.2248
1824	15.317	5.0909	0.	-4.4535
1825	15.502	5.0909	0.	-2.7483
1826	15.687	5.0909	0.	-1.1165
1827	15.871	5.0909	0.	-4.3496e-002
1828	16.056	5.0909	0.	-9.7309e-003
1829	16.241	5.0909	0.	-4.9053e-003
1830	16.426	5.0909	0.	-3.0954e-003
1831	16.61	5.0909	0.	-2.1784e-003
1832	16.795	5.0909	0.	-1.6556e-003
1833	16.98	5.0909	0.	-1.3607e-003
1834	17.165	5.0909	0.	-1.1742e-003
1835	17.349	5.0909	0.	-1.0438e-003
1836	17.534	5.0909	0.	-9.4731e-004
1837	17.719	5.0909	0.	-8.5224e-004
1838	17.904	5.0909	0.	-7.7366e-004
1839	18.088	5.0909	0.	-7.3474e-004
1840	18.273	5.0909	0.	-6.9918e-004
1841	18.458	5.0909	0.	-6.4287e-004
1842	18.643	5.0909	0.	-5.6309e-004
1843	18.827	5.0909	0.	-4.803e-004
1844	19.012	5.0909	0.	-4.0938e-004
1845	19.197	5.0909	0.	-3.1982e-004
1846	19.382	5.0909	0.	-2.0948e-004
1847	19.566	5.0909	0.	-6.9989e-005
1848	19.751	5.0909	0.	1.1303e-004
1849	19.936	5.0909	0.	3.2958e-004
1850	20.12	5.0909	0.	5.6252e-004
1851	20.305	5.0909	0.	8.5302e-004
1852	20.49	5.0909	0.	1.218e-003
1853	20.675	5.0909	0.	1.6753e-003
1854	20.859	5.0909	0.	2.2322e-003
1855	21.044	5.0909	0.	2.9045e-003
1856	21.229	5.0909	0.	3.7388e-003
1857	21.414	5.0909	0.	4.7871e-003
1858	21.598	5.0909	0.	6.1137e-003
1859	21.783	5.0909	0.	7.8053e-003
1860	21.968	5.0909	0.	9.9678e-003
1861	22.153	5.0909	0.	1.277e-002
1862	22.337	5.0909	0.	1.6444e-002
1863	22.522	5.0909	0.	2.1397e-002
1864	22.707	5.0909	0.	2.8022e-002
1865	22.892	5.0909	0.	3.783e-002
1866	23.076	5.0909	0.	4.9995e-002
1867	23.261	5.0909	0.	7.7181e-002
1868	23.446	5.0909	0.	8.8954e-002
1869	23.631	5.0909	0.	0.25656
1870	23.815	5.0909	0.	7.282e-002
1871	8.8514	4.9091	0.	-8.8954
1872	9.0361	4.9091	0.	-0.76434
1873	9.2209	4.9091	0.	-2.9948
1874	9.4056	4.9091	0.	-2.2634
1875	9.5904	4.9091	0.	-2.2471
1876	9.7751	4.9091	0.	-2.1534
1877	9.9598	4.9091	0.	-2.2146
1878	10.145	4.9091	0.	-2.4609
1879	10.329	4.9091	0.	-3.1594
1880	10.514	4.9091	0.	-5.4118
1881	10.699	4.9091	0.	-11.96
1882	10.884	4.9091	0.	-20.661
1883	11.068	4.9091	0.	-28.211
1884	11.253	4.9091	0.	-34.106
1885	11.438	4.9091	0.	-38.458
1886	11.622	4.9091	0.	-41.455
1887	11.807	4.9091	0.	-43.288
1888	11.992	4.9091	0.	-44.133
1889	12.177	4.9091	0.	-44.151
1890	12.361	4.9091	0.	-43.49
1891	12.546	4.9091	0.	-42.28
1892	12.731	4.9091	0.	-40.638
1893	12.916	4.9091	0.	-38.664
1894	13.1	4.9091	0.	-36.445
1895	13.285	4.9091	0.	-34.054
1896	13.47	4.9091	0.	-31.553
1897	13.655	4.9091	0.	-28.992
1898	13.839	4.9091	0.	-26.411
1899	14.024	4.9091	0.	-23.842
1900	14.209	4.9091	0.	-21.311
1901	14.394	4.9091	0.	-18.835
1902	14.578	4.9091	0.	-16.428
1903	14.763	4.9091	0.	-14.099
1904	14.948	4.9091	0.	-11.855
1905	15.133	4.9091	0.	-9.6972
1906	15.317	4.9091	0.	-7.6271
1907	15.502	4.9091	0.	-5.6434
1908	15.687	4.9091	0.	-3.7441
1909	15.871	4.9091	0.	-1.9287
1910	16.056	4.9091	0.	-0.27191
1911	16.241	4.9091	0.	-1.5703e-002
1912	16.426	4.9091	0.	-5.9954e-003
1913	16.61	4.9091	0.	-2.9667e-003
1914	16.795	4.9091	0.	-1.5033e-003
1915	16.98	4.9091	0.	-6.7136e-004
1916	17.165	4.9091	0.	-1.2049e-004
1917	17.349	4.9091	0.	2.8221e-004
1918	17.534	4.9091	0.	6.0204e-004
1919	17.719	4.9091	0.	8.9282e-004
1920	17.904	4.9091	0.	1.1497e-003
1921	18.088	4.9091	0.	1.3556e-003
1922	18.273	4.9091	0.	1.5531e-003
1923	18.458	4.9091	0.	1.7679e-003
1924	18.643	4.9091	0.	2.008e-003
1925	18.827	4.9091	0.	2.2553e-003
1926	19.012	4.9091	0.	2.4965e-003
1927	19.197	4.9091	0.	2.7581e-003
1928	19.382	4.9091	0.	3.0519e-003
1929	19.566	4.9091	0.	3.3847e-003
1930	19.751	4.9091	0.	3.7715e-003
1931	19.936	4.9091	0.	4.2043e-003
1932	20.12	4.9091	0.	4.6735e-003
1933	20.305	4.9091	0.	5.2112e-003
1934	20.49	4.9091	0.	5.847e-003
1935	20.675	4.9091	0.	6.5969e-003
1936	20.859	4.9091	0.	7.4701e-003
1937	21.044	4.9091	0.	8.4885e-003
1938	21.229	4.9091	0.	9.7037e-003
1939	21.414	4.9091	0.	1.1167e-002
1940	21.598	4.9091	0.	1.2946e-002
1941	21.783	4.9091	0.	1.5138e-002
1942	21.968	4.9091	0.	1.7854e-002
1943	22.153	4.9091	0.	2.1258e-002
1944	22.337	4.9091	0.	2.5595e-002
1945	22.522	4.9091	0.	3.1267e-002
1946	22.707	4.9091	0.	3.8687e-002
1947	22.892	4.9091	0.	4.9357e-002
1948	23.076	4.9091	0.	6.248e-002
1949	23.261	4.9091	0.	9.0974e-002
1950	23.446	4.9091	0.	0.10418
1951	23.631	4.9091	0.	0.27674
1952	23.815	4.9091	0.	0.10537
1953	8.8514	4.7273	0.	-7.7445
1954	9.0361	4.7273	0.	-1.1162
1955	9.2209	4.7273	0.	-3.4091
1956	9.4056	4.7273	0.	-2.773
1957	9.5904	4.7273	0.	-2.7603
1958	9.7751	4.7273	0.	-3.062
1959	9.9598	4.7273	0.	-4.0597
1960	10.145	4.7273	0.	-7.3885
1961	10.329	4.7273	0.	-18.177
1962	10.514	4.7273	0.	-32.111
1963	10.699	4.7273	0.	-43.075
1964	10.884	4.7273	0.	-50.953
1965	11.068	4.7273	0.	-56.393
1966	11.253	4.7273	0.	-59.928
1967	11.438	4.7273	0.	-61.943
1968	11.622	4.7273	0.	-62.731
1969	11.807	4.7273	0.	-62.519
1970	11.992	4.7273	0.	-61.496
1971	12.177	4.7273	0.	-59.822
1972	12.361	4.7273	0.	-57.635
1973	12.546	4.7273	0.	-55.053
1974	12.731	4.7273	0.	-52.18
1975	12.916	4.7273	0.	-49.103
1976	13.1	4.7273	0.	-45.895
1977	13.285	4.7273	0.	-42.618
1978	13.47	4.7273	0.	-39.321
1979	13.655	4.7273	0.	-36.045
1980	13.839	4.7273	0.	-32.821
1981	14.024	4.7273	0.	-29.672
1982	14.209	4.7273	0.	-26.616
1983	14.394	4.7273	0.	-23.666
1984	14.578	4.7273	0.	-20.829
1985	14.763	4.7273	0.	-18.109
1986	14.948	4.7273	0.	-15.508
1987	15.133	4.7273	0.	-13.024
1988	15.317	4.7273	0.	-10.655
1989	15.502	4.7273	0.	-8.3954
1990	15.687	4.7273	0.	-6.2408
1991	15.871	4.7273	0.	-4.1851
1992	16.056	4.7273	0.	-2.2242
1993	16.241	4.7273	0.	-0.40126
1994	16.426	4.7273	0.	-1.5565e-002
1995	16.61	4.7273	0.	-4.7346e-003
1996	16.795	4.7273	0.	-1.4972e-003
1997	16.98	4.7273	0.	5.9493e-005
1998	17.165	4.7273	0.	1.0034e-003
1999	17.349	4.7273	0.	1.6691e-003
2000	17.534	4.7273	0.	2.1832e-003
2001	17.719	4.7273	0.	2.6383e-003
2002	17.904	4.7273	0.	3.0376e-003
2003	18.088	4.7273	0.	3.377e-003
2004	18.273	4.7273	0.	3.7026e-003
2005	18.458	4.7273	0.	4.0471e-003
2006	18.643	4.7273	0.	4.4119e-003
2007	18.827	4.7273	0.	4.7898e-003
2008	19.012	4.7273	0.	5.1624e-003
2009	19.197	4.7273	0.	5.5626e-003
2010	19.382	4.7273	0.	5.9988e-003
2011	19.566	4.7273	0.	6.4829e-003
2012	19.751	4.7273	0.	7.0304e-003
2013	19.936	4.7273	0.	7.6301e-003
2014	20.12	4.7273	0.	8.2797e-003
2015	20.305	4.7273	0.	9.0133e-003
2016	20.49	4.7273	0.	9.8532e-003
2017	20.675	4.7273	0.	1.0823e-002
2018	20.859	4.7273	0.	1.1936e-002
2019	21.044	4.7273	0.	1.3209e-002
2020	21.229	4.7273	0.	1.4698e-002
2021	21.414	4.7273	0.	1.646e-002
2022	21.598	4.7273	0.	1.8562e-002
2023	21.783	4.7273	0.	2.1098e-002
2024	21.968	4.7273	0.	2.4188e-002
2025	22.153	4.7273	0.	2.7989e-002
2026	22.337	4.7273	0.	3.2752e-002
2027	22.522	4.7273	0.	3.8885e-002
2028	22.707	4.7273	0.	4.6783e-002
2029	22.892	4.7273	0.	5.7996e-002
2030	23.076	4.7273	0.	7.1741e-002
2031	23.261	4.7273	0.	0.10113
2032	23.446	4.7273	0.	0.11548
2033	23.631	4.7273	0.	0.29185
2034	23.815	4.7273	0.	0.1308
2035	8.8514	4.5455	0.	-23.49
2036	9.0361	4.5455	0.	-2.0504
2037	9.2209	4.5455	0.	-3.8921
2038	9.4056	4.5455	0.	-3.5192
2039	9.5904	4.5455	0.	-3.7431
2040	9.7751	4.5455	0.	-5.3227
2041	9.9598	4.5455	0.	-13.666
2042	10.145	4.5455	0.	-38.224
2043	10.329	4.5455	0.	-59.508
2044	10.514	4.5455	0.	-73.248
2045	10.699	4.5455	0.	-81.616
2046	10.884	4.5455	0.	-86.346
2047	11.068	4.5455	0.	-88.556
2048	11.253	4.5455	0.	-88.965
2049	11.438	4.5455	0.	-88.046
2050	11.622	4.5455	0.	-86.129
2051	11.807	4.5455	0.	-83.455
2052	11.992	4.5455	0.	-80.21
2053	12.177	4.5455	0.	-76.544
2054	12.361	4.5455	0.	-72.579
2055	12.546	4.5455	0.	-68.416
2056	12.731	4.5455	0.	-64.139
2057	12.916	4.5455	0.	-59.817
2058	13.1	4.5455	0.	-55.506
2059	13.285	4.5455	0.	-51.251
2060	13.47	4.5455	0.	-47.086
2061	13.655	4.5455	0.	-43.04
2062	13.839	4.5455	0.	-39.13
2063	14.024	4.5455	0.	-35.37
2064	14.209	4.5455	0.	-31.768
2065	14.394	4.5455	0.	-28.329
2066	14.578	4.5455	0.	-25.053
2067	14.763	4.5455	0.	-21.938
2068	14.948	4.5455	0.	-18.979
2069	15.133	4.5455	0.	-16.172
2070	15.317	4.5455	0.	-13.507
2071	15.502	4.5455	0.	-10.979
2072	15.687	4.5455	0.	-8.5764
2073	15.871	4.5455	0.	-6.2921
2074	16.056	4.5455	0.	-4.1167
2075	16.241	4.5455	0.	-2.0438
2076	16.426	4.5455	0.	-0.18595
2077	16.61	4.5455	0.	-9.2592e-003
2078	16.795	4.5455	0.	-1.7403e-003
2079	16.98	4.5455	0.	8.1797e-004
2080	17.165	4.5455	0.	2.1694e-003
2081	17.349	4.5455	0.	3.0529e-003
2082	17.534	4.5455	0.	3.7178e-003
2083	17.719	4.5455	0.	4.2894e-003
2084	17.904	4.5455	0.	4.7899e-003
2085	18.088	4.5455	0.	5.2221e-003
2086	18.273	4.5455	0.	5.6379e-003
2087	18.458	4.5455	0.	6.0693e-003
2088	18.643	4.5455	0.	6.5237e-003
2089	18.827	4.5455	0.	6.9955e-003
2090	19.012	4.5455	0.	7.4616e-003
2091	19.197	4.5455	0.	7.963e-003
2092	19.382	4.5455	0.	8.5043e-003
2093	19.566	4.5455	0.	9.0958e-003
2094	19.751	4.5455	0.	9.7572e-003
2095	19.936	4.5455	0.	1.048e-002
2096	20.12	4.5455	0.	1.126e-002
2097	20.305	4.5455	0.	1.2128e-002
2098	20.49	4.5455	0.	1.3113e-002
2099	20.675	4.5455	0.	1.4239e-002
2100	20.859	4.5455	0.	1.5517e-002
2101	21.044	4.5455	0.	1.6967e-002
2102	21.229	4.5455	0.	1.8643e-002
2103	21.414	4.5455	0.	2.0604e-002
2104	21.598	4.5455	0.	2.2917e-002
2105	21.783	4.5455	0.	2.5679e-002
2106	21.968	4.5455	0.	2.9001e-002
2107	22.153	4.5455	0.	3.305e-002
2108	22.337	4.5455	0.	3.8071e-002
2109	22.522	4.5455	0.	4.4471e-002
2110	22.707	4.5455	0.	5.2657e-002
2111	22.892	4.5455	0.	6.4206e-002
2112	23.076	4.5455	0.	7.836e-002
2113	23.261	4.5455	0.	0.10839
2114	23.446	4.5455	0.	0.12358
2115	23.631	4.5455	0.	0.30289
2116	23.815	4.5455	0.	0.15029
2117	8.8514	4.3636	0.	8.5774
2118	9.0361	4.3636	0.	1.2586
2119	9.2209	4.3636	0.	-10.747
2120	9.4056	4.3636	0.	-3.1127
2121	9.5904	4.3636	0.	-6.2575
2122	9.7751	4.3636	0.	-18.317
2123	9.9598	4.3636	0.	-59.978
2124	10.145	4.3636	0.	-91.694
2125	10.329	4.3636	0.	-110.09
2126	10.514	4.3636	0.	-119.79
2127	10.699	4.3636	0.	-123.99
2128	10.884	4.3636	0.	-124.66
2129	11.068	4.3636	0.	-123.01
2130	11.253	4.3636	0.	-119.82
2131	11.438	4.3636	0.	-115.58
2132	11.622	4.3636	0.	-110.65
2133	11.807	4.3636	0.	-105.24
2134	11.992	4.3636	0.	-99.554
2135	12.177	4.3636	0.	-93.709
2136	12.361	4.3636	0.	-87.811
2137	12.546	4.3636	0.	-81.938
2138	12.731	4.3636	0.	-76.152
2139	12.916	4.3636	0.	-70.502
2140	13.1	4.3636	0.	-65.022
2141	13.285	4.3636	0.	-59.739
2142	13.47	4.3636	0.	-54.669
2143	13.655	4.3636	0.	-49.825
2144	13.839	4.3636	0.	-45.212
2145	14.024	4.3636	0.	-40.83
2146	14.209	4.3636	0.	-36.678
2147	14.394	4.3636	0.	-32.75
2148	14.578	4.3636	0.	-29.038
2149	14.763	4.3636	0.	-25.533
2150	14.948	4.3636	0.	-22.225
2151	15.133	4.3636	0.	-19.102
2152	15.317	4.3636	0.	-16.154
2153	15.502	4.3636	0.	-13.366
2154	15.687	4.3636	0.	-10.729
2155	15.871	4.3636	0.	-8.2278
2156	16.056	4.3636	0.	-5.8524
2157	16.241	4.3636	0.	-3.591
2158	16.426	4.3636	0.	-1.4378
2159	16.61	4.3636	0.	-2.9348e-002
2160	16.795	4.3636	0.	-2.4293e-003
2161	16.98	4.3636	0.	1.6357e-003
2162	17.165	4.3636	0.	3.3783e-003
2163	17.349	4.3636	0.	4.4298e-003
2164	17.534	4.3636	0.	5.1938e-003
2165	17.719	4.3636	0.	5.8339e-003
2166	17.904	4.3636	0.	6.3984e-003
2167	18.088	4.3636	0.	6.8894e-003
2168	18.273	4.3636	0.	7.3641e-003
2169	18.458	4.3636	0.	7.8561e-003
2170	18.643	4.3636	0.	8.3756e-003
2171	18.827	4.3636	0.	8.9084e-003
2172	19.012	4.3636	0.	9.4452e-003
2173	19.197	4.3636	0.	1.0017e-002
2174	19.382	4.3636	0.	1.0633e-002
2175	19.566	4.3636	0.	1.1302e-002
2176	19.751	4.3636	0.	1.2051e-002
2177	19.936	4.3636	0.	1.2864e-002
2178	20.12	4.3636	0.	1.3734e-002
2179	20.305	4.3636	0.	1.4704e-002
2180	20.49	4.3636	0.	1.5797e-002
2181	20.675	4.3636	0.	1.7034e-002
2182	20.859	4.3636	0.	1.8427e-002
2183	21.044	4.3636	0.	2.0002e-002
2184	21.229	4.3636	0.	2.181e-002
2185	21.414	4.3636	0.	2.3908e-002
2186	21.598	4.3636	0.	2.6365e-002
2187	21.783	4.3636	0.	2.927e-002
2188	21.968	4.3636	0.	3.2744e-002
2189	22.153	4.3636	0.	3.695e-002
2190	22.337	4.3636	0.	4.2131e-002
2191	22.522	4.3636	0.	4.8701e-002
2192	22.707	4.3636	0.	5.708e-002
2193	22.892	4.3636	0.	6.8859e-002
2194	23.076	4.3636	0.	8.3317e-002
2195	23.261	4.3636	0.	0.11384
2196	23.446	4.3636	0.	0.1297
2197	23.631	4.3636	0.	0.31133
2198	23.815	4.3636	0.	0.16578
2199	8.8514	4.1818	0.	-141.33
2200	9.0361	4.1818	0.	7.7844
2201	9.2209	4.1818	0.	-7.6769
2202	9.4056	4.1818	0.	-5.5058
2203	9.5904	4.1818	0.	-19.262
2204	9.7751	4.1818	0.	-79.631
2205	9.9598	4.1818	0.	-125.55
2206	10.145	4.1818	0.	-151.09
2207	10.329	4.1818	0.	-163.65
2208	10.514	4.1818	0.	-168.11
2209	10.699	4.1818	0.	-167.5
2210	10.884	4.1818	0.	-163.73
2211	11.068	4.1818	0.	-157.96
2212	11.253	4.1818	0.	-150.98
2213	11.438	4.1818	0.	-143.28
2214	11.622	4.1818	0.	-135.2
2215	11.807	4.1818	0.	-126.97
2216	11.992	4.1818	0.	-118.76
2217	12.177	4.1818	0.	-110.66
2218	12.361	4.1818	0.	-102.78
2219	12.546	4.1818	0.	-95.153
2220	12.731	4.1818	0.	-87.829
2221	12.916	4.1818	0.	-80.83
2222	13.1	4.1818	0.	-74.169
2223	13.285	4.1818	0.	-67.852
2224	13.47	4.1818	0.	-61.878
2225	13.655	4.1818	0.	-56.242
2226	13.839	4.1818	0.	-50.933
2227	14.024	4.1818	0.	-45.941
2228	14.209	4.1818	0.	-41.251
2229	14.394	4.1818	0.	-36.848
2230	14.578	4.1818	0.	-32.716
2231	14.763	4.1818	0.	-28.838
2232	14.948	4.1818	0.	-25.198
2233	15.133	4.1818	0.	-21.777
2234	15.317	4.1818	0.	-18.561
2235	15.502	4.1818	0.	-15.532
2236	15.687	4.1818	0.	-12.674
2237	15.871	4.1818	0.	-9.9733
2238	16.056	4.1818	0.	-7.4137
2239	16.241	4.1818	0.	-4.9813
2240	16.426	4.1818	0.	-2.6638
2241	16.61	4.1818	0.	-0.47588
2242	16.795	4.1818	0.	-4.1017e-003
2243	16.98	4.1818	0.	2.5416e-003
2244	17.165	4.1818	0.	4.6273e-003
2245	17.349	4.1818	0.	5.77e-003
2246	17.534	4.1818	0.	6.5732e-003
2247	17.719	4.1818	0.	7.2454e-003
2248	17.904	4.1818	0.	7.838e-003
2249	18.088	4.1818	0.	8.361e-003
2250	18.273	4.1818	0.	8.871e-003
2251	18.458	4.1818	0.	9.3991e-003
2252	18.643	4.1818	0.	9.9573e-003
2253	18.827	4.1818	0.	1.0537e-002
2254	19.012	4.1818	0.	1.112e-002
2255	19.197	4.1818	0.	1.1741e-002
2256	19.382	4.1818	0.	1.2413e-002
2257	19.566	4.1818	0.	1.3142e-002
2258	19.751	4.1818	0.	1.3949e-002
2259	19.936	4.1818	0.	1.4825e-002
2260	20.12	4.1818	0.	1.5766e-002
2261	20.305	4.1818	0.	1.6807e-002
2262	20.49	4.1818	0.	1.7975e-002
2263	20.675	4.1818	0.	1.9291e-002
2264	20.859	4.1818	0.	2.0768e-002
2265	21.044	4.1818	0.	2.243e-002
2266	21.229	4.1818	0.	2.4325e-002
2267	21.414	4.1818	0.	2.6513e-002
2268	21.598	4.1818	0.	2.9064e-002
2269	21.783	4.1818	0.	3.2066e-002
2270	21.968	4.1818	0.	3.5637e-002
2271	22.153	4.1818	0.	3.994e-002
2272	22.337	4.1818	0.	4.5224e-002
2273	22.522	4.1818	0.	5.1907e-002
2274	22.707	4.1818	0.	6.0415e-002
2275	22.892	4.1818	0.	7.2368e-002
2276	23.076	4.1818	0.	8.7059e-002
2277	23.261	4.1818	0.	0.11797
2278	23.446	4.1818	0.	0.13436
2279	23.631	4.1818	0.	0.31784
2280	23.815	4.1818	0.	0.17814
2281	8.8514	4.	0.	-525.45
2282	9.0361	4.	0.	73.041
2283	9.2209	4.	0.	-16.055
2284	9.4056	4.	0.	-10.637
2285	9.5904	4.	0.	-90.434
2286	9.7751	4.	0.	-154.2
2287	9.9598	4.	0.	-190.46
2288	10.145	4.	0.	-208.6
2289	10.329	4.	0.	-215.27
2290	10.514	4.	0.	-214.63
2291	10.699	4.	0.	-209.4
2292	10.884	4.	0.	-201.33
2293	11.068	4.	0.	-191.59
2294	11.253	4.	0.	-180.93
2295	11.438	4.	0.	-169.85
2296	11.622	4.	0.	-158.71
2297	11.807	4.	0.	-147.71
2298	11.992	4.	0.	-137.03
2299	12.177	4.	0.	-126.74
2300	12.361	4.	0.	-116.92
2301	12.546	4.	0.	-107.59
2302	12.731	4.	0.	-98.771
2303	12.916	4.	0.	-90.467
2304	13.1	4.	0.	-82.666
2305	13.285	4.	0.	-75.356
2306	13.47	4.	0.	-68.516
2307	13.655	4.	0.	-62.124
2308	13.839	4.	0.	-56.156
2309	14.024	4.	0.	-50.587
2310	14.209	4.	0.	-45.392
2311	14.394	4.	0.	-40.546
2312	14.578	4.	0.	-36.023
2313	14.763	4.	0.	-31.799
2314	14.948	4.	0.	-27.852
2315	15.133	4.	0.	-24.158
2316	15.317	4.	0.	-20.697
2317	15.502	4.	0.	-17.448
2318	15.687	4.	0.	-14.392
2319	15.871	4.	0.	-11.51
2320	16.056	4.	0.	-8.7851
2321	16.241	4.	0.	-6.2001
2322	16.426	4.	0.	-3.7399
2323	16.61	4.	0.	-1.3934
2324	16.795	4.	0.	-8.9039e-003
2325	16.98	4.	0.	3.57e-003
2326	17.165	4.	0.	5.8949e-003
2327	17.349	4.	0.	7.0421e-003
2328	17.534	4.	0.	7.8343e-003
2329	17.719	4.	0.	8.5005e-003
2330	17.904	4.	0.	9.0955e-003
2331	18.088	4.	0.	9.6284e-003
2332	18.273	4.	0.	1.0152e-002
2333	18.458	4.	0.	1.0703e-002
2334	18.643	4.	0.	1.1288e-002
2335	18.827	4.	0.	1.1896e-002
2336	19.012	4.	0.	1.2509e-002
2337	19.197	4.	0.	1.3168e-002
2338	19.382	4.	0.	1.3877e-002
2339	19.566	4.	0.	1.4644e-002
2340	19.751	4.	0.	1.5496e-002
2341	19.936	4.	0.	1.642e-002
2342	20.12	4.	0.	1.7408e-002
2343	20.305	4.	0.	1.8499e-002
2344	20.49	4.	0.	1.9723e-002
2345	20.675	4.	0.	2.1094e-002
2346	20.859	4.	0.	2.263e-002
2347	21.044	4.	0.	2.4349e-002
2348	21.229	4.	0.	2.6309e-002
2349	21.414	4.	0.	2.8559e-002
2350	21.598	4.	0.	3.1169e-002
2351	21.783	4.	0.	3.4237e-002
2352	21.968	4.	0.	3.7868e-002
2353	22.153	4.	0.	4.2237e-002
2354	22.337	4.	0.	4.7585e-002
2355	22.522	4.	0.	5.4345e-002
2356	22.707	4.	0.	6.295e-002
2357	22.892	4.	0.	7.5032e-002
2358	23.076	4.	0.	8.9905e-002
2359	23.261	4.	0.	0.12113
2360	23.446	4.	0.	0.13794
2361	23.631	4.	0.	0.32288
2362	23.815	4.	0.	0.18801
2363	8.8514	3.8182	0.	-15.545
2364	9.0361	3.8182	0.	32.731
2365	9.2209	3.8182	0.	-7.4701
2366	9.4056	3.8182	0.	-61.246
2367	9.5904	3.8182	0.	-157.43
2368	9.7751	3.8182	0.	-213.47
2369	9.9598	3.8182	0.	-244.16
2370	10.145	3.8182	0.	-257.89
2371	10.329	3.8182	0.	-260.59
2372	10.514	3.8182	0.	-256.12
2373	10.699	3.8182	0.	-247.14
2374	10.884	3.8182	0.	-235.42
2375	11.068	3.8182	0.	-222.17
2376	11.253	3.8182	0.	-208.2
2377	11.438	3.8182	0.	-194.06
2378	11.622	3.8182	0.	-180.1
2379	11.807	3.8182	0.	-166.57
2380	11.992	3.8182	0.	-153.6
2381	12.177	3.8182	0.	-141.29
2382	12.361	3.8182	0.	-129.68
2383	12.546	3.8182	0.	-118.78
2384	12.731	3.8182	0.	-108.59
2385	12.916	3.8182	0.	-99.085
2386	13.1	3.8182	0.	-90.241
2387	13.285	3.8182	0.	-82.022
2388	13.47	3.8182	0.	-74.392
2389	13.655	3.8182	0.	-67.313
2390	13.839	3.8182	0.	-60.748
2391	14.024	3.8182	0.	-54.659
2392	14.209	3.8182	0.	-49.009
2393	14.394	3.8182	0.	-43.765
2394	14.578	3.8182	0.	-38.892
2395	14.763	3.8182	0.	-34.361
2396	14.948	3.8182	0.	-30.142
2397	15.133	3.8182	0.	-26.208
2398	15.317	3.8182	0.	-22.532
2399	15.502	3.8182	0.	-19.09
2400	15.687	3.8182	0.	-15.86
2401	15.871	3.8182	0.	-12.821
2402	16.056	3.8182	0.	-9.9525
2403	16.241	3.8182	0.	-7.2357
2404	16.426	3.8182	0.	-4.6531
2405	16.61	3.8182	0.	-2.1891
2406	16.795	3.8182	0.	-3.9444e-002
2407	16.98	3.8182	0.	4.7686e-003
2408	17.165	3.8182	0.	7.1413e-003
2409	17.349	3.8182	0.	8.2061e-003
2410	17.534	3.8182	0.	8.9412e-003
2411	17.719	3.8182	0.	9.575e-003
2412	17.904	3.8182	0.	1.0155e-002
2413	18.088	3.8182	0.	1.0685e-002
2414	18.273	3.8182	0.	1.1214e-002
2415	18.458	3.8182	0.	1.1773e-002
2416	18.643	3.8182	0.	1.2373e-002
2417	18.827	3.8182	0.	1.2996e-002
2418	19.012	3.8182	0.	1.3634e-002
2419	19.197	3.8182	0.	1.4315e-002
2420	19.382	3.8182	0.	1.5049e-002
2421	19.566	3.8182	0.	1.5848e-002
2422	19.751	3.8182	0.	1.6732e-002
2423	19.936	3.8182	0.	1.7687e-002
2424	20.12	3.8182	0.	1.871e-002
2425	20.305	3.8182	0.	1.9839e-002
2426	20.49	3.8182	0.	2.1099e-002
2427	20.675	3.8182	0.	2.251e-002
2428	20.859	3.8182	0.	2.4087e-002
2429	21.044	3.8182	0.	2.5846e-002
2430	21.229	3.8182	0.	2.7846e-002
2431	21.414	3.8182	0.	3.0137e-002
2432	21.598	3.8182	0.	3.2787e-002
2433	21.783	3.8182	0.	3.5893e-002
2434	21.968	3.8182	0.	3.9566e-002
2435	22.153	3.8182	0.	4.3974e-002
2436	22.337	3.8182	0.	4.9369e-002
2437	22.522	3.8182	0.	5.6186e-002
2438	22.707	3.8182	0.	6.486e-002
2439	22.892	3.8182	0.	7.7044e-002
2440	23.076	3.8182	0.	9.2062e-002
2441	23.261	3.8182	0.	0.12353
2442	23.446	3.8182	0.	0.14066
2443	23.631	3.8182	0.	0.32675
2444	23.815	3.8182	0.	0.19578
2445	8.8514	3.6364	0.	-16.238
2446	9.0361	3.6364	0.	-9.227
2447	9.2209	3.6364	0.	4.4892
2448	9.4056	3.6364	0.	-82.863
2449	9.5904	3.6364	0.	-187.28
2450	9.7751	3.6364	0.	-248.48
2451	9.9598	3.6364	0.	-281.24
2452	10.145	3.6364	0.	-295.17
2453	10.329	3.6364	0.	-296.71
2454	10.514	3.6364	0.	-290.24
2455	10.699	3.6364	0.	-278.75
2456	10.884	3.6364	0.	-264.29
2457	11.068	3.6364	0.	-248.24
2458	11.253	3.6364	0.	-231.53
2459	11.438	3.6364	0.	-214.8
2460	11.622	3.6364	0.	-198.44
2461	11.807	3.6364	0.	-182.72
2462	11.992	3.6364	0.	-167.79
2463	12.177	3.6364	0.	-153.73
2464	12.361	3.6364	0.	-140.57
2465	12.546	3.6364	0.	-128.31
2466	12.731	3.6364	0.	-116.93
2467	12.916	3.6364	0.	-106.39
2468	13.1	3.6364	0.	-96.64
2469	13.285	3.6364	0.	-87.639
2470	13.47	3.6364	0.	-79.33
2471	13.655	3.6364	0.	-71.663
2472	13.839	3.6364	0.	-64.586
2473	14.024	3.6364	0.	-58.053
2474	14.209	3.6364	0.	-52.016
2475	14.394	3.6364	0.	-46.435
2476	14.578	3.6364	0.	-41.267
2477	14.763	3.6364	0.	-36.477
2478	14.948	3.6364	0.	-32.029
2479	15.133	3.6364	0.	-27.892
2480	15.317	3.6364	0.	-24.036
2481	15.502	3.6364	0.	-20.434
2482	15.687	3.6364	0.	-17.06
2483	15.871	3.6364	0.	-13.89
2484	16.056	3.6364	0.	-10.903
2485	16.241	3.6364	0.	-8.0776
2486	16.426	3.6364	0.	-5.3945
2487	16.61	3.6364	0.	-2.8359
2488	16.795	3.6364	0.	-0.39697
2489	16.98	3.6364	0.	6.1531e-003
2490	17.165	3.6364	0.	8.3101e-003
2491	17.349	3.6364	0.	9.2173e-003
2492	17.534	3.6364	0.	9.8685e-003
2493	17.719	3.6364	0.	1.0458e-002
2494	17.904	3.6364	0.	1.1012e-002
2495	18.088	3.6364	0.	1.1529e-002
2496	18.273	3.6364	0.	1.2054e-002
2497	18.458	3.6364	0.	1.2616e-002
2498	18.643	3.6364	0.	1.3223e-002
2499	18.827	3.6364	0.	1.386e-002
2500	19.012	3.6364	0.	1.4511e-002
2501	19.197	3.6364	0.	1.5207e-002
2502	19.382	3.6364	0.	1.596e-002
2503	19.566	3.6364	0.	1.6779e-002
2504	19.751	3.6364	0.	1.7681e-002
2505	19.936	3.6364	0.	1.8661e-002
2506	20.12	3.6364	0.	1.9708e-002
2507	20.305	3.6364	0.	2.0861e-002
2508	20.49	3.6364	0.	2.2149e-002
2509	20.675	3.6364	0.	2.3587e-002
2510	20.859	3.6364	0.	2.5191e-002
2511	21.044	3.6364	0.	2.6979e-002
2512	21.229	3.6364	0.	2.9006e-002
2513	21.414	3.6364	0.	3.1322e-002
2514	21.598	3.6364	0.	3.3999e-002
2515	21.783	3.6364	0.	3.7129e-002
2516	21.968	3.6364	0.	4.0827e-002
2517	22.153	3.6364	0.	4.5263e-002
2518	22.337	3.6364	0.	5.069e-002
2519	22.522	3.6364	0.	5.7541e-002
2520	22.707	3.6364	0.	6.6273e-002
2521	22.892	3.6364	0.	7.853e-002
2522	23.076	3.6364	0.	9.3661e-002
2523	23.261	3.6364	0.	0.12531
2524	23.446	3.6364	0.	0.1427
2525	23.631	3.6364	0.	0.32965
2526	23.815	3.6364	0.	0.20173
2527	8.8514	3.4545	0.	4.5498
2528	9.0361	3.4545	0.	0.31086
2529	9.2209	3.4545	0.	-0.26252
2530	9.4056	3.4545	0.	-63.337
2531	9.5904	3.4545	0.	-187.55
2532	9.7751	3.4545	0.	-261.92
2533	9.9598	3.4545	0.	-302.25
2534	10.145	3.4545	0.	-319.88
2535	10.329	3.4545	0.	-322.6
2536	10.514	3.4545	0.	-315.75
2537	10.699	3.4545	0.	-302.97
2538	10.884	3.4545	0.	-286.72
2539	11.068	3.4545	0.	-268.65
2540	11.253	3.4545	0.	-249.89
2541	11.438	3.4545	0.	-231.16
2542	11.622	3.4545	0.	-212.92
2543	11.807	3.4545	0.	-195.48
2544	11.992	3.4545	0.	-178.99
2545	12.177	3.4545	0.	-163.53
2546	12.361	3.4545	0.	-149.14
2547	12.546	3.4545	0.	-135.8
2548	12.731	3.4545	0.	-123.47
2549	12.916	3.4545	0.	-112.11
2550	13.1	3.4545	0.	-101.65
2551	13.285	3.4545	0.	-92.024
2552	13.47	3.4545	0.	-83.178
2553	13.655	3.4545	0.	-75.045
2554	13.839	3.4545	0.	-67.565
2555	14.024	3.4545	0.	-60.682
2556	14.209	3.4545	0.	-54.341
2557	14.394	3.4545	0.	-48.494
2558	14.578	3.4545	0.	-43.096
2559	14.763	3.4545	0.	-38.103
2560	14.948	3.4545	0.	-33.477
2561	15.133	3.4545	0.	-29.183
2562	15.317	3.4545	0.	-25.187
2563	15.502	3.4545	0.	-21.461
2564	15.687	3.4545	0.	-17.975
2565	15.871	3.4545	0.	-14.705
2566	16.056	3.4545	0.	-11.626
2567	16.241	3.4545	0.	-8.7172
2568	16.426	3.4545	0.	-5.9569
2569	16.61	3.4545	0.	-3.3264
2570	16.795	3.4545	0.	-0.80983
2571	16.98	3.4545	0.	7.6691e-003
2572	17.165	3.4545	0.	9.3168e-003
2573	17.349	3.4545	0.	1.0029e-002
2574	17.534	3.4545	0.	1.059e-002
2575	17.719	3.4545	0.	1.1131e-002
2576	17.904	3.4545	0.	1.1659e-002
2577	18.088	3.4545	0.	1.2163e-002
2578	18.273	3.4545	0.	1.2682e-002
2579	18.458	3.4545	0.	1.3243e-002
2580	18.643	3.4545	0.	1.3853e-002
2581	18.827	3.4545	0.	1.4496e-002
2582	19.012	3.4545	0.	1.5155e-002
2583	19.197	3.4545	0.	1.5861e-002
2584	19.382	3.4545	0.	1.6626e-002
2585	19.566	3.4545	0.	1.7457e-002
2586	19.751	3.4545	0.	1.8376e-002
2587	19.936	3.4545	0.	1.937e-002
2588	20.12	3.4545	0.	2.0435e-002
2589	20.305	3.4545	0.	2.1605e-002
2590	20.49	3.4545	0.	2.2912e-002
2591	20.675	3.4545	0.	2.4364e-002
2592	20.859	3.4545	0.	2.5986e-002
2593	21.044	3.4545	0.	2.7792e-002
2594	21.229	3.4545	0.	2.9833e-002
2595	21.414	3.4545	0.	3.2169e-002
2596	21.598	3.4545	0.	3.4863e-002
2597	21.783	3.4545	0.	3.8008e-002
2598	21.968	3.4545	0.	4.172e-002
2599	22.153	3.4545	0.	4.6174e-002
2600	22.337	3.4545	0.	5.1624e-002
2601	22.522	3.4545	0.	5.8501e-002
2602	22.707	3.4545	0.	6.7269e-002
2603	22.892	3.4545	0.	7.9584e-002
2604	23.076	3.4545	0.	9.4792e-002
2605	23.261	3.4545	0.	0.12657
2606	23.446	3.4545	0.	0.14414
2607	23.631	3.4545	0.	0.33173
2608	23.815	3.4545	0.	0.20605
2609	8.8514	3.2727	0.	-2.79
2610	9.0361	3.2727	0.	-5.1672e-002
2611	9.2209	3.2727	0.	0.75786
2612	9.4056	3.2727	0.	-35.301
2613	9.5904	3.2727	0.	-175.74
2614	9.7751	3.2727	0.	-263.04
2615	9.9598	3.2727	0.	-311.7
2616	10.145	3.2727	0.	-333.96
2617	10.329	3.2727	0.	-338.79
2618	10.514	3.2727	0.	-332.44
2619	10.699	3.2727	0.	-319.2
2620	10.884	3.2727	0.	-301.96
2621	11.068	3.2727	0.	-282.64
2622	11.253	3.2727	0.	-262.52
2623	11.438	3.2727	0.	-242.44
2624	11.622	3.2727	0.	-222.92
2625	11.807	3.2727	0.	-204.29
2626	11.992	3.2727	0.	-186.72
2627	12.177	3.2727	0.	-170.3
2628	12.361	3.2727	0.	-155.06
2629	12.546	3.2727	0.	-140.96
2630	12.731	3.2727	0.	-127.98
2631	12.916	3.2727	0.	-116.04
2632	13.1	3.2727	0.	-105.08
2633	13.285	3.2727	0.	-95.032
2634	13.47	3.2727	0.	-85.814
2635	13.655	3.2727	0.	-77.359
2636	13.839	3.2727	0.	-69.6
2637	14.024	3.2727	0.	-62.475
2638	14.209	3.2727	0.	-55.925
2639	14.394	3.2727	0.	-49.896
2640	14.578	3.2727	0.	-44.338
2641	14.763	3.2727	0.	-39.206
2642	14.948	3.2727	0.	-34.458
2643	15.133	3.2727	0.	-30.057
2644	15.317	3.2727	0.	-25.966
2645	15.502	3.2727	0.	-22.154
2646	15.687	3.2727	0.	-18.593
2647	15.871	3.2727	0.	-15.254
2648	16.056	3.2727	0.	-12.113
2649	16.241	3.2727	0.	-9.1475
2650	16.426	3.2727	0.	-6.3351
2651	16.61	3.2727	0.	-3.6559
2652	16.795	3.2727	0.	-1.0918
2653	16.98	3.2727	0.	9.0915e-003
2654	17.165	3.2727	0.	1.0067e-002
2655	17.349	3.2727	0.	1.0601e-002
2656	17.534	3.2727	0.	1.1084e-002
2657	17.719	3.2727	0.	1.1584e-002
2658	17.904	3.2727	0.	1.2092e-002
2659	18.088	3.2727	0.	1.2584e-002
2660	18.273	3.2727	0.	1.3097e-002
2661	18.458	3.2727	0.	1.3658e-002
2662	18.643	3.2727	0.	1.4267e-002
2663	18.827	3.2727	0.	1.4912e-002
2664	19.012	3.2727	0.	1.5574e-002
2665	19.197	3.2727	0.	1.6289e-002
2666	19.382	3.2727	0.	1.7062e-002
2667	19.566	3.2727	0.	1.7903e-002
2668	19.751	3.2727	0.	1.8828e-002
2669	19.936	3.2727	0.	1.9831e-002
2670	20.12	3.2727	0.	2.0906e-002
2671	20.305	3.2727	0.	2.2086e-002
2672	20.49	3.2727	0.	2.3399e-002
2673	20.675	3.2727	0.	2.4869e-002
2674	20.859	3.2727	0.	2.6501e-002
2675	21.044	3.2727	0.	2.8316e-002
2676	21.229	3.2727	0.	3.0372e-002
2677	21.414	3.2727	0.	3.2713e-002
2678	21.598	3.2727	0.	3.5416e-002
2679	21.783	3.2727	0.	3.8569e-002
2680	21.968	3.2727	0.	4.2296e-002
2681	22.153	3.2727	0.	4.6757e-002
2682	22.337	3.2727	0.	5.2217e-002
2683	22.522	3.2727	0.	5.9115e-002
2684	22.707	3.2727	0.	6.7906e-002
2685	22.892	3.2727	0.	8.0257e-002
2686	23.076	3.2727	0.	9.5519e-002
2687	23.261	3.2727	0.	0.12738
2688	23.446	3.2727	0.	0.14508
2689	23.631	3.2727	0.	0.33308
2690	23.815	3.2727	0.	0.20887
2691	8.8514	3.0909	0.	-0.21684
2692	9.0361	3.0909	0.	6.1304e-002
2693	9.2209	3.0909	0.	0.906
2694	9.4056	3.0909	0.	-17.693
2695	9.5904	3.0909	0.	-166.36
2696	9.7751	3.0909	0.	-261.01
2697	9.9598	3.0909	0.	-314.8
2698	10.145	3.0909	0.	-340.11
2699	10.329	3.0909	0.	-346.45
2700	10.514	3.0909	0.	-340.63
2701	10.699	3.0909	0.	-327.31
2702	10.884	3.0909	0.	-309.65
2703	11.068	3.0909	0.	-289.74
2704	11.253	3.0909	0.	-268.95
2705	11.438	3.0909	0.	-248.2
2706	11.622	3.0909	0.	-228.03
2707	11.807	3.0909	0.	-208.79
2708	11.992	3.0909	0.	-190.67
2709	12.177	3.0909	0.	-173.76
2710	12.361	3.0909	0.	-158.08
2711	12.546	3.0909	0.	-143.6
2712	12.731	3.0909	0.	-130.28
2713	12.916	3.0909	0.	-118.05
2714	13.1	3.0909	0.	-106.84
2715	13.285	3.0909	0.	-96.563
2716	13.47	3.0909	0.	-87.154
2717	13.655	3.0909	0.	-78.534
2718	13.839	3.0909	0.	-70.632
2719	14.024	3.0909	0.	-63.384
2720	14.209	3.0909	0.	-56.727
2721	14.394	3.0909	0.	-50.605
2722	14.578	3.0909	0.	-44.967
2723	14.763	3.0909	0.	-39.764
2724	14.948	3.0909	0.	-34.954
2725	15.133	3.0909	0.	-30.497
2726	15.317	3.0909	0.	-26.358
2727	15.502	3.0909	0.	-22.504
2728	15.687	3.0909	0.	-18.904
2729	15.871	3.0909	0.	-15.53
2730	16.056	3.0909	0.	-12.358
2731	16.241	3.0909	0.	-9.3639
2732	16.426	3.0909	0.	-6.5251
2733	16.61	3.0909	0.	-3.8215
2734	16.795	3.0909	0.	-1.2338
2735	16.98	3.0909	0.	9.9994e-003
2736	17.165	3.0909	0.	1.0467e-002
2737	17.349	3.0909	0.	1.0895e-002
2738	17.534	3.0909	0.	1.1335e-002
2739	17.719	3.0909	0.	1.1814e-002
2740	17.904	3.0909	0.	1.2309e-002
2741	18.088	3.0909	0.	1.2793e-002
2742	18.273	3.0909	0.	1.3302e-002
2743	18.458	3.0909	0.	1.3862e-002
2744	18.643	3.0909	0.	1.4473e-002
2745	18.827	3.0909	0.	1.512e-002
2746	19.012	3.0909	0.	1.5786e-002
2747	19.197	3.0909	0.	1.65e-002
2748	19.382	3.0909	0.	1.7277e-002
2749	19.566	3.0909	0.	1.8121e-002
2750	19.751	3.0909	0.	1.9051e-002
2751	19.936	3.0909	0.	2.006e-002
2752	20.12	3.0909	0.	2.1138e-002
2753	20.305	3.0909	0.	2.2324e-002
2754	20.49	3.0909	0.	2.3645e-002
2755	20.675	3.0909	0.	2.5115e-002
2756	20.859	3.0909	0.	2.6754e-002
2757	21.044	3.0909	0.	2.8573e-002
2758	21.229	3.0909	0.	3.0632e-002
2759	21.414	3.0909	0.	3.298e-002
2760	21.598	3.0909	0.	3.5688e-002
2761	21.783	3.0909	0.	3.8844e-002
2762	21.968	3.0909	0.	4.2573e-002
2763	22.153	3.0909	0.	4.7041e-002
2764	22.337	3.0909	0.	5.2507e-002
2765	22.522	3.0909	0.	5.9413e-002
2766	22.707	3.0909	0.	6.8217e-002
2767	22.892	3.0909	0.	8.0588e-002
2768	23.076	3.0909	0.	9.5872e-002
2769	23.261	3.0909	0.	0.12778
2770	23.446	3.0909	0.	0.14553
2771	23.631	3.0909	0.	0.33373
2772	23.815	3.0909	0.	0.21026
2773	8.8514	2.9091	0.	-0.21684
2774	9.0361	2.9091	0.	6.1305e-002
2775	9.2209	2.9091	0.	0.906
2776	9.4056	2.9091	0.	-17.693
2777	9.5904	2.9091	0.	-166.36
2778	9.7751	2.9091	0.	-261.01
2779	9.9598	2.9091	0.	-314.8
2780	10.145	2.9091	0.	-340.11
2781	10.329	2.9091	0.	-346.45
2782	10.514	2.9091	0.	-340.63
2783	10.699	2.9091	0.	-327.31
2784	10.884	2.9091	0.	-309.65
2785	11.068	2.9091	0.	-289.74
2786	11.253	2.9091	0.	-268.95
2787	11.438	2.9091	0.	-248.2
2788	11.622	2.9091	0.	-228.03
2789	11.807	2.9091	0.	-208.79
2790	11.992	2.9091	0.	-190.67
2791	12.177	2.9091	0.	-173.76
2792	12.361	2.9091	0.	-158.08
2793	12.546	2.9091	0.	-143.6
2794	12.731	2.9091	0.	-130.28
2795	12.916	2.9091	0.	-118.05
2796	13.1	2.9091	0.	-106.84
2797	13.285	2.9091	0.	-96.563
2798	13.47	2.9091	0.	-87.154
2799	13.655	2.9091	0.	-78.534
2800	13.839	2.9091	0.	-70.632
2801	14.024	2.9091	0.	-63.384
2802	14.209	2.9091	0.	-56.727
2803	14.394	2.9091	0.	-50.605
2804	14.578	2.9091	0.	-44.967
2805	14.763	2.9091	0.	-39.764
2806	14.948	2.9091	0.	-34.954
2807	15.133	2.9091	0.	-30.497
2808	15.317	2.9091	0.	-26.358
2809	15.502	2.9091	0.	-22.504
2810	15.687	2.9091	0.	-18.904
2811	15.871	2.9091	0.	-15.53
2812	16.056	2.9091	0.	-12.358
2813	16.241	2.9091	0.	-9.3639
2814	16.426	2.9091	0.	-6.5251
2815	16.61	2.9091	0.	-3.8215
2816	16.795	2.9091	0.	-1.2338
2817	16.98	2.9091	0.	9.9985e-003
2818	17.165	2.9091	0.	1.0467e-002
2819	17.349	2.9091	0.	1.0894e-002
2820	17.534	2.9091	0.	1.1335e-002
2821	17.719	2.9091	0.	1.1813e-002
2822	17.904	2.9091	0.	1.2309e-002
2823	18.088	2.9091	0.	1.2794e-002
2824	18.273	2.9091	0.	1.3305e-002
2825	18.458	2.9091	0.	1.3863e-002
2826	18.643	2.9091	0.	1.4473e-002
2827	18.827	2.9091	0.	1.5119e-002
2828	19.012	2.9091	0.	1.5784e-002
2829	19.197	2.9091	0.	1.6502e-002
2830	19.382	2.9091	0.	1.7276e-002
2831	19.566	2.9091	0.	1.812e-002
2832	19.751	2.9091	0.	1.9052e-002
2833	19.936	2.9091	0.	2.0059e-002
2834	20.12	2.9091	0.	2.1139e-002
2835	20.305	2.9091	0.	2.2323e-002
2836	20.49	2.9091	0.	2.3645e-002
2837	20.675	2.9091	0.	2.5116e-002
2838	20.859	2.9091	0.	2.6753e-002
2839	21.044	2.9091	0.	2.8575e-002
2840	21.229	2.9091	0.	3.0633e-002
2841	21.414	2.9091	0.	3.298e-002
2842	21.598	2.9091	0.	3.5686e-002
2843	21.783	2.9091	0.	3.8846e-002
2844	21.968	2.9091	0.	4.2573e-002
2845	22.153	2.9091	0.	4.7039e-002
2846	22.337	2.9091	0.	5.251e-002
2847	22.522	2.9091	0.	5.9411e-002
2848	22.707	2.9091	0.	6.8216e-002
2849	22.892	2.9091	0.	8.0584e-002
2850	23.076	2.9091	0.	9.5874e-002
2851	23.261	2.9091	0.	0.12778
2852	23.446	2.9091	0.	0.14553
2853	23.631	2.9091	0.	0.33373
2854	23.815	2.9091	0.	0.21026
2855	8.8514	2.7273	0.	-2.79
2856	9.0361	2.7273	0.	-5.1673e-002
2857	9.2209	2.7273	0.	0.75786
2858	9.4056	2.7273	0.	-35.301
2859	9.5904	2.7273	0.	-175.74
2860	9.7751	2.7273	0.	-263.04
2861	9.9598	2.7273	0.	-311.7
2862	10.145	2.7273	0.	-333.96
2863	10.329	2.7273	0.	-338.79
2864	10.514	2.7273	0.	-332.44
2865	10.699	2.7273	0.	-319.2
2866	10.884	2.7273	0.	-301.96
2867	11.068	2.7273	0.	-282.64
2868	11.253	2.7273	0.	-262.52
2869	11.438	2.7273	0.	-242.44
2870	11.622	2.7273	0.	-222.92
2871	11.807	2.7273	0.	-204.29
2872	11.992	2.7273	0.	-186.72
2873	12.177	2.7273	0.	-170.3
2874	12.361	2.7273	0.	-155.06
2875	12.546	2.7273	0.	-140.96
2876	12.731	2.7273	0.	-127.98
2877	12.916	2.7273	0.	-116.04
2878	13.1	2.7273	0.	-105.08
2879	13.285	2.7273	0.	-95.032
2880	13.47	2.7273	0.	-85.814
2881	13.655	2.7273	0.	-77.359
2882	13.839	2.7273	0.	-69.6
2883	14.024	2.7273	0.	-62.475
2884	14.209	2.7273	0.	-55.925
2885	14.394	2.7273	0.	-49.896
2886	14.578	2.7273	0.	-44.338
2887	14.763	2.7273	0.	-39.206
2888	14.948	2.7273	0.	-34.458
2889	15.133	2.7273	0.	-30.057
2890	15.317	2.7273	0.	-25.966
2891	15.502	2.7273	0.	-22.154
2892	15.687	2.7273	0.	-18.593
2893	15.871	2.7273	0.	-15.254
2894	16.056	2.7273	0.	-12.113
2895	16.241	2.7273	0.	-9.1475
2896	16.426	2.7273	0.	-6.3351
2897	16.61	2.7273	0.	-3.6559
2898	16.795	2.7273	0.	-1.0918
2899	16.98	2.7273	0.	9.0911e-003
2900	17.165	2.7273	0.	1.0065e-002
2901	17.349	2.7273	0.	1.0599e-002
2902	17.534	2.7273	0.	1.1084e-002
2903	17.719	2.7273	0.	1.1585e-002
2904	17.904	2.7273	0.	1.2092e-002
2905	18.088	2.7273	0.	1.2583e-002
2906	18.273	2.7273	0.	1.3097e-002
2907	18.458	2.7273	0.	1.3658e-002
2908	18.643	2.7273	0.	1.4267e-002
2909	18.827	2.7273	0.	1.4913e-002
2910	19.012	2.7273	0.	1.5575e-002
2911	19.197	2.7273	0.	1.6289e-002
2912	19.382	2.7273	0.	1.7061e-002
2913	19.566	2.7273	0.	1.79e-002
2914	19.751	2.7273	0.	1.8826e-002
2915	19.936	2.7273	0.	1.9832e-002
2916	20.12	2.7273	0.	2.0906e-002
2917	20.305	2.7273	0.	2.2086e-002
2918	20.49	2.7273	0.	2.3402e-002
2919	20.675	2.7273	0.	2.4868e-002
2920	20.859	2.7273	0.	2.65e-002
2921	21.044	2.7273	0.	2.8319e-002
2922	21.229	2.7273	0.	3.0369e-002
2923	21.414	2.7273	0.	3.2712e-002
2924	21.598	2.7273	0.	3.5417e-002
2925	21.783	2.7273	0.	3.8572e-002
2926	21.968	2.7273	0.	4.2293e-002
2927	22.153	2.7273	0.	4.6757e-002
2928	22.337	2.7273	0.	5.2218e-002
2929	22.522	2.7273	0.	5.9114e-002
2930	22.707	2.7273	0.	6.7906e-002
2931	22.892	2.7273	0.	8.0259e-002
2932	23.076	2.7273	0.	9.5517e-002
2933	23.261	2.7273	0.	0.12739
2934	23.446	2.7273	0.	0.14508
2935	23.631	2.7273	0.	0.33307
2936	23.815	2.7273	0.	0.20887
2937	8.8514	2.5455	0.	4.5498
2938	9.0361	2.5455	0.	0.31086
2939	9.2209	2.5455	0.	-0.26252
2940	9.4056	2.5455	0.	-63.337
2941	9.5904	2.5455	0.	-187.55
2942	9.7751	2.5455	0.	-261.92
2943	9.9598	2.5455	0.	-302.25
2944	10.145	2.5455	0.	-319.88
2945	10.329	2.5455	0.	-322.6
2946	10.514	2.5455	0.	-315.75
2947	10.699	2.5455	0.	-302.97
2948	10.884	2.5455	0.	-286.72
2949	11.068	2.5455	0.	-268.65
2950	11.253	2.5455	0.	-249.89
2951	11.438	2.5455	0.	-231.16
2952	11.622	2.5455	0.	-212.92
2953	11.807	2.5455	0.	-195.48
2954	11.992	2.5455	0.	-178.99
2955	12.177	2.5455	0.	-163.53
2956	12.361	2.5455	0.	-149.14
2957	12.546	2.5455	0.	-135.8
2958	12.731	2.5455	0.	-123.47
2959	12.916	2.5455	0.	-112.11
2960	13.1	2.5455	0.	-101.65
2961	13.285	2.5455	0.	-92.024
2962	13.47	2.5455	0.	-83.178
2963	13.655	2.5455	0.	-75.045
2964	13.839	2.5455	0.	-67.565
2965	14.024	2.5455	0.	-60.682
2966	14.209	2.5455	0.	-54.341
2967	14.394	2.5455	0.	-48.494
2968	14.578	2.5455	0.	-43.096
2969	14.763	2.5455	0.	-38.103
2970	14.948	2.5455	0.	-33.477
2971	15.133	2.5455	0.	-29.183
2972	15.317	2.5455	0.	-25.187
2973	15.502	2.5455	0.	-21.461
2974	15.687	2.5455	0.	-17.975
2975	15.871	2.5455	0.	-14.705
2976	16.056	2.5455	0.	-11.626
2977	16.241	2.5455	0.	-8.7172
2978	16.426	2.5455	0.	-5.9569
2979	16.61	2.5455	0.	-3.3264
2980	16.795	2.5455	0.	-0.80983
2981	16.98	2.5455	0.	7.669e-003
2982	17.165	2.5455	0.	9.3159e-003
2983	17.349	2.5455	0.	1.0031e-002
2984	17.534	2.5455	0.	1.059e-002
2985	17.719	2.5455	0.	1.1131e-002
2986	17.904	2.5455	0.	1.1659e-002
2987	18.088	2.5455	0.	1.2163e-002
2988	18.273	2.5455	0.	1.2682e-002
2989	18.458	2.5455	0.	1.3243e-002
2990	18.643	2.5455	0.	1.3852e-002
2991	18.827	2.5455	0.	1.4495e-002
2992	19.012	2.5455	0.	1.5153e-002
2993	19.197	2.5455	0.	1.5861e-002
2994	19.382	2.5455	0.	1.6626e-002
2995	19.566	2.5455	0.	1.7456e-002
2996	19.751	2.5455	0.	1.8376e-002
2997	19.936	2.5455	0.	1.9369e-002
2998	20.12	2.5455	0.	2.0434e-002
2999	20.305	2.5455	0.	2.1606e-002
3000	20.49	2.5455	0.	2.2908e-002
3001	20.675	2.5455	0.	2.4366e-002
3002	20.859	2.5455	0.	2.5987e-002
3003	21.044	2.5455	0.	2.779e-002
3004	21.229	2.5455	0.	2.9835e-002
3005	21.414	2.5455	0.	3.2169e-002
3006	21.598	2.5455	0.	3.4862e-002
3007	21.783	2.5455	0.	3.8008e-002
3008	21.968	2.5455	0.	4.1721e-002
3009	22.153	2.5455	0.	4.6175e-002
3010	22.337	2.5455	0.	5.1622e-002
3011	22.522	2.5455	0.	5.8502e-002
3012	22.707	2.5455	0.	6.7269e-002
3013	22.892	2.5455	0.	7.9583e-002
3014	23.076	2.5455	0.	9.4793e-002
3015	23.261	2.5455	0.	0.12658
3016	23.446	2.5455	0.	0.14414
3017	23.631	2.5455	0.	0.33173
3018	23.815	2.5455	0.	0.20605
3019	8.8514	2.3636	0.	-16.238
3020	9.0361	2.3636	0.	-9.227
3021	9.2209	2.3636	0.	4.4892
3022	9.4056	2.3636	0.	-82.863
3023	9.5904	2.3636	0.	-187.28
3024	9.7751	2.3636	0.	-248.48
3025	9.9598	2.3636	0.	-281.24
3026	10.145	2.3636	0.	-295.17
3027	10.329	2.3636	0.	-296.71
3028	10.514	2.3636	0.	-290.24
3029	10.699	2.3636	0.	-278.75
3030	10.884	2.3636	0.	-264.29
3031	11.068	2.3636	0.	-248.24
3032	11.253	2.3636	0.	-231.53
3033	11.438	2.3636	0.	-214.8
3034	11.622	2.3636	0.	-198.44
3035	11.807	2.3636	0.	-182.72
3036	11.992	2.3636	0.	-167.79
3037	12.177	2.3636	0.	-153.73
3038	12.361	2.3636	0.	-140.57
3039	12.546	2.3636	0.	-128.31
3040	12.731	2.3636	0.	-116.93
3041	12.916	2.3636	0.	-106.39
3042	13.1	2.3636	0.	-96.64
3043	13.285	2.3636	0.	-87.639
3044	13.47	2.3636	0.	-79.33
3045	13.655	2.3636	0.	-71.663
3046	13.839	2.3636	0.	-64.586
3047	14.024	2.3636	0.	-58.053
3048	14.209	2.3636	0.	-52.017
3049	14.394	2.3636	0.	-46.435
3050	14.578	2.3636	0.	-41.267
3051	14.763	2.3636	0.	-36.477
3052	14.948	2.3636	0.	-32.029
3053	15.133	2.3636	0.	-27.892
3054	15.317	2.3636	0.	-24.036
3055	15.502	2.3636	0.	-20.434
3056	15.687	2.3636	0.	-17.06
3057	15.871	2.3636	0.	-13.89
3058	16.056	2.3636	0.	-10.903
3059	16.241	2.3636	0.	-8.0776
3060	16.426	2.3636	0.	-5.3945
3061	16.61	2.3636	0.	-2.836
3062	16.795	2.3636	0.	-0.39699
3063	16.98	2.3636	0.	6.152e-003
3064	17.165	2.3636	0.	8.311e-003
3065	17.349	2.3636	0.	9.2166e-003
3066	17.534	2.3636	0.	9.8692e-003
3067	17.719	2.3636	0.	1.0457e-002
3068	17.904	2.3636	0.	1.1014e-002
3069	18.088	2.3636	0.	1.1529e-002
3070	18.273	2.3636	0.	1.2055e-002
3071	18.458	2.3636	0.	1.2618e-002
3072	18.643	2.3636	0.	1.3224e-002
3073	18.827	2.3636	0.	1.3859e-002
3074	19.012	2.3636	0.	1.451e-002
3075	19.197	2.3636	0.	1.5207e-002
3076	19.382	2.3636	0.	1.5961e-002
3077	19.566	2.3636	0.	1.6777e-002
3078	19.751	2.3636	0.	1.7682e-002
3079	19.936	2.3636	0.	1.8662e-002
3080	20.12	2.3636	0.	1.9709e-002
3081	20.305	2.3636	0.	2.0863e-002
3082	20.49	2.3636	0.	2.2149e-002
3083	20.675	2.3636	0.	2.3587e-002
3084	20.859	2.3636	0.	2.5191e-002
3085	21.044	2.3636	0.	2.698e-002
3086	21.229	2.3636	0.	2.9005e-002
3087	21.414	2.3636	0.	3.1323e-002
3088	21.598	2.3636	0.	3.3999e-002
3089	21.783	2.3636	0.	3.713e-002
3090	21.968	2.3636	0.	4.0828e-002
3091	22.153	2.3636	0.	4.526e-002
3092	22.337	2.3636	0.	5.0689e-002
3093	22.522	2.3636	0.	5.7542e-002
3094	22.707	2.3636	0.	6.6272e-002
3095	22.892	2.3636	0.	7.8532e-002
3096	23.076	2.3636	0.	9.3659e-002
3097	23.261	2.3636	0.	0.12531
3098	23.446	2.3636	0.	0.1427
3099	23.631	2.3636	0.	0.32965
3100	23.815	2.3636	0.	0.20173
3101	8.8514	2.1818	0.	-15.545
3102	9.0361	2.1818	0.	32.731
3103	9.2209	2.1818	0.	-7.4701
3104	9.4056	2.1818	0.	-61.247
3105	9.5904	2.1818	0.	-157.43
3106	9.7751	2.1818	0.	-213.47
3107	9.9598	2.1818	0.	-244.16
3108	10.145	2.1818	0.	-257.89
3109	10.329	2.1818	0.	-260.59
3110	10.514	2.1818	0.	-256.12
3111	10.699	2.1818	0.	-247.14
3112	10.884	2.1818	0.	-235.42
3113	11.068	2.1818	0.	-222.17
3114	11.253	2.1818	0.	-208.2
3115	11.438	2.1818	0.	-194.06
3116	11.622	2.1818	0.	-180.1
3117	11.807	2.1818	0.	-166.57
3118	11.992	2.1818	0.	-153.6
3119	12.177	2.1818	0.	-141.29
3120	12.361	2.1818	0.	-129.68
3121	12.546	2.1818	0.	-118.78
3122	12.731	2.1818	0.	-108.59
3123	12.916	2.1818	0.	-99.085
3124	13.1	2.1818	0.	-90.241
3125	13.285	2.1818	0.	-82.022
3126	13.47	2.1818	0.	-74.392
3127	13.655	2.1818	0.	-67.313
3128	13.839	2.1818	0.	-60.748
3129	14.024	2.1818	0.	-54.659
3130	14.209	2.1818	0.	-49.009
3131	14.394	2.1818	0.	-43.765
3132	14.578	2.1818	0.	-38.892
3133	14.763	2.1818	0.	-34.361
3134	14.948	2.1818	0.	-30.142
3135	15.133	2.1818	0.	-26.208
3136	15.317	2.1818	0.	-22.532
3137	15.502	2.1818	0.	-19.09
3138	15.687	2.1818	0.	-15.86
3139	15.871	2.1818	0.	-12.821
3140	16.056	2.1818	0.	-9.9525
3141	16.241	2.1818	0.	-7.2357
3142	16.426	2.1818	0.	-4.6531
3143	16.61	2.1818	0.	-2.1892
3144	16.795	2.1818	0.	-3.9446e-002
3145	16.98	2.1818	0.	4.7681e-003
3146	17.165	2.1818	0.	7.1416e-003
3147	17.349	2.1818	0.	8.2055e-003
3148	17.534	2.1818	0.	8.941e-003
3149	17.719	2.1818	0.	9.5756e-003
3150	17.904	2.1818	0.	1.0156e-002
3151	18.088	2.1818	0.	1.0684e-002
3152	18.273	2.1818	0.	1.1212e-002
3153	18.458	2.1818	0.	1.1773e-002
3154	18.643	2.1818	0.	1.2372e-002
3155	18.827	2.1818	0.	1.2998e-002
3156	19.012	2.1818	0.	1.3634e-002
3157	19.197	2.1818	0.	1.4314e-002
3158	19.382	2.1818	0.	1.505e-002
3159	19.566	2.1818	0.	1.585e-002
3160	19.751	2.1818	0.	1.6729e-002
3161	19.936	2.1818	0.	1.7687e-002
3162	20.12	2.1818	0.	1.871e-002
3163	20.305	2.1818	0.	1.9838e-002
3164	20.49	2.1818	0.	2.11e-002
3165	20.675	2.1818	0.	2.251e-002
3166	20.859	2.1818	0.	2.4085e-002
3167	21.044	2.1818	0.	2.5846e-002
3168	21.229	2.1818	0.	2.7845e-002
3169	21.414	2.1818	0.	3.0138e-002
3170	21.598	2.1818	0.	3.2786e-002
3171	21.783	2.1818	0.	3.5896e-002
3172	21.968	2.1818	0.	3.9565e-002
3173	22.153	2.1818	0.	4.3972e-002
3174	22.337	2.1818	0.	4.9371e-002
3175	22.522	2.1818	0.	5.6182e-002
3176	22.707	2.1818	0.	6.4859e-002
3177	22.892	2.1818	0.	7.7041e-002
3178	23.076	2.1818	0.	9.2062e-002
3179	23.261	2.1818	0.	0.12353
3180	23.446	2.1818	0.	0.14066
3181	23.631	2.1818	0.	0.32675
3182	23.815	2.1818	0.	0.19578
3183	8.8514	2.	0.	-525.45
3184	9.0361	2.	0.	73.041
3185	9.2209	2.	0.	-16.055
3186	9.4056	2.	0.	-10.637
3187	9.5904	2.	0.	-90.434
3188	9.7751	2.	0.	-154.2
3189	9.9598	2.	0.	-190.46
3190	10.145	2.	0.	-208.6
3191	10.329	2.	0.	-215.27
3192	10.514	2.	0.	-214.63
3193	10.699	2.	0.	-209.4
3194	10.884	2.	0.	-201.33
3195	11.068	2.	0.	-191.59
3196	11.253	2.	0.	-180.93
3197	11.438	2.	0.	-169.85
3198	11.622	2.	0.	-158.71
3199	11.807	2.	0.	-147.71
3200	11.992	2.	0.	-137.03
3201	12.177	2.	0.	-126.74
3202	12.361	2.	0.	-116.92
3203	12.546	2.	0.	-107.59
3204	12.731	2.	0.	-98.771
3205	12.916	2.	0.	-90.467
3206	13.1	2.	0.	-82.667
3207	13.285	2.	0.	-75.356
3208	13.47	2.	0.	-68.516
3209	13.655	2.	0.	-62.124
3210	13.839	2.	0.	-56.156
3211	14.024	2.	0.	-50.587
3212	14.209	2.	0.	-45.392
3213	14.394	2.	0.	-40.546
3214	14.578	2.	0.	-36.023
3215	14.763	2.	0.	-31.799
3216	14.948	2.	0.	-27.852
3217	15.133	2.	0.	-24.158
3218	15.317	2.	0.	-20.697
3219	15.502	2.	0.	-17.448
3220	15.687	2.	0.	-14.392
3221	15.871	2.	0.	-11.51
3222	16.056	2.	0.	-8.7851
3223	16.241	2.	0.	-6.2002
3224	16.426	2.	0.	-3.74
3225	16.61	2.	0.	-1.3935
3226	16.795	2.	0.	-8.9028e-003
3227	16.98	2.	0.	3.5712e-003
3228	17.165	2.	0.	5.8948e-003
3229	17.349	2.	0.	7.0414e-003
3230	17.534	2.	0.	7.8342e-003
3231	17.719	2.	0.	8.4995e-003
3232	17.904	2.	0.	9.0964e-003
3233	18.088	2.	0.	9.6286e-003
3234	18.273	2.	0.	1.0153e-002
3235	18.458	2.	0.	1.0703e-002
3236	18.643	2.	0.	1.1289e-002
3237	18.827	2.	0.	1.1896e-002
3238	19.012	2.	0.	1.251e-002
3239	19.197	2.	0.	1.3169e-002
3240	19.382	2.	0.	1.3877e-002
3241	19.566	2.	0.	1.4644e-002
3242	19.751	2.	0.	1.5498e-002
3243	19.936	2.	0.	1.6418e-002
3244	20.12	2.	0.	1.7408e-002
3245	20.305	2.	0.	1.8498e-002
3246	20.49	2.	0.	1.9724e-002
3247	20.675	2.	0.	2.1097e-002
3248	20.859	2.	0.	2.2631e-002
3249	21.044	2.	0.	2.435e-002
3250	21.229	2.	0.	2.6308e-002
3251	21.414	2.	0.	2.8557e-002
3252	21.598	2.	0.	3.1171e-002
3253	21.783	2.	0.	3.4234e-002
3254	21.968	2.	0.	3.7866e-002
3255	22.153	2.	0.	4.2235e-002
3256	22.337	2.	0.	4.7586e-002
3257	22.522	2.	0.	5.4345e-002
3258	22.707	2.	0.	6.2952e-002
3259	22.892	2.	0.	7.5032e-002
3260	23.076	2.	0.	8.9907e-002
3261	23.261	2.	0.	0.12113
3262	23.446	2.	0.	0.13794
3263	23.631	2.	0.	0.32288
3264	23.815	2.	0.	0.18801
3265	8.8514	1.8182	0.	-141.33
3266	9.0361	1.8182	0.	7.7844
3267	9.2209	1.8182	0.	-7.6769
3268	9.4056	1.8182	0.	-5.5058
3269	9.5904	1.8182	0.	-19.262
3270	9.7751	1.8182	0.	-79.632
3271	9.9598	1.8182	0.	-125.55
3272	10.145	1.8182	0.	-151.09
3273	10.329	1.8182	0.	-163.65
3274	10.514	1.8182	0.	-168.11
3275	10.699	1.8182	0.	-167.5
3276	10.884	1.8182	0.	-163.73
3277	11.068	1.8182	0.	-157.96
3278	11.253	1.8182	0.	-150.98
3279	11.438	1.8182	0.	-143.28
3280	11.622	1.8182	0.	-135.2
3281	11.807	1.8182	0.	-126.97
3282	11.992	1.8182	0.	-118.76
3283	12.177	1.8182	0.	-110.66
3284	12.361	1.8182	0.	-102.78
3285	12.546	1.8182	0.	-95.153
3286	12.731	1.8182	0.	-87.83
3287	12.916	1.8182	0.	-80.83
3288	13.1	1.8182	0.	-74.169
3289	13.285	1.8182	0.	-67.852
3290	13.47	1.8182	0.	-61.878
3291	13.655	1.8182	0.	-56.242
3292	13.839	1.8182	0.	-50.933
3293	14.024	1.8182	0.	-45.941
3294	14.209	1.8182	0.	-41.251
3295	14.394	1.8182	0.	-36.848
3296	14.578	1.8182	0.	-32.716
3297	14.763	1.8182	0.	-28.838
3298	14.948	1.8182	0.	-25.198
3299	15.133	1.8182	0.	-21.777
3300	15.317	1.8182	0.	-18.561
3301	15.502	1.8182	0.	-15.532
3302	15.687	1.8182	0.	-12.674
3303	15.871	1.8182	0.	-9.9733
3304	16.056	1.8182	0.	-7.4137
3305	16.241	1.8182	0.	-4.9813
3306	16.426	1.8182	0.	-2.6638
3307	16.61	1.8182	0.	-0.4759
3308	16.795	1.8182	0.	-4.1014e-003
3309	16.98	1.8182	0.	2.5392e-003
3310	17.165	1.8182	0.	4.6283e-003
3311	17.349	1.8182	0.	5.7706e-003
3312	17.534	1.8182	0.	6.5735e-003
3313	17.719	1.8182	0.	7.2462e-003
3314	17.904	1.8182	0.	7.8378e-003
3315	18.088	1.8182	0.	8.3611e-003
3316	18.273	1.8182	0.	8.8701e-003
3317	18.458	1.8182	0.	9.3994e-003
3318	18.643	1.8182	0.	9.9584e-003
3319	18.827	1.8182	0.	1.0536e-002
3320	19.012	1.8182	0.	1.112e-002
3321	19.197	1.8182	0.	1.1742e-002
3322	19.382	1.8182	0.	1.2413e-002
3323	19.566	1.8182	0.	1.314e-002
3324	19.751	1.8182	0.	1.3947e-002
3325	19.936	1.8182	0.	1.4825e-002
3326	20.12	1.8182	0.	1.5766e-002
3327	20.305	1.8182	0.	1.6806e-002
3328	20.49	1.8182	0.	1.7974e-002
3329	20.675	1.8182	0.	1.9289e-002
3330	20.859	1.8182	0.	2.0767e-002
3331	21.044	1.8182	0.	2.243e-002
3332	21.229	1.8182	0.	2.4326e-002
3333	21.414	1.8182	0.	2.6515e-002
3334	21.598	1.8182	0.	2.9062e-002
3335	21.783	1.8182	0.	3.2069e-002
3336	21.968	1.8182	0.	3.5637e-002
3337	22.153	1.8182	0.	3.9941e-002
3338	22.337	1.8182	0.	4.5223e-002
3339	22.522	1.8182	0.	5.1908e-002
3340	22.707	1.8182	0.	6.0417e-002
3341	22.892	1.8182	0.	7.2367e-002
3342	23.076	1.8182	0.	8.7059e-002
3343	23.261	1.8182	0.	0.11797
3344	23.446	1.8182	0.	0.13436
3345	23.631	1.8182	0.	0.31784
3346	23.815	1.8182	0.	0.17814
3347	8.8514	1.6364	0.	8.5774
3348	9.0361	1.6364	0.	1.2586
3349	9.2209	1.6364	0.	-10.747
3350	9.4056	1.6364	0.	-3.1127
3351	9.5904	1.6364	0.	-6.2575
3352	9.7751	1.6364	0.	-18.317
3353	9.9598	1.6364	0.	-59.978
3354	10.145	1.6364	0.	-91.694
3355	10.329	1.6364	0.	-110.09
3356	10.514	1.6364	0.	-119.79
3357	10.699	1.6364	0.	-123.99
3358	10.884	1.6364	0.	-124.66
3359	11.068	1.6364	0.	-123.01
3360	11.253	1.6364	0.	-119.82
3361	11.438	1.6364	0.	-115.58
3362	11.622	1.6364	0.	-110.65
3363	11.807	1.6364	0.	-105.24
3364	11.992	1.6364	0.	-99.555
3365	12.177	1.6364	0.	-93.709
3366	12.361	1.6364	0.	-87.811
3367	12.546	1.6364	0.	-81.938
3368	12.731	1.6364	0.	-76.152
3369	12.916	1.6364	0.	-70.502
3370	13.1	1.6364	0.	-65.022
3371	13.285	1.6364	0.	-59.739
3372	13.47	1.6364	0.	-54.669
3373	13.655	1.6364	0.	-49.825
3374	13.839	1.6364	0.	-45.212
3375	14.024	1.6364	0.	-40.83
3376	14.209	1.6364	0.	-36.678
3377	14.394	1.6364	0.	-32.75
3378	14.578	1.6364	0.	-29.038
3379	14.763	1.6364	0.	-25.533
3380	14.948	1.6364	0.	-22.225
3381	15.133	1.6364	0.	-19.102
3382	15.317	1.6364	0.	-16.154
3383	15.502	1.6364	0.	-13.366
3384	15.687	1.6364	0.	-10.729
3385	15.871	1.6364	0.	-8.2279
3386	16.056	1.6364	0.	-5.8525
3387	16.241	1.6364	0.	-3.591
3388	16.426	1.6364	0.	-1.4378
3389	16.61	1.6364	0.	-2.9351e-002
3390	16.795	1.6364	0.	-2.4293e-003
3391	16.98	1.6364	0.	1.6376e-003
3392	17.165	1.6364	0.	3.3788e-003
3393	17.349	1.6364	0.	4.4294e-003
3394	17.534	1.6364	0.	5.1924e-003
3395	17.719	1.6364	0.	5.8345e-003
3396	17.904	1.6364	0.	6.3985e-003
3397	18.088	1.6364	0.	6.8894e-003
3398	18.273	1.6364	0.	7.3641e-003
3399	18.458	1.6364	0.	7.8568e-003
3400	18.643	1.6364	0.	8.3753e-003
3401	18.827	1.6364	0.	8.9084e-003
3402	19.012	1.6364	0.	9.4453e-003
3403	19.197	1.6364	0.	1.0016e-002
3404	19.382	1.6364	0.	1.0633e-002
3405	19.566	1.6364	0.	1.1308e-002
3406	19.751	1.6364	0.	1.2051e-002
3407	19.936	1.6364	0.	1.2863e-002
3408	20.12	1.6364	0.	1.3737e-002
3409	20.305	1.6364	0.	1.4703e-002
3410	20.49	1.6364	0.	1.5796e-002
3411	20.675	1.6364	0.	1.7035e-002
3412	20.859	1.6364	0.	1.8429e-002
3413	21.044	1.6364	0.	2.0002e-002
3414	21.229	1.6364	0.	2.1811e-002
3415	21.414	1.6364	0.	2.3907e-002
3416	21.598	1.6364	0.	2.6362e-002
3417	21.783	1.6364	0.	2.927e-002
3418	21.968	1.6364	0.	3.2746e-002
3419	22.153	1.6364	0.	3.6949e-002
3420	22.337	1.6364	0.	4.2132e-002
3421	22.522	1.6364	0.	4.87e-002
3422	22.707	1.6364	0.	5.708e-002
3423	22.892	1.6364	0.	6.8861e-002
3424	23.076	1.6364	0.	8.3319e-002
3425	23.261	1.6364	0.	0.11384
3426	23.446	1.6364	0.	0.1297
3427	23.631	1.6364	0.	0.31133
3428	23.815	1.6364	0.	0.16578
3429	8.8514	1.4545	0.	-23.49
3430	9.0361	1.4545	0.	-2.0504
3431	9.2209	1.4545	0.	-3.8921
3432	9.4056	1.4545	0.	-3.5192
3433	9.5904	1.4545	0.	-3.7431
3434	9.7751	1.4545	0.	-5.3227
3435	9.9598	1.4545	0.	-13.666
3436	10.145	1.4545	0.	-38.225
3437	10.329	1.4545	0.	-59.508
3438	10.514	1.4545	0.	-73.248
3439	10.699	1.4545	0.	-81.617
3440	10.884	1.4545	0.	-86.346
3441	11.068	1.4545	0.	-88.556
3442	11.253	1.4545	0.	-88.965
3443	11.438	1.4545	0.	-88.046
3444	11.622	1.4545	0.	-86.129
3445	11.807	1.4545	0.	-83.455
3446	11.992	1.4545	0.	-80.21
3447	12.177	1.4545	0.	-76.544
3448	12.361	1.4545	0.	-72.579
3449	12.546	1.4545	0.	-68.416
3450	12.731	1.4545	0.	-64.139
3451	12.916	1.4545	0.	-59.817
3452	13.1	1.4545	0.	-55.506
3453	13.285	1.4545	0.	-51.251
3454	13.47	1.4545	0.	-47.086
3455	13.655	1.4545	0.	-43.04
3456	13.839	1.4545	0.	-39.13
3457	14.024	1.4545	0.	-35.37
3458	14.209	1.4545	0.	-31.768
3459	14.394	1.4545	0.	-28.329
3460	14.578	1.4545	0.	-25.053
3461	14.763	1.4545	0.	-21.938
3462	14.948	1.4545	0.	-18.979
3463	15.133	1.4545	0.	-16.172
3464	15.317	1.4545	0.	-13.507
3465	15.502	1.4545	0.	-10.979
3466	15.687	1.4545	0.	-8.5765
3467	15.871	1.4545	0.	-6.2921
3468	16.056	1.4545	0.	-4.1167
3469	16.241	1.4545	0.	-2.0439
3470	16.426	1.4545	0.	-0.18597
3471	16.61	1.4545	0.	-9.2605e-003
3472	16.795	1.4545	0.	-1.74e-003
3473	16.98	1.4545	0.	8.1819e-004
3474	17.165	1.4545	0.	2.1685e-003
3475	17.349	1.4545	0.	3.0541e-003
3476	17.534	1.4545	0.	3.7184e-003
3477	17.719	1.4545	0.	4.2896e-003
3478	17.904	1.4545	0.	4.7894e-003
3479	18.088	1.4545	0.	5.2232e-003
3480	18.273	1.4545	0.	5.6375e-003
3481	18.458	1.4545	0.	6.0686e-003
3482	18.643	1.4545	0.	6.5275e-003
3483	18.827	1.4545	0.	6.9966e-003
3484	19.012	1.4545	0.	7.4621e-003
3485	19.197	1.4545	0.	7.9636e-003
3486	19.382	1.4545	0.	8.5026e-003
3487	19.566	1.4545	0.	9.0953e-003
3488	19.751	1.4545	0.	9.7577e-003
3489	19.936	1.4545	0.	1.0481e-002
3490	20.12	1.4545	0.	1.1259e-002
3491	20.305	1.4545	0.	1.2128e-002
3492	20.49	1.4545	0.	1.3115e-002
3493	20.675	1.4545	0.	1.4241e-002
3494	20.859	1.4545	0.	1.5517e-002
3495	21.044	1.4545	0.	1.6968e-002
3496	21.229	1.4545	0.	1.8646e-002
3497	21.414	1.4545	0.	2.0606e-002
3498	21.598	1.4545	0.	2.2918e-002
3499	21.783	1.4545	0.	2.5679e-002
3500	21.968	1.4545	0.	2.9e-002
3501	22.153	1.4545	0.	3.305e-002
3502	22.337	1.4545	0.	3.8069e-002
3503	22.522	1.4545	0.	4.447e-002
3504	22.707	1.4545	0.	5.2661e-002
3505	22.892	1.4545	0.	6.4205e-002
3506	23.076	1.4545	0.	7.8358e-002
3507	23.261	1.4545	0.	0.10839
3508	23.446	1.4545	0.	0.12358
3509	23.631	1.4545	0.	0.30289
3510	23.815	1.4545	0.	0.15029
3511	8.8514	1.2727	0.	-7.7445
3512	9.0361	1.2727	0.	-1.1162
3513	9.2209	1.2727	0.	-3.4091
3514	9.4056	1.2727	0.	-2.773
3515	9.5904	1.2727	0.	-2.7603
3516	9.7751	1.2727	0.	-3.062
3517	9.9598	1.2727	0.	-4.0597
3518	10.145	1.2727	0.	-7.3885
3519	10.329	1.2727	0.	-18.177
3520	10.514	1.2727	0.	-32.111
3521	10.699	1.2727	0.	-43.075
3522	10.884	1.2727	0.	-50.953
3523	11.068	1.2727	0.	-56.393
3524	11.253	1.2727	0.	-59.928
3525	11.438	1.2727	0.	-61.943
3526	11.622	1.2727	0.	-62.731
3527	11.807	1.2727	0.	-62.519
3528	11.992	1.2727	0.	-61.496
3529	12.177	1.2727	0.	-59.822
3530	12.361	1.2727	0.	-57.635
3531	12.546	1.2727	0.	-55.053
3532	12.731	1.2727	0.	-52.18
3533	12.916	1.2727	0.	-49.103
3534	13.1	1.2727	0.	-45.895
3535	13.285	1.2727	0.	-42.618
3536	13.47	1.2727	0.	-39.321
3537	13.655	1.2727	0.	-36.045
3538	13.839	1.2727	0.	-32.821
3539	14.024	1.2727	0.	-29.672
3540	14.209	1.2727	0.	-26.616
3541	14.394	1.2727	0.	-23.666
3542	14.578	1.2727	0.	-20.829
3543	14.763	1.2727	0.	-18.109
3544	14.948	1.2727	0.	-15.508
3545	15.133	1.2727	0.	-13.024
3546	15.317	1.2727	0.	-10.655
3547	15.502	1.2727	0.	-8.3954
3548	15.687	1.2727	0.	-6.2408
3549	15.871	1.2727	0.	-4.1851
3550	16.056	1.2727	0.	-2.2243
3551	16.241	1.2727	0.	-0.40129
3552	16.426	1.2727	0.	-1.5566e-002
3553	16.61	1.2727	0.	-4.7349e-003
3554	16.795	1.2727	0.	-1.4968e-003
3555	16.98	1.2727	0.	5.9074e-005
3556	17.165	1.2727	0.	1.0058e-003
3557	17.349	1.2727	0.	1.6682e-003
3558	17.534	1.2727	0.	2.1851e-003
3559	17.719	1.2727	0.	2.6374e-003
3560	17.904	1.2727	0.	3.0373e-003
3561	18.088	1.2727	0.	3.3774e-003
3562	18.273	1.2727	0.	3.7035e-003
3563	18.458	1.2727	0.	4.0461e-003
3564	18.643	1.2727	0.	4.4124e-003
3565	18.827	1.2727	0.	4.7889e-003
3566	19.012	1.2727	0.	5.1622e-003
3567	19.197	1.2727	0.	5.5631e-003
3568	19.382	1.2727	0.	6.0015e-003
3569	19.566	1.2727	0.	6.4833e-003
3570	19.751	1.2727	0.	7.0298e-003
3571	19.936	1.2727	0.	7.6319e-003
3572	20.12	1.2727	0.	8.2812e-003
3573	20.305	1.2727	0.	9.0124e-003
3574	20.49	1.2727	0.	9.8528e-003
3575	20.675	1.2727	0.	1.0824e-002
3576	20.859	1.2727	0.	1.1937e-002
3577	21.044	1.2727	0.	1.3209e-002
3578	21.229	1.2727	0.	1.47e-002
3579	21.414	1.2727	0.	1.6456e-002
3580	21.598	1.2727	0.	1.8562e-002
3581	21.783	1.2727	0.	2.1098e-002
3582	21.968	1.2727	0.	2.4188e-002
3583	22.153	1.2727	0.	2.799e-002
3584	22.337	1.2727	0.	3.2755e-002
3585	22.522	1.2727	0.	3.8884e-002
3586	22.707	1.2727	0.	4.6783e-002
3587	22.892	1.2727	0.	5.7997e-002
3588	23.076	1.2727	0.	7.1741e-002
3589	23.261	1.2727	0.	0.10113
3590	23.446	1.2727	0.	0.11548
3591	23.631	1.2727	0.	0.29185
3592	23.815	1.2727	0.	0.1308
3593	8.8514	1.0909	0.	-8.8954
3594	9.0361	1.0909	0.	-0.76434
3595	9.2209	1.0909	0.	-2.9948
3596	9.4056	1.0909	0.	-2.2634
3597	9.5904	1.0909	0.	-2.2471
3598	9.7751	1.0909	0.	-2.1534
3599	9.9598	1.0909	0.	-2.2146
3600	10.145	1.0909	0.	-2.461
3601	10.329	1.0909	0.	-3.1594
3602	10.514	1.0909	0.	-5.4118
3603	10.699	1.0909	0.	-11.96
3604	10.884	1.0909	0.	-20.661
3605	11.068	1.0909	0.	-28.211
3606	11.253	1.0909	0.	-34.106
3607	11.438	1.0909	0.	-38.458
3608	11.622	1.0909	0.	-41.455
3609	11.807	1.0909	0.	-43.288
3610	11.992	1.0909	0.	-44.133
3611	12.177	1.0909	0.	-44.151
3612	12.361	1.0909	0.	-43.49
3613	12.546	1.0909	0.	-42.28
3614	12.731	1.0909	0.	-40.638
3615	12.916	1.0909	0.	-38.664
3616	13.1	1.0909	0.	-36.445
3617	13.285	1.0909	0.	-34.054
3618	13.47	1.0909	0.	-31.554
3619	13.655	1.0909	0.	-28.992
3620	13.839	1.0909	0.	-26.411
3621	14.024	1.0909	0.	-23.843
3622	14.209	1.0909	0.	-21.311
3623	14.394	1.0909	0.	-18.835
3624	14.578	1.0909	0.	-16.428
3625	14.763	1.0909	0.	-14.099
3626	14.948	1.0909	0.	-11.855
3627	15.133	1.0909	0.	-9.6972
3628	15.317	1.0909	0.	-7.6271
3629	15.502	1.0909	0.	-5.6434
3630	15.687	1.0909	0.	-3.7442
3631	15.871	1.0909	0.	-1.9288
3632	16.056	1.0909	0.	-0.27194
3633	16.241	1.0909	0.	-1.5703e-002
3634	16.426	1.0909	0.	-5.9938e-003
3635	16.61	1.0909	0.	-2.9666e-003
3636	16.795	1.0909	0.	-1.5025e-003
3637	16.98	1.0909	0.	-6.7216e-004
3638	17.165	1.0909	0.	-1.2081e-004
3639	17.349	1.0909	0.	2.8098e-004
3640	17.534	1.0909	0.	6.0417e-004
3641	17.719	1.0909	0.	8.9332e-004
3642	17.904	1.0909	0.	1.1495e-003
3643	18.088	1.0909	0.	1.355e-003
3644	18.273	1.0909	0.	1.5523e-003
3645	18.458	1.0909	0.	1.7693e-003
3646	18.643	1.0909	0.	2.0083e-003
3647	18.827	1.0909	0.	2.2568e-003
3648	19.012	1.0909	0.	2.496e-003
3649	19.197	1.0909	0.	2.7583e-003
3650	19.382	1.0909	0.	3.0538e-003
3651	19.566	1.0909	0.	3.3849e-003
3652	19.751	1.0909	0.	3.7735e-003
3653	19.936	1.0909	0.	4.2036e-003
3654	20.12	1.0909	0.	4.6721e-003
3655	20.305	1.0909	0.	5.2135e-003
3656	20.49	1.0909	0.	5.8483e-003
3657	20.675	1.0909	0.	6.5951e-003
3658	20.859	1.0909	0.	7.472e-003
3659	21.044	1.0909	0.	8.4884e-003
3660	21.229	1.0909	0.	9.7027e-003
3661	21.414	1.0909	0.	1.1167e-002
3662	21.598	1.0909	0.	1.2949e-002
3663	21.783	1.0909	0.	1.5139e-002
3664	21.968	1.0909	0.	1.7855e-002
3665	22.153	1.0909	0.	2.1259e-002
3666	22.337	1.0909	0.	2.5596e-002
3667	22.522	1.0909	0.	3.127e-002
3668	22.707	1.0909	0.	3.8689e-002
3669	22.892	1.0909	0.	4.9358e-002
3670	23.076	1.0909	0.	6.2482e-002
3671	23.261	1.0909	0.	9.097e-002
3672	23.446	1.0909	0.	0.10418
3673	23.631	1.0909	0.	0.27674
3674	23.815	1.0909	0.	0.10537
3675	8.8514	0.90909	0.	-7.0934
3676	9.0361	0.90909	0.	-1.0915
3677	9.2209	0.90909	0.	-2.6242
3678	9.4056	0.90909	0.	-2.0582
3679	9.5904	0.90909	0.	-1.8808
3680	9.7751	0.90909	0.	-1.6227
3681	9.9598	0.90909	0.	-1.442
3682	10.145	0.90909	0.	-1.3121
3683	10.329	0.90909	0.	-1.2536
3684	10.514	0.90909	0.	-1.2966
3685	10.699	0.90909	0.	-1.5515
3686	10.884	0.90909	0.	-2.5334
3687	11.068	0.90909	0.	-6.4506
3688	11.253	0.90909	0.	-12.881
3689	11.438	0.90909	0.	-18.66
3690	11.622	0.90909	0.	-23.192
3691	11.807	0.90909	0.	-26.513
3692	11.992	0.90909	0.	-28.754
3693	12.177	0.90909	0.	-30.066
3694	12.361	0.90909	0.	-30.594
3695	12.546	0.90909	0.	-30.475
3696	12.731	0.90909	0.	-29.829
3697	12.916	0.90909	0.	-28.765
3698	13.1	0.90909	0.	-27.378
3699	13.285	0.90909	0.	-25.747
3700	13.47	0.90909	0.	-23.94
3701	13.655	0.90909	0.	-22.013
3702	13.839	0.90909	0.	-20.012
3703	14.024	0.90909	0.	-17.975
3704	14.209	0.90909	0.	-15.93
3705	14.394	0.90909	0.	-13.902
3706	14.578	0.90909	0.	-11.906
3707	14.763	0.90909	0.	-9.9555
3708	14.948	0.90909	0.	-8.06
3709	15.133	0.90909	0.	-6.2249
3710	15.317	0.90909	0.	-4.4536
3711	15.502	0.90909	0.	-2.7484
3712	15.687	0.90909	0.	-1.1165
3713	15.871	0.90909	0.	-4.3498e-002
3714	16.056	0.90909	0.	-9.7298e-003
3715	16.241	0.90909	0.	-4.905e-003
3716	16.426	0.90909	0.	-3.0938e-003
3717	16.61	0.90909	0.	-2.1762e-003
3718	16.795	0.90909	0.	-1.652e-003
3719	16.98	0.90909	0.	-1.3588e-003
3720	17.165	0.90909	0.	-1.1728e-003
3721	17.349	0.90909	0.	-1.0424e-003
3722	17.534	0.90909	0.	-9.4719e-004
3723	17.719	0.90909	0.	-8.5122e-004
3724	17.904	0.90909	0.	-7.6921e-004
3725	18.088	0.90909	0.	-7.3371e-004
3726	18.273	0.90909	0.	-6.9642e-004
3727	18.458	0.90909	0.	-6.4098e-004
3728	18.643	0.90909	0.	-5.6273e-004
3729	18.827	0.90909	0.	-4.7713e-004
3730	19.012	0.90909	0.	-4.0553e-004
3731	19.197	0.90909	0.	-3.181e-004
3732	19.382	0.90909	0.	-2.0688e-004
3733	19.566	0.90909	0.	-6.9438e-005
3734	19.751	0.90909	0.	1.1661e-004
3735	19.936	0.90909	0.	3.3028e-004
3736	20.12	0.90909	0.	5.6532e-004
3737	20.305	0.90909	0.	8.5495e-004
3738	20.49	0.90909	0.	1.2204e-003
3739	20.675	0.90909	0.	1.6771e-003
3740	20.859	0.90909	0.	2.2351e-003
3741	21.044	0.90909	0.	2.9072e-003
3742	21.229	0.90909	0.	3.7391e-003
3743	21.414	0.90909	0.	4.7887e-003
3744	21.598	0.90909	0.	6.1154e-003
3745	21.783	0.90909	0.	7.8068e-003
3746	21.968	0.90909	0.	9.9693e-003
3747	22.153	0.90909	0.	1.2767e-002
3748	22.337	0.90909	0.	1.6446e-002
3749	22.522	0.90909	0.	2.1396e-002
3750	22.707	0.90909	0.	2.8025e-002
3751	22.892	0.90909	0.	3.783e-002
3752	23.076	0.90909	0.	4.9998e-002
3753	23.261	0.90909	0.	7.7184e-002
3754	23.446	0.90909	0.	8.8958e-002
3755	23.631	0.90909	0.	0.25656
3756	23.815	0.90909	0.	7.2821e-002
3757	8.8514	0.72727	0.	-7.0879
3758	9.0361	0.72727	0.	-1.5344
3759	9.2209	0.72727	0.	-2.6998
3760	9.4056	0.72727	0.	-1.9406
3761	9.5904	0.72727	0.	-1.5855
3762	9.7751	0.72727	0.	-1.2269
3763	9.9598	0.72727	0.	-0.97428
3764	10.145	0.72727	0.	-0.78751
3765	10.329	0.72727	0.	-0.65843
3766	10.514	0.72727	0.	-0.57509
3767	10.699	0.72727	0.	-0.53485
3768	10.884	0.72727	0.	-0.54725
3769	11.068	0.72727	0.	-0.6616
3770	11.253	0.72727	0.	-1.1635
3771	11.438	0.72727	0.	-3.9386
3772	11.622	0.72727	0.	-8.7362
3773	11.807	0.72727	0.	-12.818
3774	11.992	0.72727	0.	-15.878
3775	12.177	0.72727	0.	-18.
3776	12.361	0.72727	0.	-19.311
3777	12.546	0.72727	0.	-19.94
3778	12.731	0.72727	0.	-20.007
3779	12.916	0.72727	0.	-19.62
3780	13.1	0.72727	0.	-18.872
3781	13.285	0.72727	0.	-17.845
3782	13.47	0.72727	0.	-16.606
3783	13.655	0.72727	0.	-15.213
3784	13.839	0.72727	0.	-13.713
3785	14.024	0.72727	0.	-12.146
3786	14.209	0.72727	0.	-10.54
3787	14.394	0.72727	0.	-8.9223
3788	14.578	0.72727	0.	-7.3104
3789	14.763	0.72727	0.	-5.7189
3790	14.948	0.72727	0.	-4.1587
3791	15.133	0.72727	0.	-2.6377
3792	15.317	0.72727	0.	-1.1647
3793	15.502	0.72727	0.	-4.3784e-002
3794	15.687	0.72727	0.	-6.8342e-003
3795	15.871	0.72727	0.	-3.303e-003
3796	16.056	0.72727	0.	-2.2763e-003
3797	16.241	0.72727	0.	-1.9387e-003
3798	16.426	0.72727	0.	-1.8474e-003
3799	16.61	0.72727	0.	-1.8652e-003
3800	16.795	0.72727	0.	-1.9538e-003
3801	16.98	0.72727	0.	-2.1134e-003
3802	17.165	0.72727	0.	-2.2938e-003
3803	17.349	0.72727	0.	-2.4785e-003
3804	17.534	0.72727	0.	-2.6645e-003
3805	17.719	0.72727	0.	-2.8271e-003
3806	17.904	0.72727	0.	-2.9971e-003
3807	18.088	0.72727	0.	-3.1986e-003
3808	18.273	0.72727	0.	-3.403e-003
3809	18.458	0.72727	0.	-3.5845e-003
3810	18.643	0.72727	0.	-3.7466e-003
3811	18.827	0.72727	0.	-3.9136e-003
3812	19.012	0.72727	0.	-4.0966e-003
3813	19.197	0.72727	0.	-4.2778e-003
3814	19.382	0.72727	0.	-4.4503e-003
3815	19.566	0.72727	0.	-4.613e-003
3816	19.751	0.72727	0.	-4.748e-003
3817	19.936	0.72727	0.	-4.8735e-003
3818	20.12	0.72727	0.	-5.0054e-003
3819	20.305	0.72727	0.	-5.1129e-003
3820	20.49	0.72727	0.	-5.1784e-003
3821	20.675	0.72727	0.	-5.19e-003
3822	20.859	0.72727	0.	-5.1491e-003
3823	21.044	0.72727	0.	-5.0419e-003
3824	21.229	0.72727	0.	-4.8319e-003
3825	21.414	0.72727	0.	-4.4768e-003
3826	21.598	0.72727	0.	-3.9269e-003
3827	21.783	0.72727	0.	-3.0958e-003
3828	21.968	0.72727	0.	-1.9071e-003
3829	22.153	0.72727	0.	-2.0229e-004
3830	22.337	0.72727	0.	2.2339e-003
3831	22.522	0.72727	0.	5.7852e-003
3832	22.707	0.72727	0.	1.082e-002
3833	22.892	0.72727	0.	1.8822e-002
3834	23.076	0.72727	0.	2.8913e-002
3835	23.261	0.72727	0.	5.3558e-002
3836	23.446	0.72727	0.	6.2419e-002
3837	23.631	0.72727	0.	0.22185
3838	23.815	0.72727	0.	2.0791e-002
3839	8.8514	0.54545	0.	-7.975
3840	9.0361	0.54545	0.	-2.7582
3841	9.2209	0.54545	0.	-3.0695
3842	9.4056	0.54545	0.	-1.8573
3843	9.5904	0.54545	0.	-1.266
3844	9.7751	0.54545	0.	-0.84301
3845	9.9598	0.54545	0.	-0.59555
3846	10.145	0.54545	0.	-0.43431
3847	10.329	0.54545	0.	-0.32987
3848	10.514	0.54545	0.	-0.26091
3849	10.699	0.54545	0.	-0.21688
3850	10.884	0.54545	0.	-0.19203
3851	11.068	0.54545	0.	-0.18505
3852	11.253	0.54545	0.	-0.20158
3853	11.438	0.54545	0.	-0.27099
3854	11.622	0.54545	0.	-0.60643
3855	11.807	0.54545	0.	-2.8218
3856	11.992	0.54545	0.	-5.8986
3857	12.177	0.54545	0.	-8.2647
3858	12.361	0.54545	0.	-9.895
3859	12.546	0.54545	0.	-10.888
3860	12.731	0.54545	0.	-11.35
3861	12.916	0.54545	0.	-11.376
3862	13.1	0.54545	0.	-11.053
3863	13.285	0.54545	0.	-10.454
3864	13.47	0.54545	0.	-9.6412
3865	13.655	0.54545	0.	-8.6686
3866	13.839	0.54545	0.	-7.5793
3867	14.024	0.54545	0.	-6.4094
3868	14.209	0.54545	0.	-5.1875
3869	14.394	0.54545	0.	-3.9368
3870	14.578	0.54545	0.	-2.6756
3871	14.763	0.54545	0.	-1.4182
3872	14.948	0.54545	0.	-0.1878
3873	15.133	0.54545	0.	6.2069e-005
3874	15.317	0.54545	0.	9.0776e-004
3875	15.502	0.54545	0.	7.1691e-004
3876	15.687	0.54545	0.	3.4041e-004
3877	15.871	0.54545	0.	-8.4472e-005
3878	16.056	0.54545	0.	-5.4939e-004
3879	16.241	0.54545	0.	-1.0105e-003
3880	16.426	0.54545	0.	-1.4285e-003
3881	16.61	0.54545	0.	-1.8075e-003
3882	16.795	0.54545	0.	-2.1768e-003
3883	16.98	0.54545	0.	-2.5655e-003
3884	17.165	0.54545	0.	-2.9388e-003
3885	17.349	0.54545	0.	-3.2994e-003
3886	17.534	0.54545	0.	-3.6425e-003
3887	17.719	0.54545	0.	-3.9581e-003
3888	17.904	0.54545	0.	-4.2738e-003
3889	18.088	0.54545	0.	-4.6185e-003
3890	18.273	0.54545	0.	-4.9665e-003
3891	18.458	0.54545	0.	-5.2977e-003
3892	18.643	0.54545	0.	-5.614e-003
3893	18.827	0.54545	0.	-5.9379e-003
3894	19.012	0.54545	0.	-6.2919e-003
3895	19.197	0.54545	0.	-6.6521e-003
3896	19.382	0.54545	0.	-7.0187e-003
3897	19.566	0.54545	0.	-7.3914e-003
3898	19.751	0.54545	0.	-7.7565e-003
3899	19.936	0.54545	0.	-8.1369e-003
3900	20.12	0.54545	0.	-8.5455e-003
3901	20.305	0.54545	0.	-8.9642e-003
3902	20.49	0.54545	0.	-9.3775e-003
3903	20.675	0.54545	0.	-9.7815e-003
3904	20.859	0.54545	0.	-1.0182e-002
3905	21.044	0.54545	0.	-1.0577e-002
3906	21.229	0.54545	0.	-1.0939e-002
3907	21.414	0.54545	0.	-1.1243e-002
3908	21.598	0.54545	0.	-1.1453e-002
3909	21.783	0.54545	0.	-1.1513e-002
3910	21.968	0.54545	0.	-1.1354e-002
3911	22.153	0.54545	0.	-1.087e-002
3912	22.337	0.54545	0.	-9.8796e-003
3913	22.522	0.54545	0.	-8.0515e-003
3914	22.707	0.54545	0.	-5.0664e-003
3915	22.892	0.54545	0.	4.5111e-004
3916	23.076	0.54545	0.	7.6748e-003
3917	23.261	0.54545	0.	2.8675e-002
3918	23.446	0.54545	0.	3.2e-002
3919	23.631	0.54545	0.	0.18452
3920	23.815	0.54545	0.	-3.3683e-002
3921	8.8514	0.36364	0.	-10.495
3922	9.0361	0.36364	0.	-4.8285
3923	9.2209	0.36364	0.	-3.4812
3924	9.4056	0.36364	0.	-1.615
3925	9.5904	0.36364	0.	-0.93517
3926	9.7751	0.36364	0.	-0.57906
3927	9.9598	0.36364	0.	-0.41147
3928	10.145	0.36364	0.	-0.31223
3929	10.329	0.36364	0.	-0.24711
3930	10.514	0.36364	0.	-0.19862
3931	10.699	0.36364	0.	-0.16065
3932	10.884	0.36364	0.	-0.1305
3933	11.068	0.36364	0.	-0.1071
3934	11.253	0.36364	0.	-9.0234e-002
3935	11.438	0.36364	0.	-8.0791e-002
3936	11.622	0.36364	0.	-8.1976e-002
3937	11.807	0.36364	0.	-0.10609
3938	11.992	0.36364	0.	-0.2326
3939	12.177	0.36364	0.	-1.133
3940	12.361	0.36364	0.	-2.4715
3941	12.546	0.36364	0.	-3.3976
3942	12.731	0.36364	0.	-3.9062
3943	12.916	0.36364	0.	-4.0633
3944	13.1	0.36364	0.	-3.9339
3945	13.285	0.36364	0.	-3.5761
3946	13.47	0.36364	0.	-3.0395
3947	13.655	0.36364	0.	-2.3663
3948	13.839	0.36364	0.	-1.5917
3949	14.024	0.36364	0.	-0.74771
3950	14.209	0.36364	0.	-2.2427e-002
3951	14.394	0.36364	0.	1.2968e-002
3952	14.578	0.36364	0.	1.4304e-002
3953	14.763	0.36364	0.	1.3417e-002
3954	14.948	0.36364	0.	1.1928e-002
3955	15.133	0.36364	0.	1.0268e-002
3956	15.317	0.36364	0.	8.5994e-003
3957	15.502	0.36364	0.	6.9524e-003
3958	15.687	0.36364	0.	5.3469e-003
3959	15.871	0.36364	0.	3.7927e-003
3960	16.056	0.36364	0.	2.2501e-003
3961	16.241	0.36364	0.	7.5832e-004
3962	16.426	0.36364	0.	-6.5546e-004
3963	16.61	0.36364	0.	-2.0032e-003
3964	16.795	0.36364	0.	-3.3117e-003
3965	16.98	0.36364	0.	-4.6192e-003
3966	17.165	0.36364	0.	-5.8956e-003
3967	17.349	0.36364	0.	-7.1445e-003
3968	17.534	0.36364	0.	-8.3728e-003
3969	17.719	0.36364	0.	-9.5658e-003
3970	17.904	0.36364	0.	-1.0768e-002
3971	18.088	0.36364	0.	-1.2002e-002
3972	18.273	0.36364	0.	-1.3254e-002
3973	18.458	0.36364	0.	-1.4514e-002
3974	18.643	0.36364	0.	-1.5785e-002
3975	18.827	0.36364	0.	-1.7098e-002
3976	19.012	0.36364	0.	-1.8484e-002
3977	19.197	0.36364	0.	-1.9926e-002
3978	19.382	0.36364	0.	-2.1435e-002
3979	19.566	0.36364	0.	-2.3015e-002
3980	19.751	0.36364	0.	-2.4672e-002
3981	19.936	0.36364	0.	-2.6436e-002
3982	20.12	0.36364	0.	-2.8334e-002
3983	20.305	0.36364	0.	-3.0366e-002
3984	20.49	0.36364	0.	-3.2531e-002
3985	20.675	0.36364	0.	-3.4847e-002
3986	20.859	0.36364	0.	-3.7349e-002
3987	21.044	0.36364	0.	-4.0062e-002
3988	21.229	0.36364	0.	-4.2997e-002
3989	21.414	0.36364	0.	-4.6172e-002
3990	21.598	0.36364	0.	-4.9613e-002
3991	21.783	0.36364	0.	-5.3334e-002
3992	21.968	0.36364	0.	-5.7362e-002
3993	22.153	0.36364	0.	-6.1716e-002
3994	22.337	0.36364	0.	-6.6374e-002
3995	22.522	0.36364	0.	-7.1254e-002
3996	22.707	0.36364	0.	-7.6336e-002
3997	22.892	0.36364	0.	-8.0765e-002
3998	23.076	0.36364	0.	-8.5806e-002
3999	23.261	0.36364	0.	-8.1893e-002
4000	23.446	0.36364	0.	-9.5152e-002
4001	23.631	0.36364	0.	5.6927e-003
4002	23.815	0.36364	0.	-0.28525
4003	8.8514	0.18182	0.	-21.064
4004	9.0361	0.18182	0.	-6.8169
4005	9.2209	0.18182	0.	-3.2447
4006	9.4056	0.18182	0.	-0.99538
4007	9.5904	0.18182	0.	-0.26337
4008	9.7751	0.18182	0.	4.5414e-002
4009	9.9598	0.18182	0.	0.1263
4010	10.145	0.18182	0.	0.12957
4011	10.329	0.18182	0.	0.10535
4012	10.514	0.18182	0.	7.7961e-002
4013	10.699	0.18182	0.	5.4899e-002
4014	10.884	0.18182	0.	3.765e-002
4015	11.068	0.18182	0.	2.524e-002
4016	11.253	0.18182	0.	1.6e-002
4017	11.438	0.18182	0.	8.1759e-003
4018	11.622	0.18182	0.	2.8377e-004
4019	11.807	0.18182	0.	-8.8221e-003
4020	11.992	0.18182	0.	-1.986e-002
4021	12.177	0.18182	0.	-3.2612e-002
4022	12.361	0.18182	0.	-4.5637e-002
4023	12.546	0.18182	0.	-5.6372e-002
4024	12.731	0.18182	0.	-6.2284e-002
4025	12.916	0.18182	0.	-6.2509e-002
4026	13.1	0.18182	0.	-5.8123e-002
4027	13.285	0.18182	0.	-5.1197e-002
4028	13.47	0.18182	0.	-4.3611e-002
4029	13.655	0.18182	0.	-3.6472e-002
4030	13.839	0.18182	0.	-3.0254e-002
4031	14.024	0.18182	0.	-2.5097e-002
4032	14.209	0.18182	0.	-2.0873e-002
4033	14.394	0.18182	0.	-1.7411e-002
4034	14.578	0.18182	0.	-1.4566e-002
4035	14.763	0.18182	0.	-1.2246e-002
4036	14.948	0.18182	0.	-1.0391e-002
4037	15.133	0.18182	0.	-8.8687e-003
4038	15.317	0.18182	0.	-7.5742e-003
4039	15.502	0.18182	0.	-6.4811e-003
4040	15.687	0.18182	0.	-5.5516e-003
4041	15.871	0.18182	0.	-4.7557e-003
4042	16.056	0.18182	0.	-4.1078e-003
4043	16.241	0.18182	0.	-3.5511e-003
4044	16.426	0.18182	0.	-3.0444e-003
4045	16.61	0.18182	0.	-2.5775e-003
4046	16.795	0.18182	0.	-2.1666e-003
4047	16.98	0.18182	0.	-1.8315e-003
4048	17.165	0.18182	0.	-1.5369e-003
4049	17.349	0.18182	0.	-1.2651e-003
4050	17.534	0.18182	0.	-1.0213e-003
4051	17.719	0.18182	0.	-7.8152e-004
4052	17.904	0.18182	0.	-5.7075e-004
4053	18.088	0.18182	0.	-4.1813e-004
4054	18.273	0.18182	0.	-2.9173e-004
4055	18.458	0.18182	0.	-1.7279e-004
4056	18.643	0.18182	0.	-6.4453e-005
4057	18.827	0.18182	0.	5.9309e-006
4058	19.012	0.18182	0.	1.8856e-005
4059	19.197	0.18182	0.	-9.3724e-007
4060	19.382	0.18182	0.	-6.169e-005
4061	19.566	0.18182	0.	-1.7089e-004
4062	19.751	0.18182	0.	-3.2967e-004
4063	19.936	0.18182	0.	-5.5872e-004
4064	20.12	0.18182	0.	-8.9544e-004
4065	20.305	0.18182	0.	-1.3304e-003
4066	20.49	0.18182	0.	-1.8808e-003
4067	20.675	0.18182	0.	-2.5682e-003
4068	20.859	0.18182	0.	-3.439e-003
4069	21.044	0.18182	0.	-4.5347e-003
4070	21.229	0.18182	0.	-5.9009e-003
4071	21.414	0.18182	0.	-7.5899e-003
4072	21.598	0.18182	0.	-9.6755e-003
4073	21.783	0.18182	0.	-1.2266e-002
4074	21.968	0.18182	0.	-1.5502e-002
4075	22.153	0.18182	0.	-1.9553e-002
4076	22.337	0.18182	0.	-2.4652e-002
4077	22.522	0.18182	0.	-3.1108e-002
4078	22.707	0.18182	0.	-3.9472e-002
4079	22.892	0.18182	0.	-5.0016e-002
4080	23.076	0.18182	0.	-6.5261e-002
4081	23.261	0.18182	0.	-8.0758e-002
4082	23.446	0.18182	0.	-0.12082
4083	23.631	0.18182	0.	-0.10952
4084	23.815	0.18182	0.	-0.50795
4085	23.815	0.18182	0.1	0.50795
4086	23.631	0.18182	0.1	0.10952
4087	23.446	0.18182	0.1	0.12082
4088	23.261	0.18182	0.1	8.0756e-002
4089	23.076	0.18182	0.1	6.526e-002
4090	22.892	0.18182	0.1	5.0017e-002
4091	22.707	0.18182	0.1	3.9469e-002
4092	22.522	0.18182	0.1	3.111e-002
4093	22.337	0.18182	0.1	2.4654e-002
4094	22.153	0.18182	0.1	1.9549e-002
4095	21.968	0.18182	0.1	1.5501e-002
4096	21.783	0.18182	0.1	1.227e-002
4097	21.598	0.18182	0.1	9.6772e-003
4098	21.414	0.18182	0.1	7.589e-003
4099	21.229	0.18182	0.1	5.9009e-003
4100	21.044	0.18182	0.1	4.5358e-003
4101	20.859	0.18182	0.1	3.4376e-003
4102	20.675	0.18182	0.1	2.5673e-003
4103	20.49	0.18182	0.1	1.8815e-003
4104	20.305	0.18182	0.1	1.331e-003
4105	20.12	0.18182	0.1	8.9464e-004
4106	19.936	0.18182	0.1	5.5773e-004
4107	19.751	0.18182	0.1	3.2962e-004
4108	19.566	0.18182	0.1	1.7145e-004
4109	19.382	0.18182	0.1	6.2736e-005
4110	19.197	0.18182	0.1	1.6583e-006
4111	19.012	0.18182	0.1	-1.9291e-005
4112	18.827	0.18182	0.1	-6.9559e-006
4113	18.643	0.18182	0.1	6.5119e-005
4114	18.458	0.18182	0.1	1.7137e-004
4115	18.273	0.18182	0.1	2.9145e-004
4116	18.088	0.18182	0.1	4.187e-004
4117	17.904	0.18182	0.1	5.7008e-004
4118	17.719	0.18182	0.1	7.8078e-004
4119	17.534	0.18182	0.1	1.0207e-003
4120	17.349	0.18182	0.1	1.266e-003
4121	17.165	0.18182	0.1	1.5344e-003
4122	16.98	0.18182	0.1	1.8316e-003
4123	16.795	0.18182	0.1	2.1661e-003
4124	16.61	0.18182	0.1	2.577e-003
4125	16.426	0.18182	0.1	3.0457e-003
4126	16.241	0.18182	0.1	3.5512e-003
4127	16.056	0.18182	0.1	4.1077e-003
4128	15.871	0.18182	0.1	4.7549e-003
4129	15.687	0.18182	0.1	5.5499e-003
4130	15.502	0.18182	0.1	6.4813e-003
4131	15.317	0.18182	0.1	7.5737e-003
4132	15.133	0.18182	0.1	8.8683e-003
4133	14.948	0.18182	0.1	1.039e-002
4134	14.763	0.18182	0.1	1.2245e-002
4135	14.578	0.18182	0.1	1.4566e-002
4136	14.394	0.18182	0.1	1.741e-002
4137	14.209	0.18182	0.1	2.0874e-002
4138	14.024	0.18182	0.1	2.5096e-002
4139	13.839	0.18182	0.1	3.0254e-002
4140	13.655	0.18182	0.1	3.6472e-002
4141	13.47	0.18182	0.1	4.3611e-002
4142	13.285	0.18182	0.1	5.1198e-002
4143	13.1	0.18182	0.1	5.8123e-002
4144	12.916	0.18182	0.1	6.2509e-002
4145	12.731	0.18182	0.1	6.2284e-002
4146	12.546	0.18182	0.1	5.6371e-002
4147	12.361	0.18182	0.1	4.5637e-002
4148	12.177	0.18182	0.1	3.2612e-002
4149	11.992	0.18182	0.1	1.9859e-002
4150	11.807	0.18182	0.1	8.8229e-003
4151	11.622	0.18182	0.1	-2.8411e-004
4152	11.438	0.18182	0.1	-8.1756e-003
4153	11.253	0.18182	0.1	-1.6001e-002
4154	11.068	0.18182	0.1	-2.5239e-002
4155	10.884	0.18182	0.1	-3.765e-002
4156	10.699	0.18182	0.1	-5.49e-002
4157	10.514	0.18182	0.1	-7.7961e-002
4158	10.329	0.18182	0.1	-0.10535
4159	10.145	0.18182	0.1	-0.12957
4160	9.9598	0.18182	0.1	-0.1263
4161	9.7751	0.18182	0.1	-4.5415e-002
4162	9.5904	0.18182	0.1	0.26337
4163	9.4056	0.18182	0.1	0.99538
4164	9.2209	0.18182	0.1	3.2447
4165	9.0361	0.18182	0.1	6.8169
4166	8.8514	0.18182	0.1	21.064
4167	23.815	0.36364	0.1	0.28525
4168	23.631	0.36364	0.1	-5.6946e-003
4169	23.446	0.36364	0.1	9.5154e-002
4170	23.261	0.36364	0.1	8.1894e-002
4171	23.076	0.36364	0.1	8.5808e-002
4172	22.892	0.36364	0.1	8.0765e-002
4173	22.707	0.36364	0.1	7.6334e-002
4174	22.522	0.36364	0.1	7.1254e-002
4175	22.337	0.36364	0.1	6.6377e-002
4176	22.153	0.36364	0.1	6.1715e-002
4177	21.968	0.36364	0.1	5.7361e-002
4178	21.783	0.36364	0.1	5.3334e-002
4179	21.598	0.36364	0.1	4.9613e-002
4180	21.414	0.36364	0.1	4.6172e-002
4181	21.229	0.36364	0.1	4.2997e-002
4182	21.044	0.36364	0.1	4.0063e-002
4183	20.859	0.36364	0.1	3.7348e-002
4184	20.675	0.36364	0.1	3.4849e-002
4185	20.49	0.36364	0.1	3.253e-002
4186	20.305	0.36364	0.1	3.0367e-002
4187	20.12	0.36364	0.1	2.8335e-002
4188	19.936	0.36364	0.1	2.6435e-002
4189	19.751	0.36364	0.1	2.4673e-002
4190	19.566	0.36364	0.1	2.3015e-002
4191	19.382	0.36364	0.1	2.1434e-002
4192	19.197	0.36364	0.1	1.9927e-002
4193	19.012	0.36364	0.1	1.8484e-002
4194	18.827	0.36364	0.1	1.7097e-002
4195	18.643	0.36364	0.1	1.5784e-002
4196	18.458	0.36364	0.1	1.4514e-002
4197	18.273	0.36364	0.1	1.3254e-002
4198	18.088	0.36364	0.1	1.2003e-002
4199	17.904	0.36364	0.1	1.0769e-002
4200	17.719	0.36364	0.1	9.5668e-003
4201	17.534	0.36364	0.1	8.3733e-003
4202	17.349	0.36364	0.1	7.1457e-003
4203	17.165	0.36364	0.1	5.8953e-003
4204	16.98	0.36364	0.1	4.6203e-003
4205	16.795	0.36364	0.1	3.3122e-003
4206	16.61	0.36364	0.1	2.0033e-003
4207	16.426	0.36364	0.1	6.5521e-004
4208	16.241	0.36364	0.1	-7.583e-004
4209	16.056	0.36364	0.1	-2.25e-003
4210	15.871	0.36364	0.1	-3.7918e-003
4211	15.687	0.36364	0.1	-5.3464e-003
4212	15.502	0.36364	0.1	-6.9518e-003
4213	15.317	0.36364	0.1	-8.598e-003
4214	15.133	0.36364	0.1	-1.0268e-002
4215	14.948	0.36364	0.1	-1.1929e-002
4216	14.763	0.36364	0.1	-1.3417e-002
4217	14.578	0.36364	0.1	-1.4304e-002
4218	14.394	0.36364	0.1	-1.2968e-002
4219	14.209	0.36364	0.1	2.2431e-002
4220	14.024	0.36364	0.1	0.74772
4221	13.839	0.36364	0.1	1.5917
4222	13.655	0.36364	0.1	2.3663
4223	13.47	0.36364	0.1	3.0395
4224	13.285	0.36364	0.1	3.5761
4225	13.1	0.36364	0.1	3.9339
4226	12.916	0.36364	0.1	4.0633
4227	12.731	0.36364	0.1	3.9062
4228	12.546	0.36364	0.1	3.3976
4229	12.361	0.36364	0.1	2.4715
4230	12.177	0.36364	0.1	1.133
4231	11.992	0.36364	0.1	0.2326
4232	11.807	0.36364	0.1	0.10609
4233	11.622	0.36364	0.1	8.1976e-002
4234	11.438	0.36364	0.1	8.0791e-002
4235	11.253	0.36364	0.1	9.0234e-002
4236	11.068	0.36364	0.1	0.1071
4237	10.884	0.36364	0.1	0.1305
4238	10.699	0.36364	0.1	0.16065
4239	10.514	0.36364	0.1	0.19862
4240	10.329	0.36364	0.1	0.24711
4241	10.145	0.36364	0.1	0.31223
4242	9.9598	0.36364	0.1	0.41147
4243	9.7751	0.36364	0.1	0.57906
4244	9.5904	0.36364	0.1	0.93517
4245	9.4056	0.36364	0.1	1.615
4246	9.2209	0.36364	0.1	3.4812
4247	9.0361	0.36364	0.1	4.8285
4248	8.8514	0.36364	0.1	10.495
4249	23.815	0.54545	0.1	3.3685e-002
4250	23.631	0.54545	0.1	-0.18452
4251	23.446	0.54545	0.1	-3.2003e-002
4252	23.261	0.54545	0.1	-2.8674e-002
4253	23.076	0.54545	0.1	-7.675e-003
4254	22.892	0.54545	0.1	-4.4957e-004
4255	22.707	0.54545	0.1	5.0641e-003
4256	22.522	0.54545	0.1	8.0523e-003
4257	22.337	0.54545	0.1	9.8809e-003
4258	22.153	0.54545	0.1	1.0869e-002
4259	21.968	0.54545	0.1	1.1353e-002
4260	21.783	0.54545	0.1	1.1513e-002
4261	21.598	0.54545	0.1	1.1453e-002
4262	21.414	0.54545	0.1	1.1242e-002
4263	21.229	0.54545	0.1	1.0939e-002
4264	21.044	0.54545	0.1	1.0578e-002
4265	20.859	0.54545	0.1	1.0181e-002
4266	20.675	0.54545	0.1	9.7817e-003
4267	20.49	0.54545	0.1	9.3772e-003
4268	20.305	0.54545	0.1	8.9659e-003
4269	20.12	0.54545	0.1	8.5449e-003
4270	19.936	0.54545	0.1	8.1342e-003
4271	19.751	0.54545	0.1	7.7563e-003
4272	19.566	0.54545	0.1	7.3899e-003
4273	19.382	0.54545	0.1	7.0198e-003
4274	19.197	0.54545	0.1	6.6517e-003
4275	19.012	0.54545	0.1	6.2909e-003
4276	18.827	0.54545	0.1	5.938e-003
4277	18.643	0.54545	0.1	5.6143e-003
4278	18.458	0.54545	0.1	5.2961e-003
4279	18.273	0.54545	0.1	4.9668e-003
4280	18.088	0.54545	0.1	4.6186e-003
4281	17.904	0.54545	0.1	4.2739e-003
4282	17.719	0.54545	0.1	3.9577e-003
4283	17.534	0.54545	0.1	3.6424e-003
4284	17.349	0.54545	0.1	3.2999e-003
4285	17.165	0.54545	0.1	2.9387e-003
4286	16.98	0.54545	0.1	2.5652e-003
4287	16.795	0.54545	0.1	2.1777e-003
4288	16.61	0.54545	0.1	1.8077e-003
4289	16.426	0.54545	0.1	1.4284e-003
4290	16.241	0.54545	0.1	1.0099e-003
4291	16.056	0.54545	0.1	5.4979e-004
4292	15.871	0.54545	0.1	8.4257e-005
4293	15.687	0.54545	0.1	-3.3983e-004
4294	15.502	0.54545	0.1	-7.1707e-004
4295	15.317	0.54545	0.1	-9.0834e-004
4296	15.133	0.54545	0.1	-6.2507e-005
4297	14.948	0.54545	0.1	0.18781
4298	14.763	0.54545	0.1	1.4182
4299	14.578	0.54545	0.1	2.6756
4300	14.394	0.54545	0.1	3.9368
4301	14.209	0.54545	0.1	5.1875
4302	14.024	0.54545	0.1	6.4094
4303	13.839	0.54545	0.1	7.5793
4304	13.655	0.54545	0.1	8.6686
4305	13.47	0.54545	0.1	9.6412
4306	13.285	0.54545	0.1	10.454
4307	13.1	0.54545	0.1	11.053
4308	12.916	0.54545	0.1	11.376
4309	12.731	0.54545	0.1	11.35
4310	12.546	0.54545	0.1	10.888
4311	12.361	0.54545	0.1	9.895
4312	12.177	0.54545	0.1	8.2647
4313	11.992	0.54545	0.1	5.8986
4314	11.807	0.54545	0.1	2.8218
4315	11.622	0.54545	0.1	0.60643
4316	11.438	0.54545	0.1	0.27099
4317	11.253	0.54545	0.1	0.20158
4318	11.068	0.54545	0.1	0.18505
4319	10.884	0.54545	0.1	0.19203
4320	10.699	0.54545	0.1	0.21688
4321	10.514	0.54545	0.1	0.26091
4322	10.329	0.54545	0.1	0.32987
4323	10.145	0.54545	0.1	0.43431
4324	9.9598	0.54545	0.1	0.59555
4325	9.7751	0.54545	0.1	0.84301
4326	9.5904	0.54545	0.1	1.266
4327	9.4056	0.54545	0.1	1.8573
4328	9.2209	0.54545	0.1	3.0695
4329	9.0361	0.54545	0.1	2.7582
4330	8.8514	0.54545	0.1	7.975
4331	23.815	0.72727	0.1	-2.0792e-002
4332	23.631	0.72727	0.1	-0.22185
4333	23.446	0.72727	0.1	-6.2419e-002
4334	23.261	0.72727	0.1	-5.3557e-002
4335	23.076	0.72727	0.1	-2.8912e-002
4336	22.892	0.72727	0.1	-1.8823e-002
4337	22.707	0.72727	0.1	-1.0821e-002
4338	22.522	0.72727	0.1	-5.784e-003
4339	22.337	0.72727	0.1	-2.2341e-003
4340	22.153	0.72727	0.1	2.0011e-004
4341	21.968	0.72727	0.1	1.9066e-003
4342	21.783	0.72727	0.1	3.0988e-003
4343	21.598	0.72727	0.1	3.9272e-003
4344	21.414	0.72727	0.1	4.4786e-003
4345	21.229	0.72727	0.1	4.8303e-003
4346	21.044	0.72727	0.1	5.043e-003
4347	20.859	0.72727	0.1	5.148e-003
4348	20.675	0.72727	0.1	5.1897e-003
4349	20.49	0.72727	0.1	5.1786e-003
4350	20.305	0.72727	0.1	5.113e-003
4351	20.12	0.72727	0.1	5.0049e-003
4352	19.936	0.72727	0.1	4.8729e-003
4353	19.751	0.72727	0.1	4.7478e-003
4354	19.566	0.72727	0.1	4.6123e-003
4355	19.382	0.72727	0.1	4.4503e-003
4356	19.197	0.72727	0.1	4.279e-003
4357	19.012	0.72727	0.1	4.096e-003
4358	18.827	0.72727	0.1	3.9139e-003
4359	18.643	0.72727	0.1	3.747e-003
4360	18.458	0.72727	0.1	3.5833e-003
4361	18.273	0.72727	0.1	3.4013e-003
4362	18.088	0.72727	0.1	3.2001e-003
4363	17.904	0.72727	0.1	2.9969e-003
4364	17.719	0.72727	0.1	2.8273e-003
4365	17.534	0.72727	0.1	2.6644e-003
4366	17.349	0.72727	0.1	2.4788e-003
4367	17.165	0.72727	0.1	2.2928e-003
4368	16.98	0.72727	0.1	2.1137e-003
4369	16.795	0.72727	0.1	1.9537e-003
4370	16.61	0.72727	0.1	1.8648e-003
4371	16.426	0.72727	0.1	1.8492e-003
4372	16.241	0.72727	0.1	1.9388e-003
4373	16.056	0.72727	0.1	2.2769e-003
4374	15.871	0.72727	0.1	3.3029e-003
4375	15.687	0.72727	0.1	6.8326e-003
4376	15.502	0.72727	0.1	4.3784e-002
4377	15.317	0.72727	0.1	1.1647
4378	15.133	0.72727	0.1	2.6377
4379	14.948	0.72727	0.1	4.1587
4380	14.763	0.72727	0.1	5.7189
4381	14.578	0.72727	0.1	7.3104
4382	14.394	0.72727	0.1	8.9224
4383	14.209	0.72727	0.1	10.54
4384	14.024	0.72727	0.1	12.146
4385	13.839	0.72727	0.1	13.713
4386	13.655	0.72727	0.1	15.213
4387	13.47	0.72727	0.1	16.606
4388	13.285	0.72727	0.1	17.845
4389	13.1	0.72727	0.1	18.872
4390	12.916	0.72727	0.1	19.62
4391	12.731	0.72727	0.1	20.007
4392	12.546	0.72727	0.1	19.94
4393	12.361	0.72727	0.1	19.311
4394	12.177	0.72727	0.1	18.
4395	11.992	0.72727	0.1	15.878
4396	11.807	0.72727	0.1	12.818
4397	11.622	0.72727	0.1	8.7362
4398	11.438	0.72727	0.1	3.9386
4399	11.253	0.72727	0.1	1.1635
4400	11.068	0.72727	0.1	0.6616
4401	10.884	0.72727	0.1	0.54725
4402	10.699	0.72727	0.1	0.53485
4403	10.514	0.72727	0.1	0.57509
4404	10.329	0.72727	0.1	0.65843
4405	10.145	0.72727	0.1	0.78751
4406	9.9598	0.72727	0.1	0.97428
4407	9.7751	0.72727	0.1	1.2269
4408	9.5904	0.72727	0.1	1.5855
4409	9.4056	0.72727	0.1	1.9406
4410	9.2209	0.72727	0.1	2.6998
4411	9.0361	0.72727	0.1	1.5344
4412	8.8514	0.72727	0.1	7.0879
4413	23.815	0.90909	0.1	-7.2822e-002
4414	23.631	0.90909	0.1	-0.25656
4415	23.446	0.90909	0.1	-8.8957e-002
4416	23.261	0.90909	0.1	-7.7182e-002
4417	23.076	0.90909	0.1	-4.9997e-002
4418	22.892	0.90909	0.1	-3.783e-002
4419	22.707	0.90909	0.1	-2.8023e-002
4420	22.522	0.90909	0.1	-2.1395e-002
4421	22.337	0.90909	0.1	-1.6444e-002
4422	22.153	0.90909	0.1	-1.2768e-002
4423	21.968	0.90909	0.1	-9.9697e-003
4424	21.783	0.90909	0.1	-7.8055e-003
4425	21.598	0.90909	0.1	-6.1136e-003
4426	21.414	0.90909	0.1	-4.7906e-003
4427	21.229	0.90909	0.1	-3.7398e-003
4428	21.044	0.90909	0.1	-2.906e-003
4429	20.859	0.90909	0.1	-2.2342e-003
4430	20.675	0.90909	0.1	-1.678e-003
4431	20.49	0.90909	0.1	-1.2219e-003
4432	20.305	0.90909	0.1	-8.5274e-004
4433	20.12	0.90909	0.1	-5.6536e-004
4434	19.936	0.90909	0.1	-3.3091e-004
4435	19.751	0.90909	0.1	-1.1555e-004
4436	19.566	0.90909	0.1	6.8497e-005
4437	19.382	0.90909	0.1	2.0679e-004
4438	19.197	0.90909	0.1	3.1823e-004
4439	19.012	0.90909	0.1	4.0684e-004
4440	18.827	0.90909	0.1	4.7644e-004
4441	18.643	0.90909	0.1	5.62e-004
4442	18.458	0.90909	0.1	6.3985e-004
4443	18.273	0.90909	0.1	6.9738e-004
4444	18.088	0.90909	0.1	7.3406e-004
4445	17.904	0.90909	0.1	7.7039e-004
4446	17.719	0.90909	0.1	8.5014e-004
4447	17.534	0.90909	0.1	9.4701e-004
4448	17.349	0.90909	0.1	1.0426e-003
4449	17.165	0.90909	0.1	1.172e-003
4450	16.98	0.90909	0.1	1.3589e-003
4451	16.795	0.90909	0.1	1.653e-003
4452	16.61	0.90909	0.1	2.177e-003
4453	16.426	0.90909	0.1	3.094e-003
4454	16.241	0.90909	0.1	4.9048e-003
4455	16.056	0.90909	0.1	9.7311e-003
4456	15.871	0.90909	0.1	4.3499e-002
4457	15.687	0.90909	0.1	1.1166
4458	15.502	0.90909	0.1	2.7484
4459	15.317	0.90909	0.1	4.4536
4460	15.133	0.90909	0.1	6.2249
4461	14.948	0.90909	0.1	8.06
4462	14.763	0.90909	0.1	9.9556
4463	14.578	0.90909	0.1	11.906
4464	14.394	0.90909	0.1	13.902
4465	14.209	0.90909	0.1	15.93
4466	14.024	0.90909	0.1	17.975
4467	13.839	0.90909	0.1	20.012
4468	13.655	0.90909	0.1	22.013
4469	13.47	0.90909	0.1	23.94
4470	13.285	0.90909	0.1	25.747
4471	13.1	0.90909	0.1	27.378
4472	12.916	0.90909	0.1	28.765
4473	12.731	0.90909	0.1	29.829
4474	12.546	0.90909	0.1	30.475
4475	12.361	0.90909	0.1	30.594
4476	12.177	0.90909	0.1	30.066
4477	11.992	0.90909	0.1	28.754
4478	11.807	0.90909	0.1	26.512
4479	11.622	0.90909	0.1	23.192
4480	11.438	0.90909	0.1	18.66
4481	11.253	0.90909	0.1	12.881
4482	11.068	0.90909	0.1	6.4506
4483	10.884	0.90909	0.1	2.5334
4484	10.699	0.90909	0.1	1.5515
4485	10.514	0.90909	0.1	1.2966
4486	10.329	0.90909	0.1	1.2536
4487	10.145	0.90909	0.1	1.3121
4488	9.9598	0.90909	0.1	1.442
4489	9.7751	0.90909	0.1	1.6227
4490	9.5904	0.90909	0.1	1.8808
4491	9.4056	0.90909	0.1	2.0582
4492	9.2209	0.90909	0.1	2.6242
4493	9.0361	0.90909	0.1	1.0915
4494	8.8514	0.90909	0.1	7.0934
4495	23.815	1.0909	0.1	-0.10537
4496	23.631	1.0909	0.1	-0.27674
4497	23.446	1.0909	0.1	-0.10418
4498	23.261	1.0909	0.1	-9.0971e-002
4499	23.076	1.0909	0.1	-6.2482e-002
4500	22.892	1.0909	0.1	-4.9359e-002
4501	22.707	1.0909	0.1	-3.8688e-002
4502	22.522	1.0909	0.1	-3.127e-002
4503	22.337	1.0909	0.1	-2.5595e-002
4504	22.153	1.0909	0.1	-2.1258e-002
4505	21.968	1.0909	0.1	-1.7857e-002
4506	21.783	1.0909	0.1	-1.5138e-002
4507	21.598	1.0909	0.1	-1.2947e-002
4508	21.414	1.0909	0.1	-1.1167e-002
4509	21.229	1.0909	0.1	-9.7032e-003
4510	21.044	1.0909	0.1	-8.4883e-003
4511	20.859	1.0909	0.1	-7.4718e-003
4512	20.675	1.0909	0.1	-6.5979e-003
4513	20.49	1.0909	0.1	-5.8465e-003
4514	20.305	1.0909	0.1	-5.2122e-003
4515	20.12	1.0909	0.1	-4.6721e-003
4516	19.936	1.0909	0.1	-4.2042e-003
4517	19.751	1.0909	0.1	-3.7716e-003
4518	19.566	1.0909	0.1	-3.3857e-003
4519	19.382	1.0909	0.1	-3.0535e-003
4520	19.197	1.0909	0.1	-2.7587e-003
4521	19.012	1.0909	0.1	-2.4955e-003
4522	18.827	1.0909	0.1	-2.2563e-003
4523	18.643	1.0909	0.1	-2.0083e-003
4524	18.458	1.0909	0.1	-1.769e-003
4525	18.273	1.0909	0.1	-1.5522e-003
4526	18.088	1.0909	0.1	-1.3547e-003
4527	17.904	1.0909	0.1	-1.1486e-003
4528	17.719	1.0909	0.1	-8.9347e-004
4529	17.534	1.0909	0.1	-6.0315e-004
4530	17.349	1.0909	0.1	-2.8203e-004
4531	17.165	1.0909	0.1	1.2093e-004
4532	16.98	1.0909	0.1	6.7022e-004
4533	16.795	1.0909	0.1	1.5036e-003
4534	16.61	1.0909	0.1	2.9668e-003
4535	16.426	1.0909	0.1	5.9951e-003
4536	16.241	1.0909	0.1	1.5703e-002
4537	16.056	1.0909	0.1	0.27195
4538	15.871	1.0909	0.1	1.9288
4539	15.687	1.0909	0.1	3.7442
4540	15.502	1.0909	0.1	5.6434
4541	15.317	1.0909	0.1	7.6271
4542	15.133	1.0909	0.1	9.6972
4543	14.948	1.0909	0.1	11.855
4544	14.763	1.0909	0.1	14.099
4545	14.578	1.0909	0.1	16.428
4546	14.394	1.0909	0.1	18.835
4547	14.209	1.0909	0.1	21.311
4548	14.024	1.0909	0.1	23.843
4549	13.839	1.0909	0.1	26.411
4550	13.655	1.0909	0.1	28.992
4551	13.47	1.0909	0.1	31.554
4552	13.285	1.0909	0.1	34.054
4553	13.1	1.0909	0.1	36.445
4554	12.916	1.0909	0.1	38.664
4555	12.731	1.0909	0.1	40.638
4556	12.546	1.0909	0.1	42.28
4557	12.361	1.0909	0.1	43.49
4558	12.177	1.0909	0.1	44.151
4559	11.992	1.0909	0.1	44.133
4560	11.807	1.0909	0.1	43.288
4561	11.622	1.0909	0.1	41.455
4562	11.438	1.0909	0.1	38.458
4563	11.253	1.0909	0.1	34.106
4564	11.068	1.0909	0.1	28.211
4565	10.884	1.0909	0.1	20.661
4566	10.699	1.0909	0.1	11.96
4567	10.514	1.0909	0.1	5.4118
4568	10.329	1.0909	0.1	3.1594
4569	10.145	1.0909	0.1	2.4609
4570	9.9598	1.0909	0.1	2.2146
4571	9.7751	1.0909	0.1	2.1534
4572	9.5904	1.0909	0.1	2.2471
4573	9.4056	1.0909	0.1	2.2634
4574	9.2209	1.0909	0.1	2.9948
4575	9.0361	1.0909	0.1	0.76434
4576	8.8514	1.0909	0.1	8.8954
4577	23.815	1.2727	0.1	-0.1308
4578	23.631	1.2727	0.1	-0.29186
4579	23.446	1.2727	0.1	-0.11548
4580	23.261	1.2727	0.1	-0.10113
4581	23.076	1.2727	0.1	-7.1738e-002
4582	22.892	1.2727	0.1	-5.7997e-002
4583	22.707	1.2727	0.1	-4.6783e-002
4584	22.522	1.2727	0.1	-3.8884e-002
4585	22.337	1.2727	0.1	-3.2752e-002
4586	22.153	1.2727	0.1	-2.7989e-002
4587	21.968	1.2727	0.1	-2.4188e-002
4588	21.783	1.2727	0.1	-2.1098e-002
4589	21.598	1.2727	0.1	-1.856e-002
4590	21.414	1.2727	0.1	-1.646e-002
4591	21.229	1.2727	0.1	-1.4699e-002
4592	21.044	1.2727	0.1	-1.3208e-002
4593	20.859	1.2727	0.1	-1.1937e-002
4594	20.675	1.2727	0.1	-1.0825e-002
4595	20.49	1.2727	0.1	-9.854e-003
4596	20.305	1.2727	0.1	-9.0118e-003
4597	20.12	1.2727	0.1	-8.2817e-003
4598	19.936	1.2727	0.1	-7.6323e-003
4599	19.751	1.2727	0.1	-7.03e-003
4600	19.566	1.2727	0.1	-6.4834e-003
4601	19.382	1.2727	0.1	-6.0006e-003
4602	19.197	1.2727	0.1	-5.5623e-003
4603	19.012	1.2727	0.1	-5.1621e-003
4604	18.827	1.2727	0.1	-4.7892e-003
4605	18.643	1.2727	0.1	-4.4129e-003
4606	18.458	1.2727	0.1	-4.0465e-003
4607	18.273	1.2727	0.1	-3.7031e-003
4608	18.088	1.2727	0.1	-3.3769e-003
4609	17.904	1.2727	0.1	-3.039e-003
4610	17.719	1.2727	0.1	-2.6376e-003
4611	17.534	1.2727	0.1	-2.1844e-003
4612	17.349	1.2727	0.1	-1.6667e-003
4613	17.165	1.2727	0.1	-1.0051e-003
4614	16.98	1.2727	0.1	-5.9474e-005
4615	16.795	1.2727	0.1	1.4972e-003
4616	16.61	1.2727	0.1	4.7337e-003
4617	16.426	1.2727	0.1	1.5567e-002
4618	16.241	1.2727	0.1	0.4013
4619	16.056	1.2727	0.1	2.2243
4620	15.871	1.2727	0.1	4.1851
4621	15.687	1.2727	0.1	6.2408
4622	15.502	1.2727	0.1	8.3955
4623	15.317	1.2727	0.1	10.655
4624	15.133	1.2727	0.1	13.024
4625	14.948	1.2727	0.1	15.508
4626	14.763	1.2727	0.1	18.109
4627	14.578	1.2727	0.1	20.829
4628	14.394	1.2727	0.1	23.666
4629	14.209	1.2727	0.1	26.616
4630	14.024	1.2727	0.1	29.672
4631	13.839	1.2727	0.1	32.821
4632	13.655	1.2727	0.1	36.045
4633	13.47	1.2727	0.1	39.321
4634	13.285	1.2727	0.1	42.618
4635	13.1	1.2727	0.1	45.895
4636	12.916	1.2727	0.1	49.103
4637	12.731	1.2727	0.1	52.18
4638	12.546	1.2727	0.1	55.053
4639	12.361	1.2727	0.1	57.635
4640	12.177	1.2727	0.1	59.822
4641	11.992	1.2727	0.1	61.496
4642	11.807	1.2727	0.1	62.519
4643	11.622	1.2727	0.1	62.731
4644	11.438	1.2727	0.1	61.943
4645	11.253	1.2727	0.1	59.928
4646	11.068	1.2727	0.1	56.393
4647	10.884	1.2727	0.1	50.953
4648	10.699	1.2727	0.1	43.075
4649	10.514	1.2727	0.1	32.111
4650	10.329	1.2727	0.1	18.177
4651	10.145	1.2727	0.1	7.3885
4652	9.9598	1.2727	0.1	4.0597
4653	9.7751	1.2727	0.1	3.062
4654	9.5904	1.2727	0.1	2.7603
4655	9.4056	1.2727	0.1	2.773
4656	9.2209	1.2727	0.1	3.4091
4657	9.0361	1.2727	0.1	1.1162
4658	8.8514	1.2727	0.1	7.7445
4659	23.815	1.4545	0.1	-0.15029
4660	23.631	1.4545	0.1	-0.30289
4661	23.446	1.4545	0.1	-0.12358
4662	23.261	1.4545	0.1	-0.10839
4663	23.076	1.4545	0.1	-7.8359e-002
4664	22.892	1.4545	0.1	-6.4207e-002
4665	22.707	1.4545	0.1	-5.2659e-002
4666	22.522	1.4545	0.1	-4.4469e-002
4667	22.337	1.4545	0.1	-3.8069e-002
4668	22.153	1.4545	0.1	-3.3051e-002
4669	21.968	1.4545	0.1	-2.9e-002
4670	21.783	1.4545	0.1	-2.568e-002
4671	21.598	1.4545	0.1	-2.2917e-002
4672	21.414	1.4545	0.1	-2.0606e-002
4673	21.229	1.4545	0.1	-1.8645e-002
4674	21.044	1.4545	0.1	-1.6966e-002
4675	20.859	1.4545	0.1	-1.5518e-002
4676	20.675	1.4545	0.1	-1.4241e-002
4677	20.49	1.4545	0.1	-1.3116e-002
4678	20.305	1.4545	0.1	-1.2127e-002
4679	20.12	1.4545	0.1	-1.1261e-002
4680	19.936	1.4545	0.1	-1.0482e-002
4681	19.751	1.4545	0.1	-9.7578e-003
4682	19.566	1.4545	0.1	-9.0954e-003
4683	19.382	1.4545	0.1	-8.5041e-003
4684	19.197	1.4545	0.1	-7.9633e-003
4685	19.012	1.4545	0.1	-7.4614e-003
4686	18.827	1.4545	0.1	-6.9954e-003
4687	18.643	1.4545	0.1	-6.5261e-003
4688	18.458	1.4545	0.1	-6.0709e-003
4689	18.273	1.4545	0.1	-5.6374e-003
4690	18.088	1.4545	0.1	-5.2216e-003
4691	17.904	1.4545	0.1	-4.7886e-003
4692	17.719	1.4545	0.1	-4.289e-003
4693	17.534	1.4545	0.1	-3.7189e-003
4694	17.349	1.4545	0.1	-3.0533e-003
4695	17.165	1.4545	0.1	-2.1694e-003
4696	16.98	1.4545	0.1	-8.1942e-004
4697	16.795	1.4545	0.1	1.7405e-003
4698	16.61	1.4545	0.1	9.2597e-003
4699	16.426	1.4545	0.1	0.18598
4700	16.241	1.4545	0.1	2.0439
4701	16.056	1.4545	0.1	4.1167
4702	15.871	1.4545	0.1	6.2921
4703	15.687	1.4545	0.1	8.5765
4704	15.502	1.4545	0.1	10.979
4705	15.317	1.4545	0.1	13.507
4706	15.133	1.4545	0.1	16.172
4707	14.948	1.4545	0.1	18.979
4708	14.763	1.4545	0.1	21.938
4709	14.578	1.4545	0.1	25.053
4710	14.394	1.4545	0.1	28.329
4711	14.209	1.4545	0.1	31.768
4712	14.024	1.4545	0.1	35.37
4713	13.839	1.4545	0.1	39.13
4714	13.655	1.4545	0.1	43.04
4715	13.47	1.4545	0.1	47.086
4716	13.285	1.4545	0.1	51.251
4717	13.1	1.4545	0.1	55.506
4718	12.916	1.4545	0.1	59.817
4719	12.731	1.4545	0.1	64.139
4720	12.546	1.4545	0.1	68.416
4721	12.361	1.4545	0.1	72.579
4722	12.177	1.4545	0.1	76.544
4723	11.992	1.4545	0.1	80.21
4724	11.807	1.4545	0.1	83.455
4725	11.622	1.4545	0.1	86.129
4726	11.438	1.4545	0.1	88.046
4727	11.253	1.4545	0.1	88.965
4728	11.068	1.4545	0.1	88.556
4729	10.884	1.4545	0.1	86.346
4730	10.699	1.4545	0.1	81.616
4731	10.514	1.4545	0.1	73.248
4732	10.329	1.4545	0.1	59.508
4733	10.145	1.4545	0.1	38.224
4734	9.9598	1.4545	0.1	13.666
4735	9.7751	1.4545	0.1	5.3227
4736	9.5904	1.4545	0.1	3.7431
4737	9.4056	1.4545	0.1	3.5192
4738	9.2209	1.4545	0.1	3.8921
4739	9.0361	1.4545	0.1	2.0505
4740	8.8514	1.4545	0.1	23.49
4741	23.815	1.6364	0.1	-0.16578
4742	23.631	1.6364	0.1	-0.31133
4743	23.446	1.6364	0.1	-0.1297
4744	23.261	1.6364	0.1	-0.11384
4745	23.076	1.6364	0.1	-8.3317e-002
4746	22.892	1.6364	0.1	-6.886e-002
4747	22.707	1.6364	0.1	-5.7081e-002
4748	22.522	1.6364	0.1	-4.87e-002
4749	22.337	1.6364	0.1	-4.2129e-002
4750	22.153	1.6364	0.1	-3.6949e-002
4751	21.968	1.6364	0.1	-3.2746e-002
4752	21.783	1.6364	0.1	-2.927e-002
4753	21.598	1.6364	0.1	-2.6363e-002
4754	21.414	1.6364	0.1	-2.3907e-002
4755	21.229	1.6364	0.1	-2.1811e-002
4756	21.044	1.6364	0.1	-2.0003e-002
4757	20.859	1.6364	0.1	-1.843e-002
4758	20.675	1.6364	0.1	-1.7035e-002
4759	20.49	1.6364	0.1	-1.5796e-002
4760	20.305	1.6364	0.1	-1.4704e-002
4761	20.12	1.6364	0.1	-1.3737e-002
4762	19.936	1.6364	0.1	-1.2865e-002
4763	19.751	1.6364	0.1	-1.2051e-002
4764	19.566	1.6364	0.1	-1.1308e-002
4765	19.382	1.6364	0.1	-1.0633e-002
4766	19.197	1.6364	0.1	-1.0016e-002
4767	19.012	1.6364	0.1	-9.4451e-003
4768	18.827	1.6364	0.1	-8.9084e-003
4769	18.643	1.6364	0.1	-8.3749e-003
4770	18.458	1.6364	0.1	-7.8573e-003
4771	18.273	1.6364	0.1	-7.364e-003
4772	18.088	1.6364	0.1	-6.8889e-003
4773	17.904	1.6364	0.1	-6.3978e-003
4774	17.719	1.6364	0.1	-5.8345e-003
4775	17.534	1.6364	0.1	-5.1928e-003
4776	17.349	1.6364	0.1	-4.4294e-003
4777	17.165	1.6364	0.1	-3.3807e-003
4778	16.98	1.6364	0.1	-1.6354e-003
4779	16.795	1.6364	0.1	2.4294e-003
4780	16.61	1.6364	0.1	2.9351e-002
4781	16.426	1.6364	0.1	1.4378
4782	16.241	1.6364	0.1	3.591
4783	16.056	1.6364	0.1	5.8525
4784	15.871	1.6364	0.1	8.2279
4785	15.687	1.6364	0.1	10.729
4786	15.502	1.6364	0.1	13.366
4787	15.317	1.6364	0.1	16.154
4788	15.133	1.6364	0.1	19.102
4789	14.948	1.6364	0.1	22.225
4790	14.763	1.6364	0.1	25.533
4791	14.578	1.6364	0.1	29.038
4792	14.394	1.6364	0.1	32.75
4793	14.209	1.6364	0.1	36.678
4794	14.024	1.6364	0.1	40.83
4795	13.839	1.6364	0.1	45.212
4796	13.655	1.6364	0.1	49.825
4797	13.47	1.6364	0.1	54.669
4798	13.285	1.6364	0.1	59.739
4799	13.1	1.6364	0.1	65.022
4800	12.916	1.6364	0.1	70.502
4801	12.731	1.6364	0.1	76.152
4802	12.546	1.6364	0.1	81.938
4803	12.361	1.6364	0.1	87.811
4804	12.177	1.6364	0.1	93.709
4805	11.992	1.6364	0.1	99.554
4806	11.807	1.6364	0.1	105.24
4807	11.622	1.6364	0.1	110.65
4808	11.438	1.6364	0.1	115.58
4809	11.253	1.6364	0.1	119.82
4810	11.068	1.6364	0.1	123.01
4811	10.884	1.6364	0.1	124.66
4812	10.699	1.6364	0.1	123.99
4813	10.514	1.6364	0.1	119.79
4814	10.329	1.6364	0.1	110.09
4815	10.145	1.6364	0.1	91.694
4816	9.9598	1.6364	0.1	59.978
4817	9.7751	1.6364	0.1	18.317
4818	9.5904	1.6364	0.1	6.2575
4819	9.4056	1.6364	0.1	3.1127
4820	9.2209	1.6364	0.1	10.747
4821	9.0361	1.6364	0.1	-1.2586
4822	8.8514	1.6364	0.1	-8.5774
4823	23.815	1.8182	0.1	-0.17814
4824	23.631	1.8182	0.1	-0.31784
4825	23.446	1.8182	0.1	-0.13436
4826	23.261	1.8182	0.1	-0.11797
4827	23.076	1.8182	0.1	-8.7058e-002
4828	22.892	1.8182	0.1	-7.2369e-002
4829	22.707	1.8182	0.1	-6.0417e-002
4830	22.522	1.8182	0.1	-5.1906e-002
4831	22.337	1.8182	0.1	-4.5223e-002
4832	22.153	1.8182	0.1	-3.9942e-002
4833	21.968	1.8182	0.1	-3.5637e-002
4834	21.783	1.8182	0.1	-3.2067e-002
4835	21.598	1.8182	0.1	-2.9062e-002
4836	21.414	1.8182	0.1	-2.6515e-002
4837	21.229	1.8182	0.1	-2.4325e-002
4838	21.044	1.8182	0.1	-2.2428e-002
4839	20.859	1.8182	0.1	-2.0768e-002
4840	20.675	1.8182	0.1	-1.9291e-002
4841	20.49	1.8182	0.1	-1.7975e-002
4842	20.305	1.8182	0.1	-1.6804e-002
4843	20.12	1.8182	0.1	-1.5767e-002
4844	19.936	1.8182	0.1	-1.4826e-002
4845	19.751	1.8182	0.1	-1.3949e-002
4846	19.566	1.8182	0.1	-1.3141e-002
4847	19.382	1.8182	0.1	-1.2414e-002
4848	19.197	1.8182	0.1	-1.1742e-002
4849	19.012	1.8182	0.1	-1.112e-002
4850	18.827	1.8182	0.1	-1.0537e-002
4851	18.643	1.8182	0.1	-9.9589e-003
4852	18.458	1.8182	0.1	-9.3998e-003
4853	18.273	1.8182	0.1	-8.8705e-003
4854	18.088	1.8182	0.1	-8.3606e-003
4855	17.904	1.8182	0.1	-7.839e-003
4856	17.719	1.8182	0.1	-7.2457e-003
4857	17.534	1.8182	0.1	-6.5737e-003
4858	17.349	1.8182	0.1	-5.7707e-003
4859	17.165	1.8182	0.1	-4.6279e-003
4860	16.98	1.8182	0.1	-2.5408e-003
4861	16.795	1.8182	0.1	4.102e-003
4862	16.61	1.8182	0.1	0.47592
4863	16.426	1.8182	0.1	2.6638
4864	16.241	1.8182	0.1	4.9814
4865	16.056	1.8182	0.1	7.4137
4866	15.871	1.8182	0.1	9.9733
4867	15.687	1.8182	0.1	12.674
4868	15.502	1.8182	0.1	15.532
4869	15.317	1.8182	0.1	18.561
4870	15.133	1.8182	0.1	21.777
4871	14.948	1.8182	0.1	25.198
4872	14.763	1.8182	0.1	28.838
4873	14.578	1.8182	0.1	32.716
4874	14.394	1.8182	0.1	36.848
4875	14.209	1.8182	0.1	41.251
4876	14.024	1.8182	0.1	45.941
4877	13.839	1.8182	0.1	50.933
4878	13.655	1.8182	0.1	56.242
4879	13.47	1.8182	0.1	61.878
4880	13.285	1.8182	0.1	67.852
4881	13.1	1.8182	0.1	74.169
4882	12.916	1.8182	0.1	80.83
4883	12.731	1.8182	0.1	87.829
4884	12.546	1.8182	0.1	95.153
4885	12.361	1.8182	0.1	102.78
4886	12.177	1.8182	0.1	110.66
4887	11.992	1.8182	0.1	118.76
4888	11.807	1.8182	0.1	126.97
4889	11.622	1.8182	0.1	135.2
4890	11.438	1.8182	0.1	143.28
4891	11.253	1.8182	0.1	150.98
4892	11.068	1.8182	0.1	157.96
4893	10.884	1.8182	0.1	163.73
4894	10.699	1.8182	0.1	167.5
4895	10.514	1.8182	0.1	168.11
4896	10.329	1.8182	0.1	163.65
4897	10.145	1.8182	0.1	151.09
4898	9.9598	1.8182	0.1	125.55
4899	9.7751	1.8182	0.1	79.632
4900	9.5904	1.8182	0.1	19.262
4901	9.4056	1.8182	0.1	5.5058
4902	9.2209	1.8182	0.1	7.6769
4903	9.0361	1.8182	0.1	-7.7844
4904	8.8514	1.8182	0.1	141.33
4905	23.815	2.	0.1	-0.18801
4906	23.631	2.	0.1	-0.32287
4907	23.446	2.	0.1	-0.13794
4908	23.261	2.	0.1	-0.12113
4909	23.076	2.	0.1	-8.9906e-002
4910	22.892	2.	0.1	-7.5031e-002
4911	22.707	2.	0.1	-6.295e-002
4912	22.522	2.	0.1	-5.4344e-002
4913	22.337	2.	0.1	-4.7584e-002
4914	22.153	2.	0.1	-4.2235e-002
4915	21.968	2.	0.1	-3.7868e-002
4916	21.783	2.	0.1	-3.4235e-002
4917	21.598	2.	0.1	-3.117e-002
4918	21.414	2.	0.1	-2.8558e-002
4919	21.229	2.	0.1	-2.6308e-002
4920	21.044	2.	0.1	-2.4348e-002
4921	20.859	2.	0.1	-2.2632e-002
4922	20.675	2.	0.1	-2.1096e-002
4923	20.49	2.	0.1	-1.9723e-002
4924	20.305	2.	0.1	-1.85e-002
4925	20.12	2.	0.1	-1.7408e-002
4926	19.936	2.	0.1	-1.642e-002
4927	19.751	2.	0.1	-1.5497e-002
4928	19.566	2.	0.1	-1.4646e-002
4929	19.382	2.	0.1	-1.3877e-002
4930	19.197	2.	0.1	-1.3167e-002
4931	19.012	2.	0.1	-1.2511e-002
4932	18.827	2.	0.1	-1.1895e-002
4933	18.643	2.	0.1	-1.1288e-002
4934	18.458	2.	0.1	-1.0705e-002
4935	18.273	2.	0.1	-1.0153e-002
4936	18.088	2.	0.1	-9.6275e-003
4937	17.904	2.	0.1	-9.0949e-003
4938	17.719	2.	0.1	-8.4994e-003
4939	17.534	2.	0.1	-7.8339e-003
4940	17.349	2.	0.1	-7.042e-003
4941	17.165	2.	0.1	-5.8952e-003
4942	16.98	2.	0.1	-3.5715e-003
4943	16.795	2.	0.1	8.9047e-003
4944	16.61	2.	0.1	1.3935
4945	16.426	2.	0.1	3.74
4946	16.241	2.	0.1	6.2002
4947	16.056	2.	0.1	8.7851
4948	15.871	2.	0.1	11.51
4949	15.687	2.	0.1	14.392
4950	15.502	2.	0.1	17.448
4951	15.317	2.	0.1	20.697
4952	15.133	2.	0.1	24.158
4953	14.948	2.	0.1	27.852
4954	14.763	2.	0.1	31.799
4955	14.578	2.	0.1	36.023
4956	14.394	2.	0.1	40.546
4957	14.209	2.	0.1	45.392
4958	14.024	2.	0.1	50.587
4959	13.839	2.	0.1	56.156
4960	13.655	2.	0.1	62.124
4961	13.47	2.	0.1	68.516
4962	13.285	2.	0.1	75.356
4963	13.1	2.	0.1	82.666
4964	12.916	2.	0.1	90.467
4965	12.731	2.	0.1	98.771
4966	12.546	2.	0.1	107.59
4967	12.361	2.	0.1	116.92
4968	12.177	2.	0.1	126.74
4969	11.992	2.	0.1	137.03
4970	11.807	2.	0.1	147.71
4971	11.622	2.	0.1	158.71
4972	11.438	2.	0.1	169.85
4973	11.253	2.	0.1	180.93
4974	11.068	2.	0.1	191.59
4975	10.884	2.	0.1	201.33
4976	10.699	2.	0.1	209.4
4977	10.514	2.	0.1	214.63
4978	10.329	2.	0.1	215.27
4979	10.145	2.	0.1	208.6
4980	9.9598	2.	0.1	190.46
4981	9.7751	2.	0.1	154.2
4982	9.5904	2.	0.1	90.434
4983	9.4056	2.	0.1	10.637
4984	9.2209	2.	0.1	16.055
4985	9.0361	2.	0.1	-73.041
4986	8.8514	2.	0.1	525.45
4987	23.815	2.1818	0.1	-0.19578
4988	23.631	2.1818	0.1	-0.32675
4989	23.446	2.1818	0.1	-0.14066
4990	23.261	2.1818	0.1	-0.12352
4991	23.076	2.1818	0.1	-9.2061e-002
4992	22.892	2.1818	0.1	-7.7042e-002
4993	22.707	2.1818	0.1	-6.4859e-002
4994	22.522	2.1818	0.1	-5.6182e-002
4995	22.337	2.1818	0.1	-4.9369e-002
4996	22.153	2.1818	0.1	-4.3974e-002
4997	21.968	2.1818	0.1	-3.9566e-002
4998	21.783	2.1818	0.1	-3.5893e-002
4999	21.598	2.1818	0.1	-3.2787e-002
5000	21.414	2.1818	0.1	-3.0138e-002
5001	21.229	2.1818	0.1	-2.7845e-002
5002	21.044	2.1818	0.1	-2.5846e-002
5003	20.859	2.1818	0.1	-2.4087e-002
5004	20.675	2.1818	0.1	-2.2512e-002
5005	20.49	2.1818	0.1	-2.1098e-002
5006	20.305	2.1818	0.1	-1.9837e-002
5007	20.12	2.1818	0.1	-1.8712e-002
5008	19.936	2.1818	0.1	-1.7688e-002
5009	19.751	2.1818	0.1	-1.673e-002
5010	19.566	2.1818	0.1	-1.585e-002
5011	19.382	2.1818	0.1	-1.505e-002
5012	19.197	2.1818	0.1	-1.4315e-002
5013	19.012	2.1818	0.1	-1.3633e-002
5014	18.827	2.1818	0.1	-1.2998e-002
5015	18.643	2.1818	0.1	-1.2372e-002
5016	18.458	2.1818	0.1	-1.1774e-002
5017	18.273	2.1818	0.1	-1.1213e-002
5018	18.088	2.1818	0.1	-1.0685e-002
5019	17.904	2.1818	0.1	-1.0156e-002
5020	17.719	2.1818	0.1	-9.5759e-003
5021	17.534	2.1818	0.1	-8.9417e-003
5022	17.349	2.1818	0.1	-8.2051e-003
5023	17.165	2.1818	0.1	-7.142e-003
5024	16.98	2.1818	0.1	-4.7675e-003
5025	16.795	2.1818	0.1	3.9449e-002
5026	16.61	2.1818	0.1	2.1892
5027	16.426	2.1818	0.1	4.6531
5028	16.241	2.1818	0.1	7.2357
5029	16.056	2.1818	0.1	9.9525
5030	15.871	2.1818	0.1	12.821
5031	15.687	2.1818	0.1	15.86
5032	15.502	2.1818	0.1	19.09
5033	15.317	2.1818	0.1	22.532
5034	15.133	2.1818	0.1	26.208
5035	14.948	2.1818	0.1	30.142
5036	14.763	2.1818	0.1	34.361
5037	14.578	2.1818	0.1	38.892
5038	14.394	2.1818	0.1	43.765
5039	14.209	2.1818	0.1	49.009
5040	14.024	2.1818	0.1	54.659
5041	13.839	2.1818	0.1	60.748
5042	13.655	2.1818	0.1	67.313
5043	13.47	2.1818	0.1	74.392
5044	13.285	2.1818	0.1	82.022
5045	13.1	2.1818	0.1	90.241
5046	12.916	2.1818	0.1	99.085
5047	12.731	2.1818	0.1	108.59
5048	12.546	2.1818	0.1	118.78
5049	12.361	2.1818	0.1	129.68
5050	12.177	2.1818	0.1	141.29
5051	11.992	2.1818	0.1	153.6
5052	11.807	2.1818	0.1	166.57
5053	11.622	2.1818	0.1	180.1
5054	11.438	2.1818	0.1	194.06
5055	11.253	2.1818	0.1	208.2
5056	11.068	2.1818	0.1	222.17
5057	10.884	2.1818	0.1	235.42
5058	10.699	2.1818	0.1	247.14
5059	10.514	2.1818	0.1	256.12
5060	10.329	2.1818	0.1	260.59
5061	10.145	2.1818	0.1	257.89
5062	9.9598	2.1818	0.1	244.16
5063	9.7751	2.1818	0.1	213.47
5064	9.5904	2.1818	0.1	157.43
5065	9.4056	2.1818	0.1	61.247
5066	9.2209	2.1818	0.1	7.4701
5067	9.0361	2.1818	0.1	-32.731
5068	8.8514	2.1818	0.1	15.545
5069	23.815	2.3636	0.1	-0.20173
5070	23.631	2.3636	0.1	-0.32965
5071	23.446	2.3636	0.1	-0.1427
5072	23.261	2.3636	0.1	-0.12531
5073	23.076	2.3636	0.1	-9.366e-002
5074	22.892	2.3636	0.1	-7.8533e-002
5075	22.707	2.3636	0.1	-6.6271e-002
5076	22.522	2.3636	0.1	-5.7542e-002
5077	22.337	2.3636	0.1	-5.0688e-002
5078	22.153	2.3636	0.1	-4.5262e-002
5079	21.968	2.3636	0.1	-4.0828e-002
5080	21.783	2.3636	0.1	-3.7131e-002
5081	21.598	2.3636	0.1	-3.3998e-002
5082	21.414	2.3636	0.1	-3.1323e-002
5083	21.229	2.3636	0.1	-2.9005e-002
5084	21.044	2.3636	0.1	-2.6979e-002
5085	20.859	2.3636	0.1	-2.5191e-002
5086	20.675	2.3636	0.1	-2.3589e-002
5087	20.49	2.3636	0.1	-2.2149e-002
5088	20.305	2.3636	0.1	-2.0862e-002
5089	20.12	2.3636	0.1	-1.971e-002
5090	19.936	2.3636	0.1	-1.866e-002
5091	19.751	2.3636	0.1	-1.7682e-002
5092	19.566	2.3636	0.1	-1.6778e-002
5093	19.382	2.3636	0.1	-1.596e-002
5094	19.197	2.3636	0.1	-1.5207e-002
5095	19.012	2.3636	0.1	-1.451e-002
5096	18.827	2.3636	0.1	-1.3861e-002
5097	18.643	2.3636	0.1	-1.3223e-002
5098	18.458	2.3636	0.1	-1.2619e-002
5099	18.273	2.3636	0.1	-1.2055e-002
5100	18.088	2.3636	0.1	-1.1529e-002
5101	17.904	2.3636	0.1	-1.1012e-002
5102	17.719	2.3636	0.1	-1.0457e-002
5103	17.534	2.3636	0.1	-9.8685e-003
5104	17.349	2.3636	0.1	-9.2172e-003
5105	17.165	2.3636	0.1	-8.3113e-003
5106	16.98	2.3636	0.1	-6.1524e-003
5107	16.795	2.3636	0.1	0.397
5108	16.61	2.3636	0.1	2.836
5109	16.426	2.3636	0.1	5.3945
5110	16.241	2.3636	0.1	8.0776
5111	16.056	2.3636	0.1	10.903
5112	15.871	2.3636	0.1	13.89
5113	15.687	2.3636	0.1	17.06
5114	15.502	2.3636	0.1	20.434
5115	15.317	2.3636	0.1	24.036
5116	15.133	2.3636	0.1	27.892
5117	14.948	2.3636	0.1	32.029
5118	14.763	2.3636	0.1	36.477
5119	14.578	2.3636	0.1	41.267
5120	14.394	2.3636	0.1	46.435
5121	14.209	2.3636	0.1	52.017
5122	14.024	2.3636	0.1	58.053
5123	13.839	2.3636	0.1	64.586
5124	13.655	2.3636	0.1	71.663
5125	13.47	2.3636	0.1	79.33
5126	13.285	2.3636	0.1	87.639
5127	13.1	2.3636	0.1	96.64
5128	12.916	2.3636	0.1	106.39
5129	12.731	2.3636	0.1	116.93
5130	12.546	2.3636	0.1	128.31
5131	12.361	2.3636	0.1	140.57
5132	12.177	2.3636	0.1	153.73
5133	11.992	2.3636	0.1	167.79
5134	11.807	2.3636	0.1	182.72
5135	11.622	2.3636	0.1	198.44
5136	11.438	2.3636	0.1	214.8
5137	11.253	2.3636	0.1	231.53
5138	11.068	2.3636	0.1	248.24
5139	10.884	2.3636	0.1	264.29
5140	10.699	2.3636	0.1	278.75
5141	10.514	2.3636	0.1	290.24
5142	10.329	2.3636	0.1	296.71
5143	10.145	2.3636	0.1	295.17
5144	9.9598	2.3636	0.1	281.24
5145	9.7751	2.3636	0.1	248.48
5146	9.5904	2.3636	0.1	187.28
5147	9.4056	2.3636	0.1	82.863
5148	9.2209	2.3636	0.1	-4.4892
5149	9.0361	2.3636	0.1	9.227
5150	8.8514	2.3636	0.1	16.238
5151	23.815	2.5455	0.1	-0.20605
5152	23.631	2.5455	0.1	-0.33173
5153	23.446	2.5455	0.1	-0.14414
5154	23.261	2.5455	0.1	-0.12657
5155	23.076	2.5455	0.1	-9.4792e-002
5156	22.892	2.5455	0.1	-7.9584e-002
5157	22.707	2.5455	0.1	-6.7269e-002
5158	22.522	2.5455	0.1	-5.8501e-002
5159	22.337	2.5455	0.1	-5.1621e-002
5160	22.153	2.5455	0.1	-4.6175e-002
5161	21.968	2.5455	0.1	-4.1723e-002
5162	21.783	2.5455	0.1	-3.8008e-002
5163	21.598	2.5455	0.1	-3.4861e-002
5164	21.414	2.5455	0.1	-3.217e-002
5165	21.229	2.5455	0.1	-2.9835e-002
5166	21.044	2.5455	0.1	-2.7791e-002
5167	20.859	2.5455	0.1	-2.5988e-002
5168	20.675	2.5455	0.1	-2.4365e-002
5169	20.49	2.5455	0.1	-2.2908e-002
5170	20.305	2.5455	0.1	-2.1605e-002
5171	20.12	2.5455	0.1	-2.0435e-002
5172	19.936	2.5455	0.1	-1.9371e-002
5173	19.751	2.5455	0.1	-1.8376e-002
5174	19.566	2.5455	0.1	-1.7457e-002
5175	19.382	2.5455	0.1	-1.6627e-002
5176	19.197	2.5455	0.1	-1.5861e-002
5177	19.012	2.5455	0.1	-1.5153e-002
5178	18.827	2.5455	0.1	-1.4495e-002
5179	18.643	2.5455	0.1	-1.3853e-002
5180	18.458	2.5455	0.1	-1.3244e-002
5181	18.273	2.5455	0.1	-1.2681e-002
5182	18.088	2.5455	0.1	-1.2162e-002
5183	17.904	2.5455	0.1	-1.1659e-002
5184	17.719	2.5455	0.1	-1.1131e-002
5185	17.534	2.5455	0.1	-1.059e-002
5186	17.349	2.5455	0.1	-1.003e-002
5187	17.165	2.5455	0.1	-9.317e-003
5188	16.98	2.5455	0.1	-7.6692e-003
5189	16.795	2.5455	0.1	0.80984
5190	16.61	2.5455	0.1	3.3264
5191	16.426	2.5455	0.1	5.957
5192	16.241	2.5455	0.1	8.7172
5193	16.056	2.5455	0.1	11.626
5194	15.871	2.5455	0.1	14.705
5195	15.687	2.5455	0.1	17.975
5196	15.502	2.5455	0.1	21.461
5197	15.317	2.5455	0.1	25.187
5198	15.133	2.5455	0.1	29.183
5199	14.948	2.5455	0.1	33.477
5200	14.763	2.5455	0.1	38.103
5201	14.578	2.5455	0.1	43.096
5202	14.394	2.5455	0.1	48.494
5203	14.209	2.5455	0.1	54.341
5204	14.024	2.5455	0.1	60.682
5205	13.839	2.5455	0.1	67.565
5206	13.655	2.5455	0.1	75.045
5207	13.47	2.5455	0.1	83.178
5208	13.285	2.5455	0.1	92.024
5209	13.1	2.5455	0.1	101.65
5210	12.916	2.5455	0.1	112.11
5211	12.731	2.5455	0.1	123.47
5212	12.546	2.5455	0.1	135.8
5213	12.361	2.5455	0.1	149.14
5214	12.177	2.5455	0.1	163.53
5215	11.992	2.5455	0.1	178.99
5216	11.807	2.5455	0.1	195.48
5217	11.622	2.5455	0.1	212.92
5218	11.438	2.5455	0.1	231.16
5219	11.253	2.5455	0.1	249.89
5220	11.068	2.5455	0.1	268.65
5221	10.884	2.5455	0.1	286.72
5222	10.699	2.5455	0.1	302.97
5223	10.514	2.5455	0.1	315.75
5224	10.329	2.5455	0.1	322.6
5225	10.145	2.5455	0.1	319.88
5226	9.9598	2.5455	0.1	302.25
5227	9.7751	2.5455	0.1	261.92
5228	9.5904	2.5455	0.1	187.55
5229	9.4056	2.5455	0.1	63.337
5230	9.2209	2.5455	0.1	0.26252
5231	9.0361	2.5455	0.1	-0.31086
5232	8.8514	2.5455	0.1	-4.5498
5233	23.815	2.7273	0.1	-0.20887
5234	23.631	2.7273	0.1	-0.33307
5235	23.446	2.7273	0.1	-0.14508
5236	23.261	2.7273	0.1	-0.12739
5237	23.076	2.7273	0.1	-9.5517e-002
5238	22.892	2.7273	0.1	-8.0257e-002
5239	22.707	2.7273	0.1	-6.7907e-002
5240	22.522	2.7273	0.1	-5.9112e-002
5241	22.337	2.7273	0.1	-5.2218e-002
5242	22.153	2.7273	0.1	-4.6756e-002
5243	21.968	2.7273	0.1	-4.2294e-002
5244	21.783	2.7273	0.1	-3.8572e-002
5245	21.598	2.7273	0.1	-3.5415e-002
5246	21.414	2.7273	0.1	-3.2713e-002
5247	21.229	2.7273	0.1	-3.037e-002
5248	21.044	2.7273	0.1	-2.8317e-002
5249	20.859	2.7273	0.1	-2.6501e-002
5250	20.675	2.7273	0.1	-2.4869e-002
5251	20.49	2.7273	0.1	-2.3402e-002
5252	20.305	2.7273	0.1	-2.2086e-002
5253	20.12	2.7273	0.1	-2.0906e-002
5254	19.936	2.7273	0.1	-1.9832e-002
5255	19.751	2.7273	0.1	-1.8829e-002
5256	19.566	2.7273	0.1	-1.7901e-002
5257	19.382	2.7273	0.1	-1.7062e-002
5258	19.197	2.7273	0.1	-1.6291e-002
5259	19.012	2.7273	0.1	-1.5575e-002
5260	18.827	2.7273	0.1	-1.4913e-002
5261	18.643	2.7273	0.1	-1.4267e-002
5262	18.458	2.7273	0.1	-1.3659e-002
5263	18.273	2.7273	0.1	-1.3096e-002
5264	18.088	2.7273	0.1	-1.2584e-002
5265	17.904	2.7273	0.1	-1.2093e-002
5266	17.719	2.7273	0.1	-1.1584e-002
5267	17.534	2.7273	0.1	-1.1084e-002
5268	17.349	2.7273	0.1	-1.06e-002
5269	17.165	2.7273	0.1	-1.0065e-002
5270	16.98	2.7273	0.1	-9.0918e-003
5271	16.795	2.7273	0.1	1.0918
5272	16.61	2.7273	0.1	3.656
5273	16.426	2.7273	0.1	6.3351
5274	16.241	2.7273	0.1	9.1475
5275	16.056	2.7273	0.1	12.113
5276	15.871	2.7273	0.1	15.254
5277	15.687	2.7273	0.1	18.593
5278	15.502	2.7273	0.1	22.154
5279	15.317	2.7273	0.1	25.966
5280	15.133	2.7273	0.1	30.057
5281	14.948	2.7273	0.1	34.458
5282	14.763	2.7273	0.1	39.206
5283	14.578	2.7273	0.1	44.338
5284	14.394	2.7273	0.1	49.896
5285	14.209	2.7273	0.1	55.925
5286	14.024	2.7273	0.1	62.475
5287	13.839	2.7273	0.1	69.6
5288	13.655	2.7273	0.1	77.359
5289	13.47	2.7273	0.1	85.814
5290	13.285	2.7273	0.1	95.032
5291	13.1	2.7273	0.1	105.08
5292	12.916	2.7273	0.1	116.04
5293	12.731	2.7273	0.1	127.98
5294	12.546	2.7273	0.1	140.96
5295	12.361	2.7273	0.1	155.06
5296	12.177	2.7273	0.1	170.3
5297	11.992	2.7273	0.1	186.72
5298	11.807	2.7273	0.1	204.29
5299	11.622	2.7273	0.1	222.92
5300	11.438	2.7273	0.1	242.44
5301	11.253	2.7273	0.1	262.52
5302	11.068	2.7273	0.1	282.64
5303	10.884	2.7273	0.1	301.96
5304	10.699	2.7273	0.1	319.2
5305	10.514	2.7273	0.1	332.44
5306	10.329	2.7273	0.1	338.79
5307	10.145	2.7273	0.1	333.96
5308	9.9598	2.7273	0.1	311.7
5309	9.7751	2.7273	0.1	263.04
5310	9.5904	2.7273	0.1	175.74
5311	9.4056	2.7273	0.1	35.301
5312	9.2209	2.7273	0.1	-0.75786
5313	9.0361	2.7273	0.1	5.1674e-002
5314	8.8514	2.7273	0.1	2.79
5315	23.815	2.9091	0.1	-0.21026
5316	23.631	2.9091	0.1	-0.33373
5317	23.446	2.9091	0.1	-0.14553
5318	23.261	2.9091	0.1	-0.12778
5319	23.076	2.9091	0.1	-9.5871e-002
5320	22.892	2.9091	0.1	-8.0585e-002
5321	22.707	2.9091	0.1	-6.8217e-002
5322	22.522	2.9091	0.1	-5.9411e-002
5323	22.337	2.9091	0.1	-5.2507e-002
5324	22.153	2.9091	0.1	-4.704e-002
5325	21.968	2.9091	0.1	-4.2574e-002
5326	21.783	2.9091	0.1	-3.8844e-002
5327	21.598	2.9091	0.1	-3.5686e-002
5328	21.414	2.9091	0.1	-3.2981e-002
5329	21.229	2.9091	0.1	-3.0632e-002
5330	21.044	2.9091	0.1	-2.8574e-002
5331	20.859	2.9091	0.1	-2.6753e-002
5332	20.675	2.9091	0.1	-2.5117e-002
5333	20.49	2.9091	0.1	-2.3644e-002
5334	20.305	2.9091	0.1	-2.2324e-002
5335	20.12	2.9091	0.1	-2.1139e-002
5336	19.936	2.9091	0.1	-2.006e-002
5337	19.751	2.9091	0.1	-1.9051e-002
5338	19.566	2.9091	0.1	-1.812e-002
5339	19.382	2.9091	0.1	-1.7277e-002
5340	19.197	2.9091	0.1	-1.6501e-002
5341	19.012	2.9091	0.1	-1.5784e-002
5342	18.827	2.9091	0.1	-1.5119e-002
5343	18.643	2.9091	0.1	-1.4473e-002
5344	18.458	2.9091	0.1	-1.3863e-002
5345	18.273	2.9091	0.1	-1.3304e-002
5346	18.088	2.9091	0.1	-1.2793e-002
5347	17.904	2.9091	0.1	-1.2308e-002
5348	17.719	2.9091	0.1	-1.1813e-002
5349	17.534	2.9091	0.1	-1.1335e-002
5350	17.349	2.9091	0.1	-1.0894e-002
5351	17.165	2.9091	0.1	-1.0467e-002
5352	16.98	2.9091	0.1	-9.9988e-003
5353	16.795	2.9091	0.1	1.2338
5354	16.61	2.9091	0.1	3.8215
5355	16.426	2.9091	0.1	6.5251
5356	16.241	2.9091	0.1	9.3639
5357	16.056	2.9091	0.1	12.358
5358	15.871	2.9091	0.1	15.53
5359	15.687	2.9091	0.1	18.904
5360	15.502	2.9091	0.1	22.504
5361	15.317	2.9091	0.1	26.358
5362	15.133	2.9091	0.1	30.497
5363	14.948	2.9091	0.1	34.954
5364	14.763	2.9091	0.1	39.764
5365	14.578	2.9091	0.1	44.967
5366	14.394	2.9091	0.1	50.605
5367	14.209	2.9091	0.1	56.727
5368	14.024	2.9091	0.1	63.384
5369	13.839	2.9091	0.1	70.632
5370	13.655	2.9091	0.1	78.534
5371	13.47	2.9091	0.1	87.153
5372	13.285	2.9091	0.1	96.563
5373	13.1	2.9091	0.1	106.84
5374	12.916	2.9091	0.1	118.05
5375	12.731	2.9091	0.1	130.28
5376	12.546	2.9091	0.1	143.6
5377	12.361	2.9091	0.1	158.08
5378	12.177	2.9091	0.1	173.76
5379	11.992	2.9091	0.1	190.67
5380	11.807	2.9091	0.1	208.79
5381	11.622	2.9091	0.1	228.03
5382	11.438	2.9091	0.1	248.2
5383	11.253	2.9091	0.1	268.95
5384	11.068	2.9091	0.1	289.74
5385	10.884	2.9091	0.1	309.65
5386	10.699	2.9091	0.1	327.31
5387	10.514	2.9091	0.1	340.63
5388	10.329	2.9091	0.1	346.45
5389	10.145	2.9091	0.1	340.11
5390	9.9598	2.9091	0.1	314.8
5391	9.7751	2.9091	0.1	261.01
5392	9.5904	2.9091	0.1	166.36
5393	9.4056	2.9091	0.1	17.693
5394	9.2209	2.9091	0.1	-0.906
5395	9.0361	2.9091	0.1	-6.1305e-002
5396	8.8514	2.9091	0.1	0.21684
5397	23.815	3.0909	0.1	-0.21026
5398	23.631	3.0909	0.1	-0.33373
5399	23.446	3.0909	0.1	-0.14553
5400	23.261	3.0909	0.1	-0.12778
5401	23.076	3.0909	0.1	-9.5872e-002
5402	22.892	3.0909	0.1	-8.0587e-002
5403	22.707	3.0909	0.1	-6.8217e-002
5404	22.522	3.0909	0.1	-5.9414e-002
5405	22.337	3.0909	0.1	-5.2507e-002
5406	22.153	3.0909	0.1	-4.7041e-002
5407	21.968	3.0909	0.1	-4.2573e-002
5408	21.783	3.0909	0.1	-3.8846e-002
5409	21.598	3.0909	0.1	-3.5686e-002
5410	21.414	3.0909	0.1	-3.2981e-002
5411	21.229	3.0909	0.1	-3.0632e-002
5412	21.044	3.0909	0.1	-2.8572e-002
5413	20.859	3.0909	0.1	-2.6754e-002
5414	20.675	3.0909	0.1	-2.5118e-002
5415	20.49	3.0909	0.1	-2.3644e-002
5416	20.305	3.0909	0.1	-2.2324e-002
5417	20.12	3.0909	0.1	-2.1138e-002
5418	19.936	3.0909	0.1	-2.0061e-002
5419	19.751	3.0909	0.1	-1.905e-002
5420	19.566	3.0909	0.1	-1.8121e-002
5421	19.382	3.0909	0.1	-1.7276e-002
5422	19.197	3.0909	0.1	-1.6501e-002
5423	19.012	3.0909	0.1	-1.5785e-002
5424	18.827	3.0909	0.1	-1.5119e-002
5425	18.643	3.0909	0.1	-1.4474e-002
5426	18.458	3.0909	0.1	-1.3863e-002
5427	18.273	3.0909	0.1	-1.3303e-002
5428	18.088	3.0909	0.1	-1.2793e-002
5429	17.904	3.0909	0.1	-1.2308e-002
5430	17.719	3.0909	0.1	-1.1814e-002
5431	17.534	3.0909	0.1	-1.1334e-002
5432	17.349	3.0909	0.1	-1.0894e-002
5433	17.165	3.0909	0.1	-1.0467e-002
5434	16.98	3.0909	0.1	-9.9985e-003
5435	16.795	3.0909	0.1	1.2338
5436	16.61	3.0909	0.1	3.8215
5437	16.426	3.0909	0.1	6.5251
5438	16.241	3.0909	0.1	9.3639
5439	16.056	3.0909	0.1	12.358
5440	15.871	3.0909	0.1	15.53
5441	15.687	3.0909	0.1	18.904
5442	15.502	3.0909	0.1	22.504
5443	15.317	3.0909	0.1	26.358
5444	15.133	3.0909	0.1	30.497
5445	14.948	3.0909	0.1	34.954
5446	14.763	3.0909	0.1	39.764
5447	14.578	3.0909	0.1	44.967
5448	14.394	3.0909	0.1	50.605
5449	14.209	3.0909	0.1	56.727
5450	14.024	3.0909	0.1	63.384
5451	13.839	3.0909	0.1	70.632
5452	13.655	3.0909	0.1	78.534
5453	13.47	3.0909	0.1	87.153
5454	13.285	3.0909	0.1	96.563
5455	13.1	3.0909	0.1	106.84
5456	12.916	3.0909	0.1	118.05
5457	12.731	3.0909	0.1	130.28
5458	12.546	3.0909	0.1	143.6
5459	12.361	3.0909	0.1	158.08
5460	12.177	3.0909	0.1	173.76
5461	11.992	3.0909	0.1	190.67
5462	11.807	3.0909	0.1	208.79
5463	11.622	3.0909	0.1	228.03
5464	11.438	3.0909	0.1	248.2
5465	11.253	3.0909	0.1	268.95
5466	11.068	3.0909	0.1	289.74
5467	10.884	3.0909	0.1	309.65
5468	10.699	3.0909	0.1	327.31
5469	10.514	3.0909	0.1	340.63
5470	10.329	3.0909	0.1	346.45
5471	10.145	3.0909	0.1	340.11
5472	9.9598	3.0909	0.1	314.8
5473	9.7751	3.0909	0.1	261.01
5474	9.5904	3.0909	0.1	166.36
5475	9.4056	3.0909	0.1	17.693
5476	9.2209	3.0909	0.1	-0.906
5477	9.0361	3.0909	0.1	-6.1303e-002
5478	8.8514	3.0909	0.1	0.21684
5479	23.815	3.2727	0.1	-0.20887
5480	23.631	3.2727	0.1	-0.33307
5481	23.446	3.2727	0.1	-0.14508
5482	23.261	3.2727	0.1	-0.12738
5483	23.076	3.2727	0.1	-9.5518e-002
5484	22.892	3.2727	0.1	-8.0258e-002
5485	22.707	3.2727	0.1	-6.7905e-002
5486	22.522	3.2727	0.1	-5.9113e-002
5487	22.337	3.2727	0.1	-5.2216e-002
5488	22.153	3.2727	0.1	-4.6756e-002
5489	21.968	3.2727	0.1	-4.2297e-002
5490	21.783	3.2727	0.1	-3.8569e-002
5491	21.598	3.2727	0.1	-3.5416e-002
5492	21.414	3.2727	0.1	-3.2713e-002
5493	21.229	3.2727	0.1	-3.037e-002
5494	21.044	3.2727	0.1	-2.8316e-002
5495	20.859	3.2727	0.1	-2.6501e-002
5496	20.675	3.2727	0.1	-2.4869e-002
5497	20.49	3.2727	0.1	-2.34e-002
5498	20.305	3.2727	0.1	-2.2085e-002
5499	20.12	3.2727	0.1	-2.0907e-002
5500	19.936	3.2727	0.1	-1.9831e-002
5501	19.751	3.2727	0.1	-1.8829e-002
5502	19.566	3.2727	0.1	-1.7903e-002
5503	19.382	3.2727	0.1	-1.7062e-002
5504	19.197	3.2727	0.1	-1.6289e-002
5505	19.012	3.2727	0.1	-1.5576e-002
5506	18.827	3.2727	0.1	-1.4913e-002
5507	18.643	3.2727	0.1	-1.4266e-002
5508	18.458	3.2727	0.1	-1.3659e-002
5509	18.273	3.2727	0.1	-1.3097e-002
5510	18.088	3.2727	0.1	-1.2583e-002
5511	17.904	3.2727	0.1	-1.2092e-002
5512	17.719	3.2727	0.1	-1.1584e-002
5513	17.534	3.2727	0.1	-1.1084e-002
5514	17.349	3.2727	0.1	-1.06e-002
5515	17.165	3.2727	0.1	-1.0066e-002
5516	16.98	3.2727	0.1	-9.0911e-003
5517	16.795	3.2727	0.1	1.0918
5518	16.61	3.2727	0.1	3.6559
5519	16.426	3.2727	0.1	6.3351
5520	16.241	3.2727	0.1	9.1475
5521	16.056	3.2727	0.1	12.113
5522	15.871	3.2727	0.1	15.254
5523	15.687	3.2727	0.1	18.593
5524	15.502	3.2727	0.1	22.154
5525	15.317	3.2727	0.1	25.966
5526	15.133	3.2727	0.1	30.057
5527	14.948	3.2727	0.1	34.458
5528	14.763	3.2727	0.1	39.206
5529	14.578	3.2727	0.1	44.338
5530	14.394	3.2727	0.1	49.896
5531	14.209	3.2727	0.1	55.925
5532	14.024	3.2727	0.1	62.475
5533	13.839	3.2727	0.1	69.6
5534	13.655	3.2727	0.1	77.359
5535	13.47	3.2727	0.1	85.814
5536	13.285	3.2727	0.1	95.032
5537	13.1	3.2727	0.1	105.08
5538	12.916	3.2727	0.1	116.04
5539	12.731	3.2727	0.1	127.98
5540	12.546	3.2727	0.1	140.96
5541	12.361	3.2727	0.1	155.06
5542	12.177	3.2727	0.1	170.3
5543	11.992	3.2727	0.1	186.72
5544	11.807	3.2727	0.1	204.29
5545	11.622	3.2727	0.1	222.92
5546	11.438	3.2727	0.1	242.44
5547	11.253	3.2727	0.1	262.52
5548	11.068	3.2727	0.1	282.64
5549	10.884	3.2727	0.1	301.96
5550	10.699	3.2727	0.1	319.2
5551	10.514	3.2727	0.1	332.44
5552	10.329	3.2727	0.1	338.79
5553	10.145	3.2727	0.1	333.96
5554	9.9598	3.2727	0.1	311.7
5555	9.7751	3.2727	0.1	263.04
5556	9.5904	3.2727	0.1	175.74
5557	9.4056	3.2727	0.1	35.301
5558	9.2209	3.2727	0.1	-0.75786
5559	9.0361	3.2727	0.1	5.1673e-002
5560	8.8514	3.2727	0.1	2.79
5561	23.815	3.4545	0.1	-0.20605
5562	23.631	3.4545	0.1	-0.33173
5563	23.446	3.4545	0.1	-0.14414
5564	23.261	3.4545	0.1	-0.12657
5565	23.076	3.4545	0.1	-9.4791e-002
5566	22.892	3.4545	0.1	-7.9583e-002
5567	22.707	3.4545	0.1	-6.7269e-002
5568	22.522	3.4545	0.1	-5.8502e-002
5569	22.337	3.4545	0.1	-5.1621e-002
5570	22.153	3.4545	0.1	-4.6174e-002
5571	21.968	3.4545	0.1	-4.1722e-002
5572	21.783	3.4545	0.1	-3.8007e-002
5573	21.598	3.4545	0.1	-3.4861e-002
5574	21.414	3.4545	0.1	-3.2169e-002
5575	21.229	3.4545	0.1	-2.9835e-002
5576	21.044	3.4545	0.1	-2.7791e-002
5577	20.859	3.4545	0.1	-2.5987e-002
5578	20.675	3.4545	0.1	-2.4365e-002
5579	20.49	3.4545	0.1	-2.2909e-002
5580	20.305	3.4545	0.1	-2.1605e-002
5581	20.12	3.4545	0.1	-2.0434e-002
5582	19.936	3.4545	0.1	-1.937e-002
5583	19.751	3.4545	0.1	-1.8375e-002
5584	19.566	3.4545	0.1	-1.7458e-002
5585	19.382	3.4545	0.1	-1.6627e-002
5586	19.197	3.4545	0.1	-1.5861e-002
5587	19.012	3.4545	0.1	-1.5154e-002
5588	18.827	3.4545	0.1	-1.4495e-002
5589	18.643	3.4545	0.1	-1.3853e-002
5590	18.458	3.4545	0.1	-1.3244e-002
5591	18.273	3.4545	0.1	-1.2682e-002
5592	18.088	3.4545	0.1	-1.2162e-002
5593	17.904	3.4545	0.1	-1.166e-002
5594	17.719	3.4545	0.1	-1.1131e-002
5595	17.534	3.4545	0.1	-1.059e-002
5596	17.349	3.4545	0.1	-1.0029e-002
5597	17.165	3.4545	0.1	-9.3174e-003
5598	16.98	3.4545	0.1	-7.6701e-003
5599	16.795	3.4545	0.1	0.80983
5600	16.61	3.4545	0.1	3.3264
5601	16.426	3.4545	0.1	5.9569
5602	16.241	3.4545	0.1	8.7172
5603	16.056	3.4545	0.1	11.626
5604	15.871	3.4545	0.1	14.705
5605	15.687	3.4545	0.1	17.975
5606	15.502	3.4545	0.1	21.461
5607	15.317	3.4545	0.1	25.187
5608	15.133	3.4545	0.1	29.183
5609	14.948	3.4545	0.1	33.477
5610	14.763	3.4545	0.1	38.103
5611	14.578	3.4545	0.1	43.096
5612	14.394	3.4545	0.1	48.494
5613	14.209	3.4545	0.1	54.341
5614	14.024	3.4545	0.1	60.682
5615	13.839	3.4545	0.1	67.565
5616	13.655	3.4545	0.1	75.045
5617	13.47	3.4545	0.1	83.178
5618	13.285	3.4545	0.1	92.024
5619	13.1	3.4545	0.1	101.65
5620	12.916	3.4545	0.1	112.11
5621	12.731	3.4545	0.1	123.47
5622	12.546	3.4545	0.1	135.8
5623	12.361	3.4545	0.1	149.14
5624	12.177	3.4545	0.1	163.53
5625	11.992	3.4545	0.1	178.99
5626	11.807	3.4545	0.1	195.48
5627	11.622	3.4545	0.1	212.92
5628	11.438	3.4545	0.1	231.16
5629	11.253	3.4545	0.1	249.89
5630	11.068	3.4545	0.1	268.65
5631	10.884	3.4545	0.1	286.72
5632	10.699	3.4545	0.1	302.97
5633	10.514	3.4545	0.1	315.75
5634	10.329	3.4545	0.1	322.6
5635	10.145	3.4545	0.1	319.88
5636	9.9598	3.4545	0.1	302.25
5637	9.7751	3.4545	0.1	261.92
5638	9.5904	3.4545	0.1	187.55
5639	9.4056	3.4545	0.1	63.337
5640	9.2209	3.4545	0.1	0.26252
5641	9.0361	3.4545	0.1	-0.31086
5642	8.8514	3.4545	0.1	-4.5498
5643	23.815	3.6364	0.1	-0.20173
5644	23.631	3.6364	0.1	-0.32965
5645	23.446	3.6364	0.1	-0.1427
5646	23.261	3.6364	0.1	-0.12531
5647	23.076	3.6364	0.1	-9.366e-002
5648	22.892	3.6364	0.1	-7.8531e-002
5649	22.707	3.6364	0.1	-6.6273e-002
5650	22.522	3.6364	0.1	-5.754e-002
5651	22.337	3.6364	0.1	-5.0689e-002
5652	22.153	3.6364	0.1	-4.5263e-002
5653	21.968	3.6364	0.1	-4.0828e-002
5654	21.783	3.6364	0.1	-3.7128e-002
5655	21.598	3.6364	0.1	-3.3999e-002
5656	21.414	3.6364	0.1	-3.1322e-002
5657	21.229	3.6364	0.1	-2.9005e-002
5658	21.044	3.6364	0.1	-2.6979e-002
5659	20.859	3.6364	0.1	-2.5191e-002
5660	20.675	3.6364	0.1	-2.3588e-002
5661	20.49	3.6364	0.1	-2.2149e-002
5662	20.305	3.6364	0.1	-2.0861e-002
5663	20.12	3.6364	0.1	-1.9709e-002
5664	19.936	3.6364	0.1	-1.8662e-002
5665	19.751	3.6364	0.1	-1.7682e-002
5666	19.566	3.6364	0.1	-1.6779e-002
5667	19.382	3.6364	0.1	-1.5962e-002
5668	19.197	3.6364	0.1	-1.5206e-002
5669	19.012	3.6364	0.1	-1.451e-002
5670	18.827	3.6364	0.1	-1.3859e-002
5671	18.643	3.6364	0.1	-1.3224e-002
5672	18.458	3.6364	0.1	-1.2618e-002
5673	18.273	3.6364	0.1	-1.2055e-002
5674	18.088	3.6364	0.1	-1.1529e-002
5675	17.904	3.6364	0.1	-1.1012e-002
5676	17.719	3.6364	0.1	-1.0457e-002
5677	17.534	3.6364	0.1	-9.8691e-003
5678	17.349	3.6364	0.1	-9.2167e-003
5679	17.165	3.6364	0.1	-8.3105e-003
5680	16.98	3.6364	0.1	-6.1533e-003
5681	16.795	3.6364	0.1	0.39698
5682	16.61	3.6364	0.1	2.8359
5683	16.426	3.6364	0.1	5.3945
5684	16.241	3.6364	0.1	8.0776
5685	16.056	3.6364	0.1	10.903
5686	15.871	3.6364	0.1	13.89
5687	15.687	3.6364	0.1	17.06
5688	15.502	3.6364	0.1	20.434
5689	15.317	3.6364	0.1	24.036
5690	15.133	3.6364	0.1	27.892
5691	14.948	3.6364	0.1	32.029
5692	14.763	3.6364	0.1	36.477
5693	14.578	3.6364	0.1	41.267
5694	14.394	3.6364	0.1	46.435
5695	14.209	3.6364	0.1	52.016
5696	14.024	3.6364	0.1	58.053
5697	13.839	3.6364	0.1	64.586
5698	13.655	3.6364	0.1	71.663
5699	13.47	3.6364	0.1	79.33
5700	13.285	3.6364	0.1	87.639
5701	13.1	3.6364	0.1	96.64
5702	12.916	3.6364	0.1	106.39
5703	12.731	3.6364	0.1	116.93
5704	12.546	3.6364	0.1	128.31
5705	12.361	3.6364	0.1	140.57
5706	12.177	3.6364	0.1	153.73
5707	11.992	3.6364	0.1	167.79
5708	11.807	3.6364	0.1	182.72
5709	11.622	3.6364	0.1	198.44
5710	11.438	3.6364	0.1	214.8
5711	11.253	3.6364	0.1	231.53
5712	11.068	3.6364	0.1	248.24
5713	10.884	3.6364	0.1	264.29
5714	10.699	3.6364	0.1	278.75
5715	10.514	3.6364	0.1	290.24
5716	10.329	3.6364	0.1	296.71
5717	10.145	3.6364	0.1	295.17
5718	9.9598	3.6364	0.1	281.24
5719	9.7751	3.6364	0.1	248.48
5720	9.5904	3.6364	0.1	187.28
5721	9.4056	3.6364	0.1	82.863
5722	9.2209	3.6364	0.1	-4.4892
5723	9.0361	3.6364	0.1	9.227
5724	8.8514	3.6364	0.1	16.238
5725	23.815	3.8182	0.1	-0.19577
5726	23.631	3.8182	0.1	-0.32675
5727	23.446	3.8182	0.1	-0.14066
5728	23.261	3.8182	0.1	-0.12353
5729	23.076	3.8182	0.1	-9.2062e-002
5730	22.892	3.8182	0.1	-7.7044e-002
5731	22.707	3.8182	0.1	-6.486e-002
5732	22.522	3.8182	0.1	-5.6182e-002
5733	22.337	3.8182	0.1	-4.9369e-002
5734	22.153	3.8182	0.1	-4.3974e-002
5735	21.968	3.8182	0.1	-3.9566e-002
5736	21.783	3.8182	0.1	-3.5892e-002
5737	21.598	3.8182	0.1	-3.2786e-002
5738	21.414	3.8182	0.1	-3.0137e-002
5739	21.229	3.8182	0.1	-2.7846e-002
5740	21.044	3.8182	0.1	-2.5846e-002
5741	20.859	3.8182	0.1	-2.4088e-002
5742	20.675	3.8182	0.1	-2.251e-002
5743	20.49	3.8182	0.1	-2.1099e-002
5744	20.305	3.8182	0.1	-1.9838e-002
5745	20.12	3.8182	0.1	-1.8712e-002
5746	19.936	3.8182	0.1	-1.7686e-002
5747	19.751	3.8182	0.1	-1.6731e-002
5748	19.566	3.8182	0.1	-1.5848e-002
5749	19.382	3.8182	0.1	-1.505e-002
5750	19.197	3.8182	0.1	-1.4314e-002
5751	19.012	3.8182	0.1	-1.3634e-002
5752	18.827	3.8182	0.1	-1.2996e-002
5753	18.643	3.8182	0.1	-1.2371e-002
5754	18.458	3.8182	0.1	-1.1774e-002
5755	18.273	3.8182	0.1	-1.1213e-002
5756	18.088	3.8182	0.1	-1.0684e-002
5757	17.904	3.8182	0.1	-1.0156e-002
5758	17.719	3.8182	0.1	-9.5761e-003
5759	17.534	3.8182	0.1	-8.9404e-003
5760	17.349	3.8182	0.1	-8.2053e-003
5761	17.165	3.8182	0.1	-7.1415e-003
5762	16.98	3.8182	0.1	-4.7689e-003
5763	16.795	3.8182	0.1	3.9444e-002
5764	16.61	3.8182	0.1	2.1891
5765	16.426	3.8182	0.1	4.6531
5766	16.241	3.8182	0.1	7.2357
5767	16.056	3.8182	0.1	9.9525
5768	15.871	3.8182	0.1	12.821
5769	15.687	3.8182	0.1	15.86
5770	15.502	3.8182	0.1	19.09
5771	15.317	3.8182	0.1	22.532
5772	15.133	3.8182	0.1	26.208
5773	14.948	3.8182	0.1	30.142
5774	14.763	3.8182	0.1	34.361
5775	14.578	3.8182	0.1	38.892
5776	14.394	3.8182	0.1	43.765
5777	14.209	3.8182	0.1	49.009
5778	14.024	3.8182	0.1	54.659
5779	13.839	3.8182	0.1	60.748
5780	13.655	3.8182	0.1	67.313
5781	13.47	3.8182	0.1	74.392
5782	13.285	3.8182	0.1	82.022
5783	13.1	3.8182	0.1	90.241
5784	12.916	3.8182	0.1	99.085
5785	12.731	3.8182	0.1	108.59
5786	12.546	3.8182	0.1	118.78
5787	12.361	3.8182	0.1	129.68
5788	12.177	3.8182	0.1	141.29
5789	11.992	3.8182	0.1	153.6
5790	11.807	3.8182	0.1	166.57
5791	11.622	3.8182	0.1	180.1
5792	11.438	3.8182	0.1	194.06
5793	11.253	3.8182	0.1	208.2
5794	11.068	3.8182	0.1	222.17
5795	10.884	3.8182	0.1	235.42
5796	10.699	3.8182	0.1	247.14
5797	10.514	3.8182	0.1	256.12
5798	10.329	3.8182	0.1	260.59
5799	10.145	3.8182	0.1	257.89
5800	9.9598	3.8182	0.1	244.16
5801	9.7751	3.8182	0.1	213.47
5802	9.5904	3.8182	0.1	157.43
5803	9.4056	3.8182	0.1	61.247
5804	9.2209	3.8182	0.1	7.4701
5805	9.0361	3.8182	0.1	-32.731
5806	8.8514	3.8182	0.1	15.545
5807	23.815	4.	0.1	-0.18801
5808	23.631	4.	0.1	-0.32288
5809	23.446	4.	0.1	-0.13794
5810	23.261	4.	0.1	-0.12113
5811	23.076	4.	0.1	-8.9904e-002
5812	22.892	4.	0.1	-7.5033e-002
5813	22.707	4.	0.1	-6.295e-002
5814	22.522	4.	0.1	-5.4344e-002
5815	22.337	4.	0.1	-4.7585e-002
5816	22.153	4.	0.1	-4.2235e-002
5817	21.968	4.	0.1	-3.7869e-002
5818	21.783	4.	0.1	-3.4235e-002
5819	21.598	4.	0.1	-3.1169e-002
5820	21.414	4.	0.1	-2.8559e-002
5821	21.229	4.	0.1	-2.6308e-002
5822	21.044	4.	0.1	-2.435e-002
5823	20.859	4.	0.1	-2.263e-002
5824	20.675	4.	0.1	-2.1096e-002
5825	20.49	4.	0.1	-1.9723e-002
5826	20.305	4.	0.1	-1.8499e-002
5827	20.12	4.	0.1	-1.7408e-002
5828	19.936	4.	0.1	-1.642e-002
5829	19.751	4.	0.1	-1.5497e-002
5830	19.566	4.	0.1	-1.4646e-002
5831	19.382	4.	0.1	-1.3876e-002
5832	19.197	4.	0.1	-1.3168e-002
5833	19.012	4.	0.1	-1.2509e-002
5834	18.827	4.	0.1	-1.1896e-002
5835	18.643	4.	0.1	-1.1289e-002
5836	18.458	4.	0.1	-1.0704e-002
5837	18.273	4.	0.1	-1.0152e-002
5838	18.088	4.	0.1	-9.6283e-003
5839	17.904	4.	0.1	-9.0945e-003
5840	17.719	4.	0.1	-8.4999e-003
5841	17.534	4.	0.1	-7.8341e-003
5842	17.349	4.	0.1	-7.0418e-003
5843	17.165	4.	0.1	-5.8949e-003
5844	16.98	4.	0.1	-3.5708e-003
5845	16.795	4.	0.1	8.9036e-003
5846	16.61	4.	0.1	1.3934
5847	16.426	4.	0.1	3.7399
5848	16.241	4.	0.1	6.2001
5849	16.056	4.	0.1	8.7851
5850	15.871	4.	0.1	11.51
5851	15.687	4.	0.1	14.392
5852	15.502	4.	0.1	17.448
5853	15.317	4.	0.1	20.697
5854	15.133	4.	0.1	24.158
5855	14.948	4.	0.1	27.852
5856	14.763	4.	0.1	31.799
5857	14.578	4.	0.1	36.023
5858	14.394	4.	0.1	40.546
5859	14.209	4.	0.1	45.392
5860	14.024	4.	0.1	50.587
5861	13.839	4.	0.1	56.156
5862	13.655	4.	0.1	62.124
5863	13.47	4.	0.1	68.516
5864	13.285	4.	0.1	75.356
5865	13.1	4.	0.1	82.666
5866	12.916	4.	0.1	90.467
5867	12.731	4.	0.1	98.771
5868	12.546	4.	0.1	107.59
5869	12.361	4.	0.1	116.92
5870	12.177	4.	0.1	126.74
5871	11.992	4.	0.1	137.03
5872	11.807	4.	0.1	147.71
5873	11.622	4.	0.1	158.71
5874	11.438	4.	0.1	169.85
5875	11.253	4.	0.1	180.93
5876	11.068	4.	0.1	191.59
5877	10.884	4.	0.1	201.33
5878	10.699	4.	0.1	209.4
5879	10.514	4.	0.1	214.63
5880	10.329	4.	0.1	215.27
5881	10.145	4.	0.1	208.6
5882	9.9598	4.	0.1	190.46
5883	9.7751	4.	0.1	154.2
5884	9.5904	4.	0.1	90.434
5885	9.4056	4.	0.1	10.637
5886	9.2209	4.	0.1	16.055
5887	9.0361	4.	0.1	-73.041
5888	8.8514	4.	0.1	525.45
5889	23.815	4.1818	0.1	-0.17814
5890	23.631	4.1818	0.1	-0.31784
5891	23.446	4.1818	0.1	-0.13436
5892	23.261	4.1818	0.1	-0.11797
5893	23.076	4.1818	0.1	-8.7059e-002
5894	22.892	4.1818	0.1	-7.2369e-002
5895	22.707	4.1818	0.1	-6.0416e-002
5896	22.522	4.1818	0.1	-5.1906e-002
5897	22.337	4.1818	0.1	-4.5223e-002
5898	22.153	4.1818	0.1	-3.9942e-002
5899	21.968	4.1818	0.1	-3.5637e-002
5900	21.783	4.1818	0.1	-3.2066e-002
5901	21.598	4.1818	0.1	-2.9063e-002
5902	21.414	4.1818	0.1	-2.6514e-002
5903	21.229	4.1818	0.1	-2.4325e-002
5904	21.044	4.1818	0.1	-2.2428e-002
5905	20.859	4.1818	0.1	-2.0769e-002
5906	20.675	4.1818	0.1	-1.929e-002
5907	20.49	4.1818	0.1	-1.7975e-002
5908	20.305	4.1818	0.1	-1.6805e-002
5909	20.12	4.1818	0.1	-1.5767e-002
5910	19.936	4.1818	0.1	-1.4826e-002
5911	19.751	4.1818	0.1	-1.3949e-002
5912	19.566	4.1818	0.1	-1.3143e-002
5913	19.382	4.1818	0.1	-1.2413e-002
5914	19.197	4.1818	0.1	-1.1742e-002
5915	19.012	4.1818	0.1	-1.1119e-002
5916	18.827	4.1818	0.1	-1.0537e-002
5917	18.643	4.1818	0.1	-9.9582e-003
5918	18.458	4.1818	0.1	-9.4004e-003
5919	18.273	4.1818	0.1	-8.8704e-003
5920	18.088	4.1818	0.1	-8.361e-003
5921	17.904	4.1818	0.1	-7.8374e-003
5922	17.719	4.1818	0.1	-7.2451e-003
5923	17.534	4.1818	0.1	-6.5744e-003
5924	17.349	4.1818	0.1	-5.7697e-003
5925	17.165	4.1818	0.1	-4.6277e-003
5926	16.98	4.1818	0.1	-2.5406e-003
5927	16.795	4.1818	0.1	4.1008e-003
5928	16.61	4.1818	0.1	0.47588
5929	16.426	4.1818	0.1	2.6638
5930	16.241	4.1818	0.1	4.9813
5931	16.056	4.1818	0.1	7.4137
5932	15.871	4.1818	0.1	9.9733
5933	15.687	4.1818	0.1	12.674
5934	15.502	4.1818	0.1	15.532
5935	15.317	4.1818	0.1	18.561
5936	15.133	4.1818	0.1	21.777
5937	14.948	4.1818	0.1	25.198
5938	14.763	4.1818	0.1	28.838
5939	14.578	4.1818	0.1	32.716
5940	14.394	4.1818	0.1	36.848
5941	14.209	4.1818	0.1	41.251
5942	14.024	4.1818	0.1	45.941
5943	13.839	4.1818	0.1	50.933
5944	13.655	4.1818	0.1	56.242
5945	13.47	4.1818	0.1	61.878
5946	13.285	4.1818	0.1	67.852
5947	13.1	4.1818	0.1	74.169
5948	12.916	4.1818	0.1	80.83
5949	12.731	4.1818	0.1	87.829
5950	12.546	4.1818	0.1	95.153
5951	12.361	4.1818	0.1	102.78
5952	12.177	4.1818	0.1	110.66
5953	11.992	4.1818	0.1	118.76
5954	11.807	4.1818	0.1	126.97
5955	11.622	4.1818	0.1	135.2
5956	11.438	4.1818	0.1	143.28
5957	11.253	4.1818	0.1	150.98
5958	11.068	4.1818	0.1	157.96
5959	10.884	4.1818	0.1	163.73
5960	10.699	4.1818	0.1	167.5
5961	10.514	4.1818	0.1	168.11
5962	10.329	4.1818	0.1	163.65
5963	10.145	4.1818	0.1	151.09
5964	9.9598	4.1818	0.1	125.55
5965	9.7751	4.1818	0.1	79.632
5966	9.5904	4.1818	0.1	19.262
5967	9.4056	4.1818	0.1	5.5058
5968	9.2209	4.1818	0.1	7.6769
5969	9.0361	4.1818	0.1	-7.7844
5970	8.8514	4.1818	0.1	141.33
5971	23.815	4.3636	0.1	-0.16578
5972	23.631	4.3636	0.1	-0.31133
5973	23.446	4.3636	0.1	-0.1297
5974	23.261	4.3636	0.1	-0.11384
5975	23.076	4.3636	0.1	-8.3316e-002
5976	22.892	4.3636	0.1	-6.8861e-002
5977	22.707	4.3636	0.1	-5.7081e-002
5978	22.522	4.3636	0.1	-4.87e-002
5979	22.337	4.3636	0.1	-4.2131e-002
5980	22.153	4.3636	0.1	-3.695e-002
5981	21.968	4.3636	0.1	-3.2745e-002
5982	21.783	4.3636	0.1	-2.927e-002
5983	21.598	4.3636	0.1	-2.6363e-002
5984	21.414	4.3636	0.1	-2.3908e-002
5985	21.229	4.3636	0.1	-2.1811e-002
5986	21.044	4.3636	0.1	-2.0002e-002
5987	20.859	4.3636	0.1	-1.8429e-002
5988	20.675	4.3636	0.1	-1.7034e-002
5989	20.49	4.3636	0.1	-1.5798e-002
5990	20.305	4.3636	0.1	-1.4704e-002
5991	20.12	4.3636	0.1	-1.3735e-002
5992	19.936	4.3636	0.1	-1.2865e-002
5993	19.751	4.3636	0.1	-1.2051e-002
5994	19.566	4.3636	0.1	-1.1303e-002
5995	19.382	4.3636	0.1	-1.0635e-002
5996	19.197	4.3636	0.1	-1.0016e-002
5997	19.012	4.3636	0.1	-9.4449e-003
5998	18.827	4.3636	0.1	-8.9091e-003
5999	18.643	4.3636	0.1	-8.3753e-003
6000	18.458	4.3636	0.1	-7.8576e-003
6001	18.273	4.3636	0.1	-7.364e-003
6002	18.088	4.3636	0.1	-6.8894e-003
6003	17.904	4.3636	0.1	-6.3977e-003
6004	17.719	4.3636	0.1	-5.8349e-003
6005	17.534	4.3636	0.1	-5.1932e-003
6006	17.349	4.3636	0.1	-4.4294e-003
6007	17.165	4.3636	0.1	-3.3802e-003
6008	16.98	4.3636	0.1	-1.6363e-003
6009	16.795	4.3636	0.1	2.429e-003
6010	16.61	4.3636	0.1	2.935e-002
6011	16.426	4.3636	0.1	1.4378
6012	16.241	4.3636	0.1	3.591
6013	16.056	4.3636	0.1	5.8524
6014	15.871	4.3636	0.1	8.2278
6015	15.687	4.3636	0.1	10.729
6016	15.502	4.3636	0.1	13.366
6017	15.317	4.3636	0.1	16.154
6018	15.133	4.3636	0.1	19.102
6019	14.948	4.3636	0.1	22.225
6020	14.763	4.3636	0.1	25.533
6021	14.578	4.3636	0.1	29.038
6022	14.394	4.3636	0.1	32.75
6023	14.209	4.3636	0.1	36.678
6024	14.024	4.3636	0.1	40.83
6025	13.839	4.3636	0.1	45.212
6026	13.655	4.3636	0.1	49.825
6027	13.47	4.3636	0.1	54.669
6028	13.285	4.3636	0.1	59.739
6029	13.1	4.3636	0.1	65.022
6030	12.916	4.3636	0.1	70.502
6031	12.731	4.3636	0.1	76.152
6032	12.546	4.3636	0.1	81.938
6033	12.361	4.3636	0.1	87.811
6034	12.177	4.3636	0.1	93.709
6035	11.992	4.3636	0.1	99.554
6036	11.807	4.3636	0.1	105.24
6037	11.622	4.3636	0.1	110.65
6038	11.438	4.3636	0.1	115.58
6039	11.253	4.3636	0.1	119.82
6040	11.068	4.3636	0.1	123.01
6041	10.884	4.3636	0.1	124.66
6042	10.699	4.3636	0.1	123.99
6043	10.514	4.3636	0.1	119.79
6044	10.329	4.3636	0.1	110.09
6045	10.145	4.3636	0.1	91.694
6046	9.9598	4.3636	0.1	59.978
6047	9.7751	4.3636	0.1	18.317
6048	9.5904	4.3636	0.1	6.2575
6049	9.4056	4.3636	0.1	3.1127
6050	9.2209	4.3636	0.1	10.747
6051	9.0361	4.3636	0.1	-1.2586
6052	8.8514	4.3636	0.1	-8.5774
6053	23.815	4.5455	0.1	-0.15029
6054	23.631	4.5455	0.1	-0.30289
6055	23.446	4.5455	0.1	-0.12358
6056	23.261	4.5455	0.1	-0.10838
6057	23.076	4.5455	0.1	-7.8358e-002
6058	22.892	4.5455	0.1	-6.4207e-002
6059	22.707	4.5455	0.1	-5.2658e-002
6060	22.522	4.5455	0.1	-4.4467e-002
6061	22.337	4.5455	0.1	-3.807e-002
6062	22.153	4.5455	0.1	-3.3049e-002
6063	21.968	4.5455	0.1	-2.9002e-002
6064	21.783	4.5455	0.1	-2.5679e-002
6065	21.598	4.5455	0.1	-2.2917e-002
6066	21.414	4.5455	0.1	-2.0605e-002
6067	21.229	4.5455	0.1	-1.8643e-002
6068	21.044	4.5455	0.1	-1.6967e-002
6069	20.859	4.5455	0.1	-1.5517e-002
6070	20.675	4.5455	0.1	-1.424e-002
6071	20.49	4.5455	0.1	-1.3114e-002
6072	20.305	4.5455	0.1	-1.2127e-002
6073	20.12	4.5455	0.1	-1.126e-002
6074	19.936	4.5455	0.1	-1.0481e-002
6075	19.751	4.5455	0.1	-9.7582e-003
6076	19.566	4.5455	0.1	-9.0957e-003
6077	19.382	4.5455	0.1	-8.5052e-003
6078	19.197	4.5455	0.1	-7.9626e-003
6079	19.012	4.5455	0.1	-7.4616e-003
6080	18.827	4.5455	0.1	-6.9952e-003
6081	18.643	4.5455	0.1	-6.5245e-003
6082	18.458	4.5455	0.1	-6.0699e-003
6083	18.273	4.5455	0.1	-5.6373e-003
6084	18.088	4.5455	0.1	-5.2216e-003
6085	17.904	4.5455	0.1	-4.7886e-003
6086	17.719	4.5455	0.1	-4.2888e-003
6087	17.534	4.5455	0.1	-3.7193e-003
6088	17.349	4.5455	0.1	-3.0527e-003
6089	17.165	4.5455	0.1	-2.1683e-003
6090	16.98	4.5455	0.1	-8.1942e-004
6091	16.795	4.5455	0.1	1.7401e-003
6092	16.61	4.5455	0.1	9.26e-003
6093	16.426	4.5455	0.1	0.18595
6094	16.241	4.5455	0.1	2.0438
6095	16.056	4.5455	0.1	4.1167
6096	15.871	4.5455	0.1	6.2921
6097	15.687	4.5455	0.1	8.5764
6098	15.502	4.5455	0.1	10.979
6099	15.317	4.5455	0.1	13.507
6100	15.133	4.5455	0.1	16.172
6101	14.948	4.5455	0.1	18.979
6102	14.763	4.5455	0.1	21.938
6103	14.578	4.5455	0.1	25.053
6104	14.394	4.5455	0.1	28.329
6105	14.209	4.5455	0.1	31.768
6106	14.024	4.5455	0.1	35.37
6107	13.839	4.5455	0.1	39.13
6108	13.655	4.5455	0.1	43.04
6109	13.47	4.5455	0.1	47.086
6110	13.285	4.5455	0.1	51.251
6111	13.1	4.5455	0.1	55.506
6112	12.916	4.5455	0.1	59.817
6113	12.731	4.5455	0.1	64.139
6114	12.546	4.5455	0.1	68.416
6115	12.361	4.5455	0.1	72.579
6116	12.177	4.5455	0.1	76.544
6117	11.992	4.5455	0.1	80.21
6118	11.807	4.5455	0.1	83.455
6119	11.622	4.5455	0.1	86.129
6120	11.438	4.5455	0.1	88.046
6121	11.253	4.5455	0.1	88.965
6122	11.068	4.5455	0.1	88.556
6123	10.884	4.5455	0.1	86.346
6124	10.699	4.5455	0.1	81.616
6125	10.514	4.5455	0.1	73.248
6126	10.329	4.5455	0.1	59.508
6127	10.145	4.5455	0.1	38.224
6128	9.9598	4.5455	0.1	13.666
6129	9.7751	4.5455	0.1	5.3227
6130	9.5904	4.5455	0.1	3.7431
6131	9.4056	4.5455	0.1	3.5192
6132	9.2209	4.5455	0.1	3.8921
6133	9.0361	4.5455	0.1	2.0504
6134	8.8514	4.5455	0.1	23.49
6135	23.815	4.7273	0.1	-0.1308
6136	23.631	4.7273	0.1	-0.29185
6137	23.446	4.7273	0.1	-0.11548
6138	23.261	4.7273	0.1	-0.10113
6139	23.076	4.7273	0.1	-7.1739e-002
6140	22.892	4.7273	0.1	-5.7998e-002
6141	22.707	4.7273	0.1	-4.6783e-002
6142	22.522	4.7273	0.1	-3.8883e-002
6143	22.337	4.7273	0.1	-3.2752e-002
6144	22.153	4.7273	0.1	-2.7991e-002
6145	21.968	4.7273	0.1	-2.4187e-002
6146	21.783	4.7273	0.1	-2.1098e-002
6147	21.598	4.7273	0.1	-1.8561e-002
6148	21.414	4.7273	0.1	-1.6461e-002
6149	21.229	4.7273	0.1	-1.4698e-002
6150	21.044	4.7273	0.1	-1.3207e-002
6151	20.859	4.7273	0.1	-1.1936e-002
6152	20.675	4.7273	0.1	-1.0824e-002
6153	20.49	4.7273	0.1	-9.8531e-003
6154	20.305	4.7273	0.1	-9.012e-003
6155	20.12	4.7273	0.1	-8.2801e-003
6156	19.936	4.7273	0.1	-7.6323e-003
6157	19.751	4.7273	0.1	-7.0313e-003
6158	19.566	4.7273	0.1	-6.4837e-003
6159	19.382	4.7273	0.1	-6.0002e-003
6160	19.197	4.7273	0.1	-5.563e-003
6161	19.012	4.7273	0.1	-5.162e-003
6162	18.827	4.7273	0.1	-4.7888e-003
6163	18.643	4.7273	0.1	-4.4125e-003
6164	18.458	4.7273	0.1	-4.0469e-003
6165	18.273	4.7273	0.1	-3.7027e-003
6166	18.088	4.7273	0.1	-3.3765e-003
6167	17.904	4.7273	0.1	-3.0377e-003
6168	17.719	4.7273	0.1	-2.6384e-003
6169	17.534	4.7273	0.1	-2.1832e-003
6170	17.349	4.7273	0.1	-1.6667e-003
6171	17.165	4.7273	0.1	-1.0042e-003
6172	16.98	4.7273	0.1	-5.9009e-005
6173	16.795	4.7273	0.1	1.4974e-003
6174	16.61	4.7273	0.1	4.7343e-003
6175	16.426	4.7273	0.1	1.5565e-002
6176	16.241	4.7273	0.1	0.40126
6177	16.056	4.7273	0.1	2.2242
6178	15.871	4.7273	0.1	4.1851
6179	15.687	4.7273	0.1	6.2408
6180	15.502	4.7273	0.1	8.3954
6181	15.317	4.7273	0.1	10.655
6182	15.133	4.7273	0.1	13.024
6183	14.948	4.7273	0.1	15.508
6184	14.763	4.7273	0.1	18.109
6185	14.578	4.7273	0.1	20.829
6186	14.394	4.7273	0.1	23.666
6187	14.209	4.7273	0.1	26.616
6188	14.024	4.7273	0.1	29.672
6189	13.839	4.7273	0.1	32.821
6190	13.655	4.7273	0.1	36.045
6191	13.47	4.7273	0.1	39.321
6192	13.285	4.7273	0.1	42.618
6193	13.1	4.7273	0.1	45.895
6194	12.916	4.7273	0.1	49.103
6195	12.731	4.7273	0.1	52.18
6196	12.546	4.7273	0.1	55.053
6197	12.361	4.7273	0.1	57.635
6198	12.177	4.7273	0.1	59.822
6199	11.992	4.7273	0.1	61.496
6200	11.807	4.7273	0.1	62.519
6201	11.622	4.7273	0.1	62.731
6202	11.438	4.7273	0.1	61.943
6203	11.253	4.7273	0.1	59.928
6204	11.068	4.7273	0.1	56.393
6205	10.884	4.7273	0.1	50.953
6206	10.699	4.7273	0.1	43.075
6207	10.514	4.7273	0.1	32.111
6208	10.329	4.7273	0.1	18.177
6209	10.145	4.7273	0.1	7.3885
6210	9.9598	4.7273	0.1	4.0597
6211	9.7751	4.7273	0.1	3.062
6212	9.5904	4.7273	0.1	2.7603
6213	9.4056	4.7273	0.1	2.773
6214	9.2209	4.7273	0.1	3.4091
6215	9.0361	4.7273	0.1	1.1162
6216	8.8514	4.7273	0.1	7.7445
6217	23.815	4.9091	0.1	-0.10537
6218	23.631	4.9091	0.1	-0.27674
6219	23.446	4.9091	0.1	-0.10418
6220	23.261	4.9091	0.1	-9.0973e-002
6221	23.076	4.9091	0.1	-6.248e-002
6222	22.892	4.9091	0.1	-4.936e-002
6223	22.707	4.9091	0.1	-3.8685e-002
6224	22.522	4.9091	0.1	-3.1269e-002
6225	22.337	4.9091	0.1	-2.5593e-002
6226	22.153	4.9091	0.1	-2.1256e-002
6227	21.968	4.9091	0.1	-1.7853e-002
6228	21.783	4.9091	0.1	-1.5136e-002
6229	21.598	4.9091	0.1	-1.2946e-002
6230	21.414	4.9091	0.1	-1.1167e-002
6231	21.229	4.9091	0.1	-9.7028e-003
6232	21.044	4.9091	0.1	-8.4878e-003
6233	20.859	4.9091	0.1	-7.4703e-003
6234	20.675	4.9091	0.1	-6.5967e-003
6235	20.49	4.9091	0.1	-5.8474e-003
6236	20.305	4.9091	0.1	-5.2106e-003
6237	20.12	4.9091	0.1	-4.6728e-003
6238	19.936	4.9091	0.1	-4.2038e-003
6239	19.751	4.9091	0.1	-3.7717e-003
6240	19.566	4.9091	0.1	-3.3839e-003
6241	19.382	4.9091	0.1	-3.0528e-003
6242	19.197	4.9091	0.1	-2.759e-003
6243	19.012	4.9091	0.1	-2.496e-003
6244	18.827	4.9091	0.1	-2.2562e-003
6245	18.643	4.9091	0.1	-2.0076e-003
6246	18.458	4.9091	0.1	-1.769e-003
6247	18.273	4.9091	0.1	-1.5524e-003
6248	18.088	4.9091	0.1	-1.3543e-003
6249	17.904	4.9091	0.1	-1.1499e-003
6250	17.719	4.9091	0.1	-8.9265e-004
6251	17.534	4.9091	0.1	-6.0269e-004
6252	17.349	4.9091	0.1	-2.8176e-004
6253	17.165	4.9091	0.1	1.1967e-004
6254	16.98	4.9091	0.1	6.7025e-004
6255	16.795	4.9091	0.1	1.5034e-003
6256	16.61	4.9091	0.1	2.9665e-003
6257	16.426	4.9091	0.1	5.9963e-003
6258	16.241	4.9091	0.1	1.5703e-002
6259	16.056	4.9091	0.1	0.27191
6260	15.871	4.9091	0.1	1.9288
6261	15.687	4.9091	0.1	3.7441
6262	15.502	4.9091	0.1	5.6434
6263	15.317	4.9091	0.1	7.6271
6264	15.133	4.9091	0.1	9.6972
6265	14.948	4.9091	0.1	11.855
6266	14.763	4.9091	0.1	14.099
6267	14.578	4.9091	0.1	16.428
6268	14.394	4.9091	0.1	18.835
6269	14.209	4.9091	0.1	21.311
6270	14.024	4.9091	0.1	23.842
6271	13.839	4.9091	0.1	26.411
6272	13.655	4.9091	0.1	28.992
6273	13.47	4.9091	0.1	31.553
6274	13.285	4.9091	0.1	34.054
6275	13.1	4.9091	0.1	36.445
6276	12.916	4.9091	0.1	38.664
6277	12.731	4.9091	0.1	40.638
6278	12.546	4.9091	0.1	42.28
6279	12.361	4.9091	0.1	43.49
6280	12.177	4.9091	0.1	44.151
6281	11.992	4.9091	0.1	44.133
6282	11.807	4.9091	0.1	43.288
6283	11.622	4.9091	0.1	41.455
6284	11.438	4.9091	0.1	38.458
6285	11.253	4.9091	0.1	34.106
6286	11.068	4.9091	0.1	28.211
6287	10.884	4.9091	0.1	20.661
6288	10.699	4.9091	0.1	11.96
6289	10.514	4.9091	0.1	5.4118
6290	10.329	4.9091	0.1	3.1594
6291	10.145	4.9091	0.1	2.4609
6292	9.9598	4.9091	0.1	2.2146
6293	9.7751	4.9091	0.1	2.1534
6294	9.5904	4.9091	0.1	2.2471
6295	9.4056	4.9091	0.1	2.2634
6296	9.2209	4.9091	0.1	2.9948
6297	9.0361	4.9091	0.1	0.76434
6298	8.8514	4.9091	0.1	8.8954
6299	23.815	5.0909	0.1	-7.2822e-002
6300	23.631	5.0909	0.1	-0.25656
6301	23.446	5.0909	0.1	-8.8954e-002
6302	23.261	5.0909	0.1	-7.7181e-002
6303	23.076	5.0909	0.1	-4.9994e-002
6304	22.892	5.0909	0.1	-3.783e-002
6305	22.707	5.0909	0.1	-2.8024e-002
6306	22.522	5.0909	0.1	-2.1396e-002
6307	22.337	5.0909	0.1	-1.6443e-002
6308	22.153	5.0909	0.1	-1.2771e-002
6309	21.968	5.0909	0.1	-9.9699e-003
6310	21.783	5.0909	0.1	-7.8046e-003
6311	21.598	5.0909	0.1	-6.1122e-003
6312	21.414	5.0909	0.1	-4.7894e-003
6313	21.229	5.0909	0.1	-3.7385e-003
6314	21.044	5.0909	0.1	-2.9028e-003
6315	20.859	5.0909	0.1	-2.2322e-003
6316	20.675	5.0909	0.1	-1.6761e-003
6317	20.49	5.0909	0.1	-1.2182e-003
6318	20.305	5.0909	0.1	-8.522e-004
6319	20.12	5.0909	0.1	-5.6336e-004
6320	19.936	5.0909	0.1	-3.2831e-004
6321	19.751	5.0909	0.1	-1.131e-004
6322	19.566	5.0909	0.1	6.8522e-005
6323	19.382	5.0909	0.1	2.0822e-004
6324	19.197	5.0909	0.1	3.21e-004
6325	19.012	5.0909	0.1	4.0963e-004
6326	18.827	5.0909	0.1	4.8027e-004
6327	18.643	5.0909	0.1	5.6364e-004
6328	18.458	5.0909	0.1	6.4147e-004
6329	18.273	5.0909	0.1	6.9859e-004
6330	18.088	5.0909	0.1	7.3555e-004
6331	17.904	5.0909	0.1	7.7276e-004
6332	17.719	5.0909	0.1	8.52e-004
6333	17.534	5.0909	0.1	9.4879e-004
6334	17.349	5.0909	0.1	1.0446e-003
6335	17.165	5.0909	0.1	1.1745e-003
6336	16.98	5.0909	0.1	1.3606e-003
6337	16.795	5.0909	0.1	1.655e-003
6338	16.61	5.0909	0.1	2.1796e-003
6339	16.426	5.0909	0.1	3.0956e-003
6340	16.241	5.0909	0.1	4.9053e-003
6341	16.056	5.0909	0.1	9.7311e-003
6342	15.871	5.0909	0.1	4.3496e-002
6343	15.687	5.0909	0.1	1.1165
6344	15.502	5.0909	0.1	2.7483
6345	15.317	5.0909	0.1	4.4535
6346	15.133	5.0909	0.1	6.2248
6347	14.948	5.0909	0.1	8.06
6348	14.763	5.0909	0.1	9.9555
6349	14.578	5.0909	0.1	11.906
6350	14.394	5.0909	0.1	13.902
6351	14.209	5.0909	0.1	15.93
6352	14.024	5.0909	0.1	17.975
6353	13.839	5.0909	0.1	20.012
6354	13.655	5.0909	0.1	22.013
6355	13.47	5.0909	0.1	23.939
6356	13.285	5.0909	0.1	25.747
6357	13.1	5.0909	0.1	27.378
6358	12.916	5.0909	0.1	28.765
6359	12.731	5.0909	0.1	29.829
6360	12.546	5.0909	0.1	30.474
6361	12.361	5.0909	0.1	30.594
6362	12.177	5.0909	0.1	30.066
6363	11.992	5.0909	0.1	28.754
6364	11.807	5.0909	0.1	26.512
6365	11.622	5.0909	0.1	23.192
6366	11.438	5.0909	0.1	18.66
6367	11.253	5.0909	0.1	12.881
6368	11.068	5.0909	0.1	6.4506
6369	10.884	5.0909	0.1	2.5334
6370	10.699	5.0909	0.1	1.5515
6371	10.514	5.0909	0.1	1.2966
6372	10.329	5.0909	0.1	1.2536
6373	10.145	5.0909	0.1	1.3121
6374	9.9598	5.0909	0.1	1.442
6375	9.7751	5.0909	0.1	1.6227
6376	9.5904	5.0909	0.1	1.8808
6377	9.4056	5.0909	0.1	2.0582
6378	9.2209	5.0909	0.1	2.6242
6379	9.0361	5.0909	0.1	1.0915
6380	8.8514	5.0909	0.1	7.0934
6381	23.815	5.2727	0.1	-2.079e-002
6382	23.631	5.2727	0.1	-0.22185
6383	23.446	5.2727	0.1	-6.2414e-002
6384	23.261	5.2727	0.1	-5.3557e-002
6385	23.076	5.2727	0.1	-2.8912e-002
6386	22.892	5.2727	0.1	-1.8821e-002
6387	22.707	5.2727	0.1	-1.0821e-002
6388	22.522	5.2727	0.1	-5.7808e-003
6389	22.337	5.2727	0.1	-2.2341e-003
6390	22.153	5.2727	0.1	2.0544e-004
6391	21.968	5.2727	0.1	1.9062e-003
6392	21.783	5.2727	0.1	3.1006e-003
6393	21.598	5.2727	0.1	3.9257e-003
6394	21.414	5.2727	0.1	4.4789e-003
6395	21.229	5.2727	0.1	4.8334e-003
6396	21.044	5.2727	0.1	5.0459e-003
6397	20.859	5.2727	0.1	5.1506e-003
6398	20.675	5.2727	0.1	5.1931e-003
6399	20.49	5.2727	0.1	5.1798e-003
6400	20.305	5.2727	0.1	5.1158e-003
6401	20.12	5.2727	0.1	5.0068e-003
6402	19.936	5.2727	0.1	4.8753e-003
6403	19.751	5.2727	0.1	4.7493e-003
6404	19.566	5.2727	0.1	4.6133e-003
6405	19.382	5.2727	0.1	4.4537e-003
6406	19.197	5.2727	0.1	4.2804e-003
6407	19.012	5.2727	0.1	4.1002e-003
6408	18.827	5.2727	0.1	3.9139e-003
6409	18.643	5.2727	0.1	3.7494e-003
6410	18.458	5.2727	0.1	3.5853e-003
6411	18.273	5.2727	0.1	3.4045e-003
6412	18.088	5.2727	0.1	3.2008e-003
6413	17.904	5.2727	0.1	2.999e-003
6414	17.719	5.2727	0.1	2.8296e-003
6415	17.534	5.2727	0.1	2.6654e-003
6416	17.349	5.2727	0.1	2.481e-003
6417	17.165	5.2727	0.1	2.2945e-003
6418	16.98	5.2727	0.1	2.1153e-003
6419	16.795	5.2727	0.1	1.9549e-003
6420	16.61	5.2727	0.1	1.8655e-003
6421	16.426	5.2727	0.1	1.8496e-003
6422	16.241	5.2727	0.1	1.94e-003
6423	16.056	5.2727	0.1	2.278e-003
6424	15.871	5.2727	0.1	3.3043e-003
6425	15.687	5.2727	0.1	6.8354e-003
6426	15.502	5.2727	0.1	4.3781e-002
6427	15.317	5.2727	0.1	1.1646
6428	15.133	5.2727	0.1	2.6376
6429	14.948	5.2727	0.1	4.1586
6430	14.763	5.2727	0.1	5.7188
6431	14.578	5.2727	0.1	7.3103
6432	14.394	5.2727	0.1	8.9223
6433	14.209	5.2727	0.1	10.54
6434	14.024	5.2727	0.1	12.145
6435	13.839	5.2727	0.1	13.713
6436	13.655	5.2727	0.1	15.213
6437	13.47	5.2727	0.1	16.606
6438	13.285	5.2727	0.1	17.845
6439	13.1	5.2727	0.1	18.872
6440	12.916	5.2727	0.1	19.62
6441	12.731	5.2727	0.1	20.007
6442	12.546	5.2727	0.1	19.94
6443	12.361	5.2727	0.1	19.311
6444	12.177	5.2727	0.1	18.
6445	11.992	5.2727	0.1	15.878
6446	11.807	5.2727	0.1	12.818
6447	11.622	5.2727	0.1	8.7362
6448	11.438	5.2727	0.1	3.9386
6449	11.253	5.2727	0.1	1.1635
6450	11.068	5.2727	0.1	0.6616
6451	10.884	5.2727	0.1	0.54726
6452	10.699	5.2727	0.1	0.53485
6453	10.514	5.2727	0.1	0.57509
6454	10.329	5.2727	0.1	0.65843
6455	10.145	5.2727	0.1	0.78751
6456	9.9598	5.2727	0.1	0.97428
6457	9.7751	5.2727	0.1	1.2269
6458	9.5904	5.2727	0.1	1.5855
6459	9.4056	5.2727	0.1	1.9406
6460	9.2209	5.2727	0.1	2.6998
6461	9.0361	5.2727	0.1	1.5344
6462	8.8514	5.2727	0.1	7.0879
6463	23.815	5.4545	0.1	3.3684e-002
6464	23.631	5.4545	0.1	-0.18452
6465	23.446	5.4545	0.1	-3.2004e-002
6466	23.261	5.4545	0.1	-2.8671e-002
6467	23.076	5.4545	0.1	-7.6731e-003
6468	22.892	5.4545	0.1	-4.527e-004
6469	22.707	5.4545	0.1	5.0645e-003
6470	22.522	5.4545	0.1	8.0522e-003
6471	22.337	5.4545	0.1	9.8811e-003
6472	22.153	5.4545	0.1	1.087e-002
6473	21.968	5.4545	0.1	1.1353e-002
6474	21.783	5.4545	0.1	1.151e-002
6475	21.598	5.4545	0.1	1.1453e-002
6476	21.414	5.4545	0.1	1.1242e-002
6477	21.229	5.4545	0.1	1.0941e-002
6478	21.044	5.4545	0.1	1.0579e-002
6479	20.859	5.4545	0.1	1.0181e-002
6480	20.675	5.4545	0.1	9.7811e-003
6481	20.49	5.4545	0.1	9.3766e-003
6482	20.305	5.4545	0.1	8.9662e-003
6483	20.12	5.4545	0.1	8.5451e-003
6484	19.936	5.4545	0.1	8.1354e-003
6485	19.751	5.4545	0.1	7.7546e-003
6486	19.566	5.4545	0.1	7.3894e-003
6487	19.382	5.4545	0.1	7.0176e-003
6488	19.197	5.4545	0.1	6.6523e-003
6489	19.012	5.4545	0.1	6.2921e-003
6490	18.827	5.4545	0.1	5.9362e-003
6491	18.643	5.4545	0.1	5.6125e-003
6492	18.458	5.4545	0.1	5.2949e-003
6493	18.273	5.4545	0.1	4.9656e-003
6494	18.088	5.4545	0.1	4.6195e-003
6495	17.904	5.4545	0.1	4.2728e-003
6496	17.719	5.4545	0.1	3.9587e-003
6497	17.534	5.4545	0.1	3.643e-003
6498	17.349	5.4545	0.1	3.2989e-003
6499	17.165	5.4545	0.1	2.939e-003
6500	16.98	5.4545	0.1	2.5654e-003
6501	16.795	5.4545	0.1	2.1763e-003
6502	16.61	5.4545	0.1	1.8079e-003
6503	16.426	5.4545	0.1	1.429e-003
6504	16.241	5.4545	0.1	1.0107e-003
6505	16.056	5.4545	0.1	5.5118e-004
6506	15.871	5.4545	0.1	8.4123e-005
6507	15.687	5.4545	0.1	-3.3912e-004
6508	15.502	5.4545	0.1	-7.1736e-004
6509	15.317	5.4545	0.1	-9.0778e-004
6510	15.133	5.4545	0.1	-6.3118e-005
6511	14.948	5.4545	0.1	0.18779
6512	14.763	5.4545	0.1	1.4182
6513	14.578	5.4545	0.1	2.6756
6514	14.394	5.4545	0.1	3.9368
6515	14.209	5.4545	0.1	5.1875
6516	14.024	5.4545	0.1	6.4093
6517	13.839	5.4545	0.1	7.5793
6518	13.655	5.4545	0.1	8.6686
6519	13.47	5.4545	0.1	9.6412
6520	13.285	5.4545	0.1	10.454
6521	13.1	5.4545	0.1	11.053
6522	12.916	5.4545	0.1	11.376
6523	12.731	5.4545	0.1	11.35
6524	12.546	5.4545	0.1	10.888
6525	12.361	5.4545	0.1	9.895
6526	12.177	5.4545	0.1	8.2647
6527	11.992	5.4545	0.1	5.8986
6528	11.807	5.4545	0.1	2.8218
6529	11.622	5.4545	0.1	0.60642
6530	11.438	5.4545	0.1	0.27099
6531	11.253	5.4545	0.1	0.20158
6532	11.068	5.4545	0.1	0.18505
6533	10.884	5.4545	0.1	0.19203
6534	10.699	5.4545	0.1	0.21688
6535	10.514	5.4545	0.1	0.26091
6536	10.329	5.4545	0.1	0.32987
6537	10.145	5.4545	0.1	0.43431
6538	9.9598	5.4545	0.1	0.59555
6539	9.7751	5.4545	0.1	0.84301
6540	9.5904	5.4545	0.1	1.266
6541	9.4056	5.4545	0.1	1.8573
6542	9.2209	5.4545	0.1	3.0695
6543	9.0361	5.4545	0.1	2.7582
6544	8.8514	5.4545	0.1	7.975
6545	23.815	5.6364	0.1	0.28525
6546	23.631	5.6364	0.1	-5.6945e-003
6547	23.446	5.6364	0.1	9.5152e-002
6548	23.261	5.6364	0.1	8.1893e-002
6549	23.076	5.6364	0.1	8.5808e-002
6550	22.892	5.6364	0.1	8.0761e-002
6551	22.707	5.6364	0.1	7.633e-002
6552	22.522	5.6364	0.1	7.1251e-002
6553	22.337	5.6364	0.1	6.6374e-002
6554	22.153	5.6364	0.1	6.1711e-002
6555	21.968	5.6364	0.1	5.736e-002
6556	21.783	5.6364	0.1	5.333e-002
6557	21.598	5.6364	0.1	4.9611e-002
6558	21.414	5.6364	0.1	4.6172e-002
6559	21.229	5.6364	0.1	4.2995e-002
6560	21.044	5.6364	0.1	4.0062e-002
6561	20.859	5.6364	0.1	3.7346e-002
6562	20.675	5.6364	0.1	3.4845e-002
6563	20.49	5.6364	0.1	3.2529e-002
6564	20.305	5.6364	0.1	3.0364e-002
6565	20.12	5.6364	0.1	2.8334e-002
6566	19.936	5.6364	0.1	2.6433e-002
6567	19.751	5.6364	0.1	2.4671e-002
6568	19.566	5.6364	0.1	2.3014e-002
6569	19.382	5.6364	0.1	2.1432e-002
6570	19.197	5.6364	0.1	1.9925e-002
6571	19.012	5.6364	0.1	1.8483e-002
6572	18.827	5.6364	0.1	1.7096e-002
6573	18.643	5.6364	0.1	1.5782e-002
6574	18.458	5.6364	0.1	1.4511e-002
6575	18.273	5.6364	0.1	1.3256e-002
6576	18.088	5.6364	0.1	1.2002e-002
6577	17.904	5.6364	0.1	1.0764e-002
6578	17.719	5.6364	0.1	9.5663e-003
6579	17.534	5.6364	0.1	8.3721e-003
6580	17.349	5.6364	0.1	7.1456e-003
6581	17.165	5.6364	0.1	5.8963e-003
6582	16.98	5.6364	0.1	4.6188e-003
6583	16.795	5.6364	0.1	3.3108e-003
6584	16.61	5.6364	0.1	2.0027e-003
6585	16.426	5.6364	0.1	6.5645e-004
6586	16.241	5.6364	0.1	-7.5885e-004
6587	16.056	5.6364	0.1	-2.2505e-003
6588	15.871	5.6364	0.1	-3.7921e-003
6589	15.687	5.6364	0.1	-5.348e-003
6590	15.502	5.6364	0.1	-6.9532e-003
6591	15.317	5.6364	0.1	-8.5994e-003
6592	15.133	5.6364	0.1	-1.0267e-002
6593	14.948	5.6364	0.1	-1.1929e-002
6594	14.763	5.6364	0.1	-1.3416e-002
6595	14.578	5.6364	0.1	-1.4303e-002
6596	14.394	5.6364	0.1	-1.2968e-002
6597	14.209	5.6364	0.1	2.243e-002
6598	14.024	5.6364	0.1	0.74772
6599	13.839	5.6364	0.1	1.5917
6600	13.655	5.6364	0.1	2.3663
6601	13.47	5.6364	0.1	3.0395
6602	13.285	5.6364	0.1	3.5761
6603	13.1	5.6364	0.1	3.9339
6604	12.916	5.6364	0.1	4.0633
6605	12.731	5.6364	0.1	3.9062
6606	12.546	5.6364	0.1	3.3976
6607	12.361	5.6364	0.1	2.4715
6608	12.177	5.6364	0.1	1.133
6609	11.992	5.6364	0.1	0.2326
6610	11.807	5.6364	0.1	0.10609
6611	11.622	5.6364	0.1	8.1975e-002
6612	11.438	5.6364	0.1	8.0792e-002
6613	11.253	5.6364	0.1	9.0235e-002
6614	11.068	5.6364	0.1	0.1071
6615	10.884	5.6364	0.1	0.1305
6616	10.699	5.6364	0.1	0.16065
6617	10.514	5.6364	0.1	0.19862
6618	10.329	5.6364	0.1	0.24711
6619	10.145	5.6364	0.1	0.31223
6620	9.9598	5.6364	0.1	0.41147
6621	9.7751	5.6364	0.1	0.57906
6622	9.5904	5.6364	0.1	0.93517
6623	9.4056	5.6364	0.1	1.615
6624	9.2209	5.6364	0.1	3.4812
6625	9.0361	5.6364	0.1	4.8285
6626	8.8514	5.6364	0.1	10.495
6627	23.815	5.8182	0.1	0.50795
6628	23.631	5.8182	0.1	0.10952
6629	23.446	5.8182	0.1	0.12082
6630	23.261	5.8182	0.1	8.0752e-002
6631	23.076	5.8182	0.1	6.5259e-002
6632	22.892	5.8182	0.1	5.0017e-002
6633	22.707	5.8182	0.1	3.9473e-002
6634	22.522	5.8182	0.1	3.1109e-002
6635	22.337	5.8182	0.1	2.4655e-002
6636	22.153	5.8182	0.1	1.9551e-002
6637	21.968	5.8182	0.1	1.55e-002
6638	21.783	5.8182	0.1	1.2269e-002
6639	21.598	5.8182	0.1	9.6808e-003
6640	21.414	5.8182	0.1	7.5882e-003
6641	21.229	5.8182	0.1	5.898e-003
6642	21.044	5.8182	0.1	4.5334e-003
6643	20.859	5.8182	0.1	3.4339e-003
6644	20.675	5.8182	0.1	2.5673e-003
6645	20.49	5.8182	0.1	1.8777e-003
6646	20.305	5.8182	0.1	1.3315e-003
6647	20.12	5.8182	0.1	8.9254e-004
6648	19.936	5.8182	0.1	5.5589e-004
6649	19.751	5.8182	0.1	3.2792e-004
6650	19.566	5.8182	0.1	1.7154e-004
6651	19.382	5.8182	0.1	6.2353e-005
6652	19.197	5.8182	0.1	1.2318e-006
6653	19.012	5.8182	0.1	-2.164e-005
6654	18.827	5.8182	0.1	-5.6787e-006
6655	18.643	5.8182	0.1	6.707e-005
6656	18.458	5.8182	0.1	1.7204e-004
6657	18.273	5.8182	0.1	2.9021e-004
6658	18.088	5.8182	0.1	4.1699e-004
6659	17.904	5.8182	0.1	5.6971e-004
6660	17.719	5.8182	0.1	7.8038e-004
6661	17.534	5.8182	0.1	1.0202e-003
6662	17.349	5.8182	0.1	1.2642e-003
6663	17.165	5.8182	0.1	1.5339e-003
6664	16.98	5.8182	0.1	1.8316e-003
6665	16.795	5.8182	0.1	2.1646e-003
6666	16.61	5.8182	0.1	2.5764e-003
6667	16.426	5.8182	0.1	3.0438e-003
6668	16.241	5.8182	0.1	3.5502e-003
6669	16.056	5.8182	0.1	4.1064e-003
6670	15.871	5.8182	0.1	4.7545e-003
6671	15.687	5.8182	0.1	5.5503e-003
6672	15.502	5.8182	0.1	6.481e-003
6673	15.317	5.8182	0.1	7.5736e-003
6674	15.133	5.8182	0.1	8.8676e-003
6675	14.948	5.8182	0.1	1.0389e-002
6676	14.763	5.8182	0.1	1.2244e-002
6677	14.578	5.8182	0.1	1.4565e-002
6678	14.394	5.8182	0.1	1.7411e-002
6679	14.209	5.8182	0.1	2.0873e-002
6680	14.024	5.8182	0.1	2.5096e-002
6681	13.839	5.8182	0.1	3.0254e-002
6682	13.655	5.8182	0.1	3.6473e-002
6683	13.47	5.8182	0.1	4.3612e-002
6684	13.285	5.8182	0.1	5.1197e-002
6685	13.1	5.8182	0.1	5.8124e-002
6686	12.916	5.8182	0.1	6.2509e-002
6687	12.731	5.8182	0.1	6.2285e-002
6688	12.546	5.8182	0.1	5.6371e-002
6689	12.361	5.8182	0.1	4.5637e-002
6690	12.177	5.8182	0.1	3.2612e-002
6691	11.992	5.8182	0.1	1.986e-002
6692	11.807	5.8182	0.1	8.8229e-003
6693	11.622	5.8182	0.1	-2.8405e-004
6694	11.438	5.8182	0.1	-8.1753e-003
6695	11.253	5.8182	0.1	-1.6e-002
6696	11.068	5.8182	0.1	-2.5239e-002
6697	10.884	5.8182	0.1	-3.765e-002
6698	10.699	5.8182	0.1	-5.4899e-002
6699	10.514	5.8182	0.1	-7.7961e-002
6700	10.329	5.8182	0.1	-0.10535
6701	10.145	5.8182	0.1	-0.12957
6702	9.9598	5.8182	0.1	-0.1263
6703	9.7751	5.8182	0.1	-4.5414e-002
6704	9.5904	5.8182	0.1	0.26337
6705	9.4056	5.8182	0.1	0.99538
6706	9.2209	5.8182	0.1	3.2447
6707	9.0361	5.8182	0.1	6.8169
6708	8.8514	5.8182	0.1	21.064
6709	0.18478	0.18182	0.1	-2.3689
6710	0.18478	0.36364	0.1	819.64
6711	0.18478	0.54545	0.1	1256.6
6712	0.18478	0.72727	0.1	1506.9
6713	0.18478	0.90909	0.1	1664.5
6714	0.18478	1.0909	0.1	1773.2
6715	0.18478	1.2727	0.1	1852.1
6716	0.18478	1.4545	0.1	1911.3
6717	0.18478	1.6364	0.1	1956.5
6718	0.18478	1.8182	0.1	1991.5
6719	0.18478	2.	0.1	2018.5
6720	0.18478	2.1818	0.1	2039.2
6721	0.18478	2.3636	0.1	2054.7
6722	0.18478	2.5455	0.1	2065.7
6723	0.18478	2.7273	0.1	2072.8
6724	0.18478	2.9091	0.1	2076.3
6725	0.18478	3.0909	0.1	2076.3
6726	0.18478	3.2727	0.1	2072.8
6727	0.18478	3.4545	0.1	2065.7
6728	0.18478	3.6364	0.1	2054.7
6729	0.18478	3.8182	0.1	2039.2
6730	0.18478	4.	0.1	2018.5
6731	0.18478	4.1818	0.1	1991.5
6732	0.18478	4.3636	0.1	1956.5
6733	0.18478	4.5455	0.1	1911.3
6734	0.18478	4.7273	0.1	1852.1
6735	0.18478	4.9091	0.1	1773.2
6736	0.18478	5.0909	0.1	1664.5
6737	0.18478	5.2727	0.1	1506.9
6738	0.18478	5.4545	0.1	1256.6
6739	0.18478	5.6364	0.1	819.64
6740	0.18478	5.8182	0.1	-2.369
6741	0.36957	0.18182	0.1	81.544
6742	0.36957	0.36364	0.1	658.29
6743	0.36957	0.54545	0.1	1217.4
6744	0.36957	0.72727	0.1	1591.2
6745	0.36957	0.90909	0.1	1839.7
6746	0.36957	1.0909	0.1	2010.1
6747	0.36957	1.2727	0.1	2131.8
6748	0.36957	1.4545	0.1	2221.7
6749	0.36957	1.6364	0.1	2289.5
6750	0.36957	1.8182	0.1	2341.4
6751	0.36957	2.	0.1	2381.2
6752	0.36957	2.1818	0.1	2411.5
6753	0.36957	2.3636	0.1	2434.
6754	0.36957	2.5455	0.1	2450.1
6755	0.36957	2.7273	0.1	2460.4
6756	0.36957	2.9091	0.1	2465.4
6757	0.36957	3.0909	0.1	2465.4
6758	0.36957	3.2727	0.1	2460.4
6759	0.36957	3.4545	0.1	2450.1
6760	0.36957	3.6364	0.1	2434.
6761	0.36957	3.8182	0.1	2411.5
6762	0.36957	4.	0.1	2381.2
6763	0.36957	4.1818	0.1	2341.4
6764	0.36957	4.3636	0.1	2289.5
6765	0.36957	4.5455	0.1	2221.7
6766	0.36957	4.7273	0.1	2131.8
6767	0.36957	4.9091	0.1	2010.1
6768	0.36957	5.0909	0.1	1839.7
6769	0.36957	5.2727	0.1	1591.2
6770	0.36957	5.4545	0.1	1217.4
6771	0.36957	5.6364	0.1	658.29
6772	0.36957	5.8182	0.1	81.544
6773	0.55435	0.18182	0.1	0.64535
6774	0.55435	0.36364	0.1	410.97
6775	0.55435	0.54545	0.1	858.47
6776	0.55435	0.72727	0.1	1221.6
6777	0.55435	0.90909	0.1	1493.1
6778	0.55435	1.0909	0.1	1691.4
6779	0.55435	1.2727	0.1	1837.
6780	0.55435	1.4545	0.1	1945.5
6781	0.55435	1.6364	0.1	2027.5
6782	0.55435	1.8182	0.1	2090.
6783	0.55435	2.	0.1	2137.9
6784	0.55435	2.1818	0.1	2174.2
6785	0.55435	2.3636	0.1	2201.2
6786	0.55435	2.5455	0.1	2220.3
6787	0.55435	2.7273	0.1	2232.6
6788	0.55435	2.9091	0.1	2238.6
6789	0.55435	3.0909	0.1	2238.6
6790	0.55435	3.2727	0.1	2232.6
6791	0.55435	3.4545	0.1	2220.3
6792	0.55435	3.6364	0.1	2201.2
6793	0.55435	3.8182	0.1	2174.2
6794	0.55435	4.	0.1	2137.9
6795	0.55435	4.1818	0.1	2090.
6796	0.55435	4.3636	0.1	2027.5
6797	0.55435	4.5455	0.1	1945.5
6798	0.55435	4.7273	0.1	1837.
6799	0.55435	4.9091	0.1	1691.4
6800	0.55435	5.0909	0.1	1493.1
6801	0.55435	5.2727	0.1	1221.6
6802	0.55435	5.4545	0.1	858.47
6803	0.55435	5.6364	0.1	410.97
6804	0.55435	5.8182	0.1	0.64534
6805	0.73913	0.18182	0.1	18.38
6806	0.73913	0.36364	0.1	336.88
6807	0.73913	0.54545	0.1	705.48
6808	0.73913	0.72727	0.1	1035.3
6809	0.73913	0.90909	0.1	1306.8
6810	0.73913	1.0909	0.1	1520.3
6811	0.73913	1.2727	0.1	1685.
6812	0.73913	1.4545	0.1	1811.4
6813	0.73913	1.6364	0.1	1908.7
6814	0.73913	1.8182	0.1	1983.7
6815	0.73913	2.	0.1	2041.3
6816	0.73913	2.1818	0.1	2085.2
6817	0.73913	2.3636	0.1	2117.8
6818	0.73913	2.5455	0.1	2141.
6819	0.73913	2.7273	0.1	2155.8
6820	0.73913	2.9091	0.1	2163.1
6821	0.73913	3.0909	0.1	2163.1
6822	0.73913	3.2727	0.1	2155.8
6823	0.73913	3.4545	0.1	2141.
6824	0.73913	3.6364	0.1	2117.8
6825	0.73913	3.8182	0.1	2085.2
6826	0.73913	4.	0.1	2041.3
6827	0.73913	4.1818	0.1	1983.7
6828	0.73913	4.3636	0.1	1908.7
6829	0.73913	4.5455	0.1	1811.4
6830	0.73913	4.7273	0.1	1685.
6831	0.73913	4.9091	0.1	1520.3
6832	0.73913	5.0909	0.1	1306.8
6833	0.73913	5.2727	0.1	1035.3
6834	0.73913	5.4545	0.1	705.48
6835	0.73913	5.6364	0.1	336.88
6836	0.73913	5.8182	0.1	18.38
6837	0.92391	0.18182	0.1	14.333
6838	0.92391	0.36364	0.1	283.39
6839	0.92391	0.54545	0.1	587.33
6840	0.92391	0.72727	0.1	874.56
6841	0.92391	0.90909	0.1	1127.3
6842	0.92391	1.0909	0.1	1338.6
6843	0.92391	1.2727	0.1	1509.9
6844	0.92391	1.4545	0.1	1646.4
6845	0.92391	1.6364	0.1	1754.3
6846	0.92391	1.8182	0.1	1838.9
6847	0.92391	2.	0.1	1904.8
6848	0.92391	2.1818	0.1	1955.4
6849	0.92391	2.3636	0.1	1993.2
6850	0.92391	2.5455	0.1	2020.2
6851	0.92391	2.7273	0.1	2037.5
6852	0.92391	2.9091	0.1	2045.9
6853	0.92391	3.0909	0.1	2045.9
6854	0.92391	3.2727	0.1	2037.5
6855	0.92391	3.4545	0.1	2020.2
6856	0.92391	3.6364	0.1	1993.2
6857	0.92391	3.8182	0.1	1955.4
6858	0.92391	4.	0.1	1904.8
6859	0.92391	4.1818	0.1	1838.9
6860	0.92391	4.3636	0.1	1754.3
6861	0.92391	4.5455	0.1	1646.4
6862	0.92391	4.7273	0.1	1509.9
6863	0.92391	4.9091	0.1	1338.6
6864	0.92391	5.0909	0.1	1127.3
6865	0.92391	5.2727	0.1	874.56
6866	0.92391	5.4545	0.1	587.33
6867	0.92391	5.6364	0.1	283.39
6868	0.92391	5.8182	0.1	14.333
6869	1.1087	0.18182	0.1	17.528
6870	1.1087	0.36364	0.1	253.58
6871	1.1087	0.54545	0.1	511.34
6872	1.1087	0.72727	0.1	761.53
6873	1.1087	0.90909	0.1	991.08
6874	1.1087	1.0909	0.1	1191.9
6875	1.1087	1.2727	0.1	1361.6
6876	1.1087	1.4545	0.1	1501.8
6877	1.1087	1.6364	0.1	1615.6
6878	1.1087	1.8182	0.1	1707.
6879	1.1087	2.	0.1	1779.2
6880	1.1087	2.1818	0.1	1835.4
6881	1.1087	2.3636	0.1	1877.7
6882	1.1087	2.5455	0.1	1908.
6883	1.1087	2.7273	0.1	1927.6
6884	1.1087	2.9091	0.1	1937.1
6885	1.1087	3.0909	0.1	1937.1
6886	1.1087	3.2727	0.1	1927.6
6887	1.1087	3.4545	0.1	1908.
6888	1.1087	3.6364	0.1	1877.7
6889	1.1087	3.8182	0.1	1835.4
6890	1.1087	4.	0.1	1779.2
6891	1.1087	4.1818	0.1	1707.
6892	1.1087	4.3636	0.1	1615.6
6893	1.1087	4.5455	0.1	1501.8
6894	1.1087	4.7273	0.1	1361.6
6895	1.1087	4.9091	0.1	1191.9
6896	1.1087	5.0909	0.1	991.08
6897	1.1087	5.2727	0.1	761.53
6898	1.1087	5.4545	0.1	511.34
6899	1.1087	5.6364	0.1	253.58
6900	1.1087	5.8182	0.1	17.528
6901	1.2935	0.18182	0.1	20.75
6902	1.2935	0.36364	0.1	232.24
6903	1.2935	0.54545	0.1	454.81
6904	1.2935	0.72727	0.1	673.92
6905	1.2935	0.90909	0.1	880.34
6906	1.2935	1.0909	0.1	1066.8
6907	1.2935	1.2727	0.1	1229.6
6908	1.2935	1.4545	0.1	1368.3
6909	1.2935	1.6364	0.1	1483.9
6910	1.2935	1.8182	0.1	1578.6
6911	1.2935	2.	0.1	1654.9
6912	1.2935	2.1818	0.1	1714.9
6913	1.2935	2.3636	0.1	1760.7
6914	1.2935	2.5455	0.1	1793.6
6915	1.2935	2.7273	0.1	1815.
6916	1.2935	2.9091	0.1	1825.5
6917	1.2935	3.0909	0.1	1825.5
6918	1.2935	3.2727	0.1	1815.
6919	1.2935	3.4545	0.1	1793.6
6920	1.2935	3.6364	0.1	1760.7
6921	1.2935	3.8182	0.1	1714.9
6922	1.2935	4.	0.1	1654.9
6923	1.2935	4.1818	0.1	1578.6
6924	1.2935	4.3636	0.1	1483.9
6925	1.2935	4.5455	0.1	1368.3
6926	1.2935	4.7273	0.1	1229.6
6927	1.2935	4.9091	0.1	1066.8
6928	1.2935	5.0909	0.1	880.34
6929	1.2935	5.2727	0.1	673.92
6930	1.2935	5.4545	0.1	454.81
6931	1.2935	5.6364	0.1	232.24
6932	1.2935	5.8182	0.1	20.75
6933	1.4783	0.18182	0.1	25.57
6934	1.4783	0.36364	0.1	216.55
6935	1.4783	0.54545	0.1	411.82
6936	1.4783	0.72727	0.1	605.38
6937	1.4783	0.90909	0.1	790.78
6938	1.4783	1.0909	0.1	962.02
6939	1.4783	1.2727	0.1	1115.3
6940	1.4783	1.4545	0.1	1249.1
6941	1.4783	1.6364	0.1	1363.1
6942	1.4783	1.8182	0.1	1458.5
6943	1.4783	2.	0.1	1536.5
6944	1.4783	2.1818	0.1	1598.8
6945	1.4783	2.3636	0.1	1646.7
6946	1.4783	2.5455	0.1	1681.5
6947	1.4783	2.7273	0.1	1704.2
6948	1.4783	2.9091	0.1	1715.4
6949	1.4783	3.0909	0.1	1715.4
6950	1.4783	3.2727	0.1	1704.2
6951	1.4783	3.4545	0.1	1681.5
6952	1.4783	3.6364	0.1	1646.7
6953	1.4783	3.8182	0.1	1598.8
6954	1.4783	4.	0.1	1536.5
6955	1.4783	4.1818	0.1	1458.5
6956	1.4783	4.3636	0.1	1363.1
6957	1.4783	4.5455	0.1	1249.1
6958	1.4783	4.7273	0.1	1115.3
6959	1.4783	4.9091	0.1	962.02
6960	1.4783	5.0909	0.1	790.78
6961	1.4783	5.2727	0.1	605.38
6962	1.4783	5.4545	0.1	411.81
6963	1.4783	5.6364	0.1	216.55
6964	1.4783	5.8182	0.1	25.57
6965	1.663	0.18182	0.1	30.93
6966	1.663	0.36364	0.1	203.84
6967	1.663	0.54545	0.1	377.19
6968	1.663	0.72727	0.1	549.57
6969	1.663	0.90909	0.1	716.4
6970	1.663	1.0909	0.1	872.89
6971	1.663	1.2727	0.1	1015.6
6972	1.663	1.4545	0.1	1142.5
6973	1.663	1.6364	0.1	1252.8
6974	1.663	1.8182	0.1	1346.5
6975	1.663	2.	0.1	1424.4
6976	1.663	2.1818	0.1	1487.3
6977	1.663	2.3636	0.1	1536.2
6978	1.663	2.5455	0.1	1572.1
6979	1.663	2.7273	0.1	1595.5
6980	1.663	2.9091	0.1	1607.1
6981	1.663	3.0909	0.1	1607.1
6982	1.663	3.2727	0.1	1595.5
6983	1.663	3.4545	0.1	1572.1
6984	1.663	3.6364	0.1	1536.2
6985	1.663	3.8182	0.1	1487.3
6986	1.663	4.	0.1	1424.4
6987	1.663	4.1818	0.1	1346.5
6988	1.663	4.3636	0.1	1252.8
6989	1.663	4.5455	0.1	1142.5
6990	1.663	4.7273	0.1	1015.6
6991	1.663	4.9091	0.1	872.89
6992	1.663	5.0909	0.1	716.4
6993	1.663	5.2727	0.1	549.57
6994	1.663	5.4545	0.1	377.19
6995	1.663	5.6364	0.1	203.84
6996	1.663	5.8182	0.1	30.93
6997	1.8478	0.18182	0.1	36.122
6998	1.8478	0.36364	0.1	192.95
6999	1.8478	0.54545	0.1	348.25
7000	1.8478	0.72727	0.1	502.85
7001	1.8478	0.90909	0.1	653.44
7002	1.8478	1.0909	0.1	796.22
7003	1.8478	1.2727	0.1	928.18
7004	1.8478	1.4545	0.1	1047.3
7005	1.8478	1.6364	0.1	1152.3
7006	1.8478	1.8182	0.1	1242.9
7007	1.8478	2.	0.1	1319.1
7008	1.8478	2.1818	0.1	1381.4
7009	1.8478	2.3636	0.1	1430.3
7010	1.8478	2.5455	0.1	1466.3
7011	1.8478	2.7273	0.1	1490.1
7012	1.8478	2.9091	0.1	1501.8
7013	1.8478	3.0909	0.1	1501.8
7014	1.8478	3.2727	0.1	1490.1
7015	1.8478	3.4545	0.1	1466.3
7016	1.8478	3.6364	0.1	1430.3
7017	1.8478	3.8182	0.1	1381.4
7018	1.8478	4.	0.1	1319.1
7019	1.8478	4.1818	0.1	1242.9
7020	1.8478	4.3636	0.1	1152.3
7021	1.8478	4.5455	0.1	1047.3
7022	1.8478	4.7273	0.1	928.18
7023	1.8478	4.9091	0.1	796.22
7024	1.8478	5.0909	0.1	653.44
7025	1.8478	5.2727	0.1	502.85
7026	1.8478	5.4545	0.1	348.25
7027	1.8478	5.6364	0.1	192.95
7028	1.8478	5.8182	0.1	36.122
7029	2.0326	0.18182	0.1	40.601
7030	2.0326	0.36364	0.1	183.12
7031	2.0326	0.54545	0.1	323.23
7032	2.0326	0.72727	0.1	462.68
7033	2.0326	0.90909	0.1	599.05
7034	2.0326	1.0909	0.1	729.3
7035	2.0326	1.2727	0.1	850.89
7036	2.0326	1.4545	0.1	961.85
7037	2.0326	1.6364	0.1	1060.9
7038	2.0326	1.8182	0.1	1147.3
7039	2.0326	2.	0.1	1220.8
7040	2.0326	2.1818	0.1	1281.4
7041	2.0326	2.3636	0.1	1329.4
7042	2.0326	2.5455	0.1	1365.
7043	2.0326	2.7273	0.1	1388.5
7044	2.0326	2.9091	0.1	1400.3
7045	2.0326	3.0909	0.1	1400.3
7046	2.0326	3.2727	0.1	1388.5
7047	2.0326	3.4545	0.1	1365.
7048	2.0326	3.6364	0.1	1329.4
7049	2.0326	3.8182	0.1	1281.4
7050	2.0326	4.	0.1	1220.8
7051	2.0326	4.1818	0.1	1147.3
7052	2.0326	4.3636	0.1	1060.9
7053	2.0326	4.5455	0.1	961.85
7054	2.0326	4.7273	0.1	850.89
7055	2.0326	4.9091	0.1	729.3
7056	2.0326	5.0909	0.1	599.05
7057	2.0326	5.2727	0.1	462.68
7058	2.0326	5.4545	0.1	323.23
7059	2.0326	5.6364	0.1	183.12
7060	2.0326	5.8182	0.1	40.601
7061	2.2174	0.18182	0.1	44.151
7062	2.2174	0.36364	0.1	173.95
7063	2.2174	0.54545	0.1	301.
7064	2.2174	0.72727	0.1	427.37
7065	2.2174	0.90909	0.1	551.23
7066	2.2174	1.0909	0.1	670.15
7067	2.2174	1.2727	0.1	781.94
7068	2.2174	1.4545	0.1	884.84
7069	2.2174	1.6364	0.1	977.55
7070	2.2174	1.8182	0.1	1059.2
7071	2.2174	2.	0.1	1129.2
7072	2.2174	2.1818	0.1	1187.5
7073	2.2174	2.3636	0.1	1233.9
7074	2.2174	2.5455	0.1	1268.5
7075	2.2174	2.7273	0.1	1291.5
7076	2.2174	2.9091	0.1	1303.
7077	2.2174	3.0909	0.1	1303.
7078	2.2174	3.2727	0.1	1291.5
7079	2.2174	3.4545	0.1	1268.5
7080	2.2174	3.6364	0.1	1233.9
7081	2.2174	3.8182	0.1	1187.5
7082	2.2174	4.	0.1	1129.2
7083	2.2174	4.1818	0.1	1059.2
7084	2.2174	4.3636	0.1	977.55
7085	2.2174	4.5455	0.1	884.84
7086	2.2174	4.7273	0.1	781.94
7087	2.2174	4.9091	0.1	670.15
7088	2.2174	5.0909	0.1	551.23
7089	2.2174	5.2727	0.1	427.37
7090	2.2174	5.4545	0.1	301.
7091	2.2174	5.6364	0.1	173.95
7092	2.2174	5.8182	0.1	44.151
7093	2.4022	0.18182	0.1	46.73
7094	2.4022	0.36364	0.1	165.15
7095	2.4022	0.54545	0.1	280.82
7096	2.4022	0.72727	0.1	395.75
7097	2.4022	0.90909	0.1	508.55
7098	2.4022	1.0909	0.1	617.21
7099	2.4022	1.2727	0.1	719.9
7100	2.4022	1.4545	0.1	815.04
7101	2.4022	1.6364	0.1	901.37
7102	2.4022	1.8182	0.1	977.95
7103	2.4022	2.	0.1	1044.1
7104	2.4022	2.1818	0.1	1099.5
7105	2.4022	2.3636	0.1	1143.9
7106	2.4022	2.5455	0.1	1177.2
7107	2.4022	2.7273	0.1	1199.4
7108	2.4022	2.9091	0.1	1210.5
7109	2.4022	3.0909	0.1	1210.5
7110	2.4022	3.2727	0.1	1199.4
7111	2.4022	3.4545	0.1	1177.2
7112	2.4022	3.6364	0.1	1143.9
7113	2.4022	3.8182	0.1	1099.5
7114	2.4022	4.	0.1	1044.1
7115	2.4022	4.1818	0.1	977.95
7116	2.4022	4.3636	0.1	901.37
7117	2.4022	4.5455	0.1	815.04
7118	2.4022	4.7273	0.1	719.9
7119	2.4022	4.9091	0.1	617.21
7120	2.4022	5.0909	0.1	508.55
7121	2.4022	5.2727	0.1	395.75
7122	2.4022	5.4545	0.1	280.82
7123	2.4022	5.6364	0.1	165.15
7124	2.4022	5.8182	0.1	46.73
7125	2.587	0.18182	0.1	48.386
7126	2.587	0.36364	0.1	156.59
7127	2.587	0.54545	0.1	262.19
7128	2.587	0.72727	0.1	367.
7129	2.587	0.90909	0.1	469.94
7130	2.587	1.0909	0.1	569.33
7131	2.587	1.2727	0.1	663.63
7132	2.587	1.4545	0.1	751.43
7133	2.587	1.6364	0.1	831.54
7134	2.587	1.8182	0.1	903.02
7135	2.587	2.	0.1	965.16
7136	2.587	2.1818	0.1	1017.5
7137	2.587	2.3636	0.1	1059.6
7138	2.587	2.5455	0.1	1091.3
7139	2.587	2.7273	0.1	1112.5
7140	2.587	2.9091	0.1	1123.1
7141	2.587	3.0909	0.1	1123.1
7142	2.587	3.2727	0.1	1112.5
7143	2.587	3.4545	0.1	1091.3
7144	2.587	3.6364	0.1	1059.6
7145	2.587	3.8182	0.1	1017.5
7146	2.587	4.	0.1	965.16
7147	2.587	4.1818	0.1	903.02
7148	2.587	4.3636	0.1	831.54
7149	2.587	4.5455	0.1	751.43
7150	2.587	4.7273	0.1	663.63
7151	2.587	4.9091	0.1	569.33
7152	2.587	5.0909	0.1	469.94
7153	2.587	5.2727	0.1	367.
7154	2.587	5.4545	0.1	262.19
7155	2.587	5.6364	0.1	156.59
7156	2.587	5.8182	0.1	48.386
7157	2.7717	0.18182	0.1	49.199
7158	2.7717	0.36364	0.1	148.15
7159	2.7717	0.54545	0.1	244.75
7160	2.7717	0.72727	0.1	340.53
7161	2.7717	0.90909	0.1	434.63
7162	2.7717	1.0909	0.1	525.64
7163	2.7717	1.2727	0.1	612.24
7164	2.7717	1.4545	0.1	693.17
7165	2.7717	1.6364	0.1	767.33
7166	2.7717	1.8182	0.1	833.82
7167	2.7717	2.	0.1	891.89
7168	2.7717	2.1818	0.1	940.97
7169	2.7717	2.3636	0.1	980.64
7170	2.7717	2.5455	0.1	1010.6
7171	2.7717	2.7273	0.1	1030.7
7172	2.7717	2.9091	0.1	1040.8
7173	2.7717	3.0909	0.1	1040.8
7174	2.7717	3.2727	0.1	1030.7
7175	2.7717	3.4545	0.1	1010.6
7176	2.7717	3.6364	0.1	980.64
7177	2.7717	3.8182	0.1	940.97
7178	2.7717	4.	0.1	891.89
7179	2.7717	4.1818	0.1	833.82
7180	2.7717	4.3636	0.1	767.33
7181	2.7717	4.5455	0.1	693.17
7182	2.7717	4.7273	0.1	612.24
7183	2.7717	4.9091	0.1	525.64
7184	2.7717	5.0909	0.1	434.63
7185	2.7717	5.2727	0.1	340.53
7186	2.7717	5.4545	0.1	244.75
7187	2.7717	5.6364	0.1	148.15
7188	2.7717	5.8182	0.1	49.199
7189	2.9565	0.18182	0.1	49.263
7190	2.9565	0.36364	0.1	139.8
7191	2.9565	0.54545	0.1	228.26
7192	2.9565	0.72727	0.1	315.92
7193	2.9565	0.90909	0.1	402.04
7194	2.9565	1.0909	0.1	485.46
7195	2.9565	1.2727	0.1	565.
7196	2.9565	1.4545	0.1	639.56
7197	2.9565	1.6364	0.1	708.14
7198	2.9565	1.8182	0.1	769.84
7199	2.9565	2.	0.1	823.94
7200	2.9565	2.1818	0.1	869.82
7201	2.9565	2.3636	0.1	907.03
7202	2.9565	2.5455	0.1	935.22
7203	2.9565	2.7273	0.1	954.14
7204	2.9565	2.9091	0.1	963.64
7205	2.9565	3.0909	0.1	963.64
7206	2.9565	3.2727	0.1	954.14
7207	2.9565	3.4545	0.1	935.22
7208	2.9565	3.6364	0.1	907.03
7209	2.9565	3.8182	0.1	869.82
7210	2.9565	4.	0.1	823.94
7211	2.9565	4.1818	0.1	769.84
7212	2.9565	4.3636	0.1	708.14
7213	2.9565	4.5455	0.1	639.56
7214	2.9565	4.7273	0.1	565.
7215	2.9565	4.9091	0.1	485.46
7216	2.9565	5.0909	0.1	402.04
7217	2.9565	5.2727	0.1	315.92
7218	2.9565	5.4545	0.1	228.26
7219	2.9565	5.6364	0.1	139.8
7220	2.9565	5.8182	0.1	49.263
7221	3.1413	0.18182	0.1	48.667
7222	3.1413	0.36364	0.1	131.5
7223	3.1413	0.54545	0.1	212.55
7224	3.1413	0.72727	0.1	292.82
7225	3.1413	0.90909	0.1	371.73
7226	3.1413	1.0909	0.1	448.24
7227	3.1413	1.2727	0.1	521.35
7228	3.1413	1.4545	0.1	590.05
7229	3.1413	1.6364	0.1	653.41
7230	3.1413	1.8182	0.1	710.62
7231	3.1413	2.	0.1	760.92
7232	3.1413	2.1818	0.1	803.72
7233	3.1413	2.3636	0.1	838.53
7234	3.1413	2.5455	0.1	864.95
7235	3.1413	2.7273	0.1	882.71
7236	3.1413	2.9091	0.1	891.64
7237	3.1413	3.0909	0.1	891.64
7238	3.1413	3.2727	0.1	882.71
7239	3.1413	3.4545	0.1	864.95
7240	3.1413	3.6364	0.1	838.53
7241	3.1413	3.8182	0.1	803.72
7242	3.1413	4.	0.1	760.92
7243	3.1413	4.1818	0.1	710.62
7244	3.1413	4.3636	0.1	653.41
7245	3.1413	4.5455	0.1	590.05
7246	3.1413	4.7273	0.1	521.35
7247	3.1413	4.9091	0.1	448.24
7248	3.1413	5.0909	0.1	371.73
7249	3.1413	5.2727	0.1	292.82
7250	3.1413	5.4545	0.1	212.55
7251	3.1413	5.6364	0.1	131.5
7252	3.1413	5.8182	0.1	48.667
7253	3.3261	0.18182	0.1	47.495
7254	3.3261	0.36364	0.1	123.22
7255	3.3261	0.54545	0.1	197.46
7256	3.3261	0.72727	0.1	271.01
7257	3.3261	0.90909	0.1	343.34
7258	3.3261	1.0909	0.1	413.57
7259	3.3261	1.2727	0.1	480.8
7260	3.3261	1.4545	0.1	544.14
7261	3.3261	1.6364	0.1	602.71
7262	3.3261	1.8182	0.1	655.73
7263	3.3261	2.	0.1	702.49
7264	3.3261	2.1818	0.1	742.38
7265	3.3261	2.3636	0.1	774.89
7266	3.3261	2.5455	0.1	799.62
7267	3.3261	2.7273	0.1	816.27
7268	3.3261	2.9091	0.1	824.65
7269	3.3261	3.0909	0.1	824.65
7270	3.3261	3.2727	0.1	816.27
7271	3.3261	3.4545	0.1	799.62
7272	3.3261	3.6364	0.1	774.89
7273	3.3261	3.8182	0.1	742.38
7274	3.3261	4.	0.1	702.49
7275	3.3261	4.1818	0.1	655.73
7276	3.3261	4.3636	0.1	602.71
7277	3.3261	4.5455	0.1	544.14
7278	3.3261	4.7273	0.1	480.8
7279	3.3261	4.9091	0.1	413.57
7280	3.3261	5.0909	0.1	343.34
7281	3.3261	5.2727	0.1	271.01
7282	3.3261	5.4545	0.1	197.46
7283	3.3261	5.6364	0.1	123.22
7284	3.3261	5.8182	0.1	47.495
7285	3.5109	0.18182	0.1	45.82
7286	3.5109	0.36364	0.1	114.94
7287	3.5109	0.54545	0.1	182.89
7288	3.5109	0.72727	0.1	250.26
7289	3.5109	0.90909	0.1	316.58
7290	3.5109	1.0909	0.1	381.1
7291	3.5109	1.2727	0.1	442.98
7292	3.5109	1.4545	0.1	501.42
7293	3.5109	1.6364	0.1	555.62
7294	3.5109	1.8182	0.1	604.8
7295	3.5109	2.	0.1	648.3
7296	3.5109	2.1818	0.1	685.5
7297	3.5109	2.3636	0.1	715.88
7298	3.5109	2.5455	0.1	739.03
7299	3.5109	2.7273	0.1	754.64
7300	3.5109	2.9091	0.1	762.5
7301	3.5109	3.0909	0.1	762.5
7302	3.5109	3.2727	0.1	754.64
7303	3.5109	3.4545	0.1	739.03
7304	3.5109	3.6364	0.1	715.88
7305	3.5109	3.8182	0.1	685.5
7306	3.5109	4.	0.1	648.3
7307	3.5109	4.1818	0.1	604.8
7308	3.5109	4.3636	0.1	555.62
7309	3.5109	4.5455	0.1	501.42
7310	3.5109	4.7273	0.1	442.98
7311	3.5109	4.9091	0.1	381.1
7312	3.5109	5.0909	0.1	316.58
7313	3.5109	5.2727	0.1	250.26
7314	3.5109	5.4545	0.1	182.89
7315	3.5109	5.6364	0.1	114.94
7316	3.5109	5.8182	0.1	45.82
7317	3.6957	0.18182	0.1	43.706
7318	3.6957	0.36364	0.1	106.65
7319	3.6957	0.54545	0.1	168.75
7320	3.6957	0.72727	0.1	230.4
7321	3.6957	0.90909	0.1	291.22
7322	3.6957	1.0909	0.1	350.51
7323	3.6957	1.2727	0.1	407.54
7324	3.6957	1.4545	0.1	461.55
7325	3.6957	1.6364	0.1	511.77
7326	3.6957	1.8182	0.1	557.49
7327	3.6957	2.	0.1	598.03
7328	3.6957	2.1818	0.1	632.78
7329	3.6957	2.3636	0.1	661.23
7330	3.6957	2.5455	0.1	682.95
7331	3.6957	2.7273	0.1	697.61
7332	3.6957	2.9091	0.1	705.
7333	3.6957	3.0909	0.1	705.
7334	3.6957	3.2727	0.1	697.61
7335	3.6957	3.4545	0.1	682.95
7336	3.6957	3.6364	0.1	661.23
7337	3.6957	3.8182	0.1	632.78
7338	3.6957	4.	0.1	598.03
7339	3.6957	4.1818	0.1	557.49
7340	3.6957	4.3636	0.1	511.77
7341	3.6957	4.5455	0.1	461.55
7342	3.6957	4.7273	0.1	407.54
7343	3.6957	4.9091	0.1	350.51
7344	3.6957	5.0909	0.1	291.22
7345	3.6957	5.2727	0.1	230.4
7346	3.6957	5.4545	0.1	168.75
7347	3.6957	5.6364	0.1	106.65
7348	3.6957	5.8182	0.1	43.706
7349	3.8804	0.18182	0.1	41.204
7350	3.8804	0.36364	0.1	98.33
7351	3.8804	0.54545	0.1	154.92
7352	3.8804	0.72727	0.1	211.27
7353	3.8804	0.90909	0.1	267.02
7354	3.8804	1.0909	0.1	321.55
7355	3.8804	1.2727	0.1	374.18
7356	3.8804	1.4545	0.1	424.19
7357	3.8804	1.6364	0.1	470.86
7358	3.8804	1.8182	0.1	513.48
7359	3.8804	2.	0.1	551.38
7360	3.8804	2.1818	0.1	583.97
7361	3.8804	2.3636	0.1	610.7
7362	3.8804	2.5455	0.1	631.15
7363	3.8804	2.7273	0.1	644.97
7364	3.8804	2.9091	0.1	651.94
7365	3.8804	3.0909	0.1	651.94
7366	3.8804	3.2727	0.1	644.97
7367	3.8804	3.4545	0.1	631.15
7368	3.8804	3.6364	0.1	610.7
7369	3.8804	3.8182	0.1	583.97
7370	3.8804	4.	0.1	551.38
7371	3.8804	4.1818	0.1	513.48
7372	3.8804	4.3636	0.1	470.86
7373	3.8804	4.5455	0.1	424.19
7374	3.8804	4.7273	0.1	374.18
7375	3.8804	4.9091	0.1	321.55
7376	3.8804	5.0909	0.1	267.02
7377	3.8804	5.2727	0.1	211.27
7378	3.8804	5.4545	0.1	154.92
7379	3.8804	5.6364	0.1	98.33
7380	3.8804	5.8182	0.1	41.204
7381	4.0652	0.18182	0.1	38.353
7382	4.0652	0.36364	0.1	89.94
7383	4.0652	0.54545	0.1	141.33
7384	4.0652	0.72727	0.1	192.72
7385	4.0652	0.90909	0.1	243.79
7386	4.0652	1.0909	0.1	293.97
7387	4.0652	1.2727	0.1	342.62
7388	4.0652	1.4545	0.1	389.05
7389	4.0652	1.6364	0.1	432.56
7390	4.0652	1.8182	0.1	472.46
7391	4.0652	2.	0.1	508.07
7392	4.0652	2.1818	0.1	538.77
7393	4.0652	2.3636	0.1	564.03
7394	4.0652	2.5455	0.1	583.39
7395	4.0652	2.7273	0.1	596.5
7396	4.0652	2.9091	0.1	603.11
7397	4.0652	3.0909	0.1	603.11
7398	4.0652	3.2727	0.1	596.5
7399	4.0652	3.4545	0.1	583.39
7400	4.0652	3.6364	0.1	564.03
7401	4.0652	3.8182	0.1	538.77
7402	4.0652	4.	0.1	508.07
7403	4.0652	4.1818	0.1	472.46
7404	4.0652	4.3636	0.1	432.56
7405	4.0652	4.5455	0.1	389.05
7406	4.0652	4.7273	0.1	342.62
7407	4.0652	4.9091	0.1	293.97
7408	4.0652	5.0909	0.1	243.79
7409	4.0652	5.2727	0.1	192.72
7410	4.0652	5.4545	0.1	141.33
7411	4.0652	5.6364	0.1	89.94
7412	4.0652	5.8182	0.1	38.353
7413	4.25	0.18182	0.1	35.182
7414	4.25	0.36364	0.1	81.441
7415	4.25	0.54545	0.1	127.87
7416	4.25	0.72727	0.1	174.59
7417	4.25	0.90909	0.1	221.32
7418	4.25	1.0909	0.1	267.52
7419	4.25	1.2727	0.1	312.58
7420	4.25	1.4545	0.1	355.85
7421	4.25	1.6364	0.1	396.6
7422	4.25	1.8182	0.1	434.15
7423	4.25	2.	0.1	467.81
7424	4.25	2.1818	0.1	496.94
7425	4.25	2.3636	0.1	520.98
7426	4.25	2.5455	0.1	539.44
7427	4.25	2.7273	0.1	551.97
7428	4.25	2.9091	0.1	558.3
7429	4.25	3.0909	0.1	558.3
7430	4.25	3.2727	0.1	551.97
7431	4.25	3.4545	0.1	539.44
7432	4.25	3.6364	0.1	520.98
7433	4.25	3.8182	0.1	496.94
7434	4.25	4.	0.1	467.81
7435	4.25	4.1818	0.1	434.15
7436	4.25	4.3636	0.1	396.6
7437	4.25	4.5455	0.1	355.85
7438	4.25	4.7273	0.1	312.58
7439	4.25	4.9091	0.1	267.52
7440	4.25	5.0909	0.1	221.32
7441	4.25	5.2727	0.1	174.59
7442	4.25	5.4545	0.1	127.87
7443	4.25	5.6364	0.1	81.441
7444	4.25	5.8182	0.1	35.182
7445	4.4348	0.18182	0.1	31.706
7446	4.4348	0.36364	0.1	72.783
7447	4.4348	0.54545	0.1	114.43
7448	4.4348	0.72727	0.1	156.72
7449	4.4348	0.90909	0.1	199.41
7450	4.4348	1.0909	0.1	241.97
7451	4.4348	1.2727	0.1	283.83
7452	4.4348	1.4545	0.1	324.3
7453	4.4348	1.6364	0.1	362.69
7454	4.4348	1.8182	0.1	398.27
7455	4.4348	2.	0.1	430.33
7456	4.4348	2.1818	0.1	458.21
7457	4.4348	2.3636	0.1	481.29
7458	4.4348	2.5455	0.1	499.07
7459	4.4348	2.7273	0.1	511.16
7460	4.4348	2.9091	0.1	517.27
7461	4.4348	3.0909	0.1	517.27
7462	4.4348	3.2727	0.1	511.16
7463	4.4348	3.4545	0.1	499.07
7464	4.4348	3.6364	0.1	481.29
7465	4.4348	3.8182	0.1	458.21
7466	4.4348	4.	0.1	430.33
7467	4.4348	4.1818	0.1	398.27
7468	4.4348	4.3636	0.1	362.69
7469	4.4348	4.5455	0.1	324.3
7470	4.4348	4.7273	0.1	283.83
7471	4.4348	4.9091	0.1	241.97
7472	4.4348	5.0909	0.1	199.41
7473	4.4348	5.2727	0.1	156.72
7474	4.4348	5.4545	0.1	114.43
7475	4.4348	5.6364	0.1	72.783
7476	4.4348	5.8182	0.1	31.706
7477	4.6196	0.18182	0.1	27.931
7478	4.6196	0.36364	0.1	63.901
7479	4.6196	0.54545	0.1	100.89
7480	4.6196	0.72727	0.1	138.95
7481	4.6196	0.90909	0.1	177.85
7482	4.6196	1.0909	0.1	217.08
7483	4.6196	1.2727	0.1	256.08
7484	4.6196	1.4545	0.1	294.15
7485	4.6196	1.6364	0.1	330.56
7486	4.6196	1.8182	0.1	364.56
7487	4.6196	2.	0.1	395.38
7488	4.6196	2.1818	0.1	422.32
7489	4.6196	2.3636	0.1	444.73
7490	4.6196	2.5455	0.1	462.05
7491	4.6196	2.7273	0.1	473.85
7492	4.6196	2.9091	0.1	479.83
7493	4.6196	3.0909	0.1	479.83
7494	4.6196	3.2727	0.1	473.85
7495	4.6196	3.4545	0.1	462.05
7496	4.6196	3.6364	0.1	444.73
7497	4.6196	3.8182	0.1	422.32
7498	4.6196	4.	0.1	395.38
7499	4.6196	4.1818	0.1	364.56
7500	4.6196	4.3636	0.1	330.56
7501	4.6196	4.5455	0.1	294.15
7502	4.6196	4.7273	0.1	256.08
7503	4.6196	4.9091	0.1	217.08
7504	4.6196	5.0909	0.1	177.85
7505	4.6196	5.2727	0.1	138.95
7506	4.6196	5.4545	0.1	100.89
7507	4.6196	5.6364	0.1	63.901
7508	4.6196	5.8182	0.1	27.931
7509	4.8043	0.18182	0.1	23.85
7510	4.8043	0.36364	0.1	54.719
7511	4.8043	0.54545	0.1	87.122
7512	4.8043	0.72727	0.1	121.1
7513	4.8043	0.90909	0.1	156.42
7514	4.8043	1.0909	0.1	192.61
7515	4.8043	1.2727	0.1	229.07
7516	4.8043	1.4545	0.1	265.1
7517	4.8043	1.6364	0.1	299.92
7518	4.8043	1.8182	0.1	332.72
7519	4.8043	2.	0.1	362.68
7520	4.8043	2.1818	0.1	389.04
7521	4.8043	2.3636	0.1	411.06
7522	4.8043	2.5455	0.1	428.16
7523	4.8043	2.7273	0.1	439.83
7524	4.8043	2.9091	0.1	445.76
7525	4.8043	3.0909	0.1	445.76
7526	4.8043	3.2727	0.1	439.83
7527	4.8043	3.4545	0.1	428.16
7528	4.8043	3.6364	0.1	411.06
7529	4.8043	3.8182	0.1	389.04
7530	4.8043	4.	0.1	362.68
7531	4.8043	4.1818	0.1	332.72
7532	4.8043	4.3636	0.1	299.92
7533	4.8043	4.5455	0.1	265.1
7534	4.8043	4.7273	0.1	229.07
7535	4.8043	4.9091	0.1	192.61
7536	4.8043	5.0909	0.1	156.42
7537	4.8043	5.2727	0.1	121.1
7538	4.8043	5.4545	0.1	87.122
7539	4.8043	5.6364	0.1	54.719
7540	4.8043	5.8182	0.1	23.85
7541	4.9891	0.18182	0.1	19.447
7542	4.9891	0.36364	0.1	45.148
7543	4.9891	0.54545	0.1	72.972
7544	4.9891	0.72727	0.1	102.96
7545	4.9891	0.90909	0.1	134.89
7546	4.9891	1.0909	0.1	168.29
7547	4.9891	1.2727	0.1	202.53
7548	4.9891	1.4545	0.1	236.87
7549	4.9891	1.6364	0.1	270.48
7550	4.9891	1.8182	0.1	302.47
7551	4.9891	2.	0.1	331.97
7552	4.9891	2.1818	0.1	358.09
7553	4.9891	2.3636	0.1	380.05
7554	4.9891	2.5455	0.1	397.16
7555	4.9891	2.7273	0.1	408.88
7556	4.9891	2.9091	0.1	414.84
7557	4.9891	3.0909	0.1	414.84
7558	4.9891	3.2727	0.1	408.88
7559	4.9891	3.4545	0.1	397.16
7560	4.9891	3.6364	0.1	380.05
7561	4.9891	3.8182	0.1	358.09
7562	4.9891	4.	0.1	331.97
7563	4.9891	4.1818	0.1	302.48
7564	4.9891	4.3636	0.1	270.48
7565	4.9891	4.5455	0.1	236.87
7566	4.9891	4.7273	0.1	202.53
7567	4.9891	4.9091	0.1	168.29
7568	4.9891	5.0909	0.1	134.89
7569	4.9891	5.2727	0.1	102.96
7570	4.9891	5.4545	0.1	72.972
7571	4.9891	5.6364	0.1	45.148
7572	4.9891	5.8182	0.1	19.447
7573	5.1739	0.18182	0.1	14.695
7574	5.1739	0.36364	0.1	35.087
7575	5.1739	0.54545	0.1	58.286
7576	5.1739	0.72727	0.1	84.34
7577	5.1739	0.90909	0.1	113.02
7578	5.1739	1.0909	0.1	143.84
7579	5.1739	1.2727	0.1	176.15
7580	5.1739	1.4545	0.1	209.14
7581	5.1739	1.6364	0.1	241.93
7582	5.1739	1.8182	0.1	273.52
7583	5.1739	2.	0.1	302.94
7584	5.1739	2.1818	0.1	329.2
7585	5.1739	2.3636	0.1	351.42
7586	5.1739	2.5455	0.1	368.81
7587	5.1739	2.7273	0.1	380.77
7588	5.1739	2.9091	0.1	386.86
7589	5.1739	3.0909	0.1	386.86
7590	5.1739	3.2727	0.1	380.77
7591	5.1739	3.4545	0.1	368.81
7592	5.1739	3.6364	0.1	351.42
7593	5.1739	3.8182	0.1	329.2
7594	5.1739	4.	0.1	302.94
7595	5.1739	4.1818	0.1	273.52
7596	5.1739	4.3636	0.1	241.93
7597	5.1739	4.5455	0.1	209.14
7598	5.1739	4.7273	0.1	176.15
7599	5.1739	4.9091	0.1	143.84
7600	5.1739	5.0909	0.1	113.02
7601	5.1739	5.2727	0.1	84.34
7602	5.1739	5.4545	0.1	58.286
7603	5.1739	5.6364	0.1	35.087
7604	5.1739	5.8182	0.1	14.695
7605	5.3587	0.18182	0.1	9.5598
7606	5.3587	0.36364	0.1	24.431
7607	5.3587	0.54545	0.1	42.898
7608	5.3587	0.72727	0.1	65.016
7609	5.3587	0.90909	0.1	90.539
7610	5.3587	1.0909	0.1	118.97
7611	5.3587	1.2727	0.1	149.6
7612	5.3587	1.4545	0.1	181.59
7613	5.3587	1.6364	0.1	213.93
7614	5.3587	1.8182	0.1	245.53
7615	5.3587	2.	0.1	275.29
7616	5.3587	2.1818	0.1	302.09
7617	5.3587	2.3636	0.1	324.91
7618	5.3587	2.5455	0.1	342.86
7619	5.3587	2.7273	0.1	355.24
7620	5.3587	2.9091	0.1	361.56
7621	5.3587	3.0909	0.1	361.56
7622	5.3587	3.2727	0.1	355.24
7623	5.3587	3.4545	0.1	342.86
7624	5.3587	3.6364	0.1	324.91
7625	5.3587	3.8182	0.1	302.09
7626	5.3587	4.	0.1	275.29
7627	5.3587	4.1818	0.1	245.53
7628	5.3587	4.3636	0.1	213.93
7629	5.3587	4.5455	0.1	181.59
7630	5.3587	4.7273	0.1	149.6
7631	5.3587	4.9091	0.1	118.97
7632	5.3587	5.0909	0.1	90.539
7633	5.3587	5.2727	0.1	65.016
7634	5.3587	5.4545	0.1	42.898
7635	5.3587	5.6364	0.1	24.431
7636	5.3587	5.8182	0.1	9.5598
7637	5.5435	0.18182	0.1	4.0341
7638	5.5435	0.36364	0.1	13.092
7639	5.5435	0.54545	0.1	26.656
7640	5.5435	0.72727	0.1	44.776
7641	5.5435	0.90909	0.1	67.185
7642	5.5435	1.0909	0.1	93.359
7643	5.5435	1.2727	0.1	122.56
7644	5.5435	1.4545	0.1	153.84
7645	5.5435	1.6364	0.1	186.11
7646	5.5435	1.8182	0.1	218.14
7647	5.5435	2.	0.1	248.66
7648	5.5435	2.1818	0.1	276.4
7649	5.5435	2.3636	0.1	300.19
7650	5.5435	2.5455	0.1	319.
7651	5.5435	2.7273	0.1	332.01
7652	5.5435	2.9091	0.1	338.66
7653	5.5435	3.0909	0.1	338.66
7654	5.5435	3.2727	0.1	332.01
7655	5.5435	3.4545	0.1	319.
7656	5.5435	3.6364	0.1	300.19
7657	5.5435	3.8182	0.1	276.4
7658	5.5435	4.	0.1	248.66
7659	5.5435	4.1818	0.1	218.14
7660	5.5435	4.3636	0.1	186.11
7661	5.5435	4.5455	0.1	153.84
7662	5.5435	4.7273	0.1	122.56
7663	5.5435	4.9091	0.1	93.359
7664	5.5435	5.0909	0.1	67.185
7665	5.5435	5.2727	0.1	44.776
7666	5.5435	5.4545	0.1	26.656
7667	5.5435	5.6364	0.1	13.092
7668	5.5435	5.8182	0.1	4.0341
7669	5.7283	0.18182	0.1	9.4543e-002
7670	5.7283	0.36364	0.1	1.7078
7671	5.7283	0.54545	0.1	9.5699
7672	5.7283	0.72727	0.1	23.469
7673	5.7283	0.90909	0.1	42.706
7674	5.7283	1.0909	0.1	66.689
7675	5.7283	1.2727	0.1	94.617
7676	5.7283	1.4545	0.1	125.47
7677	5.7283	1.6364	0.1	158.02
7678	5.7283	1.8182	0.1	190.9
7679	5.7283	2.	0.1	222.63
7680	5.7283	2.1818	0.1	251.75
7681	5.7283	2.3636	0.1	276.89
7682	5.7283	2.5455	0.1	296.86
7683	5.7283	2.7273	0.1	310.71
7684	5.7283	2.9091	0.1	317.81
7685	5.7283	3.0909	0.1	317.81
7686	5.7283	3.2727	0.1	310.71
7687	5.7283	3.4545	0.1	296.86
7688	5.7283	3.6364	0.1	276.89
7689	5.7283	3.8182	0.1	251.75
7690	5.7283	4.	0.1	222.63
7691	5.7283	4.1818	0.1	190.9
7692	5.7283	4.3636	0.1	158.02
7693	5.7283	4.5455	0.1	125.47
7694	5.7283	4.7273	0.1	94.617
7695	5.7283	4.9091	0.1	66.689
7696	5.7283	5.0909	0.1	42.706
7697	5.7283	5.2727	0.1	23.469
7698	5.7283	5.4545	0.1	9.5699
7699	5.7283	5.6364	0.1	1.7078
7700	5.7283	5.8182	0.1	9.4545e-002
7701	5.913	0.18182	0.1	-4.6454e-002
7702	5.913	0.36364	0.1	0.11452
7703	5.913	0.54545	0.1	0.39019
7704	5.913	0.72727	0.1	2.9943
7705	5.913	0.90909	0.1	17.109
7706	5.913	1.0909	0.1	38.673
7707	5.913	1.2727	0.1	65.373
7708	5.913	1.4545	0.1	95.996
7709	5.913	1.6364	0.1	129.16
7710	5.913	1.8182	0.1	163.3
7711	5.913	2.	0.1	196.7
7712	5.913	2.1818	0.1	227.65
7713	5.913	2.3636	0.1	254.55
7714	5.913	2.5455	0.1	275.99
7715	5.913	2.7273	0.1	290.9
7716	5.913	2.9091	0.1	298.55
7717	5.913	3.0909	0.1	298.55
7718	5.913	3.2727	0.1	290.9
7719	5.913	3.4545	0.1	275.99
7720	5.913	3.6364	0.1	254.55
7721	5.913	3.8182	0.1	227.65
7722	5.913	4.	0.1	196.7
7723	5.913	4.1818	0.1	163.3
7724	5.913	4.3636	0.1	129.16
7725	5.913	4.5455	0.1	95.996
7726	5.913	4.7273	0.1	65.373
7727	5.913	4.9091	0.1	38.673
7728	5.913	5.0909	0.1	17.109
7729	5.913	5.2727	0.1	2.9943
7730	5.913	5.4545	0.1	0.3902
7731	5.913	5.6364	0.1	0.11452
7732	5.913	5.8182	0.1	-4.6452e-002
7733	6.0978	0.18182	0.1	-6.1046e-002
7734	6.0978	0.36364	0.1	7.2614e-002
7735	6.0978	0.54545	0.1	0.11329
7736	6.0978	0.72727	0.1	0.3607
7737	6.0978	0.90909	0.1	1.2013
7738	6.0978	1.0909	0.1	10.187
7739	6.0978	1.2727	0.1	34.514
7740	6.0978	1.4545	0.1	64.87
7741	6.0978	1.6364	0.1	98.892
7742	6.0978	1.8182	0.1	134.69
7743	6.0978	2.	0.1	170.24
7744	6.0978	2.1818	0.1	203.5
7745	6.0978	2.3636	0.1	232.56
7746	6.0978	2.5455	0.1	255.8
7747	6.0978	2.7273	0.1	271.97
7748	6.0978	2.9091	0.1	280.26
7749	6.0978	3.0909	0.1	280.26
7750	6.0978	3.2727	0.1	271.97
7751	6.0978	3.4545	0.1	255.8
7752	6.0978	3.6364	0.1	232.56
7753	6.0978	3.8182	0.1	203.5
7754	6.0978	4.	0.1	170.24
7755	6.0978	4.1818	0.1	134.69
7756	6.0978	4.3636	0.1	98.892
7757	6.0978	4.5455	0.1	64.87
7758	6.0978	4.7273	0.1	34.514
7759	6.0978	4.9091	0.1	10.187
7760	6.0978	5.0909	0.1	1.2013
7761	6.0978	5.2727	0.1	0.3607
7762	6.0978	5.4545	0.1	0.11329
7763	6.0978	5.6364	0.1	7.2616e-002
7764	6.0978	5.8182	0.1	-6.1045e-002
7765	6.2826	0.18182	0.1	-7.1782e-002
7766	6.2826	0.36364	0.1	7.981e-002
7767	6.2826	0.54545	0.1	6.0793e-002
7768	6.2826	0.72727	0.1	0.20627
7769	6.2826	0.90909	0.1	0.44573
7770	6.2826	1.0909	0.1	1.0894
7771	6.2826	1.2727	0.1	5.9238
7772	6.2826	1.4545	0.1	31.741
7773	6.2826	1.6364	0.1	66.452
7774	6.2826	1.8182	0.1	104.23
7775	6.2826	2.	0.1	142.42
7776	6.2826	2.1818	0.1	178.49
7777	6.2826	2.3636	0.1	210.15
7778	6.2826	2.5455	0.1	235.48
7779	6.2826	2.7273	0.1	253.09
7780	6.2826	2.9091	0.1	262.11
7781	6.2826	3.0909	0.1	262.11
7782	6.2826	3.2727	0.1	253.09
7783	6.2826	3.4545	0.1	235.48
7784	6.2826	3.6364	0.1	210.15
7785	6.2826	3.8182	0.1	178.49
7786	6.2826	4.	0.1	142.42
7787	6.2826	4.1818	0.1	104.23
7788	6.2826	4.3636	0.1	66.452
7789	6.2826	4.5455	0.1	31.742
7790	6.2826	4.7273	0.1	5.9238
7791	6.2826	4.9091	0.1	1.0894
7792	6.2826	5.0909	0.1	0.44573
7793	6.2826	5.2727	0.1	0.20627
7794	6.2826	5.4545	0.1	6.0794e-002
7795	6.2826	5.6364	0.1	7.9812e-002
7796	6.2826	5.8182	0.1	-7.178e-002
7797	6.4674	0.18182	0.1	-9.3909e-002
7798	6.4674	0.36364	0.1	9.7528e-002
7799	6.4674	0.54545	0.1	4.4816e-002
7800	6.4674	0.72727	0.1	0.17166
7801	6.4674	0.90909	0.1	0.32762
7802	6.4674	1.0909	0.1	0.60411
7803	6.4674	1.2727	0.1	1.25
7804	6.4674	1.4545	0.1	4.8174
7805	6.4674	1.6364	0.1	31.386
7806	6.4674	1.8182	0.1	70.877
7807	6.4674	2.	0.1	112.15
7808	6.4674	2.1818	0.1	151.58
7809	6.4674	2.3636	0.1	186.27
7810	6.4674	2.5455	0.1	213.95
7811	6.4674	2.7273	0.1	233.11
7812	6.4674	2.9091	0.1	242.88
7813	6.4674	3.0909	0.1	242.88
7814	6.4674	3.2727	0.1	233.11
7815	6.4674	3.4545	0.1	213.95
7816	6.4674	3.6364	0.1	186.27
7817	6.4674	3.8182	0.1	151.58
7818	6.4674	4.	0.1	112.15
7819	6.4674	4.1818	0.1	70.877
7820	6.4674	4.3636	0.1	31.386
7821	6.4674	4.5455	0.1	4.8174
7822	6.4674	4.7273	0.1	1.25
7823	6.4674	4.9091	0.1	0.60411
7824	6.4674	5.0909	0.1	0.32762
7825	6.4674	5.2727	0.1	0.17166
7826	6.4674	5.4545	0.1	4.4817e-002
7827	6.4674	5.6364	0.1	9.753e-002
7828	6.4674	5.8182	0.1	-9.3908e-002
7829	6.6522	0.18182	0.1	-0.13603
7830	6.6522	0.36364	0.1	0.11686
7831	6.6522	0.54545	0.1	4.4685e-002
7832	6.6522	0.72727	0.1	0.17445
7833	6.6522	0.90909	0.1	0.30648
7834	6.6522	1.0909	0.1	0.50229
7835	6.6522	1.2727	0.1	0.82449
7836	6.6522	1.4545	0.1	1.5501
7837	6.6522	1.6364	0.1	5.0943
7838	6.6522	1.8182	0.1	33.891
7839	6.6522	2.	0.1	78.019
7840	6.6522	2.1818	0.1	121.35
7841	6.6522	2.3636	0.1	159.49
7842	6.6522	2.5455	0.1	189.7
7843	6.6522	2.7273	0.1	210.39
7844	6.6522	2.9091	0.1	220.85
7845	6.6522	3.0909	0.1	220.85
7846	6.6522	3.2727	0.1	210.39
7847	6.6522	3.4545	0.1	189.7
7848	6.6522	3.6364	0.1	159.49
7849	6.6522	3.8182	0.1	121.35
7850	6.6522	4.	0.1	78.02
7851	6.6522	4.1818	0.1	33.891
7852	6.6522	4.3636	0.1	5.0943
7853	6.6522	4.5455	0.1	1.5501
7854	6.6522	4.7273	0.1	0.8245
7855	6.6522	4.9091	0.1	0.50229
7856	6.6522	5.0909	0.1	0.30648
7857	6.6522	5.2727	0.1	0.17445
7858	6.6522	5.4545	0.1	4.4686e-002
7859	6.6522	5.6364	0.1	0.11686
7860	6.6522	5.8182	0.1	-0.13603
7861	6.837	0.18182	0.1	-0.20461
7862	6.837	0.36364	0.1	0.13362
7863	6.837	0.54545	0.1	5.7126e-002
7864	6.837	0.72727	0.1	0.20104
7865	6.837	0.90909	0.1	0.32808
7866	6.837	1.0909	0.1	0.49465
7867	6.837	1.2727	0.1	0.72417
7868	6.837	1.4545	0.1	1.1062
7869	6.837	1.6364	0.1	1.9598
7870	6.837	1.8182	0.1	6.0652
7871	6.837	2.	0.1	38.821
7872	6.837	2.1818	0.1	85.931
7873	6.837	2.3636	0.1	127.9
7874	6.837	2.5455	0.1	160.63
7875	6.837	2.7273	0.1	182.6
7876	6.837	2.9091	0.1	193.52
7877	6.837	3.0909	0.1	193.52
7878	6.837	3.2727	0.1	182.6
7879	6.837	3.4545	0.1	160.63
7880	6.837	3.6364	0.1	127.9
7881	6.837	3.8182	0.1	85.931
7882	6.837	4.	0.1	38.821
7883	6.837	4.1818	0.1	6.0653
7884	6.837	4.3636	0.1	1.9598
7885	6.837	4.5455	0.1	1.1062
7886	6.837	4.7273	0.1	0.72418
7887	6.837	4.9091	0.1	0.49465
7888	6.837	5.0909	0.1	0.32808
7889	6.837	5.2727	0.1	0.20104
7890	6.837	5.4545	0.1	5.7126e-002
7891	6.837	5.6364	0.1	0.13362
7892	6.837	5.8182	0.1	-0.20461
7893	7.0217	0.18182	0.1	-0.30194
7894	7.0217	0.36364	0.1	0.14537
7895	7.0217	0.54545	0.1	8.3891e-002
7896	7.0217	0.72727	0.1	0.24991
7897	7.0217	0.90909	0.1	0.38155
7898	7.0217	1.0909	0.1	0.53602
7899	7.0217	1.2727	0.1	0.72317
7900	7.0217	1.4545	0.1	0.98922
7901	7.0217	1.6364	0.1	1.4339
7902	7.0217	1.8182	0.1	2.4267
7903	7.0217	2.	0.1	7.318
7904	7.0217	2.1818	0.1	43.495
7905	7.0217	2.3636	0.1	88.897
7906	7.0217	2.5455	0.1	123.8
7907	7.0217	2.7273	0.1	146.38
7908	7.0217	2.9091	0.1	157.25
7909	7.0217	3.0909	0.1	157.25
7910	7.0217	3.2727	0.1	146.38
7911	7.0217	3.4545	0.1	123.8
7912	7.0217	3.6364	0.1	88.897
7913	7.0217	3.8182	0.1	43.495
7914	7.0217	4.	0.1	7.318
7915	7.0217	4.1818	0.1	2.4267
7916	7.0217	4.3636	0.1	1.4339
7917	7.0217	4.5455	0.1	0.98922
7918	7.0217	4.7273	0.1	0.72317
7919	7.0217	4.9091	0.1	0.53602
7920	7.0217	5.0909	0.1	0.38155
7921	7.0217	5.2727	0.1	0.24991
7922	7.0217	5.4545	0.1	8.3892e-002
7923	7.0217	5.6364	0.1	0.14537
7924	7.0217	5.8182	0.1	-0.30193
7925	7.2065	0.18182	0.1	-0.41507
7926	7.2065	0.36364	0.1	0.15658
7927	7.2065	0.54545	0.1	0.13399
7928	7.2065	0.72727	0.1	0.32699
7929	7.2065	0.90909	0.1	0.46954
7930	7.2065	1.0909	0.1	0.61975
7931	7.2065	1.2727	0.1	0.78413
7932	7.2065	1.4545	0.1	0.99807
7933	7.2065	1.6364	0.1	1.3086
7934	7.2065	1.8182	0.1	1.7889
7935	7.2065	2.	0.1	2.807
7936	7.2065	2.1818	0.1	7.4297
7937	7.2065	2.3636	0.1	39.758
7938	7.2065	2.5455	0.1	75.151
7939	7.2065	2.7273	0.1	96.929
7940	7.2065	2.9091	0.1	106.81
7941	7.2065	3.0909	0.1	106.81
7942	7.2065	3.2727	0.1	96.929
7943	7.2065	3.4545	0.1	75.151
7944	7.2065	3.6364	0.1	39.758
7945	7.2065	3.8182	0.1	7.4298
7946	7.2065	4.	0.1	2.807
7947	7.2065	4.1818	0.1	1.7889
7948	7.2065	4.3636	0.1	1.3086
7949	7.2065	4.5455	0.1	0.99807
7950	7.2065	4.7273	0.1	0.78413
7951	7.2065	4.9091	0.1	0.61975
7952	7.2065	5.0909	0.1	0.46954
7953	7.2065	5.2727	0.1	0.32699
7954	7.2065	5.4545	0.1	0.13399
7955	7.2065	5.6364	0.1	0.15658
7956	7.2065	5.8182	0.1	-0.41507
7957	7.3913	0.18182	0.1	-0.50743
7958	7.3913	0.36364	0.1	0.17796
7959	7.3913	0.54545	0.1	0.21617
7960	7.3913	0.72727	0.1	0.43162
7961	7.3913	0.90909	0.1	0.58452
7962	7.3913	1.0909	0.1	0.73872
7963	7.3913	1.2727	0.1	0.8999
7964	7.3913	1.4545	0.1	1.0578
7965	7.3913	1.6364	0.1	1.2221
7966	7.3913	1.8182	0.1	1.5271
7967	7.3913	2.	0.1	1.7609
7968	7.3913	2.1818	0.1	2.1657
7969	7.3913	2.3636	0.1	3.4244
7970	7.3913	2.5455	0.1	11.868
7971	7.3913	2.7273	0.1	27.736
7972	7.3913	2.9091	0.1	34.941
7973	7.3913	3.0909	0.1	34.941
7974	7.3913	3.2727	0.1	27.736
7975	7.3913	3.4545	0.1	11.868
7976	7.3913	3.6364	0.1	3.4245
7977	7.3913	3.8182	0.1	2.1658
7978	7.3913	4.	0.1	1.7609
7979	7.3913	4.1818	0.1	1.5271
7980	7.3913	4.3636	0.1	1.2221
7981	7.3913	4.5455	0.1	1.0578
7982	7.3913	4.7273	0.1	0.8999
7983	7.3913	4.9091	0.1	0.73872
7984	7.3913	5.0909	0.1	0.58452
7985	7.3913	5.2727	0.1	0.43162
7986	7.3913	5.4545	0.1	0.21617
7987	7.3913	5.6364	0.1	0.17796
7988	7.3913	5.8182	0.1	-0.50743
7989	7.5761	0.18182	0.1	-0.43528
7990	7.5761	0.36364	0.1	0.29415
7991	7.5761	0.54545	0.1	0.39735
7992	7.5761	0.72727	0.1	0.60469
7993	7.5761	0.90909	0.1	0.76752
7994	7.5761	1.0909	0.1	0.94281
7995	7.5761	1.2727	0.1	1.0959
7996	7.5761	1.4545	0.1	1.3286
7997	7.5761	1.6364	0.1	1.8112
7998	7.5761	1.8182	0.1	1.7114
7999	7.5761	2.	0.1	2.0971
8000	7.5761	2.1818	0.1	1.8508
8001	7.5761	2.3636	0.1	0.39883
8002	7.5761	2.5455	0.1	-0.36226
8003	7.5761	2.7273	0.1	-0.64968
8004	7.5761	2.9091	0.1	-0.74662
8005	7.5761	3.0909	0.1	-0.74662
8006	7.5761	3.2727	0.1	-0.64968
8007	7.5761	3.4545	0.1	-0.36226
8008	7.5761	3.6364	0.1	0.39883
8009	7.5761	3.8182	0.1	1.8508
8010	7.5761	4.	0.1	2.0971
8011	7.5761	4.1818	0.1	1.7114
8012	7.5761	4.3636	0.1	1.8112
8013	7.5761	4.5455	0.1	1.3286
8014	7.5761	4.7273	0.1	1.0959
8015	7.5761	4.9091	0.1	0.94281
8016	7.5761	5.0909	0.1	0.76753
8017	7.5761	5.2727	0.1	0.60469
8018	7.5761	5.4545	0.1	0.39735
8019	7.5761	5.6364	0.1	0.29415
8020	7.5761	5.8182	0.1	-0.43528
8021	7.7609	0.18182	0.1	-2.6792e-002
8022	7.7609	0.36364	0.1	0.5536
8023	7.7609	0.54545	0.1	0.63443
8024	7.7609	0.72727	0.1	0.73648
8025	7.7609	0.90909	0.1	0.85014
8026	7.7609	1.0909	0.1	0.98829
8027	7.7609	1.2727	0.1	1.3382
8028	7.7609	1.4545	0.1	1.7321
8029	7.7609	1.6364	0.1	0.27573
8030	7.7609	1.8182	0.1	1.331
8031	7.7609	2.	0.1	-1.419
8032	7.7609	2.1818	0.1	-3.0039
8033	7.7609	2.3636	0.1	-0.46232
8034	7.7609	2.5455	0.1	-1.1013
8035	7.7609	2.7273	0.1	-0.94859
8036	7.7609	2.9091	0.1	-0.79706
8037	7.7609	3.0909	0.1	-0.79706
8038	7.7609	3.2727	0.1	-0.94859
8039	7.7609	3.4545	0.1	-1.1013
8040	7.7609	3.6364	0.1	-0.46232
8041	7.7609	3.8182	0.1	-3.0039
8042	7.7609	4.	0.1	-1.419
8043	7.7609	4.1818	0.1	1.331
8044	7.7609	4.3636	0.1	0.27573
8045	7.7609	4.5455	0.1	1.7321
8046	7.7609	4.7273	0.1	1.3382
8047	7.7609	4.9091	0.1	0.98829
8048	7.7609	5.0909	0.1	0.85014
8049	7.7609	5.2727	0.1	0.73648
8050	7.7609	5.4545	0.1	0.63444
8051	7.7609	5.6364	0.1	0.5536
8052	7.7609	5.8182	0.1	-2.679e-002
8053	7.9457	0.18182	0.1	1.9021
8054	7.9457	0.36364	0.1	1.8346
8055	7.9457	0.54545	0.1	1.5348
8056	7.9457	0.72727	0.1	1.3867
8057	7.9457	0.90909	0.1	1.3997
8058	7.9457	1.0909	0.1	1.7755
8059	7.9457	1.2727	0.1	2.0303
8060	7.9457	1.4545	0.1	2.1228
8061	7.9457	1.6364	0.1	9.4168
8062	7.9457	1.8182	0.1	5.1633
8063	7.9457	2.	0.1	13.443
8064	7.9457	2.1818	0.1	8.5582
8065	7.9457	2.3636	0.1	-5.68
8066	7.9457	2.5455	0.1	-0.80585
8067	7.9457	2.7273	0.1	-0.84399
8068	7.9457	2.9091	0.1	-0.58492
8069	7.9457	3.0909	0.1	-0.58492
8070	7.9457	3.2727	0.1	-0.84398
8071	7.9457	3.4545	0.1	-0.80585
8072	7.9457	3.6364	0.1	-5.68
8073	7.9457	3.8182	0.1	8.5582
8074	7.9457	4.	0.1	13.443
8075	7.9457	4.1818	0.1	5.1633
8076	7.9457	4.3636	0.1	9.4168
8077	7.9457	4.5455	0.1	2.1228
8078	7.9457	4.7273	0.1	2.0303
8079	7.9457	4.9091	0.1	1.7755
8080	7.9457	5.0909	0.1	1.3997
8081	7.9457	5.2727	0.1	1.3867
8082	7.9457	5.4545	0.1	1.5348
8083	7.9457	5.6364	0.1	1.8346
8084	7.9457	5.8182	0.1	1.9021
8085	8.1304	0.18182	0.1	4.914
8086	8.1304	0.36364	0.1	2.4098
8087	8.1304	0.54545	0.1	0.91478
8088	8.1304	0.72727	0.1	-2.8576e-002
8089	8.1304	0.90909	0.1	-0.4085
8090	8.1304	1.0909	0.1	-0.82845
8091	8.1304	1.2727	0.1	-0.62595
8092	8.1304	1.4545	0.1	-0.22236
8093	8.1304	1.6364	0.1	-5.0344
8094	8.1304	1.8182	0.1	-14.419
8095	8.1304	2.	0.1	-69.454
8096	8.1304	2.1818	0.1	-34.351
8097	8.1304	2.3636	0.1	5.7125
8098	8.1304	2.5455	0.1	-1.3039
8099	8.1304	2.7273	0.1	6.7466e-002
8100	8.1304	2.9091	0.1	0.15086
8101	8.1304	3.0909	0.1	0.15086
8102	8.1304	3.2727	0.1	6.7465e-002
8103	8.1304	3.4545	0.1	-1.3039
8104	8.1304	3.6364	0.1	5.7125
8105	8.1304	3.8182	0.1	-34.351
8106	8.1304	4.	0.1	-69.454
8107	8.1304	4.1818	0.1	-14.419
8108	8.1304	4.3636	0.1	-5.0344
8109	8.1304	4.5455	0.1	-0.22237
8110	8.1304	4.7273	0.1	-0.62595
8111	8.1304	4.9091	0.1	-0.82845
8112	8.1304	5.0909	0.1	-0.40849
8113	8.1304	5.2727	0.1	-2.8573e-002
8114	8.1304	5.4545	0.1	0.91478
8115	8.1304	5.6364	0.1	2.4098
8116	8.1304	5.8182	0.1	4.914
8117	8.3152	0.18182	0.1	21.097
8118	8.3152	0.36364	0.1	9.9015
8119	8.3152	0.54545	0.1	7.5088
8120	8.3152	0.72727	0.1	6.6113
8121	8.3152	0.90909	0.1	6.4756
8122	8.3152	1.0909	0.1	8.1919
8123	8.3152	1.2727	0.1	6.1424
8124	8.3152	1.4545	0.1	22.986
8125	8.3152	1.6364	0.1	-16.587
8126	8.3152	1.8182	0.1	130.49
8127	8.3152	2.	0.1	545.1
8128	8.3152	2.1818	0.1	-18.441
8129	8.3152	2.3636	0.1	15.628
8130	8.3152	2.5455	0.1	-5.1228
8131	8.3152	2.7273	0.1	3.1479
8132	8.3152	2.9091	0.1	0.59227
8133	8.3152	3.0909	0.1	0.59227
8134	8.3152	3.2727	0.1	3.1479
8135	8.3152	3.4545	0.1	-5.1228
8136	8.3152	3.6364	0.1	15.628
8137	8.3152	3.8182	0.1	-18.441
8138	8.3152	4.	0.1	545.1
8139	8.3152	4.1818	0.1	130.49
8140	8.3152	4.3636	0.1	-16.587
8141	8.3152	4.5455	0.1	22.986
8142	8.3152	4.7273	0.1	6.1424
8143	8.3152	4.9091	0.1	8.1919
8144	8.3152	5.0909	0.1	6.4756
8145	8.3152	5.2727	0.1	6.6113
8146	8.3152	5.4545	0.1	7.5088
8147	8.3152	5.6364	0.1	9.9015
8148	8.3152	5.8182	0.1	21.097
8149	8.6667	3.8182	0.1	-80.889
8150	8.6667	3.6364	0.1	36.891
8151	8.6667	3.4545	0.1	-1.5823
8152	8.6667	3.2727	0.1	3.8354
8153	8.6667	3.0909	0.1	1.8239
8154	8.6667	2.9091	0.1	1.8239
8155	8.6667	2.7273	0.1	3.8354
8156	8.6667	2.5455	0.1	-1.5823
8157	8.6667	2.3636	0.1	36.891
8158	8.6667	2.1818	0.1	-80.889
8159	8.5	3.8182	0.1	-159.65
8160	8.5	3.6364	0.1	34.911
8161	8.5	3.4545	0.1	-1.0154
8162	8.5	3.2727	0.1	3.8227
8163	8.5	3.0909	0.1	1.9619
8164	8.5	2.9091	0.1	1.9619
8165	8.5	2.7273	0.1	3.8227
8166	8.5	2.5455	0.1	-1.0154
8167	8.5	2.3636	0.1	34.911
8168	8.5	2.1818	0.1	-159.65
8169	8.6667	5.8182	0.1	-9.3433
8170	8.6667	5.6364	0.1	-13.618
8171	8.6667	5.4545	0.1	-13.858
8172	8.6667	5.2727	0.1	-15.447
8173	8.6667	5.0909	0.1	-18.034
8174	8.6667	4.9091	0.1	-20.279
8175	8.6667	4.7273	0.1	-29.865
8176	8.6667	4.5455	0.1	-26.546
8177	8.6667	4.3636	0.1	-103.43
8178	8.6667	4.1818	0.1	20.801
8179	8.6667	4.	0.1	1104.5
8180	8.5	4.	0.1	789.87
8181	8.5	4.1818	0.1	18.157
8182	8.5	4.3636	0.1	-111.27
8183	8.5	4.5455	0.1	-28.982
8184	8.5	4.7273	0.1	-33.617
8185	8.5	4.9091	0.1	-23.255
8186	8.5	5.0909	0.1	-21.051
8187	8.5	5.2727	0.1	-18.332
8188	8.5	5.4545	0.1	-16.675
8189	8.5	5.6364	0.1	-16.443
8190	8.5	5.8182	0.1	-12.05
8191	8.6667	0.18182	0.1	-9.3433
8192	8.6667	0.36364	0.1	-13.618
8193	8.6667	0.54545	0.1	-13.858
8194	8.6667	0.72727	0.1	-15.447
8195	8.6667	0.90909	0.1	-18.034
8196	8.6667	1.0909	0.1	-20.279
8197	8.6667	1.2727	0.1	-29.865
8198	8.6667	1.4545	0.1	-26.546
8199	8.6667	1.6364	0.1	-103.43
8200	8.6667	1.8182	0.1	20.801
8201	8.6667	2.	0.1	1104.5
8202	8.5	2.	0.1	789.87
8203	8.5	1.8182	0.1	18.157
8204	8.5	1.6364	0.1	-111.27
8205	8.5	1.4545	0.1	-28.982
8206	8.5	1.2727	0.1	-33.617
8207	8.5	1.0909	0.1	-23.255
8208	8.5	0.90909	0.1	-21.051
8209	8.5	0.72727	0.1	-18.332
8210	8.5	0.54545	0.1	-16.675
8211	8.5	0.36364	0.1	-16.443
8212	8.5	0.18182	0.1	-12.05
8213	8.6667	6.	0.1	30.92
8214	8.8514	6.	0.1	3.2656
8215	9.0361	6.	0.1	-2.632
8216	9.2209	6.	0.1	-0.61833
8217	9.4056	6.	0.1	-0.14666
8218	9.5904	6.	0.1	0.45765
8219	9.7751	6.	0.1	0.75959
8220	9.9598	6.	0.1	0.90773
8221	10.145	6.	0.1	0.92608
8222	10.329	6.	0.1	0.86608
8223	10.514	6.	0.1	0.76113
8224	10.699	6.	0.1	0.6365
8225	10.884	6.	0.1	0.50849
8226	11.068	6.	0.1	0.38702
8227	11.253	6.	0.1	0.27752
8228	11.438	6.	0.1	0.18247
8229	11.622	6.	0.1	0.10244
8230	11.807	6.	0.1	3.6841e-002
8231	11.992	6.	0.1	-1.5479e-002
8232	12.177	6.	0.1	-5.6083e-002
8233	12.361	6.	0.1	-8.6608e-002
8234	12.546	6.	0.1	-0.10862
8235	12.731	6.	0.1	-0.12353
8236	12.916	6.	0.1	-0.13257
8237	13.1	6.	0.1	-0.13694
8238	13.285	6.	0.1	-0.13764
8239	13.47	6.	0.1	-0.13545
8240	13.655	6.	0.1	-0.13104
8241	13.839	6.	0.1	-0.12498
8242	14.024	6.	0.1	-0.11767
8243	14.209	6.	0.1	-0.10951
8244	14.394	6.	0.1	-0.10083
8245	14.578	6.	0.1	-9.185e-002
8246	14.763	6.	0.1	-8.2722e-002
8247	14.948	6.	0.1	-7.3538e-002
8248	15.133	6.	0.1	-6.4442e-002
8249	15.317	6.	0.1	-5.5533e-002
8250	15.502	6.	0.1	-4.6841e-002
8251	15.687	6.	0.1	-3.8393e-002
8252	15.871	6.	0.1	-3.02e-002
8253	16.056	6.	0.1	-2.2232e-002
8254	16.241	6.	0.1	-1.4517e-002
8255	16.426	6.	0.1	-7.067e-003
8256	16.61	6.	0.1	1.3973e-004
8257	16.795	6.	0.1	7.1487e-003
8258	16.98	6.	0.1	1.4011e-002
8259	17.165	6.	0.1	2.0724e-002
8260	17.349	6.	0.1	2.7316e-002
8261	17.534	6.	0.1	3.3816e-002
8262	17.719	6.	0.1	4.0248e-002
8263	17.904	6.	0.1	4.6665e-002
8264	18.088	6.	0.1	5.3134e-002
8265	18.273	6.	0.1	5.966e-002
8266	18.458	6.	0.1	6.6267e-002
8267	18.643	6.	0.1	7.2997e-002
8268	18.827	6.	0.1	7.991e-002
8269	19.012	6.	0.1	8.7066e-002
8270	19.197	6.	0.1	9.4484e-002
8271	19.382	6.	0.1	0.10222
8272	19.566	6.	0.1	0.11031
8273	19.751	6.	0.1	0.11881
8274	19.936	6.	0.1	0.1278
8275	20.12	6.	0.1	0.13734
8276	20.305	6.	0.1	0.14749
8277	20.49	6.	0.1	0.15832
8278	20.675	6.	0.1	0.1699
8279	20.859	6.	0.1	0.18236
8280	21.044	6.	0.1	0.1958
8281	21.229	6.	0.1	0.21035
8282	21.414	6.	0.1	0.22614
8283	21.598	6.	0.1	0.24337
8284	21.783	6.	0.1	0.26224
8285	21.968	6.	0.1	0.28304
8286	22.153	6.	0.1	0.30614
8287	22.337	6.	0.1	0.33197
8288	22.522	6.	0.1	0.36115
8289	22.707	6.	0.1	0.39459
8290	22.892	6.	0.1	0.43331
8291	23.076	6.	0.1	0.48013
8292	23.261	6.	0.1	0.53401
8293	23.446	6.	0.1	0.61883
8294	23.631	6.	0.1	0.69362
8295	23.815	6.	0.1	1.0552
8296	24.	6.	0.1	-1.0455
8297	24.	5.8182	0.1	-2.1327
8298	24.	5.6364	0.1	-2.1659
8299	24.	5.4545	0.1	-2.3688
8300	24.	5.2727	0.1	-2.4013
8301	24.	5.0909	0.1	-2.4384
8302	24.	4.9091	0.1	-2.46
8303	24.	4.7273	0.1	-2.4772
8304	24.	4.5455	0.1	-2.49
8305	24.	4.3636	0.1	-2.5001
8306	24.	4.1818	0.1	-2.5079
8307	24.	4.	0.1	-2.514
8308	24.	3.8182	0.1	-2.5188
8309	24.	3.6364	0.1	-2.5224
8310	24.	3.4545	0.1	-2.5249
8311	24.	3.2727	0.1	-2.5266
8312	24.	3.0909	0.1	-2.5274
8313	24.	2.9091	0.1	-2.5274
8314	24.	2.7273	0.1	-2.5266
8315	24.	2.5455	0.1	-2.5249
8316	24.	2.3636	0.1	-2.5224
8317	24.	2.1818	0.1	-2.5188
8318	24.	2.	0.1	-2.514
8319	24.	1.8182	0.1	-2.5079
8320	24.	1.6364	0.1	-2.5001
8321	24.	1.4545	0.1	-2.49
8322	24.	1.2727	0.1	-2.4772
8323	24.	1.0909	0.1	-2.46
8324	24.	0.90909	0.1	-2.4384
8325	24.	0.72727	0.1	-2.4013
8326	24.	0.54545	0.1	-2.3688
8327	24.	0.36364	0.1	-2.1658
8328	24.	0.18182	0.1	-2.1327
8329	1.5894e-015	0.18182	0.1	1195.5
8330	3.1789e-015	0.36364	0.1	2310.3
8331	4.7683e-015	0.54545	0.1	2827.7
8332	6.3578e-015	0.72727	0.1	3137.2
8333	7.9472e-015	0.90909	0.1	3344.8
8334	9.5366e-015	1.0909	0.1	3493.6
8335	1.1126e-014	1.2727	0.1	3603.9
8336	1.2716e-014	1.4545	0.1	3687.8
8337	1.4305e-014	1.6364	0.1	3752.4
8338	1.5894e-014	1.8182	0.1	3802.5
8339	1.7484e-014	2.	0.1	3841.4
8340	1.9073e-014	2.1818	0.1	3871.1
8341	2.0663e-014	2.3636	0.1	3893.4
8342	2.2252e-014	2.5455	0.1	3909.2
8343	2.3842e-014	2.7273	0.1	3919.3
8344	2.5431e-014	2.9091	0.1	3924.2
8345	2.702e-014	3.0909	0.1	3924.2
8346	2.861e-014	3.2727	0.1	3919.3
8347	3.0199e-014	3.4545	0.1	3909.2
8348	3.1789e-014	3.6364	0.1	3893.4
8349	3.3378e-014	3.8182	0.1	3871.1
8350	3.4968e-014	4.	0.1	3841.4
8351	3.6557e-014	4.1818	0.1	3802.5
8352	3.8147e-014	4.3636	0.1	3752.4
8353	3.9736e-014	4.5455	0.1	3687.8
8354	4.1325e-014	4.7273	0.1	3603.9
8355	4.2915e-014	4.9091	0.1	3493.6
8356	4.4504e-014	5.0909	0.1	3344.8
8357	4.6094e-014	5.2727	0.1	3137.2
8358	4.7683e-014	5.4545	0.1	2827.7
8359	4.9273e-014	5.6364	0.1	2310.3
8360	5.0862e-014	5.8182	0.1	1195.5
8361	24.	0.	0.1	-1.0455
8362	23.815	0.	0.1	1.0552
8363	23.631	0.	0.1	0.69362
8364	23.446	0.	0.1	0.61883
8365	23.261	0.	0.1	0.53401
8366	23.076	0.	0.1	0.48014
8367	22.892	0.	0.1	0.43331
8368	22.707	0.	0.1	0.39459
8369	22.522	0.	0.1	0.36115
8370	22.337	0.	0.1	0.33198
8371	22.153	0.	0.1	0.30614
8372	21.968	0.	0.1	0.28304
8373	21.783	0.	0.1	0.26224
8374	21.598	0.	0.1	0.24337
8375	21.414	0.	0.1	0.22614
8376	21.229	0.	0.1	0.21035
8377	21.044	0.	0.1	0.19581
8378	20.859	0.	0.1	0.18236
8379	20.675	0.	0.1	0.16991
8380	20.49	0.	0.1	0.15832
8381	20.305	0.	0.1	0.14749
8382	20.12	0.	0.1	0.13734
8383	19.936	0.	0.1	0.1278
8384	19.751	0.	0.1	0.11882
8385	19.566	0.	0.1	0.11031
8386	19.382	0.	0.1	0.10222
8387	19.197	0.	0.1	9.4488e-002
8388	19.012	0.	0.1	8.7065e-002
8389	18.827	0.	0.1	7.9909e-002
8390	18.643	0.	0.1	7.2998e-002
8391	18.458	0.	0.1	6.6264e-002
8392	18.273	0.	0.1	5.9666e-002
8393	18.088	0.	0.1	5.3135e-002
8394	17.904	0.	0.1	4.6663e-002
8395	17.719	0.	0.1	4.025e-002
8396	17.534	0.	0.1	3.3817e-002
8397	17.349	0.	0.1	2.7316e-002
8398	17.165	0.	0.1	2.0727e-002
8399	16.98	0.	0.1	1.4011e-002
8400	16.795	0.	0.1	7.1485e-003
8401	16.61	0.	0.1	1.4116e-004
8402	16.426	0.	0.1	-7.0665e-003
8403	16.241	0.	0.1	-1.4518e-002
8404	16.056	0.	0.1	-2.2231e-002
8405	15.871	0.	0.1	-3.0199e-002
8406	15.687	0.	0.1	-3.8391e-002
8407	15.502	0.	0.1	-4.6841e-002
8408	15.317	0.	0.1	-5.5533e-002
8409	15.133	0.	0.1	-6.4441e-002
8410	14.948	0.	0.1	-7.3537e-002
8411	14.763	0.	0.1	-8.2721e-002
8412	14.578	0.	0.1	-9.1848e-002
8413	14.394	0.	0.1	-0.10083
8414	14.209	0.	0.1	-0.10951
8415	14.024	0.	0.1	-0.11767
8416	13.839	0.	0.1	-0.12498
8417	13.655	0.	0.1	-0.13104
8418	13.47	0.	0.1	-0.13545
8419	13.285	0.	0.1	-0.13764
8420	13.1	0.	0.1	-0.13694
8421	12.916	0.	0.1	-0.13257
8422	12.731	0.	0.1	-0.12352
8423	12.546	0.	0.1	-0.10862
8424	12.361	0.	0.1	-8.6609e-002
8425	12.177	0.	0.1	-5.6083e-002
8426	11.992	0.	0.1	-1.5477e-002
8427	11.807	0.	0.1	3.684e-002
8428	11.622	0.	0.1	0.10243
8429	11.438	0.	0.1	0.18247
8430	11.253	0.	0.1	0.27752
8431	11.068	0.	0.1	0.38702
8432	10.884	0.	0.1	0.50849
8433	10.699	0.	0.1	0.6365
8434	10.514	0.	0.1	0.76113
8435	10.329	0.	0.1	0.86608
8436	10.145	0.	0.1	0.92608
8437	9.9598	0.	0.1	0.90773
8438	9.7751	0.	0.1	0.75959
8439	9.5904	0.	0.1	0.45765
8440	9.4056	0.	0.1	-0.14666
8441	9.2209	0.	0.1	-0.61833
8442	9.0361	0.	0.1	-2.632
8443	8.8514	0.	0.1	3.2656
8444	8.6667	0.	0.1	30.92
8445	8.5	0.	0.1	34.939
8446	8.3152	-3.7978e-030	0.1	4.3529
8447	8.1304	-3.7134e-030	0.1	-2.231
8448	7.9457	-3.629e-030	0.1	2.447e-002
8449	7.7609	-3.5446e-030	0.1	0.5102
8450	7.5761	-3.4602e-030	0.1	1.1619
8451	7.3913	-3.3758e-030	0.1	1.4588
8452	7.2065	-3.2914e-030	0.1	1.5723
8453	7.0217	-3.207e-030	0.1	1.5281
8454	6.837	-3.1226e-030	0.1	1.3853
8455	6.6522	-3.0382e-030	0.1	1.1831
8456	6.4674	-2.9538e-030	0.1	0.95167
8457	6.2826	-2.8694e-030	0.1	0.71093
8458	6.0978	-2.785e-030	0.1	0.47373
8459	5.913	-2.7007e-030	0.1	0.24871
8460	5.7283	-2.6163e-030	0.1	5.0144e-002
8461	5.5435	-2.5319e-030	0.1	0.12306
8462	5.3587	-2.4475e-030	0.1	0.65219
8463	5.1739	-2.3631e-030	0.1	1.1502
8464	4.9891	-2.2787e-030	0.1	1.579
8465	4.8043	-2.1943e-030	0.1	1.9278
8466	4.6196	-2.1099e-030	0.1	2.1847
8467	4.4348	-2.0255e-030	0.1	2.3348
8468	4.25	-1.9411e-030	0.1	2.3598
8469	4.0652	-1.8567e-030	0.1	2.2379
8470	3.8804	-1.7723e-030	0.1	1.9442
8471	3.6957	-1.6879e-030	0.1	1.4509
8472	3.5109	-1.6035e-030	0.1	0.73178
8473	3.3261	-1.5191e-030	0.1	-0.22064
8474	3.1413	-1.4347e-030	0.1	-1.3036
8475	2.9565	-1.3503e-030	0.1	-2.1159
8476	2.7717	-1.2659e-030	0.1	-2.5626
8477	2.587	-1.1815e-030	0.1	-2.894
8478	2.4022	-1.0971e-030	0.1	-3.2043
8479	2.2174	-1.0127e-030	0.1	-3.5228
8480	2.0326	-9.2835e-031	0.1	-3.864
8481	1.8478	-8.4395e-031	0.1	-4.2377
8482	1.663	-7.5956e-031	0.1	-4.6585
8483	1.4783	-6.7516e-031	0.1	-5.1271
8484	1.2935	-5.9077e-031	0.1	-5.707
8485	1.1087	-5.0637e-031	0.1	-6.2692
8486	0.92391	-4.2198e-031	0.1	-7.3466
8487	0.73913	-3.3758e-031	0.1	-7.516
8488	0.55435	-2.5319e-031	0.1	-10.323
8489	0.36957	-1.6879e-031	0.1	-16.539
8490	0.18478	-8.4395e-032	0.1	51.537
8491	0.	0.	0.1	-351.77
8492	3.937e-014	6.	0.1	-351.77
8493	0.18478	6.	0.1	51.537
8494	0.36957	6.	0.1	-16.539
8495	0.55435	6.	0.1	-10.323
8496	0.73913	6.	0.1	-7.516
8497	0.92391	6.	0.1	-7.3466
8498	1.1087	6.	0.1	-6.2692
8499	1.2935	6.	0.1	-5.707
8500	1.4783	6.	0.1	-5.1271
8501	1.663	6.	0.1	-4.6585
8502	1.8478	6.	0.1	-4.2377
8503	2.0326	6.	0.1	-3.864
8504	2.2174	6.	0.1	-3.5228
8505	2.4022	6.	0.1	-3.2043
8506	2.587	6.	0.1	-2.894
8507	2.7717	6.	0.1	-2.5626
8508	2.9565	6.	0.1	-2.1159
8509	3.1413	6.	0.1	-1.3036
8510	3.3261	6.	0.1	-0.22064
8511	3.5109	6.	0.1	0.73178
8512	3.6957	6.	0.1	1.4509
8513	3.8804	6.	0.1	1.9442
8514	4.0652	6.	0.1	2.2379
8515	4.25	6.	0.1	2.3598
8516	4.4348	6.	0.1	2.3348
8517	4.6196	6.	0.1	2.1847
8518	4.8043	6.	0.1	1.9278
8519	4.9891	6.	0.1	1.579
8520	5.1739	6.	0.1	1.1502
8521	5.3587	6.	0.1	0.65219
8522	5.5435	6.	0.1	0.12306
8523	5.7283	6.	0.1	5.0145e-002
8524	5.913	6.	0.1	0.24871
8525	6.0978	6.	0.1	0.47373
8526	6.2826	6.	0.1	0.71093
8527	6.4674	6.	0.1	0.95167
8528	6.6522	6.	0.1	1.1831
8529	6.837	6.	0.1	1.3853
8530	7.0217	6.	0.1	1.5281
8531	7.2065	6.	0.1	1.5723
8532	7.3913	6.	0.1	1.4588
8533	7.5761	6.	0.1	1.1619
8534	7.7609	6.	0.1	0.5102
8535	7.9457	6.	0.1	2.4471e-002
8536	8.1304	6.	0.1	-2.231
8537	8.3152	6.	0.1	4.3529
8538	8.5	6.	0.1	34.939
8539	8.3152	6.	0.	-4.3529
8540	8.1304	6.	0.	2.231
8541	7.9457	6.	0.	-2.4471e-002
8542	7.7609	6.	0.	-0.5102
8543	7.5761	6.	0.	-1.1619
8544	7.3913	6.	0.	-1.4588
8545	7.2065	6.	0.	-1.5723
8546	7.0217	6.	0.	-1.5281
8547	6.837	6.	0.	-1.3853
8548	6.6522	6.	0.	-1.1831
8549	6.4674	6.	0.	-0.95167
8550	6.2826	6.	0.	-0.71093
8551	6.0978	6.	0.	-0.47373
8552	5.913	6.	0.	-0.24871
8553	5.7283	6.	0.	-5.0145e-002
8554	5.5435	6.	0.	-0.12306
8555	5.3587	6.	0.	-0.65219
8556	5.1739	6.	0.	-1.1502
8557	4.9891	6.	0.	-1.579
8558	4.8043	6.	0.	-1.9278
8559	4.6196	6.	0.	-2.1847
8560	4.4348	6.	0.	-2.3348
8561	4.25	6.	0.	-2.3598
8562	4.0652	6.	0.	-2.2379
8563	3.8804	6.	0.	-1.9442
8564	3.6957	6.	0.	-1.4509
8565	3.5109	6.	0.	-0.73178
8566	3.3261	6.	0.	0.22064
8567	3.1413	6.	0.	1.3036
8568	2.9565	6.	0.	2.1159
8569	2.7717	6.	0.	2.5626
8570	2.587	6.	0.	2.894
8571	2.4022	6.	0.	3.2043
8572	2.2174	6.	0.	3.5228
8573	2.0326	6.	0.	3.864
8574	1.8478	6.	0.	4.2377
8575	1.663	6.	0.	4.6585
8576	1.4783	6.	0.	5.1271
8577	1.2935	6.	0.	5.707
8578	1.1087	6.	0.	6.2692
8579	0.92391	6.	0.	7.3466
8580	0.73913	6.	0.	7.516
8581	0.55435	6.	0.	10.323
8582	0.36957	6.	0.	16.539
8583	0.18478	6.	0.	-51.537
8584	8.5	6.	0.	-34.939
8585	3.937e-014	6.	0.	351.77
8586	0.18478	-8.4395e-032	0.	-51.537
8587	0.36957	-1.6879e-031	0.	16.539
8588	0.55435	-2.5319e-031	0.	10.323
8589	0.73913	-3.3758e-031	0.	7.516
8590	0.92391	-4.2198e-031	0.	7.3466
8591	1.1087	-5.0637e-031	0.	6.2692
8592	1.2935	-5.9077e-031	0.	5.707
8593	1.4783	-6.7516e-031	0.	5.1271
8594	1.663	-7.5956e-031	0.	4.6585
8595	1.8478	-8.4395e-031	0.	4.2377
8596	2.0326	-9.2835e-031	0.	3.864
8597	2.2174	-1.0127e-030	0.	3.5228
8598	2.4022	-1.0971e-030	0.	3.2043
8599	2.587	-1.1815e-030	0.	2.894
8600	2.7717	-1.2659e-030	0.	2.5626
8601	2.9565	-1.3503e-030	0.	2.1159
8602	3.1413	-1.4347e-030	0.	1.3036
8603	3.3261	-1.5191e-030	0.	0.22064
8604	3.5109	-1.6035e-030	0.	-0.73178
8605	3.6957	-1.6879e-030	0.	-1.4509
8606	3.8804	-1.7723e-030	0.	-1.9442
8607	4.0652	-1.8567e-030	0.	-2.2379
8608	4.25	-1.9411e-030	0.	-2.3598
8609	4.4348	-2.0255e-030	0.	-2.3348
8610	4.6196	-2.1099e-030	0.	-2.1847
8611	4.8043	-2.1943e-030	0.	-1.9278
8612	4.9891	-2.2787e-030	0.	-1.579
8613	5.1739	-2.3631e-030	0.	-1.1502
8614	5.3587	-2.4475e-030	0.	-0.65219
8615	5.5435	-2.5319e-030	0.	-0.12306
8616	5.7283	-2.6163e-030	0.	-5.0144e-002
8617	5.913	-2.7007e-030	0.	-0.24871
8618	6.0978	-2.785e-030	0.	-0.47373
8619	6.2826	-2.8694e-030	0.	-0.71093
8620	6.4674	-2.9538e-030	0.	-0.95167
8621	6.6522	-3.0382e-030	0.	-1.1831
8622	6.837	-3.1226e-030	0.	-1.3853
8623	7.0217	-3.207e-030	0.	-1.5281
8624	7.2065	-3.2914e-030	0.	-1.5723
8625	7.3913	-3.3758e-030	0.	-1.4588
8626	7.5761	-3.4602e-030	0.	-1.1619
8627	7.7609	-3.5446e-030	0.	-0.5102
8628	7.9457	-3.629e-030	0.	-2.447e-002
8629	8.1304	-3.7134e-030	0.	2.231
8630	8.3152	-3.7978e-030	0.	-4.3529
8631	8.5	0.	0.	-34.939
8632	0.	0.	0.	351.77
8633	8.8514	0.	0.	-3.2656
8634	9.0361	0.	0.	2.632
8635	9.2209	0.	0.	0.61833
8636	9.4056	0.	0.	0.14666
8637	9.5904	0.	0.	-0.45765
8638	9.7751	0.	0.	-0.75959
8639	9.9598	0.	0.	-0.90773
8640	10.145	0.	0.	-0.92608
8641	10.329	0.	0.	-0.86608
8642	10.514	0.	0.	-0.76113
8643	10.699	0.	0.	-0.6365
8644	10.884	0.	0.	-0.50849
8645	11.068	0.	0.	-0.38702
8646	11.253	0.	0.	-0.27752
8647	11.438	0.	0.	-0.18247
8648	11.622	0.	0.	-0.10243
8649	11.807	0.	0.	-3.6841e-002
8650	11.992	0.	0.	1.5477e-002
8651	12.177	0.	0.	5.6083e-002
8652	12.361	0.	0.	8.6609e-002
8653	12.546	0.	0.	0.10862
8654	12.731	0.	0.	0.12352
8655	12.916	0.	0.	0.13257
8656	13.1	0.	0.	0.13694
8657	13.285	0.	0.	0.13764
8658	13.47	0.	0.	0.13545
8659	13.655	0.	0.	0.13104
8660	13.839	0.	0.	0.12498
8661	14.024	0.	0.	0.11767
8662	14.209	0.	0.	0.10951
8663	14.394	0.	0.	0.10083
8664	14.578	0.	0.	9.1849e-002
8665	14.763	0.	0.	8.2722e-002
8666	14.948	0.	0.	7.3536e-002
8667	15.133	0.	0.	6.4442e-002
8668	15.317	0.	0.	5.5534e-002
8669	15.502	0.	0.	4.6841e-002
8670	15.687	0.	0.	3.8392e-002
8671	15.871	0.	0.	3.02e-002
8672	16.056	0.	0.	2.2232e-002
8673	16.241	0.	0.	1.4518e-002
8674	16.426	0.	0.	7.0679e-003
8675	16.61	0.	0.	-1.3967e-004
8676	16.795	0.	0.	-7.1468e-003
8677	16.98	0.	0.	-1.4012e-002
8678	17.165	0.	0.	-2.0724e-002
8679	17.349	0.	0.	-2.7315e-002
8680	17.534	0.	0.	-3.3816e-002
8681	17.719	0.	0.	-4.0249e-002
8682	17.904	0.	0.	-4.666e-002
8683	18.088	0.	0.	-5.3136e-002
8684	18.273	0.	0.	-5.9662e-002
8685	18.458	0.	0.	-6.6265e-002
8686	18.643	0.	0.	-7.2998e-002
8687	18.827	0.	0.	-7.991e-002
8688	19.012	0.	0.	-8.7064e-002
8689	19.197	0.	0.	-9.4484e-002
8690	19.382	0.	0.	-0.10222
8691	19.566	0.	0.	-0.11031
8692	19.751	0.	0.	-0.11881
8693	19.936	0.	0.	-0.1278
8694	20.12	0.	0.	-0.13734
8695	20.305	0.	0.	-0.14749
8696	20.49	0.	0.	-0.15832
8697	20.675	0.	0.	-0.16991
8698	20.859	0.	0.	-0.18236
8699	21.044	0.	0.	-0.19581
8700	21.229	0.	0.	-0.21035
8701	21.414	0.	0.	-0.22614
8702	21.598	0.	0.	-0.24337
8703	21.783	0.	0.	-0.26224
8704	21.968	0.	0.	-0.28304
8705	22.153	0.	0.	-0.30614
8706	22.337	0.	0.	-0.33198
8707	22.522	0.	0.	-0.36115
8708	22.707	0.	0.	-0.39459
8709	22.892	0.	0.	-0.43331
8710	23.076	0.	0.	-0.48013
8711	23.261	0.	0.	-0.53401
8712	23.446	0.	0.	-0.61883
8713	23.631	0.	0.	-0.69362
8714	23.815	0.	0.	-1.0552
8715	8.6667	0.	0.	-30.92
8716	24.	0.	0.	1.0455
8717	5.0862e-014	5.8182	0.	-1195.5
8718	4.9273e-014	5.6364	0.	-2310.3
8719	4.7683e-014	5.4545	0.	-2827.7
8720	4.6094e-014	5.2727	0.	-3137.2
8721	4.4504e-014	5.0909	0.	-3344.8
8722	4.2915e-014	4.9091	0.	-3493.6
8723	4.1325e-014	4.7273	0.	-3603.9
8724	3.9736e-014	4.5455	0.	-3687.8
8725	3.8147e-014	4.3636	0.	-3752.4
8726	3.6557e-014	4.1818	0.	-3802.5
8727	3.4968e-014	4.	0.	-3841.4
8728	3.3378e-014	3.8182	0.	-3871.1
8729	3.1789e-014	3.6364	0.	-3893.4
8730	3.0199e-014	3.4545	0.	-3909.2
8731	2.861e-014	3.2727	0.	-3919.3
8732	2.702e-014	3.0909	0.	-3924.2
8733	2.5431e-014	2.9091	0.	-3924.2
8734	2.3842e-014	2.7273	0.	-3919.3
8735	2.2252e-014	2.5455	0.	-3909.2
8736	2.0663e-014	2.3636	0.	-3893.4
8737	1.9073e-014	2.1818	0.	-3871.1
8738	1.7484e-014	2.	0.	-3841.4
8739	1.5894e-014	1.8182	0.	-3802.5
8740	1.4305e-014	1.6364	0.	-3752.4
8741	1.2716e-014	1.4545	0.	-3687.8
8742	1.1126e-014	1.2727	0.	-3603.9
8743	9.5366e-015	1.0909	0.	-3493.6
8744	7.9472e-015	0.90909	0.	-3344.8
8745	6.3578e-015	0.72727	0.	-3137.2
8746	4.7683e-015	0.54545	0.	-2827.7
8747	3.1789e-015	0.36364	0.	-2310.3
8748	1.5894e-015	0.18182	0.	-1195.5
8749	24.	0.18182	0.	2.1326
8750	24.	0.36364	0.	2.1658
8751	24.	0.54545	0.	2.3688
8752	24.	0.72727	0.	2.4013
8753	24.	0.90909	0.	2.4384
8754	24.	1.0909	0.	2.46
8755	24.	1.2727	0.	2.4772
8756	24.	1.4545	0.	2.49
8757	24.	1.6364	0.	2.5001
8758	24.	1.8182	0.	2.5079
8759	24.	2.	0.	2.514
8760	24.	2.1818	0.	2.5188
8761	24.	2.3636	0.	2.5224
8762	24.	2.5455	0.	2.5249
8763	24.	2.7273	0.	2.5266
8764	24.	2.9091	0.	2.5274
8765	24.	3.0909	0.	2.5274
8766	24.	3.2727	0.	2.5266
8767	24.	3.4545	0.	2.5249
8768	24.	3.6364	0.	2.5224
8769	24.	3.8182	0.	2.5188
8770	24.	4.	0.	2.514
8771	24.	4.1818	0.	2.5079
8772	24.	4.3636	0.	2.5001
8773	24.	4.5455	0.	2.49
8774	24.	4.7273	0.	2.4772
8775	24.	4.9091	0.	2.46
8776	24.	5.0909	0.	2.4384
8777	24.	5.2727	0.	2.4013
8778	24.	5.4545	0.	2.3688
8779	24.	5.6364	0.	2.1659
8780	24.	5.8182	0.	2.1327
8781	24.	6.	0.	1.0456
8782	23.815	6.	0.	-1.0552
8783	23.631	6.	0.	-0.69362
8784	23.446	6.	0.	-0.61883
8785	23.261	6.	0.	-0.53401
8786	23.076	6.	0.	-0.48013
8787	22.892	6.	0.	-0.43331
8788	22.707	6.	0.	-0.39459
8789	22.522	6.	0.	-0.36115
8790	22.337	6.	0.	-0.33197
8791	22.153	6.	0.	-0.30614
8792	21.968	6.	0.	-0.28304
8793	21.783	6.	0.	-0.26224
8794	21.598	6.	0.	-0.24337
8795	21.414	6.	0.	-0.22614
8796	21.229	6.	0.	-0.21035
8797	21.044	6.	0.	-0.19581
8798	20.859	6.	0.	-0.18236
8799	20.675	6.	0.	-0.1699
8800	20.49	6.	0.	-0.15832
8801	20.305	6.	0.	-0.14749
8802	20.12	6.	0.	-0.13734
8803	19.936	6.	0.	-0.1278
8804	19.751	6.	0.	-0.11881
8805	19.566	6.	0.	-0.11031
8806	19.382	6.	0.	-0.10222
8807	19.197	6.	0.	-9.4485e-002
8808	19.012	6.	0.	-8.7063e-002
8809	18.827	6.	0.	-7.9909e-002
8810	18.643	6.	0.	-7.2996e-002
8811	18.458	6.	0.	-6.6266e-002
8812	18.273	6.	0.	-5.9659e-002
8813	18.088	6.	0.	-5.3134e-002
8814	17.904	6.	0.	-4.6666e-002
8815	17.719	6.	0.	-4.0247e-002
8816	17.534	6.	0.	-3.3816e-002
8817	17.349	6.	0.	-2.7315e-002
8818	17.165	6.	0.	-2.0723e-002
8819	16.98	6.	0.	-1.401e-002
8820	16.795	6.	0.	-7.1491e-003
8821	16.61	6.	0.	-1.3909e-004
8822	16.426	6.	0.	7.0686e-003
8823	16.241	6.	0.	1.4519e-002
8824	16.056	6.	0.	2.2234e-002
8825	15.871	6.	0.	3.02e-002
8826	15.687	6.	0.	3.8392e-002
8827	15.502	6.	0.	4.6842e-002
8828	15.317	6.	0.	5.5533e-002
8829	15.133	6.	0.	6.4442e-002
8830	14.948	6.	0.	7.3539e-002
8831	14.763	6.	0.	8.2722e-002
8832	14.578	6.	0.	9.185e-002
8833	14.394	6.	0.	0.10083
8834	14.209	6.	0.	0.10951
8835	14.024	6.	0.	0.11767
8836	13.839	6.	0.	0.12498
8837	13.655	6.	0.	0.13104
8838	13.47	6.	0.	0.13545
8839	13.285	6.	0.	0.13764
8840	13.1	6.	0.	0.13694
8841	12.916	6.	0.	0.13257
8842	12.731	6.	0.	0.12353
8843	12.546	6.	0.	0.10862
8844	12.361	6.	0.	8.661e-002
8845	12.177	6.	0.	5.6082e-002
8846	11.992	6.	0.	1.548e-002
8847	11.807	6.	0.	-3.6841e-002
8848	11.622	6.	0.	-0.10244
8849	11.438	6.	0.	-0.18247
8850	11.253	6.	0.	-0.27752
8851	11.068	6.	0.	-0.38702
8852	10.884	6.	0.	-0.50849
8853	10.699	6.	0.	-0.6365
8854	10.514	6.	0.	-0.76113
8855	10.329	6.	0.	-0.86608
8856	10.145	6.	0.	-0.92608
8857	9.9598	6.	0.	-0.90773
8858	9.7751	6.	0.	-0.75959
8859	9.5904	6.	0.	-0.45765
8860	9.4056	6.	0.	0.14666
8861	9.2209	6.	0.	0.61833
8862	9.0361	6.	0.	2.632
8863	8.8514	6.	0.	-3.2656
8864	8.6667	6.	0.	-30.92
8865	8.5	1.8182	0.	-18.157
8866	8.5	1.6364	0.	111.27
8867	8.5	1.4545	0.	28.982
8868	8.5	1.2727	0.	33.617
8869	8.5	1.0909	0.	23.255
8870	8.5	0.90909	0.	21.051
8871	8.5	0.72727	0.	18.332
8872	8.5	0.54545	0.	16.675
8873	8.5	0.36364	0.	16.443
8874	8.5	0.18182	0.	12.05
8875	8.5	2.	0.	-789.87
8876	8.6667	0.18182	0.	9.3433
8877	8.6667	0.36364	0.	13.618
8878	8.6667	0.54545	0.	13.858
8879	8.6667	0.72727	0.	15.447
8880	8.6667	0.90909	0.	18.034
8881	8.6667	1.0909	0.	20.279
8882	8.6667	1.2727	0.	29.865
8883	8.6667	1.4545	0.	26.546
8884	8.6667	1.6364	0.	103.43
8885	8.6667	1.8182	0.	-20.801
8886	8.6667	2.	0.	-1104.5
8887	8.5	4.1818	0.	-18.157
8888	8.5	4.3636	0.	111.27
8889	8.5	4.5455	0.	28.982
8890	8.5	4.7273	0.	33.617
8891	8.5	4.9091	0.	23.255
8892	8.5	5.0909	0.	21.051
8893	8.5	5.2727	0.	18.332
8894	8.5	5.4545	0.	16.675
8895	8.5	5.6364	0.	16.443
8896	8.5	5.8182	0.	12.05
8897	8.5	4.	0.	-789.87
8898	8.6667	5.8182	0.	9.3433
8899	8.6667	5.6364	0.	13.618
8900	8.6667	5.4545	0.	13.858
8901	8.6667	5.2727	0.	15.447
8902	8.6667	5.0909	0.	18.034
8903	8.6667	4.9091	0.	20.279
8904	8.6667	4.7273	0.	29.865
8905	8.6667	4.5455	0.	26.546
8906	8.6667	4.3636	0.	103.43
8907	8.6667	4.1818	0.	-20.801
8908	8.6667	4.	0.	-1104.5
8909	8.5	2.2727	0.	59.956
8910	8.5833	2.1818	0.	118.57
8911	8.4076	2.1818	0.	88.189
8912	8.5	2.1818	5.e-002	8.2367e-004
8913	8.5	2.0909	0.	-355.62
8914	8.5	2.4545	0.	-16.665
8915	8.5833	2.3636	0.	-35.842
8916	8.4076	2.3636	0.	-25.305
8917	8.5	2.3636	5.e-002	5.9502e-004
8918	8.5	2.6364	0.	-1.3939
8919	8.5833	2.5455	0.	1.2377
8920	8.4076	2.5455	0.	3.0859
8921	8.5	2.5455	5.e-002	3.7465e-004
8922	8.5	2.8182	0.	-2.8703
8923	8.5833	2.7273	0.	-3.8539
8924	8.4076	2.7273	0.	-3.5052
8925	8.5	2.7273	5.e-002	3.3286e-004
8926	8.5	3.	0.	-1.9462
8927	8.5833	2.9091	0.	-1.9129
8928	8.4076	2.9091	0.	-1.2942
8929	8.5	2.9091	5.e-002	1.7247e-004
8930	8.5	3.1818	0.	-2.8703
8931	8.5833	3.0909	0.	-1.9129
8932	8.4076	3.0909	0.	-1.2942
8933	8.5	3.0909	5.e-002	1.0338e-004
8934	8.5	3.3636	0.	-1.3939
8935	8.5833	3.2727	0.	-3.8539
8936	8.4076	3.2727	0.	-3.5052
8937	8.5	3.2727	5.e-002	1.1275e-005
8938	8.5	3.5455	0.	-16.665
8939	8.5833	3.4545	0.	1.2377
8940	8.4076	3.4545	0.	3.0859
8941	8.5	3.4545	5.e-002	-9.1787e-005
8942	8.5	3.7273	0.	59.956
8943	8.5833	3.6364	0.	-35.842
8944	8.4076	3.6364	0.	-25.305
8945	8.5	3.6364	5.e-002	-1.8817e-004
8946	8.5833	3.8182	0.	118.57
8947	8.4076	3.8182	0.	88.189
8948	8.5	3.8182	5.e-002	-4.0843e-004
8949	8.5	3.9091	0.	-355.62
8950	8.6667	2.2727	0.	25.706
8951	8.759	2.1818	0.	30.31
8952	8.6667	2.1818	5.e-002	7.0942e-004
8953	8.6667	2.0909	0.	-550.65
8954	8.6667	2.4545	0.	-17.243
8955	8.759	2.3636	0.	-26.513
8956	8.6667	2.3636	5.e-002	6.7543e-004
8957	8.6667	2.6364	0.	-1.0968
8958	8.759	2.5455	0.	3.2267
8959	8.6667	2.5455	5.e-002	3.8327e-004
8960	8.6667	2.8182	0.	-2.8003
8961	8.759	2.7273	0.	-3.3247
8962	8.6667	2.7273	5.e-002	1.8709e-004
8963	8.6667	3.	0.	-1.803
8964	8.759	2.9091	0.	-1.0392
8965	8.6667	2.9091	5.e-002	1.3956e-004
8966	8.6667	3.1818	0.	-2.8003
8967	8.759	3.0909	0.	-1.0392
8968	8.6667	3.0909	5.e-002	9.5013e-005
8969	8.6667	3.3636	0.	-1.0968
8970	8.759	3.2727	0.	-3.3247
8971	8.6667	3.2727	5.e-002	5.2723e-005
8972	8.6667	3.5455	0.	-17.243
8973	8.759	3.4545	0.	3.2267
8974	8.6667	3.4545	5.e-002	-5.9222e-007
8975	8.6667	3.7273	0.	25.706
8976	8.759	3.6364	0.	-26.513
8977	8.6667	3.6364	5.e-002	-1.6266e-004
8978	8.759	3.8182	0.	30.31
8979	8.6667	3.8182	5.e-002	-3.0313e-004
8980	8.6667	3.9091	0.	-550.65
8981	8.3152	5.7273	0.	-14.251
8982	8.2228	5.8182	0.	-14.005
8983	8.3152	5.8182	5.e-002	-1.3295e-014
8984	8.3152	5.9091	0.	-13.356
8985	8.4076	5.8182	0.	1.4203
8986	8.3152	5.5455	0.	-8.2557
8987	8.2228	5.6364	0.	-6.9529
8988	8.3152	5.6364	5.e-002	-1.1966e-014
8989	8.4076	5.6364	0.	3.1815
8990	8.3152	5.3636	0.	-6.9344
8991	8.2228	5.4545	0.	-4.5617
8992	8.3152	5.4545	5.e-002	-6.3831e-006
8993	8.4076	5.4545	0.	2.0024
8994	8.3152	5.1818	0.	-6.498
8995	8.2228	5.2727	0.	-3.4855
8996	8.3152	5.2727	5.e-002	-2.8042e-006
8997	8.4076	5.2727	0.	1.9413
8998	8.3152	5.	0.	-7.3153
8999	8.2228	5.0909	0.	-3.151
9000	8.3152	5.0909	5.e-002	-2.4672e-005
9001	8.4076	5.0909	0.	2.26
9002	8.3152	4.8182	0.	-7.1649
9003	8.2228	4.9091	0.	-3.7471
9004	8.3152	4.9091	5.e-002	-1.8286e-005
9005	8.4076	4.9091	0.	0.69536
9006	8.3152	4.6364	0.	-14.568
9007	8.2228	4.7273	0.	-2.74
9008	8.3152	4.7273	5.e-002	-6.164e-005
9009	8.4076	4.7273	0.	6.1784
9010	8.3152	4.4545	0.	-3.1566
9011	8.2228	4.5455	0.	-11.386
9012	8.3152	4.5455	5.e-002	-6.0777e-005
9013	8.4076	4.5455	0.	-16.879
9014	8.3152	4.2727	0.	-57.593
9015	8.2228	4.3636	0.	11.127
9016	8.3152	4.3636	5.e-002	-2.0673e-004
9017	8.4076	4.3636	0.	68.303
9018	8.3152	4.0909	0.	-344.7
9019	8.2228	4.1818	0.	-58.564
9020	8.3152	4.1818	5.e-002	-4.0018e-004
9021	8.4076	4.1818	0.	-306.88
9022	8.3152	3.9091	0.	-242.02
9023	8.2228	4.	0.	-239.58
9024	8.3152	4.	5.e-002	-4.4712e-004
9025	8.4076	4.	0.	-361.13
9026	8.3152	3.7273	0.	2.2757
9027	8.2228	3.8182	0.	29.587
9028	8.3152	3.8182	5.e-002	-5.3838e-005
9029	8.3152	3.5455	0.	-5.279
9030	8.2228	3.6364	0.	-10.626
9031	8.3152	3.6364	5.e-002	-8.8539e-005
9032	8.3152	3.3636	0.	1.0652
9033	8.2228	3.4545	0.	3.2252
9034	8.3152	3.4545	5.e-002	7.2113e-007
9035	8.3152	3.1818	0.	-1.8527
9036	8.2228	3.2727	0.	-1.6135
9037	8.3152	3.2727	5.e-002	5.5096e-005
9038	8.3152	3.	0.	-0.57454
9039	8.2228	3.0909	0.	-0.37899
9040	8.3152	3.0909	5.e-002	9.6937e-005
9041	8.3152	2.8182	0.	-1.8527
9042	8.2228	2.9091	0.	-0.37899
9043	8.3152	2.9091	5.e-002	1.2343e-004
9044	8.3152	2.6364	0.	1.0652
9045	8.2228	2.7273	0.	-1.6135
9046	8.3152	2.7273	5.e-002	1.7994e-004
9047	8.3152	2.4545	0.	-5.279
9048	8.2228	2.5455	0.	3.2252
9049	8.3152	2.5455	5.e-002	2.321e-004
9050	8.3152	2.2727	0.	2.2757
9051	8.2228	2.3636	0.	-10.626
9052	8.3152	2.3636	5.e-002	2.721e-004
9053	8.3152	2.0909	0.	-242.02
9054	8.2228	2.1818	0.	29.587
9055	8.3152	2.1818	5.e-002	2.2506e-004
9056	8.3152	1.9091	0.	-344.7
9057	8.2228	2.	0.	-239.58
9058	8.3152	2.	5.e-002	6.1181e-004
9059	8.4076	2.	0.	-361.13
9060	8.3152	1.7273	0.	-57.593
9061	8.2228	1.8182	0.	-58.564
9062	8.3152	1.8182	5.e-002	7.7403e-004
9063	8.4076	1.8182	0.	-306.88
9064	8.3152	1.5455	0.	-3.1566
9065	8.2228	1.6364	0.	11.127
9066	8.3152	1.6364	5.e-002	2.8773e-004
9067	8.4076	1.6364	0.	68.303
9068	8.3152	1.3636	0.	-14.568
9069	8.2228	1.4545	0.	-11.386
9070	8.3152	1.4545	5.e-002	1.1865e-004
9071	8.4076	1.4545	0.	-16.879
9072	8.3152	1.1818	0.	-7.1649
9073	8.2228	1.2727	0.	-2.74
9074	8.3152	1.2727	5.e-002	6.6204e-005
9075	8.4076	1.2727	0.	6.1784
9076	8.3152	1.	0.	-7.3153
9077	8.2228	1.0909	0.	-3.7471
9078	8.3152	1.0909	5.e-002	4.5337e-005
9079	8.4076	1.0909	0.	0.69536
9080	8.3152	0.81818	0.	-6.498
9081	8.2228	0.90909	0.	-3.151
9082	8.3152	0.90909	5.e-002	2.1989e-005
9083	8.4076	0.90909	0.	2.26
9084	8.3152	0.63636	0.	-6.9344
9085	8.2228	0.72727	0.	-3.4855
9086	8.3152	0.72727	5.e-002	-1.3963e-014
9087	8.4076	0.72727	0.	1.9413
9088	8.3152	0.45455	0.	-8.2557
9089	8.2228	0.54545	0.	-4.5617
9090	8.3152	0.54545	5.e-002	-8.4726e-006
9091	8.4076	0.54545	0.	2.0024
9092	8.3152	0.27273	0.	-14.251
9093	8.2228	0.36364	0.	-6.9529
9094	8.3152	0.36364	5.e-002	-7.5135e-006
9095	8.4076	0.36364	0.	3.1815
9096	8.2228	0.18182	0.	-14.005
9097	8.3152	0.18182	5.e-002	-2.6389e-006
9098	8.3152	9.0909e-002	0.	-13.356
9099	8.4076	0.18182	0.	1.4203
9100	8.1304	5.7273	0.	-3.6057
9101	8.038	5.8182	0.	-3.1425
9102	8.1304	5.8182	5.e-002	-1.2339e-006
9103	8.1304	5.9091	0.	-0.60753
9104	8.1304	5.5455	0.	-1.42
9105	8.038	5.6364	0.	-2.1005
9106	8.1304	5.6364	5.e-002	-3.7267e-006
9107	8.1304	5.3636	0.	-0.35334
9108	8.038	5.4545	0.	-1.2449
9109	8.1304	5.4545	5.e-002	-9.4708e-006
9110	8.1304	5.1818	0.	0.25294
9111	8.038	5.2727	0.	-0.68977
9112	8.1304	5.2727	5.e-002	-2.3689e-005
9113	8.1304	5.	0.	0.63214
9114	8.038	5.0909	0.	-0.49861
9115	8.1304	5.0909	5.e-002	-2.3754e-005
9116	8.1304	4.8182	0.	0.73397
9117	8.038	4.9091	0.	-0.47202
9118	8.1304	4.9091	5.e-002	-4.0356e-005
9119	8.1304	4.6364	0.	0.42429
9120	8.038	4.7273	0.	-0.70149
9121	8.1304	4.7273	5.e-002	-6.2005e-005
9122	8.1304	4.4545	0.	2.593
9123	8.038	4.5455	0.	-0.95662
9124	8.1304	4.5455	5.e-002	-1.1322e-004
9125	8.1304	4.2727	0.	10.046
9126	8.038	4.3636	0.	-2.192
9127	8.1304	4.3636	5.e-002	-2.0083e-004
9128	8.1304	4.0909	0.	42.062
9129	8.038	4.1818	0.	4.7166
9130	8.1304	4.1818	5.e-002	-3.3583e-004
9131	8.1304	3.9091	0.	52.018
9132	8.038	4.	0.	27.953
9133	8.1304	4.	5.e-002	-1.1306e-004
9134	8.1304	3.7273	0.	14.562
9135	8.038	3.8182	0.	12.864
9136	8.1304	3.8182	5.e-002	-4.3363e-005
9137	8.1304	3.5455	0.	-2.2127
9138	8.038	3.6364	0.	0.10018
9139	8.1304	3.6364	5.e-002	-1.6122e-006
9140	8.1304	3.3636	0.	0.62608
9141	8.038	3.4545	0.	1.0818
9142	8.1304	3.4545	5.e-002	3.1295e-005
9143	8.1304	3.1818	0.	-9.163e-002
9144	8.038	3.2727	0.	0.39174
9145	8.1304	3.2727	5.e-002	6.6596e-005
9146	8.1304	3.	0.	-0.13614
9147	8.038	3.0909	0.	0.21594
9148	8.1304	3.0909	5.e-002	7.568e-005
9149	8.1304	2.8182	0.	-9.1629e-002
9150	8.038	2.9091	0.	0.21594
9151	8.1304	2.9091	5.e-002	9.9544e-005
9152	8.1304	2.6364	0.	0.62608
9153	8.038	2.7273	0.	0.39174
9154	8.1304	2.7273	5.e-002	9.3569e-005
9155	8.1304	2.4545	0.	-2.2127
9156	8.038	2.5455	0.	1.0818
9157	8.1304	2.5455	5.e-002	1.1011e-004
9158	8.1304	2.2727	0.	14.562
9159	8.038	2.3636	0.	0.10018
9160	8.1304	2.3636	5.e-002	1.1624e-004
9161	8.1304	2.0909	0.	52.018
9162	8.038	2.1818	0.	12.864
9163	8.1304	2.1818	5.e-002	1.3545e-004
9164	8.1304	1.9091	0.	42.062
9165	8.038	2.	0.	27.953
9166	8.1304	2.	5.e-002	2.3239e-004
9167	8.1304	1.7273	0.	10.046
9168	8.038	1.8182	0.	4.7166
9169	8.1304	1.8182	5.e-002	6.3956e-004
9170	8.1304	1.5455	0.	2.593
9171	8.038	1.6364	0.	-2.192
9172	8.1304	1.6364	5.e-002	3.1657e-004
9173	8.1304	1.3636	0.	0.4243
9174	8.038	1.4545	0.	-0.95662
9175	8.1304	1.4545	5.e-002	2.0997e-004
9176	8.1304	1.1818	0.	0.73397
9177	8.038	1.2727	0.	-0.70148
9178	8.1304	1.2727	5.e-002	1.2027e-004
9179	8.1304	1.	0.	0.63214
9180	8.038	1.0909	0.	-0.47201
9181	8.1304	1.0909	5.e-002	7.6516e-005
9182	8.1304	0.81818	0.	0.25294
9183	8.038	0.90909	0.	-0.49861
9184	8.1304	0.90909	5.e-002	4.1844e-005
9185	8.1304	0.63636	0.	-0.35334
9186	8.038	0.72727	0.	-0.68977
9187	8.1304	0.72727	5.e-002	2.3736e-005
9188	8.1304	0.45455	0.	-1.42
9189	8.038	0.54545	0.	-1.2449
9190	8.1304	0.54545	5.e-002	1.3384e-005
9191	8.1304	0.27273	0.	-3.6057
9192	8.038	0.36364	0.	-2.1005
9193	8.1304	0.36364	5.e-002	2.1158e-006
9194	8.038	0.18182	0.	-3.1425
9195	8.1304	0.18182	5.e-002	2.8027e-006
9196	8.1304	9.0909e-002	0.	-0.60753
9197	7.9457	5.7273	0.	-1.8947
9198	7.8533	5.8182	0.	-0.81242
9199	7.9457	5.8182	5.e-002	-1.1439e-014
9200	7.9457	5.9091	0.	-0.5243
9201	7.9457	5.5455	0.	-1.6398
9202	7.8533	5.6364	0.	-1.1278
9203	7.9457	5.6364	5.e-002	-6.7667e-006
9204	7.9457	5.3636	0.	-1.4298
9205	7.8533	5.4545	0.	-1.0667
9206	7.9457	5.4545	5.e-002	-1.158e-005
9207	7.9457	5.1818	0.	-1.3781
9208	7.8533	5.2727	0.	-1.058
9209	7.9457	5.2727	5.e-002	-2.1024e-005
9210	7.9457	5.	0.	-1.5813
9211	7.8533	5.0909	0.	-1.1244
9212	7.9457	5.0909	5.e-002	-3.0046e-005
9213	7.9457	4.8182	0.	-1.9035
9214	7.8533	4.9091	0.	-1.3819
9215	7.9457	4.9091	5.e-002	-3.8258e-005
9216	7.9457	4.6364	0.	-2.0815
9217	7.8533	4.7273	0.	-1.6842
9218	7.9457	4.7273	5.e-002	-6.378e-005
9219	7.9457	4.4545	0.	-5.7688
9220	7.8533	4.5455	0.	-1.9241
9221	7.9457	4.5455	5.e-002	-1.0021e-004
9222	7.9457	4.2727	0.	-7.3145
9223	7.8533	4.3636	0.	-4.8386
9224	7.9457	4.3636	5.e-002	-1.6542e-004
9225	7.9457	4.0909	0.	-9.3092
9226	7.8533	4.1818	0.	-3.2592
9227	7.9457	4.1818	5.e-002	-1.9062e-004
9228	7.9457	3.9091	0.	-10.994
9229	7.8533	4.	0.	-6.0515
9230	7.9457	4.	5.e-002	-1.0596e-004
9231	7.9457	3.7273	0.	-1.2467
9232	7.8533	3.8182	0.	-2.7958
9233	7.9457	3.8182	5.e-002	-6.5196e-005
9234	7.9457	3.5455	0.	3.2633
9235	7.8533	3.6364	0.	3.1554
9236	7.9457	3.6364	5.e-002	3.8957e-006
9237	7.9457	3.3636	0.	0.8234
9238	7.8533	3.4545	0.	0.99296
9239	7.9457	3.4545	5.e-002	3.0322e-005
9240	7.9457	3.1818	0.	0.71796
9241	7.8533	3.2727	0.	0.90495
9242	7.9457	3.2727	5.e-002	4.9404e-005
9243	7.9457	3.	0.	0.59128
9244	7.8533	3.0909	0.	0.69168
9245	7.9457	3.0909	5.e-002	6.1408e-005
9246	7.9457	2.8182	0.	0.71797
9247	7.8533	2.9091	0.	0.69168
9248	7.9457	2.9091	5.e-002	6.0622e-005
9249	7.9457	2.6364	0.	0.8234
9250	7.8533	2.7273	0.	0.90495
9251	7.9457	2.7273	5.e-002	6.1177e-005
9252	7.9457	2.4545	0.	3.2633
9253	7.8533	2.5455	0.	0.99296
9254	7.9457	2.5455	5.e-002	6.2143e-005
9255	7.9457	2.2727	0.	-1.2467
9256	7.8533	2.3636	0.	3.1554
9257	7.9457	2.3636	5.e-002	6.6729e-005
9258	7.9457	2.0909	0.	-10.994
9259	7.8533	2.1818	0.	-2.7958
9260	7.9457	2.1818	5.e-002	1.5917e-004
9261	7.9457	1.9091	0.	-9.3092
9262	7.8533	2.	0.	-6.0515
9263	7.9457	2.	5.e-002	1.9573e-004
9264	7.9457	1.7273	0.	-7.3145
9265	7.8533	1.8182	0.	-3.2592
9266	7.9457	1.8182	5.e-002	4.5027e-004
9267	7.9457	1.5455	0.	-5.7688
9268	7.8533	1.6364	0.	-4.8386
9269	7.9457	1.6364	5.e-002	3.7913e-004
9270	7.9457	1.3636	0.	-2.0815
9271	7.8533	1.4545	0.	-1.9241
9272	7.9457	1.4545	5.e-002	2.3007e-004
9273	7.9457	1.1818	0.	-1.9035
9274	7.8533	1.2727	0.	-1.6842
9275	7.9457	1.2727	5.e-002	1.545e-004
9276	7.9457	1.	0.	-1.5813
9277	7.8533	1.0909	0.	-1.3819
9278	7.9457	1.0909	5.e-002	9.6021e-005
9279	7.9457	0.81818	0.	-1.3781
9280	7.8533	0.90909	0.	-1.1244
9281	7.9457	0.90909	5.e-002	6.1036e-005
9282	7.9457	0.63636	0.	-1.4298
9283	7.8533	0.72727	0.	-1.058
9284	7.9457	0.72727	5.e-002	3.9588e-005
9285	7.9457	0.45455	0.	-1.6398
9286	7.8533	0.54545	0.	-1.0667
9287	7.9457	0.54545	5.e-002	2.3399e-005
9288	7.9457	0.27273	0.	-1.8947
9289	7.8533	0.36364	0.	-1.1278
9290	7.9457	0.36364	5.e-002	1.1244e-005
9291	7.8533	0.18182	0.	-0.81242
9292	7.9457	0.18182	5.e-002	2.6192e-006
9293	7.9457	9.0909e-002	0.	-0.5243
9294	7.7609	5.7273	0.	-0.28411
9295	7.6685	5.8182	0.	0.28301
9296	7.7609	5.8182	5.e-002	-7.5436e-008
9297	7.7609	5.9091	0.	7.4568e-002
9298	7.7609	5.5455	0.	-0.59471
9299	7.6685	5.6364	0.	-0.39284
9300	7.7609	5.6364	5.e-002	-3.6544e-006
9301	7.7609	5.3636	0.	-0.68206
9302	7.6685	5.4545	0.	-0.50236
9303	7.7609	5.4545	5.e-002	-1.1252e-005
9304	7.7609	5.1818	0.	-0.79116
9305	7.6685	5.2727	0.	-0.66665
9306	7.7609	5.2727	5.e-002	-1.8898e-005
9307	7.7609	5.	0.	-0.9198
9308	7.6685	5.0909	0.	-0.80844
9309	7.7609	5.0909	5.e-002	-3.1006e-005
9310	7.7609	4.8182	0.	-1.1661
9311	7.6685	4.9091	0.	-0.96555
9312	7.7609	4.9091	5.e-002	-3.8865e-005
9313	7.7609	4.6364	0.	-1.5387
9314	7.6685	4.7273	0.	-1.2153
9315	7.7609	4.7273	5.e-002	-6.9278e-005
9316	7.7609	4.4545	0.	-1.0036
9317	7.6685	4.5455	0.	-1.5268
9318	7.7609	4.5455	5.e-002	-8.581e-005
9319	7.7609	4.2727	0.	-0.7942
9320	7.6685	4.3636	0.	-1.0423
9321	7.7609	4.3636	5.e-002	-1.6389e-004
9322	7.7609	4.0909	0.	5.7315e-002
9323	7.6685	4.1818	0.	-1.5232
9324	7.7609	4.1818	5.e-002	-1.2286e-004
9325	7.7609	3.9091	0.	2.2122
9326	7.6685	4.	0.	-0.34471
9327	7.7609	4.	5.e-002	-1.1139e-004
9328	7.7609	3.7273	0.	1.7564
9329	7.6685	3.8182	0.	0.61606
9330	7.7609	3.8182	5.e-002	-6.5555e-005
9331	7.7609	3.5455	0.	0.82291
9332	7.6685	3.6364	0.	0.13796
9333	7.7609	3.6364	5.e-002	-1.7494e-005
9334	7.7609	3.3636	0.	1.0335
9335	7.6685	3.4545	0.	0.83595
9336	7.7609	3.4545	5.e-002	4.9042e-006
9337	7.7609	3.1818	0.	0.87285
9338	7.6685	3.2727	0.	0.83567
9339	7.7609	3.2727	5.e-002	2.7155e-005
9340	7.7609	3.	0.	0.79718
9341	7.6685	3.0909	0.	0.77465
9342	7.7609	3.0909	5.e-002	3.5994e-005
9343	7.7609	2.8182	0.	0.87285
9344	7.6685	2.9091	0.	0.77465
9345	7.7609	2.9091	5.e-002	3.4576e-005
9346	7.7609	2.6364	0.	1.0335
9347	7.6685	2.7273	0.	0.83567
9348	7.7609	2.7273	5.e-002	3.6311e-005
9349	7.7609	2.4545	0.	0.82291
9350	7.6685	2.5455	0.	0.83595
9351	7.7609	2.5455	5.e-002	3.9879e-005
9352	7.7609	2.2727	0.	1.7564
9353	7.6685	2.3636	0.	0.13796
9354	7.7609	2.3636	5.e-002	7.1243e-005
9355	7.7609	2.0909	0.	2.2122
9356	7.6685	2.1818	0.	0.61605
9357	7.7609	2.1818	5.e-002	1.4504e-004
9358	7.7609	1.9091	0.	5.7316e-002
9359	7.6685	2.	0.	-0.34471
9360	7.7609	2.	5.e-002	3.0354e-004
9361	7.7609	1.7273	0.	-0.7942
9362	7.6685	1.8182	0.	-1.5232
9363	7.7609	1.8182	5.e-002	4.3071e-004
9364	7.7609	1.5455	0.	-1.0036
9365	7.6685	1.6364	0.	-1.0423
9366	7.7609	1.6364	5.e-002	3.9871e-004
9367	7.7609	1.3636	0.	-1.5387
9368	7.6685	1.4545	0.	-1.5268
9369	7.7609	1.4545	5.e-002	2.6874e-004
9370	7.7609	1.1818	0.	-1.1661
9371	7.6685	1.2727	0.	-1.2153
9372	7.7609	1.2727	5.e-002	1.6077e-004
9373	7.7609	1.	0.	-0.9198
9374	7.6685	1.0909	0.	-0.96555
9375	7.7609	1.0909	5.e-002	1.1357e-004
9376	7.7609	0.81818	0.	-0.79116
9377	7.6685	0.90909	0.	-0.80844
9378	7.7609	0.90909	5.e-002	7.1226e-005
9379	7.7609	0.63636	0.	-0.68206
9380	7.6685	0.72727	0.	-0.66665
9381	7.7609	0.72727	5.e-002	4.6367e-005
9382	7.7609	0.45455	0.	-0.59471
9383	7.6685	0.54545	0.	-0.50236
9384	7.7609	0.54545	5.e-002	2.7121e-005
9385	7.7609	0.27273	0.	-0.2841
9386	7.6685	0.36364	0.	-0.39284
9387	7.7609	0.36364	5.e-002	1.2671e-005
9388	7.6685	0.18182	0.	0.28301
9389	7.7609	0.18182	5.e-002	3.846e-006
9390	7.7609	9.0909e-002	0.	7.4569e-002
9391	7.5761	5.7273	0.	5.5662e-002
9392	7.4837	5.8182	0.	0.49059
9393	7.5761	5.8182	5.e-002	4.4484e-007
9394	7.5761	5.9091	0.	2.0751e-002
9395	7.5761	5.5455	0.	-0.35048
9396	7.4837	5.6364	0.	-0.22485
9397	7.5761	5.6364	5.e-002	-3.7865e-006
9398	7.5761	5.3636	0.	-0.50395
9399	7.4837	5.4545	0.	-0.30083
9400	7.5761	5.4545	5.e-002	-9.0404e-006
9401	7.5761	5.1818	0.	-0.68849
9402	7.4837	5.2727	0.	-0.51623
9403	7.5761	5.2727	5.e-002	-1.5809e-005
9404	7.5761	5.	0.	-0.85787
9405	7.4837	5.0909	0.	-0.67595
9406	7.5761	5.0909	5.e-002	-2.8167e-005
9407	7.5761	4.8182	0.	-1.0222
9408	7.4837	4.9091	0.	-0.84062
9409	7.5761	4.9091	5.e-002	-3.1814e-005
9410	7.5761	4.6364	0.	-1.2133
9411	7.4837	4.7273	0.	-0.99636
9412	7.5761	4.7273	5.e-002	-5.1444e-005
9413	7.5761	4.4545	0.	-1.5649
9414	7.4837	4.5455	0.	-1.1898
9415	7.5761	4.5455	5.e-002	-1.0834e-004
9416	7.5761	4.2727	0.	-1.7457
9417	7.4837	4.3636	0.	-1.512
9418	7.5761	4.3636	5.e-002	-1.7902e-004
9419	7.5761	4.0909	0.	-1.8832
9420	7.4837	4.1818	0.	-1.6125
9421	7.5761	4.1818	5.e-002	-1.2099e-004
9422	7.5761	3.9091	0.	-1.9612
9423	7.4837	4.	0.	-1.9006
9424	7.5761	4.	5.e-002	-3.5524e-005
9425	7.5761	3.7273	0.	-1.1288
9426	7.4837	3.8182	0.	-1.8688
9427	7.5761	3.8182	5.e-002	-1.0393e-004
9428	7.5761	3.5455	0.	-1.2844e-002
9429	7.4837	3.6364	0.	-1.1882
9430	7.5761	3.6364	5.e-002	-3.2366e-005
9431	7.5761	3.3636	0.	0.52539
9432	7.4837	3.4545	0.	-0.52891
9433	7.5761	3.4545	5.e-002	-1.1957e-005
9434	7.5761	3.1818	0.	0.71069
9435	7.4837	3.2727	0.	0.15884
9436	7.5761	3.2727	5.e-002	6.8038e-006
9437	7.5761	3.	0.	0.75505
9438	7.4837	3.0909	0.	0.61494
9439	7.5761	3.0909	5.e-002	1.464e-005
9440	7.5761	2.8182	0.	0.71069
9441	7.4837	2.9091	0.	0.61494
9442	7.5761	2.9091	5.e-002	1.9231e-005
9443	7.5761	2.6364	0.	0.52539
9444	7.4837	2.7273	0.	0.15884
9445	7.5761	2.7273	5.e-002	2.5123e-005
9446	7.5761	2.4545	0.	-1.2845e-002
9447	7.4837	2.5455	0.	-0.52891
9448	7.5761	2.5455	5.e-002	4.1825e-005
9449	7.5761	2.2727	0.	-1.1288
9450	7.4837	2.3636	0.	-1.1882
9451	7.5761	2.3636	5.e-002	9.2795e-005
9452	7.5761	2.0909	0.	-1.9612
9453	7.4837	2.1818	0.	-1.8688
9454	7.5761	2.1818	5.e-002	1.6134e-004
9455	7.5761	1.9091	0.	-1.8832
9456	7.4837	2.	0.	-1.9006
9457	7.5761	2.	5.e-002	2.5963e-004
9458	7.5761	1.7273	0.	-1.7457
9459	7.4837	1.8182	0.	-1.6125
9460	7.5761	1.8182	5.e-002	4.2247e-004
9461	7.5761	1.5455	0.	-1.5649
9462	7.4837	1.6364	0.	-1.512
9463	7.5761	1.6364	5.e-002	3.2119e-004
9464	7.5761	1.3636	0.	-1.2133
9465	7.4837	1.4545	0.	-1.1898
9466	7.5761	1.4545	5.e-002	2.4308e-004
9467	7.5761	1.1818	0.	-1.0222
9468	7.4837	1.2727	0.	-0.99636
9469	7.5761	1.2727	5.e-002	1.7709e-004
9470	7.5761	1.	0.	-0.85787
9471	7.4837	1.0909	0.	-0.84062
9472	7.5761	1.0909	5.e-002	1.1497e-004
9473	7.5761	0.81818	0.	-0.68848
9474	7.4837	0.90909	0.	-0.67594
9475	7.5761	0.90909	5.e-002	6.7346e-005
9476	7.5761	0.63636	0.	-0.50395
9477	7.4837	0.72727	0.	-0.51623
9478	7.5761	0.72727	5.e-002	4.6982e-005
9479	7.5761	0.45455	0.	-0.35047
9480	7.4837	0.54545	0.	-0.30083
9481	7.5761	0.54545	5.e-002	2.8978e-005
9482	7.5761	0.27273	0.	5.5665e-002
9483	7.4837	0.36364	0.	-0.22485
9484	7.5761	0.36364	5.e-002	1.1164e-005
9485	7.4837	0.18182	0.	0.49059
9486	7.5761	0.18182	5.e-002	3.2475e-006
9487	7.5761	9.0909e-002	0.	2.0753e-002
9488	7.3913	5.7273	0.	0.15942
9489	7.2989	5.8182	0.	0.46683
9490	7.3913	5.8182	5.e-002	1.1283e-006
9491	7.3913	5.9091	0.	1.7077e-002
9492	7.3913	5.5455	0.	-0.19874
9493	7.2989	5.6364	0.	-0.16405
9494	7.3913	5.6364	5.e-002	-1.321e-006
9495	7.3913	5.3636	0.	-0.32607
9496	7.2989	5.4545	0.	-0.17318
9497	7.3913	5.4545	5.e-002	-6.2332e-006
9498	7.3913	5.1818	0.	-0.51028
9499	7.2989	5.2727	0.	-0.37871
9500	7.3913	5.2727	5.e-002	-9.7786e-006
9501	7.3913	5.	0.	-0.6636
9502	7.2989	5.0909	0.	-0.52706
9503	7.3913	5.0909	5.e-002	-1.8601e-005
9504	7.3913	4.8182	0.	-0.82027
9505	7.2989	4.9091	0.	-0.67892
9506	7.3913	4.9091	5.e-002	-2.3065e-005
9507	7.3913	4.6364	0.	-0.97659
9508	7.2989	4.7273	0.	-0.84041
9509	7.3913	4.7273	5.e-002	-4.7482e-005
9510	7.3913	4.4545	0.	-1.1305
9511	7.2989	4.5455	0.	-1.0241
9512	7.3913	4.5455	5.e-002	-6.648e-005
9513	7.3913	4.2727	0.	-1.3517
9514	7.2989	4.3636	0.	-1.2565
9515	7.3913	4.3636	5.e-002	-1.6895e-004
9516	7.3913	4.0909	0.	-1.5976
9517	7.2989	4.1818	0.	-1.6306
9518	7.3913	4.1818	5.e-002	-1.2232e-004
9519	7.3913	3.9091	0.	-1.8655
9520	7.2989	4.	0.	-2.1545
9521	7.3913	4.	5.e-002	-1.524e-004
9522	7.3913	3.7273	0.	-2.4711
9523	7.2989	3.8182	0.	-3.4529
9524	7.3913	3.8182	5.e-002	-9.6424e-005
9525	7.3913	3.5455	0.	-5.0537
9526	7.2989	3.6364	0.	-12.82
9527	7.3913	3.6364	5.e-002	-6.7255e-005
9528	7.3913	3.3636	0.	-19.721
9529	7.2989	3.4545	0.	-42.5
9530	7.3913	3.4545	5.e-002	-3.0167e-005
9531	7.3913	3.1818	0.	-32.147
9532	7.2989	3.2727	0.	-62.335
9533	7.3913	3.2727	5.e-002	-1.1644e-005
9534	7.3913	3.	0.	-35.833
9535	7.2989	3.0909	0.	-70.881
9536	7.3913	3.0909	5.e-002	-1.5674e-006
9537	7.3913	2.8182	0.	-32.147
9538	7.2989	2.9091	0.	-70.881
9539	7.3913	2.9091	5.e-002	8.5839e-006
9540	7.3913	2.6364	0.	-19.721
9541	7.2989	2.7273	0.	-62.335
9542	7.3913	2.7273	5.e-002	2.1992e-005
9543	7.3913	2.4545	0.	-5.0537
9544	7.2989	2.5455	0.	-42.5
9545	7.3913	2.5455	5.e-002	4.6795e-005
9546	7.3913	2.2727	0.	-2.4711
9547	7.2989	2.3636	0.	-12.82
9548	7.3913	2.3636	5.e-002	8.5907e-005
9549	7.3913	2.0909	0.	-1.8655
9550	7.2989	2.1818	0.	-3.4529
9551	7.3913	2.1818	5.e-002	2.1361e-004
9552	7.3913	1.9091	0.	-1.5976
9553	7.2989	2.	0.	-2.1545
9554	7.3913	2.	5.e-002	1.9353e-004
9555	7.3913	1.7273	0.	-1.3517
9556	7.2989	1.8182	0.	-1.6306
9557	7.3913	1.8182	5.e-002	2.4594e-004
9558	7.3913	1.5455	0.	-1.1305
9559	7.2989	1.6364	0.	-1.2565
9560	7.3913	1.6364	5.e-002	3.0483e-004
9561	7.3913	1.3636	0.	-0.97659
9562	7.2989	1.4545	0.	-1.0241
9563	7.3913	1.4545	5.e-002	2.5024e-004
9564	7.3913	1.1818	0.	-0.82027
9565	7.2989	1.2727	0.	-0.84041
9566	7.3913	1.2727	5.e-002	1.4773e-004
9567	7.3913	1.	0.	-0.6636
9568	7.2989	1.0909	0.	-0.67891
9569	7.3913	1.0909	5.e-002	1.0325e-004
9570	7.3913	0.81818	0.	-0.51028
9571	7.2989	0.90909	0.	-0.52705
9572	7.3913	0.90909	5.e-002	7.4295e-005
9573	7.3913	0.63636	0.	-0.32607
9574	7.2989	0.72727	0.	-0.3787
9575	7.3913	0.72727	5.e-002	4.1398e-005
9576	7.3913	0.45455	0.	-0.19873
9577	7.2989	0.54545	0.	-0.17318
9578	7.3913	0.54545	5.e-002	2.3603e-005
9579	7.3913	0.27273	0.	0.15943
9580	7.2989	0.36364	0.	-0.16405
9581	7.3913	0.36364	5.e-002	9.1372e-006
9582	7.2989	0.18182	0.	0.46683
9583	7.3913	0.18182	5.e-002	1.9899e-006
9584	7.3913	9.0909e-002	0.	1.7079e-002
9585	7.2065	5.7273	0.	0.13491
9586	7.1141	5.8182	0.	0.35864
9587	7.2065	5.8182	5.e-002	1.9278e-006
9588	7.2065	5.9091	0.	-1.0566e-002
9589	7.2065	5.5455	0.	-0.14369
9590	7.1141	5.6364	0.	-0.15065
9591	7.2065	5.6364	5.e-002	1.973e-006
9592	7.2065	5.3636	0.	-0.2306
9593	7.1141	5.4545	0.	-0.10869
9594	7.2065	5.4545	5.e-002	-3.2153e-006
9595	7.2065	5.1818	0.	-0.39881
9596	7.1141	5.2727	0.	-0.28841
9597	7.2065	5.2727	5.e-002	-8.5187e-006
9598	7.2065	5.	0.	-0.54476
9599	7.1141	5.0909	0.	-0.42548
9600	7.2065	5.0909	5.e-002	-2.3369e-005
9601	7.2065	4.8182	0.	-0.70035
9602	7.1141	4.9091	0.	-0.57715
9603	7.2065	4.9091	5.e-002	-1.619e-005
9604	7.2065	4.6364	0.	-0.88513
9605	7.1141	4.7273	0.	-0.75107
9606	7.2065	4.7273	5.e-002	-6.5221e-005
9607	7.2065	4.4545	0.	-1.1369
9608	7.1141	4.5455	0.	-0.98625
9609	7.2065	4.5455	5.e-002	-8.4283e-005
9610	7.2065	4.2727	0.	-1.5049
9611	7.1141	4.3636	0.	-1.3477
9612	7.2065	4.3636	5.e-002	-4.9792e-005
9613	7.2065	4.0909	0.	-2.1482
9614	7.1141	4.1818	0.	-2.0008
9615	7.2065	4.1818	5.e-002	-5.9785e-005
9616	7.2065	3.9091	0.	-3.8829
9617	7.1141	4.	0.	-3.8691
9618	7.2065	4.	5.e-002	-1.1858e-004
9619	7.2065	3.7273	0.	-18.338
9620	7.1141	3.8182	0.	-20.163
9621	7.2065	3.8182	5.e-002	-1.0737e-004
9622	7.2065	3.5455	0.	-57.475
9623	7.1141	3.6364	0.	-64.294
9624	7.2065	3.6364	5.e-002	-7.3591e-005
9625	7.2065	3.3636	0.	-86.429
9626	7.1141	3.4545	0.	-99.605
9627	7.2065	3.4545	5.e-002	-3.4173e-005
9628	7.2065	3.1818	0.	-102.35
9629	7.1141	3.2727	0.	-121.71
9630	7.2065	3.2727	5.e-002	-2.9086e-005
9631	7.2065	3.	0.	-107.32
9632	7.1141	3.0909	0.	-132.04
9633	7.2065	3.0909	5.e-002	-1.2345e-005
9634	7.2065	2.8182	0.	-102.35
9635	7.1141	2.9091	0.	-132.04
9636	7.2065	2.9091	5.e-002	-9.5319e-007
9637	7.2065	2.6364	0.	-86.429
9638	7.1141	2.7273	0.	-121.71
9639	7.2065	2.7273	5.e-002	2.1246e-005
9640	7.2065	2.4545	0.	-57.475
9641	7.1141	2.5455	0.	-99.605
9642	7.2065	2.5455	5.e-002	6.9435e-005
9643	7.2065	2.2727	0.	-18.338
9644	7.1141	2.3636	0.	-64.294
9645	7.2065	2.3636	5.e-002	1.0708e-004
9646	7.2065	2.0909	0.	-3.8829
9647	7.1141	2.1818	0.	-20.163
9648	7.2065	2.1818	5.e-002	1.1582e-004
9649	7.2065	1.9091	0.	-2.1482
9650	7.1141	2.	0.	-3.8691
9651	7.2065	2.	5.e-002	2.3774e-004
9652	7.2065	1.7273	0.	-1.5049
9653	7.1141	1.8182	0.	-2.0008
9654	7.2065	1.8182	5.e-002	3.7541e-004
9655	7.2065	1.5455	0.	-1.1369
9656	7.1141	1.6364	0.	-1.3477
9657	7.2065	1.6364	5.e-002	2.7313e-004
9658	7.2065	1.3636	0.	-0.88513
9659	7.1141	1.4545	0.	-0.98625
9660	7.2065	1.4545	5.e-002	2.4133e-004
9661	7.2065	1.1818	0.	-0.70035
9662	7.1141	1.2727	0.	-0.75107
9663	7.2065	1.2727	5.e-002	1.4028e-004
9664	7.2065	1.	0.	-0.54476
9665	7.1141	1.0909	0.	-0.57715
9666	7.2065	1.0909	5.e-002	1.1503e-004
9667	7.2065	0.81818	0.	-0.39881
9668	7.1141	0.90909	0.	-0.42548
9669	7.2065	0.90909	5.e-002	6.429e-005
9670	7.2065	0.63636	0.	-0.2306
9671	7.1141	0.72727	0.	-0.28841
9672	7.2065	0.72727	5.e-002	3.5106e-005
9673	7.2065	0.45455	0.	-0.14369
9674	7.1141	0.54545	0.	-0.10869
9675	7.2065	0.54545	5.e-002	2.1226e-005
9676	7.2065	0.27273	0.	0.13492
9677	7.1141	0.36364	0.	-0.15064
9678	7.2065	0.36364	5.e-002	5.6346e-006
9679	7.1141	0.18182	0.	0.35864
9680	7.2065	0.18182	5.e-002	-1.3653e-006
9681	7.2065	9.0909e-002	0.	-1.0565e-002
9682	7.0217	5.7273	0.	9.3117e-002
9683	6.9293	5.8182	0.	0.25161
9684	7.0217	5.8182	5.e-002	2.043e-006
9685	7.0217	5.9091	0.	-2.136e-002
9686	7.0217	5.5455	0.	-0.11075
9687	6.9293	5.6364	0.	-0.14005
9688	7.0217	5.6364	5.e-002	2.1904e-006
9689	7.0217	5.3636	0.	-0.16522
9690	6.9293	5.4545	0.	-7.077e-002
9691	7.0217	5.4545	5.e-002	1.115e-006
9692	7.0217	5.1818	0.	-0.31449
9693	6.9293	5.2727	0.	-0.22553
9694	7.0217	5.2727	5.e-002	-3.5447e-006
9695	7.0217	5.	0.	-0.45676
9696	6.9293	5.0909	0.	-0.35439
9697	7.0217	5.0909	5.e-002	-1.0311e-005
9698	7.0217	4.8182	0.	-0.62487
9699	6.9293	4.9091	0.	-0.51356
9700	7.0217	4.9091	5.e-002	-1.5037e-005
9701	7.0217	4.6364	0.	-0.84428
9702	6.9293	4.7273	0.	-0.71798
9703	7.0217	4.7273	5.e-002	-2.8427e-005
9704	7.0217	4.4545	0.	-1.1781
9705	6.9293	4.5455	0.	-1.0286
9706	7.0217	4.5455	5.e-002	-7.8726e-005
9707	7.0217	4.2727	0.	-1.8019
9708	6.9293	4.3636	0.	-1.6097
9709	7.0217	4.3636	5.e-002	1.3989e-006
9710	7.0217	4.0909	0.	-3.6352
9711	6.9293	4.1818	0.	-3.3017
9712	7.0217	4.1818	5.e-002	-1.1923e-004
9713	7.0217	3.9091	0.	-20.085
9714	6.9293	4.	0.	-18.323
9715	7.0217	4.	5.e-002	-7.0207e-005
9716	7.0217	3.7273	0.	-66.013
9717	6.9293	3.8182	0.	-64.67
9718	7.0217	3.8182	5.e-002	-4.0603e-005
9719	7.0217	3.5455	0.	-106.5
9720	6.9293	3.6364	0.	-108.53
9721	7.0217	3.6364	5.e-002	-5.1637e-005
9722	7.0217	3.3636	0.	-135.31
9723	6.9293	3.4545	0.	-142.31
9724	7.0217	3.4545	5.e-002	-4.0324e-005
9725	7.0217	3.1818	0.	-152.08
9726	6.9293	3.2727	0.	-164.53
9727	7.0217	3.2727	5.e-002	-3.6021e-005
9728	7.0217	3.	0.	-157.53
9729	6.9293	3.0909	0.	-175.39
9730	7.0217	3.0909	5.e-002	-2.1362e-005
9731	7.0217	2.8182	0.	-152.08
9732	6.9293	2.9091	0.	-175.39
9733	7.0217	2.9091	5.e-002	-3.8423e-006
9734	7.0217	2.6364	0.	-135.31
9735	6.9293	2.7273	0.	-164.53
9736	7.0217	2.7273	5.e-002	1.9393e-005
9737	7.0217	2.4545	0.	-106.5
9738	6.9293	2.5455	0.	-142.31
9739	7.0217	2.5455	5.e-002	5.2803e-005
9740	7.0217	2.2727	0.	-66.013
9741	6.9293	2.3636	0.	-108.53
9742	7.0217	2.3636	5.e-002	1.2109e-004
9743	7.0217	2.0909	0.	-20.086
9744	6.9293	2.1818	0.	-64.67
9745	7.0217	2.1818	5.e-002	1.4822e-004
9746	7.0217	1.9091	0.	-3.6352
9747	6.9293	2.	0.	-18.323
9748	7.0217	2.	5.e-002	3.2708e-004
9749	7.0217	1.7273	0.	-1.8019
9750	6.9293	1.8182	0.	-3.3017
9751	7.0217	1.8182	5.e-002	3.1785e-004
9752	7.0217	1.5455	0.	-1.1781
9753	6.9293	1.6364	0.	-1.6097
9754	7.0217	1.6364	5.e-002	2.6198e-004
9755	7.0217	1.3636	0.	-0.84427
9756	6.9293	1.4545	0.	-1.0286
9757	7.0217	1.4545	5.e-002	2.2567e-004
9758	7.0217	1.1818	0.	-0.62487
9759	6.9293	1.2727	0.	-0.71798
9760	7.0217	1.2727	5.e-002	1.4224e-004
9761	7.0217	1.	0.	-0.45675
9762	6.9293	1.0909	0.	-0.51355
9763	7.0217	1.0909	5.e-002	9.8482e-005
9764	7.0217	0.81818	0.	-0.31449
9765	6.9293	0.90909	0.	-0.35439
9766	7.0217	0.90909	5.e-002	6.0488e-005
9767	7.0217	0.63636	0.	-0.16522
9768	6.9293	0.72727	0.	-0.22552
9769	7.0217	0.72727	5.e-002	3.1355e-005
9770	7.0217	0.45455	0.	-0.11075
9771	6.9293	0.54545	0.	-7.0769e-002
9772	7.0217	0.54545	5.e-002	1.3962e-005
9773	7.0217	0.27273	0.	9.3119e-002
9774	6.9293	0.36364	0.	-0.14005
9775	7.0217	0.36364	5.e-002	2.1567e-006
9776	6.9293	0.18182	0.	0.25161
9777	7.0217	0.18182	5.e-002	-7.5969e-007
9778	7.0217	9.0909e-002	0.	-2.1358e-002
9779	6.837	5.7273	0.	5.6022e-002
9780	6.7446	5.8182	0.	0.1684
9781	6.837	5.8182	5.e-002	2.4744e-006
9782	6.837	5.9091	0.	-2.299e-002
9783	6.837	5.5455	0.	-9.0191e-002
9784	6.7446	5.6364	0.	-0.12591
9785	6.837	5.6364	5.e-002	3.2212e-006
9786	6.837	5.3636	0.	-0.12614
9787	6.7446	5.4545	0.	-5.1163e-002
9788	6.837	5.4545	5.e-002	1.3738e-006
9789	6.837	5.1818	0.	-0.26171
9790	6.7446	5.2727	0.	-0.1875
9791	6.837	5.2727	5.e-002	4.1116e-007
9792	6.837	5.	0.	-0.40689
9793	6.7446	5.0909	0.	-0.31587
9794	6.837	5.0909	5.e-002	-4.1435e-006
9795	6.837	4.8182	0.	-0.59988
9796	6.7446	4.9091	0.	-0.49375
9797	6.837	4.9091	5.e-002	-4.6772e-006
9798	6.837	4.6364	0.	-0.8895
9799	6.7446	4.7273	0.	-0.75795
9800	6.837	4.7273	5.e-002	1.2995e-006
9801	6.837	4.4545	0.	-1.433
9802	6.7446	4.5455	0.	-1.2518
9803	6.837	4.5455	5.e-002	3.0756e-006
9804	6.837	4.2727	0.	-3.0382
9805	6.7446	4.3636	0.	-2.689
9806	6.837	4.3636	5.e-002	-3.7819e-005
9807	6.837	4.0909	0.	-17.444
9808	6.7446	4.1818	0.	-15.403
9809	6.837	4.1818	5.e-002	-4.9469e-005
9810	6.837	3.9091	0.	-62.098
9811	6.7446	4.	0.	-58.299
9812	6.837	4.	5.e-002	-5.3855e-006
9813	6.837	3.7273	0.	-106.95
9814	6.7446	3.8182	0.	-103.74
9815	6.837	3.8182	5.e-002	-3.1229e-005
9816	6.837	3.5455	0.	-144.36
9817	6.7446	3.6364	0.	-143.78
9818	6.837	3.6364	5.e-002	-1.8525e-005
9819	6.837	3.3636	0.	-171.74
9820	6.7446	3.4545	0.	-175.22
9821	6.837	3.4545	5.e-002	-3.8109e-005
9822	6.837	3.1818	0.	-188.2
9823	6.7446	3.2727	0.	-196.52
9824	6.837	3.2727	5.e-002	-2.8201e-005
9825	6.837	3.	0.	-193.67
9826	6.7446	3.0909	0.	-207.19
9827	6.837	3.0909	5.e-002	-2.4981e-005
9828	6.837	2.8182	0.	-188.2
9829	6.7446	2.9091	0.	-207.19
9830	6.837	2.9091	5.e-002	-7.2294e-006
9831	6.837	2.6364	0.	-171.74
9832	6.7446	2.7273	0.	-196.52
9833	6.837	2.7273	5.e-002	2.7409e-005
9834	6.837	2.4545	0.	-144.36
9835	6.7446	2.5455	0.	-175.22
9836	6.837	2.5455	5.e-002	9.3749e-005
9837	6.837	2.2727	0.	-106.95
9838	6.7446	2.3636	0.	-143.78
9839	6.837	2.3636	5.e-002	1.2744e-004
9840	6.837	2.0909	0.	-62.098
9841	6.7446	2.1818	0.	-103.74
9842	6.837	2.1818	5.e-002	2.3704e-004
9843	6.837	1.9091	0.	-17.444
9844	6.7446	2.	0.	-58.299
9845	6.837	2.	5.e-002	2.34e-004
9846	6.837	1.7273	0.	-3.0382
9847	6.7446	1.8182	0.	-15.403
9848	6.837	1.8182	5.e-002	2.5759e-004
9849	6.837	1.5455	0.	-1.433
9850	6.7446	1.6364	0.	-2.689
9851	6.837	1.6364	5.e-002	2.5089e-004
9852	6.837	1.3636	0.	-0.8895
9853	6.7446	1.4545	0.	-1.2518
9854	6.837	1.4545	5.e-002	2.0594e-004
9855	6.837	1.1818	0.	-0.59988
9856	6.7446	1.2727	0.	-0.75795
9857	6.837	1.2727	5.e-002	1.5149e-004
9858	6.837	1.	0.	-0.40689
9859	6.7446	1.0909	0.	-0.49375
9860	6.837	1.0909	5.e-002	1.0519e-004
9861	6.837	0.81818	0.	-0.26171
9862	6.7446	0.90909	0.	-0.31587
9863	6.837	0.90909	5.e-002	5.1602e-005
9864	6.837	0.63636	0.	-0.12613
9865	6.7446	0.72727	0.	-0.18749
9866	6.837	0.72727	5.e-002	2.6499e-005
9867	6.837	0.45455	0.	-9.019e-002
9868	6.7446	0.54545	0.	-5.1162e-002
9869	6.837	0.54545	5.e-002	1.0929e-005
9870	6.837	0.27273	0.	5.6024e-002
9871	6.7446	0.36364	0.	-0.12591
9872	6.837	0.36364	5.e-002	6.4926e-008
9873	6.7446	0.18182	0.	0.1684
9874	6.837	0.18182	5.e-002	-2.1043e-006
9875	6.837	9.0909e-002	0.	-2.2988e-002
9876	6.6522	5.7273	0.	3.2167e-002
9877	6.5598	5.8182	0.	0.11339
9878	6.6522	5.8182	5.e-002	1.7819e-006
9879	6.6522	5.9091	0.	-1.6196e-002
9880	6.6522	5.5455	0.	-7.5005e-002
9881	6.5598	5.6364	0.	-0.10765
9882	6.6522	5.6364	5.e-002	3.1101e-006
9883	6.6522	5.3636	0.	-0.10565
9884	6.5598	5.4545	0.	-4.4614e-002
9885	6.6522	5.4545	5.e-002	2.7242e-006
9886	6.6522	5.1818	0.	-0.23588
9887	6.5598	5.2727	0.	-0.17178
9888	6.6522	5.2727	5.e-002	-1.5491e-006
9889	6.6522	5.	0.	-0.39612
9890	6.5598	5.0909	0.	-0.31259
9891	6.6522	5.0909	5.e-002	-2.7398e-006
9892	6.6522	4.8182	0.	-0.64247
9893	6.5598	4.9091	0.	-0.53733
9894	6.6522	4.9091	5.e-002	-5.8989e-007
9895	6.6522	4.6364	0.	-1.1057
9896	6.5598	4.7273	0.	-0.95974
9897	6.6522	4.7273	5.e-002	-1.7514e-005
9898	6.6522	4.4545	0.	-2.499
9899	6.5598	4.5455	0.	-2.2349
9900	6.6522	4.5455	5.e-002	-2.3594e-005
9901	6.6522	4.2727	0.	-15.277
9902	6.5598	4.3636	0.	-14.044
9903	6.6522	4.3636	5.e-002	1.3006e-005
9904	6.6522	4.0909	0.	-55.682
9905	6.5598	4.1818	0.	-52.217
9906	6.6522	4.1818	5.e-002	1.3103e-005
9907	6.6522	3.9091	0.	-99.675
9908	6.5598	4.	0.	-95.148
9909	6.6522	4.	5.e-002	3.6985e-006
9910	6.6522	3.7273	0.	-140.46
9911	6.5598	3.8182	0.	-136.53
9912	6.6522	3.8182	5.e-002	-1.8543e-005
9913	6.6522	3.5455	0.	-174.65
9914	6.5598	3.6364	0.	-172.93
9915	6.6522	3.6364	5.e-002	-4.261e-005
9916	6.6522	3.3636	0.	-200.12
9917	6.5598	3.4545	0.	-201.86
9918	6.6522	3.4545	5.e-002	-6.1194e-005
9919	6.6522	3.1818	0.	-215.7
9920	6.5598	3.2727	0.	-221.76
9921	6.6522	3.2727	5.e-002	-3.2711e-005
9922	6.6522	3.	0.	-220.93
9923	6.5598	3.0909	0.	-231.87
9924	6.6522	3.0909	5.e-002	-2.9228e-005
9925	6.6522	2.8182	0.	-215.7
9926	6.5598	2.9091	0.	-231.87
9927	6.6522	2.9091	5.e-002	-7.2747e-006
9928	6.6522	2.6364	0.	-200.12
9929	6.5598	2.7273	0.	-221.76
9930	6.6522	2.7273	5.e-002	4.4276e-005
9931	6.6522	2.4545	0.	-174.65
9932	6.5598	2.5455	0.	-201.86
9933	6.6522	2.5455	5.e-002	1.0593e-004
9934	6.6522	2.2727	0.	-140.46
9935	6.5598	2.3636	0.	-172.93
9936	6.6522	2.3636	5.e-002	1.6842e-004
9937	6.6522	2.0909	0.	-99.675
9938	6.5598	2.1818	0.	-136.53
9939	6.6522	2.1818	5.e-002	2.773e-004
9940	6.6522	1.9091	0.	-55.682
9941	6.5598	2.	0.	-95.148
9942	6.6522	2.	5.e-002	2.469e-004
9943	6.6522	1.7273	0.	-15.277
9944	6.5598	1.8182	0.	-52.217
9945	6.6522	1.8182	5.e-002	2.4769e-004
9946	6.6522	1.5455	0.	-2.499
9947	6.5598	1.6364	0.	-14.044
9948	6.6522	1.6364	5.e-002	2.2078e-004
9949	6.6522	1.3636	0.	-1.1057
9950	6.5598	1.4545	0.	-2.2349
9951	6.6522	1.4545	5.e-002	1.5462e-004
9952	6.6522	1.1818	0.	-0.64247
9953	6.5598	1.2727	0.	-0.95973
9954	6.6522	1.2727	5.e-002	1.3781e-004
9955	6.6522	1.	0.	-0.39612
9956	6.5598	1.0909	0.	-0.53733
9957	6.6522	1.0909	5.e-002	8.129e-005
9958	6.6522	0.81818	0.	-0.23588
9959	6.5598	0.90909	0.	-0.31259
9960	6.6522	0.90909	5.e-002	4.7017e-005
9961	6.6522	0.63636	0.	-0.10565
9962	6.5598	0.72727	0.	-0.17178
9963	6.6522	0.72727	5.e-002	2.5197e-005
9964	6.6522	0.45455	0.	-7.5004e-002
9965	6.5598	0.54545	0.	-4.4613e-002
9966	6.6522	0.54545	5.e-002	7.6164e-006
9967	6.6522	0.27273	0.	3.2169e-002
9968	6.5598	0.36364	0.	-0.10765
9969	6.6522	0.36364	5.e-002	-1.579e-006
9970	6.5598	0.18182	0.	0.11339
9971	6.6522	0.18182	5.e-002	-3.1035e-006
9972	6.6522	9.0909e-002	0.	-1.6195e-002
9973	6.4674	5.7273	0.	1.9874e-002
9974	6.375	5.8182	0.	8.1828e-002
9975	6.4674	5.8182	5.e-002	1.7689e-006
9976	6.4674	5.9091	0.	-4.1916e-003
9977	6.4674	5.5455	0.	-6.5182e-002
9978	6.375	5.6364	0.	-8.8578e-002
9979	6.4674	5.6364	5.e-002	2.8163e-006
9980	6.4674	5.3636	0.	-0.10321
9981	6.375	5.4545	0.	-5.1433e-002
9982	6.4674	5.4545	5.e-002	3.01e-006
9983	6.4674	5.1818	0.	-0.24204
9984	6.375	5.2727	0.	-0.18403
9985	6.4674	5.2727	5.e-002	2.8749e-006
9986	6.4674	5.	0.	-0.44756
9987	6.375	5.0909	0.	-0.36831
9988	6.4674	5.0909	5.e-002	-9.664e-006
9989	6.4674	4.8182	0.	-0.8527
9990	6.375	4.9091	0.	-0.74659
9991	6.4674	4.9091	5.e-002	-6.984e-006
9992	6.4674	4.6364	0.	-2.1663
9993	6.375	4.7273	0.	-2.0296
9994	6.4674	4.7273	5.e-002	-2.8847e-005
9995	6.4674	4.4545	0.	-15.066
9996	6.375	4.5455	0.	-14.988
9997	6.4674	4.5455	5.e-002	-4.12e-005
9998	6.4674	4.2727	0.	-50.933
9999	6.375	4.3636	0.	-48.767
10000	6.4674	4.3636	5.e-002	-2.075e-005
10001	6.4674	4.0909	0.	-91.493
10002	6.375	4.1818	0.	-87.583
10003	6.4674	4.1818	5.e-002	1.9258e-005
10004	6.4674	3.9091	0.	-131.88
10005	6.375	4.	0.	-127.33
10006	6.4674	4.	5.e-002	1.3976e-005
10007	6.4674	3.7273	0.	-168.95
10008	6.375	3.8182	0.	-165.07
10009	6.4674	3.8182	5.e-002	-2.4141e-006
10010	6.4674	3.5455	0.	-200.14
10011	6.375	3.6364	0.	-198.23
10012	6.4674	3.6364	5.e-002	2.6652e-005
10013	6.4674	3.3636	0.	-223.57
10014	6.375	3.4545	0.	-224.73
10015	6.4674	3.4545	5.e-002	-5.2431e-005
10016	6.4674	3.1818	0.	-238.04
10017	6.375	3.2727	0.	-243.11
10018	6.4674	3.2727	5.e-002	-5.5835e-005
10019	6.4674	3.	0.	-242.92
10020	6.375	3.0909	0.	-252.49
10021	6.4674	3.0909	5.e-002	-2.9894e-005
10022	6.4674	2.8182	0.	-238.04
10023	6.375	2.9091	0.	-252.49
10024	6.4674	2.9091	5.e-002	-2.1214e-006
10025	6.4674	2.6364	0.	-223.57
10026	6.375	2.7273	0.	-243.11
10027	6.4674	2.7273	5.e-002	5.7826e-005
10028	6.4674	2.4545	0.	-200.14
10029	6.375	2.5455	0.	-224.73
10030	6.4674	2.5455	5.e-002	1.186e-004
10031	6.4674	2.2727	0.	-168.95
10032	6.375	2.3636	0.	-198.23
10033	6.4674	2.3636	5.e-002	2.1781e-004
10034	6.4674	2.0909	0.	-131.88
10035	6.375	2.1818	0.	-165.07
10036	6.4674	2.1818	5.e-002	2.43e-004
10037	6.4674	1.9091	0.	-91.493
10038	6.375	2.	0.	-127.33
10039	6.4674	2.	5.e-002	2.4228e-004
10040	6.4674	1.7273	0.	-50.933
10041	6.375	1.8182	0.	-87.583
10042	6.4674	1.8182	5.e-002	2.264e-004
10043	6.4674	1.5455	0.	-15.066
10044	6.375	1.6364	0.	-48.767
10045	6.4674	1.6364	5.e-002	1.9372e-004
10046	6.4674	1.3636	0.	-2.1663
10047	6.375	1.4545	0.	-14.988
10048	6.4674	1.4545	5.e-002	1.3054e-004
10049	6.4674	1.1818	0.	-0.8527
10050	6.375	1.2727	0.	-2.0296
10051	6.4674	1.2727	5.e-002	1.0043e-004
10052	6.4674	1.	0.	-0.44755
10053	6.375	1.0909	0.	-0.74659
10054	6.4674	1.0909	5.e-002	8.2505e-005
10055	6.4674	0.81818	0.	-0.24204
10056	6.375	0.90909	0.	-0.36831
10057	6.4674	0.90909	5.e-002	4.426e-005
10058	6.4674	0.63636	0.	-0.10321
10059	6.375	0.72727	0.	-0.18403
10060	6.4674	0.72727	5.e-002	1.7873e-005
10061	6.4674	0.45455	0.	-6.5181e-002
10062	6.375	0.54545	0.	-5.1433e-002
10063	6.4674	0.54545	5.e-002	5.5875e-006
10064	6.4674	0.27273	0.	1.9876e-002
10065	6.375	0.36364	0.	-8.8576e-002
10066	6.4674	0.36364	5.e-002	-1.3032e-006
10067	6.375	0.18182	0.	8.183e-002
10068	6.4674	0.18182	5.e-002	-2.3858e-006
10069	6.4674	9.0909e-002	0.	-4.1903e-003
10070	6.2826	5.7273	0.	1.4856e-002
10071	6.1902	5.8182	0.	6.6268e-002
10072	6.2826	5.8182	5.e-002	1.0109e-006
10073	6.2826	5.9091	0.	1.0743e-002
10074	6.2826	5.5455	0.	-6.3922e-002
10075	6.1902	5.6364	0.	-7.447e-002
10076	6.2826	5.6364	5.e-002	2.7957e-006
10077	6.2826	5.3636	0.	-0.12596
10078	6.1902	5.4545	0.	-8.04e-002
10079	6.2826	5.4545	5.e-002	1.408e-006
10080	6.2826	5.1818	0.	-0.30829
10081	6.1902	5.2727	0.	-0.25591
10082	6.2826	5.2727	5.e-002	8.0416e-007
10083	6.2826	5.	0.	-0.68504
10084	6.1902	5.0909	0.	-0.62453
10085	6.2826	5.0909	5.e-002	-1.8983e-006
10086	6.2826	4.8182	0.	-2.2004
10087	6.1902	4.9091	0.	-2.3578
10088	6.2826	4.9091	5.e-002	6.7506e-006
10089	6.2826	4.6364	0.	-17.353
10090	6.1902	4.7273	0.	-18.509
10091	6.2826	4.7273	5.e-002	-8.8607e-006
10092	6.2826	4.4545	0.	-48.989
10093	6.1902	4.5455	0.	-48.208
10094	6.2826	4.5455	5.e-002	-1.1902e-005
10095	6.2826	4.2727	0.	-85.325
10096	6.1902	4.3636	0.	-82.681
10097	6.2826	4.3636	5.e-002	1.7987e-005
10098	6.2826	4.0909	0.	-123.33
10099	6.1902	4.1818	0.	-119.48
10100	6.2826	4.1818	5.e-002	2.1761e-005
10101	6.2826	3.9091	0.	-160.47
10102	6.1902	4.	0.	-156.35
10103	6.2826	4.	5.e-002	2.1693e-005
10104	6.2826	3.7273	0.	-194.34
10105	6.1902	3.8182	0.	-191.01
10106	6.2826	3.8182	5.e-002	1.4804e-005
10107	6.2826	3.5455	0.	-222.83
10108	6.1902	3.6364	0.	-221.37
10109	6.2826	3.6364	5.e-002	-1.6459e-006
10110	6.2826	3.3636	0.	-244.31
10111	6.1902	3.4545	0.	-245.65
10112	6.2826	3.4545	5.e-002	2.7899e-005
10113	6.2826	3.1818	0.	-257.62
10114	6.1902	3.2727	0.	-262.54
10115	6.2826	3.2727	5.e-002	5.457e-005
10116	6.2826	3.	0.	-262.13
10117	6.1902	3.0909	0.	-271.18
10118	6.2826	3.0909	5.e-002	-2.9706e-005
10119	6.2826	2.8182	0.	-257.62
10120	6.1902	2.9091	0.	-271.18
10121	6.2826	2.9091	5.e-002	1.8844e-005
10122	6.2826	2.6364	0.	-244.31
10123	6.1902	2.7273	0.	-262.54
10124	6.2826	2.7273	5.e-002	1.5801e-004
10125	6.2826	2.4545	0.	-222.83
10126	6.1902	2.5455	0.	-245.65
10127	6.2826	2.5455	5.e-002	1.724e-004
10128	6.2826	2.2727	0.	-194.34
10129	6.1902	2.3636	0.	-221.37
10130	6.2826	2.3636	5.e-002	2.4418e-004
10131	6.2826	2.0909	0.	-160.47
10132	6.1902	2.1818	0.	-191.02
10133	6.2826	2.1818	5.e-002	1.7821e-004
10134	6.2826	1.9091	0.	-123.33
10135	6.1902	2.	0.	-156.35
10136	6.2826	2.	5.e-002	2.1907e-004
10137	6.2826	1.7273	0.	-85.325
10138	6.1902	1.8182	0.	-119.48
10139	6.2826	1.8182	5.e-002	1.5244e-004
10140	6.2826	1.5455	0.	-48.989
10141	6.1902	1.6364	0.	-82.681
10142	6.2826	1.6364	5.e-002	1.6658e-004
10143	6.2826	1.3636	0.	-17.353
10144	6.1902	1.4545	0.	-48.208
10145	6.2826	1.4545	5.e-002	1.3571e-004
10146	6.2826	1.1818	0.	-2.2004
10147	6.1902	1.2727	0.	-18.509
10148	6.2826	1.2727	5.e-002	1.0386e-004
10149	6.2826	1.	0.	-0.68504
10150	6.1902	1.0909	0.	-2.3578
10151	6.2826	1.0909	5.e-002	5.2021e-005
10152	6.2826	0.81818	0.	-0.30829
10153	6.1902	0.90909	0.	-0.62453
10154	6.2826	0.90909	5.e-002	3.3667e-005
10155	6.2826	0.63636	0.	-0.12596
10156	6.1902	0.72727	0.	-0.25591
10157	6.2826	0.72727	5.e-002	1.6314e-005
10158	6.2826	0.45455	0.	-6.3921e-002
10159	6.1902	0.54545	0.	-8.0399e-002
10160	6.2826	0.54545	5.e-002	7.722e-006
10161	6.2826	0.27273	0.	1.4858e-002
10162	6.1902	0.36364	0.	-7.4467e-002
10163	6.2826	0.36364	5.e-002	-6.1759e-007
10164	6.1902	0.18182	0.	6.627e-002
10165	6.2826	0.18182	5.e-002	-2.1321e-006
10166	6.2826	9.0909e-002	0.	1.0744e-002
10167	6.0978	5.7273	0.	9.6756e-003
10168	6.0054	5.8182	0.	5.6359e-002
10169	6.0978	5.8182	5.e-002	1.5108e-006
10170	6.0978	5.9091	0.	2.6288e-002
10171	6.0978	5.5455	0.	-8.4316e-002
10172	6.0054	5.6364	0.	-8.1571e-002
10173	6.0978	5.6364	5.e-002	2.0264e-006
10174	6.0978	5.3636	0.	-0.21637
10175	6.0054	5.4545	0.	-0.18403
10176	6.0978	5.4545	5.e-002	8.278e-007
10177	6.0978	5.1818	0.	-0.64104
10178	6.0054	5.2727	0.	-0.67359
10179	6.0978	5.2727	5.e-002	3.307e-006
10180	6.0978	5.	0.	-3.5192
10181	6.0054	5.0909	0.	-5.1697
10182	6.0978	5.0909	5.e-002	-1.5689e-006
10183	6.0978	4.8182	0.	-21.995
10184	6.0054	4.9091	0.	-23.971
10185	6.0978	4.9091	5.e-002	6.2686e-006
10186	6.0978	4.6364	0.	-49.647
10187	6.0054	4.7273	0.	-49.895
10188	6.0978	4.7273	5.e-002	1.1415e-005
10189	6.0978	4.4545	0.	-81.871
10190	6.0054	4.5455	0.	-80.432
10191	6.0978	4.5455	5.e-002	1.3828e-005
10192	6.0978	4.2727	0.	-116.79
10193	6.0054	4.3636	0.	-114.04
10194	6.0978	4.3636	5.e-002	1.781e-005
10195	6.0978	4.0909	0.	-152.47
10196	6.0054	4.1818	0.	-149.
10197	6.0978	4.1818	5.e-002	2.4089e-005
10198	6.0978	3.9091	0.	-186.88
10199	6.0054	4.	0.	-183.48
10200	6.0978	4.	5.e-002	2.677e-005
10201	6.0978	3.7273	0.	-218.04
10202	6.0054	3.8182	0.	-215.59
10203	6.0978	3.8182	5.e-002	2.596e-005
10204	6.0978	3.5455	0.	-244.19
10205	6.0054	3.6364	0.	-243.56
10206	6.0978	3.6364	5.e-002	2.1063e-005
10207	6.0978	3.3636	0.	-263.9
10208	6.0054	3.4545	0.	-265.9
10209	6.0978	3.4545	5.e-002	7.2244e-005
10210	6.0978	3.1818	0.	-276.13
10211	6.0054	3.2727	0.	-281.44
10212	6.0978	3.2727	5.e-002	5.9841e-005
10213	6.0978	3.	0.	-280.28
10214	6.0054	3.0909	0.	-289.4
10215	6.0978	3.0909	5.e-002	1.4756e-005
10216	6.0978	2.8182	0.	-276.13
10217	6.0054	2.9091	0.	-289.4
10218	6.0978	2.9091	5.e-002	6.7672e-005
10219	6.0978	2.6364	0.	-263.9
10220	6.0054	2.7273	0.	-281.44
10221	6.0978	2.7273	5.e-002	1.2272e-004
10222	6.0978	2.4545	0.	-244.19
10223	6.0054	2.5455	0.	-265.9
10224	6.0978	2.5455	5.e-002	1.719e-004
10225	6.0978	2.2727	0.	-218.04
10226	6.0054	2.3636	0.	-243.56
10227	6.0978	2.3636	5.e-002	2.148e-004
10228	6.0978	2.0909	0.	-186.88
10229	6.0054	2.1818	0.	-215.59
10230	6.0978	2.1818	5.e-002	1.9745e-004
10231	6.0978	1.9091	0.	-152.47
10232	6.0054	2.	0.	-183.48
10233	6.0978	2.	5.e-002	1.8077e-004
10234	6.0978	1.7273	0.	-116.79
10235	6.0054	1.8182	0.	-149.
10236	6.0978	1.8182	5.e-002	8.968e-005
10237	6.0978	1.5455	0.	-81.871
10238	6.0054	1.6364	0.	-114.04
10239	6.0978	1.6364	5.e-002	5.448e-005
10240	6.0978	1.3636	0.	-49.647
10241	6.0054	1.4545	0.	-80.432
10242	6.0978	1.4545	5.e-002	7.4624e-005
10243	6.0978	1.1818	0.	-21.995
10244	6.0054	1.2727	0.	-49.895
10245	6.0978	1.2727	5.e-002	9.1426e-005
10246	6.0978	1.	0.	-3.5192
10247	6.0054	1.0909	0.	-23.971
10248	6.0978	1.0909	5.e-002	2.4004e-005
10249	6.0978	0.81818	0.	-0.64104
10250	6.0054	0.90909	0.	-5.1697
10251	6.0978	0.90909	5.e-002	2.9029e-005
10252	6.0978	0.63636	0.	-0.21637
10253	6.0054	0.72727	0.	-0.67359
10254	6.0978	0.72727	5.e-002	1.1815e-005
10255	6.0978	0.45455	0.	-8.4315e-002
10256	6.0054	0.54545	0.	-0.18403
10257	6.0978	0.54545	5.e-002	7.1895e-006
10258	6.0978	0.27273	0.	9.6776e-003
10259	6.0054	0.36364	0.	-8.1568e-002
10260	6.0978	0.36364	5.e-002	3.6334e-007
10261	6.0054	0.18182	0.	5.6361e-002
10262	6.0978	0.18182	5.e-002	-1.5426e-006
10263	6.0978	9.0909e-002	0.	2.629e-002
10264	5.913	5.7273	0.	-1.8875e-002
10265	5.8207	5.8182	0.	2.0609e-002
10266	5.913	5.8182	5.e-002	8.8648e-007
10267	5.913	5.9091	0.	3.8319e-002
10268	5.913	5.5455	0.	-0.21456
10269	5.8207	5.6364	0.	-0.24781
10270	5.913	5.6364	5.e-002	1.4837e-006
10271	5.913	5.3636	0.	-1.0366
10272	5.8207	5.4545	0.	-1.9581
10273	5.913	5.4545	5.e-002	7.2172e-007
10274	5.913	5.1818	0.	-9.4207
10275	5.8207	5.2727	0.	-12.359
10276	5.913	5.2727	5.e-002	-8.0536e-007
10277	5.913	5.	0.	-27.831
10278	5.8207	5.0909	0.	-29.813
10279	5.913	5.0909	5.e-002	-1.5033e-006
10280	5.913	4.8182	0.	-52.007
10281	5.8207	4.9091	0.	-52.659
10282	5.913	4.9091	5.e-002	6.0067e-006
10283	5.913	4.6364	0.	-80.679
10284	5.8207	4.7273	0.	-79.991
10285	5.913	4.7273	5.e-002	8.8087e-006
10286	5.913	4.4545	0.	-112.58
10287	5.8207	4.5455	0.	-110.73
10288	5.913	4.5455	5.e-002	1.2097e-005
10289	5.913	4.2727	0.	-146.23
10290	5.8207	4.3636	0.	-143.6
10291	5.913	4.3636	5.e-002	1.7086e-005
10292	5.913	4.0909	0.	-180.01
10293	5.8207	4.1818	0.	-177.1
10294	5.913	4.1818	5.e-002	1.9308e-005
10295	5.913	3.9091	0.	-212.18
10296	5.8207	4.	0.	-209.67
10297	5.913	4.	5.e-002	2.69e-005
10298	5.913	3.7273	0.	-241.11
10299	5.8207	3.8182	0.	-239.71
10300	5.913	3.8182	5.e-002	6.5418e-005
10301	5.913	3.5455	0.	-265.28
10302	5.8207	3.6364	0.	-265.72
10303	5.913	3.6364	5.e-002	1.0747e-004
10304	5.913	3.3636	0.	-283.46
10305	5.8207	3.4545	0.	-286.43
10306	5.913	3.4545	5.e-002	6.8085e-005
10307	5.913	3.1818	0.	-294.73
10308	5.8207	3.2727	0.	-300.81
10309	5.913	3.2727	5.e-002	5.9383e-005
10310	5.913	3.	0.	-298.55
10311	5.8207	3.0909	0.	-308.18
10312	5.913	3.0909	5.e-002	3.223e-005
10313	5.913	2.8182	0.	-294.73
10314	5.8207	2.9091	0.	-308.18
10315	5.913	2.9091	5.e-002	-9.4301e-006
10316	5.913	2.6364	0.	-283.46
10317	5.8207	2.7273	0.	-300.81
10318	5.913	2.7273	5.e-002	3.5859e-005
10319	5.913	2.4545	0.	-265.28
10320	5.8207	2.5455	0.	-286.43
10321	5.913	2.5455	5.e-002	1.3921e-004
10322	5.913	2.2727	0.	-241.11
10323	5.8207	2.3636	0.	-265.72
10324	5.913	2.3636	5.e-002	6.8883e-005
10325	5.913	2.0909	0.	-212.19
10326	5.8207	2.1818	0.	-239.71
10327	5.913	2.1818	5.e-002	1.1024e-004
10328	5.913	1.9091	0.	-180.01
10329	5.8207	2.	0.	-209.67
10330	5.913	2.	5.e-002	4.0305e-005
10331	5.913	1.7273	0.	-146.23
10332	5.8207	1.8182	0.	-177.1
10333	5.913	1.8182	5.e-002	1.3068e-004
10334	5.913	1.5455	0.	-112.58
10335	5.8207	1.6364	0.	-143.6
10336	5.913	1.6364	5.e-002	9.0293e-005
10337	5.913	1.3636	0.	-80.679
10338	5.8207	1.4545	0.	-110.73
10339	5.913	1.4545	5.e-002	7.9886e-005
10340	5.913	1.1818	0.	-52.007
10341	5.8207	1.2727	0.	-79.991
10342	5.913	1.2727	5.e-002	5.1723e-005
10343	5.913	1.	0.	-27.831
10344	5.8207	1.0909	0.	-52.659
10345	5.913	1.0909	5.e-002	1.979e-005
10346	5.913	0.81818	0.	-9.4207
10347	5.8207	0.90909	0.	-29.813
10348	5.913	0.90909	5.e-002	4.1114e-005
10349	5.913	0.63636	0.	-1.0366
10350	5.8207	0.72727	0.	-12.359
10351	5.913	0.72727	5.e-002	2.1051e-005
10352	5.913	0.45455	0.	-0.21456
10353	5.8207	0.54545	0.	-1.9581
10354	5.913	0.54545	5.e-002	1.1342e-005
10355	5.913	0.27273	0.	-1.8873e-002
10356	5.8207	0.36364	0.	-0.24781
10357	5.913	0.36364	5.e-002	2.4797e-006
10358	5.8207	0.18182	0.	2.0611e-002
10359	5.913	0.18182	5.e-002	-2.9111e-007
10360	5.913	9.0909e-002	0.	3.832e-002
10361	5.7283	5.7273	0.	-0.6135
10362	5.6359	5.8182	0.	-1.2346
10363	5.7283	5.8182	5.e-002	6.4252e-007
10364	5.7283	5.9091	0.	9.7228e-003
10365	5.7283	5.5455	0.	-5.4362
10366	5.6359	5.6364	0.	-7.0872
10367	5.7283	5.6364	5.e-002	2.7677e-007
10368	5.7283	5.3636	0.	-16.489
10369	5.6359	5.4545	0.	-18.052
10370	5.7283	5.4545	5.e-002	6.5436e-008
10371	5.7283	5.1818	0.	-33.076
10372	5.6359	5.2727	0.	-34.101
10373	5.7283	5.2727	5.e-002	-1.8538e-006
10374	5.7283	5.	0.	-54.691
10375	5.6359	5.0909	0.	-54.936
10376	5.7283	5.0909	5.e-002	-2.7131e-006
10377	5.7283	4.8182	0.	-80.65
10378	5.6359	4.9091	0.	-80.02
10379	5.7283	4.9091	5.e-002	6.4395e-006
10380	5.7283	4.6364	0.	-110.04
10381	5.6359	4.7273	0.	-108.59
10382	5.7283	4.7273	5.e-002	9.0765e-006
10383	5.7283	4.4545	0.	-141.75
10384	5.6359	4.5455	0.	-139.65
10385	5.7283	4.5455	5.e-002	1.189e-005
10386	5.7283	4.2727	0.	-174.46
10387	5.6359	4.3636	0.	-172.06
10388	5.7283	4.3636	5.e-002	1.3186e-005
10389	5.7283	4.0909	0.	-206.77
10390	5.6359	4.1818	0.	-204.52
10391	5.7283	4.1818	5.e-002	1.7691e-005
10392	5.7283	3.9091	0.	-237.2
10393	5.6359	4.	0.	-235.64
10394	5.7283	4.	5.e-002	2.0264e-005
10395	5.7283	3.7273	0.	-264.33
10396	5.6359	3.8182	0.	-264.08
10397	5.7283	3.8182	5.e-002	4.8794e-005
10398	5.7283	3.5455	0.	-286.88
10399	5.6359	3.6364	0.	-288.54
10400	5.7283	3.6364	5.e-002	2.1418e-005
10401	5.7283	3.3636	0.	-303.79
10402	5.6359	3.4545	0.	-307.93
10403	5.7283	3.4545	5.e-002	4.3562e-005
10404	5.7283	3.1818	0.	-314.27
10405	5.6359	3.2727	0.	-321.36
10406	5.7283	3.2727	5.e-002	3.4457e-005
10407	5.7283	3.	0.	-317.81
10408	5.6359	3.0909	0.	-328.23
10409	5.7283	3.0909	5.e-002	-5.6301e-006
10410	5.7283	2.8182	0.	-314.27
10411	5.6359	2.9091	0.	-328.23
10412	5.7283	2.9091	5.e-002	-2.7114e-005
10413	5.7283	2.6364	0.	-303.79
10414	5.6359	2.7273	0.	-321.36
10415	5.7283	2.7273	5.e-002	1.7547e-005
10416	5.7283	2.4545	0.	-286.88
10417	5.6359	2.5455	0.	-307.93
10418	5.7283	2.5455	5.e-002	1.7239e-005
10419	5.7283	2.2727	0.	-264.33
10420	5.6359	2.3636	0.	-288.54
10421	5.7283	2.3636	5.e-002	6.4529e-005
10422	5.7283	2.0909	0.	-237.2
10423	5.6359	2.1818	0.	-264.08
10424	5.7283	2.1818	5.e-002	1.0139e-004
10425	5.7283	1.9091	0.	-206.77
10426	5.6359	2.	0.	-235.64
10427	5.7283	2.	5.e-002	7.7894e-005
10428	5.7283	1.7273	0.	-174.46
10429	5.6359	1.8182	0.	-204.52
10430	5.7283	1.8182	5.e-002	9.9677e-005
10431	5.7283	1.5455	0.	-141.75
10432	5.6359	1.6364	0.	-172.06
10433	5.7283	1.6364	5.e-002	9.1563e-005
10434	5.7283	1.3636	0.	-110.04
10435	5.6359	1.4545	0.	-139.65
10436	5.7283	1.4545	5.e-002	6.5353e-005
10437	5.7283	1.1818	0.	-80.65
10438	5.6359	1.2727	0.	-108.59
10439	5.7283	1.2727	5.e-002	5.6633e-005
10440	5.7283	1.	0.	-54.691
10441	5.6359	1.0909	0.	-80.02
10442	5.7283	1.0909	5.e-002	4.516e-005
10443	5.7283	0.81818	0.	-33.076
10444	5.6359	0.90909	0.	-54.936
10445	5.7283	0.90909	5.e-002	3.9688e-005
10446	5.7283	0.63636	0.	-16.489
10447	5.6359	0.72727	0.	-34.101
10448	5.7283	0.72727	5.e-002	2.6027e-005
10449	5.7283	0.45455	0.	-5.4362
10450	5.6359	0.54545	0.	-18.052
10451	5.7283	0.54545	5.e-002	1.3783e-005
10452	5.7283	0.27273	0.	-0.61349
10453	5.6359	0.36364	0.	-7.0872
10454	5.7283	0.36364	5.e-002	4.5327e-006
10455	5.6359	0.18182	0.	-1.2346
10456	5.7283	0.18182	5.e-002	9.862e-007
10457	5.7283	9.0909e-002	0.	9.7245e-003
10458	5.5435	5.7273	0.	-8.5503
10459	5.4511	5.8182	0.	-6.7847
10460	5.5435	5.8182	5.e-002	1.7982e-008
10461	5.5435	5.9091	0.	-2.0454
10462	5.5435	5.5455	0.	-19.873
10463	5.4511	5.6364	0.	-18.753
10464	5.5435	5.6364	5.e-002	9.4958e-007
10465	5.5435	5.3636	0.	-35.714
10466	5.4511	5.4545	0.	-34.771
10467	5.5435	5.4545	5.e-002	-3.8085e-006
10468	5.5435	5.1818	0.	-55.978
10469	5.4511	5.2727	0.	-54.891
10470	5.5435	5.2727	5.e-002	-3.1369e-006
10471	5.5435	5.	0.	-80.27
10472	5.4511	5.0909	0.	-78.858
10473	5.5435	5.0909	5.e-002	-1.2776e-005
10474	5.5435	4.8182	0.	-107.96
10475	5.4511	4.9091	0.	-106.16
10476	5.5435	4.9091	5.e-002	4.1543e-006
10477	5.5435	4.6364	0.	-138.2
10478	5.4511	4.7273	0.	-136.08
10479	5.5435	4.7273	5.e-002	6.8848e-006
10480	5.5435	4.4545	0.	-169.97
10481	5.4511	4.5455	0.	-167.71
10482	5.5435	4.5455	5.e-002	-5.3812e-006
10483	5.5435	4.2727	0.	-202.12
10484	5.4511	4.3636	0.	-200.02
10485	5.5435	4.3636	5.e-002	1.0966e-005
10486	5.5435	4.0909	0.	-233.4
10487	5.4511	4.1818	0.	-231.83
10488	5.5435	4.1818	5.e-002	3.3237e-005
10489	5.5435	3.9091	0.	-262.53
10490	5.4511	4.	0.	-261.97
10491	5.5435	4.	5.e-002	1.8136e-005
10492	5.5435	3.7273	0.	-288.3
10493	5.4511	3.8182	0.	-289.24
10494	5.5435	3.8182	5.e-002	1.5955e-005
10495	5.5435	3.5455	0.	-309.6
10496	5.4511	3.6364	0.	-312.55
10497	5.5435	3.6364	5.e-002	3.3346e-005
10498	5.5435	3.3636	0.	-325.51
10499	5.4511	3.4545	0.	-330.93
10500	5.5435	3.4545	5.e-002	6.1821e-006
10501	5.5435	3.1818	0.	-335.34
10502	5.4511	3.2727	0.	-343.63
10503	5.5435	3.2727	5.e-002	9.8543e-006
10504	5.5435	3.	0.	-338.67
10505	5.4511	3.0909	0.	-350.11
10506	5.5435	3.0909	5.e-002	-1.0535e-005
10507	5.5435	2.8182	0.	-335.34
10508	5.4511	2.9091	0.	-350.11
10509	5.5435	2.9091	5.e-002	-2.4444e-005
10510	5.5435	2.6364	0.	-325.51
10511	5.4511	2.7273	0.	-343.63
10512	5.5435	2.7273	5.e-002	-2.7118e-006
10513	5.5435	2.4545	0.	-309.6
10514	5.4511	2.5455	0.	-330.93
10515	5.5435	2.5455	5.e-002	1.6279e-006
10516	5.5435	2.2727	0.	-288.3
10517	5.4511	2.3636	0.	-312.55
10518	5.5435	2.3636	5.e-002	1.0785e-005
10519	5.5435	2.0909	0.	-262.53
10520	5.4511	2.1818	0.	-289.24
10521	5.5435	2.1818	5.e-002	2.6583e-005
10522	5.5435	1.9091	0.	-233.4
10523	5.4511	2.	0.	-261.97
10524	5.5435	2.	5.e-002	5.6086e-005
10525	5.5435	1.7273	0.	-202.12
10526	5.4511	1.8182	0.	-231.83
10527	5.5435	1.8182	5.e-002	5.9607e-005
10528	5.5435	1.5455	0.	-169.97
10529	5.4511	1.6364	0.	-200.02
10530	5.5435	1.6364	5.e-002	2.4253e-005
10531	5.5435	1.3636	0.	-138.2
10532	5.4511	1.4545	0.	-167.71
10533	5.5435	1.4545	5.e-002	6.9269e-005
10534	5.5435	1.1818	0.	-107.96
10535	5.4511	1.2727	0.	-136.08
10536	5.5435	1.2727	5.e-002	3.8295e-005
10537	5.5435	1.	0.	-80.27
10538	5.4511	1.0909	0.	-106.16
10539	5.5435	1.0909	5.e-002	5.1668e-005
10540	5.5435	0.81818	0.	-55.978
10541	5.4511	0.90909	0.	-78.858
10542	5.5435	0.90909	5.e-002	3.9103e-005
10543	5.5435	0.63636	0.	-35.714
10544	5.4511	0.72727	0.	-54.891
10545	5.5435	0.72727	5.e-002	2.3305e-005
10546	5.5435	0.45455	0.	-19.873
10547	5.4511	0.54545	0.	-34.771
10548	5.5435	0.54545	5.e-002	1.8252e-005
10549	5.5435	0.27273	0.	-8.5503
10550	5.4511	0.36364	0.	-18.753
10551	5.5435	0.36364	5.e-002	6.9132e-006
10552	5.4511	0.18182	0.	-6.7847
10553	5.5435	0.18182	5.e-002	2.8669e-006
10554	5.5435	9.0909e-002	0.	-2.0454
10555	5.3587	5.7273	0.	-16.985
10556	5.2663	5.8182	0.	-12.127
10557	5.3587	5.8182	5.e-002	-1.9664e-006
10558	5.3587	5.9091	0.	-5.0191
10559	5.3587	5.5455	0.	-33.666
10560	5.2663	5.6364	0.	-29.758
10561	5.3587	5.6364	5.e-002	1.1471e-006
10562	5.3587	5.3636	0.	-53.957
10563	5.2663	5.4545	0.	-50.591
10564	5.3587	5.4545	5.e-002	1.7787e-006
10565	5.3587	5.1818	0.	-77.776
10566	5.2663	5.2727	0.	-74.677
10567	5.3587	5.2727	5.e-002	7.5724e-007
10568	5.3587	5.	0.	-104.75
10569	5.2663	5.0909	0.	-101.78
10570	5.3587	5.0909	5.e-002	-5.289e-006
10571	5.3587	4.8182	0.	-134.29
10572	5.2663	4.9091	0.	-131.4
10573	5.3587	4.9091	5.e-002	-6.1928e-006
10574	5.3587	4.6364	0.	-165.6
10575	5.2663	4.7273	0.	-162.87
10576	5.3587	4.7273	5.e-002	-6.0724e-006
10577	5.3587	4.4545	0.	-197.76
10578	5.2663	4.5455	0.	-195.37
10579	5.3587	4.5455	5.e-002	9.1207e-006
10580	5.3587	4.2727	0.	-229.73
10581	5.2663	4.3636	0.	-227.93
10582	5.3587	4.3636	5.e-002	9.4107e-006
10583	5.3587	4.0909	0.	-260.42
10584	5.2663	4.1818	0.	-259.53
10585	5.3587	4.1818	5.e-002	1.0307e-005
10586	5.3587	3.9091	0.	-288.69
10587	5.2663	4.	0.	-289.11
10588	5.3587	4.	5.e-002	2.5248e-005
10589	5.3587	3.7273	0.	-313.5
10590	5.2663	3.8182	0.	-315.64
10591	5.3587	3.8182	5.e-002	2.248e-005
10592	5.3587	3.5455	0.	-333.89
10593	5.2663	3.6364	0.	-338.16
10594	5.3587	3.6364	5.e-002	2.8325e-005
10595	5.3587	3.3636	0.	-349.06
10596	5.2663	3.4545	0.	-355.84
10597	5.3587	3.4545	5.e-002	1.5275e-005
10598	5.3587	3.1818	0.	-358.41
10599	5.2663	3.2727	0.	-368.01
10600	5.3587	3.2727	5.e-002	-4.7405e-006
10601	5.3587	3.	0.	-361.56
10602	5.2663	3.0909	0.	-374.21
10603	5.3587	3.0909	5.e-002	-1.1558e-005
10604	5.3587	2.8182	0.	-358.41
10605	5.2663	2.9091	0.	-374.21
10606	5.3587	2.9091	5.e-002	-2.2161e-005
10607	5.3587	2.6364	0.	-349.06
10608	5.2663	2.7273	0.	-368.01
10609	5.3587	2.7273	5.e-002	-2.6457e-005
10610	5.3587	2.4545	0.	-333.89
10611	5.2663	2.5455	0.	-355.84
10612	5.3587	2.5455	5.e-002	-1.1681e-006
10613	5.3587	2.2727	0.	-313.5
10614	5.2663	2.3636	0.	-338.16
10615	5.3587	2.3636	5.e-002	2.9316e-005
10616	5.3587	2.0909	0.	-288.69
10617	5.2663	2.1818	0.	-315.64
10618	5.3587	2.1818	5.e-002	4.641e-005
10619	5.3587	1.9091	0.	-260.42
10620	5.2663	2.	0.	-289.11
10621	5.3587	2.	5.e-002	5.1332e-005
10622	5.3587	1.7273	0.	-229.73
10623	5.2663	1.8182	0.	-259.53
10624	5.3587	1.8182	5.e-002	4.7341e-005
10625	5.3587	1.5455	0.	-197.76
10626	5.2663	1.6364	0.	-227.93
10627	5.3587	1.6364	5.e-002	6.5876e-005
10628	5.3587	1.3636	0.	-165.6
10629	5.2663	1.4545	0.	-195.37
10630	5.3587	1.4545	5.e-002	4.7691e-005
10631	5.3587	1.1818	0.	-134.29
10632	5.2663	1.2727	0.	-162.87
10633	5.3587	1.2727	5.e-002	4.3111e-005
10634	5.3587	1.	0.	-104.75
10635	5.2663	1.0909	0.	-131.4
10636	5.3587	1.0909	5.e-002	3.9805e-005
10637	5.3587	0.81818	0.	-77.776
10638	5.2663	0.90909	0.	-101.78
10639	5.3587	0.90909	5.e-002	4.1506e-005
10640	5.3587	0.63636	0.	-53.957
10641	5.2663	0.72727	0.	-74.677
10642	5.3587	0.72727	5.e-002	3.25e-005
10643	5.3587	0.45455	0.	-33.666
10644	5.2663	0.54545	0.	-50.591
10645	5.3587	0.54545	5.e-002	2.251e-005
10646	5.3587	0.27273	0.	-16.985
10647	5.2663	0.36364	0.	-29.758
10648	5.3587	0.36364	5.e-002	1.2113e-005
10649	5.2663	0.18182	0.	-12.127
10650	5.3587	0.18182	5.e-002	6.0307e-006
10651	5.3587	9.0909e-002	0.	-5.0191
10652	5.1739	5.7273	0.	-24.875
10653	5.0815	5.8182	0.	-17.075
10654	5.1739	5.8182	5.e-002	-4.0369e-006
10655	5.1739	5.9091	0.	-7.7687
10656	5.1739	5.5455	0.	-46.687
10657	5.0815	5.6364	0.	-40.12
10658	5.1739	5.6364	5.e-002	-5.9295e-006
10659	5.1739	5.3636	0.	-71.313
10660	5.0815	5.4545	0.	-65.631
10661	5.1739	5.4545	5.e-002	1.6697e-006
10662	5.1739	5.1818	0.	-98.678
10663	5.0815	5.2727	0.	-93.653
10664	5.1739	5.2727	5.e-002	-4.5047e-006
10665	5.1739	5.	0.	-128.43
10666	5.0815	5.0909	0.	-123.96
10667	5.1739	5.0909	5.e-002	-1.3658e-005
10668	5.1739	4.8182	0.	-159.99
10669	5.0815	4.9091	0.	-156.06
10670	5.1739	4.9091	5.e-002	5.514e-006
10671	5.1739	4.6364	0.	-192.65
10672	5.0815	4.7273	0.	-189.34
10673	5.1739	4.7273	5.e-002	2.2964e-006
10674	5.1739	4.4545	0.	-225.54
10675	5.0815	4.5455	0.	-223.01
10676	5.1739	4.5455	5.e-002	6.1032e-006
10677	5.1739	4.2727	0.	-257.73
10678	5.0815	4.3636	0.	-256.2
10679	5.1739	4.3636	5.e-002	4.6722e-006
10680	5.1739	4.0909	0.	-288.24
10681	5.0815	4.1818	0.	-288.
10682	5.1739	4.1818	5.e-002	6.2487e-006
10683	5.1739	3.9091	0.	-316.08
10684	5.0815	4.	0.	-317.45
10685	5.1739	4.	5.e-002	2.0026e-005
10686	5.1739	3.7273	0.	-340.32
10687	5.0815	3.8182	0.	-343.65
10688	5.1739	3.8182	5.e-002	-2.1267e-006
10689	5.1739	3.5455	0.	-360.12
10690	5.0815	3.6364	0.	-365.73
10691	5.1739	3.6364	5.e-002	5.758e-006
10692	5.1739	3.3636	0.	-374.8
10693	5.0815	3.4545	0.	-382.99
10694	5.1739	3.4545	5.e-002	3.8614e-006
10695	5.1739	3.1818	0.	-383.82
10696	5.0815	3.2727	0.	-394.83
10697	5.1739	3.2727	5.e-002	-6.9561e-006
10698	5.1739	3.	0.	-386.86
10699	5.0815	3.0909	0.	-400.85
10700	5.1739	3.0909	5.e-002	-1.3767e-005
10701	5.1739	2.8182	0.	-383.82
10702	5.0815	2.9091	0.	-400.85
10703	5.1739	2.9091	5.e-002	-1.8911e-005
10704	5.1739	2.6364	0.	-374.8
10705	5.0815	2.7273	0.	-394.83
10706	5.1739	2.7273	5.e-002	-1.1255e-005
10707	5.1739	2.4545	0.	-360.12
10708	5.0815	2.5455	0.	-382.99
10709	5.1739	2.5455	5.e-002	-1.4005e-005
10710	5.1739	2.2727	0.	-340.32
10711	5.0815	2.3636	0.	-365.73
10712	5.1739	2.3636	5.e-002	6.1082e-006
10713	5.1739	2.0909	0.	-316.08
10714	5.0815	2.1818	0.	-343.65
10715	5.1739	2.1818	5.e-002	8.5801e-006
10716	5.1739	1.9091	0.	-288.24
10717	5.0815	2.	0.	-317.45
10718	5.1739	2.	5.e-002	3.265e-005
10719	5.1739	1.7273	0.	-257.73
10720	5.0815	1.8182	0.	-288.
10721	5.1739	1.8182	5.e-002	3.832e-005
10722	5.1739	1.5455	0.	-225.54
10723	5.0815	1.6364	0.	-256.2
10724	5.1739	1.6364	5.e-002	4.1779e-005
10725	5.1739	1.3636	0.	-192.65
10726	5.0815	1.4545	0.	-223.01
10727	5.1739	1.4545	5.e-002	5.5639e-005
10728	5.1739	1.1818	0.	-159.99
10729	5.0815	1.2727	0.	-189.34
10730	5.1739	1.2727	5.e-002	5.1943e-005
10731	5.1739	1.	0.	-128.43
10732	5.0815	1.0909	0.	-156.06
10733	5.1739	1.0909	5.e-002	4.8656e-005
10734	5.1739	0.81818	0.	-98.678
10735	5.0815	0.90909	0.	-123.96
10736	5.1739	0.90909	5.e-002	4.2197e-005
10737	5.1739	0.63636	0.	-71.313
10738	5.0815	0.72727	0.	-93.653
10739	5.1739	0.72727	5.e-002	3.6113e-005
10740	5.1739	0.45455	0.	-46.687
10741	5.0815	0.54545	0.	-65.631
10742	5.1739	0.54545	5.e-002	2.7941e-005
10743	5.1739	0.27273	0.	-24.875
10744	5.0815	0.36364	0.	-40.12
10745	5.1739	0.36364	5.e-002	2.0109e-005
10746	5.0815	0.18182	0.	-17.075
10747	5.1739	0.18182	5.e-002	9.3755e-006
10748	5.1739	9.0909e-002	0.	-7.7687
10749	4.9891	5.7273	0.	-32.275
10750	4.8967	5.8182	0.	-21.656
10751	4.9891	5.8182	5.e-002	3.3933e-007
10752	4.9891	5.9091	0.	-10.303
10753	4.9891	5.5455	0.	-59.06
10754	4.8967	5.6364	0.	-49.939
10755	4.9891	5.6364	5.e-002	4.3754e-007
10756	4.9891	5.3636	0.	-87.967
10757	4.8967	5.4545	0.	-80.052
10758	4.9891	5.4545	5.e-002	1.1253e-006
10759	4.9891	5.1818	0.	-118.93
10760	4.8967	5.2727	0.	-112.03
10761	4.9891	5.2727	5.e-002	-1.4889e-005
10762	4.9891	5.	0.	-151.59
10763	4.8967	5.0909	0.	-145.66
10764	4.9891	5.0909	5.e-002	-7.2761e-006
10765	4.9891	4.8182	0.	-185.41
10766	4.8967	4.9091	0.	-180.45
10767	4.9891	4.9091	5.e-002	-1.767e-015
10768	4.9891	4.6364	0.	-219.7
10769	4.8967	4.7273	0.	-215.8
10770	4.9891	4.7273	5.e-002	1.4652e-006
10771	4.9891	4.4545	0.	-253.68
10772	4.8967	4.5455	0.	-250.99
10773	4.9891	4.5455	5.e-002	2.992e-006
10774	4.9891	4.2727	0.	-286.48
10775	4.8967	4.3636	0.	-285.2
10776	4.9891	4.3636	5.e-002	3.0087e-006
10777	4.9891	4.0909	0.	-317.23
10778	4.8967	4.1818	0.	-317.6
10779	4.9891	4.1818	5.e-002	1.5097e-005
10780	4.9891	3.9091	0.	-345.03
10781	4.8967	4.	0.	-347.33
10782	4.9891	4.	5.e-002	-2.0338e-006
10783	4.9891	3.7273	0.	-369.07
10784	4.8967	3.8182	0.	-373.56
10785	4.9891	3.8182	5.e-002	4.6685e-006
10786	4.9891	3.5455	0.	-388.61
10787	4.8967	3.6364	0.	-395.56
10788	4.9891	3.6364	5.e-002	6.7737e-006
10789	4.9891	3.3636	0.	-403.03
10790	4.8967	3.4545	0.	-412.66
10791	4.9891	3.4545	5.e-002	7.5058e-006
10792	4.9891	3.1818	0.	-411.87
10793	4.8967	3.2727	0.	-424.36
10794	4.9891	3.2727	5.e-002	-9.9247e-006
10795	4.9891	3.	0.	-414.85
10796	4.8967	3.0909	0.	-430.3
10797	4.9891	3.0909	5.e-002	-1.4658e-005
10798	4.9891	2.8182	0.	-411.87
10799	4.8967	2.9091	0.	-430.3
10800	4.9891	2.9091	5.e-002	-2.6484e-005
10801	4.9891	2.6364	0.	-403.03
10802	4.8967	2.7273	0.	-424.36
10803	4.9891	2.7273	5.e-002	-1.2807e-005
10804	4.9891	2.4545	0.	-388.61
10805	4.8967	2.5455	0.	-412.66
10806	4.9891	2.5455	5.e-002	-1.7489e-005
10807	4.9891	2.2727	0.	-369.07
10808	4.8967	2.3636	0.	-395.56
10809	4.9891	2.3636	5.e-002	2.2182e-006
10810	4.9891	2.0909	0.	-345.03
10811	4.8967	2.1818	0.	-373.56
10812	4.9891	2.1818	5.e-002	2.5788e-006
10813	4.9891	1.9091	0.	-317.23
10814	4.8967	2.	0.	-347.33
10815	4.9891	2.	5.e-002	1.6799e-005
10816	4.9891	1.7273	0.	-286.48
10817	4.8967	1.8182	0.	-317.6
10818	4.9891	1.8182	5.e-002	1.9615e-005
10819	4.9891	1.5455	0.	-253.68
10820	4.8967	1.6364	0.	-285.2
10821	4.9891	1.6364	5.e-002	2.6095e-005
10822	4.9891	1.3636	0.	-219.7
10823	4.8967	1.4545	0.	-250.99
10824	4.9891	1.4545	5.e-002	4.1745e-005
10825	4.9891	1.1818	0.	-185.41
10826	4.8967	1.2727	0.	-215.8
10827	4.9891	1.2727	5.e-002	4.1571e-005
10828	4.9891	1.	0.	-151.59
10829	4.8967	1.0909	0.	-180.45
10830	4.9891	1.0909	5.e-002	4.7258e-005
10831	4.9891	0.81818	0.	-118.93
10832	4.8967	0.90909	0.	-145.66
10833	4.9891	0.90909	5.e-002	3.6467e-005
10834	4.9891	0.63636	0.	-87.967
10835	4.8967	0.72727	0.	-112.03
10836	4.9891	0.72727	5.e-002	3.4557e-005
10837	4.9891	0.45455	0.	-59.06
10838	4.8967	0.54545	0.	-80.052
10839	4.9891	0.54545	5.e-002	2.0708e-005
10840	4.9891	0.27273	0.	-32.275
10841	4.8967	0.36364	0.	-49.939
10842	4.9891	0.36364	5.e-002	2.1647e-005
10843	4.8967	0.18182	0.	-21.656
10844	4.9891	0.18182	5.e-002	1.2502e-005
10845	4.9891	9.0909e-002	0.	-10.303
10846	4.8043	5.7273	0.	-39.255
10847	4.712	5.8182	0.	-25.902
10848	4.8043	5.8182	5.e-002	-8.9087e-006
10849	4.8043	5.9091	0.	-12.636
10850	4.8043	5.5455	0.	-70.92
10851	4.712	5.6364	0.	-59.32
10852	4.8043	5.6364	5.e-002	-6.3484e-006
10853	4.8043	5.3636	0.	-104.11
10854	4.712	5.4545	0.	-94.016
10855	4.8043	5.4545	5.e-002	-1.5138e-005
10856	4.8043	5.1818	0.	-138.76
10857	4.712	5.2727	0.	-130.03
10858	4.8043	5.2727	5.e-002	1.6264e-006
10859	4.8043	5.	0.	-174.51
10860	4.712	5.0909	0.	-167.14
10861	4.8043	5.0909	5.e-002	-1.8217e-005
10862	4.8043	4.8182	0.	-210.84
10863	4.712	4.9091	0.	-204.86
10864	4.8043	4.9091	5.e-002	2.2984e-006
10865	4.8043	4.6364	0.	-247.09
10866	4.712	4.7273	0.	-242.58
10867	4.8043	4.7273	5.e-002	-1.7225e-015
10868	4.8043	4.4545	0.	-282.51
10869	4.712	4.5455	0.	-279.63
10870	4.8043	4.5455	5.e-002	1.4824e-006
10871	4.8043	4.2727	0.	-316.32
10872	4.712	4.3636	0.	-315.25
10873	4.8043	4.3636	5.e-002	2.2043e-006
10874	4.8043	4.0909	0.	-347.71
10875	4.712	4.1818	0.	-348.64
10876	4.8043	4.1818	5.e-002	-3.0808e-007
10877	4.8043	3.9091	0.	-375.87
10878	4.712	4.	0.	-379.04
10879	4.8043	4.	5.e-002	-3.0992e-006
10880	4.8043	3.7273	0.	-400.06
10881	4.712	3.8182	0.	-405.68
10882	4.8043	3.8182	5.e-002	1.4763e-005
10883	4.8043	3.5455	0.	-419.62
10884	4.712	3.6364	0.	-427.9
10885	4.8043	3.6364	5.e-002	4.2968e-007
10886	4.8043	3.3636	0.	-434.
10887	4.712	3.4545	0.	-445.11
10888	4.8043	3.4545	5.e-002	-3.032e-006
10889	4.8043	3.1818	0.	-442.8
10890	4.712	3.2727	0.	-456.84
10891	4.8043	3.2727	5.e-002	-1.1832e-005
10892	4.8043	3.	0.	-445.77
10893	4.712	3.0909	0.	-462.79
10894	4.8043	3.0909	5.e-002	-1.8546e-005
10895	4.8043	2.8182	0.	-442.8
10896	4.712	2.9091	0.	-462.79
10897	4.8043	2.9091	5.e-002	-2.2208e-005
10898	4.8043	2.6364	0.	-434.
10899	4.712	2.7273	0.	-456.84
10900	4.8043	2.7273	5.e-002	-9.9379e-006
10901	4.8043	2.4545	0.	-419.62
10902	4.712	2.5455	0.	-445.11
10903	4.8043	2.5455	5.e-002	-1.5432e-005
10904	4.8043	2.2727	0.	-400.06
10905	4.712	2.3636	0.	-427.9
10906	4.8043	2.3636	5.e-002	-1.9292e-006
10907	4.8043	2.0909	0.	-375.87
10908	4.712	2.1818	0.	-405.68
10909	4.8043	2.1818	5.e-002	1.5854e-005
10910	4.8043	1.9091	0.	-347.71
10911	4.712	2.	0.	-379.04
10912	4.8043	2.	5.e-002	2.1353e-005
10913	4.8043	1.7273	0.	-316.32
10914	4.712	1.8182	0.	-348.64
10915	4.8043	1.8182	5.e-002	2.1983e-005
10916	4.8043	1.5455	0.	-282.51
10917	4.712	1.6364	0.	-315.25
10918	4.8043	1.6364	5.e-002	2.6571e-005
10919	4.8043	1.3636	0.	-247.09
10920	4.712	1.4545	0.	-279.63
10921	4.8043	1.4545	5.e-002	3.916e-005
10922	4.8043	1.1818	0.	-210.84
10923	4.712	1.2727	0.	-242.58
10924	4.8043	1.2727	5.e-002	5.2776e-005
10925	4.8043	1.	0.	-174.51
10926	4.712	1.0909	0.	-204.86
10927	4.8043	1.0909	5.e-002	3.2136e-005
10928	4.8043	0.81818	0.	-138.76
10929	4.712	0.90909	0.	-167.14
10930	4.8043	0.90909	5.e-002	4.0914e-005
10931	4.8043	0.63636	0.	-104.11
10932	4.712	0.72727	0.	-130.03
10933	4.8043	0.72727	5.e-002	4.7308e-005
10934	4.8043	0.45455	0.	-70.92
10935	4.712	0.54545	0.	-94.016
10936	4.8043	0.54545	5.e-002	3.2211e-005
10937	4.8043	0.27273	0.	-39.255
10938	4.712	0.36364	0.	-59.32
10939	4.8043	0.36364	5.e-002	2.6234e-005
10940	4.712	0.18182	0.	-25.902
10941	4.8043	0.18182	5.e-002	2.0217e-005
10942	4.8043	9.0909e-002	0.	-12.636
10943	4.6196	5.7273	0.	-45.878
10944	4.5272	5.8182	0.	-29.834
10945	4.6196	5.8182	5.e-002	2.1699e-007
10946	4.6196	5.9091	0.	-14.778
10947	4.6196	5.5455	0.	-82.395
10948	4.5272	5.6364	0.	-68.356
10949	4.6196	5.6364	5.e-002	-8.7081e-006
10950	4.6196	5.3636	0.	-119.92
10951	4.5272	5.4545	0.	-107.67
10952	4.6196	5.4545	5.e-002	-1.9469e-005
10953	4.6196	5.1818	0.	-158.4
10954	4.5272	5.2727	0.	-147.85
10955	4.6196	5.2727	5.e-002	-1.7755e-015
10956	4.6196	5.	0.	-197.46
10957	4.5272	5.0909	0.	-188.64
10958	4.6196	5.0909	5.e-002	-1.7704e-015
10959	4.6196	4.8182	0.	-236.58
10960	4.5272	4.9091	0.	-229.54
10961	4.6196	4.9091	5.e-002	-3.3619e-005
10962	4.6196	4.6364	0.	-275.11
10963	4.5272	4.7273	0.	-269.96
10964	4.6196	4.7273	5.e-002	7.474e-007
10965	4.6196	4.4545	0.	-312.36
10966	4.5272	4.5455	0.	-309.23
10967	4.6196	4.5455	5.e-002	-2.3641e-006
10968	4.6196	4.2727	0.	-347.56
10969	4.5272	4.3636	0.	-346.64
10970	4.6196	4.3636	5.e-002	1.2189e-005
10971	4.6196	4.0909	0.	-379.98
10972	4.5272	4.1818	0.	-381.42
10973	4.6196	4.1818	5.e-002	-5.0187e-006
10974	4.6196	3.9091	0.	-408.86
10975	4.5272	4.	0.	-412.86
10976	4.6196	4.	5.e-002	3.6245e-007
10977	4.6196	3.7273	0.	-433.54
10978	4.5272	3.8182	0.	-440.27
10979	4.6196	3.8182	5.e-002	-1.6408e-006
10980	4.6196	3.5455	0.	-453.4
10981	4.5272	3.6364	0.	-463.01
10982	4.6196	3.6364	5.e-002	2.2514e-006
10983	4.6196	3.3636	0.	-467.96
10984	4.5272	3.4545	0.	-480.56
10985	4.6196	3.4545	5.e-002	-7.7905e-006
10986	4.6196	3.1818	0.	-476.85
10987	4.5272	3.2727	0.	-492.51
10988	4.6196	3.2727	5.e-002	-9.232e-006
10989	4.6196	3.	0.	-479.84
10990	4.5272	3.0909	0.	-498.55
10991	4.6196	3.0909	5.e-002	-1.5386e-005
10992	4.6196	2.8182	0.	-476.85
10993	4.5272	2.9091	0.	-498.55
10994	4.6196	2.9091	5.e-002	-1.4757e-005
10995	4.6196	2.6364	0.	-467.96
10996	4.5272	2.7273	0.	-492.51
10997	4.6196	2.7273	5.e-002	-1.402e-005
10998	4.6196	2.4545	0.	-453.4
10999	4.5272	2.5455	0.	-480.56
11000	4.6196	2.5455	5.e-002	-9.2364e-006
11001	4.6196	2.2727	0.	-433.54
11002	4.5272	2.3636	0.	-463.01
11003	4.6196	2.3636	5.e-002	-9.1534e-006
11004	4.6196	2.0909	0.	-408.86
11005	4.5272	2.1818	0.	-440.27
11006	4.6196	2.1818	5.e-002	5.4129e-006
11007	4.6196	1.9091	0.	-379.98
11008	4.5272	2.	0.	-412.86
11009	4.6196	2.	5.e-002	1.2517e-005
11010	4.6196	1.7273	0.	-347.56
11011	4.5272	1.8182	0.	-381.42
11012	4.6196	1.8182	5.e-002	5.8299e-006
11013	4.6196	1.5455	0.	-312.36
11014	4.5272	1.6364	0.	-346.64
11015	4.6196	1.6364	5.e-002	1.2448e-005
11016	4.6196	1.3636	0.	-275.11
11017	4.5272	1.4545	0.	-309.23
11018	4.6196	1.4545	5.e-002	4.0143e-005
11019	4.6196	1.1818	0.	-236.58
11020	4.5272	1.2727	0.	-269.96
11021	4.6196	1.2727	5.e-002	5.4859e-005
11022	4.6196	1.	0.	-197.46
11023	4.5272	1.0909	0.	-229.54
11024	4.6196	1.0909	5.e-002	5.2846e-005
11025	4.6196	0.81818	0.	-158.4
11026	4.5272	0.90909	0.	-188.64
11027	4.6196	0.90909	5.e-002	4.3905e-005
11028	4.6196	0.63636	0.	-119.92
11029	4.5272	0.72727	0.	-147.85
11030	4.6196	0.72727	5.e-002	3.959e-005
11031	4.6196	0.45455	0.	-82.395
11032	4.5272	0.54545	0.	-107.67
11033	4.6196	0.54545	5.e-002	3.7348e-005
11034	4.6196	0.27273	0.	-45.878
11035	4.5272	0.36364	0.	-68.356
11036	4.6196	0.36364	5.e-002	3.2494e-005
11037	4.5272	0.18182	0.	-29.834
11038	4.6196	0.18182	5.e-002	2.5219e-005
11039	4.6196	9.0909e-002	0.	-14.778
11040	4.4348	5.7273	0.	-52.197
11041	4.3424	5.8182	0.	-33.465
11042	4.4348	5.8182	5.e-002	-1.3101e-005
11043	4.4348	5.9091	0.	-16.733
11044	4.4348	5.5455	0.	-93.604
11045	4.3424	5.6364	0.	-77.131
11046	4.4348	5.6364	5.e-002	-1.4555e-006
11047	4.4348	5.3636	0.	-135.58
11048	4.3424	5.4545	0.	-121.17
11049	4.4348	5.4545	5.e-002	-1.0983e-005
11050	4.4348	5.1818	0.	-178.06
11051	4.3424	5.2727	0.	-165.67
11052	4.4348	5.2727	5.e-002	-2.4357e-005
11053	4.4348	5.	0.	-220.69
11054	4.3424	5.0909	0.	-210.38
11055	4.4348	5.0909	5.e-002	-1.7783e-015
11056	4.4348	4.8182	0.	-262.9
11057	4.3424	4.9091	0.	-254.76
11058	4.4348	4.9091	5.e-002	-1.5184e-006
11059	4.4348	4.6364	0.	-304.07
11060	4.3424	4.7273	0.	-298.22
11061	4.4348	4.7273	5.e-002	-1.5249e-005
11062	4.4348	4.4545	0.	-343.5
11063	4.3424	4.5455	0.	-340.09
11064	4.4348	4.5455	5.e-002	-2.3388e-006
11065	4.4348	4.2727	0.	-380.49
11066	4.3424	4.3636	0.	-379.66
11067	4.4348	4.3636	5.e-002	-6.2899e-006
11068	4.4348	4.0909	0.	-414.31
11069	4.3424	4.1818	0.	-416.22
11070	4.4348	4.1818	5.e-002	3.0018e-006
11071	4.4348	3.9091	0.	-444.28
11072	4.3424	4.	0.	-449.08
11073	4.4348	4.	5.e-002	-2.6846e-006
11074	4.4348	3.7273	0.	-469.76
11075	4.3424	3.8182	0.	-477.58
11076	4.4348	3.8182	5.e-002	6.5966e-006
11077	4.4348	3.5455	0.	-490.19
11078	4.3424	3.6364	0.	-501.14
11079	4.4348	3.6364	5.e-002	-1.4233e-005
11080	4.4348	3.3636	0.	-505.13
11081	4.3424	3.4545	0.	-519.26
11082	4.4348	3.4545	5.e-002	-1.2564e-005
11083	4.4348	3.1818	0.	-514.23
11084	4.3424	3.2727	0.	-531.56
11085	4.4348	3.2727	5.e-002	-1.4608e-005
11086	4.4348	3.	0.	-517.29
11087	4.3424	3.0909	0.	-537.78
11088	4.4348	3.0909	5.e-002	-1.5331e-005
11089	4.4348	2.8182	0.	-514.23
11090	4.3424	2.9091	0.	-537.78
11091	4.4348	2.9091	5.e-002	-1.4572e-005
11092	4.4348	2.6364	0.	-505.13
11093	4.3424	2.7273	0.	-531.56
11094	4.4348	2.7273	5.e-002	-1.2328e-005
11095	4.4348	2.4545	0.	-490.19
11096	4.3424	2.5455	0.	-519.26
11097	4.4348	2.5455	5.e-002	-3.7853e-006
11098	4.4348	2.2727	0.	-469.76
11099	4.3424	2.3636	0.	-501.14
11100	4.4348	2.3636	5.e-002	6.5667e-007
11101	4.4348	2.0909	0.	-444.28
11102	4.3424	2.1818	0.	-477.58
11103	4.4348	2.1818	5.e-002	-5.4958e-006
11104	4.4348	1.9091	0.	-414.31
11105	4.3424	2.	0.	-449.08
11106	4.4348	2.	5.e-002	1.1241e-005
11107	4.4348	1.7273	0.	-380.49
11108	4.3424	1.8182	0.	-416.22
11109	4.4348	1.8182	5.e-002	1.0353e-005
11110	4.4348	1.5455	0.	-343.5
11111	4.3424	1.6364	0.	-379.66
11112	4.4348	1.6364	5.e-002	3.5534e-005
11113	4.4348	1.3636	0.	-304.07
11114	4.3424	1.4545	0.	-340.09
11115	4.4348	1.4545	5.e-002	3.8268e-005
11116	4.4348	1.1818	0.	-262.9
11117	4.3424	1.2727	0.	-298.22
11118	4.4348	1.2727	5.e-002	5.6409e-005
11119	4.4348	1.	0.	-220.69
11120	4.3424	1.0909	0.	-254.76
11121	4.4348	1.0909	5.e-002	5.7549e-005
11122	4.4348	0.81818	0.	-178.06
11123	4.3424	0.90909	0.	-210.38
11124	4.4348	0.90909	5.e-002	6.0519e-005
11125	4.4348	0.63636	0.	-135.58
11126	4.3424	0.72727	0.	-165.67
11127	4.4348	0.72727	5.e-002	5.6327e-005
11128	4.4348	0.45455	0.	-93.604
11129	4.3424	0.54545	0.	-121.17
11130	4.4348	0.54545	5.e-002	5.8275e-005
11131	4.4348	0.27273	0.	-52.197
11132	4.3424	0.36364	0.	-77.131
11133	4.4348	0.36364	5.e-002	4.743e-005
11134	4.3424	0.18182	0.	-33.465
11135	4.4348	0.18182	5.e-002	2.6958e-005
11136	4.4348	9.0909e-002	0.	-16.733
11137	4.25	5.7273	0.	-58.253
11138	4.1576	5.8182	0.	-36.794
11139	4.25	5.8182	5.e-002	-2.3971e-015
11140	4.25	5.9091	0.	-18.498
11141	4.25	5.5455	0.	-104.65
11142	4.1576	5.6364	0.	-85.714
11143	4.25	5.6364	5.e-002	7.506e-007
11144	4.25	5.3636	0.	-151.23
11145	4.1576	5.4545	0.	-134.62
11146	4.25	5.4545	5.e-002	-1.7893e-015
11147	4.25	5.1818	0.	-197.95
11148	4.1576	5.2727	0.	-183.67
11149	4.25	5.2727	5.e-002	-1.7963e-015
11150	4.25	5.	0.	-244.42
11151	4.1576	5.0909	0.	-232.57
11152	4.25	5.0909	5.e-002	-1.7979e-015
11153	4.25	4.8182	0.	-290.05
11154	4.1576	4.9091	0.	-280.76
11155	4.25	4.9091	5.e-002	-1.7916e-015
11156	4.25	4.6364	0.	-334.22
11157	4.1576	4.7273	0.	-327.62
11158	4.25	4.7273	5.e-002	-2.9088e-005
11159	4.25	4.4545	0.	-376.23
11160	4.1576	4.5455	0.	-372.46
11161	4.25	4.5455	5.e-002	-3.0549e-006
11162	4.25	4.2727	0.	-415.39
11163	4.1576	4.3636	0.	-414.6
11164	4.25	4.3636	5.e-002	-3.13e-006
11165	4.25	4.0909	0.	-450.99
11166	4.1576	4.1818	0.	-453.32
11167	4.25	4.1818	5.e-002	-3.2238e-006
11168	4.25	3.9091	0.	-482.39
11169	4.1576	4.	0.	-487.95
11170	4.25	4.	5.e-002	-7.3001e-006
11171	4.25	3.7273	0.	-508.97
11172	4.1576	3.8182	0.	-517.86
11173	4.25	3.8182	5.e-002	-1.1143e-006
11174	4.25	3.5455	0.	-530.23
11175	4.1576	3.6364	0.	-542.51
11176	4.25	3.6364	5.e-002	3.407e-006
11177	4.25	3.3636	0.	-545.73
11178	4.1576	3.4545	0.	-561.42
11179	4.25	3.4545	5.e-002	-8.2389e-006
11180	4.25	3.1818	0.	-555.15
11181	4.1576	3.2727	0.	-574.23
11182	4.25	3.2727	5.e-002	-2.2589e-005
11183	4.25	3.	0.	-558.32
11184	4.1576	3.0909	0.	-580.7
11185	4.25	3.0909	5.e-002	-7.7292e-006
11186	4.25	2.8182	0.	-555.15
11187	4.1576	2.9091	0.	-580.7
11188	4.25	2.9091	5.e-002	-6.8078e-006
11189	4.25	2.6364	0.	-545.73
11190	4.1576	2.7273	0.	-574.23
11191	4.25	2.7273	5.e-002	-1.9744e-005
11192	4.25	2.4545	0.	-530.23
11193	4.1576	2.5455	0.	-561.42
11194	4.25	2.5455	5.e-002	-1.7876e-005
11195	4.25	2.2727	0.	-508.97
11196	4.1576	2.3636	0.	-542.51
11197	4.25	2.3636	5.e-002	7.7055e-006
11198	4.25	2.0909	0.	-482.39
11199	4.1576	2.1818	0.	-517.86
11200	4.25	2.1818	5.e-002	1.1947e-005
11201	4.25	1.9091	0.	-450.99
11202	4.1576	2.	0.	-487.95
11203	4.25	2.	5.e-002	2.8871e-005
11204	4.25	1.7273	0.	-415.39
11205	4.1576	1.8182	0.	-453.32
11206	4.25	1.8182	5.e-002	2.8577e-005
11207	4.25	1.5455	0.	-376.23
11208	4.1576	1.6364	0.	-414.6
11209	4.25	1.6364	5.e-002	2.2564e-005
11210	4.25	1.3636	0.	-334.22
11211	4.1576	1.4545	0.	-372.46
11212	4.25	1.4545	5.e-002	4.2538e-005
11213	4.25	1.1818	0.	-290.05
11214	4.1576	1.2727	0.	-327.62
11215	4.25	1.2727	5.e-002	2.9601e-005
11216	4.25	1.	0.	-244.42
11217	4.1576	1.0909	0.	-280.76
11218	4.25	1.0909	5.e-002	5.6781e-005
11219	4.25	0.81818	0.	-197.95
11220	4.1576	0.90909	0.	-232.57
11221	4.25	0.90909	5.e-002	6.4169e-005
11222	4.25	0.63636	0.	-151.23
11223	4.1576	0.72727	0.	-183.67
11224	4.25	0.72727	5.e-002	3.6321e-005
11225	4.25	0.45455	0.	-104.65
11226	4.1576	0.54545	0.	-134.62
11227	4.25	0.54545	5.e-002	5.2071e-005
11228	4.25	0.27273	0.	-58.253
11229	4.1576	0.36364	0.	-85.714
11230	4.25	0.36364	5.e-002	5.9796e-005
11231	4.1576	0.18182	0.	-36.794
11232	4.25	0.18182	5.e-002	3.3677e-005
11233	4.25	9.0909e-002	0.	-18.498
11234	4.0652	5.7273	0.	-64.075
11235	3.9728	5.8182	0.	-39.811
11236	4.0652	5.8182	5.e-002	-8.2743e-006
11237	4.0652	5.9091	0.	-20.063
11238	4.0652	5.5455	0.	-115.63
11239	3.9728	5.6364	0.	-94.164
11240	4.0652	5.6364	5.e-002	-3.2239e-005
11241	4.0652	5.3636	0.	-167.02
11242	3.9728	5.4545	0.	-148.16
11243	4.0652	5.4545	5.e-002	-1.8159e-015
11244	4.0652	5.1818	0.	-218.25
11245	3.9728	5.2727	0.	-202.02
11246	4.0652	5.2727	5.e-002	-3.5104e-005
11247	4.0652	5.	0.	-268.88
11248	3.9728	5.0909	0.	-255.43
11249	4.0652	5.0909	5.e-002	-1.6652e-006
11250	4.0652	4.8182	0.	-318.29
11251	3.9728	4.9091	0.	-307.78
11252	4.0652	4.9091	5.e-002	-2.0758e-005
11253	4.0652	4.6364	0.	-365.84
11254	3.9728	4.7273	0.	-358.42
11255	4.0652	4.7273	5.e-002	-2.1571e-005
11256	4.0652	4.4545	0.	-410.81
11257	3.9728	4.5455	0.	-406.64
11258	4.0652	4.5455	5.e-002	-1.5574e-006
11259	4.0652	4.2727	0.	-452.52
11260	3.9728	4.3636	0.	-451.73
11261	4.0652	4.3636	5.e-002	6.8287e-006
11262	4.0652	4.0909	0.	-490.28
11263	3.9728	4.1818	0.	-492.98
11264	4.0652	4.1818	5.e-002	-3.2096e-006
11265	4.0652	3.9091	0.	-523.44
11266	3.9728	4.	0.	-529.74
11267	4.0652	4.	5.e-002	2.519e-006
11268	4.0652	3.7273	0.	-551.42
11269	3.9728	3.8182	0.	-561.38
11270	4.0652	3.8182	5.e-002	5.7398e-006
11271	4.0652	3.5455	0.	-573.74
11272	3.9728	3.6364	0.	-587.37
11273	4.0652	3.6364	5.e-002	-4.7528e-006
11274	4.0652	3.3636	0.	-589.97
11275	3.9728	3.4545	0.	-607.27
11276	4.0652	3.4545	5.e-002	-6.6846e-006
11277	4.0652	3.1818	0.	-599.83
11278	3.9728	3.2727	0.	-620.74
11279	4.0652	3.2727	5.e-002	-1.5355e-005
11280	4.0652	3.	0.	-603.14
11281	3.9728	3.0909	0.	-627.53
11282	4.0652	3.0909	5.e-002	-8.0384e-006
11283	4.0652	2.8182	0.	-599.83
11284	3.9728	2.9091	0.	-627.53
11285	4.0652	2.9091	5.e-002	-6.9479e-006
11286	4.0652	2.6364	0.	-589.97
11287	3.9728	2.7273	0.	-620.74
11288	4.0652	2.7273	5.e-002	-1.1362e-005
11289	4.0652	2.4545	0.	-573.74
11290	3.9728	2.5455	0.	-607.27
11291	4.0652	2.5455	5.e-002	5.5601e-007
11292	4.0652	2.2727	0.	-551.42
11293	3.9728	2.3636	0.	-587.37
11294	4.0652	2.3636	5.e-002	-4.0905e-006
11295	4.0652	2.0909	0.	-523.44
11296	3.9728	2.1818	0.	-561.38
11297	4.0652	2.1818	5.e-002	5.3914e-006
11298	4.0652	1.9091	0.	-490.28
11299	3.9728	2.	0.	-529.74
11300	4.0652	2.	5.e-002	2.7402e-005
11301	4.0652	1.7273	0.	-452.52
11302	3.9728	1.8182	0.	-492.98
11303	4.0652	1.8182	5.e-002	3.0565e-005
11304	4.0652	1.5455	0.	-410.81
11305	3.9728	1.6364	0.	-451.73
11306	4.0652	1.6364	5.e-002	5.2856e-005
11307	4.0652	1.3636	0.	-365.84
11308	3.9728	1.4545	0.	-406.64
11309	4.0652	1.4545	5.e-002	5.6586e-005
11310	4.0652	1.1818	0.	-318.29
11311	3.9728	1.2727	0.	-358.42
11312	4.0652	1.2727	5.e-002	3.386e-005
11313	4.0652	1.	0.	-268.88
11314	3.9728	1.0909	0.	-307.78
11315	4.0652	1.0909	5.e-002	4.1914e-005
11316	4.0652	0.81818	0.	-218.25
11317	3.9728	0.90909	0.	-255.43
11318	4.0652	0.90909	5.e-002	7.3024e-005
11319	4.0652	0.63636	0.	-167.02
11320	3.9728	0.72727	0.	-202.02
11321	4.0652	0.72727	5.e-002	7.1021e-005
11322	4.0652	0.45455	0.	-115.63
11323	3.9728	0.54545	0.	-148.16
11324	4.0652	0.54545	5.e-002	7.1543e-005
11325	4.0652	0.27273	0.	-64.075
11326	3.9728	0.36364	0.	-94.164
11327	4.0652	0.36364	5.e-002	6.707e-005
11328	3.9728	0.18182	0.	-39.811
11329	4.0652	0.18182	5.e-002	3.3097e-005
11330	4.0652	9.0909e-002	0.	-20.063
11331	3.8804	5.7273	0.	-69.68
11332	3.788	5.8182	0.	-42.494
11333	3.8804	5.8182	5.e-002	-1.7889e-005
11334	3.8804	5.9091	0.	-21.409
11335	3.8804	5.5455	0.	-126.62
11336	3.788	5.6364	0.	-102.53
11337	3.8804	5.6364	5.e-002	-1.7302e-006
11338	3.8804	5.3636	0.	-183.09
11339	3.788	5.4545	0.	-161.87
11340	3.8804	5.4545	5.e-002	-1.8529e-015
11341	3.8804	5.1818	0.	-239.14
11342	3.788	5.2727	0.	-220.87
11343	3.8804	5.2727	5.e-002	-1.8625e-015
11344	3.8804	5.	0.	-294.29
11345	3.788	5.0909	0.	-279.15
11346	3.8804	5.0909	5.e-002	-1.9227e-005
11347	3.8804	4.8182	0.	-347.87
11348	3.788	4.9091	0.	-336.06
11349	3.8804	4.9091	5.e-002	-3.4825e-005
11350	3.8804	4.6364	0.	-399.19
11351	3.788	4.7273	0.	-390.89
11352	3.8804	4.7273	5.e-002	-1.6549e-006
11353	3.8804	4.4545	0.	-447.53
11354	3.788	4.5455	0.	-442.89
11355	3.8804	4.5455	5.e-002	-2.9496e-006
11356	3.8804	4.2727	0.	-492.18
11357	3.788	4.3636	0.	-491.34
11358	3.8804	4.3636	5.e-002	1.2078e-005
11359	3.8804	4.0909	0.	-532.45
11360	3.788	4.1818	0.	-535.5
11361	3.8804	4.1818	5.e-002	-6.3672e-006
11362	3.8804	3.9091	0.	-567.7
11363	3.788	4.	0.	-574.72
11364	3.8804	4.	5.e-002	-9.2039e-006
11365	3.8804	3.7273	0.	-597.36
11366	3.788	3.8182	0.	-608.38
11367	3.8804	3.8182	5.e-002	2.5168e-006
11368	3.8804	3.5455	0.	-620.96
11369	3.788	3.6364	0.	-635.97
11370	3.8804	3.6364	5.e-002	-1.8604e-006
11371	3.8804	3.3636	0.	-638.09
11372	3.788	3.4545	0.	-657.05
11373	3.8804	3.4545	5.e-002	-7.0375e-006
11374	3.8804	3.1818	0.	-648.49
11375	3.788	3.2727	0.	-671.29
11376	3.8804	3.2727	5.e-002	-1.5786e-005
11377	3.8804	3.	0.	-651.98
11378	3.788	3.0909	0.	-678.47
11379	3.8804	3.0909	5.e-002	-7.9936e-006
11380	3.8804	2.8182	0.	-648.49
11381	3.788	2.9091	0.	-678.47
11382	3.8804	2.9091	5.e-002	-6.7854e-006
11383	3.8804	2.6364	0.	-638.09
11384	3.788	2.7273	0.	-671.29
11385	3.8804	2.7273	5.e-002	-1.1182e-005
11386	3.8804	2.4545	0.	-620.96
11387	3.788	2.5455	0.	-657.05
11388	3.8804	2.5455	5.e-002	8.6706e-007
11389	3.8804	2.2727	0.	-597.36
11390	3.788	2.3636	0.	-635.97
11391	3.8804	2.3636	5.e-002	-7.2024e-007
11392	3.8804	2.0909	0.	-567.7
11393	3.788	2.1818	0.	-608.38
11394	3.8804	2.1818	5.e-002	1.9559e-005
11395	3.8804	1.9091	0.	-532.45
11396	3.788	2.	0.	-574.72
11397	3.8804	2.	5.e-002	2.0958e-005
11398	3.8804	1.7273	0.	-492.18
11399	3.788	1.8182	0.	-535.5
11400	3.8804	1.8182	5.e-002	3.5266e-005
11401	3.8804	1.5455	0.	-447.53
11402	3.788	1.6364	0.	-491.34
11403	3.8804	1.6364	5.e-002	5.4349e-005
11404	3.8804	1.3636	0.	-399.19
11405	3.788	1.4545	0.	-442.89
11406	3.8804	1.4545	5.e-002	5.0001e-005
11407	3.8804	1.1818	0.	-347.87
11408	3.788	1.2727	0.	-390.89
11409	3.8804	1.2727	5.e-002	4.107e-005
11410	3.8804	1.	0.	-294.29
11411	3.788	1.0909	0.	-336.06
11412	3.8804	1.0909	5.e-002	7.5352e-005
11413	3.8804	0.81818	0.	-239.14
11414	3.788	0.90909	0.	-279.15
11415	3.8804	0.90909	5.e-002	5.7416e-005
11416	3.8804	0.63636	0.	-183.09
11417	3.788	0.72727	0.	-220.87
11418	3.8804	0.72727	5.e-002	6.3616e-005
11419	3.8804	0.45455	0.	-126.62
11420	3.788	0.54545	0.	-161.87
11421	3.8804	0.54545	5.e-002	4.2755e-005
11422	3.8804	0.27273	0.	-69.68
11423	3.788	0.36364	0.	-102.53
11424	3.8804	0.36364	5.e-002	7.6941e-005
11425	3.788	0.18182	0.	-42.494
11426	3.8804	0.18182	5.e-002	3.7128e-005
11427	3.8804	9.0909e-002	0.	-21.409
11428	3.6957	5.7273	0.	-75.074
11429	3.6033	5.8182	0.	-44.809
11430	3.6957	5.8182	5.e-002	-1.8629e-005
11431	3.6957	5.9091	0.	-22.513
11432	3.6957	5.5455	0.	-137.69
11433	3.6033	5.6364	0.	-110.84
11434	3.6957	5.6364	5.e-002	-2.0143e-005
11435	3.6957	5.3636	0.	-199.57
11436	3.6033	5.4545	0.	-175.86
11437	3.6957	5.4545	5.e-002	-1.8137e-006
11438	3.6957	5.1818	0.	-260.81
11439	3.6033	5.2727	0.	-240.36
11440	3.6957	5.2727	5.e-002	-4.2762e-005
11441	3.6957	5.	0.	-320.87
11442	3.6033	5.0909	0.	-303.94
11443	3.6957	5.0909	5.e-002	-2.5931e-006
11444	3.6957	4.8182	0.	-379.03
11445	3.6033	4.9091	0.	-365.84
11446	3.6957	4.9091	5.e-002	-1.7481e-006
11447	3.6957	4.6364	0.	-434.55
11448	3.6033	4.7273	0.	-425.29
11449	3.6957	4.7273	5.e-002	-2.766e-006
11450	3.6957	4.4545	0.	-486.67
11451	3.6033	4.5455	0.	-481.51
11452	3.6957	4.5455	5.e-002	-1.6412e-006
11453	3.6957	4.2727	0.	-534.65
11454	3.6033	4.3636	0.	-533.72
11455	3.6957	4.3636	5.e-002	-3.116e-006
11456	3.6957	4.0909	0.	-577.78
11457	3.6033	4.1818	0.	-581.17
11458	3.6957	4.1818	5.e-002	-1.4491e-006
11459	3.6957	3.9091	0.	-615.44
11460	3.6033	4.	0.	-623.18
11461	3.6957	4.	5.e-002	-3.0278e-005
11462	3.6957	3.7273	0.	-647.04
11463	3.6033	3.8182	0.	-659.15
11464	3.6957	3.8182	5.e-002	-2.2766e-006
11465	3.6957	3.5455	0.	-672.13
11466	3.6033	3.6364	0.	-688.56
11467	3.6957	3.6364	5.e-002	1.5624e-006
11468	3.6957	3.3636	0.	-690.32
11469	3.6033	3.4545	0.	-710.99
11470	3.6957	3.4545	5.e-002	-7.3594e-006
11471	3.6957	3.1818	0.	-701.35
11472	3.6033	3.2727	0.	-726.13
11473	3.6957	3.2727	5.e-002	-7.197e-007
11474	3.6957	3.	0.	-705.04
11475	3.6033	3.0909	0.	-733.75
11476	3.6957	3.0909	5.e-002	-2.3392e-005
11477	3.6957	2.8182	0.	-701.35
11478	3.6033	2.9091	0.	-733.75
11479	3.6957	2.9091	5.e-002	-2.2043e-005
11480	3.6957	2.6364	0.	-690.32
11481	3.6033	2.7273	0.	-726.13
11482	3.6957	2.7273	5.e-002	3.3486e-006
11483	3.6957	2.4545	0.	-672.13
11484	3.6033	2.5455	0.	-710.99
11485	3.6957	2.5455	5.e-002	-1.5853e-005
11486	3.6957	2.2727	0.	-647.04
11487	3.6033	2.3636	0.	-688.56
11488	3.6957	2.3636	5.e-002	3.9179e-006
11489	3.6957	2.0909	0.	-615.44
11490	3.6033	2.1818	0.	-659.15
11491	3.6957	2.1818	5.e-002	2.1167e-005
11492	3.6957	1.9091	0.	-577.78
11493	3.6033	2.	0.	-623.18
11494	3.6957	2.	5.e-002	-2.2498e-006
11495	3.6957	1.7273	0.	-534.65
11496	3.6033	1.8182	0.	-581.17
11497	3.6957	1.8182	5.e-002	3.7319e-005
11498	3.6957	1.5455	0.	-486.67
11499	3.6033	1.6364	0.	-533.72
11500	3.6957	1.6364	5.e-002	5.1203e-005
11501	3.6957	1.3636	0.	-434.55
11502	3.6033	1.4545	0.	-481.51
11503	3.6957	1.4545	5.e-002	4.7755e-005
11504	3.6957	1.1818	0.	-379.03
11505	3.6033	1.2727	0.	-425.29
11506	3.6957	1.2727	5.e-002	5.8429e-005
11507	3.6957	1.	0.	-320.87
11508	3.6033	1.0909	0.	-365.84
11509	3.6957	1.0909	5.e-002	6.1825e-005
11510	3.6957	0.81818	0.	-260.81
11511	3.6033	0.90909	0.	-303.94
11512	3.6957	0.90909	5.e-002	8.9828e-005
11513	3.6957	0.63636	0.	-199.57
11514	3.6033	0.72727	0.	-240.36
11515	3.6957	0.72727	5.e-002	9.273e-005
11516	3.6957	0.45455	0.	-137.69
11517	3.6033	0.54545	0.	-175.86
11518	3.6957	0.54545	5.e-002	9.0303e-005
11519	3.6957	0.27273	0.	-75.074
11520	3.6033	0.36364	0.	-110.84
11521	3.6957	0.36364	5.e-002	8.5955e-005
11522	3.6033	0.18182	0.	-44.809
11523	3.6957	0.18182	5.e-002	4.2214e-005
11524	3.6957	9.0909e-002	0.	-22.513
11525	3.5109	5.7273	0.	-80.25
11526	3.4185	5.8182	0.	-46.71
11527	3.5109	5.8182	5.e-002	-1.284e-005
11528	3.5109	5.9091	0.	-23.339
11529	3.5109	5.5455	0.	-148.91
11530	3.4185	5.6364	0.	-119.13
11531	3.5109	5.6364	5.e-002	-4.5427e-005
11532	3.5109	5.3636	0.	-216.57
11533	3.4185	5.4545	0.	-190.22
11534	3.5109	5.4545	5.e-002	-1.1647e-006
11535	3.5109	5.1818	0.	-283.42
11536	3.4185	5.2727	0.	-260.68
11537	3.5109	5.2727	5.e-002	-2.2966e-005
11538	3.5109	5.	0.	-348.84
11539	3.4185	5.0909	0.	-330.
11540	3.5109	5.0909	5.e-002	-2.5423e-005
11541	3.5109	4.8182	0.	-412.04
11542	3.4185	4.9091	0.	-397.37
11543	3.5109	4.9091	5.e-002	-4.3457e-006
11544	3.5109	4.6364	0.	-472.21
11545	3.4185	4.7273	0.	-461.93
11546	3.5109	4.7273	5.e-002	-2.3643e-005
11547	3.5109	4.4545	0.	-528.53
11548	3.4185	4.5455	0.	-522.81
11549	3.5109	4.5455	5.e-002	-6.1712e-006
11550	3.5109	4.2727	0.	-580.23
11551	3.4185	4.3636	0.	-579.19
11552	3.5109	4.3636	5.e-002	-9.0913e-006
11553	3.5109	4.0909	0.	-626.58
11554	3.4185	4.1818	0.	-630.29
11555	3.5109	4.1818	5.e-002	-4.4577e-006
11556	3.5109	3.9091	0.	-666.93
11557	3.4185	4.	0.	-675.41
11558	3.5109	4.	5.e-002	9.432e-007
11559	3.5109	3.7273	0.	-700.73
11560	3.4185	3.8182	0.	-713.95
11561	3.5109	3.8182	5.e-002	-4.6474e-006
11562	3.5109	3.5455	0.	-727.5
11563	3.4185	3.6364	0.	-745.39
11564	3.5109	3.6364	5.e-002	-1.7094e-005
11565	3.5109	3.3636	0.	-746.88
11566	3.4185	3.4545	0.	-769.33
11567	3.5109	3.4545	5.e-002	-1.7537e-005
11568	3.5109	3.1818	0.	-758.62
11569	3.4185	3.2727	0.	-785.46
11570	3.5109	3.2727	5.e-002	-9.4822e-006
11571	3.5109	3.	0.	-762.55
11572	3.4185	3.0909	0.	-793.57
11573	3.5109	3.0909	5.e-002	-8.0437e-006
11574	3.5109	2.8182	0.	-758.62
11575	3.4185	2.9091	0.	-793.57
11576	3.5109	2.9091	5.e-002	-6.5865e-006
11577	3.5109	2.6364	0.	-746.88
11578	3.4185	2.7273	0.	-785.46
11579	3.5109	2.7273	5.e-002	-4.9255e-006
11580	3.5109	2.4545	0.	-727.5
11581	3.4185	2.5455	0.	-769.33
11582	3.5109	2.5455	5.e-002	-1.0494e-005
11583	3.5109	2.2727	0.	-700.73
11584	3.4185	2.3636	0.	-745.39
11585	3.5109	2.3636	5.e-002	-6.6403e-006
11586	3.5109	2.0909	0.	-666.93
11587	3.4185	2.1818	0.	-713.95
11588	3.5109	2.1818	5.e-002	8.133e-006
11589	3.5109	1.9091	0.	-626.58
11590	3.4185	2.	0.	-675.41
11591	3.5109	2.	5.e-002	3.1577e-005
11592	3.5109	1.7273	0.	-580.23
11593	3.4185	1.8182	0.	-630.29
11594	3.5109	1.8182	5.e-002	2.3271e-005
11595	3.5109	1.5455	0.	-528.53
11596	3.4185	1.6364	0.	-579.19
11597	3.5109	1.6364	5.e-002	5.2906e-005
11598	3.5109	1.3636	0.	-472.21
11599	3.4185	1.4545	0.	-522.81
11600	3.5109	1.4545	5.e-002	5.6687e-005
11601	3.5109	1.1818	0.	-412.04
11602	3.4185	1.2727	0.	-461.93
11603	3.5109	1.2727	5.e-002	6.6515e-005
11604	3.5109	1.	0.	-348.84
11605	3.4185	1.0909	0.	-397.37
11606	3.5109	1.0909	5.e-002	9.3519e-005
11607	3.5109	0.81818	0.	-283.42
11608	3.4185	0.90909	0.	-330.
11609	3.5109	0.90909	5.e-002	8.8273e-005
11610	3.5109	0.63636	0.	-216.57
11611	3.4185	0.72727	0.	-260.68
11612	3.5109	0.72727	5.e-002	8.9484e-005
11613	3.5109	0.45455	0.	-148.91
11614	3.4185	0.54545	0.	-190.22
11615	3.5109	0.54545	5.e-002	1.0017e-004
11616	3.5109	0.27273	0.	-80.25
11617	3.4185	0.36364	0.	-119.13
11618	3.5109	0.36364	5.e-002	9.0854e-005
11619	3.4185	0.18182	0.	-46.71
11620	3.5109	0.18182	5.e-002	4.0059e-005
11621	3.5109	9.0909e-002	0.	-23.339
11622	3.3261	5.7273	0.	-85.193
11623	3.2337	5.8182	0.	-48.142
11624	3.3261	5.8182	5.e-002	-1.0469e-005
11625	3.3261	5.9091	0.	-23.847
11626	3.3261	5.5455	0.	-160.33
11627	3.2337	5.6364	0.	-127.41
11628	3.3261	5.6364	5.e-002	-2.0627e-015
11629	3.3261	5.3636	0.	-234.23
11630	3.2337	5.4545	0.	-205.06
11631	3.3261	5.4545	5.e-002	-8.3631e-005
11632	3.3261	5.1818	0.	-307.17
11633	3.2337	5.2727	0.	-281.97
11634	3.3261	5.2727	5.e-002	-5.3467e-005
11635	3.3261	5.	0.	-378.46
11636	3.2337	5.0909	0.	-357.58
11637	3.3261	5.0909	5.e-002	-2.4171e-005
11638	3.3261	4.8182	0.	-447.19
11639	3.2337	4.9091	0.	-430.95
11640	3.3261	4.9091	5.e-002	-3.6753e-006
11641	3.3261	4.6364	0.	-512.48
11642	3.2337	4.7273	0.	-501.11
11643	3.3261	4.7273	5.e-002	-3.5889e-006
11644	3.3261	4.4545	0.	-573.44
11645	3.2337	4.5455	0.	-567.12
11646	3.3261	4.5455	5.e-002	-3.4626e-006
11647	3.3261	4.2727	0.	-629.24
11648	3.2337	4.3636	0.	-628.09
11649	3.3261	4.3636	5.e-002	-3.2865e-006
11650	3.3261	4.0909	0.	-679.14
11651	3.2337	4.1818	0.	-683.19
11652	3.3261	4.1818	5.e-002	-3.0514e-006
11653	3.3261	3.9091	0.	-722.48
11654	3.2337	4.	0.	-731.72
11655	3.3261	4.	5.e-002	-4.1253e-006
11656	3.3261	3.7273	0.	-758.68
11657	3.2337	3.8182	0.	-773.06
11658	3.3261	3.8182	5.e-002	-4.7583e-006
11659	3.3261	3.5455	0.	-787.31
11660	3.2337	3.6364	0.	-806.71
11661	3.3261	3.6364	5.e-002	-3.3933e-006
11662	3.3261	3.3636	0.	-808.01
11663	3.2337	3.4545	0.	-832.29
11664	3.3261	3.4545	5.e-002	-1.3078e-005
11665	3.3261	3.1818	0.	-820.52
11666	3.2337	3.2727	0.	-849.49
11667	3.3261	3.2727	5.e-002	-1.6209e-005
11668	3.3261	3.	0.	-824.71
11669	3.2337	3.0909	0.	-858.14
11670	3.3261	3.0909	5.e-002	-1.5963e-005
11671	3.3261	2.8182	0.	-820.52
11672	3.2337	2.9091	0.	-858.14
11673	3.3261	2.9091	5.e-002	-1.4228e-005
11674	3.3261	2.6364	0.	-808.01
11675	3.2337	2.7273	0.	-849.49
11676	3.3261	2.7273	5.e-002	-1.8487e-005
11677	3.3261	2.4545	0.	-787.31
11678	3.2337	2.5455	0.	-832.29
11679	3.3261	2.5455	5.e-002	-5.8955e-006
11680	3.3261	2.2727	0.	-758.68
11681	3.2337	2.3636	0.	-806.71
11682	3.3261	2.3636	5.e-002	2.954e-006
11683	3.3261	2.0909	0.	-722.48
11684	3.2337	2.1818	0.	-773.06
11685	3.3261	2.1818	5.e-002	9.1145e-006
11686	3.3261	1.9091	0.	-679.14
11687	3.2337	2.	0.	-731.72
11688	3.3261	2.	5.e-002	6.0789e-006
11689	3.3261	1.7273	0.	-629.24
11690	3.2337	1.8182	0.	-683.19
11691	3.3261	1.8182	5.e-002	4.2712e-005
11692	3.3261	1.5455	0.	-573.44
11693	3.2337	1.6364	0.	-628.09
11694	3.3261	1.6364	5.e-002	5.4932e-005
11695	3.3261	1.3636	0.	-512.48
11696	3.2337	1.4545	0.	-567.12
11697	3.3261	1.4545	5.e-002	7.7554e-005
11698	3.3261	1.1818	0.	-447.19
11699	3.2337	1.2727	0.	-501.11
11700	3.3261	1.2727	5.e-002	4.8563e-005
11701	3.3261	1.	0.	-378.46
11702	3.2337	1.0909	0.	-430.95
11703	3.3261	1.0909	5.e-002	5.9387e-005
11704	3.3261	0.81818	0.	-307.17
11705	3.2337	0.90909	0.	-357.58
11706	3.3261	0.90909	5.e-002	1.0788e-004
11707	3.3261	0.63636	0.	-234.23
11708	3.2337	0.72727	0.	-281.97
11709	3.3261	0.72727	5.e-002	1.0029e-004
11710	3.3261	0.45455	0.	-160.33
11711	3.2337	0.54545	0.	-205.06
11712	3.3261	0.54545	5.e-002	1.0539e-004
11713	3.3261	0.27273	0.	-85.193
11714	3.2337	0.36364	0.	-127.41
11715	3.3261	0.36364	5.e-002	1.0163e-004
11716	3.2337	0.18182	0.	-48.142
11717	3.3261	0.18182	5.e-002	4.1877e-005
11718	3.3261	9.0909e-002	0.	-23.847
11719	3.1413	5.7273	0.	-89.877
11720	3.0489	5.8182	0.	-49.035
11721	3.1413	5.8182	5.e-002	-1.383e-005
11722	3.1413	5.9091	0.	-23.983
11723	3.1413	5.5455	0.	-172.01
11724	3.0489	5.6364	0.	-135.72
11725	3.1413	5.6364	5.e-002	-3.2054e-005
11726	3.1413	5.3636	0.	-252.68
11727	3.0489	5.4545	0.	-220.47
11728	3.1413	5.4545	5.e-002	-6.31e-005
11729	3.1413	5.1818	0.	-332.27
11730	3.0489	5.2727	0.	-304.43
11731	3.1413	5.2727	5.e-002	-3.2277e-005
11732	3.1413	5.	0.	-409.99
11733	3.0489	5.0909	0.	-386.94
11734	3.1413	5.0909	5.e-002	-2.6756e-005
11735	3.1413	4.8182	0.	-484.8
11736	3.0489	4.9091	0.	-466.9
11737	3.1413	4.9091	5.e-002	-3.7428e-006
11738	3.1413	4.6364	0.	-555.71
11739	3.0489	4.7273	0.	-543.22
11740	3.1413	4.7273	5.e-002	-4.8654e-006
11741	3.1413	4.4545	0.	-621.75
11742	3.0489	4.5455	0.	-614.84
11743	3.1413	4.5455	5.e-002	-2.1336e-015
11744	3.1413	4.2727	0.	-682.05
11745	3.0489	4.3636	0.	-680.8
11746	3.1413	4.3636	5.e-002	-3.3723e-006
11747	3.1413	4.0909	0.	-735.81
11748	3.0489	4.1818	0.	-740.25
11749	3.1413	4.1818	5.e-002	-4.6992e-006
11750	3.1413	3.9091	0.	-782.37
11751	3.0489	4.	0.	-792.45
11752	3.1413	4.	5.e-002	1.5738e-005
11753	3.1413	3.7273	0.	-821.18
11754	3.0489	3.8182	0.	-836.78
11755	3.1413	3.8182	5.e-002	-1.1625e-005
11756	3.1413	3.5455	0.	-851.8
11757	3.0489	3.6364	0.	-872.79
11758	3.1413	3.6364	5.e-002	9.3879e-006
11759	3.1413	3.3636	0.	-873.9
11760	3.0489	3.4545	0.	-900.09
11761	3.1413	3.4545	5.e-002	-1.0637e-005
11762	3.1413	3.1818	0.	-887.25
11763	3.0489	3.2727	0.	-918.43
11764	3.1413	3.2727	5.e-002	-2.2531e-006
11765	3.1413	3.	0.	-891.71
11766	3.0489	3.0909	0.	-927.64
11767	3.1413	3.0909	5.e-002	-8.2802e-006
11768	3.1413	2.8182	0.	-887.25
11769	3.0489	2.9091	0.	-927.64
11770	3.1413	2.9091	5.e-002	-6.6842e-006
11771	3.1413	2.6364	0.	-873.9
11772	3.0489	2.7273	0.	-918.43
11773	3.1413	2.7273	5.e-002	-3.9538e-006
11774	3.1413	2.4545	0.	-851.8
11775	3.0489	2.5455	0.	-900.09
11776	3.1413	2.5455	5.e-002	-5.8744e-007
11777	3.1413	2.2727	0.	-821.18
11778	3.0489	2.3636	0.	-872.79
11779	3.1413	2.3636	5.e-002	1.9308e-005
11780	3.1413	2.0909	0.	-782.37
11781	3.0489	2.1818	0.	-836.78
11782	3.1413	2.1818	5.e-002	6.6959e-006
11783	3.1413	1.9091	0.	-735.81
11784	3.0489	2.	0.	-792.45
11785	3.1413	2.	5.e-002	3.2042e-005
11786	3.1413	1.7273	0.	-682.05
11787	3.0489	1.8182	0.	-740.25
11788	3.1413	1.8182	5.e-002	3.1183e-005
11789	3.1413	1.5455	0.	-621.75
11790	3.0489	1.6364	0.	-680.8
11791	3.1413	1.6364	5.e-002	5.3278e-005
11792	3.1413	1.3636	0.	-555.71
11793	3.0489	1.4545	0.	-614.84
11794	3.1413	1.4545	5.e-002	8.2599e-005
11795	3.1413	1.1818	0.	-484.8
11796	3.0489	1.2727	0.	-543.22
11797	3.1413	1.2727	5.e-002	4.7891e-005
11798	3.1413	1.	0.	-409.99
11799	3.0489	1.0909	0.	-466.9
11800	3.1413	1.0909	5.e-002	8.0537e-005
11801	3.1413	0.81818	0.	-332.27
11802	3.0489	0.90909	0.	-386.94
11803	3.1413	0.90909	5.e-002	9.1624e-005
11804	3.1413	0.63636	0.	-252.68
11805	3.0489	0.72727	0.	-304.43
11806	3.1413	0.72727	5.e-002	1.1565e-004
11807	3.1413	0.45455	0.	-172.01
11808	3.0489	0.54545	0.	-220.47
11809	3.1413	0.54545	5.e-002	1.3001e-004
11810	3.1413	0.27273	0.	-89.877
11811	3.0489	0.36364	0.	-135.72
11812	3.1413	0.36364	5.e-002	1.1095e-004
11813	3.0489	0.18182	0.	-49.035
11814	3.1413	0.18182	5.e-002	4.3627e-005
11815	3.1413	9.0909e-002	0.	-23.983
11816	2.9565	5.7273	0.	-94.271
11817	2.8641	5.8182	0.	-49.311
11818	2.9565	5.8182	5.e-002	-3.7549e-015
11819	2.9565	5.9091	0.	-23.685
11820	2.9565	5.5455	0.	-184.01
11821	2.8641	5.6364	0.	-144.06
11822	2.9565	5.6364	5.e-002	-3.5091e-005
11823	2.9565	5.3636	0.	-272.08
11824	2.8641	5.4545	0.	-236.58
11825	2.9565	5.4545	5.e-002	-1.7609e-006
11826	2.9565	5.1818	0.	-358.98
11827	2.8641	5.2727	0.	-328.29
11828	2.9565	5.2727	5.e-002	-3.8127e-006
11829	2.9565	5.	0.	-443.75
11830	2.8641	5.0909	0.	-418.4
11831	2.9565	5.0909	5.e-002	-3.8127e-006
11832	2.9565	4.8182	0.	-525.24
11833	2.8641	4.9091	0.	-505.61
11834	2.9565	4.9091	5.e-002	-2.7059e-005
11835	2.9565	4.6364	0.	-602.3
11836	2.8641	4.7273	0.	-588.67
11837	2.9565	4.7273	5.e-002	-2.2369e-015
11838	2.9565	4.4545	0.	-673.88
11839	2.8641	4.5455	0.	-666.4
11840	2.9565	4.5455	5.e-002	-3.6237e-006
11841	2.9565	4.2727	0.	-739.03
11842	2.8641	4.3636	0.	-737.77
11843	2.9565	4.3636	5.e-002	-3.4537e-006
11844	2.9565	4.0909	0.	-796.94
11845	2.8641	4.1818	0.	-801.86
11846	2.9565	4.1818	5.e-002	4.971e-006
11847	2.9565	3.9091	0.	-846.94
11848	2.8641	4.	0.	-857.93
11849	2.9565	4.	5.e-002	-5.7867e-006
11850	2.9565	3.7273	0.	-888.5
11851	2.8641	3.8182	0.	-905.41
11852	2.9565	3.8182	5.e-002	9.9006e-006
11853	2.9565	3.5455	0.	-921.21
11854	2.8641	3.6364	0.	-943.85
11855	2.9565	3.6364	5.e-002	2.9143e-006
11856	2.9565	3.3636	0.	-944.76
11857	2.8641	3.4545	0.	-972.92
11858	2.9565	3.4545	5.e-002	-8.2429e-006
11859	2.9565	3.1818	0.	-958.97
11860	2.8641	3.2727	0.	-992.42
11861	2.9565	3.2727	5.e-002	-8.8008e-006
11862	2.9565	3.	0.	-963.72
11863	2.8641	3.0909	0.	-1002.2
11864	2.9565	3.0909	5.e-002	-8.2669e-006
11865	2.9565	2.8182	0.	-958.97
11866	2.8641	2.9091	0.	-1002.2
11867	2.9565	2.9091	5.e-002	-6.5254e-006
11868	2.9565	2.6364	0.	-944.76
11869	2.8641	2.7273	0.	-992.42
11870	2.9565	2.7273	5.e-002	4.5514e-006
11871	2.9565	2.4545	0.	-921.21
11872	2.8641	2.5455	0.	-972.92
11873	2.9565	2.5455	5.e-002	7.3161e-006
11874	2.9565	2.2727	0.	-888.5
11875	2.8641	2.3636	0.	-943.85
11876	2.9565	2.3636	5.e-002	1.7729e-005
11877	2.9565	2.0909	0.	-846.94
11878	2.8641	2.1818	0.	-905.41
11879	2.9565	2.1818	5.e-002	2.4884e-005
11880	2.9565	1.9091	0.	-796.94
11881	2.8641	2.	0.	-857.93
11882	2.9565	2.	5.e-002	3.5714e-005
11883	2.9565	1.7273	0.	-739.03
11884	2.8641	1.8182	0.	-801.86
11885	2.9565	1.8182	5.e-002	3.9353e-005
11886	2.9565	1.5455	0.	-673.88
11887	2.8641	1.6364	0.	-737.77
11888	2.9565	1.6364	5.e-002	5.9585e-005
11889	2.9565	1.3636	0.	-602.3
11890	2.8641	1.4545	0.	-666.4
11891	2.9565	1.4545	5.e-002	9.3417e-005
11892	2.9565	1.1818	0.	-525.24
11893	2.8641	1.2727	0.	-588.67
11894	2.9565	1.2727	5.e-002	5.5835e-005
11895	2.9565	1.	0.	-443.75
11896	2.8641	1.0909	0.	-505.61
11897	2.9565	1.0909	5.e-002	1.0823e-004
11898	2.9565	0.81818	0.	-358.98
11899	2.8641	0.90909	0.	-418.4
11900	2.9565	0.90909	5.e-002	9.9994e-005
11901	2.9565	0.63636	0.	-272.08
11902	2.8641	0.72727	0.	-328.29
11903	2.9565	0.72727	5.e-002	1.3364e-004
11904	2.9565	0.45455	0.	-184.01
11905	2.8641	0.54545	0.	-236.58
11906	2.9565	0.54545	5.e-002	1.3905e-004
11907	2.9565	0.27273	0.	-94.271
11908	2.8641	0.36364	0.	-144.06
11909	2.9565	0.36364	5.e-002	1.2511e-004
11910	2.8641	0.18182	0.	-49.311
11911	2.9565	0.18182	5.e-002	5.9744e-005
11912	2.9565	9.0909e-002	0.	-23.685
11913	2.7717	5.7273	0.	-98.335
11914	2.6793	5.8182	0.	-48.882
11915	2.7717	5.8182	5.e-002	-1.1843e-005
11916	2.7717	5.9091	0.	-22.878
11917	2.7717	5.5455	0.	-196.43
11918	2.6793	5.6364	0.	-152.46
11919	2.7717	5.6364	5.e-002	-3.8305e-005
11920	2.7717	5.3636	0.	-292.63
11921	2.6793	5.4545	0.	-253.55
11922	2.7717	5.4545	5.e-002	-7.4924e-006
11923	2.7717	5.1818	0.	-387.58
11924	2.6793	5.2727	0.	-353.85
11925	2.7717	5.2727	5.e-002	-2.3064e-015
11926	2.7717	5.	0.	-480.14
11927	2.6793	5.0909	0.	-452.35
11928	2.7717	5.0909	5.e-002	-7.6141e-006
11929	2.7717	4.8182	0.	-568.95
11930	2.6793	4.9091	0.	-547.55
11931	2.7717	4.9091	5.e-002	-3.8131e-006
11932	2.7717	4.6364	0.	-652.72
11933	2.6793	4.7273	0.	-637.99
11934	2.7717	4.7273	5.e-002	-3.7793e-006
11935	2.7717	4.4545	0.	-730.29
11936	2.6793	4.5455	0.	-722.34
11937	2.7717	4.5455	5.e-002	-1.1067e-005
11938	2.7717	4.2727	0.	-800.63
11939	2.6793	4.3636	0.	-799.47
11940	2.7717	4.3636	5.e-002	-1.0583e-005
11941	2.7717	4.0909	0.	-862.92
11942	2.6793	4.1818	0.	-868.45
11943	2.7717	4.1818	5.e-002	-1.561e-005
11944	2.7717	3.9091	0.	-916.5
11945	2.6793	4.	0.	-928.54
11946	2.7717	4.	5.e-002	-1.2141e-005
11947	2.7717	3.7273	0.	-960.89
11948	2.6793	3.8182	0.	-979.22
11949	2.7717	3.8182	5.e-002	2.7284e-006
11950	2.7717	3.5455	0.	-995.72
11951	2.6793	3.6364	0.	-1020.1
11952	2.7717	3.6364	5.e-002	7.4007e-007
11953	2.7717	3.3636	0.	-1020.8
11954	2.6793	3.4545	0.	-1050.9
11955	2.7717	3.4545	5.e-002	-3.8105e-006
11956	2.7717	3.1818	0.	-1035.8
11957	2.6793	3.2727	0.	-1071.6
11958	2.7717	3.2727	5.e-002	-1.4059e-006
11959	2.7717	3.	0.	-1040.9
11960	2.6793	3.0909	0.	-1081.9
11961	2.7717	3.0909	5.e-002	-7.4101e-007
11962	2.7717	2.8182	0.	-1035.8
11963	2.6793	2.9091	0.	-1081.9
11964	2.7717	2.9091	5.e-002	1.0075e-006
11965	2.7717	2.6364	0.	-1020.8
11966	2.6793	2.7273	0.	-1071.6
11967	2.7717	2.7273	5.e-002	5.5838e-006
11968	2.7717	2.4545	0.	-995.72
11969	2.6793	2.5455	0.	-1050.9
11970	2.7717	2.5455	5.e-002	7.8098e-006
11971	2.7717	2.2727	0.	-960.89
11972	2.6793	2.3636	0.	-1020.1
11973	2.7717	2.3636	5.e-002	1.6996e-005
11974	2.7717	2.0909	0.	-916.5
11975	2.6793	2.1818	0.	-979.22
11976	2.7717	2.1818	5.e-002	3.898e-005
11977	2.7717	1.9091	0.	-862.92
11978	2.6793	2.	0.	-928.54
11979	2.7717	2.	5.e-002	5.5425e-005
11980	2.7717	1.7273	0.	-800.63
11981	2.6793	1.8182	0.	-868.45
11982	2.7717	1.8182	5.e-002	4.318e-005
11983	2.7717	1.5455	0.	-730.29
11984	2.6793	1.6364	0.	-799.47
11985	2.7717	1.6364	5.e-002	4.3127e-005
11986	2.7717	1.3636	0.	-652.72
11987	2.6793	1.4545	0.	-722.34
11988	2.7717	1.4545	5.e-002	8.2993e-005
11989	2.7717	1.1818	0.	-568.95
11990	2.6793	1.2727	0.	-637.99
11991	2.7717	1.2727	5.e-002	8.2893e-005
11992	2.7717	1.	0.	-480.14
11993	2.6793	1.0909	0.	-547.55
11994	2.7717	1.0909	5.e-002	1.2216e-004
11995	2.7717	0.81818	0.	-387.58
11996	2.6793	0.90909	0.	-452.35
11997	2.7717	0.90909	5.e-002	1.1258e-004
11998	2.7717	0.63636	0.	-292.63
11999	2.6793	0.72727	0.	-353.85
12000	2.7717	0.72727	5.e-002	1.0794e-004
12001	2.7717	0.45455	0.	-196.43
12002	2.6793	0.54545	0.	-253.55
12003	2.7717	0.54545	5.e-002	1.5634e-004
12004	2.7717	0.27273	0.	-98.335
12005	2.6793	0.36364	0.	-152.46
12006	2.7717	0.36364	5.e-002	1.4188e-004
12007	2.6793	0.18182	0.	-48.882
12008	2.7717	0.18182	5.e-002	5.0389e-005
12009	2.7717	9.0909e-002	0.	-22.878
12010	2.587	5.7273	0.	-102.03
12011	2.4946	5.8182	0.	-47.657
12012	2.587	5.8182	5.e-002	-2.4808e-005
12013	2.587	5.9091	0.	-21.475
12014	2.587	5.5455	0.	-209.36
12015	2.4946	5.6364	0.	-160.97
12016	2.587	5.6364	5.e-002	-3.6977e-006
12017	2.587	5.3636	0.	-314.59
12018	2.4946	5.4545	0.	-271.6
12019	2.587	5.4545	5.e-002	-8.207e-005
12020	2.587	5.1818	0.	-418.47
12021	2.4946	5.2727	0.	-381.47
12022	2.587	5.2727	5.e-002	-7.3893e-006
12023	2.587	5.	0.	-519.64
12024	2.4946	5.0909	0.	-489.32
12025	2.587	5.0909	5.e-002	-2.4549e-015
12026	2.587	4.8182	0.	-616.5
12027	2.4946	4.9091	0.	-593.34
12028	2.587	4.9091	5.e-002	-3.6149e-005
12029	2.587	4.6364	0.	-707.56
12030	2.4946	4.7273	0.	-691.82
12031	2.587	4.7273	5.e-002	-7.6148e-006
12032	2.587	4.4545	0.	-791.53
12033	2.4946	4.5455	0.	-783.28
12034	2.587	4.5455	5.e-002	-3.7409e-006
12035	2.587	4.2727	0.	-867.34
12036	2.4946	4.3636	0.	-866.49
12037	2.587	4.3636	5.e-002	-2.4714e-015
12038	2.587	4.0909	0.	-934.17
12039	2.4946	4.1818	0.	-940.51
12040	2.587	4.1818	5.e-002	5.8903e-006
12041	2.587	3.9091	0.	-991.4
12042	2.4946	4.	0.	-1004.7
12043	2.587	4.	5.e-002	-6.0366e-006
12044	2.587	3.7273	0.	-1038.6
12045	2.4946	3.8182	0.	-1058.5
12046	2.587	3.8182	5.e-002	2.9734e-006
12047	2.587	3.5455	0.	-1075.5
12048	2.4946	3.6364	0.	-1101.8
12049	2.587	3.6364	5.e-002	-2.0601e-007
12050	2.587	3.3636	0.	-1102.
12051	2.4946	3.4545	0.	-1134.3
12052	2.587	3.4545	5.e-002	-3.475e-006
12053	2.587	3.1818	0.	-1117.9
12054	2.4946	3.2727	0.	-1156.
12055	2.587	3.2727	5.e-002	-1.6468e-006
12056	2.587	3.	0.	-1123.2
12057	2.4946	3.0909	0.	-1166.8
12058	2.587	3.0909	5.e-002	-7.6739e-007
12059	2.587	2.8182	0.	-1117.9
12060	2.4946	2.9091	0.	-1166.8
12061	2.587	2.9091	5.e-002	1.0189e-006
12062	2.587	2.6364	0.	-1102.
12063	2.4946	2.7273	0.	-1156.
12064	2.587	2.7273	5.e-002	4.9667e-006
12065	2.587	2.4545	0.	-1075.5
12066	2.4946	2.5455	0.	-1134.3
12067	2.587	2.5455	5.e-002	4.6333e-006
12068	2.587	2.2727	0.	-1038.6
12069	2.4946	2.3636	0.	-1101.8
12070	2.587	2.3636	5.e-002	1.8499e-005
12071	2.587	2.0909	0.	-991.4
12072	2.4946	2.1818	0.	-1058.5
12073	2.587	2.1818	5.e-002	3.2299e-005
12074	2.587	1.9091	0.	-934.17
12075	2.4946	2.	0.	-1004.7
12076	2.587	2.	5.e-002	3.2765e-005
12077	2.587	1.7273	0.	-867.34
12078	2.4946	1.8182	0.	-940.51
12079	2.587	1.8182	5.e-002	7.1552e-005
12080	2.587	1.5455	0.	-791.53
12081	2.4946	1.6364	0.	-866.49
12082	2.587	1.6364	5.e-002	4.7673e-005
12083	2.587	1.3636	0.	-707.56
12084	2.4946	1.4545	0.	-783.28
12085	2.587	1.4545	5.e-002	8.4848e-005
12086	2.587	1.1818	0.	-616.5
12087	2.4946	1.2727	0.	-691.82
12088	2.587	1.2727	5.e-002	9.3514e-005
12089	2.587	1.	0.	-519.64
12090	2.4946	1.0909	0.	-593.34
12091	2.587	1.0909	5.e-002	1.372e-004
12092	2.587	0.81818	0.	-418.47
12093	2.4946	0.90909	0.	-489.32
12094	2.587	0.90909	5.e-002	1.5183e-004
12095	2.587	0.63636	0.	-314.59
12096	2.4946	0.72727	0.	-381.47
12097	2.587	0.72727	5.e-002	1.5984e-004
12098	2.587	0.45455	0.	-209.36
12099	2.4946	0.54545	0.	-271.6
12100	2.587	0.54545	5.e-002	1.6315e-004
12101	2.587	0.27273	0.	-102.03
12102	2.4946	0.36364	0.	-160.97
12103	2.587	0.36364	5.e-002	1.5207e-004
12104	2.4946	0.18182	0.	-47.657
12105	2.587	0.18182	5.e-002	4.9616e-005
12106	2.587	9.0909e-002	0.	-21.475
12107	2.4022	5.7273	0.	-105.31
12108	2.3098	5.8182	0.	-45.548
12109	2.4022	5.8182	5.e-002	-3.9237e-005
12110	2.4022	5.9091	0.	-19.377
12111	2.4022	5.5455	0.	-222.95
12112	2.3098	5.6364	0.	-169.67
12113	2.4022	5.6364	5.e-002	-8.3546e-005
12114	2.4022	5.3636	0.	-338.28
12115	2.3098	5.4545	0.	-291.02
12116	2.4022	5.4545	5.e-002	-4.3647e-005
12117	2.4022	5.1818	0.	-452.15
12118	2.3098	5.2727	0.	-411.66
12119	2.4022	5.2727	5.e-002	-4.8747e-005
12120	2.4022	5.	0.	-562.89
12121	2.3098	5.0909	0.	-529.98
12122	2.4022	5.0909	5.e-002	-3.873e-005
12123	2.4022	4.8182	0.	-668.58
12124	2.3098	4.9091	0.	-643.75
12125	2.4022	4.9091	5.e-002	-4.266e-005
12126	2.4022	4.6364	0.	-767.51
12127	2.3098	4.7273	0.	-750.97
12128	2.4022	4.7273	5.e-002	-3.8144e-006
12129	2.4022	4.4545	0.	-858.26
12130	2.3098	4.5455	0.	-849.98
12131	2.4022	4.5455	5.e-002	-7.5567e-006
12132	2.4022	4.2727	0.	-939.74
12133	2.3098	4.3636	0.	-939.49
12134	2.4022	4.3636	5.e-002	-7.2902e-006
12135	2.4022	4.0909	0.	-1011.1
12136	2.3098	4.1818	0.	-1018.6
12137	2.4022	4.1818	5.e-002	3.0159e-005
12138	2.4022	3.9091	0.	-1071.9
12139	2.3098	4.	0.	-1086.7
12140	2.4022	4.	5.e-002	6.2197e-006
12141	2.4022	3.7273	0.	-1121.9
12142	2.3098	3.8182	0.	-1143.5
12143	2.4022	3.8182	5.e-002	3.1613e-006
12144	2.4022	3.5455	0.	-1160.7
12145	2.3098	3.6364	0.	-1188.9
12146	2.4022	3.6364	5.e-002	6.0727e-006
12147	2.4022	3.3636	0.	-1188.5
12148	2.3098	3.4545	0.	-1222.9
12149	2.4022	3.4545	5.e-002	-2.0143e-006
12150	2.4022	3.1818	0.	-1205.1
12151	2.3098	3.2727	0.	-1245.5
12152	2.4022	3.2727	5.e-002	1.2247e-006
12153	2.4022	3.	0.	-1210.7
12154	2.3098	3.0909	0.	-1256.8
12155	2.4022	3.0909	5.e-002	-7.8951e-007
12156	2.4022	2.8182	0.	-1205.1
12157	2.3098	2.9091	0.	-1256.8
12158	2.4022	2.9091	5.e-002	1.0426e-006
12159	2.4022	2.6364	0.	-1188.5
12160	2.3098	2.7273	0.	-1245.5
12161	2.4022	2.7273	5.e-002	6.678e-006
12162	2.4022	2.4545	0.	-1160.7
12163	2.3098	2.5455	0.	-1222.9
12164	2.4022	2.5455	5.e-002	7.3167e-006
12165	2.4022	2.2727	0.	-1121.9
12166	2.3098	2.3636	0.	-1188.9
12167	2.4022	2.3636	5.e-002	2.8062e-005
12168	2.4022	2.0909	0.	-1071.9
12169	2.3098	2.1818	0.	-1143.5
12170	2.4022	2.1818	5.e-002	3.3168e-005
12171	2.4022	1.9091	0.	-1011.1
12172	2.3098	2.	0.	-1086.7
12173	2.4022	2.	5.e-002	3.3895e-005
12174	2.4022	1.7273	0.	-939.74
12175	2.3098	1.8182	0.	-1018.6
12176	2.4022	1.8182	5.e-002	7.3945e-005
12177	2.4022	1.5455	0.	-858.26
12178	2.3098	1.6364	0.	-939.49
12179	2.4022	1.6364	5.e-002	7.1847e-005
12180	2.4022	1.3636	0.	-767.51
12181	2.3098	1.4545	0.	-849.98
12182	2.4022	1.4545	5.e-002	1.166e-004
12183	2.4022	1.1818	0.	-668.58
12184	2.3098	1.2727	0.	-750.97
12185	2.4022	1.2727	5.e-002	7.3289e-005
12186	2.4022	1.	0.	-562.89
12187	2.3098	1.0909	0.	-643.75
12188	2.4022	1.0909	5.e-002	1.5178e-004
12189	2.4022	0.81818	0.	-452.15
12190	2.3098	0.90909	0.	-529.98
12191	2.4022	0.90909	5.e-002	8.1134e-005
12192	2.4022	0.63636	0.	-338.28
12193	2.3098	0.72727	0.	-411.66
12194	2.4022	0.72727	5.e-002	1.7368e-004
12195	2.4022	0.45455	0.	-222.95
12196	2.3098	0.54545	0.	-291.02
12197	2.4022	0.54545	5.e-002	1.3094e-004
12198	2.4022	0.27273	0.	-105.31
12199	2.3098	0.36364	0.	-169.67
12200	2.4022	0.36364	5.e-002	1.6709e-004
12201	2.3098	0.18182	0.	-45.548
12202	2.4022	0.18182	5.e-002	6.1707e-005
12203	2.4022	9.0909e-002	0.	-19.377
12204	2.2174	5.7273	0.	-108.16
12205	2.125	5.8182	0.	-42.486
12206	2.2174	5.8182	5.e-002	-4.8217e-015
12207	2.2174	5.9091	0.	-16.473
12208	2.2174	5.5455	0.	-237.43
12209	2.125	5.6364	0.	-178.67
12210	2.2174	5.6364	5.e-002	-2.6736e-015
12211	2.2174	5.3636	0.	-364.18
12212	2.125	5.4545	0.	-312.24
12213	2.2174	5.4545	5.e-002	-1.0134e-004
12214	2.2174	5.1818	0.	-489.3
12215	2.125	5.2727	0.	-445.14
12216	2.2174	5.2727	5.e-002	-2.7323e-015
12217	2.2174	5.	0.	-610.7
12218	2.125	5.0909	0.	-575.23
12219	2.2174	5.0909	5.e-002	-4.1981e-005
12220	2.2174	4.8182	0.	-726.07
12221	2.125	4.9091	0.	-699.8
12222	2.2174	4.9091	5.e-002	-3.7911e-005
12223	2.2174	4.6364	0.	-833.44
12224	2.125	4.7273	0.	-816.46
12225	2.2174	4.7273	5.e-002	-1.1401e-005
12226	2.2174	4.4545	0.	-931.27
12227	2.125	4.5455	0.	-923.38
12228	2.2174	4.5455	5.e-002	-3.8017e-006
12229	2.2174	4.2727	0.	-1018.5
12230	2.125	4.3636	0.	-1019.2
12231	2.2174	4.3636	5.e-002	-7.3719e-006
12232	2.2174	4.0909	0.	-1094.3
12233	2.125	4.1818	0.	-1103.3
12234	2.2174	4.1818	5.e-002	-3.4482e-006
12235	2.2174	3.9091	0.	-1158.5
12236	2.125	4.	0.	-1175.
12237	2.2174	4.	5.e-002	6.5049e-006
12238	2.2174	3.7273	0.	-1210.8
12239	2.125	3.8182	0.	-1234.4
12240	2.2174	3.8182	5.e-002	1.1827e-005
12241	2.2174	3.5455	0.	-1251.3
12242	2.125	3.6364	0.	-1281.6
12243	2.2174	3.6364	5.e-002	6.1253e-006
12244	2.2174	3.3636	0.	-1280.2
12245	2.125	3.4545	0.	-1316.8
12246	2.2174	3.4545	5.e-002	-1.2382e-006
12247	2.2174	3.1818	0.	-1297.4
12248	2.125	3.2727	0.	-1340.
12249	2.2174	3.2727	5.e-002	-6.9642e-007
12250	2.2174	3.	0.	-1303.2
12251	2.125	3.0909	0.	-1351.6
12252	2.2174	3.0909	5.e-002	-7.6617e-007
12253	2.2174	2.8182	0.	-1297.4
12254	2.125	2.9091	0.	-1351.6
12255	2.2174	2.9091	5.e-002	1.0565e-006
12256	2.2174	2.6364	0.	-1280.2
12257	2.125	2.7273	0.	-1340.
12258	2.2174	2.7273	5.e-002	4.7368e-006
12259	2.2174	2.4545	0.	-1251.3
12260	2.125	2.5455	0.	-1316.8
12261	2.2174	2.5455	5.e-002	7.696e-006
12262	2.2174	2.2727	0.	-1210.8
12263	2.125	2.3636	0.	-1281.6
12264	2.2174	2.3636	5.e-002	2.502e-005
12265	2.2174	2.0909	0.	-1158.5
12266	2.125	2.1818	0.	-1234.4
12267	2.2174	2.1818	5.e-002	4.3528e-005
12268	2.2174	1.9091	0.	-1094.3
12269	2.125	2.	0.	-1175.
12270	2.2174	2.	5.e-002	3.7785e-005
12271	2.2174	1.7273	0.	-1018.5
12272	2.125	1.8182	0.	-1103.3
12273	2.2174	1.8182	5.e-002	4.8724e-005
12274	2.2174	1.5455	0.	-931.27
12275	2.125	1.6364	0.	-1019.2
12276	2.2174	1.6364	5.e-002	8.7511e-005
12277	2.2174	1.3636	0.	-833.44
12278	2.125	1.4545	0.	-923.38
12279	2.2174	1.4545	5.e-002	9.5721e-005
12280	2.2174	1.1818	0.	-726.07
12281	2.125	1.2727	0.	-816.46
12282	2.2174	1.2727	5.e-002	1.4411e-004
12283	2.2174	1.	0.	-610.7
12284	2.125	1.0909	0.	-699.8
12285	2.2174	1.0909	5.e-002	1.2113e-004
12286	2.2174	0.81818	0.	-489.3
12287	2.125	0.90909	0.	-575.23
12288	2.2174	0.90909	5.e-002	1.8206e-004
12289	2.2174	0.63636	0.	-364.18
12290	2.125	0.72727	0.	-445.14
12291	2.2174	0.72727	5.e-002	1.8099e-004
12292	2.2174	0.45455	0.	-237.43
12293	2.125	0.54545	0.	-312.24
12294	2.2174	0.54545	5.e-002	1.9e-004
12295	2.2174	0.27273	0.	-108.16
12296	2.125	0.36364	0.	-178.67
12297	2.2174	0.36364	5.e-002	2.2884e-004
12298	2.125	0.18182	0.	-42.486
12299	2.2174	0.18182	5.e-002	6.2092e-005
12300	2.2174	9.0909e-002	0.	-16.473
12301	2.0326	5.7273	0.	-110.56
12302	1.9402	5.8182	0.	-38.462
12303	2.0326	5.8182	5.e-002	-3.0025e-005
12304	2.0326	5.9091	0.	-12.665
12305	2.0326	5.5455	0.	-253.13
12306	1.9402	5.6364	0.	-188.19
12307	2.0326	5.6364	5.e-002	-9.9813e-005
12308	2.0326	5.3636	0.	-392.94
12309	1.9402	5.4545	0.	-335.88
12310	2.0326	5.4545	5.e-002	-5.6893e-005
12311	2.0326	5.1818	0.	-530.87
12312	1.9402	5.2727	0.	-482.88
12313	2.0326	5.2727	5.e-002	-2.9341e-015
12314	2.0326	5.	0.	-664.2
12315	1.9402	5.0909	0.	-626.34
12316	2.0326	5.0909	5.e-002	-6.6885e-006
12317	2.0326	4.8182	0.	-790.14
12318	1.9402	4.9091	0.	-762.83
12319	2.0326	4.9091	5.e-002	-4.0638e-005
12320	2.0326	4.6364	0.	-906.43
12321	1.9402	4.7273	0.	-889.58
12322	2.0326	4.7273	5.e-002	-3.7675e-006
12323	2.0326	4.4545	0.	-1011.5
12324	1.9402	4.5455	0.	-1004.6
12325	2.0326	4.5455	5.e-002	-7.6251e-006
12326	2.0326	4.2727	0.	-1104.2
12327	1.9402	4.3636	0.	-1106.6
12328	2.0326	4.3636	5.e-002	1.9375e-006
12329	2.0326	4.0909	0.	-1184.2
12330	1.9402	4.1818	0.	-1195.1
12331	2.0326	4.1818	5.e-002	1.4445e-005
12332	2.0326	3.9091	0.	-1251.2
12333	1.9402	4.	0.	-1269.9
12334	2.0326	4.	5.e-002	-1.2441e-005
12335	2.0326	3.7273	0.	-1305.5
12336	1.9402	3.8182	0.	-1331.4
12337	2.0326	3.8182	5.e-002	-5.2964e-006
12338	2.0326	3.5455	0.	-1347.3
12339	1.9402	3.6364	0.	-1379.8
12340	2.0326	3.6364	5.e-002	6.0197e-006
12341	2.0326	3.3636	0.	-1376.9
12342	1.9402	3.4545	0.	-1415.7
12343	2.0326	3.4545	5.e-002	1.0766e-005
12344	2.0326	3.1818	0.	-1394.6
12345	1.9402	3.2727	0.	-1439.3
12346	2.0326	3.2727	5.e-002	1.3622e-005
12347	2.0326	3.	0.	-1400.4
12348	1.9402	3.0909	0.	-1451.1
12349	2.0326	3.0909	5.e-002	-5.5143e-007
12350	2.0326	2.8182	0.	-1394.6
12351	1.9402	2.9091	0.	-1451.1
12352	2.0326	2.9091	5.e-002	1.2242e-006
12353	2.0326	2.6364	0.	-1376.9
12354	1.9402	2.7273	0.	-1439.3
12355	2.0326	2.7273	5.e-002	3.722e-006
12356	2.0326	2.4545	0.	-1347.3
12357	1.9402	2.5455	0.	-1415.7
12358	2.0326	2.5455	5.e-002	6.4352e-006
12359	2.0326	2.2727	0.	-1305.5
12360	1.9402	2.3636	0.	-1379.8
12361	2.0326	2.3636	5.e-002	2.1726e-005
12362	2.0326	2.0909	0.	-1251.2
12363	1.9402	2.1818	0.	-1331.4
12364	2.0326	2.1818	5.e-002	3.6248e-005
12365	2.0326	1.9091	0.	-1184.2
12366	1.9402	2.	0.	-1269.9
12367	2.0326	2.	5.e-002	3.8136e-005
12368	2.0326	1.7273	0.	-1104.2
12369	1.9402	1.8182	0.	-1195.1
12370	2.0326	1.8182	5.e-002	7.8435e-005
12371	2.0326	1.5455	0.	-1011.5
12372	1.9402	1.6364	0.	-1106.6
12373	2.0326	1.6364	5.e-002	1.0542e-004
12374	2.0326	1.3636	0.	-906.43
12375	1.9402	1.4545	0.	-1004.6
12376	2.0326	1.4545	5.e-002	7.0418e-005
12377	2.0326	1.1818	0.	-790.14
12378	1.9402	1.2727	0.	-889.58
12379	2.0326	1.2727	5.e-002	1.5629e-004
12380	2.0326	1.	0.	-664.2
12381	1.9402	1.0909	0.	-762.83
12382	2.0326	1.0909	5.e-002	1.6975e-004
12383	2.0326	0.81818	0.	-530.87
12384	1.9402	0.90909	0.	-626.34
12385	2.0326	0.90909	5.e-002	1.9417e-004
12386	2.0326	0.63636	0.	-392.94
12387	1.9402	0.72727	0.	-482.88
12388	2.0326	0.72727	5.e-002	1.9527e-004
12389	2.0326	0.45455	0.	-253.13
12390	1.9402	0.54545	0.	-335.88
12391	2.0326	0.54545	5.e-002	2.0523e-004
12392	2.0326	0.27273	0.	-110.56
12393	1.9402	0.36364	0.	-188.19
12394	2.0326	0.36364	5.e-002	1.9963e-004
12395	1.9402	0.18182	0.	-38.462
12396	2.0326	0.18182	5.e-002	6.005e-005
12397	2.0326	9.0909e-002	0.	-12.665
12398	1.8478	5.7273	0.	-112.55
12399	1.7554	5.8182	0.	-33.592
12400	1.8478	5.8182	5.e-002	-1.6467e-005
12401	1.8478	5.9091	0.	-7.9788
12402	1.8478	5.5455	0.	-270.54
12403	1.7554	5.6364	0.	-198.58
12404	1.8478	5.6364	5.e-002	-5.3976e-005
12405	1.8478	5.3636	0.	-425.54
12406	1.7554	5.4545	0.	-362.88
12407	1.8478	5.4545	5.e-002	-1.1431e-004
12408	1.8478	5.1818	0.	-578.15
12409	1.7554	5.2727	0.	-526.34
12410	1.8478	5.2727	5.e-002	-5.1097e-005
12411	1.8478	5.	0.	-724.86
12412	1.7554	5.0909	0.	-685.01
12413	1.8478	5.0909	5.e-002	-6.2064e-006
12414	1.8478	4.8182	0.	-862.26
12415	1.7554	4.9091	0.	-834.62
12416	1.8478	4.9091	5.e-002	4.4613e-006
12417	1.8478	4.6364	0.	-987.82
12418	1.7554	4.7273	0.	-971.93
12419	1.8478	4.7273	5.e-002	-4.4644e-006
12420	1.8478	4.4545	0.	-1099.9
12421	1.7554	4.5455	0.	-1094.9
12422	1.8478	4.5455	5.e-002	-7.6293e-006
12423	1.8478	4.2727	0.	-1197.7
12424	1.7554	4.3636	0.	-1202.5
12425	1.8478	4.3636	5.e-002	-3.7307e-006
12426	1.8478	4.0909	0.	-1281.1
12427	1.7554	4.1818	0.	-1294.7
12428	1.8478	4.1818	5.e-002	1.458e-005
12429	1.8478	3.9091	0.	-1350.4
12430	1.7554	4.	0.	-1371.7
12431	1.8478	4.	5.e-002	1.2744e-005
12432	1.8478	3.7273	0.	-1406.
12433	1.7554	3.8182	0.	-1434.3
12434	1.8478	3.8182	5.e-002	-5.2464e-006
12435	1.8478	3.5455	0.	-1448.4
12436	1.7554	3.6364	0.	-1483.2
12437	1.8478	3.6364	5.e-002	5.7365e-006
12438	1.8478	3.3636	0.	-1478.4
12439	1.7554	3.4545	0.	-1519.2
12440	1.8478	3.4545	5.e-002	-5.3311e-007
12441	1.8478	3.1818	0.	-1496.1
12442	1.7554	3.2727	0.	-1542.8
12443	1.8478	3.2727	5.e-002	-1.3937e-006
12444	1.8478	3.	0.	-1502.
12445	1.7554	3.0909	0.	-1554.5
12446	1.8478	3.0909	5.e-002	1.4612e-005
12447	1.8478	2.8182	0.	-1496.1
12448	1.7554	2.9091	0.	-1554.5
12449	1.8478	2.9091	5.e-002	1.6284e-005
12450	1.8478	2.6364	0.	-1478.4
12451	1.7554	2.7273	0.	-1542.8
12452	1.8478	2.7273	5.e-002	4.4886e-006
12453	1.8478	2.4545	0.	-1448.4
12454	1.7554	2.5455	0.	-1519.2
12455	1.8478	2.5455	5.e-002	2.1636e-005
12456	1.8478	2.2727	0.	-1406.
12457	1.7554	2.3636	0.	-1483.2
12458	1.8478	2.3636	5.e-002	2.2144e-005
12459	1.8478	2.0909	0.	-1350.4
12460	1.7554	2.1818	0.	-1434.3
12461	1.8478	2.1818	5.e-002	1.7542e-005
12462	1.8478	1.9091	0.	-1281.1
12463	1.7554	2.	0.	-1371.7
12464	1.8478	2.	5.e-002	5.0636e-005
12465	1.8478	1.7273	0.	-1197.7
12466	1.7554	1.8182	0.	-1294.7
12467	1.8478	1.8182	5.e-002	9.6924e-005
12468	1.8478	1.5455	0.	-1099.9
12469	1.7554	1.6364	0.	-1202.5
12470	1.8478	1.6364	5.e-002	1.1152e-004
12471	1.8478	1.3636	0.	-987.82
12472	1.7554	1.4545	0.	-1094.9
12473	1.8478	1.4545	5.e-002	1.3798e-004
12474	1.8478	1.1818	0.	-862.26
12475	1.7554	1.2727	0.	-971.93
12476	1.8478	1.2727	5.e-002	1.5622e-004
12477	1.8478	1.	0.	-724.86
12478	1.7554	1.0909	0.	-834.62
12479	1.8478	1.0909	5.e-002	1.4345e-004
12480	1.8478	0.81818	0.	-578.15
12481	1.7554	0.90909	0.	-685.01
12482	1.8478	0.90909	5.e-002	1.9927e-004
12483	1.8478	0.63636	0.	-425.54
12484	1.7554	0.72727	0.	-526.34
12485	1.8478	0.72727	5.e-002	2.1417e-004
12486	1.8478	0.45455	0.	-270.54
12487	1.7554	0.54545	0.	-362.88
12488	1.8478	0.54545	5.e-002	2.1941e-004
12489	1.8478	0.27273	0.	-112.55
12490	1.7554	0.36364	0.	-198.58
12491	1.8478	0.36364	5.e-002	2.7476e-004
12492	1.7554	0.18182	0.	-33.592
12493	1.8478	0.18182	5.e-002	8.2334e-005
12494	1.8478	9.0909e-002	0.	-7.9788
12495	1.663	5.7273	0.	-114.22
12496	1.5707	5.8182	0.	-28.246
12497	1.663	5.8182	5.e-002	-1.8474e-005
12498	1.663	5.9091	0.	-3.2865
12499	1.663	5.5455	0.	-290.44
12500	1.5707	5.6364	0.	-210.41
12501	1.663	5.6364	5.e-002	-5.7587e-005
12502	1.663	5.3636	0.	-463.36
12503	1.5707	5.4545	0.	-394.68
12504	1.663	5.4545	5.e-002	-3.4215e-015
12505	1.663	5.1818	0.	-633.
12506	1.5707	5.2727	0.	-577.61
12507	1.663	5.2727	5.e-002	-1.149e-004
12508	1.663	5.	0.	-794.7
12509	1.5707	5.0909	0.	-753.68
12510	1.663	5.0909	5.e-002	-1.1337e-004
12511	1.663	4.8182	0.	-944.34
12512	1.5707	4.9091	0.	-917.51
12513	1.663	4.9091	5.e-002	-3.5148e-015
12514	1.663	4.6364	0.	-1079.2
12515	1.5707	4.7273	0.	-1065.5
12516	1.663	4.7273	5.e-002	-3.8694e-005
12517	1.663	4.4545	0.	-1197.8
12518	1.5707	4.5455	0.	-1195.8
12519	1.663	4.5455	5.e-002	-2.2255e-007
12520	1.663	4.2727	0.	-1299.8
12521	1.5707	4.3636	0.	-1307.9
12522	1.663	4.3636	5.e-002	-3.7341e-006
12523	1.663	4.0909	0.	-1385.6
12524	1.5707	4.1818	0.	-1402.5
12525	1.663	4.1818	5.e-002	7.4078e-006
12526	1.663	3.9091	0.	-1456.
12527	1.5707	4.	0.	-1480.4
12528	1.663	4.	5.e-002	3.1504e-006
12529	1.663	3.7273	0.	-1511.9
12530	1.5707	3.8182	0.	-1543.
12531	1.663	3.8182	5.e-002	2.407e-005
12532	1.663	3.5455	0.	-1554.3
12533	1.5707	3.6364	0.	-1591.5
12534	1.663	3.6364	5.e-002	1.9366e-005
12535	1.663	3.3636	0.	-1583.9
12536	1.5707	3.4545	0.	-1626.8
12537	1.663	3.4545	5.e-002	2.6448e-005
12538	1.663	3.1818	0.	-1601.5
12539	1.5707	3.2727	0.	-1649.9
12540	1.663	3.2727	5.e-002	-1.1556e-006
12541	1.663	3.	0.	-1607.3
12542	1.5707	3.0909	0.	-1661.3
12543	1.663	3.0909	5.e-002	-5.6963e-007
12544	1.663	2.8182	0.	-1601.5
12545	1.5707	2.9091	0.	-1661.3
12546	1.663	2.9091	5.e-002	1.0017e-006
12547	1.663	2.6364	0.	-1583.9
12548	1.5707	2.7273	0.	-1649.9
12549	1.663	2.7273	5.e-002	3.4451e-006
12550	1.663	2.4545	0.	-1554.3
12551	1.5707	2.5455	0.	-1626.8
12552	1.663	2.5455	5.e-002	3.8357e-005
12553	1.663	2.2727	0.	-1511.9
12554	1.5707	2.3636	0.	-1591.5
12555	1.663	2.3636	5.e-002	2.2096e-005
12556	1.663	2.0909	0.	-1456.
12557	1.5707	2.1818	0.	-1543.
12558	1.663	2.1818	5.e-002	4.4898e-005
12559	1.663	1.9091	0.	-1385.6
12560	1.5707	2.	0.	-1480.4
12561	1.663	2.	5.e-002	3.6775e-005
12562	1.663	1.7273	0.	-1299.8
12563	1.5707	1.8182	0.	-1402.5
12564	1.663	1.8182	5.e-002	6.0376e-005
12565	1.663	1.5455	0.	-1197.8
12566	1.5707	1.6364	0.	-1307.9
12567	1.663	1.6364	5.e-002	8.4037e-005
12568	1.663	1.3636	0.	-1079.2
12569	1.5707	1.4545	0.	-1195.8
12570	1.663	1.4545	5.e-002	1.4094e-004
12571	1.663	1.1818	0.	-944.34
12572	1.5707	1.2727	0.	-1065.5
12573	1.663	1.2727	5.e-002	1.4195e-004
12574	1.663	1.	0.	-794.7
12575	1.5707	1.0909	0.	-917.51
12576	1.663	1.0909	5.e-002	1.0612e-004
12577	1.663	0.81818	0.	-633.
12578	1.5707	0.90909	0.	-753.68
12579	1.663	0.90909	5.e-002	2.1669e-004
12580	1.663	0.63636	0.	-463.36
12581	1.5707	0.72727	0.	-577.61
12582	1.663	0.72727	5.e-002	2.2082e-004
12583	1.663	0.45455	0.	-290.44
12584	1.5707	0.54545	0.	-394.68
12585	1.663	0.54545	5.e-002	2.3139e-004
12586	1.663	0.27273	0.	-114.22
12587	1.5707	0.36364	0.	-210.41
12588	1.663	0.36364	5.e-002	2.3035e-004
12589	1.5707	0.18182	0.	-28.246
12590	1.663	0.18182	5.e-002	7.3898e-005
12591	1.663	9.0909e-002	0.	-3.2865
12592	1.4783	5.7273	0.	-115.82
12593	1.3859	5.8182	0.	-23.082
12594	1.4783	5.8182	5.e-002	-4.1464e-005
12595	1.4783	5.9091	0.	-0.96528
12596	1.4783	5.5455	0.	-314.09
12597	1.3859	5.6364	0.	-224.66
12598	1.4783	5.6364	5.e-002	-6.0159e-005
12599	1.4783	5.3636	0.	-508.59
12600	1.3859	5.4545	0.	-433.51
12601	1.4783	5.4545	5.e-002	-5.9965e-005
12602	1.4783	5.1818	0.	-698.13
12603	1.3859	5.2727	0.	-639.78
12604	1.4783	5.2727	5.e-002	-5.763e-005
12605	1.4783	5.	0.	-876.5
12606	1.3859	5.0909	0.	-835.64
12607	1.4783	5.0909	5.e-002	-5.0617e-006
12608	1.4783	4.8182	0.	-1038.8
12609	1.3859	4.9091	0.	-1014.4
12610	1.4783	4.9091	5.e-002	-4.7173e-005
12611	1.4783	4.6364	0.	-1182.4
12612	1.3859	4.7273	0.	-1172.5
12613	1.4783	4.7273	5.e-002	-7.2832e-006
12614	1.4783	4.4545	0.	-1306.3
12615	1.3859	4.5455	0.	-1308.7
12616	1.4783	4.5455	5.e-002	-3.8126e-006
12617	1.4783	4.2727	0.	-1411.
12618	1.3859	4.3636	0.	-1423.5
12619	1.4783	4.3636	5.e-002	-3.7782e-015
12620	1.4783	4.0909	0.	-1497.7
12621	1.3859	4.1818	0.	-1518.6
12622	1.4783	4.1818	5.e-002	-3.426e-006
12623	1.4783	3.9091	0.	-1567.8
12624	1.3859	4.	0.	-1595.7
12625	1.4783	4.	5.e-002	-8.9858e-006
12626	1.4783	3.7273	0.	-1622.9
12627	1.3859	3.8182	0.	-1656.8
12628	1.4783	3.8182	5.e-002	-3.7326e-006
12629	1.4783	3.5455	0.	-1664.3
12630	1.3859	3.6364	0.	-1703.7
12631	1.4783	3.6364	5.e-002	1.4568e-005
12632	1.4783	3.3636	0.	-1693.
12633	1.3859	3.4545	0.	-1737.6
12634	1.4783	3.4545	5.e-002	-2.7801e-006
12635	1.4783	3.1818	0.	-1710.
12636	1.3859	3.2727	0.	-1759.6
12637	1.4783	3.2727	5.e-002	1.4145e-005
12638	1.4783	3.	0.	-1715.6
12639	1.3859	3.0909	0.	-1770.5
12640	1.4783	3.0909	5.e-002	-5.1445e-007
12641	1.4783	2.8182	0.	-1710.
12642	1.3859	2.9091	0.	-1770.5
12643	1.4783	2.9091	5.e-002	9.5281e-007
12644	1.4783	2.6364	0.	-1693.
12645	1.3859	2.7273	0.	-1759.6
12646	1.4783	2.7273	5.e-002	4.4991e-006
12647	1.4783	2.4545	0.	-1664.3
12648	1.3859	2.5455	0.	-1737.6
12649	1.4783	2.5455	5.e-002	2.3101e-005
12650	1.4783	2.2727	0.	-1622.9
12651	1.3859	2.3636	0.	-1703.7
12652	1.4783	2.3636	5.e-002	4.7996e-005
12653	1.4783	2.0909	0.	-1567.8
12654	1.3859	2.1818	0.	-1656.8
12655	1.4783	2.1818	5.e-002	2.702e-005
12656	1.4783	1.9091	0.	-1497.7
12657	1.3859	2.	0.	-1595.7
12658	1.4783	2.	5.e-002	5.9194e-005
12659	1.4783	1.7273	0.	-1411.
12660	1.3859	1.8182	0.	-1518.6
12661	1.4783	1.8182	5.e-002	4.8603e-005
12662	1.4783	1.5455	0.	-1306.3
12663	1.3859	1.6364	0.	-1423.5
12664	1.4783	1.6364	5.e-002	9.5643e-005
12665	1.4783	1.3636	0.	-1182.4
12666	1.3859	1.4545	0.	-1308.7
12667	1.4783	1.4545	5.e-002	1.411e-004
12668	1.4783	1.1818	0.	-1038.8
12669	1.3859	1.2727	0.	-1172.5
12670	1.4783	1.2727	5.e-002	1.4067e-004
12671	1.4783	1.	0.	-876.5
12672	1.3859	1.0909	0.	-1014.4
12673	1.4783	1.0909	5.e-002	2.0494e-004
12674	1.4783	0.81818	0.	-698.13
12675	1.3859	0.90909	0.	-835.64
12676	1.4783	0.90909	5.e-002	1.7114e-004
12677	1.4783	0.63636	0.	-508.59
12678	1.3859	0.72727	0.	-639.78
12679	1.4783	0.72727	5.e-002	2.3402e-004
12680	1.4783	0.45455	0.	-314.09
12681	1.3859	0.54545	0.	-433.51
12682	1.4783	0.54545	5.e-002	2.3993e-004
12683	1.4783	0.27273	0.	-115.82
12684	1.3859	0.36364	0.	-224.66
12685	1.4783	0.36364	5.e-002	2.4245e-004
12686	1.3859	0.18182	0.	-23.082
12687	1.4783	0.18182	5.e-002	9.2686e-005
12688	1.4783	9.0909e-002	0.	-0.96528
12689	1.2935	5.7273	0.	-117.77
12690	1.2011	5.8182	0.	-19.037
12691	1.2935	5.8182	5.e-002	-2.5653e-005
12692	1.2935	5.9091	0.	-0.1656
12693	1.2935	5.5455	0.	-343.42
12694	1.2011	5.6364	0.	-243.23
12695	1.2935	5.6364	5.e-002	-1.8309e-004
12696	1.2935	5.3636	0.	-564.38
12697	1.2011	5.4545	0.	-483.29
12698	1.2935	5.4545	5.e-002	-6.0963e-005
12699	1.2935	5.1818	0.	-777.22
12700	1.2011	5.2727	0.	-717.84
12701	1.2935	5.2727	5.e-002	-5.9339e-005
12702	1.2935	5.	0.	-973.72
12703	1.2011	5.0909	0.	-935.76
12704	1.2935	5.0909	5.e-002	-1.1012e-004
12705	1.2935	4.8182	0.	-1148.4
12706	1.2011	4.9091	0.	-1129.3
12707	1.2935	4.9091	5.e-002	-6.2159e-006
12708	1.2935	4.6364	0.	-1299.2
12709	1.2011	4.7273	0.	-1295.6
12710	1.2935	4.7273	5.e-002	-4.1871e-015
12711	1.2935	4.4545	0.	-1426.3
12712	1.2011	4.5455	0.	-1435.
12713	1.2935	4.5455	5.e-002	-3.8146e-006
12714	1.2935	4.2727	0.	-1531.5
12715	1.2011	4.3636	0.	-1549.8
12716	1.2935	4.3636	5.e-002	3.2246e-005
12717	1.2935	4.0909	0.	-1616.9
12718	1.2011	4.1818	0.	-1642.8
12719	1.2935	4.1818	5.e-002	-3.3468e-006
12720	1.2935	3.9091	0.	-1685.1
12721	1.2011	4.	0.	-1717.1
12722	1.2935	4.	5.e-002	7.6912e-006
12723	1.2935	3.7273	0.	-1737.9
12724	1.2011	3.8182	0.	-1775.2
12725	1.2935	3.8182	5.e-002	1.0876e-005
12726	1.2935	3.5455	0.	-1777.3
12727	1.2011	3.6364	0.	-1819.2
12728	1.2935	3.6364	5.e-002	1.0491e-007
12729	1.2935	3.3636	0.	-1804.5
12730	1.2011	3.4545	0.	-1850.8
12731	1.2935	3.4545	5.e-002	1.0801e-006
12732	1.2935	3.1818	0.	-1820.4
12733	1.2011	3.2727	0.	-1871.3
12734	1.2935	3.2727	5.e-002	2.9925e-005
12735	1.2935	3.	0.	-1825.7
12736	1.2011	3.0909	0.	-1881.3
12737	1.2935	3.0909	5.e-002	1.4761e-005
12738	1.2935	2.8182	0.	-1820.4
12739	1.2011	2.9091	0.	-1881.3
12740	1.2935	2.9091	5.e-002	1.5928e-005
12741	1.2935	2.6364	0.	-1804.5
12742	1.2011	2.7273	0.	-1871.3
12743	1.2935	2.7273	5.e-002	3.3435e-005
12744	1.2935	2.4545	0.	-1777.3
12745	1.2011	2.5455	0.	-1850.8
12746	1.2935	2.5455	5.e-002	1.0982e-005
12747	1.2935	2.2727	0.	-1737.9
12748	1.2011	2.3636	0.	-1819.2
12749	1.2935	2.3636	5.e-002	3.9875e-005
12750	1.2935	2.0909	0.	-1685.1
12751	1.2011	2.1818	0.	-1775.2
12752	1.2935	2.1818	5.e-002	4.1782e-005
12753	1.2935	1.9091	0.	-1616.9
12754	1.2011	2.	0.	-1717.1
12755	1.2935	2.	5.e-002	5.5903e-005
12756	1.2935	1.7273	0.	-1531.5
12757	1.2011	1.8182	0.	-1642.8
12758	1.2935	1.8182	5.e-002	7.6883e-005
12759	1.2935	1.5455	0.	-1426.3
12760	1.2011	1.6364	0.	-1549.8
12761	1.2935	1.6364	5.e-002	1.0534e-004
12762	1.2935	1.3636	0.	-1299.2
12763	1.2011	1.4545	0.	-1435.
12764	1.2935	1.4545	5.e-002	1.5352e-004
12765	1.2935	1.1818	0.	-1148.4
12766	1.2011	1.2727	0.	-1295.6
12767	1.2935	1.2727	5.e-002	5.9574e-005
12768	1.2935	1.	0.	-973.72
12769	1.2011	1.0909	0.	-1129.3
12770	1.2935	1.0909	5.e-002	1.2449e-004
12771	1.2935	0.81818	0.	-777.22
12772	1.2011	0.90909	0.	-935.76
12773	1.2935	0.90909	5.e-002	2.2932e-004
12774	1.2935	0.63636	0.	-564.38
12775	1.2011	0.72727	0.	-717.84
12776	1.2935	0.72727	5.e-002	2.4008e-004
12777	1.2935	0.45455	0.	-343.42
12778	1.2011	0.54545	0.	-483.29
12779	1.2935	0.54545	5.e-002	2.4386e-004
12780	1.2935	0.27273	0.	-117.77
12781	1.2011	0.36364	0.	-243.23
12782	1.2935	0.36364	5.e-002	2.4396e-004
12783	1.2011	0.18182	0.	-19.037
12784	1.2935	0.18182	5.e-002	1.2937e-004
12785	1.2935	9.0909e-002	0.	-0.1656
12786	1.1087	5.7273	0.	-121.35
12787	1.0163	5.8182	0.	-15.916
12788	1.1087	5.8182	5.e-002	-9.61e-005
12789	1.1087	5.9091	0.	6.242e-003
12790	1.1087	5.5455	0.	-382.34
12791	1.0163	5.6364	0.	-268.87
12792	1.1087	5.6364	5.e-002	-1.1952e-004
12793	1.1087	5.3636	0.	-636.5
12794	1.0163	5.4545	0.	-549.55
12795	1.1087	5.4545	5.e-002	-5.2117e-015
12796	1.1087	5.1818	0.	-876.49
12797	1.0163	5.2727	0.	-818.12
12798	1.1087	5.2727	5.e-002	-6.0306e-005
12799	1.1087	5.	0.	-1091.7
12800	1.0163	5.0909	0.	-1059.2
12801	1.1087	5.0909	5.e-002	-1.1197e-004
12802	1.1087	4.8182	0.	-1277.
12803	1.0163	4.9091	0.	-1265.2
12804	1.1087	4.9091	5.e-002	-4.8194e-005
12805	1.1087	4.6364	0.	-1432.
12806	1.0163	4.7273	0.	-1435.7
12807	1.1087	4.7273	5.e-002	-7.361e-006
12808	1.1087	4.4545	0.	-1559.
12809	1.0163	4.5455	0.	-1574.1
12810	1.1087	4.5455	5.e-002	-3.8096e-006
12811	1.1087	4.2727	0.	-1661.5
12812	1.0163	4.3636	0.	-1685.
12813	1.1087	4.3636	5.e-002	1.0092e-005
12814	1.1087	4.0909	0.	-1743.3
12815	1.0163	4.1818	0.	-1773.
12816	1.1087	4.1818	5.e-002	-4.5663e-015
12817	1.1087	3.9091	0.	-1807.5
12818	1.0163	4.	0.	-1842.1
12819	1.1087	4.	5.e-002	-4.5824e-015
12820	1.1087	3.7273	0.	-1856.7
12821	1.0163	3.8182	0.	-1895.4
12822	1.1087	3.8182	5.e-002	3.4955e-006
12823	1.1087	3.5455	0.	-1893.
12824	1.0163	3.6364	0.	-1935.5
12825	1.1087	3.6364	5.e-002	1.5286e-006
12826	1.1087	3.3636	0.	-1917.9
12827	1.0163	3.4545	0.	-1964.1
12828	1.1087	3.4545	5.e-002	1.0282e-006
12829	1.1087	3.1818	0.	-1932.4
12830	1.0163	3.2727	0.	-1982.5
12831	1.1087	3.2727	5.e-002	-1.2581e-006
12832	1.1087	3.	0.	-1937.2
12833	1.0163	3.0909	0.	-1991.5
12834	1.1087	3.0909	5.e-002	1.4782e-005
12835	1.1087	2.8182	0.	-1932.4
12836	1.0163	2.9091	0.	-1991.5
12837	1.1087	2.9091	5.e-002	1.5811e-005
12838	1.1087	2.6364	0.	-1917.9
12839	1.0163	2.7273	0.	-1982.5
12840	1.1087	2.7273	5.e-002	1.6176e-006
12841	1.1087	2.4545	0.	-1893.
12842	1.0163	2.5455	0.	-1964.1
12843	1.1087	2.5455	5.e-002	6.4655e-006
12844	1.1087	2.2727	0.	-1856.7
12845	1.0163	2.3636	0.	-1935.5
12846	1.1087	2.3636	5.e-002	1.1608e-005
12847	1.1087	2.0909	0.	-1807.5
12848	1.0163	2.1818	0.	-1895.4
12849	1.1087	2.1818	5.e-002	3.3048e-005
12850	1.1087	1.9091	0.	-1743.3
12851	1.0163	2.	0.	-1842.1
12852	1.1087	2.	5.e-002	7.1106e-005
12853	1.1087	1.7273	0.	-1661.5
12854	1.0163	1.8182	0.	-1773.
12855	1.1087	1.8182	5.e-002	7.6322e-005
12856	1.1087	1.5455	0.	-1559.
12857	1.0163	1.6364	0.	-1685.
12858	1.1087	1.6364	5.e-002	5.5774e-005
12859	1.1087	1.3636	0.	-1432.
12860	1.0163	1.4545	0.	-1574.1
12861	1.1087	1.4545	5.e-002	1.3903e-004
12862	1.1087	1.1818	0.	-1277.
12863	1.0163	1.2727	0.	-1435.7
12864	1.1087	1.2727	5.e-002	1.8361e-004
12865	1.1087	1.	0.	-1091.7
12866	1.0163	1.0909	0.	-1265.2
12867	1.1087	1.0909	5.e-002	1.0261e-004
12868	1.1087	0.81818	0.	-876.49
12869	1.0163	0.90909	0.	-1059.2
12870	1.1087	0.90909	5.e-002	2.2773e-004
12871	1.1087	0.63636	0.	-636.5
12872	1.0163	0.72727	0.	-818.12
12873	1.1087	0.72727	5.e-002	2.4122e-004
12874	1.1087	0.45455	0.	-382.35
12875	1.0163	0.54545	0.	-549.55
12876	1.1087	0.54545	5.e-002	3.0332e-004
12877	1.1087	0.27273	0.	-121.35
12878	1.0163	0.36364	0.	-268.87
12879	1.1087	0.36364	5.e-002	2.3687e-004
12880	1.0163	0.18182	0.	-15.916
12881	1.1087	0.18182	5.e-002	1.2933e-004
12882	1.1087	9.0909e-002	0.	6.2418e-003
12883	0.92391	5.7273	0.	-127.43
12884	0.83152	5.8182	0.	-16.373
12885	0.92391	5.8182	5.e-002	-4.2681e-005
12886	0.92391	5.9091	0.	1.0374
12887	0.92391	5.5455	0.	-435.28
12888	0.83152	5.6364	0.	-310.6
12889	0.92391	5.6364	5.e-002	2.8086e-007
12890	0.92391	5.3636	0.	-731.14
12891	0.83152	5.4545	0.	-646.58
12892	0.92391	5.4545	5.e-002	-1.1988e-004
12893	0.92391	5.1818	0.	-1001.3
12894	0.83152	5.2727	0.	-954.96
12895	0.92391	5.2727	5.e-002	-6.07e-005
12896	0.92391	5.	0.	-1233.4
12897	0.83152	5.0909	0.	-1217.1
12898	0.92391	5.0909	5.e-002	-5.5934e-005
12899	0.92391	4.8182	0.	-1424.6
12900	0.83152	4.9091	0.	-1429.5
12901	0.92391	4.9091	5.e-002	-4.6727e-005
12902	0.92391	4.6364	0.	-1578.5
12903	0.83152	4.7273	0.	-1597.5
12904	0.92391	4.7273	5.e-002	-5.1726e-015
12905	0.92391	4.4545	0.	-1700.6
12906	0.83152	4.5455	0.	-1729.1
12907	0.92391	4.5455	5.e-002	-5.0922e-015
12908	0.92391	4.2727	0.	-1796.8
12909	0.83152	4.3636	0.	-1831.6
12910	0.92391	4.3636	5.e-002	-5.0601e-015
12911	0.92391	4.0909	0.	-1872.1
12912	0.83152	4.1818	0.	-1911.4
12913	0.92391	4.1818	5.e-002	-3.0365e-006
12914	0.92391	3.9091	0.	-1930.3
12915	0.83152	4.	0.	-1973.2
12916	0.92391	4.	5.e-002	-1.2717e-006
12917	0.92391	3.7273	0.	-1974.4
12918	0.83152	3.8182	0.	-2020.4
12919	0.92391	3.8182	5.e-002	1.2022e-005
12920	0.92391	3.5455	0.	-2006.8
12921	0.83152	3.6364	0.	-2055.6
12922	0.92391	3.6364	5.e-002	1.6488e-005
12923	0.92391	3.3636	0.	-2028.9
12924	0.83152	3.4545	0.	-2080.6
12925	0.92391	3.4545	5.e-002	1.9663e-007
12926	0.92391	3.1818	0.	-2041.8
12927	0.83152	3.2727	0.	-2096.7
12928	0.92391	3.2727	5.e-002	2.4798e-007
12929	0.92391	3.	0.	-2046.
12930	0.83152	3.0909	0.	-2104.5
12931	0.92391	3.0909	5.e-002	-3.0259e-007
12932	0.92391	2.8182	0.	-2041.8
12933	0.83152	2.9091	0.	-2104.5
12934	0.92391	2.9091	5.e-002	4.4152e-007
12935	0.92391	2.6364	0.	-2028.9
12936	0.83152	2.7273	0.	-2096.7
12937	0.92391	2.7273	5.e-002	2.2071e-006
12938	0.92391	2.4545	0.	-2006.8
12939	0.83152	2.5455	0.	-2080.6
12940	0.92391	2.5455	5.e-002	2.0004e-005
12941	0.92391	2.2727	0.	-1974.4
12942	0.83152	2.3636	0.	-2055.6
12943	0.92391	2.3636	5.e-002	3.7668e-005
12944	0.92391	2.0909	0.	-1930.3
12945	0.83152	2.1818	0.	-2020.4
12946	0.92391	2.1818	5.e-002	6.2629e-005
12947	0.92391	1.9091	0.	-1872.1
12948	0.83152	2.	0.	-1973.2
12949	0.92391	2.	5.e-002	6.5352e-005
12950	0.92391	1.7273	0.	-1796.8
12951	0.83152	1.8182	0.	-1911.4
12952	0.92391	1.8182	5.e-002	6.053e-005
12953	0.92391	1.5455	0.	-1700.6
12954	0.83152	1.6364	0.	-1831.6
12955	0.92391	1.6364	5.e-002	7.8636e-005
12956	0.92391	1.3636	0.	-1578.5
12957	0.83152	1.4545	0.	-1729.1
12958	0.92391	1.4545	5.e-002	1.3145e-004
12959	0.92391	1.1818	0.	-1424.6
12960	0.83152	1.2727	0.	-1597.5
12961	0.92391	1.2727	5.e-002	1.7242e-004
12962	0.92391	1.	0.	-1233.4
12963	0.83152	1.0909	0.	-1429.5
12964	0.92391	1.0909	5.e-002	1.1642e-004
12965	0.92391	0.81818	0.	-1001.3
12966	0.83152	0.90909	0.	-1217.1
12967	0.92391	0.90909	5.e-002	2.419e-004
12968	0.92391	0.63636	0.	-731.14
12969	0.83152	0.72727	0.	-954.96
12970	0.92391	0.72727	5.e-002	2.4735e-004
12971	0.92391	0.45455	0.	-435.28
12972	0.83152	0.54545	0.	-646.58
12973	0.92391	0.54545	5.e-002	2.3788e-004
12974	0.92391	0.27273	0.	-127.43
12975	0.83152	0.36364	0.	-310.6
12976	0.92391	0.36364	5.e-002	2.8271e-004
12977	0.83152	0.18182	0.	-16.373
12978	0.92391	0.18182	5.e-002	2.1398e-004
12979	0.92391	9.0909e-002	0.	1.0374
12980	0.73913	5.7273	0.	-145.47
12981	0.64674	5.8182	0.	-9.7754
12982	0.73913	5.8182	5.e-002	-1.6761e-004
12983	0.73913	5.9091	0.	-1.4098
12984	0.73913	5.5455	0.	-521.23
12985	0.64674	5.6364	0.	-374.36
12986	0.73913	5.6364	5.e-002	-1.0531e-004
12987	0.73913	5.3636	0.	-870.92
12988	0.64674	5.4545	0.	-782.01
12989	0.73913	5.4545	5.e-002	-5.9251e-005
12990	0.73913	5.1818	0.	-1171.8
12991	0.64674	5.2727	0.	-1128.5
12992	0.73913	5.2727	5.e-002	-1.2111e-004
12993	0.73913	5.	0.	-1414.2
12994	0.64674	5.0909	0.	-1400.2
12995	0.73913	5.0909	5.e-002	-5.3957e-005
12996	0.73913	4.8182	0.	-1603.2
12997	0.64674	4.9091	0.	-1606.2
12998	0.73913	4.9091	5.e-002	-7.0043e-006
12999	0.73913	4.6364	0.	-1748.6
13000	0.64674	4.7273	0.	-1761.4
13001	0.73913	4.7273	5.e-002	-2.3494e-005
13002	0.73913	4.4545	0.	-1860.4
13003	0.64674	4.5455	0.	-1878.8
13004	0.73913	4.5455	5.e-002	-5.7651e-015
13005	0.73913	4.2727	0.	-1946.4
13006	0.64674	4.3636	0.	-1968.4
13007	0.73913	4.3636	5.e-002	-5.7011e-015
13008	0.73913	4.0909	0.	-2012.6
13009	0.64674	4.1818	0.	-2037.
13010	0.73913	4.1818	5.e-002	1.2866e-005
13011	0.73913	3.9091	0.	-2063.4
13012	0.64674	4.	0.	-2089.7
13013	0.73913	4.	5.e-002	-5.6188e-015
13014	0.73913	3.7273	0.	-2101.6
13015	0.64674	3.8182	0.	-2129.8
13016	0.73913	3.8182	5.e-002	3.612e-005
13017	0.73913	3.5455	0.	-2129.5
13018	0.64674	3.6364	0.	-2159.5
13019	0.73913	3.6364	5.e-002	1.7516e-006
13020	0.73913	3.3636	0.	-2148.5
13021	0.64674	3.4545	0.	-2180.7
13022	0.73913	3.4545	5.e-002	1.0531e-006
13023	0.73913	3.1818	0.	-2159.5
13024	0.64674	3.2727	0.	-2194.2
13025	0.73913	3.2727	5.e-002	2.9764e-005
13026	0.73913	3.	0.	-2163.1
13027	0.64674	3.0909	0.	-2200.8
13028	0.73913	3.0909	5.e-002	-1.6492e-007
13029	0.73913	2.8182	0.	-2159.5
13030	0.64674	2.9091	0.	-2200.8
13031	0.73913	2.9091	5.e-002	3.0161e-007
13032	0.73913	2.6364	0.	-2148.5
13033	0.64674	2.7273	0.	-2194.2
13034	0.73913	2.7273	5.e-002	6.1694e-005
13035	0.73913	2.4545	0.	-2129.5
13036	0.64674	2.5455	0.	-2180.7
13037	0.73913	2.5455	5.e-002	3.3989e-005
13038	0.73913	2.2727	0.	-2101.6
13039	0.64674	2.3636	0.	-2159.5
13040	0.73913	2.3636	5.e-002	5.2275e-006
13041	0.73913	2.0909	0.	-2063.4
13042	0.64674	2.1818	0.	-2129.8
13043	0.73913	2.1818	5.e-002	4.6256e-005
13044	0.73913	1.9091	0.	-2012.6
13045	0.64674	2.	0.	-2089.7
13046	0.73913	2.	5.e-002	4.127e-005
13047	0.73913	1.7273	0.	-1946.4
13048	0.64674	1.8182	0.	-2037.
13049	0.73913	1.8182	5.e-002	6.4161e-005
13050	0.73913	1.5455	0.	-1860.4
13051	0.64674	1.6364	0.	-1968.4
13052	0.73913	1.6364	5.e-002	5.3661e-005
13053	0.73913	1.3636	0.	-1748.6
13054	0.64674	1.4545	0.	-1878.8
13055	0.73913	1.4545	5.e-002	7.7367e-005
13056	0.73913	1.1818	0.	-1603.2
13057	0.64674	1.2727	0.	-1761.4
13058	0.73913	1.2727	5.e-002	1.234e-004
13059	0.73913	1.	0.	-1414.2
13060	0.64674	1.0909	0.	-1606.2
13061	0.73913	1.0909	5.e-002	1.5346e-004
13062	0.73913	0.81818	0.	-1171.8
13063	0.64674	0.90909	0.	-1400.2
13064	0.73913	0.90909	5.e-002	2.2071e-004
13065	0.73913	0.63636	0.	-870.92
13066	0.64674	0.72727	0.	-1128.5
13067	0.73913	0.72727	5.e-002	2.4492e-004
13068	0.73913	0.45455	0.	-521.23
13069	0.64674	0.54545	0.	-782.01
13070	0.73913	0.54545	5.e-002	2.8877e-004
13071	0.73913	0.27273	0.	-145.47
13072	0.64674	0.36364	0.	-374.36
13073	0.73913	0.36364	5.e-002	2.4226e-004
13074	0.64674	0.18182	0.	-9.7754
13075	0.73913	0.18182	5.e-002	2.7935e-004
13076	0.73913	9.0909e-002	0.	-1.4098
13077	0.55435	5.7273	0.	-168.52
13078	0.46196	5.8182	0.	-41.308
13079	0.55435	5.8182	5.e-002	-6.0159e-005
13080	0.55435	5.9091	0.	9.0981
13081	0.55435	5.5455	0.	-635.4
13082	0.46196	5.6364	0.	-534.88
13083	0.55435	5.6364	5.e-002	-1.142e-014
13084	0.55435	5.3636	0.	-1041.3
13085	0.46196	5.4545	0.	-1038.
13086	0.55435	5.4545	5.e-002	-5.9541e-005
13087	0.55435	5.1818	0.	-1358.5
13088	0.46196	5.2727	0.	-1407.
13089	0.55435	5.2727	5.e-002	-8.4135e-015
13090	0.55435	5.	0.	-1593.1
13091	0.46196	5.0909	0.	-1667.3
13092	0.55435	5.0909	5.e-002	-4.9532e-005
13093	0.55435	4.8182	0.	-1764.7
13094	0.46196	4.9091	0.	-1851.6
13095	0.55435	4.9091	5.e-002	-6.94e-015
13096	0.55435	4.6364	0.	-1891.6
13097	0.46196	4.7273	0.	-1985.1
13098	0.55435	4.7273	5.e-002	-6.6429e-015
13099	0.55435	4.4545	0.	-1986.7
13100	0.46196	4.5455	0.	-2084.1
13101	0.55435	4.5455	5.e-002	6.8603e-006
13102	0.55435	4.2727	0.	-2058.9
13103	0.46196	4.3636	0.	-2158.8
13104	0.55435	4.3636	5.e-002	1.4905e-006
13105	0.55435	4.0909	0.	-2114.
13106	0.46196	4.1818	0.	-2215.9
13107	0.55435	4.1818	5.e-002	2.6741e-005
13108	0.55435	3.9091	0.	-2156.1
13109	0.46196	4.	0.	-2259.7
13110	0.55435	4.	5.e-002	2.8097e-005
13111	0.55435	3.7273	0.	-2187.7
13112	0.46196	3.8182	0.	-2292.9
13113	0.55435	3.8182	5.e-002	2.9856e-005
13114	0.55435	3.5455	0.	-2210.8
13115	0.46196	3.6364	0.	-2317.7
13116	0.55435	3.6364	5.e-002	1.6701e-006
13117	0.55435	3.3636	0.	-2226.5
13118	0.46196	3.4545	0.	-2335.2
13119	0.55435	3.4545	5.e-002	1.509e-006
13120	0.55435	3.1818	0.	-2235.6
13121	0.46196	3.2727	0.	-2346.5
13122	0.55435	3.2727	5.e-002	6.5058e-007
13123	0.55435	3.	0.	-2238.6
13124	0.46196	3.0909	0.	-2352.
13125	0.55435	3.0909	5.e-002	3.0442e-005
13126	0.55435	2.8182	0.	-2235.6
13127	0.46196	2.9091	0.	-2352.
13128	0.55435	2.9091	5.e-002	3.0667e-005
13129	0.55435	2.6364	0.	-2226.5
13130	0.46196	2.7273	0.	-2346.5
13131	0.55435	2.7273	5.e-002	1.3613e-006
13132	0.55435	2.4545	0.	-2210.8
13133	0.46196	2.5455	0.	-2335.2
13134	0.55435	2.5455	5.e-002	3.2822e-005
13135	0.55435	2.2727	0.	-2187.7
13136	0.46196	2.3636	0.	-2317.7
13137	0.55435	2.3636	5.e-002	6.6865e-005
13138	0.55435	2.0909	0.	-2156.1
13139	0.46196	2.1818	0.	-2292.9
13140	0.55435	2.1818	5.e-002	3.824e-005
13141	0.55435	1.9091	0.	-2114.
13142	0.46196	2.	0.	-2259.7
13143	0.55435	2.	5.e-002	7.6904e-005
13144	0.55435	1.7273	0.	-2058.9
13145	0.46196	1.8182	0.	-2215.9
13146	0.55435	1.8182	5.e-002	8.9977e-005
13147	0.55435	1.5455	0.	-1986.7
13148	0.46196	1.6364	0.	-2158.8
13149	0.55435	1.6364	5.e-002	5.874e-005
13150	0.55435	1.3636	0.	-1891.6
13151	0.46196	1.4545	0.	-2084.1
13152	0.55435	1.4545	5.e-002	9.8118e-005
13153	0.55435	1.1818	0.	-1764.7
13154	0.46196	1.2727	0.	-1985.1
13155	0.55435	1.2727	5.e-002	1.0517e-004
13156	0.55435	1.	0.	-1593.1
13157	0.46196	1.0909	0.	-1851.6
13158	0.55435	1.0909	5.e-002	1.9296e-004
13159	0.55435	0.81818	0.	-1358.5
13160	0.46196	0.90909	0.	-1667.3
13161	0.55435	0.90909	5.e-002	2.2466e-004
13162	0.55435	0.63636	0.	-1041.3
13163	0.46196	0.72727	0.	-1407.
13164	0.55435	0.72727	5.e-002	2.4833e-004
13165	0.55435	0.45455	0.	-635.4
13166	0.46196	0.54545	0.	-1038.
13167	0.55435	0.54545	5.e-002	2.2967e-004
13168	0.55435	0.27273	0.	-168.52
13169	0.46196	0.36364	0.	-534.88
13170	0.55435	0.36364	5.e-002	1.8829e-004
13171	0.46196	0.18182	0.	-41.308
13172	0.55435	0.18182	5.e-002	2.9722e-004
13173	0.55435	9.0909e-002	0.	9.0981
13174	0.36957	5.7273	0.	-305.28
13175	0.27717	5.8182	0.	-1.8853
13176	0.36957	5.8182	5.e-002	-3.3538e-005
13177	0.36957	5.9091	0.	-23.624
13178	0.36957	5.5455	0.	-940.3
13179	0.27717	5.6364	0.	-741.24
13180	0.36957	5.6364	5.e-002	-4.5374e-005
13181	0.36957	5.3636	0.	-1406.7
13182	0.27717	5.4545	0.	-1243.1
13183	0.36957	5.4545	5.e-002	-1.2198e-004
13184	0.36957	5.1818	0.	-1716.8
13185	0.27717	5.2727	0.	-1554.2
13186	0.36957	5.2727	5.e-002	-5.41e-005
13187	0.36957	5.	0.	-1925.6
13188	0.27717	5.0909	0.	-1755.6
13189	0.36957	5.0909	5.e-002	-7.3272e-005
13190	0.36957	4.8182	0.	-2071.3
13191	0.27717	4.9091	0.	-1893.8
13192	0.36957	4.9091	5.e-002	-8.6315e-015
13193	0.36957	4.6364	0.	-2177.
13194	0.27717	4.7273	0.	-1993.3
13195	0.36957	4.7273	5.e-002	-1.6206e-005
13196	0.36957	4.4545	0.	-2255.7
13197	0.27717	4.5455	0.	-2067.3
13198	0.36957	4.5455	5.e-002	2.9068e-006
13199	0.36957	4.2727	0.	-2315.5
13200	0.27717	4.3636	0.	-2123.5
13201	0.36957	4.3636	5.e-002	3.6765e-006
13202	0.36957	4.0909	0.	-2361.3
13203	0.27717	4.1818	0.	-2166.7
13204	0.36957	4.1818	5.e-002	1.5228e-006
13205	0.36957	3.9091	0.	-2396.3
13206	0.27717	4.	0.	-2200.
13207	0.36957	4.	5.e-002	1.6491e-006
13208	0.36957	3.7273	0.	-2422.8
13209	0.27717	3.8182	0.	-2225.4
13210	0.36957	3.8182	5.e-002	3.1372e-006
13211	0.36957	3.5455	0.	-2442.1
13212	0.27717	3.6364	0.	-2244.4
13213	0.36957	3.6364	5.e-002	1.6498e-006
13214	0.36957	3.3636	0.	-2455.3
13215	0.27717	3.4545	0.	-2258.
13216	0.36957	3.4545	5.e-002	8.4521e-007
13217	0.36957	3.1818	0.	-2462.9
13218	0.27717	3.2727	0.	-2266.6
13219	0.36957	3.2727	5.e-002	1.2723e-007
13220	0.36957	3.	0.	-2465.5
13221	0.27717	3.0909	0.	-2270.9
13222	0.36957	3.0909	5.e-002	5.9135e-008
13223	0.36957	2.8182	0.	-2462.9
13224	0.27717	2.9091	0.	-2270.9
13225	0.36957	2.9091	5.e-002	5.4924e-008
13226	0.36957	2.6364	0.	-2455.3
13227	0.27717	2.7273	0.	-2266.6
13228	0.36957	2.7273	5.e-002	3.5242e-007
13229	0.36957	2.4545	0.	-2442.1
13230	0.27717	2.5455	0.	-2258.
13231	0.36957	2.5455	5.e-002	3.1785e-005
13232	0.36957	2.2727	0.	-2422.8
13233	0.27717	2.3636	0.	-2244.4
13234	0.36957	2.3636	5.e-002	3.2995e-006
13235	0.36957	2.0909	0.	-2396.3
13236	0.27717	2.1818	0.	-2225.4
13237	0.36957	2.1818	5.e-002	7.4576e-006
13238	0.36957	1.9091	0.	-2361.3
13239	0.27717	2.	0.	-2200.
13240	0.36957	2.	5.e-002	6.4746e-005
13241	0.36957	1.7273	0.	-2315.5
13242	0.27717	1.8182	0.	-2166.7
13243	0.36957	1.8182	5.e-002	4.8314e-005
13244	0.36957	1.5455	0.	-2255.7
13245	0.27717	1.6364	0.	-2123.5
13246	0.36957	1.6364	5.e-002	2.2844e-005
13247	0.36957	1.3636	0.	-2177.
13248	0.27717	1.4545	0.	-2067.3
13249	0.36957	1.4545	5.e-002	9.5626e-005
13250	0.36957	1.1818	0.	-2071.3
13251	0.27717	1.2727	0.	-1993.3
13252	0.36957	1.2727	5.e-002	1.2934e-004
13253	0.36957	1.	0.	-1925.6
13254	0.27717	1.0909	0.	-1893.8
13255	0.36957	1.0909	5.e-002	1.4781e-004
13256	0.36957	0.81818	0.	-1716.8
13257	0.27717	0.90909	0.	-1755.6
13258	0.36957	0.90909	5.e-002	1.971e-004
13259	0.36957	0.63636	0.	-1406.7
13260	0.27717	0.72727	0.	-1554.2
13261	0.36957	0.72727	5.e-002	2.3366e-004
13262	0.36957	0.45455	0.	-940.3
13263	0.27717	0.54545	0.	-1243.1
13264	0.36957	0.54545	5.e-002	3.0664e-004
13265	0.36957	0.27273	0.	-305.28
13266	0.27717	0.36364	0.	-741.24
13267	0.36957	0.36364	5.e-002	2.5132e-004
13268	0.27717	0.18182	0.	-1.8853
13269	0.36957	0.18182	5.e-002	2.2147e-004
13270	0.36957	9.0909e-002	0.	-23.624
13271	0.18478	5.7273	0.	-410.04
13272	0.18478	5.8182	5.e-002	-6.4737e-005
13273	0.18478	5.9091	0.	88.828
13274	9.2391e-002	5.8182	0.	-571.58
13275	0.18478	5.5455	0.	-1043.7
13276	0.18478	5.6364	5.e-002	-1.1883e-004
13277	9.2391e-002	5.6364	0.	-1564.7
13278	0.18478	5.3636	0.	-1383.4
13279	0.18478	5.4545	5.e-002	-5.8865e-005
13280	9.2391e-002	5.4545	0.	-2041.8
13281	0.18478	5.1818	0.	-1586.3
13282	0.18478	5.2727	5.e-002	-8.4016e-005
13283	9.2391e-002	5.2727	0.	-2320.6
13284	0.18478	5.	0.	-1719.1
13285	0.18478	5.0909	5.e-002	-7.5655e-006
13286	9.2391e-002	5.0909	0.	-2503.
13287	0.18478	4.8182	0.	-1812.8
13288	0.18478	4.9091	5.e-002	-1.6806e-005
13289	9.2391e-002	4.9091	0.	-2631.9
13290	0.18478	4.6364	0.	-1881.7
13291	0.18478	4.7273	5.e-002	-1.2883e-005
13292	9.2391e-002	4.7273	0.	-2726.7
13293	0.18478	4.4545	0.	-1933.9
13294	0.18478	4.5455	5.e-002	4.5186e-006
13295	9.2391e-002	4.5455	0.	-2798.5
13296	0.18478	4.2727	0.	-1974.
13297	0.18478	4.3636	5.e-002	3.9551e-006
13298	9.2391e-002	4.3636	0.	-2853.6
13299	0.18478	4.0909	0.	-2005.
13300	0.18478	4.1818	5.e-002	1.7731e-005
13301	9.2391e-002	4.1818	0.	-2896.3
13302	0.18478	3.9091	0.	-2028.9
13303	0.18478	4.	5.e-002	1.1138e-005
13304	9.2391e-002	4.	0.	-2929.4
13305	0.18478	3.7273	0.	-2047.
13306	0.18478	3.8182	5.e-002	5.27e-006
13307	9.2391e-002	3.8182	0.	-2954.7
13308	0.18478	3.5455	0.	-2060.2
13309	0.18478	3.6364	5.e-002	3.3125e-005
13310	9.2391e-002	3.6364	0.	-2973.7
13311	0.18478	3.3636	0.	-2069.3
13312	0.18478	3.4545	5.e-002	1.6175e-005
13313	9.2391e-002	3.4545	0.	-2987.3
13314	0.18478	3.1818	0.	-2074.6
13315	0.18478	3.2727	5.e-002	3.1248e-005
13316	9.2391e-002	3.2727	0.	-2996.
13317	0.18478	3.	0.	-2076.3
13318	0.18478	3.0909	5.e-002	1.5408e-005
13319	9.2391e-002	3.0909	0.	-3000.2
13320	0.18478	2.8182	0.	-2074.6
13321	0.18478	2.9091	5.e-002	1.514e-005
13322	9.2391e-002	2.9091	0.	-3000.2
13323	0.18478	2.6364	0.	-2069.3
13324	0.18478	2.7273	5.e-002	6.1113e-005
13325	9.2391e-002	2.7273	0.	-2996.
13326	0.18478	2.4545	0.	-2060.2
13327	0.18478	2.5455	5.e-002	3.1645e-005
13328	9.2391e-002	2.5455	0.	-2987.3
13329	0.18478	2.2727	0.	-2047.
13330	0.18478	2.3636	5.e-002	3.3376e-005
13331	9.2391e-002	2.3636	0.	-2973.7
13332	0.18478	2.0909	0.	-2028.9
13333	0.18478	2.1818	5.e-002	6.2571e-005
13334	9.2391e-002	2.1818	0.	-2954.7
13335	0.18478	1.9091	0.	-2005.
13336	0.18478	2.	5.e-002	5.7922e-005
13337	9.2391e-002	2.	0.	-2929.4
13338	0.18478	1.7273	0.	-1974.
13339	0.18478	1.8182	5.e-002	7.1786e-005
13340	9.2391e-002	1.8182	0.	-2896.3
13341	0.18478	1.5455	0.	-1933.9
13342	0.18478	1.6364	5.e-002	8.4555e-005
13343	9.2391e-002	1.6364	0.	-2853.6
13344	0.18478	1.3636	0.	-1881.7
13345	0.18478	1.4545	5.e-002	8.2858e-005
13346	9.2391e-002	1.4545	0.	-2798.5
13347	0.18478	1.1818	0.	-1812.8
13348	0.18478	1.2727	5.e-002	8.7175e-005
13349	9.2391e-002	1.2727	0.	-2726.7
13350	0.18478	1.	0.	-1719.1
13351	0.18478	1.0909	5.e-002	1.5003e-004
13352	9.2391e-002	1.0909	0.	-2631.9
13353	0.18478	0.81818	0.	-1586.3
13354	0.18478	0.90909	5.e-002	1.8196e-004
13355	9.2391e-002	0.90909	0.	-2503.
13356	0.18478	0.63636	0.	-1383.4
13357	0.18478	0.72727	5.e-002	2.1533e-004
13358	9.2391e-002	0.72727	0.	-2320.6
13359	0.18478	0.45455	0.	-1043.7
13360	0.18478	0.54545	5.e-002	2.5124e-004
13361	9.2391e-002	0.54545	0.	-2041.8
13362	0.18478	0.27273	0.	-410.04
13363	0.18478	0.36364	5.e-002	3.5128e-004
13364	9.2391e-002	0.36364	0.	-1564.7
13365	0.18478	0.18182	5.e-002	2.1811e-004
13366	0.18478	9.0909e-002	0.	88.828
13367	9.2391e-002	0.18182	0.	-571.58
13368	8.9438	5.8182	0.	-15.146
13369	8.8514	5.7273	0.	-14.899
13370	8.8514	5.8182	5.e-002	2.2626e-006
13371	8.8514	5.9091	0.	-12.579
13372	8.759	5.8182	0.	-0.15212
13373	9.1285	5.8182	0.	-4.8315
13374	9.0361	5.7273	0.	-6.0932
13375	9.0361	5.8182	5.e-002	4.5542e-007
13376	9.0361	5.9091	0.	-0.75467
13377	9.3133	5.8182	0.	-2.0107
13378	9.2209	5.7273	0.	-3.5026
13379	9.2209	5.8182	5.e-002	5.6491e-008
13380	9.2209	5.9091	0.	-0.44964
13381	9.498	5.8182	0.	-0.58093
13382	9.4056	5.7273	0.	-1.3585
13383	9.4056	5.8182	5.e-002	-6.072e-007
13384	9.4056	5.9091	0.	0.1013
13385	9.6827	5.8182	0.	-8.8926e-002
13386	9.5904	5.7273	0.	-0.62307
13387	9.5904	5.8182	5.e-002	7.4412e-007
13388	9.5904	5.9091	0.	6.4999e-002
13389	9.8675	5.8182	0.	9.3637e-002
13390	9.7751	5.7273	0.	-0.27799
13391	9.7751	5.8182	5.e-002	1.552e-006
13392	9.7751	5.9091	0.	6.4263e-002
13393	10.052	5.8182	0.	0.13041
13394	9.9598	5.7273	0.	-0.1462
13395	9.9598	5.8182	5.e-002	2.4108e-006
13396	9.9598	5.9091	0.	4.0702e-002
13397	10.237	5.8182	0.	0.11777
13398	10.145	5.7273	0.	-8.9743e-002
13399	10.145	5.8182	5.e-002	2.7003e-006
13400	10.145	5.9091	0.	2.9883e-002
13401	10.422	5.8182	0.	9.1211e-002
13402	10.329	5.7273	0.	-6.5886e-002
13403	10.329	5.8182	5.e-002	1.8431e-006
13404	10.329	5.9091	0.	2.5512e-002
13405	10.606	5.8182	0.	6.5835e-002
13406	10.514	5.7273	0.	-5.3471e-002
13407	10.514	5.8182	5.e-002	2.9872e-006
13408	10.514	5.9091	0.	2.7092e-002
13409	10.791	5.8182	0.	4.5768e-002
13410	10.699	5.7273	0.	-4.5351e-002
13411	10.699	5.8182	5.e-002	3.2333e-006
13412	10.699	5.9091	0.	3.197e-002
13413	10.976	5.8182	0.	3.1107e-002
13414	10.884	5.7273	0.	-3.9026e-002
13415	10.884	5.8182	5.e-002	2.4906e-006
13416	10.884	5.9091	0.	3.842e-002
13417	11.161	5.8182	0.	2.047e-002
13418	11.068	5.7273	0.	-3.4022e-002
13419	11.068	5.8182	5.e-002	2.3659e-006
13420	11.068	5.9091	0.	4.5169e-002
13421	11.345	5.8182	0.	1.2129e-002
13422	11.253	5.7273	0.	-3.0639e-002
13423	11.253	5.8182	5.e-002	1.4749e-006
13424	11.253	5.9091	0.	5.1295e-002
13425	11.53	5.8182	0.	4.4627e-003
13426	11.438	5.7273	0.	-2.9664e-002
13427	11.438	5.8182	5.e-002	3.5138e-006
13428	11.438	5.9091	0.	5.5975e-002
13429	11.715	5.8182	0.	-3.8469e-003
13430	11.622	5.7273	0.	-3.2294e-002
13431	11.622	5.8182	5.e-002	2.6181e-006
13432	11.622	5.9091	0.	5.8496e-002
13433	11.9	5.8182	0.	-1.3759e-002
13434	11.807	5.7273	0.	-4.0745e-002
13435	11.807	5.8182	5.e-002	-2.1454e-006
13436	11.807	5.9091	0.	5.8185e-002
13437	12.084	5.8182	0.	-2.5585e-002
13438	11.992	5.7273	0.	-6.0051e-002
13439	11.992	5.8182	5.e-002	-9.333e-006
13440	11.992	5.9091	0.	5.4456e-002
13441	12.269	5.8182	0.	-3.8571e-002
13442	12.177	5.7273	0.	-0.10369
13443	12.177	5.8182	5.e-002	-1.8318e-006
13444	12.177	5.9091	0.	4.7254e-002
13445	12.454	5.8182	0.	-5.0703e-002
13446	12.361	5.7273	0.	-0.2123
13447	12.361	5.8182	5.e-002	-2.9285e-005
13448	12.361	5.9091	0.	3.7315e-002
13449	12.639	5.8182	0.	-5.9278e-002
13450	12.546	5.7273	0.	-0.44042
13451	12.546	5.8182	5.e-002	-1.0707e-005
13452	12.546	5.9091	0.	2.6201e-002
13453	12.823	5.8182	0.	-6.2432e-002
13454	12.731	5.7273	0.	-0.6535
13455	12.731	5.8182	5.e-002	-3.4055e-006
13456	12.731	5.9091	0.	1.5795e-002
13457	13.008	5.8182	0.	-6.0281e-002
13458	12.916	5.7273	0.	-0.69358
13459	12.916	5.8182	5.e-002	-8.7001e-007
13460	12.916	5.9091	0.	7.4606e-003
13461	13.193	5.8182	0.	-5.4519e-002
13462	13.1	5.7273	0.	-0.55764
13463	13.1	5.8182	5.e-002	-6.5683e-006
13464	13.1	5.9091	0.	1.7434e-003
13465	13.378	5.8182	0.	-4.7201e-002
13466	13.285	5.7273	0.	-0.32458
13467	13.285	5.8182	5.e-002	-4.2662e-006
13468	13.285	5.9091	0.	-1.5913e-003
13469	13.562	5.8182	0.	-3.983e-002
13470	13.47	5.7273	0.	-0.14152
13471	13.47	5.8182	5.e-002	-3.2286e-006
13472	13.47	5.9091	0.	-3.1907e-003
13473	13.747	5.8182	0.	-3.3174e-002
13474	13.655	5.7273	0.	-6.1946e-002
13475	13.655	5.8182	5.e-002	2.8729e-007
13476	13.655	5.9091	0.	-3.6787e-003
13477	13.932	5.8182	0.	-2.7519e-002
13478	13.839	5.7273	0.	-2.9847e-002
13479	13.839	5.8182	5.e-002	2.2856e-006
13480	13.839	5.9091	0.	-3.5393e-003
13481	14.116	5.8182	0.	-2.2862e-002
13482	14.024	5.7273	0.	-1.5033e-002
13483	14.024	5.8182	5.e-002	1.353e-007
13484	14.024	5.9091	0.	-3.1485e-003
13485	14.301	5.8182	0.	-1.9046e-002
13486	14.209	5.7273	0.	-7.4219e-003
13487	14.209	5.8182	5.e-002	-8.6391e-007
13488	14.209	5.9091	0.	-2.6585e-003
13489	14.486	5.8182	0.	-1.5914e-002
13490	14.394	5.7273	0.	-3.2573e-003
13491	14.394	5.8182	5.e-002	1.6706e-007
13492	14.394	5.9091	0.	-2.15e-003
13493	14.671	5.8182	0.	-1.3349e-002
13494	14.578	5.7273	0.	-9.2788e-004
13495	14.578	5.8182	5.e-002	1.0182e-006
13496	14.578	5.9091	0.	-1.681e-003
13497	14.855	5.8182	0.	-1.1275e-002
13498	14.763	5.7273	0.	3.2133e-004
13499	14.763	5.8182	5.e-002	4.5466e-006
13500	14.763	5.9091	0.	-1.3073e-003
13501	15.04	5.8182	0.	-9.5965e-003
13502	14.948	5.7273	0.	8.6549e-004
13503	14.948	5.8182	5.e-002	5.1465e-006
13504	14.948	5.9091	0.	-1.08e-003
13505	15.225	5.8182	0.	-8.1956e-003
13506	15.133	5.7273	0.	9.9538e-004
13507	15.133	5.8182	5.e-002	1.3306e-006
13508	15.133	5.9091	0.	-9.4666e-004
13509	15.41	5.8182	0.	-7.0072e-003
13510	15.317	5.7273	0.	8.9629e-004
13511	15.317	5.8182	5.e-002	3.1596e-006
13512	15.317	5.9091	0.	-8.6265e-004
13513	15.594	5.8182	0.	-5.9994e-003
13514	15.502	5.7273	0.	6.3428e-004
13515	15.502	5.8182	5.e-002	3.8403e-006
13516	15.502	5.9091	0.	-8.406e-004
13517	15.779	5.8182	0.	-5.1394e-003
13518	15.687	5.7273	0.	2.6498e-004
13519	15.687	5.8182	5.e-002	3.2449e-006
13520	15.687	5.9091	0.	-8.7433e-004
13521	15.964	5.8182	0.	-4.4202e-003
13522	15.871	5.7273	0.	-1.7637e-004
13523	15.871	5.8182	5.e-002	4.505e-006
13524	15.871	5.9091	0.	-9.551e-004
13525	16.149	5.8182	0.	-3.8204e-003
13526	16.056	5.7273	0.	-7.0303e-004
13527	16.056	5.8182	5.e-002	4.4351e-006
13528	16.056	5.9091	0.	-1.1135e-003
13529	16.333	5.8182	0.	-3.2908e-003
13530	16.241	5.7273	0.	-1.2617e-003
13531	16.241	5.8182	5.e-002	4.6389e-006
13532	16.241	5.9091	0.	-1.3046e-003
13533	16.518	5.8182	0.	-2.8044e-003
13534	16.426	5.7273	0.	-1.8122e-003
13535	16.426	5.8182	5.e-002	5.285e-006
13536	16.426	5.9091	0.	-1.4967e-003
13537	16.703	5.8182	0.	-2.366e-003
13538	16.61	5.7273	0.	-2.3511e-003
13539	16.61	5.8182	5.e-002	4.237e-006
13540	16.61	5.9091	0.	-1.686e-003
13541	16.888	5.8182	0.	-1.9944e-003
13542	16.795	5.7273	0.	-2.9013e-003
13543	16.795	5.8182	5.e-002	5.9304e-006
13544	16.795	5.9091	0.	-1.8952e-003
13545	17.072	5.8182	0.	-1.6796e-003
13546	16.98	5.7273	0.	-3.4914e-003
13547	16.98	5.8182	5.e-002	5.2036e-006
13548	16.98	5.9091	0.	-2.1487e-003
13549	17.257	5.8182	0.	-1.3964e-003
13550	17.165	5.7273	0.	-4.083e-003
13551	17.165	5.8182	5.e-002	7.4508e-006
13552	17.165	5.9091	0.	-2.4082e-003
13553	17.442	5.8182	0.	-1.1393e-003
13554	17.349	5.7273	0.	-4.6737e-003
13555	17.349	5.8182	5.e-002	7.812e-006
13556	17.349	5.9091	0.	-2.6695e-003
13557	17.627	5.8182	0.	-8.9713e-004
13558	17.534	5.7273	0.	-5.2673e-003
13559	17.534	5.8182	5.e-002	7.0778e-006
13560	17.534	5.9091	0.	-2.9313e-003
13561	17.811	5.8182	0.	-6.7148e-004
13562	17.719	5.7273	0.	-5.8474e-003
13563	17.719	5.8182	5.e-002	1.1818e-005
13564	17.719	5.9091	0.	-3.1749e-003
13565	17.996	5.8182	0.	-4.9019e-004
13566	17.904	5.7273	0.	-6.4445e-003
13567	17.904	5.8182	5.e-002	1.9737e-005
13568	17.904	5.9091	0.	-3.425e-003
13569	18.181	5.8182	0.	-3.5074e-004
13570	18.088	5.7273	0.	-7.0923e-003
13571	18.088	5.8182	5.e-002	1.4215e-005
13572	18.088	5.9091	0.	-3.7115e-003
13573	18.365	5.8182	0.	-2.2897e-004
13574	18.273	5.7273	0.	-7.7621e-003
13575	18.273	5.8182	5.e-002	2.3464e-005
13576	18.273	5.9091	0.	-3.9993e-003
13577	18.55	5.8182	0.	-1.1748e-004
13578	18.458	5.7273	0.	-8.4429e-003
13579	18.458	5.8182	5.e-002	9.9315e-006
13580	18.458	5.9091	0.	-4.2742e-003
13581	18.735	5.8182	0.	-2.7631e-005
13582	18.643	5.7273	0.	-9.1387e-003
13583	18.643	5.8182	5.e-002	9.7811e-006
13584	18.643	5.9091	0.	-4.5352e-003
13585	18.92	5.8182	0.	1.6454e-005
13586	18.827	5.7273	0.	-9.8759e-003
13587	18.827	5.8182	5.e-002	1.2246e-005
13588	18.827	5.9091	0.	-4.8029e-003
13589	19.104	5.8182	0.	1.294e-005
13590	19.012	5.7273	0.	-1.0687e-002
13591	19.012	5.8182	5.e-002	1.0769e-005
13592	19.012	5.9091	0.	-5.0947e-003
13593	19.289	5.8182	0.	-2.8988e-005
13594	19.197	5.7273	0.	-1.1549e-002
13595	19.197	5.8182	5.e-002	1.7591e-005
13596	19.197	5.9091	0.	-5.3871e-003
13597	19.474	5.8182	0.	-1.1352e-004
13598	19.382	5.7273	0.	-1.2471e-002
13599	19.382	5.8182	5.e-002	1.7781e-005
13600	19.382	5.9091	0.	-5.6772e-003
13601	19.659	5.8182	0.	-2.4474e-004
13602	19.566	5.7273	0.	-1.3463e-002
13603	19.566	5.8182	5.e-002	2.2904e-005
13604	19.566	5.9091	0.	-5.9628e-003
13605	19.843	5.8182	0.	-4.3672e-004
13606	19.751	5.7273	0.	-1.4525e-002
13607	19.751	5.8182	5.e-002	1.5618e-005
13608	19.751	5.9091	0.	-6.233e-003
13609	20.028	5.8182	0.	-7.1761e-004
13610	19.936	5.7273	0.	-1.5688e-002
13611	19.936	5.8182	5.e-002	2.4336e-005
13612	19.936	5.9091	0.	-6.5021e-003
13613	20.213	5.8182	0.	-1.1034e-003
13614	20.12	5.7273	0.	-1.6985e-002
13615	20.12	5.8182	5.e-002	2.5422e-005
13616	20.12	5.9091	0.	-6.7849e-003
13617	20.398	5.8182	0.	-1.596e-003
13618	20.305	5.7273	0.	-1.8414e-002
13619	20.305	5.8182	5.e-002	2.6891e-005
13620	20.305	5.9091	0.	-7.057e-003
13621	20.582	5.8182	0.	-2.2111e-003
13622	20.49	5.7273	0.	-1.9982e-002
13623	20.49	5.8182	5.e-002	2.4936e-005
13624	20.49	5.9091	0.	-7.3012e-003
13625	20.767	5.8182	0.	-2.9877e-003
13626	20.675	5.7273	0.	-2.1712e-002
13627	20.675	5.8182	5.e-002	1.9212e-005
13628	20.675	5.9091	0.	-7.5107e-003
13629	20.952	5.8182	0.	-3.9692e-003
13630	20.859	5.7273	0.	-2.3646e-002
13631	20.859	5.8182	5.e-002	2.2319e-005
13632	20.859	5.9091	0.	-7.6876e-003
13633	21.137	5.8182	0.	-5.1969e-003
13634	21.044	5.7273	0.	-2.5824e-002
13635	21.044	5.8182	5.e-002	2.7937e-005
13636	21.044	5.9091	0.	-7.8258e-003
13637	21.321	5.8182	0.	-6.7201e-003
13638	21.229	5.7273	0.	-2.8272e-002
13639	21.229	5.8182	5.e-002	2.7491e-005
13640	21.229	5.9091	0.	-7.8926e-003
13641	21.506	5.8182	0.	-8.6048e-003
13642	21.414	5.7273	0.	-3.103e-002
13643	21.414	5.8182	5.e-002	2.548e-005
13644	21.414	5.9091	0.	-7.8589e-003
13645	21.691	5.8182	0.	-1.094e-002
13646	21.598	5.7273	0.	-3.4152e-002
13647	21.598	5.8182	5.e-002	2.5378e-005
13648	21.598	5.9091	0.	-7.6836e-003
13649	21.876	5.8182	0.	-1.3841e-002
13650	21.783	5.7273	0.	-3.7699e-002
13651	21.783	5.8182	5.e-002	1.9675e-005
13652	21.783	5.9091	0.	-7.3174e-003
13653	22.06	5.8182	0.	-1.7467e-002
13654	21.968	5.7273	0.	-4.1756e-002
13655	21.968	5.8182	5.e-002	2.1638e-005
13656	21.968	5.9091	0.	-6.6777e-003
13657	22.245	5.8182	0.	-2.2027e-002
13658	22.153	5.7273	0.	-4.6422e-002
13659	22.153	5.8182	5.e-002	2.0572e-005
13660	22.153	5.9091	0.	-5.6682e-003
13661	22.43	5.8182	0.	-2.7781e-002
13662	22.337	5.7273	0.	-5.1807e-002
13663	22.337	5.8182	5.e-002	1.9713e-005
13664	22.337	5.9091	0.	-4.1126e-003
13665	22.614	5.8182	0.	-3.5154e-002
13666	22.522	5.7273	0.	-5.7997e-002
13667	22.522	5.8182	5.e-002	1.7684e-005
13668	22.522	5.9091	0.	-1.7108e-003
13669	22.799	5.8182	0.	-4.4558e-002
13670	22.707	5.7273	0.	-6.5248e-002
13671	22.707	5.8182	5.e-002	1.4882e-005
13672	22.707	5.9091	0.	1.8762e-003
13673	22.984	5.8182	0.	-5.7375e-002
13674	22.892	5.7273	0.	-7.3208e-002
13675	22.892	5.8182	5.e-002	1.4112e-005
13676	22.892	5.9091	0.	7.7541e-003
13677	23.169	5.8182	0.	-7.2637e-002
13678	23.076	5.7273	0.	-8.3627e-002
13679	23.076	5.8182	5.e-002	1.3967e-005
13680	23.076	5.9091	0.	1.5921e-002
13681	23.353	5.8182	0.	-0.10033
13682	23.261	5.7273	0.	-8.9161e-002
13683	23.261	5.8182	5.e-002	1.6628e-005
13684	23.261	5.9091	0.	3.4686e-002
13685	23.538	5.8182	0.	-0.11496
13686	23.446	5.7273	0.	-0.11425
13687	23.446	5.8182	5.e-002	1.1487e-005
13688	23.446	5.9091	0.	4.8166e-002
13689	23.723	5.8182	0.	-0.30976
13690	23.631	5.7273	0.	-5.3089e-002
13691	23.631	5.8182	5.e-002	8.51e-006
13692	23.631	5.9091	0.	0.14368
13693	23.815	5.7273	0.	-0.38395
13694	23.815	5.8182	5.e-002	9.7555e-006
13695	23.908	5.8182	0.	-3.7685e-002
13696	23.815	5.9091	0.	-7.1974e-002
13697	8.9438	5.6364	0.	-8.721
13698	8.8514	5.5455	0.	-8.7927
13699	8.8514	5.6364	5.e-002	-1.0326e-014
13700	8.759	5.6364	0.	2.7909
13701	9.1285	5.6364	0.	-4.3031
13702	9.0361	5.5455	0.	-3.5058
13703	9.0361	5.6364	5.e-002	-5.5527e-006
13704	9.3133	5.6364	0.	-2.5026
13705	9.2209	5.5455	0.	-3.245
13706	9.2209	5.6364	5.e-002	-3.8987e-006
13707	9.498	5.6364	0.	-1.2402
13708	9.4056	5.5455	0.	-1.7532
13709	9.4056	5.6364	5.e-002	-6.3035e-006
13710	9.6827	5.6364	0.	-0.7415
13711	9.5904	5.5455	0.	-1.1109
13712	9.5904	5.6364	5.e-002	-2.2989e-006
13713	9.8675	5.6364	0.	-0.48914
13714	9.7751	5.5455	0.	-0.71239
13715	9.7751	5.6364	5.e-002	8.0853e-007
13716	10.052	5.6364	0.	-0.35973
13717	9.9598	5.5455	0.	-0.49916
13718	9.9598	5.6364	5.e-002	-1.1111e-006
13719	10.237	5.6364	0.	-0.27913
13720	10.145	5.5455	0.	-0.36571
13721	10.145	5.6364	5.e-002	-3.3528e-007
13722	10.422	5.6364	0.	-0.22289
13723	10.329	5.5455	0.	-0.27918
13724	10.329	5.6364	5.e-002	9.3576e-007
13725	10.606	5.6364	0.	-0.1798
13726	10.514	5.5455	0.	-0.21946
13727	10.514	5.6364	5.e-002	1.5509e-006
13728	10.791	5.6364	0.	-0.1457
13729	10.699	5.5455	0.	-0.17768
13730	10.699	5.6364	5.e-002	1.3212e-006
13731	10.976	5.6364	0.	-0.1188
13732	10.884	5.5455	0.	-0.1491
13733	10.884	5.6364	5.e-002	-6.2821e-006
13734	11.161	5.6364	0.	-9.8431e-002
13735	11.068	5.5455	0.	-0.13169
13736	11.068	5.6364	5.e-002	2.972e-006
13737	11.345	5.6364	0.	-8.4845e-002
13738	11.253	5.5455	0.	-0.126
13739	11.253	5.6364	5.e-002	-3.0602e-005
13740	11.53	5.6364	0.	-7.9684e-002
13741	11.438	5.5455	0.	-0.13796
13742	11.438	5.6364	5.e-002	-9.9487e-007
13743	11.715	5.6364	0.	-8.8707e-002
13744	11.622	5.5455	0.	-0.19511
13745	11.622	5.6364	5.e-002	-2.6429e-006
13746	11.9	5.6364	0.	-0.13818
13747	11.807	5.5455	0.	-0.53938
13748	11.807	5.6364	5.e-002	-2.7828e-006
13749	12.084	5.6364	0.	-0.47567
13750	11.992	5.5455	0.	-2.4958
13751	11.992	5.6364	5.e-002	1.8002e-006
13752	12.269	5.6364	0.	-1.7755
13753	12.177	5.5455	0.	-4.6418
13754	12.177	5.6364	5.e-002	7.7496e-007
13755	12.454	5.6364	0.	-2.9318
13756	12.361	5.5455	0.	-6.1792
13757	12.361	5.6364	5.e-002	7.1682e-007
13758	12.639	5.6364	0.	-3.652
13759	12.546	5.5455	0.	-7.1477
13760	12.546	5.6364	5.e-002	1.5974e-006
13761	12.823	5.6364	0.	-3.9856
13762	12.731	5.5455	0.	-7.6357
13763	12.731	5.6364	5.e-002	8.6772e-007
13764	13.008	5.6364	0.	-4.
13765	12.916	5.5455	0.	-7.7288
13766	12.916	5.6364	5.e-002	1.6269e-006
13767	13.193	5.6364	0.	-3.7567
13768	13.1	5.5455	0.	-7.5032
13769	13.1	5.6364	5.e-002	1.7665e-006
13770	13.378	5.6364	0.	-3.3097
13771	13.285	5.5455	0.	-7.025
13772	13.285	5.6364	5.e-002	1.971e-006
13773	13.562	5.6364	0.	-2.7049
13774	13.47	5.5455	0.	-6.3508
13775	13.47	5.6364	5.e-002	3.4857e-006
13776	13.747	5.6364	0.	-1.981
13777	13.655	5.5455	0.	-5.5278
13778	13.655	5.6364	5.e-002	3.0774e-006
13779	13.932	5.6364	0.	-1.1709
13780	13.839	5.5455	0.	-4.5953
13781	13.839	5.6364	5.e-002	3.1053e-006
13782	14.116	5.6364	0.	-0.31414
13783	14.024	5.5455	0.	-3.5858
13784	14.024	5.6364	5.e-002	3.2987e-006
13785	14.301	5.6364	0.	8.2569e-003
13786	14.209	5.5455	0.	-2.525
13787	14.209	5.6364	5.e-002	4.4034e-006
13788	14.486	5.6364	0.	1.4161e-002
13789	14.394	5.5455	0.	-1.4341
13790	14.394	5.6364	5.e-002	4.0816e-006
13791	14.671	5.6364	0.	1.3972e-002
13792	14.578	5.5455	0.	-0.32929
13793	14.578	5.6364	5.e-002	3.7742e-006
13794	14.855	5.6364	0.	1.2711e-002
13795	14.763	5.5455	0.	9.7114e-003
13796	14.763	5.6364	5.e-002	5.3736e-006
13797	15.04	5.6364	0.	1.1115e-002
13798	14.948	5.5455	0.	8.2158e-003
13799	14.948	5.6364	5.e-002	4.8805e-006
13800	15.225	5.6364	0.	9.4415e-003
13801	15.133	5.5455	0.	6.7937e-003
13802	15.133	5.6364	5.e-002	4.651e-006
13803	15.41	5.6364	0.	7.7802e-003
13804	15.317	5.5455	0.	5.4866e-003
13805	15.317	5.6364	5.e-002	4.5224e-006
13806	15.594	5.6364	0.	6.1527e-003
13807	15.502	5.5455	0.	4.262e-003
13808	15.502	5.6364	5.e-002	4.4334e-006
13809	15.779	5.6364	0.	4.5716e-003
13810	15.687	5.5455	0.	3.1115e-003
13811	15.687	5.6364	5.e-002	4.7967e-006
13812	15.964	5.6364	0.	3.0227e-003
13813	15.871	5.5455	0.	2.0242e-003
13814	15.871	5.6364	5.e-002	5.5283e-006
13815	16.149	5.6364	0.	1.5056e-003
13816	16.056	5.5455	0.	9.5444e-004
13817	16.056	5.6364	5.e-002	5.6398e-006
13818	16.333	5.6364	0.	5.2268e-005
13819	16.241	5.5455	0.	-6.7259e-005
13820	16.241	5.6364	5.e-002	6.023e-006
13821	16.518	5.6364	0.	-1.3282e-003
13822	16.426	5.5455	0.	-1.0163e-003
13823	16.426	5.6364	5.e-002	6.475e-006
13824	16.703	5.6364	0.	-2.6555e-003
13825	16.61	5.5455	0.	-1.9043e-003
13826	16.61	5.6364	5.e-002	6.2306e-006
13827	16.888	5.6364	0.	-3.9647e-003
13828	16.795	5.5455	0.	-2.7614e-003
13829	16.795	5.6364	5.e-002	6.4232e-006
13830	17.072	5.6364	0.	-5.258e-003
13831	16.98	5.5455	0.	-3.6254e-003
13832	16.98	5.6364	5.e-002	5.495e-006
13833	17.257	5.6364	0.	-6.52e-003
13834	17.165	5.5455	0.	-4.4619e-003
13835	17.165	5.6364	5.e-002	6.6697e-006
13836	17.442	5.6364	0.	-7.7576e-003
13837	17.349	5.5455	0.	-5.2744e-003
13838	17.349	5.6364	5.e-002	9.0221e-006
13839	17.627	5.6364	0.	-8.969e-003
13840	17.534	5.5455	0.	-6.0669e-003
13841	17.534	5.6364	5.e-002	7.4586e-006
13842	17.811	5.6364	0.	-1.0166e-002
13843	17.719	5.5455	0.	-6.8274e-003
13844	17.719	5.6364	5.e-002	6.3678e-006
13845	17.996	5.6364	0.	-1.1384e-002
13846	17.904	5.5455	0.	-7.5881e-003
13847	17.904	5.6364	5.e-002	5.486e-006
13848	18.181	5.6364	0.	-1.2628e-002
13849	18.088	5.5455	0.	-8.3828e-003
13850	18.088	5.6364	5.e-002	5.3899e-006
13851	18.365	5.6364	0.	-1.3883e-002
13852	18.273	5.5455	0.	-9.1838e-003
13853	18.273	5.6364	5.e-002	7.1509e-006
13854	18.55	5.6364	0.	-1.5147e-002
13855	18.458	5.5455	0.	-9.9796e-003
13856	18.458	5.6364	5.e-002	7.0702e-006
13857	18.735	5.6364	0.	-1.6438e-002
13858	18.643	5.5455	0.	-1.0774e-002
13859	18.643	5.6364	5.e-002	8.3658e-006
13860	18.92	5.6364	0.	-1.7788e-002
13861	18.827	5.5455	0.	-1.1591e-002
13862	18.827	5.6364	5.e-002	8.9348e-006
13863	19.104	5.6364	0.	-1.9203e-002
13864	19.012	5.5455	0.	-1.2461e-002
13865	19.012	5.6364	5.e-002	8.3019e-006
13866	19.289	5.6364	0.	-2.0677e-002
13867	19.197	5.5455	0.	-1.336e-002
13868	19.197	5.6364	5.e-002	8.7985e-006
13869	19.474	5.6364	0.	-2.2222e-002
13870	19.382	5.5455	0.	-1.4294e-002
13871	19.382	5.6364	5.e-002	7.6537e-006
13872	19.659	5.6364	0.	-2.3842e-002
13873	19.566	5.5455	0.	-1.5267e-002
13874	19.566	5.6364	5.e-002	8.5505e-006
13875	19.843	5.6364	0.	-2.5551e-002
13876	19.751	5.5455	0.	-1.6272e-002
13877	19.751	5.6364	5.e-002	9.7368e-006
13878	20.028	5.6364	0.	-2.7383e-002
13879	19.936	5.5455	0.	-1.7337e-002
13880	19.936	5.6364	5.e-002	8.5231e-006
13881	20.213	5.6364	0.	-2.9348e-002
13882	20.12	5.5455	0.	-1.8482e-002
13883	20.12	5.6364	5.e-002	9.8688e-006
13884	20.398	5.6364	0.	-3.1445e-002
13885	20.305	5.5455	0.	-1.9696e-002
13886	20.305	5.6364	5.e-002	1.1592e-005
13887	20.582	5.6364	0.	-3.3687e-002
13888	20.49	5.5455	0.	-2.097e-002
13889	20.49	5.6364	5.e-002	9.1701e-006
13890	20.767	5.6364	0.	-3.6095e-002
13891	20.675	5.5455	0.	-2.2312e-002
13892	20.675	5.6364	5.e-002	1.0198e-005
13893	20.952	5.6364	0.	-3.8702e-002
13894	20.859	5.5455	0.	-2.3739e-002
13895	20.859	5.6364	5.e-002	1.2062e-005
13896	21.137	5.6364	0.	-4.1528e-002
13897	21.044	5.5455	0.	-2.5267e-002
13898	21.044	5.6364	5.e-002	1.5162e-005
13899	21.321	5.6364	0.	-4.4585e-002
13900	21.229	5.5455	0.	-2.6879e-002
13901	21.229	5.6364	5.e-002	1.3295e-005
13902	21.506	5.6364	0.	-4.7893e-002
13903	21.414	5.5455	0.	-2.8573e-002
13904	21.414	5.6364	5.e-002	1.2836e-005
13905	21.691	5.6364	0.	-5.1475e-002
13906	21.598	5.5455	0.	-3.0342e-002
13907	21.598	5.6364	5.e-002	1.4465e-005
13908	21.876	5.6364	0.	-5.5353e-002
13909	21.783	5.5455	0.	-3.2159e-002
13910	21.783	5.6364	5.e-002	1.1263e-005
13911	22.06	5.6364	0.	-5.955e-002
13912	21.968	5.5455	0.	-3.4003e-002
13913	21.968	5.6364	5.e-002	1.1763e-005
13914	22.245	5.6364	0.	-6.4069e-002
13915	22.153	5.5455	0.	-3.5816e-002
13916	22.153	5.6364	5.e-002	1.3455e-005
13917	22.43	5.6364	0.	-6.8857e-002
13918	22.337	5.5455	0.	-3.7495e-002
13919	22.337	5.6364	5.e-002	1.3194e-005
13920	22.614	5.6364	0.	-7.3872e-002
13921	22.522	5.5455	0.	-3.8806e-002
13922	22.522	5.6364	5.e-002	1.3822e-005
13923	22.799	5.6364	0.	-7.8699e-002
13924	22.707	5.5455	0.	-3.9567e-002
13925	22.707	5.6364	5.e-002	1.0815e-005
13926	22.984	5.6364	0.	-8.3583e-002
13927	22.892	5.5455	0.	-3.8626e-002
13928	22.892	5.6364	5.e-002	9.5561e-006
13929	23.169	5.6364	0.	-8.4481e-002
13930	23.076	5.5455	0.	-3.6975e-002
13931	23.076	5.6364	5.e-002	1.2621e-005
13932	23.353	5.6364	0.	-9.0028e-002
13933	23.261	5.5455	0.	-2.3712e-002
13934	23.261	5.6364	5.e-002	1.5326e-005
13935	23.538	5.6364	0.	-4.9278e-002
13936	23.446	5.5455	0.	-2.7495e-002
13937	23.446	5.6364	5.e-002	1.5576e-005
13938	23.723	5.6364	0.	-0.16105
13939	23.631	5.5455	0.	0.10081
13940	23.631	5.6364	5.e-002	1.5293e-005
13941	23.815	5.5455	0.	-0.15128
13942	23.815	5.6364	5.e-002	1.5589e-005
13943	23.908	5.6364	0.	0.16009
13944	8.9438	5.4545	0.	-5.8603
13945	8.8514	5.3636	0.	-7.4075
13946	8.8514	5.4545	5.e-002	-1.1041e-014
13947	8.759	5.4545	0.	1.7424
13948	9.1285	5.4545	0.	-3.0412
13949	9.0361	5.3636	0.	-2.0252
13950	9.0361	5.4545	5.e-002	-9.3568e-006
13951	9.3133	5.4545	0.	-2.4889
13952	9.2209	5.3636	0.	-2.8392
13953	9.2209	5.4545	5.e-002	-9.7147e-006
13954	9.498	5.4545	0.	-1.5583
13955	9.4056	5.3636	0.	-1.8995
13956	9.4056	5.4545	5.e-002	-7.9482e-006
13957	9.6827	5.4545	0.	-1.0495
13958	9.5904	5.3636	0.	-1.4337
13959	9.5904	5.4545	5.e-002	-1.0337e-005
13960	9.8675	5.4545	0.	-0.71668
13961	9.7751	5.3636	0.	-1.0368
13962	9.7751	5.4545	5.e-002	-7.1332e-006
13963	10.052	5.4545	0.	-0.51396
13964	9.9598	5.3636	0.	-0.77927
13965	9.9598	5.4545	5.e-002	-1.0503e-005
13966	10.237	5.4545	0.	-0.38187
13967	10.145	5.3636	0.	-0.59939
13968	10.145	5.4545	5.e-002	-5.4027e-006
13969	10.422	5.4545	0.	-0.29539
13970	10.329	5.3636	0.	-0.47799
13971	10.329	5.4545	5.e-002	-1.534e-005
13972	10.606	5.4545	0.	-0.2388
13973	10.514	5.3636	0.	-0.39728
13974	10.514	5.4545	5.e-002	-6.657e-007
13975	10.791	5.4545	0.	-0.20399
13976	10.699	5.3636	0.	-0.34879
13977	10.699	5.4545	5.e-002	-1.6182e-005
13978	10.976	5.4545	0.	-0.18721
13979	10.884	5.3636	0.	-0.33016
13980	10.884	5.4545	5.e-002	9.0408e-007
13981	11.161	5.4545	0.	-0.18974
13982	11.068	5.3636	0.	-0.34995
13983	11.068	5.4545	5.e-002	4.3019e-007
13984	11.345	5.4545	0.	-0.22415
13985	11.253	5.3636	0.	-0.45333
13986	11.253	5.4545	5.e-002	-2.7429e-005
13987	11.53	5.4545	0.	-0.35766
13988	11.438	5.3636	0.	-0.95412
13989	11.438	5.4545	5.e-002	-3.1759e-005
13990	11.715	5.4545	0.	-1.2803
13991	11.622	5.3636	0.	-3.8054
13992	11.622	5.4545	5.e-002	-3.6398e-006
13993	11.9	5.4545	0.	-4.3146
13994	11.807	5.3636	0.	-7.7485
13995	11.807	5.4545	5.e-002	-5.0165e-006
13996	12.084	5.4545	0.	-7.0754
13997	11.992	5.3636	0.	-10.885
13998	11.992	5.4545	5.e-002	-1.3642e-006
13999	12.269	5.4545	0.	-9.0782
14000	12.177	5.3636	0.	-13.139
14001	12.177	5.4545	5.e-002	-4.7696e-006
14002	12.454	5.4545	0.	-10.391
14003	12.361	5.3636	0.	-14.612
14004	12.361	5.4545	5.e-002	-2.1157e-006
14005	12.639	5.4545	0.	-11.119
14006	12.546	5.3636	0.	-15.424
14007	12.546	5.4545	5.e-002	-2.2103e-006
14008	12.823	5.4545	0.	-11.364
14009	12.731	5.3636	0.	-15.689
14010	12.731	5.4545	5.e-002	-2.0665e-006
14011	13.008	5.4545	0.	-11.216
14012	12.916	5.3636	0.	-15.509
14013	12.916	5.4545	5.e-002	-2.7512e-007
14014	13.193	5.4545	0.	-10.755
14015	13.1	5.3636	0.	-14.974
14016	13.1	5.4545	5.e-002	-1.0071e-007
14017	13.378	5.4545	0.	-10.049
14018	13.285	5.3636	0.	-14.16
14019	13.285	5.4545	5.e-002	-1.8553e-008
14020	13.562	5.4545	0.	-9.1567
14021	13.47	5.3636	0.	-13.135
14022	13.47	5.4545	5.e-002	2.2627e-007
14023	13.747	5.4545	0.	-8.1259
14024	13.655	5.3636	0.	-11.952
14025	13.655	5.4545	5.e-002	4.9434e-007
14026	13.932	5.4545	0.	-6.9963
14027	13.839	5.3636	0.	-10.658
14028	13.839	5.4545	5.e-002	7.0905e-007
14029	14.116	5.4545	0.	-5.8004
14030	14.024	5.3636	0.	-9.2894
14031	14.024	5.4545	5.e-002	6.0781e-007
14032	14.301	5.4545	0.	-4.5641
14033	14.209	5.3636	0.	-7.8761
14034	14.209	5.4545	5.e-002	2.2737e-006
14035	14.486	5.4545	0.	-3.3082
14036	14.394	5.3636	0.	-6.442
14037	14.394	5.4545	5.e-002	2.4516e-006
14038	14.671	5.4545	0.	-2.0487
14039	14.578	5.3636	0.	-5.0057
14040	14.578	5.4545	5.e-002	1.1947e-006
14041	14.855	5.4545	0.	-0.79959
14042	14.763	5.3636	0.	-3.5814
14043	14.763	5.4545	5.e-002	2.6723e-006
14044	15.04	5.4545	0.	-3.5998e-003
14045	14.948	5.3636	0.	-2.1805
14046	14.948	5.4545	5.e-002	1.5837e-006
14047	15.225	5.4545	0.	7.7723e-004
14048	15.133	5.3636	0.	-0.81457
14049	15.133	5.4545	5.e-002	2.3575e-006
14050	15.41	5.4545	0.	8.6445e-004
14051	15.317	5.3636	0.	-1.3956e-002
14052	15.317	5.4545	5.e-002	3.4477e-006
14053	15.594	5.4545	0.	5.461e-004
14054	15.502	5.3636	0.	-2.8991e-003
14055	15.502	5.4545	5.e-002	2.4842e-006
14056	15.779	5.4545	0.	1.3617e-004
14057	15.687	5.3636	0.	-1.4404e-003
14058	15.687	5.4545	5.e-002	2.4878e-006
14059	15.964	5.4545	0.	-3.1312e-004
14060	15.871	5.3636	0.	-1.1212e-003
14061	15.871	5.4545	5.e-002	3.407e-006
14062	16.149	5.4545	0.	-7.783e-004
14063	16.056	5.3636	0.	-1.1791e-003
14064	16.056	5.4545	5.e-002	3.5524e-006
14065	16.333	5.4545	0.	-1.2176e-003
14066	16.241	5.3636	0.	-1.373e-003
14067	16.241	5.4545	5.e-002	3.6927e-006
14068	16.518	5.4545	0.	-1.6166e-003
14069	16.426	5.3636	0.	-1.5987e-003
14070	16.426	5.4545	5.e-002	4.3246e-006
14071	16.703	5.4545	0.	-1.9912e-003
14072	16.61	5.3636	0.	-1.8292e-003
14073	16.61	5.4545	5.e-002	4.0006e-006
14074	16.888	5.4545	0.	-2.3702e-003
14075	16.795	5.3636	0.	-2.0741e-003
14076	16.795	5.4545	5.e-002	4.2996e-006
14077	17.072	5.4545	0.	-2.7521e-003
14078	16.98	5.3636	0.	-2.3581e-003
14079	16.98	5.4545	5.e-002	3.3369e-006
14080	17.257	5.4545	0.	-3.1192e-003
14081	17.165	5.3636	0.	-2.6385e-003
14082	17.165	5.4545	5.e-002	3.7187e-006
14083	17.442	5.4545	0.	-3.4711e-003
14084	17.349	5.3636	0.	-2.9122e-003
14085	17.349	5.4545	5.e-002	6.136e-006
14086	17.627	5.4545	0.	-3.8007e-003
14087	17.534	5.3636	0.	-3.175e-003
14088	17.534	5.4545	5.e-002	4.4428e-006
14089	17.811	5.4545	0.	-4.1157e-003
14090	17.719	5.3636	0.	-3.4131e-003
14091	17.719	5.4545	5.e-002	4.5425e-006
14092	17.996	5.4545	0.	-4.4463e-003
14093	17.904	5.3636	0.	-3.6511e-003
14094	17.904	5.4545	5.e-002	3.9396e-006
14095	18.181	5.4545	0.	-4.7922e-003
14096	18.088	5.3636	0.	-3.9218e-003
14097	18.088	5.4545	5.e-002	4.9345e-006
14098	18.365	5.4545	0.	-5.1307e-003
14099	18.273	5.3636	0.	-4.1913e-003
14100	18.273	5.4545	5.e-002	4.9777e-006
14101	18.55	5.4545	0.	-5.4546e-003
14102	18.458	5.3636	0.	-4.4427e-003
14103	18.458	5.4545	5.e-002	3.3459e-006
14104	18.735	5.4545	0.	-5.7751e-003
14105	18.643	5.3636	0.	-4.6765e-003
14106	18.643	5.4545	5.e-002	5.8809e-006
14107	18.92	5.4545	0.	-6.1147e-003
14108	18.827	5.3636	0.	-4.9132e-003
14109	18.827	5.4545	5.e-002	5.7547e-006
14110	19.104	5.4545	0.	-6.4722e-003
14111	19.012	5.3636	0.	-5.1769e-003
14112	19.012	5.4545	5.e-002	5.5899e-006
14113	19.289	5.4545	0.	-6.8357e-003
14114	19.197	5.3636	0.	-5.4387e-003
14115	19.197	5.4545	5.e-002	6.5904e-006
14116	19.474	5.4545	0.	-7.2047e-003
14117	19.382	5.3636	0.	-5.6995e-003
14118	19.382	5.4545	5.e-002	4.7995e-006
14119	19.659	5.4545	0.	-7.5733e-003
14120	19.566	5.3636	0.	-5.9545e-003
14121	19.566	5.4545	5.e-002	5.711e-006
14122	19.843	5.4545	0.	-7.947e-003
14123	19.751	5.3636	0.	-6.194e-003
14124	19.751	5.4545	5.e-002	7.4106e-006
14125	20.028	5.4545	0.	-8.3423e-003
14126	19.936	5.3636	0.	-6.4352e-003
14127	19.936	5.4545	5.e-002	5.338e-006
14128	20.213	5.4545	0.	-8.7576e-003
14129	20.12	5.3636	0.	-6.6894e-003
14130	20.12	5.4545	5.e-002	7.5396e-006
14131	20.398	5.4545	0.	-9.1745e-003
14132	20.305	5.3636	0.	-6.9378e-003
14133	20.305	5.4545	5.e-002	9.9963e-006
14134	20.582	5.4545	0.	-9.5828e-003
14135	20.49	5.3636	0.	-7.1563e-003
14136	20.49	5.4545	5.e-002	7.1107e-006
14137	20.767	5.4545	0.	-9.9855e-003
14138	20.675	5.3636	0.	-7.3432e-003
14139	20.675	5.4545	5.e-002	7.2919e-006
14140	20.952	5.4545	0.	-1.0386e-002
14141	20.859	5.3636	0.	-7.4967e-003
14142	20.859	5.4545	5.e-002	8.7227e-006
14143	21.137	5.4545	0.	-1.0768e-002
14144	21.044	5.3636	0.	-7.6125e-003
14145	21.044	5.4545	5.e-002	1.0732e-005
14146	21.321	5.4545	0.	-1.1102e-002
14147	21.229	5.3636	0.	-7.6524e-003
14148	21.229	5.4545	5.e-002	1.0936e-005
14149	21.506	5.4545	0.	-1.1363e-002
14150	21.414	5.3636	0.	-7.5869e-003
14151	21.414	5.4545	5.e-002	9.4949e-006
14152	21.691	5.4545	0.	-1.1504e-002
14153	21.598	5.3636	0.	-7.3664e-003
14154	21.598	5.4545	5.e-002	1.1691e-005
14155	21.876	5.4545	0.	-1.1465e-002
14156	21.783	5.3636	0.	-6.9264e-003
14157	21.783	5.4545	5.e-002	1.0309e-005
14158	22.06	5.4545	0.	-1.1158e-002
14159	21.968	5.3636	0.	-6.1831e-003
14160	21.968	5.4545	5.e-002	7.3071e-006
14161	22.245	5.4545	0.	-1.0444e-002
14162	22.153	5.3636	0.	-5.0045e-003
14163	22.153	5.4545	5.e-002	1.0447e-005
14164	22.43	5.4545	0.	-9.07e-003
14165	22.337	5.3636	0.	-3.1891e-003
14166	22.337	5.4545	5.e-002	1.0863e-005
14167	22.614	5.4545	0.	-6.7229e-003
14168	22.522	5.3636	0.	-3.7194e-004
14169	22.522	5.4545	5.e-002	1.2215e-005
14170	22.799	5.4545	0.	-2.5806e-003
14171	22.707	5.3636	0.	3.7973e-003
14172	22.707	5.4545	5.e-002	8.0834e-006
14173	22.984	5.4545	0.	3.5818e-003
14174	22.892	5.3636	0.	1.0752e-002
14175	22.892	5.4545	5.e-002	7.8959e-006
14176	23.169	5.4545	0.	1.7248e-002
14177	23.076	5.3636	0.	1.9656e-002
14178	23.076	5.4545	5.e-002	1.217e-005
14179	23.353	5.4545	0.	2.8285e-002
14180	23.261	5.3636	0.	4.2781e-002
14181	23.261	5.4545	5.e-002	1.3862e-005
14182	23.538	5.4545	0.	0.10247
14183	23.446	5.3636	0.	4.923e-002
14184	23.446	5.4545	5.e-002	1.3157e-005
14185	23.723	5.4545	0.	4.8652e-002
14186	23.631	5.3636	0.	0.20561
14187	23.631	5.4545	5.e-002	1.468e-005
14188	23.815	5.3636	0.	-3.2965e-003
14189	23.815	5.4545	5.e-002	1.3865e-005
14190	23.908	5.4545	0.	0.35325
14191	8.9438	5.2727	0.	-4.6291
14192	8.8514	5.1818	0.	-7.0481
14193	8.8514	5.2727	5.e-002	-7.3321e-006
14194	8.759	5.2727	0.	1.7038
14195	9.1285	5.2727	0.	-2.1824
14196	9.0361	5.1818	0.	-1.2684
14197	9.0361	5.2727	5.e-002	-1.1697e-005
14198	9.3133	5.2727	0.	-2.35
14199	9.2209	5.1818	0.	-2.6386
14200	9.2209	5.2727	5.e-002	-2.5606e-005
14201	9.498	5.2727	0.	-1.776
14202	9.4056	5.1818	0.	-1.9978
14203	9.4056	5.2727	5.e-002	-1.7167e-005
14204	9.6827	5.2727	0.	-1.4119
14205	9.5904	5.1818	0.	-1.7389
14206	9.5904	5.2727	5.e-002	-1.9881e-005
14207	9.8675	5.2727	0.	-1.1034
14208	9.7751	5.1818	0.	-1.4249
14209	9.7751	5.2727	5.e-002	-2.9326e-005
14210	10.052	5.2727	0.	-0.88244
14211	9.9598	5.1818	0.	-1.196
14212	9.9598	5.2727	5.e-002	-8.4242e-006
14213	10.237	5.2727	0.	-0.72367
14214	10.145	5.1818	0.	-1.0221
14215	10.145	5.2727	5.e-002	-7.6815e-006
14216	10.422	5.2727	0.	-0.61647
14217	10.329	5.1818	0.	-0.90794
14218	10.329	5.2727	5.e-002	-2.662e-005
14219	10.606	5.2727	0.	-0.55297
14220	10.514	5.1818	0.	-0.85352
14221	10.514	5.2727	5.e-002	-1.7381e-005
14222	10.791	5.2727	0.	-0.53495
14223	10.699	5.1818	0.	-0.87884
14224	10.699	5.2727	5.e-002	-2.0829e-005
14225	10.976	5.2727	0.	-0.58432
14226	10.884	5.1818	0.	-1.066
14227	10.884	5.2727	5.e-002	8.9415e-007
14228	11.161	5.2727	0.	-0.8076
14229	11.068	5.1818	0.	-1.8581
14230	11.068	5.2727	5.e-002	-3.0609e-005
14231	11.345	5.2727	0.	-1.9855
14232	11.253	5.1818	0.	-5.4341
14233	11.253	5.2727	5.e-002	-1.7101e-006
14234	11.53	5.2727	0.	-6.2067
14235	11.438	5.1818	0.	-11.068
14236	11.438	5.2727	5.e-002	-3.7681e-005
14237	11.715	5.2727	0.	-10.76
14238	11.622	5.1818	0.	-15.937
14239	11.622	5.2727	5.e-002	-4.679e-006
14240	11.9	5.2727	0.	-14.344
14241	11.807	5.1818	0.	-19.666
14242	11.807	5.2727	5.e-002	-4.831e-006
14243	12.084	5.2727	0.	-16.937
14244	11.992	5.1818	0.	-22.323
14245	11.992	5.2727	5.e-002	-3.3731e-006
14246	12.269	5.2727	0.	-18.655
14247	12.177	5.1818	0.	-24.042
14248	12.177	5.2727	5.e-002	-3.6648e-006
14249	12.454	5.2727	0.	-19.625
14250	12.361	5.1818	0.	-24.963
14251	12.361	5.2727	5.e-002	-4.0495e-006
14252	12.639	5.2727	0.	-19.974
14253	12.546	5.1818	0.	-25.218
14254	12.546	5.2727	5.e-002	-5.1027e-006
14255	12.823	5.2727	0.	-19.814
14256	12.731	5.1818	0.	-24.928
14257	12.731	5.2727	5.e-002	-3.0433e-006
14258	13.008	5.2727	0.	-19.247
14259	12.916	5.1818	0.	-24.203
14260	12.916	5.2727	5.e-002	-1.7771e-006
14261	13.193	5.2727	0.	-18.36
14262	13.1	5.1818	0.	-23.136
14263	13.1	5.2727	5.e-002	-1.6545e-006
14264	13.378	5.2727	0.	-17.227
14265	13.285	5.1818	0.	-21.806
14266	13.285	5.2727	5.e-002	-7.7279e-007
14267	13.562	5.2727	0.	-15.911
14268	13.47	5.1818	0.	-20.284
14269	13.47	5.2727	5.e-002	-4.6468e-007
14270	13.747	5.2727	0.	-14.465
14271	13.655	5.1818	0.	-18.624
14272	13.655	5.2727	5.e-002	-2.6352e-007
14273	13.932	5.2727	0.	-12.931
14274	13.839	5.1818	0.	-16.874
14275	13.839	5.2727	5.e-002	3.5451e-007
14276	14.116	5.2727	0.	-11.345
14277	14.024	5.1818	0.	-15.071
14278	14.024	5.2727	5.e-002	1.8148e-008
14279	14.301	5.2727	0.	-9.7332
14280	14.209	5.1818	0.	-13.247
14281	14.209	5.2727	5.e-002	1.4745e-006
14282	14.486	5.2727	0.	-8.1181
14283	14.394	5.1818	0.	-11.424
14284	14.394	5.2727	5.e-002	2.0502e-006
14285	14.671	5.2727	0.	-6.5164
14286	14.578	5.1818	0.	-9.62
14287	14.578	5.2727	5.e-002	9.8172e-008
14288	14.855	5.2727	0.	-4.9404
14289	14.763	5.1818	0.	-7.8495
14290	14.763	5.2727	5.e-002	1.3741e-006
14291	15.04	5.2727	0.	-3.3997
14292	14.948	5.1818	0.	-6.1218
14293	14.948	5.2727	5.e-002	5.4832e-007
14294	15.225	5.2727	0.	-1.9015
14295	15.133	5.1818	0.	-4.4438
14296	15.133	5.2727	5.e-002	1.8559e-006
14297	15.41	5.2727	0.	-0.4682
14298	15.317	5.1818	0.	-2.8202
14299	15.317	5.2727	5.e-002	2.923e-006
14300	15.594	5.2727	0.	-1.2877e-002
14301	15.502	5.1818	0.	-1.2579
14302	15.502	5.2727	5.e-002	1.9571e-006
14303	15.779	5.2727	0.	-4.4973e-003
14304	15.687	5.1818	0.	-5.9014e-002
14305	15.687	5.2727	5.e-002	1.7709e-006
14306	15.964	5.2727	0.	-2.6565e-003
14307	15.871	5.1818	0.	-9.5482e-003
14308	15.871	5.2727	5.e-002	2.8126e-006
14309	16.149	5.2727	0.	-2.0582e-003
14310	16.056	5.1818	0.	-4.6941e-003
14311	16.056	5.2727	5.e-002	3.1916e-006
14312	16.333	5.2727	0.	-1.8705e-003
14313	16.241	5.1818	0.	-3.0928e-003
14314	16.241	5.2727	5.e-002	3.4428e-006
14315	16.518	5.2727	0.	-1.8449e-003
14316	16.426	5.1818	0.	-2.373e-003
14317	16.426	5.2727	5.e-002	3.7947e-006
14318	16.703	5.2727	0.	-1.9025e-003
14319	16.61	5.1818	0.	-1.9997e-003
14320	16.61	5.2727	5.e-002	3.4861e-006
14321	16.888	5.2727	0.	-2.0298e-003
14322	16.795	5.1818	0.	-1.811e-003
14323	16.795	5.2727	5.e-002	4.1964e-006
14324	17.072	5.2727	0.	-2.2016e-003
14325	16.98	5.1818	0.	-1.7555e-003
14326	16.98	5.2727	5.e-002	2.6763e-006
14327	17.257	5.2727	0.	-2.3849e-003
14328	17.165	5.1818	0.	-1.7543e-003
14329	17.165	5.2727	5.e-002	2.9188e-006
14330	17.442	5.2727	0.	-2.5703e-003
14331	17.349	5.1818	0.	-1.7814e-003
14332	17.349	5.2727	5.e-002	5.5112e-006
14333	17.627	5.2727	0.	-2.7456e-003
14334	17.534	5.1818	0.	-1.8218e-003
14335	17.534	5.2727	5.e-002	4.2239e-006
14336	17.811	5.2727	0.	-2.913e-003
14337	17.719	5.1818	0.	-1.8534e-003
14338	17.719	5.2727	5.e-002	4.0084e-006
14339	17.996	5.2727	0.	-3.0988e-003
14340	17.904	5.1818	0.	-1.8932e-003
14341	17.904	5.2727	5.e-002	4.4591e-006
14342	18.181	5.2727	0.	-3.3023e-003
14343	18.088	5.1818	0.	-1.9703e-003
14344	18.088	5.2727	5.e-002	5.3947e-006
14345	18.365	5.2727	0.	-3.4953e-003
14346	18.273	5.1818	0.	-2.0485e-003
14347	18.273	5.2727	5.e-002	4.6431e-006
14348	18.55	5.2727	0.	-3.6684e-003
14349	18.458	5.1818	0.	-2.1058e-003
14350	18.458	5.2727	5.e-002	2.6941e-006
14351	18.735	5.2727	0.	-3.8316e-003
14352	18.643	5.1818	0.	-2.1413e-003
14353	18.643	5.2727	5.e-002	4.8039e-006
14354	18.92	5.2727	0.	-4.0069e-003
14355	18.827	5.1818	0.	-2.1746e-003
14356	18.827	5.2727	5.e-002	5.2124e-006
14357	19.104	5.2727	0.	-4.1911e-003
14358	19.012	5.1818	0.	-2.2259e-003
14359	19.012	5.2727	5.e-002	5.0061e-006
14360	19.289	5.2727	0.	-4.3682e-003
14361	19.197	5.1818	0.	-2.2636e-003
14362	19.197	5.2727	5.e-002	6.3755e-006
14363	19.474	5.2727	0.	-4.5351e-003
14364	19.382	5.1818	0.	-2.2872e-003
14365	19.382	5.2727	5.e-002	4.4319e-006
14366	19.659	5.2727	0.	-4.6835e-003
14367	19.566	5.1818	0.	-2.2883e-003
14368	19.566	5.2727	5.e-002	5.2877e-006
14369	19.843	5.2727	0.	-4.8159e-003
14370	19.751	5.1818	0.	-2.2554e-003
14371	19.751	5.2727	5.e-002	7.0341e-006
14372	20.028	5.2727	0.	-4.9449e-003
14373	19.936	5.1818	0.	-2.2001e-003
14374	19.936	5.2727	5.e-002	4.6735e-006
14375	20.213	5.2727	0.	-5.065e-003
14376	20.12	5.1818	0.	-2.1367e-003
14377	20.12	5.2727	5.e-002	7.1966e-006
14378	20.398	5.2727	0.	-5.1527e-003
14379	20.305	5.1818	0.	-2.033e-003
14380	20.305	5.2727	5.e-002	8.9577e-006
14381	20.582	5.2727	0.	-5.1933e-003
14382	20.49	5.1818	0.	-1.868e-003
14383	20.49	5.2727	5.e-002	6.7935e-006
14384	20.767	5.2727	0.	-5.1814e-003
14385	20.675	5.1818	0.	-1.6303e-003
14386	20.675	5.2727	5.e-002	5.889e-006
14387	20.952	5.2727	0.	-5.1088e-003
14388	20.859	5.1818	0.	-1.3126e-003
14389	20.859	5.2727	5.e-002	7.5745e-006
14390	21.137	5.2727	0.	-4.9529e-003
14391	21.044	5.1818	0.	-9.0144e-004
14392	21.044	5.2727	5.e-002	1.0853e-005
14393	21.321	5.2727	0.	-4.6761e-003
14394	21.229	5.1818	0.	-3.5562e-004
14395	21.229	5.2727	5.e-002	1.0098e-005
14396	21.506	5.2727	0.	-4.2283e-003
14397	21.414	5.1818	0.	3.7191e-004
14398	21.414	5.2727	5.e-002	7.9495e-006
14399	21.691	5.2727	0.	-3.5473e-003
14400	21.598	5.1818	0.	1.3441e-003
14401	21.598	5.2727	5.e-002	1.1301e-005
14402	21.876	5.2727	0.	-2.5511e-003
14403	21.783	5.1818	0.	2.638e-003
14404	21.783	5.2727	5.e-002	1.0727e-005
14405	22.06	5.2727	0.	-1.1212e-003
14406	21.968	5.1818	0.	4.3578e-003
14407	21.968	5.2727	5.e-002	6.6018e-006
14408	22.245	5.2727	0.	9.2188e-004
14409	22.153	5.1818	0.	6.6594e-003
14410	22.153	5.2727	5.e-002	1.0594e-005
14411	22.43	5.2727	0.	3.8723e-003
14412	22.337	5.1818	0.	9.7728e-003
14413	22.337	5.2727	5.e-002	1.0469e-005
14414	22.614	5.2727	0.	8.0956e-003
14415	22.522	5.1818	0.	1.4092e-002
14416	22.522	5.2727	5.e-002	1.2037e-005
14417	22.799	5.2727	0.	1.449e-002
14418	22.707	5.1818	0.	2.0003e-002
14419	22.707	5.2727	5.e-002	9.4035e-006
14420	22.984	5.2727	0.	2.3301e-002
14421	22.892	5.1818	0.	2.8997e-002
14422	22.892	5.2727	5.e-002	9.5738e-006
14423	23.169	5.2727	0.	4.0175e-002
14424	23.076	5.1818	0.	4.023e-002
14425	23.076	5.2727	5.e-002	1.2443e-005
14426	23.353	5.2727	0.	5.5667e-002
14427	23.261	5.1818	0.	6.6261e-002
14428	23.261	5.2727	5.e-002	1.4112e-005
14429	23.538	5.2727	0.	0.13561
14430	23.446	5.1818	0.	7.6693e-002
14431	23.446	5.2727	5.e-002	1.2897e-005
14432	23.723	5.2727	0.	9.1203e-002
14433	23.631	5.1818	0.	0.24035
14434	23.631	5.2727	5.e-002	1.5458e-005
14435	23.815	5.1818	0.	4.8341e-002
14436	23.815	5.2727	5.e-002	1.2616e-005
14437	23.908	5.2727	0.	0.3658
14438	8.9438	5.0909	0.	-4.3379
14439	8.8514	5.	0.	-7.979
14440	8.8514	5.0909	5.e-002	-6.9297e-006
14441	8.759	5.0909	0.	1.9866
14442	9.1285	5.0909	0.	-1.8922
14443	9.0361	5.	0.	-0.91232
14444	9.0361	5.0909	5.e-002	-2.5534e-005
14445	9.3133	5.0909	0.	-2.3584
14446	9.2209	5.	0.	-2.8007
14447	9.2209	5.0909	5.e-002	-3.2502e-005
14448	9.498	5.0909	0.	-1.9813
14449	9.4056	5.	0.	-2.1622
14450	9.4056	5.0909	5.e-002	-3.4291e-005
14451	9.6827	5.0909	0.	-1.7599
14452	9.5904	5.	0.	-2.0675
14453	9.5904	5.0909	5.e-002	-3.9915e-005
14454	9.8675	5.0909	0.	-1.5375
14455	9.7751	5.	0.	-1.8802
14456	9.7751	5.0909	5.e-002	-5.2229e-006
14457	10.052	5.0909	0.	-1.379
14458	9.9598	5.	0.	-1.7891
14459	9.9598	5.0909	5.e-002	-2.4939e-005
14460	10.237	5.0909	0.	-1.2805
14461	10.145	5.	0.	-1.7772
14462	10.145	5.0909	5.e-002	-3.9563e-005
14463	10.422	5.0909	0.	-1.2637
14464	10.329	5.	0.	-1.9117
14465	10.329	5.0909	5.e-002	-2.7305e-006
14466	10.606	5.0909	0.	-1.3843
14467	10.514	5.	0.	-2.387
14468	10.514	5.0909	5.e-002	-2.7242e-005
14469	10.791	5.0909	0.	-1.8622
14470	10.699	5.	0.	-4.0678
14471	10.699	5.0909	5.e-002	-2.8348e-005
14472	10.976	5.0909	0.	-3.8589
14473	10.884	5.	0.	-9.4377
14474	10.884	5.0909	5.e-002	-3.0413e-005
14475	11.161	5.0909	0.	-9.4692
14476	11.068	5.	0.	-16.88
14477	11.068	5.0909	5.e-002	-1.1885e-006
14478	11.345	5.0909	0.	-15.744
14479	11.253	5.	0.	-23.416
14480	11.253	5.0909	5.e-002	-3.5648e-006
14481	11.53	5.0909	0.	-20.921
14482	11.438	5.	0.	-28.545
14483	11.438	5.0909	5.e-002	-2.149e-005
14484	11.715	5.0909	0.	-24.851
14485	11.622	5.	0.	-32.325
14486	11.622	5.0909	5.e-002	-5.2647e-006
14487	11.9	5.0909	0.	-27.632
14488	11.807	5.	0.	-34.907
14489	11.807	5.0909	5.e-002	-1.329e-005
14490	12.084	5.0909	0.	-29.409
14491	11.992	5.	0.	-36.452
14492	11.992	5.0909	5.e-002	-5.7212e-006
14493	12.269	5.0909	0.	-30.33
14494	12.177	5.	0.	-37.118
14495	12.177	5.0909	5.e-002	-5.6361e-006
14496	12.454	5.0909	0.	-30.534
14497	12.361	5.	0.	-37.052
14498	12.361	5.0909	5.e-002	-5.101e-006
14499	12.639	5.0909	0.	-30.152
14500	12.546	5.	0.	-36.387
14501	12.546	5.0909	5.e-002	-6.3814e-006
14502	12.823	5.0909	0.	-29.298
14503	12.731	5.	0.	-35.243
14504	12.731	5.0909	5.e-002	-4.263e-006
14505	13.008	5.0909	0.	-28.073
14506	12.916	5.	0.	-33.724
14507	12.916	5.0909	5.e-002	-3.6831e-006
14508	13.193	5.0909	0.	-26.563
14509	13.1	5.	0.	-31.921
14510	13.1	5.0909	5.e-002	-2.8965e-006
14511	13.378	5.0909	0.	-24.844
14512	13.285	5.	0.	-29.911
14513	13.285	5.0909	5.e-002	-3.8731e-007
14514	13.562	5.0909	0.	-22.978
14515	13.47	5.	0.	-27.757
14516	13.47	5.0909	5.e-002	-1.3774e-006
14517	13.747	5.0909	0.	-21.014
14518	13.655	5.	0.	-25.513
14519	13.655	5.0909	5.e-002	-1.951e-006
14520	13.932	5.0909	0.	-18.995
14521	13.839	5.	0.	-23.222
14522	13.839	5.0909	5.e-002	-8.0158e-007
14523	14.116	5.0909	0.	-16.954
14524	14.024	5.	0.	-20.919
14525	14.024	5.0909	5.e-002	-9.6849e-007
14526	14.301	5.0909	0.	-14.918
14527	14.209	5.	0.	-18.631
14528	14.209	5.0909	5.e-002	3.7437e-007
14529	14.486	5.0909	0.	-12.905
14530	14.394	5.	0.	-16.379
14531	14.394	5.0909	5.e-002	5.4588e-007
14532	14.671	5.0909	0.	-10.932
14533	14.578	5.	0.	-14.178
14534	14.578	5.0909	5.e-002	-1.2287e-006
14535	14.855	5.0909	0.	-9.0093
14536	14.763	5.	0.	-12.039
14537	14.763	5.0909	5.e-002	-2.8209e-007
14538	15.04	5.0909	0.	-7.1439
14539	14.948	5.	0.	-9.9693
14540	14.948	5.0909	5.e-002	-3.9289e-007
14541	15.225	5.0909	0.	-5.3406
14542	15.133	5.	0.	-7.9732
14543	15.133	5.0909	5.e-002	9.0911e-007
14544	15.41	5.0909	0.	-3.602
14545	15.317	5.	0.	-6.0528
14546	15.317	5.0909	5.e-002	2.0724e-006
14547	15.594	5.0909	0.	-1.9311
14548	15.502	5.	0.	-4.2083
14549	15.502	5.0909	5.e-002	1.3648e-006
14550	15.779	5.0909	0.	-0.37035
14551	15.687	5.	0.	-2.44
14552	15.687	5.0909	5.e-002	1.1577e-006
14553	15.964	5.0909	0.	-1.683e-002
14554	15.871	5.	0.	-0.76224
14555	15.871	5.0909	5.e-002	2.4205e-006
14556	16.149	5.0909	0.	-6.6412e-003
14557	16.056	5.	0.	-2.644e-002
14558	16.056	5.0909	5.e-002	2.7768e-006
14559	16.333	5.0909	0.	-3.828e-003
14560	16.241	5.	0.	-8.2493e-003
14561	16.241	5.0909	5.e-002	2.8865e-006
14562	16.518	5.0909	0.	-2.5693e-003
14563	16.426	5.	0.	-4.2353e-003
14564	16.426	5.0909	5.e-002	3.3068e-006
14565	16.703	5.0909	0.	-1.884e-003
14566	16.61	5.	0.	-2.5142e-003
14567	16.61	5.0909	5.e-002	3.24e-006
14568	16.888	5.0909	0.	-1.4897e-003
14569	16.795	5.	0.	-1.5815e-003
14570	16.795	5.0909	5.e-002	3.2812e-006
14571	17.072	5.0909	0.	-1.2561e-003
14572	16.98	5.	0.	-1.0339e-003
14573	16.98	5.0909	5.e-002	1.8267e-006
14574	17.257	5.0909	0.	-1.1017e-003
14575	17.165	5.	0.	-6.673e-004
14576	17.165	5.0909	5.e-002	1.8662e-006
14577	17.442	5.0909	0.	-9.906e-004
14578	17.349	5.	0.	-3.981e-004
14579	17.349	5.0909	5.e-002	4.5356e-006
14580	17.627	5.0909	0.	-8.9632e-004
14581	17.534	5.	0.	-1.8543e-004
14582	17.534	5.0909	5.e-002	3.3412e-006
14583	17.811	5.0909	0.	-8.1054e-004
14584	17.719	5.	0.	1.2676e-005
14585	17.719	5.0909	5.e-002	3.6747e-006
14586	17.996	5.0909	0.	-7.5256e-004
14587	17.904	5.	0.	1.8584e-004
14588	17.904	5.0909	5.e-002	3.9828e-006
14589	18.181	5.0909	0.	-7.159e-004
14590	18.088	5.	0.	3.1373e-004
14591	18.088	5.0909	5.e-002	5.1854e-006
14592	18.365	5.0909	0.	-6.7045e-004
14593	18.273	5.	0.	4.3583e-004
14594	18.273	5.0909	5.e-002	3.7501e-006
14595	18.55	5.0909	0.	-6.0284e-004
14596	18.458	5.	0.	5.7699e-004
14597	18.458	5.0909	5.e-002	1.8246e-006
14598	18.735	5.0909	0.	-5.2196e-004
14599	18.643	5.	0.	7.426e-004
14600	18.643	5.0909	5.e-002	4.0533e-006
14601	18.92	5.0909	0.	-4.4551e-004
14602	18.827	5.	0.	9.135e-004
14603	18.827	5.0909	5.e-002	4.2696e-006
14604	19.104	5.0909	0.	-3.657e-004
14605	19.012	5.	0.	1.0756e-003
14606	19.012	5.0909	5.e-002	4.4778e-006
14607	19.289	5.0909	0.	-2.6624e-004
14608	19.197	5.	0.	1.2575e-003
14609	19.197	5.0909	5.e-002	6.3534e-006
14610	19.474	5.0909	0.	-1.4186e-004
14611	19.382	5.	0.	1.4662e-003
14612	19.382	5.0909	5.e-002	3.9155e-006
14613	19.659	5.0909	0.	1.8745e-005
14614	19.566	5.	0.	1.7094e-003
14615	19.566	5.0909	5.e-002	4.1125e-006
14616	19.843	5.0909	0.	2.1776e-004
14617	19.751	5.	0.	2.0019e-003
14618	19.751	5.0909	5.e-002	6.1144e-006
14619	20.028	5.0909	0.	4.4156e-004
14620	19.936	5.	0.	2.3347e-003
14621	19.936	5.0909	5.e-002	3.9095e-006
14622	20.213	5.0909	0.	7.0212e-004
14623	20.12	5.	0.	2.6946e-003
14624	20.12	5.0909	5.e-002	5.8685e-006
14625	20.398	5.0909	0.	1.0284e-003
14626	20.305	5.	0.	3.1183e-003
14627	20.305	5.0909	5.e-002	8.0657e-006
14628	20.582	5.0909	0.	1.4377e-003
14629	20.49	5.	0.	3.6292e-003
14630	20.49	5.0909	5.e-002	4.9919e-006
14631	20.767	5.0909	0.	1.9424e-003
14632	20.675	5.	0.	4.2444e-003
14633	20.675	5.0909	5.e-002	5.6042e-006
14634	20.952	5.0909	0.	2.554e-003
14635	20.859	5.	0.	4.9723e-003
14636	20.859	5.0909	5.e-002	6.8887e-006
14637	21.137	5.0909	0.	3.3033e-003
14638	21.044	5.	0.	5.8319e-003
14639	21.044	5.0909	5.e-002	1.0466e-005
14640	21.321	5.0909	0.	4.2393e-003
14641	21.229	5.	0.	6.8725e-003
14642	21.229	5.0909	5.e-002	9.4887e-006
14643	21.506	5.0909	0.	5.4194e-003
14644	21.414	5.	0.	8.1459e-003
14645	21.414	5.0909	5.e-002	7.8114e-006
14646	21.691	5.0909	0.	6.9185e-003
14647	21.598	5.	0.	9.7189e-003
14648	21.598	5.0909	5.e-002	1.1152e-005
14649	21.876	5.0909	0.	8.8314e-003
14650	21.783	5.	0.	1.1683e-002
14651	21.783	5.0909	5.e-002	9.6339e-006
14652	22.06	5.0909	0.	1.1293e-002
14653	21.968	5.	0.	1.4148e-002
14654	21.968	5.0909	5.e-002	6.5268e-006
14655	22.245	5.0909	0.	1.4501e-002
14656	22.153	5.	0.	1.7279e-002
14657	22.153	5.0909	5.e-002	1.0207e-005
14658	22.43	5.0909	0.	1.8767e-002
14659	22.337	5.	0.	2.1318e-002
14660	22.337	5.0909	5.e-002	1.139e-005
14661	22.614	5.0909	0.	2.448e-002
14662	22.522	5.	0.	2.6666e-002
14663	22.522	5.0909	5.e-002	1.1688e-005
14664	22.799	5.0909	0.	3.2564e-002
14665	22.707	5.	0.	3.3729e-002
14666	22.707	5.0909	5.e-002	8.3564e-006
14667	22.984	5.0909	0.	4.3299e-002
14668	22.892	5.	0.	4.4013e-002
14669	22.892	5.0909	5.e-002	8.2995e-006
14670	23.169	5.0909	0.	6.2442e-002
14671	23.076	5.	0.	5.6703e-002
14672	23.076	5.0909	5.e-002	1.08e-005
14673	23.353	5.0909	0.	8.057e-002
14674	23.261	5.	0.	8.459e-002
14675	23.261	5.0909	5.e-002	1.289e-005
14676	23.538	5.0909	0.	0.16577
14677	23.446	5.	0.	9.7127e-002
14678	23.446	5.0909	5.e-002	1.2734e-005
14679	23.723	5.0909	0.	0.13196
14680	23.631	5.	0.	0.26727
14681	23.631	5.0909	5.e-002	1.493e-005
14682	23.815	5.	0.	8.9992e-002
14683	23.815	5.0909	5.e-002	1.2299e-005
14684	23.908	5.0909	0.	0.38902
14685	8.9438	4.9091	0.	-5.0402
14686	8.8514	4.8182	0.	-8.3196
14687	8.8514	4.9091	5.e-002	-2.8423e-005
14688	8.759	4.9091	0.	0.6249
14689	9.1285	4.9091	0.	-1.898
14690	9.0361	4.8182	0.	-0.93441
14691	9.0361	4.9091	5.e-002	-2.4517e-005
14692	9.3133	4.9091	0.	-2.631
14693	9.2209	4.8182	0.	-3.2025
14694	9.2209	4.9091	5.e-002	-2.9996e-005
14695	9.498	4.9091	0.	-2.2543
14696	9.4056	4.8182	0.	-2.5207
14697	9.4056	4.9091	5.e-002	-4.7912e-005
14698	9.6827	4.9091	0.	-2.1956
14699	9.5904	4.8182	0.	-2.499
14700	9.5904	4.9091	5.e-002	-3.1088e-005
14701	9.8675	4.9091	0.	-2.1725
14702	9.7751	4.8182	0.	-2.566
14703	9.7751	4.9091	5.e-002	-5.593e-005
14704	10.052	4.9091	0.	-2.3075
14705	9.9598	4.8182	0.	-2.9434
14706	9.9598	4.9091	5.e-002	-3.2452e-005
14707	10.237	4.9091	0.	-2.7156
14708	10.145	4.8182	0.	-3.9662
14709	10.145	4.9091	5.e-002	-5.1928e-005
14710	10.422	4.9091	0.	-3.9102
14711	10.329	4.8182	0.	-7.2786
14712	10.329	4.9091	5.e-002	-2.7142e-005
14713	10.606	4.9091	0.	-7.9498
14714	10.514	4.8182	0.	-16.246
14715	10.514	4.9091	5.e-002	-3.1e-005
14716	10.791	4.9091	0.	-16.15
14717	10.699	4.8182	0.	-26.925
14718	10.699	4.9091	5.e-002	6.9551e-009
14719	10.976	4.9091	0.	-24.434
14720	10.884	4.8182	0.	-35.671
14721	10.884	4.9091	5.e-002	-8.7596e-007
14722	11.161	4.9091	0.	-31.17
14723	11.068	4.8182	0.	-42.265
14724	11.068	4.9091	5.e-002	-2.9337e-005
14725	11.345	4.9091	0.	-36.289
14726	11.253	4.8182	0.	-47.009
14727	11.253	4.9091	5.e-002	-7.1147e-006
14728	11.53	4.9091	0.	-39.96
14729	11.438	4.8182	0.	-50.203
14730	11.438	4.9091	5.e-002	-8.1009e-006
14731	11.715	4.9091	0.	-42.372
14732	11.622	4.8182	0.	-52.099
14733	11.622	4.9091	5.e-002	-8.3171e-006
14734	11.9	4.9091	0.	-43.71
14735	11.807	4.8182	0.	-52.911
14736	11.807	4.9091	5.e-002	-7.6855e-006
14737	12.084	4.9091	0.	-44.141
14738	11.992	4.8182	0.	-52.823
14739	11.992	4.9091	5.e-002	-8.4892e-006
14740	12.269	4.9091	0.	-43.82
14741	12.177	4.8182	0.	-51.995
14742	12.177	4.9091	5.e-002	-2.1207e-006
14743	12.454	4.9091	0.	-42.885
14744	12.361	4.8182	0.	-50.571
14745	12.361	4.9091	5.e-002	-6.3159e-006
14746	12.639	4.9091	0.	-41.459
14747	12.546	4.8182	0.	-48.675
14748	12.546	4.9091	5.e-002	-5.2368e-006
14749	12.823	4.9091	0.	-39.651
14750	12.731	4.8182	0.	-46.418
14751	12.731	4.9091	5.e-002	-4.8452e-006
14752	13.008	4.9091	0.	-37.555
14753	12.916	4.8182	0.	-43.892
14754	12.916	4.9091	5.e-002	-3.5268e-006
14755	13.193	4.9091	0.	-35.251
14756	13.1	4.8182	0.	-41.179
14757	13.1	4.9091	5.e-002	-2.5473e-006
14758	13.378	4.9091	0.	-32.805
14759	13.285	4.8182	0.	-38.345
14760	13.285	4.9091	5.e-002	-3.4991e-006
14761	13.562	4.9091	0.	-30.274
14762	13.47	4.8182	0.	-35.447
14763	13.47	4.9091	5.e-002	-8.2237e-007
14764	13.747	4.9091	0.	-27.703
14765	13.655	4.8182	0.	-32.528
14766	13.655	4.9091	5.e-002	-2.3013e-006
14767	13.932	4.9091	0.	-25.128
14768	13.839	4.8182	0.	-29.626
14769	13.839	4.9091	5.e-002	-1.2365e-006
14770	14.116	4.9091	0.	-22.578
14771	14.024	4.8182	0.	-26.767
14772	14.024	4.9091	5.e-002	-1.5795e-006
14773	14.301	4.9091	0.	-20.074
14774	14.209	4.8182	0.	-23.974
14775	14.209	4.9091	5.e-002	4.2993e-007
14776	14.486	4.9091	0.	-17.633
14777	14.394	4.8182	0.	-21.261
14778	14.394	4.9091	5.e-002	-1.9997e-007
14779	14.671	4.9091	0.	-15.265
14780	14.578	4.8182	0.	-18.639
14781	14.578	4.9091	5.e-002	-9.7307e-007
14782	14.855	4.9091	0.	-12.978
14783	14.763	4.8182	0.	-16.115
14784	14.763	4.9091	5.e-002	-1.4739e-007
14785	15.04	4.9091	0.	-10.777
14786	14.948	4.8182	0.	-13.693
14787	14.948	4.9091	5.e-002	-5.2762e-007
14788	15.225	4.9091	0.	-8.6634
14789	15.133	4.8182	0.	-11.372
14790	15.133	4.9091	5.e-002	9.4086e-007
14791	15.41	4.9091	0.	-6.6364
14792	15.317	4.8182	0.	-9.1529
14793	15.317	4.9091	5.e-002	2.5093e-006
14794	15.594	4.9091	0.	-4.6947
14795	15.502	4.8182	0.	-7.0317
14796	15.502	4.9091	5.e-002	1.5777e-006
14797	15.779	4.9091	0.	-2.8365
14798	15.687	4.8182	0.	-5.0049
14799	15.687	4.9091	5.e-002	1.7504e-006
14800	15.964	4.9091	0.	-1.0681
14801	15.871	4.8182	0.	-3.0687
14802	15.871	4.9091	5.e-002	2.779e-006
14803	16.149	4.9091	0.	-3.7701e-002
14804	16.056	4.8182	0.	-1.2262
14805	16.056	4.9091	5.e-002	3.4597e-006
14806	16.333	4.9091	0.	-9.1664e-003
14807	16.241	4.8182	0.	-4.442e-002
14808	16.241	4.9091	5.e-002	3.5024e-006
14809	16.518	4.9091	0.	-4.1726e-003
14810	16.426	4.8182	0.	-9.1485e-003
14811	16.426	4.9091	5.e-002	4.0209e-006
14812	16.703	4.9091	0.	-2.1295e-003
14813	16.61	4.8182	0.	-3.6925e-003
14814	16.61	4.9091	5.e-002	3.6401e-006
14815	16.888	4.9091	0.	-1.0395e-003
14816	16.795	4.8182	0.	-1.4947e-003
14817	16.795	4.9091	5.e-002	4.0072e-006
14818	17.072	4.9091	0.	-3.7039e-004
14819	16.98	4.8182	0.	-3.2488e-004
14820	16.98	4.9091	5.e-002	2.0901e-006
14821	17.257	4.9091	0.	9.5964e-005
14822	17.165	4.8182	0.	4.218e-004
14823	17.165	4.9091	5.e-002	2.0623e-006
14824	17.442	4.9091	0.	4.5169e-004
14825	17.349	4.8182	0.	9.608e-004
14826	17.349	4.9091	5.e-002	4.7539e-006
14827	17.627	4.9091	0.	7.5375e-004
14828	17.534	4.8182	0.	1.3837e-003
14829	17.534	4.9091	5.e-002	3.461e-006
14830	17.811	4.9091	0.	1.0255e-003
14831	17.719	4.8182	0.	1.7627e-003
14832	17.719	4.9091	5.e-002	4.4728e-006
14833	17.996	4.9091	0.	1.2555e-003
14834	17.904	4.8182	0.	2.0965e-003
14835	17.904	4.9091	5.e-002	5.1544e-006
14836	18.181	4.9091	0.	1.4562e-003
14837	18.088	4.8182	0.	2.3745e-003
14838	18.088	4.9091	5.e-002	6.3541e-006
14839	18.365	4.9091	0.	1.6616e-003
14840	18.273	4.8182	0.	2.6413e-003
14841	18.273	4.9091	5.e-002	4.8089e-006
14842	18.55	4.9091	0.	1.8884e-003
14843	18.458	4.8182	0.	2.926e-003
14844	18.458	4.9091	5.e-002	2.3908e-006
14845	18.735	4.9091	0.	2.1314e-003
14846	18.643	4.8182	0.	3.2333e-003
14847	18.643	4.9091	5.e-002	4.7413e-006
14848	18.92	4.9091	0.	2.3751e-003
14849	18.827	4.8182	0.	3.5508e-003
14850	18.827	4.9091	5.e-002	4.7865e-006
14851	19.104	4.9091	0.	2.626e-003
14852	19.012	4.8182	0.	3.8627e-003
14853	19.012	4.9091	5.e-002	5.3511e-006
14854	19.289	4.9091	0.	2.9031e-003
14855	19.197	4.8182	0.	4.1987e-003
14856	19.197	4.9091	5.e-002	6.4963e-006
14857	19.474	4.9091	0.	3.2156e-003
14858	19.382	4.8182	0.	4.5689e-003
14859	19.382	4.9091	5.e-002	4.0721e-006
14860	19.659	4.9091	0.	3.5746e-003
14861	19.566	4.8182	0.	4.9827e-003
14862	19.566	4.9091	5.e-002	5.3816e-006
14863	19.843	4.9091	0.	3.9835e-003
14864	19.751	4.8182	0.	5.4557e-003
14865	19.751	4.9091	5.e-002	6.2496e-006
14866	20.028	4.9091	0.	4.4334e-003
14867	19.936	4.8182	0.	5.978e-003
14868	19.936	4.9091	5.e-002	4.4397e-006
14869	20.213	4.9091	0.	4.9355e-003
14870	20.12	4.8182	0.	6.5439e-003
14871	20.12	4.9091	5.e-002	7.1404e-006
14872	20.398	4.9091	0.	5.5206e-003
14873	20.305	4.8182	0.	7.1865e-003
14874	20.305	4.9091	5.e-002	9.4293e-006
14875	20.582	4.9091	0.	6.2113e-003
14876	20.49	4.8182	0.	7.9319e-003
14877	20.49	4.9091	5.e-002	5.8776e-006
14878	20.767	4.9091	0.	7.0202e-003
14879	20.675	4.8182	0.	8.8e-003
14880	20.675	4.9091	5.e-002	6.0529e-006
14881	20.952	4.9091	0.	7.9625e-003
14882	20.859	4.8182	0.	9.8021e-003
14883	20.859	4.9091	5.e-002	7.8093e-006
14884	21.137	4.9091	0.	9.0749e-003
14885	21.044	4.8182	0.	1.0957e-002
14886	21.044	4.9091	5.e-002	1.0557e-005
14887	21.321	4.9091	0.	1.0408e-002
14888	21.229	4.8182	0.	1.232e-002
14889	21.229	4.9091	5.e-002	1.1322e-005
14890	21.506	4.9091	0.	1.2021e-002
14891	21.414	4.8182	0.	1.3944e-002
14892	21.414	4.9091	5.e-002	9.9483e-006
14893	21.691	4.9091	0.	1.3996e-002
14894	21.598	4.8182	0.	1.5898e-002
14895	21.598	4.9091	5.e-002	1.3262e-005
14896	21.876	4.9091	0.	1.6435e-002
14897	21.783	4.8182	0.	1.8276e-002
14898	21.783	4.9091	5.e-002	1.1558e-005
14899	22.06	4.9091	0.	1.9473e-002
14900	21.968	4.8182	0.	2.1194e-002
14901	21.968	4.9091	5.e-002	8.2454e-006
14902	22.245	4.9091	0.	2.3311e-002
14903	22.153	4.8182	0.	2.4814e-002
14904	22.153	4.9091	5.e-002	1.0515e-005
14905	22.43	4.9091	0.	2.8266e-002
14906	22.337	4.8182	0.	2.9383e-002
14907	22.337	4.9091	5.e-002	1.1532e-005
14908	22.614	4.9091	0.	3.4731e-002
14909	22.522	4.8182	0.	3.5305e-002
14910	22.522	4.9091	5.e-002	1.26e-005
14911	22.799	4.9091	0.	4.3637e-002
14912	22.707	4.8182	0.	4.2985e-002
14913	22.707	4.9091	5.e-002	8.6963e-006
14914	22.984	4.9091	0.	5.527e-002
14915	22.892	4.8182	0.	5.3949e-002
14916	22.892	4.9091	5.e-002	9.1698e-006
14917	23.169	4.9091	0.	7.5518e-002
14918	23.076	4.8182	0.	6.7405e-002
14919	23.076	4.9091	5.e-002	1.2991e-005
14920	23.353	4.9091	0.	9.4948e-002
14921	23.261	4.8182	0.	9.6367e-002
14922	23.261	4.9091	5.e-002	1.3726e-005
14923	23.538	4.9091	0.	0.18313
14924	23.446	4.8182	0.	0.11017
14925	23.446	4.9091	5.e-002	1.4547e-005
14926	23.723	4.9091	0.	0.15621
14927	23.631	4.8182	0.	0.28468
14928	23.631	4.9091	5.e-002	1.5084e-005
14929	23.815	4.8182	0.	0.11868
14930	23.815	4.9091	5.e-002	1.3379e-005
14931	23.908	4.9091	0.	0.39922
14932	8.9438	4.7273	0.	-4.5995
14933	8.8514	4.6364	0.	-15.624
14934	8.8514	4.7273	5.e-002	-4.3415e-005
14935	8.759	4.7273	0.	5.4443
14936	9.1285	4.7273	0.	-2.2641
14937	9.0361	4.6364	0.	-1.5808
14938	9.0361	4.7273	5.e-002	-4.1786e-005
14939	9.3133	4.7273	0.	-3.0789
14940	9.2209	4.6364	0.	-3.6524
14941	9.2209	4.7273	5.e-002	-7.789e-005
14942	9.498	4.7273	0.	-2.7364
14943	9.4056	4.6364	0.	-3.138
14944	9.4056	4.7273	5.e-002	-7.496e-005
14945	9.6827	4.7273	0.	-2.854
14946	9.5904	4.6364	0.	-3.2092
14947	9.5904	4.7273	5.e-002	-5.4472e-005
14948	9.8675	4.7273	0.	-3.4091
14949	9.7751	4.6364	0.	-3.9446
14950	9.7751	4.7273	5.e-002	-2.3199e-005
14951	10.052	4.7273	0.	-5.1149
14952	9.9598	4.6364	0.	-6.8193
14953	9.9598	4.7273	5.e-002	-8.77e-005
14954	10.237	4.7273	0.	-11.392
14955	10.145	4.6364	0.	-18.857
14956	10.145	4.7273	5.e-002	-9.2928e-005
14957	10.422	4.7273	0.	-25.012
14958	10.329	4.6364	0.	-37.923
14959	10.329	4.7273	5.e-002	-3.0398e-005
14960	10.606	4.7273	0.	-37.7
14961	10.514	4.6364	0.	-52.474
14962	10.514	4.7273	5.e-002	-5.543e-007
14963	10.791	4.7273	0.	-47.097
14964	10.699	4.6364	0.	-62.284
14965	10.699	4.7273	5.e-002	-2.4202e-006
14966	10.976	4.7273	0.	-53.722
14967	10.884	4.6364	0.	-68.63
14968	10.884	4.7273	5.e-002	-2.941e-005
14969	11.161	4.7273	0.	-58.186
14970	11.068	4.6364	0.	-72.471
14971	11.068	4.7273	5.e-002	-6.5356e-006
14972	11.345	4.7273	0.	-60.948
14973	11.253	4.6364	0.	-74.449
14974	11.253	4.7273	5.e-002	-1.001e-005
14975	11.53	4.7273	0.	-62.342
14976	11.438	4.6364	0.	-75.
14977	11.438	4.7273	5.e-002	-1.0869e-005
14978	11.715	4.7273	0.	-62.626
14979	11.622	4.6364	0.	-74.437
14980	11.622	4.7273	5.e-002	-1.3073e-005
14981	11.9	4.7273	0.	-62.008
14982	11.807	4.6364	0.	-72.994
14983	11.807	4.7273	5.e-002	-1.1086e-005
14984	12.084	4.7273	0.	-60.659
14985	11.992	4.6364	0.	-70.861
14986	11.992	4.7273	5.e-002	-4.5805e-006
14987	12.269	4.7273	0.	-58.728
14988	12.177	4.6364	0.	-68.191
14989	12.177	4.7273	5.e-002	-9.4986e-006
14990	12.454	4.7273	0.	-56.344
14991	12.361	4.6364	0.	-65.115
14992	12.361	4.7273	5.e-002	-7.0261e-006
14993	12.639	4.7273	0.	-53.617
14994	12.546	4.6364	0.	-61.742
14995	12.546	4.7273	5.e-002	-7.4535e-006
14996	12.823	4.7273	0.	-50.642
14997	12.731	4.6364	0.	-58.167
14998	12.731	4.7273	5.e-002	-7.6145e-006
14999	13.008	4.7273	0.	-47.5
15000	12.916	4.6364	0.	-54.468
15001	12.916	4.7273	5.e-002	-6.858e-006
15002	13.193	4.7273	0.	-44.258
15003	13.1	4.6364	0.	-50.709
15004	13.1	4.7273	5.e-002	-3.4467e-006
15005	13.378	4.7273	0.	-40.971
15006	13.285	4.6364	0.	-46.943
15007	13.285	4.7273	5.e-002	-4.3519e-006
15008	13.562	4.7273	0.	-37.685
15009	13.47	4.6364	0.	-43.212
15010	13.47	4.7273	5.e-002	-2.4334e-006
15011	13.747	4.7273	0.	-34.434
15012	13.655	4.6364	0.	-39.551
15013	13.655	4.7273	5.e-002	-3.2613e-006
15014	13.932	4.7273	0.	-31.248
15015	13.839	4.6364	0.	-35.984
15016	13.839	4.7273	5.e-002	-2.6022e-006
15017	14.116	4.7273	0.	-28.146
15018	14.024	4.6364	0.	-32.53
15019	14.024	4.7273	5.e-002	-2.5839e-006
15020	14.301	4.7273	0.	-25.143
15021	14.209	4.6364	0.	-29.202
15022	14.209	4.7273	5.e-002	-9.0824e-007
15023	14.486	4.7273	0.	-22.249
15024	14.394	4.6364	0.	-26.007
15025	14.394	4.7273	5.e-002	-7.0849e-007
15026	14.671	4.7273	0.	-19.47
15027	14.578	4.6364	0.	-22.951
15028	14.578	4.7273	5.e-002	-2.4297e-006
15029	14.855	4.7273	0.	-16.81
15030	14.763	4.6364	0.	-20.034
15031	14.763	4.7273	5.e-002	-1.1999e-006
15032	15.04	4.7273	0.	-14.267
15033	14.948	4.6364	0.	-17.255
15034	14.948	4.7273	5.e-002	-1.2975e-006
15035	15.225	4.7273	0.	-11.841
15036	15.133	4.6364	0.	-14.609
15037	15.133	4.7273	5.e-002	4.8138e-007
15038	15.41	4.7273	0.	-9.5261
15039	15.317	4.6364	0.	-12.093
15040	15.317	4.7273	5.e-002	1.7138e-006
15041	15.594	4.7273	0.	-7.3191
15042	15.502	4.6364	0.	-9.6988
15043	15.502	4.7273	5.e-002	1.0039e-006
15044	15.779	4.7273	0.	-5.2137
15045	15.687	4.6364	0.	-7.4208
15046	15.687	4.7273	5.e-002	1.409e-006
15047	15.964	4.7273	0.	-3.2047
15048	15.871	4.6364	0.	-5.251
15049	15.871	4.7273	5.e-002	2.4679e-006
15050	16.149	4.7273	0.	-1.293
15051	16.056	4.6364	0.	-3.1826
15052	16.056	4.7273	5.e-002	3.073e-006
15053	16.333	4.7273	0.	-4.4032e-002
15054	16.241	4.6364	0.	-1.2161
15055	16.241	4.7273	5.e-002	3.1523e-006
15056	16.518	4.7273	0.	-8.1809e-003
15057	16.426	4.6364	0.	-3.4683e-002
15058	16.426	4.7273	5.e-002	3.5253e-006
15059	16.703	4.7273	0.	-2.7858e-003
15060	16.61	4.6364	0.	-6.4326e-003
15061	16.61	4.7273	5.e-002	3.1545e-006
15062	16.888	4.7273	0.	-6.0952e-004
15063	16.795	4.6364	0.	-1.5974e-003
15064	16.795	4.7273	5.e-002	3.339e-006
15065	17.072	4.7273	0.	5.8022e-004
15066	16.98	4.6364	0.	4.1825e-004
15067	16.98	4.7273	5.e-002	1.6692e-006
15068	17.257	4.7273	0.	1.3619e-003
15069	17.165	4.6364	0.	1.5676e-003
15070	17.165	4.7273	5.e-002	1.4135e-006
15071	17.442	4.7273	0.	1.9411e-003
15072	17.349	4.6364	0.	2.3494e-003
15073	17.349	4.7273	5.e-002	4.4632e-006
15074	17.627	4.7273	0.	2.4201e-003
15075	17.534	4.6364	0.	2.9461e-003
15076	17.534	4.7273	5.e-002	2.9973e-006
15077	17.811	4.7273	0.	2.844e-003
15078	17.719	4.6364	0.	3.4658e-003
15079	17.719	4.7273	5.e-002	3.9359e-006
15080	17.996	4.7273	0.	3.2112e-003
15081	17.904	4.6364	0.	3.9213e-003
15082	17.904	4.7273	5.e-002	4.4759e-006
15083	18.181	4.7273	0.	3.5423e-003
15084	18.088	4.6364	0.	4.3121e-003
15085	18.088	4.7273	5.e-002	5.9499e-006
15086	18.365	4.7273	0.	3.8763e-003
15087	18.273	4.6364	0.	4.6873e-003
15088	18.273	4.7273	5.e-002	4.4109e-006
15089	18.55	4.7273	0.	4.23e-003
15090	18.458	4.6364	0.	5.0795e-003
15091	18.458	4.7273	5.e-002	1.8006e-006
15092	18.735	4.7273	0.	4.6006e-003
15093	18.643	4.6364	0.	5.4931e-003
15094	18.643	4.7273	5.e-002	3.6492e-006
15095	18.92	4.7273	0.	4.9751e-003
15096	18.827	4.6364	0.	5.9219e-003
15097	18.827	4.7273	5.e-002	4.2632e-006
15098	19.104	4.7273	0.	5.3609e-003
15099	19.012	4.6364	0.	6.3452e-003
15100	19.012	4.7273	5.e-002	4.8402e-006
15101	19.289	4.7273	0.	5.7783e-003
15102	19.197	4.6364	0.	6.7999e-003
15103	19.197	4.7273	5.e-002	6.0154e-006
15104	19.474	4.7273	0.	6.2377e-003
15105	19.382	4.6364	0.	7.2927e-003
15106	19.382	4.7273	5.e-002	3.632e-006
15107	19.659	4.7273	0.	6.7526e-003
15108	19.566	4.6364	0.	7.8345e-003
15109	19.566	4.7273	5.e-002	3.7873e-006
15110	19.843	4.7273	0.	7.3251e-003
15111	19.751	4.6364	0.	8.4433e-003
15112	19.751	4.7273	5.e-002	5.5523e-006
15113	20.028	4.7273	0.	7.9485e-003
15114	19.936	4.6364	0.	9.1092e-003
15115	19.936	4.7273	5.e-002	3.137e-006
15116	20.213	4.7273	0.	8.6386e-003
15117	20.12	4.6364	0.	9.8283e-003
15118	20.12	4.7273	5.e-002	5.9259e-006
15119	20.398	4.7273	0.	9.4235e-003
15120	20.305	4.6364	0.	1.0634e-002
15121	20.305	4.7273	5.e-002	8.362e-006
15122	20.582	4.7273	0.	1.0326e-002
15123	20.49	4.6364	0.	1.1552e-002
15124	20.49	4.7273	5.e-002	5.4539e-006
15125	20.767	4.7273	0.	1.1365e-002
15126	20.675	4.6364	0.	1.2606e-002
15127	20.675	4.7273	5.e-002	5.5044e-006
15128	20.952	4.7273	0.	1.2554e-002
15129	20.859	4.6364	0.	1.3808e-002
15130	20.859	4.7273	5.e-002	7.0679e-006
15131	21.137	4.7273	0.	1.393e-002
15132	21.044	4.6364	0.	1.5176e-002
15133	21.044	4.7273	5.e-002	1.0549e-005
15134	21.321	4.7273	0.	1.5549e-002
15135	21.229	4.6364	0.	1.6765e-002
15136	21.229	4.7273	5.e-002	1.1127e-005
15137	21.506	4.7273	0.	1.7473e-002
15138	21.414	4.6364	0.	1.8634e-002
15139	21.414	4.7273	5.e-002	8.8642e-006
15140	21.691	4.7273	0.	1.9781e-002
15141	21.598	4.6364	0.	2.085e-002
15142	21.598	4.7273	5.e-002	1.1668e-005
15143	21.876	4.7273	0.	2.2578e-002
15144	21.783	4.6364	0.	2.3508e-002
15145	21.783	4.7273	5.e-002	1.1598e-005
15146	22.06	4.7273	0.	2.6e-002
15147	21.968	4.6364	0.	2.6723e-002
15148	21.968	4.7273	5.e-002	8.0833e-006
15149	22.245	4.7273	0.	3.0249e-002
15150	22.153	4.6364	0.	3.0659e-002
15151	22.153	4.7273	5.e-002	1.0447e-005
15152	22.43	4.7273	0.	3.5646e-002
15153	22.337	4.6364	0.	3.5562e-002
15154	22.337	4.7273	5.e-002	1.2496e-005
15155	22.614	4.7273	0.	4.2577e-002
15156	22.522	4.6364	0.	4.184e-002
15157	22.522	4.7273	5.e-002	1.3401e-005
15158	22.799	4.7273	0.	5.1987e-002
15159	22.707	4.6364	0.	4.9893e-002
15160	22.707	4.7273	5.e-002	9.9075e-006
15161	22.984	4.7273	0.	6.4192e-002
15162	22.892	4.6364	0.	6.1286e-002
15163	22.892	4.7273	5.e-002	9.287e-006
15164	23.169	4.7273	0.	8.5176e-002
15165	23.076	4.6364	0.	7.5247e-002
15166	23.076	4.7273	5.e-002	1.1717e-005
15167	23.353	4.7273	0.	0.10558
15168	23.261	4.6364	0.	0.10496
15169	23.261	4.7273	5.e-002	1.3359e-005
15170	23.538	4.7273	0.	0.19606
15171	23.446	4.6364	0.	0.11975
15172	23.446	4.7273	5.e-002	1.2349e-005
15173	23.723	4.7273	0.	0.17472
15174	23.631	4.6364	0.	0.29762
15175	23.631	4.7273	5.e-002	1.2264e-005
15176	23.815	4.6364	0.	0.14097
15177	23.815	4.7273	5.e-002	1.1525e-005
15178	23.908	4.7273	0.	0.40728
15179	8.9438	4.5455	0.	-12.982
15180	8.8514	4.4545	0.	-7.3813
15181	8.8514	4.5455	5.e-002	-3.178e-005
15182	8.759	4.5455	0.	-14.92
15183	9.1285	4.5455	0.	-2.9658
15184	9.0361	4.4545	0.	-0.41126
15185	9.0361	4.5455	5.e-002	-9.435e-005
15186	9.3133	4.5455	0.	-3.6583
15187	9.2209	4.4545	0.	-7.2973
15188	9.2209	4.5455	5.e-002	-9.0988e-005
15189	9.498	4.5455	0.	-3.5336
15190	9.4056	4.4545	0.	-3.2546
15191	9.4056	4.5455	5.e-002	-1.2746e-004
15192	9.6827	4.5455	0.	-4.2036
15193	9.5904	4.4545	0.	-4.7349
15194	9.5904	4.5455	5.e-002	-7.6959e-005
15195	9.8675	4.5455	0.	-7.5194
15196	9.7751	4.4545	0.	-8.8274
15197	9.7751	4.5455	5.e-002	-6.6342e-005
15198	10.052	4.5455	0.	-24.184
15199	9.9598	4.4545	0.	-33.165
15200	9.9598	4.5455	5.e-002	-3.0825e-005
15201	10.237	4.5455	0.	-49.18
15202	10.145	4.4545	0.	-64.49
15203	10.145	4.5455	5.e-002	2.9531e-006
15204	10.422	4.5455	0.	-66.676
15205	10.329	4.4545	0.	-84.695
15206	10.329	4.5455	5.e-002	-3.0627e-005
15207	10.606	4.5455	0.	-77.615
15208	10.514	4.4545	0.	-96.49
15209	10.514	4.5455	5.e-002	-4.2332e-006
15210	10.791	4.5455	0.	-84.084
15211	10.699	4.4545	0.	-102.8
15212	10.699	4.5455	5.e-002	-8.9754e-006
15213	10.976	4.5455	0.	-87.506
15214	10.884	4.4545	0.	-105.5
15215	10.884	4.5455	5.e-002	-1.2622e-005
15216	11.161	4.5455	0.	-88.789
15217	11.068	4.4545	0.	-105.79
15218	11.068	4.5455	5.e-002	-1.2641e-005
15219	11.345	4.5455	0.	-88.519
15220	11.253	4.4545	0.	-104.4
15221	11.253	4.5455	5.e-002	-1.2145e-005
15222	11.53	4.5455	0.	-87.093
15223	11.438	4.4545	0.	-101.82
15224	11.438	4.5455	5.e-002	-1.496e-005
15225	11.715	4.5455	0.	-84.794
15226	11.622	4.4545	0.	-98.393
15227	11.622	4.5455	5.e-002	-1.4441e-005
15228	11.9	4.5455	0.	-81.833
15229	11.807	4.4545	0.	-94.356
15230	11.807	4.5455	5.e-002	-1.4137e-005
15231	12.084	4.5455	0.	-78.377
15232	11.992	4.4545	0.	-89.889
15233	11.992	4.5455	5.e-002	-7.5428e-006
15234	12.269	4.5455	0.	-74.562
15235	12.177	4.4545	0.	-85.133
15236	12.177	4.5455	5.e-002	-7.5961e-006
15237	12.454	4.5455	0.	-70.498
15238	12.361	4.4545	0.	-80.201
15239	12.361	4.5455	5.e-002	-8.9994e-006
15240	12.639	4.5455	0.	-66.278
15241	12.546	4.4545	0.	-75.183
15242	12.546	4.5455	5.e-002	-1.3168e-005
15243	12.823	4.5455	0.	-61.979
15244	12.731	4.4545	0.	-70.152
15245	12.731	4.5455	5.e-002	-1.0028e-005
15246	13.008	4.5455	0.	-57.662
15247	12.916	4.4545	0.	-65.166
15248	12.916	4.5455	5.e-002	-6.5285e-006
15249	13.193	4.5455	0.	-53.379
15250	13.1	4.4545	0.	-60.271
15251	13.1	4.5455	5.e-002	-6.1394e-006
15252	13.378	4.5455	0.	-49.17
15253	13.285	4.4545	0.	-55.502
15254	13.285	4.5455	5.e-002	-3.8443e-006
15255	13.562	4.5455	0.	-45.064
15256	13.47	4.4545	0.	-50.885
15257	13.47	4.5455	5.e-002	-3.8625e-006
15258	13.747	4.5455	0.	-41.086
15259	13.655	4.4545	0.	-46.44
15260	13.655	4.5455	5.e-002	-4.2774e-006
15261	13.932	4.5455	0.	-37.251
15262	13.839	4.4545	0.	-42.179
15263	13.839	4.5455	5.e-002	-2.8041e-006
15264	14.116	4.5455	0.	-33.57
15265	14.024	4.4545	0.	-38.108
15266	14.024	4.5455	5.e-002	-3.0689e-006
15267	14.301	4.5455	0.	-30.05
15268	14.209	4.4545	0.	-34.232
15269	14.209	4.5455	5.e-002	-7.8669e-007
15270	14.486	4.5455	0.	-26.692
15271	14.394	4.4545	0.	-30.549
15272	14.394	4.5455	5.e-002	-1.6963e-006
15273	14.671	4.5455	0.	-23.497
15274	14.578	4.4545	0.	-27.055
15275	14.578	4.5455	5.e-002	-2.9766e-006
15276	14.855	4.5455	0.	-20.46
15277	14.763	4.4545	0.	-23.745
15278	14.763	4.5455	5.e-002	-1.8761e-006
15279	15.04	4.5455	0.	-17.577
15280	14.948	4.4545	0.	-20.612
15281	14.948	4.5455	5.e-002	-1.7593e-006
15282	15.225	4.5455	0.	-14.84
15283	15.133	4.4545	0.	-17.648
15284	15.133	4.5455	5.e-002	-3.4174e-007
15285	15.41	4.5455	0.	-12.244
15286	15.317	4.4545	0.	-14.841
15287	15.317	4.5455	5.e-002	9.4397e-007
15288	15.594	4.5455	0.	-9.7783
15289	15.502	4.4545	0.	-12.184
15290	15.502	4.5455	5.e-002	1.0088e-006
15291	15.779	4.5455	0.	-7.435
15292	15.687	4.4545	0.	-9.6643
15293	15.687	4.5455	5.e-002	8.1116e-007
15294	15.964	4.5455	0.	-5.205
15295	15.871	4.4545	0.	-7.2721
15296	15.871	4.5455	5.e-002	2.1359e-006
15297	16.149	4.5455	0.	-3.0799
15298	16.056	4.4545	0.	-4.997
15299	16.056	4.5455	5.e-002	2.9023e-006
15300	16.333	4.5455	0.	-1.0615
15301	16.241	4.4545	0.	-2.8295
15302	16.241	4.5455	5.e-002	2.6991e-006
15303	16.518	4.5455	0.	-2.4305e-002
15304	16.426	4.4545	0.	-0.77706
15305	16.426	4.5455	5.e-002	3.3679e-006
15306	16.703	4.5455	0.	-4.2899e-003
15307	16.61	4.4545	0.	-1.4832e-002
15308	16.61	4.5455	5.e-002	3.1093e-006
15309	16.888	4.5455	0.	-2.2328e-004
15310	16.795	4.4545	0.	-2.0256e-003
15311	16.795	4.5455	5.e-002	3.0513e-006
15312	17.072	4.5455	0.	1.5774e-003
15313	16.98	4.4545	0.	1.2042e-003
15314	16.98	4.5455	5.e-002	1.0648e-006
15315	17.257	4.5455	0.	2.6497e-003
15316	17.165	4.4545	0.	2.7569e-003
15317	17.165	4.5455	5.e-002	1.178e-006
15318	17.442	4.5455	0.	3.4059e-003
15319	17.349	4.4545	0.	3.734e-003
15320	17.349	4.5455	5.e-002	3.7649e-006
15321	17.627	4.5455	0.	4.0157e-003
15322	17.534	4.4545	0.	4.4564e-003
15323	17.534	4.5455	5.e-002	2.4346e-006
15324	17.811	4.5455	0.	4.547e-003
15325	17.719	4.4545	0.	5.0685e-003
15326	17.719	4.5455	5.e-002	3.685e-006
15327	17.996	4.5455	0.	5.0106e-003
15328	17.904	4.4545	0.	5.606e-003
15329	17.904	4.5455	5.e-002	4.5872e-006
15330	18.181	4.5455	0.	5.4327e-003
15331	18.088	4.4545	0.	6.0718e-003
15332	18.088	4.5455	5.e-002	5.6763e-006
15333	18.365	4.5455	0.	5.855e-003
15334	18.273	4.4545	0.	6.5208e-003
15335	18.273	4.5455	5.e-002	3.7641e-006
15336	18.55	4.5455	0.	6.2969e-003
15337	18.458	4.4545	0.	6.9859e-003
15338	18.458	4.5455	5.e-002	1.8042e-006
15339	18.735	4.5455	0.	6.7591e-003
15340	18.643	4.4545	0.	7.476e-003
15341	18.643	4.5455	5.e-002	3.5025e-006
15342	18.92	4.5455	0.	7.2273e-003
15343	18.827	4.4545	0.	7.9813e-003
15344	18.827	4.5455	5.e-002	3.551e-006
15345	19.104	4.5455	0.	7.7102e-003
15346	19.012	4.4545	0.	8.4858e-003
15347	19.012	4.5455	5.e-002	4.2486e-006
15348	19.289	4.5455	0.	8.2308e-003
15349	19.197	4.4545	0.	9.0252e-003
15350	19.197	4.5455	5.e-002	5.5116e-006
15351	19.474	4.5455	0.	8.7963e-003
15352	19.382	4.4545	0.	9.6071e-003
15353	19.382	4.5455	5.e-002	3.3108e-006
15354	19.659	4.5455	0.	9.4218e-003
15355	19.566	4.4545	0.	1.024e-002
15356	19.566	4.5455	5.e-002	3.7277e-006
15357	19.843	4.5455	0.	1.0113e-002
15358	19.751	4.4545	0.	1.0949e-002
15359	19.751	4.5455	5.e-002	5.7568e-006
15360	20.028	4.5455	0.	1.0863e-002
15361	19.936	4.4545	0.	1.172e-002
15362	19.936	4.5455	5.e-002	2.8061e-006
15363	20.213	4.5455	0.	1.1685e-002
15364	20.12	4.4545	0.	1.2548e-002
15365	20.12	4.5455	5.e-002	5.0531e-006
15366	20.398	4.5455	0.	1.261e-002
15367	20.305	4.4545	0.	1.347e-002
15368	20.305	4.5455	5.e-002	7.3297e-006
15369	20.582	4.5455	0.	1.3663e-002
15370	20.49	4.4545	0.	1.4514e-002
15371	20.49	4.5455	5.e-002	4.5376e-006
15372	20.767	4.5455	0.	1.4862e-002
15373	20.675	4.4545	0.	1.5699e-002
15374	20.675	4.5455	5.e-002	4.4203e-006
15375	20.952	4.5455	0.	1.6222e-002
15376	20.859	4.4545	0.	1.7039e-002
15377	20.859	4.5455	5.e-002	6.1687e-006
15378	21.137	4.5455	0.	1.778e-002
15379	21.044	4.4545	0.	1.8556e-002
15380	21.044	4.5455	5.e-002	1.0452e-005
15381	21.321	4.5455	0.	1.9592e-002
15382	21.229	4.4545	0.	2.0303e-002
15383	21.229	4.5455	5.e-002	1.0513e-005
15384	21.506	4.5455	0.	2.172e-002
15385	21.414	4.4545	0.	2.2337e-002
15386	21.414	4.5455	5.e-002	9.7571e-006
15387	21.691	4.5455	0.	2.4246e-002
15388	21.598	4.4545	0.	2.4728e-002
15389	21.598	4.5455	5.e-002	1.2128e-005
15390	21.876	4.5455	0.	2.7272e-002
15391	21.783	4.4545	0.	2.7567e-002
15392	21.783	4.5455	5.e-002	9.4133e-006
15393	22.06	4.5455	0.	3.0934e-002
15394	21.968	4.4545	0.	3.0971e-002
15395	21.968	4.5455	5.e-002	7.2742e-006
15396	22.245	4.5455	0.	3.5434e-002
15397	22.153	4.4545	0.	3.5105e-002
15398	22.153	4.5455	5.e-002	1.0348e-005
15399	22.43	4.5455	0.	4.1091e-002
15400	22.337	4.4545	0.	4.0212e-002
15401	22.337	4.5455	5.e-002	9.5962e-006
15402	22.614	4.5455	0.	4.8298e-002
15403	22.522	4.4545	0.	4.6705e-002
15404	22.522	4.5455	5.e-002	1.2459e-005
15405	22.799	4.5455	0.	5.8016e-002
15406	22.707	4.4545	0.	5.4994e-002
15407	22.707	4.5455	5.e-002	9.5208e-006
15408	22.984	4.5455	0.	7.0585e-002
15409	22.892	4.4545	0.	6.6664e-002
15410	22.892	4.5455	5.e-002	8.0502e-006
15411	23.169	4.5455	0.	9.2076e-002
15412	23.076	4.4545	0.	8.0977e-002
15413	23.076	4.5455	5.e-002	1.1401e-005
15414	23.353	4.5455	0.	0.11317
15415	23.261	4.4545	0.	0.11126
15416	23.261	4.5455	5.e-002	1.2686e-005
15417	23.538	4.5455	0.	0.20541
15418	23.446	4.4545	0.	0.1268
15419	23.446	4.5455	5.e-002	1.1993e-005
15420	23.723	4.5455	0.	0.18849
15421	23.631	4.4545	0.	0.30729
15422	23.631	4.5455	5.e-002	1.0208e-005
15423	23.815	4.4545	0.	0.15836
15424	23.815	4.5455	5.e-002	1.0891e-005
15425	23.908	4.5455	0.	0.41272
15426	8.9438	4.3636	0.	4.8724
15427	8.8514	4.2727	0.	-66.577
15428	8.8514	4.3636	5.e-002	-1.2363e-004
15429	8.759	4.3636	0.	62.25
15430	9.1285	4.3636	0.	-4.7378
15431	9.0361	4.2727	0.	4.9881
15432	9.0361	4.3636	5.e-002	-1.5911e-004
15433	9.3133	4.3636	0.	-6.7972
15434	9.2209	4.2727	0.	-9.1472
15435	9.2209	4.3636	5.e-002	-1.2749e-004
15436	9.498	4.3636	0.	-4.3059
15437	9.4056	4.2727	0.	-4.0506
15438	9.4056	4.3636	5.e-002	-1.0566e-004
15439	9.6827	4.3636	0.	-8.7602
15440	9.5904	4.2727	0.	-9.3463
15441	9.5904	4.3636	5.e-002	-1.1849e-004
15442	9.8675	4.3636	0.	-36.629
15443	9.7751	4.2727	0.	-44.484
15444	9.7751	4.3636	5.e-002	-5.1549e-005
15445	10.052	4.3636	0.	-76.53
15446	9.9598	4.2727	0.	-92.448
15447	9.9598	4.3636	5.e-002	-7.9805e-005
15448	10.237	4.3636	0.	-101.42
15449	10.145	4.2727	0.	-121.35
15450	10.145	4.3636	5.e-002	-3.1068e-005
15451	10.422	4.3636	0.	-115.26
15452	10.329	4.2727	0.	-136.87
15453	10.329	4.3636	5.e-002	-3.1273e-005
15454	10.606	4.3636	0.	-122.08
15455	10.514	4.2727	0.	-143.96
15456	10.514	4.3636	5.e-002	-5.4607e-005
15457	10.791	4.3636	0.	-124.43
15458	10.699	4.2727	0.	-145.76
15459	10.699	4.3636	5.e-002	-1.6275e-005
15460	10.976	4.3636	0.	-123.89
15461	10.884	4.2727	0.	-144.2
15462	10.884	4.3636	5.e-002	-1.63e-005
15463	11.161	4.3636	0.	-121.44
15464	11.068	4.2727	0.	-140.49
15465	11.068	4.3636	5.e-002	1.2709e-005
15466	11.345	4.3636	0.	-117.71
15467	11.253	4.2727	0.	-135.41
15468	11.253	4.3636	5.e-002	-5.9794e-006
15469	11.53	4.3636	0.	-113.12
15470	11.438	4.2727	0.	-129.44
15471	11.438	4.3636	5.e-002	1.628e-006
15472	11.715	4.3636	0.	-107.95
15473	11.622	4.2727	0.	-122.93
15474	11.622	4.3636	5.e-002	-2.7362e-007
15475	11.9	4.3636	0.	-102.4
15476	11.807	4.2727	0.	-116.11
15477	11.807	4.3636	5.e-002	-9.9606e-006
15478	12.084	4.3636	0.	-96.632
15479	11.992	4.2727	0.	-109.16
15480	11.992	4.3636	5.e-002	-4.9858e-006
15481	12.269	4.3636	0.	-90.76
15482	12.177	4.2727	0.	-102.19
15483	12.177	4.3636	5.e-002	-6.9132e-006
15484	12.454	4.3636	0.	-84.874
15485	12.361	4.2727	0.	-95.299
15486	12.361	4.3636	5.e-002	-9.3487e-006
15487	12.639	4.3636	0.	-79.045
15488	12.546	4.2727	0.	-88.551
15489	12.546	4.3636	5.e-002	-1.1653e-005
15490	12.823	4.3636	0.	-73.328
15491	12.731	4.2727	0.	-81.996
15492	12.731	4.3636	5.e-002	-8.0706e-006
15493	13.008	4.3636	0.	-67.763
15494	12.916	4.2727	0.	-75.672
15495	12.916	4.3636	5.e-002	-7.3901e-006
15496	13.193	4.3636	0.	-62.381
15497	13.1	4.2727	0.	-69.602
15498	13.1	4.3636	5.e-002	-5.6326e-006
15499	13.378	4.3636	0.	-57.205
15500	13.285	4.2727	0.	-63.802
15501	13.285	4.3636	5.e-002	-5.0805e-006
15502	13.562	4.3636	0.	-52.248
15503	13.47	4.2727	0.	-58.28
15504	13.47	4.3636	5.e-002	-4.9284e-006
15505	13.747	4.3636	0.	-47.52
15506	13.655	4.2727	0.	-53.04
15507	13.655	4.3636	5.e-002	-3.6686e-006
15508	13.932	4.3636	0.	-43.022
15509	13.839	4.2727	0.	-48.08
15510	13.839	4.3636	5.e-002	-4.6954e-006
15511	14.116	4.3636	0.	-38.755
15512	14.024	4.2727	0.	-43.393
15513	14.024	4.3636	5.e-002	-3.7965e-006
15514	14.301	4.3636	0.	-34.715
15515	14.209	4.2727	0.	-38.973
15516	14.209	4.3636	5.e-002	-1.7759e-006
15517	14.486	4.3636	0.	-30.895
15518	14.394	4.2727	0.	-34.807
15519	14.394	4.3636	5.e-002	-1.8638e-006
15520	14.671	4.3636	0.	-27.286
15521	14.578	4.2727	0.	-30.886
15522	14.578	4.3636	5.e-002	-3.1571e-006
15523	14.855	4.3636	0.	-23.88
15524	14.763	4.2727	0.	-27.195
15525	14.763	4.3636	5.e-002	-1.6457e-006
15526	15.04	4.3636	0.	-20.664
15527	14.948	4.2727	0.	-23.721
15528	14.948	4.3636	5.e-002	-1.8128e-006
15529	15.225	4.3636	0.	-17.629
15530	15.133	4.2727	0.	-20.45
15531	15.133	4.3636	5.e-002	-4.2256e-007
15532	15.41	4.3636	0.	-14.761
15533	15.317	4.2727	0.	-17.368
15534	15.317	4.3636	5.e-002	1.6636e-006
15535	15.594	4.3636	0.	-12.048
15536	15.502	4.2727	0.	-14.46
15537	15.502	4.3636	5.e-002	1.1158e-006
15538	15.779	4.3636	0.	-9.4788
15539	15.687	4.2727	0.	-11.713
15540	15.687	4.3636	5.e-002	1.3793e-006
15541	15.964	4.3636	0.	-7.0407
15542	15.871	4.2727	0.	-9.1124
15543	15.871	4.3636	5.e-002	2.7829e-006
15544	16.149	4.3636	0.	-4.722
15545	16.056	4.2727	0.	-6.6452
15546	16.056	4.3636	5.e-002	3.3393e-006
15547	16.333	4.3636	0.	-2.5128
15548	16.241	4.2727	0.	-4.2986
15549	16.241	4.3636	5.e-002	3.4973e-006
15550	16.518	4.3636	0.	-0.43931
15551	16.426	4.2727	0.	-2.0624
15552	16.426	4.3636	5.e-002	3.8189e-006
15553	16.703	4.3636	0.	-8.0629e-003
15554	16.61	4.2727	0.	-0.10463
15555	16.61	4.3636	5.e-002	3.64e-006
15556	16.888	4.3636	0.	1.223e-004
15557	16.795	4.2727	0.	-3.0924e-003
15558	16.795	4.3636	5.e-002	3.4042e-006
15559	17.072	4.3636	0.	2.6394e-003
15560	16.98	4.2727	0.	2.0633e-003
15561	16.98	4.3636	5.e-002	1.5737e-006
15562	17.257	4.3636	0.	3.9559e-003
15563	17.165	4.2727	0.	3.9891e-003
15564	17.165	4.3636	5.e-002	1.1868e-006
15565	17.442	4.3636	0.	4.837e-003
15566	17.349	4.2727	0.	5.0978e-003
15567	17.349	4.3636	5.e-002	4.2459e-006
15568	17.627	4.3636	0.	5.5276e-003
15569	17.534	4.2727	0.	5.8893e-003
15570	17.534	4.3636	5.e-002	3.376e-006
15571	17.811	4.3636	0.	6.1241e-003
15572	17.719	4.2727	0.	6.551e-003
15573	17.719	4.3636	5.e-002	4.0456e-006
15574	17.996	4.3636	0.	6.6485e-003
15575	17.904	4.2727	0.	7.1338e-003
15576	17.904	4.3636	5.e-002	5.2521e-006
15577	18.181	4.3636	0.	7.1293e-003
15578	18.088	4.2727	0.	7.6442e-003
15579	18.088	4.3636	5.e-002	6.0119e-006
15580	18.365	4.3636	0.	7.6112e-003
15581	18.273	4.2727	0.	8.1394e-003
15582	18.273	4.3636	5.e-002	4.4989e-006
15583	18.55	4.3636	0.	8.1158e-003
15584	18.458	4.2727	0.	8.652e-003
15585	18.458	4.3636	5.e-002	2.1299e-006
15586	18.735	4.3636	0.	8.641e-003
15587	18.643	4.2727	0.	9.1932e-003
15588	18.643	4.3636	5.e-002	3.8421e-006
15589	18.92	4.3636	0.	9.175e-003
15590	18.827	4.2727	0.	9.7517e-003
15591	18.827	4.3636	5.e-002	4.34e-006
15592	19.104	4.3636	0.	9.7284e-003
15593	19.012	4.2727	0.	1.0314e-002
15594	19.012	4.3636	5.e-002	4.9726e-006
15595	19.289	4.3636	0.	1.0322e-002
15596	19.197	4.2727	0.	1.0912e-002
15597	19.197	4.3636	5.e-002	6.7163e-006
15598	19.474	4.3636	0.	1.0963e-002
15599	19.382	4.2727	0.	1.1558e-002
15600	19.382	4.3636	5.e-002	4.2274e-006
15601	19.659	4.3636	0.	1.1671e-002
15602	19.566	4.2727	0.	1.226e-002
15603	19.566	4.3636	5.e-002	4.3931e-006
15604	19.843	4.3636	0.	1.2451e-002
15605	19.751	4.2727	0.	1.304e-002
15606	19.751	4.3636	5.e-002	5.9525e-006
15607	20.028	4.3636	0.	1.3291e-002
15608	19.936	4.2727	0.	1.3886e-002
15609	19.936	4.3636	5.e-002	2.81e-006
15610	20.213	4.3636	0.	1.4209e-002
15611	20.12	4.2727	0.	1.4795e-002
15612	20.12	4.3636	5.e-002	5.002e-006
15613	20.398	4.3636	0.	1.5239e-002
15614	20.305	4.2727	0.	1.5802e-002
15615	20.305	4.3636	5.e-002	8.2261e-006
15616	20.582	4.3636	0.	1.6401e-002
15617	20.49	4.2727	0.	1.6936e-002
15618	20.49	4.3636	5.e-002	5.4618e-006
15619	20.767	4.3636	0.	1.7713e-002
15620	20.675	4.2727	0.	1.8215e-002
15621	20.675	4.3636	5.e-002	5.6837e-006
15622	20.952	4.3636	0.	1.9193e-002
15623	20.859	4.2727	0.	1.9653e-002
15624	20.859	4.3636	5.e-002	7.1412e-006
15625	21.137	4.3636	0.	2.088e-002
15626	21.044	4.2727	0.	2.1275e-002
15627	21.044	4.3636	5.e-002	1.0814e-005
15628	21.321	4.3636	0.	2.2826e-002
15629	21.229	4.2727	0.	2.313e-002
15630	21.229	4.3636	5.e-002	1.0134e-005
15631	21.506	4.3636	0.	2.5094e-002
15632	21.414	4.2727	0.	2.5276e-002
15633	21.414	4.3636	5.e-002	1.0718e-005
15634	21.691	4.3636	0.	2.7763e-002
15635	21.598	4.2727	0.	2.7784e-002
15636	21.598	4.3636	5.e-002	1.3941e-005
15637	21.876	4.3636	0.	3.0936e-002
15638	21.783	4.2727	0.	3.0741e-002
15639	21.783	4.3636	5.e-002	1.2287e-005
15640	22.06	4.3636	0.	3.4752e-002
15641	21.968	4.2727	0.	3.4268e-002
15642	21.968	4.3636	5.e-002	8.7978e-006
15643	22.245	4.3636	0.	3.941e-002
15644	22.153	4.2727	0.	3.8526e-002
15645	22.153	4.3636	5.e-002	1.2603e-005
15646	22.43	4.3636	0.	4.5231e-002
15647	22.337	4.2727	0.	4.3763e-002
15648	22.337	4.3636	5.e-002	1.0923e-005
15649	22.614	4.3636	0.	5.2618e-002
15650	22.522	4.2727	0.	5.0394e-002
15651	22.522	4.3636	5.e-002	1.2947e-005
15652	22.799	4.3636	0.	6.2543e-002
15653	22.707	4.2727	0.	5.8842e-002
15654	22.707	4.3636	5.e-002	8.3013e-006
15655	22.984	4.3636	0.	7.5373e-002
15656	22.892	4.2727	0.	7.0712e-002
15657	22.892	4.3636	5.e-002	8.5254e-006
15658	23.169	4.3636	0.	9.7252e-002
15659	23.076	4.2727	0.	8.529e-002
15660	23.076	4.3636	5.e-002	1.3559e-005
15661	23.353	4.3636	0.	0.1189
15662	23.261	4.2727	0.	0.11601
15663	23.261	4.3636	5.e-002	1.2425e-005
15664	23.538	4.3636	0.	0.21252
15665	23.446	4.2727	0.	0.13215
15666	23.446	4.3636	5.e-002	1.081e-005
15667	23.723	4.3636	0.	0.19919
15668	23.631	4.2727	0.	0.31472
15669	23.631	4.3636	5.e-002	1.1808e-005
15670	23.815	4.2727	0.	0.17223
15671	23.815	4.3636	5.e-002	1.1087e-005
15672	23.908	4.3636	0.	0.41678
15673	8.9438	4.1818	0.	-66.929
15674	8.8514	4.0909	0.	-339.04
15675	8.8514	4.1818	5.e-002	-3.7255e-004
15676	8.759	4.1818	0.	-281.31
15677	9.1285	4.1818	0.	-8.34e-002
15678	9.0361	4.0909	0.	40.748
15679	9.0361	4.1818	5.e-002	-2.7255e-004
15680	9.3133	4.1818	0.	-6.2559
15681	9.2209	4.0909	0.	-11.82
15682	9.2209	4.1818	5.e-002	-2.8798e-005
15683	9.498	4.1818	0.	-8.3004
15684	9.4056	4.0909	0.	-5.5979
15685	9.4056	4.1818	5.e-002	-1.0858e-004
15686	9.6827	4.1818	0.	-44.795
15687	9.5904	4.0909	0.	-48.111
15688	9.5904	4.1818	5.e-002	-7.6089e-005
15689	9.8675	4.1818	0.	-103.68
15690	9.7751	4.0909	0.	-116.76
15691	9.7751	4.1818	5.e-002	-3.0533e-005
15692	10.052	4.1818	0.	-139.14
15693	9.9598	4.0909	0.	-158.07
15694	9.9598	4.1818	5.e-002	-6.7456e-005
15695	10.237	4.1818	0.	-157.88
15696	10.145	4.0909	0.	-179.9
15697	10.145	4.1818	5.e-002	-8.284e-005
15698	10.422	4.1818	0.	-166.18
15699	10.329	4.0909	0.	-189.5
15700	10.329	4.1818	5.e-002	-1.1787e-005
15701	10.606	4.1818	0.	-167.97
15702	10.514	4.0909	0.	-191.39
15703	10.514	4.1818	5.e-002	-1.7209e-005
15704	10.791	4.1818	0.	-165.71
15705	10.699	4.0909	0.	-188.47
15706	10.699	4.1818	5.e-002	-2.3153e-005
15707	10.976	4.1818	0.	-160.89
15708	10.884	4.0909	0.	-182.54
15709	10.884	4.1818	5.e-002	3.0877e-006
15710	11.161	4.1818	0.	-154.5
15711	11.068	4.0909	0.	-174.79
15712	11.068	4.1818	5.e-002	-1.1616e-005
15713	11.345	4.1818	0.	-147.14
15714	11.253	4.0909	0.	-165.96
15715	11.253	4.1818	5.e-002	-2.2873e-005
15716	11.53	4.1818	0.	-139.25
15717	11.438	4.0909	0.	-156.57
15718	11.438	4.1818	5.e-002	-1.1138e-005
15719	11.715	4.1818	0.	-131.09
15720	11.622	4.0909	0.	-146.96
15721	11.622	4.1818	5.e-002	-6.7623e-006
15722	11.9	4.1818	0.	-122.86
15723	11.807	4.0909	0.	-137.35
15724	11.807	4.1818	5.e-002	-6.9012e-006
15725	12.084	4.1818	0.	-114.71
15726	11.992	4.0909	0.	-127.89
15727	11.992	4.1818	5.e-002	-1.2902e-005
15728	12.269	4.1818	0.	-106.72
15729	12.177	4.0909	0.	-118.71
15730	12.177	4.1818	5.e-002	-8.4971e-006
15731	12.454	4.1818	0.	-98.965
15732	12.361	4.0909	0.	-109.85
15733	12.361	4.1818	5.e-002	-1.2333e-005
15734	12.639	4.1818	0.	-91.492
15735	12.546	4.0909	0.	-101.37
15736	12.546	4.1818	5.e-002	-1.2883e-005
15737	12.823	4.1818	0.	-84.33
15738	12.731	4.0909	0.	-93.305
15739	12.731	4.1818	5.e-002	-7.8142e-006
15740	13.008	4.1818	0.	-77.5
15741	12.916	4.0909	0.	-85.653
15742	12.916	4.1818	5.e-002	-8.3485e-006
15743	13.193	4.1818	0.	-71.011
15744	13.1	4.0909	0.	-78.423
15745	13.1	4.1818	5.e-002	-6.9098e-006
15746	13.378	4.1818	0.	-64.866
15747	13.285	4.0909	0.	-71.609
15748	13.285	4.1818	5.e-002	-3.7016e-006
15749	13.562	4.1818	0.	-59.061
15750	13.47	4.0909	0.	-65.203
15751	13.47	4.1818	5.e-002	-5.0535e-006
15752	13.747	4.1818	0.	-53.588
15753	13.655	4.0909	0.	-59.189
15754	13.655	4.1818	5.e-002	-4.6108e-006
15755	13.932	4.1818	0.	-48.438
15756	13.839	4.0909	0.	-53.551
15757	13.839	4.1818	5.e-002	-4.9586e-006
15758	14.116	4.1818	0.	-43.597
15759	14.024	4.0909	0.	-48.271
15760	14.024	4.1818	5.e-002	-3.9884e-006
15761	14.301	4.1818	0.	-39.051
15762	14.209	4.0909	0.	-43.329
15763	14.209	4.1818	5.e-002	-1.8762e-006
15764	14.486	4.1818	0.	-34.783
15765	14.394	4.0909	0.	-38.705
15766	14.394	4.1818	5.e-002	-1.4945e-006
15767	14.671	4.1818	0.	-30.778
15768	14.578	4.0909	0.	-34.378
15769	14.578	4.1818	5.e-002	-4.3671e-006
15770	14.855	4.1818	0.	-27.019
15771	14.763	4.0909	0.	-30.327
15772	14.763	4.1818	5.e-002	-1.5649e-006
15773	15.04	4.1818	0.	-23.488
15774	14.948	4.0909	0.	-26.534
15775	14.948	4.1818	5.e-002	-2.5478e-006
15776	15.225	4.1818	0.	-20.17
15777	15.133	4.0909	0.	-22.977
15778	15.133	4.1818	5.e-002	-9.4698e-007
15779	15.41	4.1818	0.	-17.047
15780	15.317	4.0909	0.	-19.639
15781	15.317	4.1818	5.e-002	6.9351e-007
15782	15.594	4.1818	0.	-14.104
15783	15.502	4.0909	0.	-16.501
15784	15.502	4.1818	5.e-002	8.1986e-007
15785	15.779	4.1818	0.	-11.324
15786	15.687	4.0909	0.	-13.544
15787	15.687	4.1818	5.e-002	6.7184e-007
15788	15.964	4.1818	0.	-8.6939
15789	15.871	4.0909	0.	-10.753
15790	15.871	4.1818	5.e-002	2.2528e-006
15791	16.149	4.1818	0.	-6.1978
15792	16.056	4.0909	0.	-8.1112
15793	16.056	4.1818	5.e-002	2.7736e-006
15794	16.333	4.1818	0.	-3.8225
15795	16.241	4.0909	0.	-5.603
15796	16.241	4.1818	5.e-002	3.1103e-006
15797	16.518	4.1818	0.	-1.5586
15798	16.426	4.0909	0.	-3.2143
15799	16.426	4.1818	5.e-002	3.465e-006
15800	16.703	4.1818	0.	-2.3001e-002
15801	16.61	4.0909	0.	-0.94028
15802	16.61	4.1818	5.e-002	3.1752e-006
15803	16.888	4.1818	0.	4.2504e-004
15804	16.795	4.0909	0.	-5.797e-003
15805	16.795	4.1818	5.e-002	2.8736e-006
15806	17.072	4.1818	0.	3.7784e-003
15807	16.98	4.0909	0.	3.0273e-003
15808	16.98	4.1818	5.e-002	1.3249e-006
15809	17.257	4.1818	0.	5.2619e-003
15810	17.165	4.0909	0.	5.2527e-003
15811	17.165	4.1818	5.e-002	9.784e-007
15812	17.442	4.1818	0.	6.1992e-003
15813	17.349	4.0909	0.	6.4102e-003
15814	17.349	4.1818	5.e-002	3.6434e-006
15815	17.627	4.1818	0.	6.9233e-003
15816	17.534	4.0909	0.	7.215e-003
15817	17.534	4.1818	5.e-002	2.4485e-006
15818	17.811	4.1818	0.	7.5493e-003
15819	17.719	4.0909	0.	7.8886e-003
15820	17.719	4.1818	5.e-002	3.7129e-006
15821	17.996	4.1818	0.	8.1036e-003
15822	17.904	4.0909	0.	8.4856e-003
15823	17.904	4.1818	5.e-002	4.5078e-006
15824	18.181	4.1818	0.	8.618e-003
15825	18.088	4.0909	0.	9.016e-003
15826	18.088	4.1818	5.e-002	5.6247e-006
15827	18.365	4.1818	0.	9.1356e-003
15828	18.273	4.0909	0.	9.5348e-003
15829	18.273	4.1818	5.e-002	4.1428e-006
15830	18.55	4.1818	0.	9.6776e-003
15831	18.458	4.0909	0.	1.0076e-002
15832	18.458	4.1818	5.e-002	1.3291e-006
15833	18.735	4.1818	0.	1.0246e-002
15834	18.643	4.0909	0.	1.065e-002
15835	18.643	4.1818	5.e-002	2.953e-006
15836	18.92	4.1818	0.	1.0826e-002
15837	18.827	4.0909	0.	1.1245e-002
15838	18.827	4.1818	5.e-002	3.7177e-006
15839	19.104	4.1818	0.	1.1427e-002
15840	19.012	4.0909	0.	1.1844e-002
15841	19.012	4.1818	5.e-002	4.2423e-006
15842	19.289	4.1818	0.	1.2073e-002
15843	19.197	4.0909	0.	1.2486e-002
15844	19.197	4.1818	5.e-002	5.4525e-006
15845	19.474	4.1818	0.	1.2772e-002
15846	19.382	4.0909	0.	1.3178e-002
15847	19.382	4.1818	5.e-002	3.2196e-006
15848	19.659	4.1818	0.	1.354e-002
15849	19.566	4.0909	0.	1.3928e-002
15850	19.566	4.1818	5.e-002	3.3555e-006
15851	19.843	4.1818	0.	1.4379e-002
15852	19.751	4.0909	0.	1.4759e-002
15853	19.751	4.1818	5.e-002	4.9892e-006
15854	20.028	4.1818	0.	1.5287e-002
15855	19.936	4.0909	0.	1.566e-002
15856	19.936	4.1818	5.e-002	2.6422e-006
15857	20.213	4.1818	0.	1.6276e-002
15858	20.12	4.0909	0.	1.6627e-002
15859	20.12	4.1818	5.e-002	5.1359e-006
15860	20.398	4.1818	0.	1.7378e-002
15861	20.305	4.0909	0.	1.7694e-002
15862	20.305	4.1818	5.e-002	7.6369e-006
15863	20.582	4.1818	0.	1.8618e-002
15864	20.49	4.0909	0.	1.8892e-002
15865	20.49	4.1818	5.e-002	3.8922e-006
15866	20.767	4.1818	0.	2.0011e-002
15867	20.675	4.0909	0.	2.0238e-002
15868	20.675	4.1818	5.e-002	4.3644e-006
15869	20.952	4.1818	0.	2.1576e-002
15870	20.859	4.0909	0.	2.1746e-002
15871	20.859	4.1818	5.e-002	6.6407e-006
15872	21.137	4.1818	0.	2.335e-002
15873	21.044	4.0909	0.	2.3439e-002
15874	21.044	4.1818	5.e-002	1.0861e-005
15875	21.321	4.1818	0.	2.5385e-002
15876	21.229	4.0909	0.	2.5369e-002
15877	21.229	4.1818	5.e-002	1.0001e-005
15878	21.506	4.1818	0.	2.7745e-002
15879	21.414	4.0909	0.	2.759e-002
15880	21.414	4.1818	5.e-002	9.1224e-006
15881	21.691	4.1818	0.	3.051e-002
15882	21.598	4.0909	0.	3.0174e-002
15883	21.598	4.1818	5.e-002	1.1857e-005
15884	21.876	4.1818	0.	3.3779e-002
15885	21.783	4.0909	0.	3.3211e-002
15886	21.783	4.1818	5.e-002	1.005e-005
15887	22.06	4.1818	0.	3.7691e-002
15888	21.968	4.0909	0.	3.6815e-002
15889	21.968	4.1818	5.e-002	9.6408e-006
15890	22.245	4.1818	0.	4.2448e-002
15891	22.153	4.0909	0.	4.1153e-002
15892	22.153	4.1818	5.e-002	1.0521e-005
15893	22.43	4.1818	0.	4.8376e-002
15894	22.337	4.0909	0.	4.6472e-002
15895	22.337	4.1818	5.e-002	1.0703e-005
15896	22.614	4.1818	0.	5.5882e-002
15897	22.522	4.0909	0.	5.3196e-002
15898	22.522	4.1818	5.e-002	1.0373e-005
15899	22.799	4.1818	0.	6.5956e-002
15900	22.707	4.0909	0.	6.1756e-002
15901	22.707	4.1818	5.e-002	8.7545e-006
15902	22.984	4.1818	0.	7.8984e-002
15903	22.892	4.0909	0.	7.3776e-002
15904	22.892	4.1818	5.e-002	7.1774e-006
15905	23.169	4.1818	0.	0.10116
15906	23.076	4.0909	0.	8.8561e-002
15907	23.076	4.1818	5.e-002	1.1275e-005
15908	23.353	4.1818	0.	0.12324
15909	23.261	4.0909	0.	0.11963
15910	23.261	4.1818	5.e-002	1.0914e-005
15911	23.538	4.1818	0.	0.21796
15912	23.446	4.0909	0.	0.13624
15913	23.446	4.1818	5.e-002	1.0412e-005
15914	23.723	4.1818	0.	0.20756
15915	23.631	4.0909	0.	0.32047
15916	23.631	4.1818	5.e-002	1.1561e-005
15917	23.815	4.0909	0.	0.1833
15918	23.815	4.1818	5.e-002	5.3921e-006
15919	23.908	4.1818	0.	0.41979
15920	8.9438	4.	0.	-229.98
15921	8.8514	3.9091	0.	-229.75
15922	8.8514	4.	5.e-002	-1.8898e-004
15923	8.759	4.	0.	-438.13
15924	9.1285	4.	0.	28.731
15925	9.0361	3.9091	0.	53.958
15926	9.0361	4.	5.e-002	-4.8623e-005
15927	9.3133	4.	0.	-9.9229
15928	9.2209	3.9091	0.	-11.745
15929	9.2209	4.	5.e-002	-6.6818e-005
15930	9.498	4.	0.	-41.841
15931	9.4056	3.9091	0.	-26.492
15932	9.4056	4.	5.e-002	-9.6698e-006
15933	9.6827	4.	0.	-123.78
15934	9.5904	3.9091	0.	-124.25
15935	9.5904	4.	5.e-002	-5.404e-005
15936	9.8675	4.	0.	-173.46
15937	9.7751	3.9091	0.	-184.17
15938	9.7751	4.	5.e-002	-5.9448e-005
15939	10.052	4.	0.	-200.25
15940	9.9598	3.9091	0.	-217.51
15941	9.9598	4.	5.e-002	-4.2332e-005
15942	10.237	4.	0.	-212.37
15943	10.145	3.9091	0.	-233.37
15944	10.145	4.	5.e-002	-3.9505e-005
15945	10.422	4.	0.	-215.2
15946	10.329	3.9091	0.	-238.
15947	10.329	4.	5.e-002	-3.6276e-005
15948	10.606	4.	0.	-212.16
15949	10.514	3.9091	0.	-235.42
15950	10.514	4.	5.e-002	-2.292e-005
15951	10.791	4.	0.	-205.45
15952	10.699	3.9091	0.	-228.29
15953	10.699	4.	5.e-002	-2.9307e-005
15954	10.976	4.	0.	-196.5
15955	10.884	3.9091	0.	-218.39
15956	10.884	4.	5.e-002	-2.7173e-005
15957	11.161	4.	0.	-186.28
15958	11.068	3.9091	0.	-206.89
15959	11.068	4.	5.e-002	-9.6506e-006
15960	11.345	4.	0.	-175.4
15961	11.253	3.9091	0.	-194.57
15962	11.253	4.	5.e-002	-7.1044e-006
15963	11.53	4.	0.	-164.28
15964	11.438	3.9091	0.	-181.96
15965	11.438	4.	5.e-002	-6.3679e-006
15966	11.715	4.	0.	-153.21
15967	11.622	3.9091	0.	-169.41
15968	11.622	4.	5.e-002	-8.2855e-006
15969	11.9	4.	0.	-142.37
15970	11.807	3.9091	0.	-157.14
15971	11.807	4.	5.e-002	-1.5014e-005
15972	12.084	4.	0.	-131.88
15973	11.992	3.9091	0.	-145.32
15974	11.992	4.	5.e-002	-7.6727e-006
15975	12.269	4.	0.	-121.83
15976	12.177	3.9091	0.	-134.02
15977	12.177	4.	5.e-002	-9.5216e-006
15978	12.454	4.	0.	-112.25
15979	12.361	3.9091	0.	-123.3
15980	12.361	4.	5.e-002	-1.1552e-005
15981	12.639	4.	0.	-103.18
15982	12.546	3.9091	0.	-113.19
15983	12.546	4.	5.e-002	-1.3919e-005
15984	12.823	4.	0.	-94.619
15985	12.731	3.9091	0.	-103.68
15986	12.731	4.	5.e-002	-1.1216e-005
15987	13.008	4.	0.	-86.567
15988	12.916	3.9091	0.	-94.78
15989	12.916	4.	5.e-002	-8.3176e-006
15990	13.193	4.	0.	-79.012
15991	13.1	3.9091	0.	-86.458
15992	13.1	4.	5.e-002	-8.5206e-006
15993	13.378	4.	0.	-71.937
15994	13.285	3.9091	0.	-78.693
15995	13.285	4.	5.e-002	-5.3445e-006
15996	13.562	4.	0.	-65.321
15997	13.47	3.9091	0.	-71.459
15998	13.47	4.	5.e-002	-4.8712e-006
15999	13.747	4.	0.	-59.141
16000	13.655	3.9091	0.	-64.724
16001	13.655	4.	5.e-002	-5.3878e-006
16002	13.932	4.	0.	-53.372
16003	13.839	3.9091	0.	-58.458
16004	13.839	4.	5.e-002	-3.7226e-006
16005	14.116	4.	0.	-47.991
16006	14.024	3.9091	0.	-52.629
16007	14.024	4.	5.e-002	-3.4808e-006
16008	14.301	4.	0.	-42.97
16009	14.209	3.9091	0.	-47.208
16010	14.209	4.	5.e-002	-1.9311e-006
16011	14.486	4.	0.	-38.285
16012	14.394	3.9091	0.	-42.162
16013	14.394	4.	5.e-002	-2.0377e-006
16014	14.671	4.	0.	-33.911
16015	14.578	3.9091	0.	-37.465
16016	14.578	4.	5.e-002	-4.1063e-006
16017	14.855	4.	0.	-29.826
16018	14.763	3.9091	0.	-33.088
16019	14.763	4.	5.e-002	-2.098e-006
16020	15.04	4.	0.	-26.005
16021	14.948	3.9091	0.	-29.006
16022	14.948	4.	5.e-002	-1.9943e-006
16023	15.225	4.	0.	-22.428
16024	15.133	3.9091	0.	-25.192
16025	15.133	4.	5.e-002	1.0344e-007
16026	15.41	4.	0.	-19.073
16027	15.317	3.9091	0.	-21.624
16028	15.317	4.	5.e-002	1.9617e-006
16029	15.594	4.	0.	-15.92
16030	15.502	3.9091	0.	-18.279
16031	15.502	4.	5.e-002	1.5771e-006
16032	15.779	4.	0.	-12.951
16033	15.687	3.9091	0.	-15.137
16034	15.687	4.	5.e-002	1.8628e-006
16035	15.964	4.	0.	-10.148
16036	15.871	3.9091	0.	-12.177
16037	15.871	4.	5.e-002	3.3937e-006
16038	16.149	4.	0.	-7.4929
16039	16.056	3.9091	0.	-9.3803
16040	16.056	4.	5.e-002	4.3415e-006
16041	16.333	4.	0.	-4.9702
16042	16.241	3.9091	0.	-6.7299
16043	16.241	4.	5.e-002	4.5551e-006
16044	16.518	4.	0.	-2.5655
16045	16.426	3.9091	0.	-4.2089
16046	16.426	4.	5.e-002	4.5189e-006
16047	16.703	4.	0.	-0.30222
16048	16.61	3.9091	0.	-1.8034
16049	16.61	4.	5.e-002	4.4057e-006
16050	16.888	4.	0.	6.7955e-004
16051	16.795	3.9091	0.	-1.573e-002
16052	16.795	4.	5.e-002	4.3479e-006
16053	17.072	4.	0.	4.9942e-003
16054	16.98	3.9091	0.	4.1388e-003
16055	16.98	4.	5.e-002	2.3984e-006
16056	17.257	4.	0.	6.5376e-003
16057	17.165	3.9091	0.	6.5177e-003
16058	17.165	4.	5.e-002	2.208e-006
16059	17.442	4.	0.	7.4653e-003
16060	17.349	3.9091	0.	7.6354e-003
16061	17.349	4.	5.e-002	5.0497e-006
16062	17.627	4.	0.	8.1801e-003
16063	17.534	3.9091	0.	8.4043e-003
16064	17.534	4.	5.e-002	4.0368e-006
16065	17.811	4.	0.	8.8044e-003
16066	17.719	3.9091	0.	9.0572e-003
16067	17.719	4.	5.e-002	5.1765e-006
16068	17.996	4.	0.	9.365e-003
16069	17.904	3.9091	0.	9.6469e-003
16070	17.904	4.	5.e-002	6.013e-006
16071	18.181	4.	0.	9.8914e-003
16072	18.088	3.9091	0.	1.0179e-002
16073	18.088	4.	5.e-002	6.9954e-006
16074	18.365	4.	0.	1.0427e-002
16075	18.273	3.9091	0.	1.0707e-002
16076	18.273	4.	5.e-002	5.5165e-006
16077	18.55	4.	0.	1.0994e-002
16078	18.458	3.9091	0.	1.1263e-002
16079	18.458	4.	5.e-002	2.4637e-006
16080	18.735	4.	0.	1.159e-002
16081	18.643	3.9091	0.	1.1857e-002
16082	18.643	4.	5.e-002	5.0787e-006
16083	18.92	4.	0.	1.2199e-002
16084	18.827	3.9091	0.	1.2473e-002
16085	18.827	4.	5.e-002	5.2844e-006
16086	19.104	4.	0.	1.2835e-002
16087	19.012	3.9091	0.	1.31e-002
16088	19.012	4.	5.e-002	5.5617e-006
16089	19.289	4.	0.	1.3518e-002
16090	19.197	3.9091	0.	1.3771e-002
16091	19.197	4.	5.e-002	7.0617e-006
16092	19.474	4.	0.	1.4255e-002
16093	19.382	3.9091	0.	1.4494e-002
16094	19.382	4.	5.e-002	5.0243e-006
16095	19.659	4.	0.	1.5064e-002
16096	19.566	3.9091	0.	1.5278e-002
16097	19.566	4.	5.e-002	4.4467e-006
16098	19.843	4.	0.	1.595e-002
16099	19.751	3.9091	0.	1.6147e-002
16100	19.751	4.	5.e-002	6.4758e-006
16101	20.028	4.	0.	1.6905e-002
16102	19.936	3.9091	0.	1.7088e-002
16103	19.936	4.	5.e-002	3.4648e-006
16104	20.213	4.	0.	1.7943e-002
16105	20.12	3.9091	0.	1.8095e-002
16106	20.12	4.	5.e-002	5.8602e-006
16107	20.398	4.	0.	1.9098e-002
16108	20.305	3.9091	0.	1.9206e-002
16109	20.305	4.	5.e-002	8.8811e-006
16110	20.582	4.	0.	2.0392e-002
16111	20.49	3.9091	0.	2.0449e-002
16112	20.49	4.	5.e-002	6.571e-006
16113	20.767	4.	0.	2.1843e-002
16114	20.675	3.9091	0.	2.1842e-002
16115	20.675	4.	5.e-002	5.5792e-006
16116	20.952	4.	0.	2.3466e-002
16117	20.859	3.9091	0.	2.34e-002
16118	20.859	4.	5.e-002	7.9399e-006
16119	21.137	4.	0.	2.5301e-002
16120	21.044	3.9091	0.	2.5141e-002
16121	21.044	4.	5.e-002	1.1568e-005
16122	21.321	4.	0.	2.7398e-002
16123	21.229	3.9091	0.	2.7122e-002
16124	21.229	4.	5.e-002	1.2091e-005
16125	21.506	4.	0.	2.9819e-002
16126	21.414	3.9091	0.	2.9394e-002
16127	21.414	4.	5.e-002	1.1345e-005
16128	21.691	4.	0.	3.2646e-002
16129	21.598	3.9091	0.	3.2026e-002
16130	21.598	4.	5.e-002	1.43e-005
16131	21.876	4.	0.	3.5978e-002
16132	21.783	3.9091	0.	3.5115e-002
16133	21.783	4.	5.e-002	1.2762e-005
16134	22.06	4.	0.	3.9953e-002
16135	21.968	3.9091	0.	3.8769e-002
16136	21.968	4.	5.e-002	1.0158e-005
16137	22.245	4.	0.	4.4775e-002
16138	22.153	3.9091	0.	4.3159e-002
16139	22.153	4.	5.e-002	1.2998e-005
16140	22.43	4.	0.	5.0773e-002
16141	22.337	3.9091	0.	4.8532e-002
16142	22.337	4.	5.e-002	1.3183e-005
16143	22.614	4.	0.	5.8364e-002
16144	22.522	3.9091	0.	5.5322e-002
16145	22.522	4.	5.e-002	1.461e-005
16146	22.799	4.	0.	6.8549e-002
16147	22.707	3.9091	0.	6.3964e-002
16148	22.707	4.	5.e-002	1.0392e-005
16149	22.984	4.	0.	8.1728e-002
16150	22.892	3.9091	0.	7.6099e-002
16151	22.892	4.	5.e-002	9.4835e-006
16152	23.169	4.	0.	0.10415
16153	23.076	3.9091	0.	9.1047e-002
16154	23.076	4.	5.e-002	1.2539e-005
16155	23.353	4.	0.	0.12657
16156	23.261	3.9091	0.	0.12239
16157	23.261	4.	5.e-002	1.227e-005
16158	23.538	4.	0.	0.22215
16159	23.446	3.9091	0.	0.13937
16160	23.446	4.	5.e-002	9.908e-006
16161	23.723	4.	0.	0.21412
16162	23.631	3.9091	0.	0.3249
16163	23.631	4.	5.e-002	1.1198e-005
16164	23.815	3.9091	0.	0.19209
16165	23.815	4.	5.e-002	8.8613e-006
16166	23.908	4.	0.	0.42207
16167	8.9438	3.8182	0.	12.694
16168	8.8514	3.7273	0.	-11.263
16169	8.8514	3.8182	5.e-002	-1.7735e-006
16170	9.1285	3.8182	0.	13.211
16171	9.0361	3.7273	0.	12.09
16172	9.0361	3.8182	5.e-002	-4.444e-006
16173	9.3133	3.8182	0.	-5.9634
16174	9.2209	3.7273	0.	-0.2165
16175	9.2209	3.8182	5.e-002	-6.8998e-006
16176	9.498	3.8182	0.	-111.03
16177	9.4056	3.7273	0.	-73.996
16178	9.4056	3.8182	5.e-002	-8.8389e-006
16179	9.6827	3.8182	0.	-186.78
16180	9.5904	3.7273	0.	-173.48
16181	9.5904	3.8182	5.e-002	-2.4128e-005
16182	9.8675	3.8182	0.	-229.71
16183	9.7751	3.7273	0.	-231.58
16184	9.7751	3.8182	5.e-002	-2.9461e-005
16185	10.052	3.8182	0.	-251.6
16186	9.9598	3.7273	0.	-263.03
16187	9.9598	3.8182	5.e-002	-1.9407e-005
16188	10.237	3.8182	0.	-259.59
16189	10.145	3.7273	0.	-276.72
16190	10.145	3.8182	5.e-002	-3.5852e-005
16191	10.422	3.8182	0.	-258.56
16192	10.329	3.7273	0.	-278.75
16193	10.329	3.8182	5.e-002	-2.6884e-005
16194	10.606	3.8182	0.	-251.75
16195	10.514	3.7273	0.	-273.24
16196	10.514	3.8182	5.e-002	-2.9518e-005
16197	10.791	3.8182	0.	-241.35
16198	10.699	3.7273	0.	-262.98
16199	10.699	3.8182	5.e-002	-8.727e-006
16200	10.976	3.8182	0.	-228.83
16201	10.884	3.7273	0.	-249.87
16202	10.884	3.8182	5.e-002	-1.9725e-005
16203	11.161	3.8182	0.	-215.2
16204	11.068	3.7273	0.	-235.22
16205	11.068	3.8182	5.e-002	-2.4568e-005
16206	11.345	3.8182	0.	-201.14
16207	11.253	3.7273	0.	-219.87
16208	11.253	3.8182	5.e-002	-1.6175e-005
16209	11.53	3.8182	0.	-187.08
16210	11.438	3.7273	0.	-204.43
16211	11.438	3.8182	5.e-002	-1.5922e-005
16212	11.715	3.8182	0.	-173.34
16213	11.622	3.7273	0.	-189.27
16214	11.622	3.8182	5.e-002	-1.445e-005
16215	11.9	3.8182	0.	-160.08
16216	11.807	3.7273	0.	-174.65
16217	11.807	3.8182	5.e-002	-1.2328e-005
16218	12.084	3.8182	0.	-147.45
16219	11.992	3.7273	0.	-160.7
16220	11.992	3.8182	5.e-002	-1.5224e-005
16221	12.269	3.8182	0.	-135.49
16222	12.177	3.7273	0.	-147.51
16223	12.177	3.8182	5.e-002	-1.8277e-005
16224	12.454	3.8182	0.	-124.23
16225	12.361	3.7273	0.	-135.13
16226	12.361	3.8182	5.e-002	-1.3539e-005
16227	12.639	3.8182	0.	-113.69
16228	12.546	3.7273	0.	-123.55
16229	12.546	3.8182	5.e-002	-1.6123e-005
16230	12.823	3.8182	0.	-103.84
16231	12.731	3.7273	0.	-112.76
16232	12.731	3.8182	5.e-002	-1.0699e-005
16233	13.008	3.8182	0.	-94.663
16234	12.916	3.7273	0.	-102.74
16235	12.916	3.8182	5.e-002	-8.6793e-006
16236	13.193	3.8182	0.	-86.132
16237	13.1	3.7273	0.	-93.444
16238	13.1	3.8182	5.e-002	-9.0256e-006
16239	13.378	3.8182	0.	-78.207
16240	13.285	3.7273	0.	-84.834
16241	13.285	3.8182	5.e-002	-5.9484e-006
16242	13.562	3.8182	0.	-70.853
16243	13.47	3.7273	0.	-76.865
16244	13.47	3.8182	5.e-002	-4.8853e-006
16245	13.747	3.8182	0.	-64.031
16246	13.655	3.7273	0.	-69.493
16247	13.655	3.8182	5.e-002	-6.2096e-006
16248	13.932	3.8182	0.	-57.704
16249	13.839	3.7273	0.	-62.672
16250	13.839	3.8182	5.e-002	-5.7348e-006
16251	14.116	3.8182	0.	-51.834
16252	14.024	3.7273	0.	-56.361
16253	14.024	3.8182	5.e-002	-4.442e-006
16254	14.301	3.8182	0.	-46.387
16255	14.209	3.7273	0.	-50.519
16256	14.209	3.8182	5.e-002	-3.4518e-006
16257	14.486	3.8182	0.	-41.329
16258	14.394	3.7273	0.	-45.106
16259	14.394	3.8182	5.e-002	-3.1822e-006
16260	14.671	3.8182	0.	-36.627
16261	14.578	3.7273	0.	-40.087
16262	14.578	3.8182	5.e-002	-4.0917e-006
16263	14.855	3.8182	0.	-32.252
16264	14.763	3.7273	0.	-35.427
16265	14.763	3.8182	5.e-002	-2.8282e-006
16266	15.04	3.8182	0.	-28.175
16267	14.948	3.7273	0.	-31.094
16268	14.948	3.8182	5.e-002	-3.0431e-006
16269	15.225	3.8182	0.	-24.37
16270	15.133	3.7273	0.	-27.059
16271	15.133	3.8182	5.e-002	-9.9572e-007
16272	15.41	3.8182	0.	-20.811
16273	15.317	3.7273	0.	-23.293
16274	15.317	3.8182	5.e-002	8.4058e-007
16275	15.594	3.8182	0.	-17.475
16276	15.502	3.7273	0.	-19.772
16277	15.502	3.8182	5.e-002	6.7244e-007
16278	15.779	3.8182	0.	-14.341
16279	15.687	3.7273	0.	-16.471
16280	15.687	3.8182	5.e-002	9.9998e-007
16281	15.964	3.8182	0.	-11.387
16282	15.871	3.7273	0.	-13.367
16283	15.871	3.8182	5.e-002	2.7124e-006
16284	16.149	3.8182	0.	-8.5943
16285	16.056	3.7273	0.	-10.439
16286	16.056	3.8182	5.e-002	3.3807e-006
16287	16.333	3.8182	0.	-5.9445
16288	16.241	3.7273	0.	-7.6684
16289	16.241	3.8182	5.e-002	3.5393e-006
16290	16.518	3.8182	0.	-3.4209
16291	16.426	3.7273	0.	-5.0359
16292	16.426	3.8182	5.e-002	3.5813e-006
16293	16.703	3.8182	0.	-1.0121
16294	16.61	3.7273	0.	-2.525
16295	16.61	3.8182	5.e-002	3.319e-006
16296	16.888	3.8182	0.	8.854e-004
16297	16.795	3.7273	0.	-0.16262
16298	16.795	3.8182	5.e-002	3.2699e-006
16299	17.072	3.8182	0.	6.2725e-003
16300	16.98	3.7273	0.	5.4338e-003
16301	16.98	3.8182	5.e-002	1.2642e-006
16302	17.257	3.8182	0.	7.7403e-003
16303	17.165	3.7273	0.	7.7363e-003
16304	17.165	3.8182	5.e-002	1.1058e-006
16305	17.442	3.8182	0.	8.597e-003
16306	17.349	3.7273	0.	8.7305e-003
16307	17.349	3.8182	5.e-002	3.776e-006
16308	17.627	3.8182	0.	9.2681e-003
16309	17.534	3.7273	0.	9.4264e-003
16310	17.534	3.8182	5.e-002	2.8168e-006
16311	17.811	3.8182	0.	9.8696e-003
16312	17.719	3.7273	0.	1.0039e-002
16313	17.719	3.8182	5.e-002	3.5235e-006
16314	17.996	3.8182	0.	1.0422e-002
16315	17.904	3.7273	0.	1.0607e-002
16316	17.904	3.8182	5.e-002	4.4174e-006
16317	18.181	3.8182	0.	1.0949e-002
16318	18.088	3.7273	0.	1.1131e-002
16319	18.088	3.8182	5.e-002	5.7547e-006
16320	18.365	3.8182	0.	1.1492e-002
16321	18.273	3.7273	0.	1.1659e-002
16322	18.273	3.8182	5.e-002	4.2742e-006
16323	18.55	3.8182	0.	1.2071e-002
16324	18.458	3.7273	0.	1.222e-002
16325	18.458	3.8182	5.e-002	1.5739e-006
16326	18.735	3.8182	0.	1.2682e-002
16327	18.643	3.7273	0.	1.2824e-002
16328	18.643	3.8182	5.e-002	3.7727e-006
16329	18.92	3.8182	0.	1.3312e-002
16330	18.827	3.7273	0.	1.3454e-002
16331	18.827	3.8182	5.e-002	3.5381e-006
16332	19.104	3.8182	0.	1.3971e-002
16333	19.012	3.7273	0.	1.41e-002
16334	19.012	3.8182	5.e-002	3.8506e-006
16335	19.289	3.8182	0.	1.4677e-002
16336	19.197	3.7273	0.	1.4789e-002
16337	19.197	3.8182	5.e-002	5.775e-006
16338	19.474	3.8182	0.	1.5442e-002
16339	19.382	3.7273	0.	1.5533e-002
16340	19.382	3.8182	5.e-002	2.7759e-006
16341	19.659	3.8182	0.	1.6283e-002
16342	19.566	3.7273	0.	1.6343e-002
16343	19.566	3.8182	5.e-002	3.6203e-006
16344	19.843	3.8182	0.	1.7201e-002
16345	19.751	3.7273	0.	1.7237e-002
16346	19.751	3.8182	5.e-002	5.1285e-006
16347	20.028	3.8182	0.	1.8189e-002
16348	19.936	3.7273	0.	1.8205e-002
16349	19.936	3.8182	5.e-002	2.3487e-006
16350	20.213	3.8182	0.	1.9263e-002
16351	20.12	3.7273	0.	1.9241e-002
16352	20.12	3.8182	5.e-002	3.832e-006
16353	20.398	3.8182	0.	2.0455e-002
16354	20.305	3.7273	0.	2.0383e-002
16355	20.305	3.8182	5.e-002	6.3342e-006
16356	20.582	3.8182	0.	2.1788e-002
16357	20.49	3.7273	0.	2.1658e-002
16358	20.49	3.8182	5.e-002	4.0033e-006
16359	20.767	3.8182	0.	2.3279e-002
16360	20.675	3.7273	0.	2.3084e-002
16361	20.675	3.8182	5.e-002	4.4367e-006
16362	20.952	3.8182	0.	2.4943e-002
16363	20.859	3.7273	0.	2.4676e-002
16364	20.859	3.8182	5.e-002	6.3529e-006
16365	21.137	3.8182	0.	2.6817e-002
16366	21.044	3.7273	0.	2.645e-002
16367	21.044	3.8182	5.e-002	9.92e-006
16368	21.321	3.8182	0.	2.8955e-002
16369	21.229	3.7273	0.	2.8465e-002
16370	21.229	3.8182	5.e-002	1.0968e-005
16371	21.506	3.8182	0.	3.1416e-002
16372	21.414	3.7273	0.	3.077e-002
16373	21.414	3.8182	5.e-002	1.0105e-005
16374	21.691	3.8182	0.	3.4282e-002
16375	21.598	3.7273	0.	3.3435e-002
16376	21.598	3.8182	5.e-002	1.3062e-005
16377	21.876	3.8182	0.	3.7654e-002
16378	21.783	3.7273	0.	3.6554e-002
16379	21.783	3.8182	5.e-002	1.2362e-005
16380	22.06	3.8182	0.	4.1669e-002
16381	21.968	3.7273	0.	4.0241e-002
16382	21.968	3.8182	5.e-002	5.937e-006
16383	22.245	3.8182	0.	4.6533e-002
16384	22.153	3.7273	0.	4.4664e-002
16385	22.153	3.8182	5.e-002	1.1653e-005
16386	22.43	3.8182	0.	5.2582e-002
16387	22.337	3.7273	0.	5.0076e-002
16388	22.337	3.8182	5.e-002	8.9122e-006
16389	22.614	3.8182	0.	6.0235e-002
16390	22.522	3.7273	0.	5.6912e-002
16391	22.522	3.8182	5.e-002	1.1229e-005
16392	22.799	3.8182	0.	7.0504e-002
16393	22.707	3.7273	0.	6.5616e-002
16394	22.707	3.8182	5.e-002	7.8596e-006
16395	22.984	3.8182	0.	8.3804e-002
16396	22.892	3.7273	0.	7.7838e-002
16397	22.892	3.8182	5.e-002	7.9555e-006
16398	23.169	3.8182	0.	0.10641
16399	23.076	3.7273	0.	9.2915e-002
16400	23.076	3.8182	5.e-002	9.0842e-006
16401	23.353	3.8182	0.	0.1291
16402	23.261	3.7273	0.	0.12447
16403	23.261	3.8182	5.e-002	9.8631e-006
16404	23.538	3.8182	0.	0.22536
16405	23.446	3.7273	0.	0.14174
16406	23.446	3.8182	5.e-002	5.6503e-006
16407	23.723	3.8182	0.	0.21921
16408	23.631	3.7273	0.	0.32828
16409	23.631	3.8182	5.e-002	6.9895e-006
16410	23.815	3.7273	0.	0.19893
16411	23.815	3.8182	5.e-002	6.6554e-006
16412	23.908	3.8182	0.	0.42377
16413	8.9438	3.6364	0.	-12.689
16414	8.8514	3.5455	0.	-5.6719
16415	8.8514	3.6364	5.e-002	-1.4938e-005
16416	9.1285	3.6364	0.	-2.3122
16417	9.0361	3.5455	0.	-4.3269
16418	9.0361	3.6364	5.e-002	6.3444e-005
16419	9.3133	3.6364	0.	-2.8935
16420	9.2209	3.5455	0.	2.1101
16421	9.2209	3.6364	5.e-002	5.3819e-005
16422	9.498	3.6364	0.	-136.14
16423	9.4056	3.5455	0.	-76.108
16424	9.4056	3.6364	5.e-002	2.2291e-005
16425	9.6827	3.6364	0.	-218.76
16426	9.5904	3.5455	0.	-189.06
16427	9.5904	3.6364	5.e-002	1.4286e-005
16428	9.8675	3.6364	0.	-265.48
16429	9.7751	3.5455	0.	-256.1
16430	9.7751	3.6364	5.e-002	-2.8012e-007
16431	10.052	3.6364	0.	-288.6
16432	9.9598	3.5455	0.	-292.24
16433	9.9598	3.6364	5.e-002	-2.0563e-005
16434	10.237	3.6364	0.	-296.18
16435	10.145	3.5455	0.	-307.79
16436	10.145	3.6364	5.e-002	-1.9269e-005
16437	10.422	3.6364	0.	-293.62
16438	10.329	3.5455	0.	-309.79
16439	10.329	3.6364	5.e-002	-2.3884e-005
16440	10.606	3.6364	0.	-284.58
16441	10.514	3.5455	0.	-303.07
16442	10.514	3.6364	5.e-002	-2.8604e-005
16443	10.791	3.6364	0.	-271.56
16444	10.699	3.5455	0.	-290.9
16445	10.699	3.6364	5.e-002	-2.9927e-005
16446	10.976	3.6364	0.	-256.29
16447	10.884	3.5455	0.	-275.52
16448	10.884	3.6364	5.e-002	-2.2267e-005
16449	11.161	3.6364	0.	-239.9
16450	11.068	3.5455	0.	-258.46
16451	11.068	3.6364	5.e-002	-1.7552e-005
16452	11.345	3.6364	0.	-223.17
16453	11.253	3.5455	0.	-240.72
16454	11.253	3.6364	5.e-002	-2.544e-005
16455	11.53	3.6364	0.	-206.62
16456	11.438	3.5455	0.	-222.98
16457	11.438	3.6364	5.e-002	-2.2182e-005
16458	11.715	3.6364	0.	-190.58
16459	11.622	3.5455	0.	-205.68
16460	11.622	3.6364	5.e-002	-1.6714e-005
16461	11.9	3.6364	0.	-175.25
16462	11.807	3.5455	0.	-189.1
16463	11.807	3.6364	5.e-002	-1.4327e-005
16464	12.084	3.6364	0.	-160.76
16465	11.992	3.5455	0.	-173.39
16466	11.992	3.6364	5.e-002	-1.8913e-005
16467	12.269	3.6364	0.	-147.15
16468	12.177	3.5455	0.	-158.63
16469	12.177	3.6364	5.e-002	-1.8014e-005
16470	12.454	3.6364	0.	-134.44
16471	12.361	3.5455	0.	-144.86
16472	12.361	3.6364	5.e-002	-1.3226e-005
16473	12.639	3.6364	0.	-122.62
16474	12.546	3.5455	0.	-132.06
16475	12.546	3.6364	5.e-002	-1.4075e-005
16476	12.823	3.6364	0.	-111.66
16477	12.731	3.5455	0.	-120.2
16478	12.731	3.6364	5.e-002	-1.3473e-005
16479	13.008	3.6364	0.	-101.51
16480	12.916	3.5455	0.	-109.25
16481	12.916	3.6364	5.e-002	-8.9448e-006
16482	13.193	3.6364	0.	-92.14
16483	13.1	3.5455	0.	-99.146
16484	13.1	3.6364	5.e-002	-6.9927e-006
16485	13.378	3.6364	0.	-83.485
16486	13.285	3.5455	0.	-89.835
16487	13.285	3.6364	5.e-002	-7.4361e-006
16488	13.562	3.6364	0.	-75.497
16489	13.47	3.5455	0.	-81.258
16490	13.47	3.6364	5.e-002	-6.1593e-006
16491	13.747	3.6364	0.	-68.125
16492	13.655	3.5455	0.	-73.358
16493	13.655	3.6364	5.e-002	-6.1381e-006
16494	13.932	3.6364	0.	-61.32
16495	13.839	3.5455	0.	-66.08
16496	13.839	3.6364	5.e-002	-5.6092e-006
16497	14.116	3.6364	0.	-55.035
16498	14.024	3.5455	0.	-59.373
16499	14.024	3.6364	5.e-002	-4.2976e-006
16500	14.301	3.6364	0.	-49.226
16501	14.209	3.5455	0.	-53.185
16502	14.209	3.6364	5.e-002	-3.1025e-006
16503	14.486	3.6364	0.	-43.851
16504	14.394	3.5455	0.	-47.471
16505	14.394	3.6364	5.e-002	-2.9125e-006
16506	14.671	3.6364	0.	-38.872
16507	14.578	3.5455	0.	-42.188
16508	14.578	3.6364	5.e-002	-4.175e-006
16509	14.855	3.6364	0.	-34.253
16510	14.763	3.5455	0.	-37.297
16511	14.763	3.6364	5.e-002	-3.1659e-006
16512	15.04	3.6364	0.	-29.961
16513	14.948	3.5455	0.	-32.761
16514	14.948	3.6364	5.e-002	-2.6147e-006
16515	15.225	3.6364	0.	-25.964
16516	15.133	3.5455	0.	-28.546
16517	15.133	3.6364	5.e-002	-5.8774e-007
16518	15.41	3.6364	0.	-22.235
16519	15.317	3.5455	0.	-24.621
16520	15.317	3.6364	5.e-002	1.1632e-006
16521	15.594	3.6364	0.	-18.747
16522	15.502	3.5455	0.	-20.957
16523	15.502	3.6364	5.e-002	1.2469e-006
16524	15.779	3.6364	0.	-15.475
16525	15.687	3.5455	0.	-17.528
16526	15.687	3.6364	5.e-002	1.4325e-006
16527	15.964	3.6364	0.	-12.397
16528	15.871	3.5455	0.	-14.308
16529	15.871	3.6364	5.e-002	2.9171e-006
16530	16.149	3.6364	0.	-9.4905
16531	16.056	3.5455	0.	-11.276
16532	16.056	3.6364	5.e-002	3.7954e-006
16533	16.333	3.6364	0.	-6.7361
16534	16.241	3.5455	0.	-8.409
16535	16.241	3.6364	5.e-002	4.0072e-006
16536	16.518	3.6364	0.	-4.1152
16537	16.426	3.5455	0.	-5.6877
16538	16.426	3.6364	5.e-002	4.1419e-006
16539	16.703	3.6364	0.	-1.6113
16540	16.61	3.5455	0.	-3.0935
16541	16.61	3.6364	5.e-002	3.8539e-006
16542	16.888	3.6364	0.	1.0328e-003
16543	16.795	3.5455	0.	-0.61391
16544	16.795	3.6364	5.e-002	3.6372e-006
16545	17.072	3.6364	0.	7.5622e-003
16546	16.98	3.5455	0.	6.9022e-003
16547	16.98	3.6364	5.e-002	1.7123e-006
16548	17.257	3.6364	0.	8.8179e-003
16549	17.165	3.5455	0.	8.8376e-003
16550	17.165	3.6364	5.e-002	1.528e-006
16551	17.442	3.6364	0.	9.5598e-003
16552	17.349	3.5455	0.	9.6492e-003
16553	17.349	3.6364	5.e-002	4.2647e-006
16554	17.627	3.6364	0.	1.0169e-002
16555	17.534	3.5455	0.	1.0255e-002
16556	17.534	3.6364	5.e-002	3.0832e-006
16557	17.811	3.6364	0.	1.0737e-002
16558	17.719	3.5455	0.	1.082e-002
16559	17.719	3.6364	5.e-002	4.2587e-006
16560	17.996	3.6364	0.	1.1271e-002
16561	17.904	3.5455	0.	1.1361e-002
16562	17.904	3.6364	5.e-002	4.9542e-006
16563	18.181	3.6364	0.	1.179e-002
16564	18.088	3.5455	0.	1.1871e-002
16565	18.088	3.6364	5.e-002	5.9451e-006
16566	18.365	3.6364	0.	1.2333e-002
16567	18.273	3.5455	0.	1.2394e-002
16568	18.273	3.6364	5.e-002	4.0786e-006
16569	18.55	3.6364	0.	1.2917e-002
16570	18.458	3.5455	0.	1.2955e-002
16571	18.458	3.6364	5.e-002	1.4931e-006
16572	18.735	3.6364	0.	1.3538e-002
16573	18.643	3.5455	0.	1.3564e-002
16574	18.643	3.6364	5.e-002	3.4479e-006
16575	18.92	3.6364	0.	1.4181e-002
16576	18.827	3.5455	0.	1.4204e-002
16577	18.827	3.6364	5.e-002	3.9443e-006
16578	19.104	3.6364	0.	1.4854e-002
16579	19.012	3.5455	0.	1.4859e-002
16580	19.012	3.6364	5.e-002	4.2223e-006
16581	19.289	3.6364	0.	1.5578e-002
16582	19.197	3.5455	0.	1.5561e-002
16583	19.197	3.6364	5.e-002	5.6863e-006
16584	19.474	3.6364	0.	1.6363e-002
16585	19.382	3.5455	0.	1.632e-002
16586	19.382	3.6364	5.e-002	3.3658e-006
16587	19.659	3.6364	0.	1.7223e-002
16588	19.566	3.5455	0.	1.7146e-002
16589	19.566	3.6364	5.e-002	3.2332e-006
16590	19.843	3.6364	0.	1.8162e-002
16591	19.751	3.5455	0.	1.8057e-002
16592	19.751	3.6364	5.e-002	4.9702e-006
16593	20.028	3.6364	0.	1.9174e-002
16594	19.936	3.5455	0.	1.9045e-002
16595	19.936	3.6364	5.e-002	2.6505e-006
16596	20.213	3.6364	0.	2.0273e-002
16597	20.12	3.5455	0.	2.0102e-002
16598	20.12	3.6364	5.e-002	4.6243e-006
16599	20.398	3.6364	0.	2.1491e-002
16600	20.305	3.5455	0.	2.1264e-002
16601	20.305	3.6364	5.e-002	6.5877e-006
16602	20.582	3.6364	0.	2.2851e-002
16603	20.49	3.5455	0.	2.2562e-002
16604	20.49	3.6364	5.e-002	4.2549e-006
16605	20.767	3.6364	0.	2.4369e-002
16606	20.675	3.5455	0.	2.4007e-002
16607	20.675	3.6364	5.e-002	3.7365e-006
16608	20.952	3.6364	0.	2.6061e-002
16609	20.859	3.5455	0.	2.5622e-002
16610	20.859	3.6364	5.e-002	7.0635e-006
16611	21.137	3.6364	0.	2.7962e-002
16612	21.044	3.5455	0.	2.7419e-002
16613	21.044	3.6364	5.e-002	1.0095e-005
16614	21.321	3.6364	0.	3.0127e-002
16615	21.229	3.5455	0.	2.9455e-002
16616	21.229	3.6364	5.e-002	1.1617e-005
16617	21.506	3.6364	0.	3.2615e-002
16618	21.414	3.5455	0.	3.1782e-002
16619	21.414	3.6364	5.e-002	9.7506e-006
16620	21.691	3.6364	0.	3.5505e-002
16621	21.598	3.5455	0.	3.4468e-002
16622	21.598	3.6364	5.e-002	1.1735e-005
16623	21.876	3.6364	0.	3.8901e-002
16624	21.783	3.5455	0.	3.7607e-002
16625	21.783	3.6364	5.e-002	1.1884e-005
16626	22.06	3.6364	0.	4.2943e-002
16627	21.968	3.5455	0.	4.1313e-002
16628	21.968	3.6364	5.e-002	8.3151e-006
16629	22.245	3.6364	0.	4.7837e-002
16630	22.153	3.5455	0.	4.5759e-002
16631	22.153	3.6364	5.e-002	1.0207e-005
16632	22.43	3.6364	0.	5.3918e-002
16633	22.337	3.5455	0.	5.1198e-002
16634	22.337	3.6364	5.e-002	1.0286e-005
16635	22.614	3.6364	0.	6.1616e-002
16636	22.522	3.5455	0.	5.8063e-002
16637	22.522	3.6364	5.e-002	1.1529e-005
16638	22.799	3.6364	0.	7.1949e-002
16639	22.707	3.5455	0.	6.6814e-002
16640	22.707	3.6364	5.e-002	7.3247e-006
16641	22.984	3.6364	0.	8.534e-002
16642	22.892	3.5455	0.	7.9102e-002
16643	22.892	3.6364	5.e-002	7.436e-006
16644	23.169	3.6364	0.	0.10809
16645	23.076	3.5455	0.	9.4273e-002
16646	23.076	3.6364	5.e-002	9.4509e-006
16647	23.353	3.6364	0.	0.13098
16648	23.261	3.5455	0.	0.12599
16649	23.261	3.6364	5.e-002	1.1149e-005
16650	23.538	3.6364	0.	0.22776
16651	23.446	3.5455	0.	0.14348
16652	23.446	3.6364	5.e-002	5.1524e-006
16653	23.723	3.6364	0.	0.22307
16654	23.631	3.5455	0.	0.33076
16655	23.631	3.6364	5.e-002	6.6828e-006
16656	23.815	3.5455	0.	0.20405
16657	23.815	3.6364	5.e-002	7.7035e-007
16658	23.908	3.6364	0.	0.42503
16659	8.9438	3.4545	0.	2.4492
16660	8.8514	3.3636	0.	1.0817
16661	8.8514	3.4545	5.e-002	8.6964e-005
16662	9.1285	3.4545	0.	9.9116e-002
16663	9.0361	3.3636	0.	0.24156
16664	9.0361	3.4545	5.e-002	7.8642e-005
16665	9.3133	3.4545	0.	-1.0152
16666	9.2209	3.3636	0.	0.32737
16667	9.2209	3.4545	5.e-002	7.721e-005
16668	9.498	3.4545	0.	-125.78
16669	9.4056	3.3636	0.	-52.725
16670	9.4056	3.4545	5.e-002	5.071e-005
16671	9.6827	3.4545	0.	-225.18
16672	9.5904	3.3636	0.	-183.69
16673	9.5904	3.4545	5.e-002	2.8434e-005
16674	9.8675	3.4545	0.	-282.43
16675	9.7751	3.3636	0.	-263.64
16676	9.7751	3.4545	5.e-002	1.6203e-006
16677	10.052	3.4545	0.	-311.29
16678	9.9598	3.3636	0.	-307.62
16679	9.9598	3.4545	5.e-002	-9.4645e-006
16680	10.237	3.4545	0.	-321.38
16681	10.145	3.3636	0.	-327.26
16682	10.145	3.4545	5.e-002	-2.093e-005
16683	10.422	3.4545	0.	-319.26
16684	10.329	3.3636	0.	-330.88
16685	10.329	3.4545	5.e-002	-2.5168e-005
16686	10.606	3.4545	0.	-309.41
16687	10.514	3.3636	0.	-324.19
16688	10.514	3.4545	5.e-002	-2.2132e-005
16689	10.791	3.4545	0.	-294.87
16690	10.699	3.3636	0.	-311.13
16691	10.699	3.4545	5.e-002	-2.603e-005
16692	10.976	3.4545	0.	-277.7
16693	10.884	3.3636	0.	-294.36
16694	10.884	3.4545	5.e-002	-2.255e-005
16695	11.161	3.4545	0.	-259.28
16696	11.068	3.3636	0.	-275.66
16697	11.068	3.4545	5.e-002	-2.3198e-005
16698	11.345	3.4545	0.	-240.53
16699	11.253	3.3636	0.	-256.21
16700	11.253	3.4545	5.e-002	-2.4642e-005
16701	11.53	3.4545	0.	-222.04
16702	11.438	3.3636	0.	-236.8
16703	11.438	3.4545	5.e-002	-2.1217e-005
16704	11.715	3.4545	0.	-204.2
16705	11.622	3.3636	0.	-217.92
16706	11.622	3.4545	5.e-002	-1.8712e-005
16707	11.9	3.4545	0.	-187.23
16708	11.807	3.3636	0.	-199.88
16709	11.807	3.4545	5.e-002	-1.8381e-005
16710	12.084	3.4545	0.	-171.26
16711	11.992	3.3636	0.	-182.85
16712	11.992	3.4545	5.e-002	-1.4714e-005
16713	12.269	3.4545	0.	-156.34
16714	12.177	3.3636	0.	-166.92
16715	12.177	3.4545	5.e-002	-1.5881e-005
16716	12.454	3.4545	0.	-142.47
16717	12.361	3.3636	0.	-152.1
16718	12.361	3.4545	5.e-002	-1.5953e-005
16719	12.639	3.4545	0.	-129.64
16720	12.546	3.3636	0.	-138.38
16721	12.546	3.4545	5.e-002	-1.7176e-005
16722	12.823	3.4545	0.	-117.79
16723	12.731	3.3636	0.	-125.73
16724	12.731	3.4545	5.e-002	-1.2945e-005
16725	13.008	3.4545	0.	-106.88
16726	12.916	3.3636	0.	-114.08
16727	12.916	3.4545	5.e-002	-9.5487e-006
16728	13.193	3.4545	0.	-96.835
16729	13.1	3.3636	0.	-103.37
16730	13.1	3.4545	5.e-002	-9.1266e-006
16731	13.378	3.4545	0.	-87.601
16732	13.285	3.3636	0.	-93.531
16733	13.285	3.4545	5.e-002	-5.6938e-006
16734	13.562	3.4545	0.	-79.111
16735	13.47	3.3636	0.	-84.499
16736	13.47	3.4545	5.e-002	-5.5863e-006
16737	13.747	3.4545	0.	-71.305
16738	13.655	3.3636	0.	-76.206
16739	13.655	3.4545	5.e-002	-7.2714e-006
16740	13.932	3.4545	0.	-64.123
16741	13.839	3.3636	0.	-68.587
16742	13.839	3.4545	5.e-002	-5.1742e-006
16743	14.116	3.4545	0.	-57.512
16744	14.024	3.3636	0.	-61.583
16745	14.024	3.4545	5.e-002	-4.9253e-006
16746	14.301	3.4545	0.	-51.418
16747	14.209	3.3636	0.	-55.139
16748	14.209	3.4545	5.e-002	-3.7571e-006
16749	14.486	3.4545	0.	-45.795
16750	14.394	3.3636	0.	-49.201
16751	14.394	3.4545	5.e-002	-3.1873e-006
16752	14.671	3.4545	0.	-40.599
16753	14.578	3.3636	0.	-43.724
16754	14.578	3.4545	5.e-002	-4.0288e-006
16755	14.855	3.4545	0.	-35.79
16756	14.763	3.3636	0.	-38.662
16757	14.763	3.4545	5.e-002	-3.4508e-006
16758	15.04	3.4545	0.	-31.33
16759	14.948	3.3636	0.	-33.976
16760	14.948	3.4545	5.e-002	-2.67e-006
16761	15.225	3.4545	0.	-27.185
16762	15.133	3.3636	0.	-29.628
16763	15.133	3.4545	5.e-002	-4.5257e-007
16764	15.41	3.4545	0.	-23.324
16765	15.317	3.3636	0.	-25.586
16766	15.317	3.4545	5.e-002	8.209e-007
16767	15.594	3.4545	0.	-19.718
16768	15.502	3.3636	0.	-21.817
16769	15.502	3.4545	5.e-002	1.1237e-006
16770	15.779	3.4545	0.	-16.34
16771	15.687	3.3636	0.	-18.294
16772	15.687	3.4545	5.e-002	1.2802e-006
16773	15.964	3.4545	0.	-13.166
16774	15.871	3.3636	0.	-14.99
16775	15.871	3.4545	5.e-002	3.2211e-006
16776	16.149	3.4545	0.	-10.172
16777	16.056	3.3636	0.	-11.881
16778	16.056	3.4545	5.e-002	3.8598e-006
16779	16.333	3.4545	0.	-7.3371
16780	16.241	3.3636	0.	-8.9438
16781	16.241	3.4545	5.e-002	3.8298e-006
16782	16.518	3.4545	0.	-4.6417
16783	16.426	3.3636	0.	-6.1579
16784	16.426	3.4545	5.e-002	4.5409e-006
16785	16.703	3.4545	0.	-2.0672
16786	16.61	3.3636	0.	-3.5035
16787	16.61	3.4545	5.e-002	3.8847e-006
16788	16.888	3.4545	0.	1.098e-003
16789	16.795	3.3636	0.	-0.96316
16790	16.795	3.4545	5.e-002	3.6554e-006
16791	17.072	3.4545	0.	8.7604e-003
16792	16.98	3.3636	0.	8.4149e-003
16793	16.98	3.4545	5.e-002	1.6945e-006
16794	17.257	3.4545	0.	9.7071e-003
16795	17.165	3.3636	0.	9.7295e-003
16796	17.165	3.4545	5.e-002	1.401e-006
16797	17.442	3.4545	0.	1.0319e-002
16798	17.349	3.3636	0.	1.0347e-002
16799	17.349	3.4545	5.e-002	4.039e-006
16800	17.627	3.4545	0.	1.0863e-002
16801	17.534	3.3636	0.	1.0866e-002
16802	17.534	3.4545	5.e-002	2.936e-006
16803	17.811	3.4545	0.	1.1395e-002
16804	17.719	3.3636	0.	1.1385e-002
16805	17.719	3.4545	5.e-002	4.2819e-006
16806	17.996	3.4545	0.	1.191e-002
16807	17.904	3.3636	0.	1.1902e-002
16808	17.904	3.4545	5.e-002	4.7856e-006
16809	18.181	3.4545	0.	1.242e-002
16810	18.088	3.3636	0.	1.2399e-002
16811	18.088	3.4545	5.e-002	6.0025e-006
16812	18.365	3.4545	0.	1.296e-002
16813	18.273	3.3636	0.	1.2915e-002
16814	18.273	3.4545	5.e-002	4.486e-006
16815	18.55	3.4545	0.	1.3544e-002
16816	18.458	3.3636	0.	1.3476e-002
16817	18.458	3.4545	5.e-002	1.4167e-006
16818	18.735	3.4545	0.	1.417e-002
16819	18.643	3.3636	0.	1.4085e-002
16820	18.643	3.4545	5.e-002	3.117e-006
16821	18.92	3.4545	0.	1.482e-002
16822	18.827	3.3636	0.	1.4729e-002
16823	18.827	3.4545	5.e-002	3.6086e-006
16824	19.104	3.4545	0.	1.5502e-002
16825	19.012	3.3636	0.	1.539e-002
16826	19.012	3.4545	5.e-002	3.8705e-006
16827	19.289	3.4545	0.	1.6238e-002
16828	19.197	3.3636	0.	1.6101e-002
16829	19.197	3.4545	5.e-002	5.3279e-006
16830	19.474	3.4545	0.	1.7035e-002
16831	19.382	3.3636	0.	1.6871e-002
16832	19.382	3.4545	5.e-002	3.9468e-006
16833	19.659	3.4545	0.	1.7908e-002
16834	19.566	3.3636	0.	1.7706e-002
16835	19.566	3.4545	5.e-002	3.303e-006
16836	19.843	3.4545	0.	1.8864e-002
16837	19.751	3.3636	0.	1.8629e-002
16838	19.751	3.4545	5.e-002	4.3186e-006
16839	20.028	3.4545	0.	1.9892e-002
16840	19.936	3.3636	0.	1.9628e-002
16841	19.936	3.4545	5.e-002	1.9658e-006
16842	20.213	3.4545	0.	2.1008e-002
16843	20.12	3.3636	0.	2.0699e-002
16844	20.12	3.4545	5.e-002	4.3974e-006
16845	20.398	3.4545	0.	2.2244e-002
16846	20.305	3.3636	0.	2.1874e-002
16847	20.305	3.4545	5.e-002	6.361e-006
16848	20.582	3.4545	0.	2.362e-002
16849	20.49	3.3636	0.	2.3185e-002
16850	20.49	3.4545	5.e-002	4.4931e-006
16851	20.767	3.4545	0.	2.5154e-002
16852	20.675	3.3636	0.	2.4649e-002
16853	20.675	3.4545	5.e-002	4.0018e-006
16854	20.952	3.4545	0.	2.6864e-002
16855	20.859	3.3636	0.	2.6274e-002
16856	20.859	3.4545	5.e-002	5.4259e-006
16857	21.137	3.4545	0.	2.8782e-002
16858	21.044	3.3636	0.	2.8086e-002
16859	21.044	3.4545	5.e-002	1.076e-005
16860	21.321	3.4545	0.	3.0964e-002
16861	21.229	3.3636	0.	3.0135e-002
16862	21.229	3.4545	5.e-002	1.0326e-005
16863	21.506	3.4545	0.	3.3469e-002
16864	21.414	3.3636	0.	3.2474e-002
16865	21.414	3.4545	5.e-002	9.427e-006
16866	21.691	3.4545	0.	3.6376e-002
16867	21.598	3.3636	0.	3.5174e-002
16868	21.598	3.4545	5.e-002	1.3303e-005
16869	21.876	3.4545	0.	3.9786e-002
16870	21.783	3.3636	0.	3.8323e-002
16871	21.783	3.4545	5.e-002	1.055e-005
16872	22.06	3.4545	0.	4.3844e-002
16873	21.968	3.3636	0.	4.2044e-002
16874	21.968	3.4545	5.e-002	8.7727e-006
16875	22.245	3.4545	0.	4.8759e-002
16876	22.153	3.3636	0.	4.6502e-002
16877	22.153	3.4545	5.e-002	8.7763e-006
16878	22.43	3.4545	0.	5.4864e-002
16879	22.337	3.3636	0.	5.1958e-002
16880	22.337	3.4545	5.e-002	9.7792e-006
16881	22.614	3.4545	0.	6.2592e-002
16882	22.522	3.3636	0.	5.8846e-002
16883	22.522	3.4545	5.e-002	1.0949e-005
16884	22.799	3.4545	0.	7.2971e-002
16885	22.707	3.3636	0.	6.7627e-002
16886	22.707	3.4545	5.e-002	7.7774e-006
16887	22.984	3.4545	0.	8.6427e-002
16888	22.892	3.3636	0.	7.9961e-002
16889	22.892	3.4545	5.e-002	6.9237e-006
16890	23.169	3.4545	0.	0.10928
16891	23.076	3.3636	0.	9.5198e-002
16892	23.076	3.4545	5.e-002	8.8767e-006
16893	23.353	3.4545	0.	0.13232
16894	23.261	3.3636	0.	0.12702
16895	23.261	3.4545	5.e-002	8.7638e-006
16896	23.538	3.4545	0.	0.22947
16897	23.446	3.3636	0.	0.14466
16898	23.446	3.4545	5.e-002	8.5314e-006
16899	23.723	3.4545	0.	0.22585
16900	23.631	3.3636	0.	0.33247
16901	23.631	3.4545	5.e-002	6.3814e-006
16902	23.815	3.3636	0.	0.20761
16903	23.815	3.4545	5.e-002	2.4605e-006
16904	23.908	3.4545	0.	0.42591
16905	8.9438	3.2727	0.	-1.4048
16906	8.8514	3.1818	0.	-1.4587
16907	8.8514	3.2727	5.e-002	8.6521e-005
16908	9.1285	3.2727	0.	0.37812
16909	9.0361	3.1818	0.	7.8409e-002
16910	9.0361	3.2727	5.e-002	9.71e-005
16911	9.3133	3.2727	0.	0.58645
16912	9.2209	3.1818	0.	0.89976
16913	9.2209	3.2727	5.e-002	8.2099e-005
16914	9.498	3.2727	0.	-105.46
16915	9.4056	3.1818	0.	-29.963
16916	9.4056	3.2727	5.e-002	5.7327e-005
16917	9.6827	3.2727	0.	-219.54
16918	9.5904	3.1818	0.	-173.31
16919	9.5904	3.2727	5.e-002	2.9734e-005
16920	9.8675	3.2727	0.	-287.5
16921	9.7751	3.1818	0.	-263.36
16922	9.7751	3.2727	5.e-002	1.1896e-005
16923	10.052	3.2727	0.	-322.92
16924	9.9598	3.1818	0.	-314.
16925	9.9598	3.2727	5.e-002	-8.0178e-006
16926	10.237	3.2727	0.	-336.43
16927	10.145	3.1818	0.	-337.44
16928	10.145	3.2727	5.e-002	-1.0852e-005
16929	10.422	3.2727	0.	-335.65
16930	10.329	3.1818	0.	-342.83
16931	10.329	3.2727	5.e-002	-1.9787e-005
16932	10.606	3.2727	0.	-325.84
16933	10.514	3.1818	0.	-336.64
16934	10.514	3.2727	5.e-002	-2.3818e-005
16935	10.791	3.2727	0.	-310.59
16936	10.699	3.1818	0.	-323.31
16937	10.699	3.2727	5.e-002	-2.8406e-005
16938	10.976	3.2727	0.	-292.3
16939	10.884	3.1818	0.	-305.83
16940	10.884	3.2727	5.e-002	-2.0627e-005
16941	11.161	3.2727	0.	-272.58
16942	11.068	3.1818	0.	-286.2
16943	11.068	3.2727	5.e-002	-2.9321e-005
16944	11.345	3.2727	0.	-252.48
16945	11.253	3.1818	0.	-265.74
16946	11.253	3.2727	5.e-002	-2.6114e-005
16947	11.53	3.2727	0.	-232.68
16948	11.438	3.1818	0.	-245.32
16949	11.438	3.2727	5.e-002	-2.2588e-005
16950	11.715	3.2727	0.	-213.61
16951	11.622	3.1818	0.	-225.48
16952	11.622	3.2727	5.e-002	-1.8902e-005
16953	11.9	3.2727	0.	-195.51
16954	11.807	3.1818	0.	-206.54
16955	11.807	3.2727	5.e-002	-1.957e-005
16956	12.084	3.2727	0.	-178.51
16957	11.992	3.1818	0.	-188.7
16958	11.992	3.2727	5.e-002	-1.4268e-005
16959	12.269	3.2727	0.	-162.68
16960	12.177	3.1818	0.	-172.03
16961	12.177	3.2727	5.e-002	-1.7111e-005
16962	12.454	3.2727	0.	-148.01
16963	12.361	3.1818	0.	-156.57
16964	12.361	3.2727	5.e-002	-1.4619e-005
16965	12.639	3.2727	0.	-134.47
16966	12.546	3.1818	0.	-142.28
16967	12.546	3.2727	5.e-002	-1.439e-005
16968	12.823	3.2727	0.	-122.01
16969	12.731	3.1818	0.	-129.13
16970	12.731	3.2727	5.e-002	-1.4464e-005
16971	13.008	3.2727	0.	-110.56
16972	12.916	3.1818	0.	-117.05
16973	12.916	3.2727	5.e-002	-9.3701e-006
16974	13.193	3.2727	0.	-100.06
16975	13.1	3.1818	0.	-105.96
16976	13.1	3.2727	5.e-002	-8.2927e-006
16977	13.378	3.2727	0.	-90.423
16978	13.285	3.1818	0.	-95.8
16979	13.285	3.2727	5.e-002	-8.0022e-006
16980	13.562	3.2727	0.	-81.586
16981	13.47	3.1818	0.	-86.487
16982	13.47	3.2727	5.e-002	-6.7998e-006
16983	13.747	3.2727	0.	-73.479
16984	13.655	3.1818	0.	-77.95
16985	13.655	3.2727	5.e-002	-6.6487e-006
16986	13.932	3.2727	0.	-66.038
16987	13.839	3.1818	0.	-70.121
16988	13.839	3.2727	5.e-002	-5.5896e-006
16989	14.116	3.2727	0.	-59.2
16990	14.024	3.1818	0.	-62.934
16991	14.024	3.2727	5.e-002	-3.9904e-006
16992	14.301	3.2727	0.	-52.91
16993	14.209	3.1818	0.	-56.332
16994	14.209	3.2727	5.e-002	-2.9551e-006
16995	14.486	3.2727	0.	-47.117
16996	14.394	3.1818	0.	-50.257
16997	14.394	3.2727	5.e-002	-2.3795e-006
16998	14.671	3.2727	0.	-41.772
16999	14.578	3.1818	0.	-44.659
17000	14.578	3.2727	5.e-002	-4.2386e-006
17001	14.855	3.2727	0.	-36.832
17002	14.763	3.1818	0.	-39.492
17003	14.763	3.2727	5.e-002	-2.2663e-006
17004	15.04	3.2727	0.	-32.257
17005	14.948	3.1818	0.	-34.714
17006	14.948	3.2727	5.e-002	-1.7554e-006
17007	15.225	3.2727	0.	-28.011
17008	15.133	3.1818	0.	-30.285
17009	15.133	3.2727	5.e-002	2.008e-007
17010	15.41	3.2727	0.	-24.06
17011	15.317	3.1818	0.	-26.171
17012	15.317	3.2727	5.e-002	2.1535e-006
17013	15.594	3.2727	0.	-20.374
17014	15.502	3.1818	0.	-22.339
17015	15.502	3.2727	5.e-002	1.7169e-006
17016	15.779	3.2727	0.	-16.923
17017	15.687	3.1818	0.	-18.758
17018	15.687	3.2727	5.e-002	2.4566e-006
17019	15.964	3.2727	0.	-13.684
17020	15.871	3.1818	0.	-15.403
17021	15.871	3.2727	5.e-002	3.6694e-006
17022	16.149	3.2727	0.	-10.63
17023	16.056	3.1818	0.	-12.247
17024	16.056	3.2727	5.e-002	4.5296e-006
17025	16.333	3.2727	0.	-7.7413
17026	16.241	3.1818	0.	-9.2671
17027	16.241	3.2727	5.e-002	4.5461e-006
17028	16.518	3.2727	0.	-4.9955
17029	16.426	3.1818	0.	-6.4419
17030	16.426	3.2727	5.e-002	5.1619e-006
17031	16.703	3.2727	0.	-2.3737
17032	16.61	3.1818	0.	-3.7509
17033	16.61	3.2727	5.e-002	4.442e-006
17034	16.888	3.2727	0.	9.4722e-004
17035	16.795	3.1818	0.	-1.1753
17036	16.795	3.2727	5.e-002	4.3461e-006
17037	17.072	3.2727	0.	9.7145e-003
17038	16.98	3.1818	0.	9.6407e-003
17039	16.98	3.2727	5.e-002	2.625e-006
17040	17.257	3.2727	0.	1.0347e-002
17041	17.165	3.1818	0.	1.0315e-002
17042	17.165	3.2727	5.e-002	2.2734e-006
17043	17.442	3.2727	0.	1.0845e-002
17044	17.349	3.1818	0.	1.0785e-002
17045	17.349	3.2727	5.e-002	5.1528e-006
17046	17.627	3.2727	0.	1.1333e-002
17047	17.534	3.1818	0.	1.1241e-002
17048	17.534	3.2727	5.e-002	3.8595e-006
17049	17.811	3.2727	0.	1.1836e-002
17050	17.719	3.1818	0.	1.1727e-002
17051	17.719	3.2727	5.e-002	4.7145e-006
17052	17.996	3.2727	0.	1.2335e-002
17053	17.904	3.1818	0.	1.2227e-002
17054	17.904	3.2727	5.e-002	5.5645e-006
17055	18.181	3.2727	0.	1.2838e-002
17056	18.088	3.1818	0.	1.2715e-002
17057	18.088	3.2727	5.e-002	6.8922e-006
17058	18.365	3.2727	0.	1.3374e-002
17059	18.273	3.1818	0.	1.3225e-002
17060	18.273	3.2727	5.e-002	5.1256e-006
17061	18.55	3.2727	0.	1.3959e-002
17062	18.458	3.1818	0.	1.3785e-002
17063	18.458	3.2727	5.e-002	2.5173e-006
17064	18.735	3.2727	0.	1.4585e-002
17065	18.643	3.1818	0.	1.4395e-002
17066	18.643	3.2727	5.e-002	4.2096e-006
17067	18.92	3.2727	0.	1.5238e-002
17068	18.827	3.1818	0.	1.5041e-002
17069	18.827	3.2727	5.e-002	4.6956e-006
17070	19.104	3.2727	0.	1.5926e-002
17071	19.012	3.1818	0.	1.5705e-002
17072	19.012	3.2727	5.e-002	4.4705e-006
17073	19.289	3.2727	0.	1.6669e-002
17074	19.197	3.1818	0.	1.642e-002
17075	19.197	3.2727	5.e-002	6.6331e-006
17076	19.474	3.2727	0.	1.7475e-002
17077	19.382	3.1818	0.	1.7196e-002
17078	19.382	3.2727	5.e-002	4.0414e-006
17079	19.659	3.2727	0.	1.8357e-002
17080	19.566	3.1818	0.	1.8038e-002
17081	19.566	3.2727	5.e-002	3.6083e-006
17082	19.843	3.2727	0.	1.932e-002
17083	19.751	3.1818	0.	1.8966e-002
17084	19.751	3.2727	5.e-002	5.0735e-006
17085	20.028	3.2727	0.	2.0358e-002
17086	19.936	3.1818	0.	1.9972e-002
17087	19.936	3.2727	5.e-002	2.7191e-006
17088	20.213	3.2727	0.	2.1483e-002
17089	20.12	3.1818	0.	2.1049e-002
17090	20.12	3.2727	5.e-002	5.1277e-006
17091	20.398	3.2727	0.	2.2728e-002
17092	20.305	3.1818	0.	2.2233e-002
17093	20.305	3.2727	5.e-002	7.5391e-006
17094	20.582	3.2727	0.	2.4116e-002
17095	20.49	3.1818	0.	2.355e-002
17096	20.49	3.2727	5.e-002	4.6999e-006
17097	20.767	3.2727	0.	2.5664e-002
17098	20.675	3.1818	0.	2.5021e-002
17099	20.675	3.2727	5.e-002	5.1612e-006
17100	20.952	3.2727	0.	2.7383e-002
17101	20.859	3.1818	0.	2.6657e-002
17102	20.859	3.2727	5.e-002	8.0169e-006
17103	21.137	3.2727	0.	2.9313e-002
17104	21.044	3.1818	0.	2.8475e-002
17105	21.044	3.2727	5.e-002	1.0945e-005
17106	21.321	3.2727	0.	3.1505e-002
17107	21.229	3.1818	0.	3.0533e-002
17108	21.229	3.2727	5.e-002	1.0021e-005
17109	21.506	3.2727	0.	3.4018e-002
17110	21.414	3.1818	0.	3.2878e-002
17111	21.414	3.2727	5.e-002	1.0036e-005
17112	21.691	3.2727	0.	3.6933e-002
17113	21.598	3.1818	0.	3.5584e-002
17114	21.598	3.2727	5.e-002	1.1974e-005
17115	21.876	3.2727	0.	4.0355e-002
17116	21.783	3.1818	0.	3.874e-002
17117	21.783	3.2727	5.e-002	1.108e-005
17118	22.06	3.2727	0.	4.4423e-002
17119	21.968	3.1818	0.	4.2468e-002
17120	21.968	3.2727	5.e-002	8.3091e-006
17121	22.245	3.2727	0.	4.9345e-002
17122	22.153	3.1818	0.	4.6933e-002
17123	22.153	3.2727	5.e-002	1.0203e-005
17124	22.43	3.2727	0.	5.5466e-002
17125	22.337	3.1818	0.	5.2398e-002
17126	22.337	3.2727	5.e-002	1.1189e-005
17127	22.614	3.2727	0.	6.3216e-002
17128	22.522	3.1818	0.	5.93e-002
17129	22.522	3.2727	5.e-002	1.2271e-005
17130	22.799	3.2727	0.	7.3624e-002
17131	22.707	3.1818	0.	6.8099e-002
17132	22.707	3.2727	5.e-002	7.3329e-006
17133	22.984	3.2727	0.	8.7124e-002
17134	22.892	3.1818	0.	8.0461e-002
17135	22.892	3.2727	5.e-002	4.5176e-006
17136	23.169	3.2727	0.	0.11004
17137	23.076	3.1818	0.	9.5736e-002
17138	23.076	3.2727	5.e-002	6.4403e-006
17139	23.353	3.2727	0.	0.13318
17140	23.261	3.1818	0.	0.12763
17141	23.261	3.2727	5.e-002	1.0188e-005
17142	23.538	3.2727	0.	0.23058
17143	23.446	3.1818	0.	0.14535
17144	23.446	3.2727	5.e-002	4.3371e-006
17145	23.723	3.2727	0.	0.22765
17146	23.631	3.1818	0.	0.33347
17147	23.631	3.2727	5.e-002	6.1038e-006
17148	23.815	3.1818	0.	0.20971
17149	23.815	3.2727	5.e-002	3.2302e-007
17150	23.908	3.2727	0.	0.42648
17151	8.9438	3.0909	0.	-8.6685e-002
17152	8.8514	3.	0.	-0.17898
17153	8.8514	3.0909	5.e-002	1.0094e-004
17154	9.1285	3.0909	0.	0.48399
17155	9.0361	3.	0.	0.11322
17156	9.0361	3.0909	5.e-002	9.7768e-005
17157	9.3133	3.0909	0.	0.98488
17158	9.2209	3.	0.	0.96677
17159	9.2209	3.0909	5.e-002	7.2893e-005
17160	9.498	3.0909	0.	-91.977
17161	9.4056	3.	0.	-21.046
17162	9.4056	3.0909	5.e-002	4.5995e-005
17163	9.6827	3.0909	0.	-213.7
17164	9.5904	3.	0.	-168.68
17165	9.5904	3.0909	5.e-002	2.3937e-005
17166	9.8675	3.0909	0.	-287.92
17167	9.7751	3.	0.	-262.41
17168	9.7751	3.0909	5.e-002	1.2396e-005
17169	10.052	3.0909	0.	-327.46
17170	9.9598	3.	0.	-315.59
17171	9.9598	3.0909	5.e-002	1.363e-006
17172	10.237	3.0909	0.	-343.28
17173	10.145	3.	0.	-340.53
17174	10.145	3.0909	5.e-002	-1.0248e-005
17175	10.422	3.0909	0.	-343.54
17176	10.329	3.	0.	-346.67
17177	10.329	3.0909	5.e-002	-1.7039e-005
17178	10.606	3.0909	0.	-333.97
17179	10.514	3.	0.	-340.74
17180	10.514	3.0909	5.e-002	-1.9791e-005
17181	10.791	3.0909	0.	-318.48
17182	10.699	3.	0.	-327.37
17183	10.699	3.0909	5.e-002	-2.2374e-005
17184	10.976	3.0909	0.	-299.69
17185	10.884	3.	0.	-309.67
17186	10.884	3.0909	5.e-002	-2.1232e-005
17187	11.161	3.0909	0.	-279.35
17188	11.068	3.	0.	-289.75
17189	11.068	3.0909	5.e-002	-2.3917e-005
17190	11.345	3.0909	0.	-258.58
17191	11.253	3.	0.	-268.96
17192	11.253	3.0909	5.e-002	-1.9227e-005
17193	11.53	3.0909	0.	-238.11
17194	11.438	3.	0.	-248.2
17195	11.438	3.0909	5.e-002	-2.2271e-005
17196	11.715	3.0909	0.	-218.41
17197	11.622	3.	0.	-228.03
17198	11.622	3.0909	5.e-002	-1.974e-005
17199	11.9	3.0909	0.	-199.73
17200	11.807	3.	0.	-208.79
17201	11.807	3.0909	5.e-002	-1.9204e-005
17202	12.084	3.0909	0.	-182.22
17203	11.992	3.	0.	-190.67
17204	11.992	3.0909	5.e-002	-1.8786e-005
17205	12.269	3.0909	0.	-165.92
17206	12.177	3.	0.	-173.76
17207	12.177	3.0909	5.e-002	-1.6556e-005
17208	12.454	3.0909	0.	-150.84
17209	12.361	3.	0.	-158.08
17210	12.361	3.0909	5.e-002	-1.6324e-005
17211	12.639	3.0909	0.	-136.94
17212	12.546	3.	0.	-143.6
17213	12.546	3.0909	5.e-002	-1.6147e-005
17214	12.823	3.0909	0.	-124.16
17215	12.731	3.	0.	-130.28
17216	12.731	3.0909	5.e-002	-1.3141e-005
17217	13.008	3.0909	0.	-112.44
17218	12.916	3.	0.	-118.05
17219	12.916	3.0909	5.e-002	-9.2021e-006
17220	13.193	3.0909	0.	-101.7
17221	13.1	3.	0.	-106.84
17222	13.1	3.0909	5.e-002	-8.1506e-006
17223	13.378	3.0909	0.	-91.858
17224	13.285	3.	0.	-96.565
17225	13.285	3.0909	5.e-002	-6.1508e-006
17226	13.562	3.0909	0.	-82.844
17227	13.47	3.	0.	-87.157
17228	13.47	3.0909	5.e-002	-4.1841e-006
17229	13.747	3.0909	0.	-74.583
17230	13.655	3.	0.	-78.537
17231	13.655	3.0909	5.e-002	-6.0428e-006
17232	13.932	3.0909	0.	-67.008
17233	13.839	3.	0.	-70.637
17234	13.839	3.0909	5.e-002	-4.0775e-006
17235	14.116	3.0909	0.	-60.056
17236	14.024	3.	0.	-63.389
17237	14.024	3.0909	5.e-002	-4.9953e-006
17238	14.301	3.0909	0.	-53.666
17239	14.209	3.	0.	-56.733
17240	14.209	3.0909	5.e-002	-1.6227e-006
17241	14.486	3.0909	0.	-47.786
17242	14.394	3.	0.	-50.611
17243	14.394	3.0909	5.e-002	-1.5935e-006
17244	14.671	3.0909	0.	-42.365
17245	14.578	3.	0.	-44.973
17246	14.578	3.0909	5.e-002	-3.4785e-006
17247	14.855	3.0909	0.	-37.359
17248	14.763	3.	0.	-39.771
17249	14.763	3.0909	5.e-002	-1.5531e-006
17250	15.04	3.0909	0.	-32.726
17251	14.948	3.	0.	-34.962
17252	14.948	3.0909	5.e-002	-1.5417e-006
17253	15.225	3.0909	0.	-28.428
17254	15.133	3.	0.	-30.506
17255	15.133	3.0909	5.e-002	3.8357e-007
17256	15.41	3.0909	0.	-24.431
17257	15.317	3.	0.	-26.367
17258	15.317	3.0909	5.e-002	2.7827e-006
17259	15.594	3.0909	0.	-20.704
17260	15.502	3.	0.	-22.513
17261	15.502	3.0909	5.e-002	2.5573e-006
17262	15.779	3.0909	0.	-17.217
17263	15.687	3.	0.	-18.914
17264	15.687	3.0909	5.e-002	3.0428e-006
17265	15.964	3.0909	0.	-13.944
17266	15.871	3.	0.	-15.541
17267	15.871	3.0909	5.e-002	4.8385e-006
17268	16.149	3.0909	0.	-10.861
17269	16.056	3.	0.	-12.369
17270	16.056	3.0909	5.e-002	5.324e-006
17271	16.333	3.0909	0.	-7.9445
17272	16.241	3.	0.	-9.3752
17273	16.241	3.0909	5.e-002	5.5082e-006
17274	16.518	3.0909	0.	-5.1733
17275	16.426	3.	0.	-6.5369
17276	16.426	3.0909	5.e-002	5.8726e-006
17277	16.703	3.0909	0.	-2.5276
17278	16.61	3.	0.	-3.8336
17279	16.61	3.0909	5.e-002	5.464e-006
17280	16.888	3.0909	0.	-1.3113e-003
17281	16.795	3.	0.	-1.2463
17282	16.795	3.0909	5.e-002	5.1738e-006
17283	17.072	3.0909	0.	1.025e-002
17284	16.98	3.	0.	1.0126e-002
17285	16.98	3.0909	5.e-002	3.5719e-006
17286	17.257	3.0909	0.	1.0681e-002
17287	17.165	3.	0.	1.0519e-002
17288	17.165	3.0909	5.e-002	2.9084e-006
17289	17.442	3.0909	0.	1.1113e-002
17290	17.349	3.	0.	1.0932e-002
17291	17.349	3.0909	5.e-002	5.7309e-006
17292	17.627	3.0909	0.	1.1572e-002
17293	17.534	3.	0.	1.1367e-002
17294	17.534	3.0909	5.e-002	4.8429e-006
17295	17.811	3.0909	0.	1.2059e-002
17296	17.719	3.	0.	1.1842e-002
17297	17.719	3.0909	5.e-002	5.5052e-006
17298	17.996	3.0909	0.	1.2548e-002
17299	17.904	3.	0.	1.2336e-002
17300	17.904	3.0909	5.e-002	6.7033e-006
17301	18.181	3.0909	0.	1.3045e-002
17302	18.088	3.	0.	1.282e-002
17303	18.088	3.0909	5.e-002	7.1853e-006
17304	18.365	3.0909	0.	1.3579e-002
17305	18.273	3.	0.	1.3329e-002
17306	18.273	3.0909	5.e-002	5.8805e-006
17307	18.55	3.0909	0.	1.4163e-002
17308	18.458	3.	0.	1.3888e-002
17309	18.458	3.0909	5.e-002	3.3829e-006
17310	18.735	3.0909	0.	1.4792e-002
17311	18.643	3.	0.	1.4498e-002
17312	18.643	3.0909	5.e-002	4.8213e-006
17313	18.92	3.0909	0.	1.5448e-002
17314	18.827	3.	0.	1.5145e-002
17315	18.827	3.0909	5.e-002	5.3006e-006
17316	19.104	3.0909	0.	1.6138e-002
17317	19.012	3.	0.	1.581e-002
17318	19.012	3.0909	5.e-002	5.5439e-006
17319	19.289	3.0909	0.	1.6882e-002
17320	19.197	3.	0.	1.6526e-002
17321	19.197	3.0909	5.e-002	6.9802e-006
17322	19.474	3.0909	0.	1.7692e-002
17323	19.382	3.	0.	1.7302e-002
17324	19.382	3.0909	5.e-002	5.7984e-006
17325	19.659	3.0909	0.	1.8577e-002
17326	19.566	3.	0.	1.8146e-002
17327	19.566	3.0909	5.e-002	4.8597e-006
17328	19.843	3.0909	0.	1.9546e-002
17329	19.751	3.	0.	1.9077e-002
17330	19.751	3.0909	5.e-002	6.7791e-006
17331	20.028	3.0909	0.	2.0588e-002
17332	19.936	3.	0.	2.0086e-002
17333	19.936	3.0909	5.e-002	2.9738e-006
17334	20.213	3.0909	0.	2.1718e-002
17335	20.12	3.	0.	2.1166e-002
17336	20.12	3.0909	5.e-002	5.8417e-006
17337	20.398	3.0909	0.	2.2969e-002
17338	20.305	3.	0.	2.2351e-002
17339	20.305	3.0909	5.e-002	7.7581e-006
17340	20.582	3.0909	0.	2.4362e-002
17341	20.49	3.	0.	2.3673e-002
17342	20.49	3.0909	5.e-002	5.3821e-006
17343	20.767	3.0909	0.	2.5914e-002
17344	20.675	3.	0.	2.5144e-002
17345	20.675	3.0909	5.e-002	5.3747e-006
17346	20.952	3.0909	0.	2.7638e-002
17347	20.859	3.	0.	2.6783e-002
17348	20.859	3.0909	5.e-002	7.7579e-006
17349	21.137	3.0909	0.	2.9572e-002
17350	21.044	3.	0.	2.8604e-002
17351	21.044	3.0909	5.e-002	1.1115e-005
17352	21.321	3.0909	0.	3.1768e-002
17353	21.229	3.	0.	3.0663e-002
17354	21.229	3.0909	5.e-002	1.2556e-005
17355	21.506	3.0909	0.	3.4286e-002
17356	21.414	3.	0.	3.3011e-002
17357	21.414	3.0909	5.e-002	9.6993e-006
17358	21.691	3.0909	0.	3.7206e-002
17359	21.598	3.	0.	3.5719e-002
17360	21.598	3.0909	5.e-002	1.3525e-005
17361	21.876	3.0909	0.	4.0631e-002
17362	21.783	3.	0.	3.8878e-002
17363	21.783	3.0909	5.e-002	1.0681e-005
17364	22.06	3.0909	0.	4.4703e-002
17365	21.968	3.	0.	4.2606e-002
17366	21.968	3.0909	5.e-002	8.7991e-006
17367	22.245	3.0909	0.	4.9632e-002
17368	22.153	3.	0.	4.7074e-002
17369	22.153	3.0909	5.e-002	1.0705e-005
17370	22.43	3.0909	0.	5.576e-002
17371	22.337	3.	0.	5.2544e-002
17372	22.337	3.0909	5.e-002	1.0715e-005
17373	22.614	3.0909	0.	6.352e-002
17374	22.522	3.	0.	5.9448e-002
17375	22.522	3.0909	5.e-002	1.0758e-005
17376	22.799	3.0909	0.	7.3944e-002
17377	22.707	3.	0.	6.8254e-002
17378	22.707	3.0909	5.e-002	8.7937e-006
17379	22.984	3.0909	0.	8.7465e-002
17380	22.892	3.	0.	8.0624e-002
17381	22.892	3.0909	5.e-002	4.9904e-006
17382	23.169	3.0909	0.	0.11041
17383	23.076	3.	0.	9.5913e-002
17384	23.076	3.0909	5.e-002	9.7596e-006
17385	23.353	3.0909	0.	0.1336
17386	23.261	3.	0.	0.12782
17387	23.261	3.0909	5.e-002	9.7413e-006
17388	23.538	3.0909	0.	0.23111
17389	23.446	3.	0.	0.14558
17390	23.446	3.0909	5.e-002	3.9765e-006
17391	23.723	3.0909	0.	0.22853
17392	23.631	3.	0.	0.33379
17393	23.631	3.0909	5.e-002	5.8364e-006
17394	23.815	3.	0.	0.21041
17395	23.815	3.0909	5.e-002	9.331e-008
17396	23.908	3.0909	0.	0.42675
17397	8.9438	2.9091	0.	-8.6685e-002
17398	8.8514	2.8182	0.	-1.4587
17399	8.8514	2.9091	5.e-002	1.057e-004
17400	9.1285	2.9091	0.	0.48399
17401	9.0361	2.8182	0.	7.8409e-002
17402	9.0361	2.9091	5.e-002	7.4663e-005
17403	9.3133	2.9091	0.	0.98488
17404	9.2209	2.8182	0.	0.89976
17405	9.2209	2.9091	5.e-002	4.5191e-005
17406	9.498	2.9091	0.	-91.977
17407	9.4056	2.8182	0.	-29.963
17408	9.4056	2.9091	5.e-002	2.6075e-005
17409	9.6827	2.9091	0.	-213.7
17410	9.5904	2.8182	0.	-173.31
17411	9.5904	2.9091	5.e-002	1.2259e-005
17412	9.8675	2.9091	0.	-287.92
17413	9.7751	2.8182	0.	-263.36
17414	9.7751	2.9091	5.e-002	8.8384e-007
17415	10.052	2.9091	0.	-327.46
17416	9.9598	2.8182	0.	-314.
17417	9.9598	2.9091	5.e-002	-5.186e-006
17418	10.237	2.9091	0.	-343.28
17419	10.145	2.8182	0.	-337.44
17420	10.145	2.9091	5.e-002	-5.1349e-006
17421	10.422	2.9091	0.	-343.54
17422	10.329	2.8182	0.	-342.83
17423	10.329	2.9091	5.e-002	-1.7291e-005
17424	10.606	2.9091	0.	-333.97
17425	10.514	2.8182	0.	-336.64
17426	10.514	2.9091	5.e-002	-1.8199e-005
17427	10.791	2.9091	0.	-318.48
17428	10.699	2.8182	0.	-323.31
17429	10.699	2.9091	5.e-002	-1.9559e-005
17430	10.976	2.9091	0.	-299.69
17431	10.884	2.8182	0.	-305.83
17432	10.884	2.9091	5.e-002	-2.0491e-005
17433	11.161	2.9091	0.	-279.35
17434	11.068	2.8182	0.	-286.2
17435	11.068	2.9091	5.e-002	-2.1601e-005
17436	11.345	2.9091	0.	-258.58
17437	11.253	2.8182	0.	-265.74
17438	11.253	2.9091	5.e-002	-2.2598e-005
17439	11.53	2.9091	0.	-238.11
17440	11.438	2.8182	0.	-245.32
17441	11.438	2.9091	5.e-002	-1.9558e-005
17442	11.715	2.9091	0.	-218.41
17443	11.622	2.8182	0.	-225.48
17444	11.622	2.9091	5.e-002	-2.0191e-005
17445	11.9	2.9091	0.	-199.73
17446	11.807	2.8182	0.	-206.54
17447	11.807	2.9091	5.e-002	-2.0736e-005
17448	12.084	2.9091	0.	-182.22
17449	11.992	2.8182	0.	-188.7
17450	11.992	2.9091	5.e-002	-2.117e-005
17451	12.269	2.9091	0.	-165.92
17452	12.177	2.8182	0.	-172.03
17453	12.177	2.9091	5.e-002	-1.9606e-005
17454	12.454	2.9091	0.	-150.84
17455	12.361	2.8182	0.	-156.57
17456	12.361	2.9091	5.e-002	-1.6099e-005
17457	12.639	2.9091	0.	-136.94
17458	12.546	2.8182	0.	-142.28
17459	12.546	2.9091	5.e-002	-1.4387e-005
17460	12.823	2.9091	0.	-124.16
17461	12.731	2.8182	0.	-129.13
17462	12.731	2.9091	5.e-002	-1.3525e-005
17463	13.008	2.9091	0.	-112.44
17464	12.916	2.8182	0.	-117.05
17465	12.916	2.9091	5.e-002	-9.8458e-006
17466	13.193	2.9091	0.	-101.7
17467	13.1	2.8182	0.	-105.96
17468	13.1	2.9091	5.e-002	-7.0875e-006
17469	13.378	2.9091	0.	-91.858
17470	13.285	2.8182	0.	-95.8
17471	13.285	2.9091	5.e-002	-7.1858e-006
17472	13.562	2.9091	0.	-82.844
17473	13.47	2.8182	0.	-86.487
17474	13.47	2.9091	5.e-002	-7.2463e-006
17475	13.747	2.9091	0.	-74.583
17476	13.655	2.8182	0.	-77.95
17477	13.655	2.9091	5.e-002	-6.3439e-006
17478	13.932	2.9091	0.	-67.008
17479	13.839	2.8182	0.	-70.121
17480	13.839	2.9091	5.e-002	-5.4556e-006
17481	14.116	2.9091	0.	-60.056
17482	14.024	2.8182	0.	-62.934
17483	14.024	2.9091	5.e-002	-5.0177e-006
17484	14.301	2.9091	0.	-53.666
17485	14.209	2.8182	0.	-56.332
17486	14.209	2.9091	5.e-002	-2.1915e-006
17487	14.486	2.9091	0.	-47.786
17488	14.394	2.8182	0.	-50.257
17489	14.394	2.9091	5.e-002	-1.739e-006
17490	14.671	2.9091	0.	-42.365
17491	14.578	2.8182	0.	-44.659
17492	14.578	2.9091	5.e-002	-3.1923e-006
17493	14.855	2.9091	0.	-37.359
17494	14.763	2.8182	0.	-39.492
17495	14.763	2.9091	5.e-002	-2.2574e-006
17496	15.04	2.9091	0.	-32.726
17497	14.948	2.8182	0.	-34.714
17498	14.948	2.9091	5.e-002	-1.7948e-006
17499	15.225	2.9091	0.	-28.428
17500	15.133	2.8182	0.	-30.285
17501	15.133	2.9091	5.e-002	9.5932e-008
17502	15.41	2.9091	0.	-24.431
17503	15.317	2.8182	0.	-26.171
17504	15.317	2.9091	5.e-002	2.2257e-006
17505	15.594	2.9091	0.	-20.704
17506	15.502	2.8182	0.	-22.339
17507	15.502	2.9091	5.e-002	1.7359e-006
17508	15.779	2.9091	0.	-17.217
17509	15.687	2.8182	0.	-18.758
17510	15.687	2.9091	5.e-002	2.2037e-006
17511	15.964	2.9091	0.	-13.944
17512	15.871	2.8182	0.	-15.403
17513	15.871	2.9091	5.e-002	3.6267e-006
17514	16.149	2.9091	0.	-10.861
17515	16.056	2.8182	0.	-12.247
17516	16.056	2.9091	5.e-002	4.6909e-006
17517	16.333	2.9091	0.	-7.9445
17518	16.241	2.8182	0.	-9.2671
17519	16.241	2.9091	5.e-002	4.3869e-006
17520	16.518	2.9091	0.	-5.1733
17521	16.426	2.8182	0.	-6.4419
17522	16.426	2.9091	5.e-002	5.0358e-006
17523	16.703	2.9091	0.	-2.5276
17524	16.61	2.8182	0.	-3.7509
17525	16.61	2.9091	5.e-002	4.5501e-006
17526	16.888	2.9091	0.	-1.3106e-003
17527	16.795	2.8182	0.	-1.1753
17528	16.795	2.9091	5.e-002	4.3632e-006
17529	17.072	2.9091	0.	1.0249e-002
17530	16.98	2.8182	0.	9.64e-003
17531	16.98	2.9091	5.e-002	2.1055e-006
17532	17.257	2.9091	0.	1.068e-002
17533	17.165	2.8182	0.	1.0314e-002
17534	17.165	2.9091	5.e-002	1.9642e-006
17535	17.442	2.9091	0.	1.1113e-002
17536	17.349	2.8182	0.	1.0783e-002
17537	17.349	2.9091	5.e-002	4.4314e-006
17538	17.627	2.9091	0.	1.1572e-002
17539	17.534	2.8182	0.	1.1241e-002
17540	17.534	2.9091	5.e-002	3.3226e-006
17541	17.811	2.9091	0.	1.2058e-002
17542	17.719	2.8182	0.	1.1727e-002
17543	17.719	2.9091	5.e-002	4.1501e-006
17544	17.996	2.9091	0.	1.2548e-002
17545	17.904	2.8182	0.	1.2227e-002
17546	17.904	2.9091	5.e-002	5.2168e-006
17547	18.181	2.9091	0.	1.3046e-002
17548	18.088	2.8182	0.	1.2714e-002
17549	18.088	2.9091	5.e-002	6.523e-006
17550	18.365	2.9091	0.	1.358e-002
17551	18.273	2.8182	0.	1.3226e-002
17552	18.273	2.9091	5.e-002	4.3707e-006
17553	18.55	2.9091	0.	1.4164e-002
17554	18.458	2.8182	0.	1.3785e-002
17555	18.458	2.9091	5.e-002	1.6226e-006
17556	18.735	2.9091	0.	1.4792e-002
17557	18.643	2.8182	0.	1.4395e-002
17558	18.643	2.9091	5.e-002	3.2838e-006
17559	18.92	2.9091	0.	1.5446e-002
17560	18.827	2.8182	0.	1.5041e-002
17561	18.827	2.9091	5.e-002	3.9958e-006
17562	19.104	2.9091	0.	1.6137e-002
17563	19.012	2.8182	0.	1.5704e-002
17564	19.012	2.9091	5.e-002	3.7528e-006
17565	19.289	2.9091	0.	1.6882e-002
17566	19.197	2.8182	0.	1.6421e-002
17567	19.197	2.9091	5.e-002	5.416e-006
17568	19.474	2.9091	0.	1.7691e-002
17569	19.382	2.8182	0.	1.7194e-002
17570	19.382	2.9091	5.e-002	3.0215e-006
17571	19.659	2.9091	0.	1.8577e-002
17572	19.566	2.8182	0.	1.8036e-002
17573	19.566	2.9091	5.e-002	2.7675e-006
17574	19.843	2.9091	0.	1.9546e-002
17575	19.751	2.8182	0.	1.8965e-002
17576	19.751	2.9091	5.e-002	4.1862e-006
17577	20.028	2.9091	0.	2.0588e-002
17578	19.936	2.8182	0.	1.9972e-002
17579	19.936	2.9091	5.e-002	8.3917e-007
17580	20.213	2.9091	0.	2.1718e-002
17581	20.12	2.8182	0.	2.105e-002
17582	20.12	2.9091	5.e-002	4.1686e-006
17583	20.398	2.9091	0.	2.2969e-002
17584	20.305	2.8182	0.	2.2232e-002
17585	20.305	2.9091	5.e-002	5.5892e-006
17586	20.582	2.9091	0.	2.4363e-002
17587	20.49	2.8182	0.	2.3552e-002
17588	20.49	2.9091	5.e-002	4.1508e-006
17589	20.767	2.9091	0.	2.5913e-002
17590	20.675	2.8182	0.	2.5021e-002
17591	20.675	2.9091	5.e-002	3.6808e-006
17592	20.952	2.9091	0.	2.7639e-002
17593	20.859	2.8182	0.	2.6656e-002
17594	20.859	2.9091	5.e-002	6.066e-006
17595	21.137	2.9091	0.	2.9574e-002
17596	21.044	2.8182	0.	2.8477e-002
17597	21.044	2.9091	5.e-002	9.3856e-006
17598	21.321	2.9091	0.	3.1769e-002
17599	21.229	2.8182	0.	3.0532e-002
17600	21.229	2.9091	5.e-002	9.376e-006
17601	21.506	2.9091	0.	3.4286e-002
17602	21.414	2.8182	0.	3.2878e-002
17603	21.414	2.9091	5.e-002	9.3715e-006
17604	21.691	2.9091	0.	3.7206e-002
17605	21.598	2.8182	0.	3.5584e-002
17606	21.598	2.9091	5.e-002	1.127e-005
17607	21.876	2.9091	0.	4.0632e-002
17608	21.783	2.8182	0.	3.8742e-002
17609	21.783	2.9091	5.e-002	1.0299e-005
17610	22.06	2.9091	0.	4.4702e-002
17611	21.968	2.8182	0.	4.2467e-002
17612	21.968	2.9091	5.e-002	7.4121e-006
17613	22.245	2.9091	0.	4.9633e-002
17614	22.153	2.8182	0.	4.6932e-002
17615	22.153	2.9091	5.e-002	7.4207e-006
17616	22.43	2.9091	0.	5.5761e-002
17617	22.337	2.8182	0.	5.24e-002
17618	22.337	2.9091	5.e-002	1.0277e-005
17619	22.614	2.9091	0.	6.3519e-002
17620	22.522	2.8182	0.	5.9299e-002
17621	22.522	2.9091	5.e-002	9.2803e-006
17622	22.799	2.9091	0.	7.3942e-002
17623	22.707	2.8182	0.	6.8099e-002
17624	22.707	2.9091	5.e-002	5.5279e-006
17625	22.984	2.9091	0.	8.7464e-002
17626	22.892	2.8182	0.	8.046e-002
17627	22.892	2.9091	5.e-002	4.5587e-006
17628	23.169	2.9091	0.	0.11041
17629	23.076	2.8182	0.	9.5736e-002
17630	23.076	2.9091	5.e-002	5.4984e-006
17631	23.353	2.9091	0.	0.1336
17632	23.261	2.8182	0.	0.12763
17633	23.261	2.9091	5.e-002	3.6114e-006
17634	23.538	2.9091	0.	0.23112
17635	23.446	2.8182	0.	0.14535
17636	23.446	2.9091	5.e-002	1.7426e-006
17637	23.723	2.9091	0.	0.22853
17638	23.631	2.8182	0.	0.33346
17639	23.631	2.9091	5.e-002	-1.2139e-007
17640	23.815	2.8182	0.	0.20971
17641	23.815	2.9091	5.e-002	-2.0126e-006
17642	23.908	2.9091	0.	0.42675
17643	8.9438	2.7273	0.	-1.4048
17644	8.8514	2.6364	0.	1.0817
17645	8.8514	2.7273	5.e-002	1.3776e-004
17646	9.1285	2.7273	0.	0.37812
17647	9.0361	2.6364	0.	0.24156
17648	9.0361	2.7273	5.e-002	6.7646e-005
17649	9.3133	2.7273	0.	0.58645
17650	9.2209	2.6364	0.	0.32737
17651	9.2209	2.7273	5.e-002	3.0047e-005
17652	9.498	2.7273	0.	-105.46
17653	9.4056	2.6364	0.	-52.725
17654	9.4056	2.7273	5.e-002	6.8983e-006
17655	9.6827	2.7273	0.	-219.54
17656	9.5904	2.6364	0.	-183.69
17657	9.5904	2.7273	5.e-002	1.4816e-006
17658	9.8675	2.7273	0.	-287.5
17659	9.7751	2.6364	0.	-263.64
17660	9.7751	2.7273	5.e-002	-4.5472e-006
17661	10.052	2.7273	0.	-322.92
17662	9.9598	2.6364	0.	-307.62
17663	9.9598	2.7273	5.e-002	-1.0898e-005
17664	10.237	2.7273	0.	-336.43
17665	10.145	2.6364	0.	-327.26
17666	10.145	2.7273	5.e-002	-7.4433e-006
17667	10.422	2.7273	0.	-335.65
17668	10.329	2.6364	0.	-330.88
17669	10.329	2.7273	5.e-002	-5.378e-006
17670	10.606	2.7273	0.	-325.84
17671	10.514	2.6364	0.	-324.19
17672	10.514	2.7273	5.e-002	-2.0171e-005
17673	10.791	2.7273	0.	-310.59
17674	10.699	2.6364	0.	-311.13
17675	10.699	2.7273	5.e-002	-8.2626e-006
17676	10.976	2.7273	0.	-292.3
17677	10.884	2.6364	0.	-294.36
17678	10.884	2.7273	5.e-002	-2.358e-005
17679	11.161	2.7273	0.	-272.58
17680	11.068	2.6364	0.	-275.66
17681	11.068	2.7273	5.e-002	-1.4676e-005
17682	11.345	2.7273	0.	-252.48
17683	11.253	2.6364	0.	-256.21
17684	11.253	2.7273	5.e-002	-1.84e-005
17685	11.53	2.7273	0.	-232.68
17686	11.438	2.6364	0.	-236.8
17687	11.438	2.7273	5.e-002	-2.0089e-005
17688	11.715	2.7273	0.	-213.61
17689	11.622	2.6364	0.	-217.92
17690	11.622	2.7273	5.e-002	-2.1967e-005
17691	11.9	2.7273	0.	-195.51
17692	11.807	2.6364	0.	-199.88
17693	11.807	2.7273	5.e-002	-1.7281e-005
17694	12.084	2.7273	0.	-178.51
17695	11.992	2.6364	0.	-182.85
17696	11.992	2.7273	5.e-002	-1.5799e-005
17697	12.269	2.7273	0.	-162.68
17698	12.177	2.6364	0.	-166.92
17699	12.177	2.7273	5.e-002	-1.8723e-005
17700	12.454	2.7273	0.	-148.01
17701	12.361	2.6364	0.	-152.1
17702	12.361	2.7273	5.e-002	-1.3881e-005
17703	12.639	2.7273	0.	-134.47
17704	12.546	2.6364	0.	-138.38
17705	12.546	2.7273	5.e-002	-1.2671e-005
17706	12.823	2.7273	0.	-122.01
17707	12.731	2.6364	0.	-125.73
17708	12.731	2.7273	5.e-002	-1.2913e-005
17709	13.008	2.7273	0.	-110.56
17710	12.916	2.6364	0.	-114.08
17711	12.916	2.7273	5.e-002	-9.4998e-006
17712	13.193	2.7273	0.	-100.06
17713	13.1	2.6364	0.	-103.37
17714	13.1	2.7273	5.e-002	-8.9247e-006
17715	13.378	2.7273	0.	-90.423
17716	13.285	2.6364	0.	-93.531
17717	13.285	2.7273	5.e-002	-7.2966e-006
17718	13.562	2.7273	0.	-81.586
17719	13.47	2.6364	0.	-84.499
17720	13.47	2.7273	5.e-002	-5.5256e-006
17721	13.747	2.7273	0.	-73.479
17722	13.655	2.6364	0.	-76.206
17723	13.655	2.7273	5.e-002	-6.6235e-006
17724	13.932	2.7273	0.	-66.038
17725	13.839	2.6364	0.	-68.587
17726	13.839	2.7273	5.e-002	-3.0495e-006
17727	14.116	2.7273	0.	-59.2
17728	14.024	2.6364	0.	-61.583
17729	14.024	2.7273	5.e-002	-3.6043e-006
17730	14.301	2.7273	0.	-52.91
17731	14.209	2.6364	0.	-55.139
17732	14.209	2.7273	5.e-002	-2.7534e-006
17733	14.486	2.7273	0.	-47.117
17734	14.394	2.6364	0.	-49.201
17735	14.394	2.7273	5.e-002	-1.8784e-006
17736	14.671	2.7273	0.	-41.772
17737	14.578	2.6364	0.	-43.724
17738	14.578	2.7273	5.e-002	-2.9063e-006
17739	14.855	2.7273	0.	-36.832
17740	14.763	2.6364	0.	-38.662
17741	14.763	2.7273	5.e-002	-2.0046e-006
17742	15.04	2.7273	0.	-32.257
17743	14.948	2.6364	0.	-33.976
17744	14.948	2.7273	5.e-002	-2.0477e-006
17745	15.225	2.7273	0.	-28.011
17746	15.133	2.6364	0.	-29.628
17747	15.133	2.7273	5.e-002	5.2623e-007
17748	15.41	2.7273	0.	-24.06
17749	15.317	2.6364	0.	-25.586
17750	15.317	2.7273	5.e-002	2.1456e-006
17751	15.594	2.7273	0.	-20.374
17752	15.502	2.6364	0.	-21.817
17753	15.502	2.7273	5.e-002	1.8675e-006
17754	15.779	2.7273	0.	-16.923
17755	15.687	2.6364	0.	-18.294
17756	15.687	2.7273	5.e-002	2.3205e-006
17757	15.964	2.7273	0.	-13.684
17758	15.871	2.6364	0.	-14.99
17759	15.871	2.7273	5.e-002	3.9635e-006
17760	16.149	2.7273	0.	-10.63
17761	16.056	2.6364	0.	-11.881
17762	16.056	2.7273	5.e-002	4.6548e-006
17763	16.333	2.7273	0.	-7.7413
17764	16.241	2.6364	0.	-8.9438
17765	16.241	2.7273	5.e-002	4.8165e-006
17766	16.518	2.7273	0.	-4.9955
17767	16.426	2.6364	0.	-6.1579
17768	16.426	2.7273	5.e-002	4.9147e-006
17769	16.703	2.7273	0.	-2.3737
17770	16.61	2.6364	0.	-3.5035
17771	16.61	2.7273	5.e-002	4.1419e-006
17772	16.888	2.7273	0.	9.4674e-004
17773	16.795	2.6364	0.	-0.96316
17774	16.795	2.7273	5.e-002	4.1929e-006
17775	17.072	2.7273	0.	9.7136e-003
17776	16.98	2.6364	0.	8.4147e-003
17777	16.98	2.7273	5.e-002	2.1289e-006
17778	17.257	2.7273	0.	1.0346e-002
17779	17.165	2.6364	0.	9.7283e-003
17780	17.165	2.7273	5.e-002	1.7049e-006
17781	17.442	2.7273	0.	1.0844e-002
17782	17.349	2.6364	0.	1.0347e-002
17783	17.349	2.7273	5.e-002	4.264e-006
17784	17.627	2.7273	0.	1.1334e-002
17785	17.534	2.6364	0.	1.0866e-002
17786	17.534	2.7273	5.e-002	3.1131e-006
17787	17.811	2.7273	0.	1.1837e-002
17788	17.719	2.6364	0.	1.1385e-002
17789	17.719	2.7273	5.e-002	4.3432e-006
17790	17.996	2.7273	0.	1.2335e-002
17791	17.904	2.6364	0.	1.1902e-002
17792	17.904	2.7273	5.e-002	4.803e-006
17793	18.181	2.7273	0.	1.2837e-002
17794	18.088	2.6364	0.	1.2399e-002
17795	18.088	2.7273	5.e-002	5.6218e-006
17796	18.365	2.7273	0.	1.3374e-002
17797	18.273	2.6364	0.	1.2915e-002
17798	18.273	2.7273	5.e-002	4.2906e-006
17799	18.55	2.7273	0.	1.3958e-002
17800	18.458	2.6364	0.	1.3476e-002
17801	18.458	2.7273	5.e-002	1.2913e-006
17802	18.735	2.7273	0.	1.4585e-002
17803	18.643	2.6364	0.	1.4085e-002
17804	18.643	2.7273	5.e-002	3.4139e-006
17805	18.92	2.7273	0.	1.5239e-002
17806	18.827	2.6364	0.	1.4729e-002
17807	18.827	2.7273	5.e-002	3.4049e-006
17808	19.104	2.7273	0.	1.5926e-002
17809	19.012	2.6364	0.	1.5389e-002
17810	19.012	2.7273	5.e-002	3.6297e-006
17811	19.289	2.7273	0.	1.6669e-002
17812	19.197	2.6364	0.	1.6101e-002
17813	19.197	2.7273	5.e-002	4.5652e-006
17814	19.474	2.7273	0.	1.7473e-002
17815	19.382	2.6364	0.	1.687e-002
17816	19.382	2.7273	5.e-002	2.1533e-006
17817	19.659	2.7273	0.	1.8355e-002
17818	19.566	2.6364	0.	1.7705e-002
17819	19.566	2.7273	5.e-002	1.6307e-006
17820	19.843	2.7273	0.	1.932e-002
17821	19.751	2.6364	0.	1.8629e-002
17822	19.751	2.7273	5.e-002	3.5041e-006
17823	20.028	2.7273	0.	2.0358e-002
17824	19.936	2.6364	0.	1.9628e-002
17825	19.936	2.7273	5.e-002	1.5682e-006
17826	20.213	2.7273	0.	2.1483e-002
17827	20.12	2.6364	0.	2.0698e-002
17828	20.12	2.7273	5.e-002	2.9748e-006
17829	20.398	2.7273	0.	2.2729e-002
17830	20.305	2.6364	0.	2.1875e-002
17831	20.305	2.7273	5.e-002	4.8472e-006
17832	20.582	2.7273	0.	2.4117e-002
17833	20.49	2.6364	0.	2.3184e-002
17834	20.49	2.7273	5.e-002	2.4391e-006
17835	20.767	2.7273	0.	2.5663e-002
17836	20.675	2.6364	0.	2.4649e-002
17837	20.675	2.7273	5.e-002	3.4163e-006
17838	20.952	2.7273	0.	2.7384e-002
17839	20.859	2.6364	0.	2.6274e-002
17840	20.859	2.7273	5.e-002	5.3264e-006
17841	21.137	2.7273	0.	2.9314e-002
17842	21.044	2.6364	0.	2.8086e-002
17843	21.044	2.7273	5.e-002	8.1403e-006
17844	21.321	2.7273	0.	3.1503e-002
17845	21.229	2.6364	0.	3.0135e-002
17846	21.229	2.7273	5.e-002	1.0024e-005
17847	21.506	2.7273	0.	3.4018e-002
17848	21.414	2.6364	0.	3.2474e-002
17849	21.414	2.7273	5.e-002	8.0995e-006
17850	21.691	2.7273	0.	3.6935e-002
17851	21.598	2.6364	0.	3.5174e-002
17852	21.598	2.7273	5.e-002	1.1891e-005
17853	21.876	2.7273	0.	4.0355e-002
17854	21.783	2.6364	0.	3.8325e-002
17855	21.783	2.7273	5.e-002	9.9409e-006
17856	22.06	2.7273	0.	4.4421e-002
17857	21.968	2.6364	0.	4.2043e-002
17858	21.968	2.7273	5.e-002	6.0506e-006
17859	22.245	2.7273	0.	4.9346e-002
17860	22.153	2.6364	0.	4.6502e-002
17861	22.153	2.7273	5.e-002	7.9881e-006
17862	22.43	2.7273	0.	5.5466e-002
17863	22.337	2.6364	0.	5.1958e-002
17864	22.337	2.7273	5.e-002	8.9373e-006
17865	22.614	2.7273	0.	6.3216e-002
17866	22.522	2.6364	0.	5.8847e-002
17867	22.522	2.7273	5.e-002	6.9045e-006
17868	22.799	2.7273	0.	7.3625e-002
17869	22.707	2.6364	0.	6.7627e-002
17870	22.707	2.7273	5.e-002	6.1161e-006
17871	22.984	2.7273	0.	8.7124e-002
17872	22.892	2.6364	0.	7.9962e-002
17873	22.892	2.7273	5.e-002	4.1819e-006
17874	23.169	2.7273	0.	0.11004
17875	23.076	2.6364	0.	9.5198e-002
17876	23.076	2.7273	5.e-002	3.2055e-006
17877	23.353	2.7273	0.	0.13318
17878	23.261	2.6364	0.	0.12703
17879	23.261	2.7273	5.e-002	5.1473e-006
17880	23.538	2.7273	0.	0.23058
17881	23.446	2.6364	0.	0.14466
17882	23.446	2.7273	5.e-002	-4.729e-007
17883	23.723	2.7273	0.	0.22765
17884	23.631	2.6364	0.	0.33247
17885	23.631	2.7273	5.e-002	1.5562e-006
17886	23.815	2.6364	0.	0.20761
17887	23.815	2.7273	5.e-002	-2.2162e-006
17888	23.908	2.7273	0.	0.42648
17889	8.9438	2.5455	0.	2.4492
17890	8.8514	2.4545	0.	-5.6719
17891	8.8514	2.5455	5.e-002	1.9483e-004
17892	9.1285	2.5455	0.	9.9117e-002
17893	9.0361	2.4545	0.	-4.3269
17894	9.0361	2.5455	5.e-002	7.4498e-005
17895	9.3133	2.5455	0.	-1.0152
17896	9.2209	2.4545	0.	2.1101
17897	9.2209	2.5455	5.e-002	1.7537e-005
17898	9.498	2.5455	0.	-125.78
17899	9.4056	2.4545	0.	-76.108
17900	9.4056	2.5455	5.e-002	-1.7965e-006
17901	9.6827	2.5455	0.	-225.18
17902	9.5904	2.4545	0.	-189.06
17903	9.5904	2.5455	5.e-002	-2.1624e-006
17904	9.8675	2.5455	0.	-282.43
17905	9.7751	2.4545	0.	-256.1
17906	9.7751	2.5455	5.e-002	-3.0192e-006
17907	10.052	2.5455	0.	-311.29
17908	9.9598	2.4545	0.	-292.24
17909	9.9598	2.5455	5.e-002	-4.8611e-007
17910	10.237	2.5455	0.	-321.38
17911	10.145	2.4545	0.	-307.79
17912	10.145	2.5455	5.e-002	-6.9235e-006
17913	10.422	2.5455	0.	-319.26
17914	10.329	2.4545	0.	-309.79
17915	10.329	2.5455	5.e-002	-8.3662e-007
17916	10.606	2.5455	0.	-309.41
17917	10.514	2.4545	0.	-303.07
17918	10.514	2.5455	5.e-002	-6.4707e-006
17919	10.791	2.5455	0.	-294.87
17920	10.699	2.4545	0.	-290.9
17921	10.699	2.5455	5.e-002	-1.0915e-005
17922	10.976	2.5455	0.	-277.7
17923	10.884	2.4545	0.	-275.52
17924	10.884	2.5455	5.e-002	-9.4749e-006
17925	11.161	2.5455	0.	-259.28
17926	11.068	2.4545	0.	-258.46
17927	11.068	2.5455	5.e-002	-1.5835e-005
17928	11.345	2.5455	0.	-240.53
17929	11.253	2.4545	0.	-240.72
17930	11.253	2.5455	5.e-002	-1.0049e-005
17931	11.53	2.5455	0.	-222.04
17932	11.438	2.4545	0.	-222.98
17933	11.438	2.5455	5.e-002	-1.5114e-005
17934	11.715	2.5455	0.	-204.2
17935	11.622	2.4545	0.	-205.68
17936	11.622	2.5455	5.e-002	-1.6477e-005
17937	11.9	2.5455	0.	-187.23
17938	11.807	2.4545	0.	-189.1
17939	11.807	2.5455	5.e-002	-1.82e-005
17940	12.084	2.5455	0.	-171.26
17941	11.992	2.4545	0.	-173.39
17942	11.992	2.5455	5.e-002	-1.3781e-005
17943	12.269	2.5455	0.	-156.34
17944	12.177	2.4545	0.	-158.63
17945	12.177	2.5455	5.e-002	-1.2421e-005
17946	12.454	2.5455	0.	-142.47
17947	12.361	2.4545	0.	-144.86
17948	12.361	2.5455	5.e-002	-1.3749e-005
17949	12.639	2.5455	0.	-129.64
17950	12.546	2.4545	0.	-132.06
17951	12.546	2.5455	5.e-002	-1.4614e-005
17952	12.823	2.5455	0.	-117.79
17953	12.731	2.4545	0.	-120.2
17954	12.731	2.5455	5.e-002	-1.146e-005
17955	13.008	2.5455	0.	-106.88
17956	12.916	2.4545	0.	-109.25
17957	12.916	2.5455	5.e-002	-8.0771e-006
17958	13.193	2.5455	0.	-96.835
17959	13.1	2.4545	0.	-99.146
17960	13.1	2.5455	5.e-002	-8.7888e-006
17961	13.378	2.5455	0.	-87.601
17962	13.285	2.4545	0.	-89.835
17963	13.285	2.5455	5.e-002	-5.46e-006
17964	13.562	2.5455	0.	-79.112
17965	13.47	2.4545	0.	-81.258
17966	13.47	2.5455	5.e-002	-4.8241e-006
17967	13.747	2.5455	0.	-71.305
17968	13.655	2.4545	0.	-73.358
17969	13.655	2.5455	5.e-002	-3.185e-006
17970	13.932	2.5455	0.	-64.123
17971	13.839	2.4545	0.	-66.08
17972	13.839	2.5455	5.e-002	-2.5627e-006
17973	14.116	2.5455	0.	-57.512
17974	14.024	2.4545	0.	-59.373
17975	14.024	2.5455	5.e-002	-3.1968e-006
17976	14.301	2.5455	0.	-51.418
17977	14.209	2.4545	0.	-53.185
17978	14.209	2.5455	5.e-002	-9.6281e-007
17979	14.486	2.5455	0.	-45.795
17980	14.394	2.4545	0.	-47.471
17981	14.394	2.5455	5.e-002	-6.7461e-007
17982	14.671	2.5455	0.	-40.599
17983	14.578	2.4545	0.	-42.188
17984	14.578	2.5455	5.e-002	-1.2143e-006
17985	14.855	2.5455	0.	-35.79
17986	14.763	2.4545	0.	-37.297
17987	14.763	2.5455	5.e-002	-3.2544e-007
17988	15.04	2.5455	0.	-31.33
17989	14.948	2.4545	0.	-32.761
17990	14.948	2.5455	5.e-002	-6.3754e-007
17991	15.225	2.5455	0.	-27.185
17992	15.133	2.4545	0.	-28.546
17993	15.133	2.5455	5.e-002	1.4183e-006
17994	15.41	2.5455	0.	-23.324
17995	15.317	2.4545	0.	-24.621
17996	15.317	2.5455	5.e-002	2.7601e-006
17997	15.594	2.5455	0.	-19.718
17998	15.502	2.4545	0.	-20.957
17999	15.502	2.5455	5.e-002	2.7154e-006
18000	15.779	2.5455	0.	-16.34
18001	15.687	2.4545	0.	-17.528
18002	15.687	2.5455	5.e-002	3.1493e-006
18003	15.964	2.5455	0.	-13.166
18004	15.871	2.4545	0.	-14.308
18005	15.871	2.5455	5.e-002	4.6477e-006
18006	16.149	2.5455	0.	-10.172
18007	16.056	2.4545	0.	-11.276
18008	16.056	2.5455	5.e-002	5.3284e-006
18009	16.333	2.5455	0.	-7.3371
18010	16.241	2.4545	0.	-8.409
18011	16.241	2.5455	5.e-002	5.4763e-006
18012	16.518	2.5455	0.	-4.6417
18013	16.426	2.4545	0.	-5.6877
18014	16.426	2.5455	5.e-002	5.8006e-006
18015	16.703	2.5455	0.	-2.0672
18016	16.61	2.4545	0.	-3.0936
18017	16.61	2.5455	5.e-002	5.5192e-006
18018	16.888	2.5455	0.	1.0979e-003
18019	16.795	2.4545	0.	-0.61392
18020	16.795	2.5455	5.e-002	5.0042e-006
18021	17.072	2.5455	0.	8.7599e-003
18022	16.98	2.4545	0.	6.9016e-003
18023	16.98	2.5455	5.e-002	3.0446e-006
18024	17.257	2.5455	0.	9.7075e-003
18025	17.165	2.4545	0.	8.8376e-003
18026	17.165	2.5455	5.e-002	2.3688e-006
18027	17.442	2.5455	0.	1.032e-002
18028	17.349	2.4545	0.	9.6497e-003
18029	17.349	2.5455	5.e-002	5.259e-006
18030	17.627	2.5455	0.	1.0863e-002
18031	17.534	2.4545	0.	1.0256e-002
18032	17.534	2.5455	5.e-002	4.0377e-006
18033	17.811	2.5455	0.	1.1395e-002
18034	17.719	2.4545	0.	1.0819e-002
18035	17.719	2.5455	5.e-002	4.896e-006
18036	17.996	2.5455	0.	1.191e-002
18037	17.904	2.4545	0.	1.1361e-002
18038	17.904	2.5455	5.e-002	5.5868e-006
18039	18.181	2.5455	0.	1.242e-002
18040	18.088	2.4545	0.	1.1871e-002
18041	18.088	2.5455	5.e-002	6.8685e-006
18042	18.365	2.5455	0.	1.296e-002
18043	18.273	2.4545	0.	1.2394e-002
18044	18.273	2.5455	5.e-002	4.9324e-006
18045	18.55	2.5455	0.	1.3544e-002
18046	18.458	2.4545	0.	1.2956e-002
18047	18.458	2.5455	5.e-002	2.1605e-006
18048	18.735	2.5455	0.	1.417e-002
18049	18.643	2.4545	0.	1.3564e-002
18050	18.643	2.5455	5.e-002	3.7923e-006
18051	18.92	2.5455	0.	1.4819e-002
18052	18.827	2.4545	0.	1.4203e-002
18053	18.827	2.5455	5.e-002	4.4893e-006
18054	19.104	2.5455	0.	1.5502e-002
18055	19.012	2.4545	0.	1.4858e-002
18056	19.012	2.5455	5.e-002	4.2315e-006
18057	19.289	2.5455	0.	1.6238e-002
18058	19.197	2.4545	0.	1.5561e-002
18059	19.197	2.5455	5.e-002	5.4032e-006
18060	19.474	2.5455	0.	1.7034e-002
18061	19.382	2.4545	0.	1.6321e-002
18062	19.382	2.5455	5.e-002	3.6719e-006
18063	19.659	2.5455	0.	1.7908e-002
18064	19.566	2.4545	0.	1.7144e-002
18065	19.566	2.5455	5.e-002	2.8881e-006
18066	19.843	2.5455	0.	1.8863e-002
18067	19.751	2.4545	0.	1.8058e-002
18068	19.751	2.5455	5.e-002	3.7829e-006
18069	20.028	2.5455	0.	1.9891e-002
18070	19.936	2.4545	0.	1.9044e-002
18071	19.936	2.5455	5.e-002	1.8359e-006
18072	20.213	2.5455	0.	2.1007e-002
18073	20.12	2.4545	0.	2.0101e-002
18074	20.12	2.5455	5.e-002	3.699e-006
18075	20.398	2.5455	0.	2.2242e-002
18076	20.305	2.4545	0.	2.1265e-002
18077	20.305	2.5455	5.e-002	5.0837e-006
18078	20.582	2.5455	0.	2.3619e-002
18079	20.49	2.4545	0.	2.256e-002
18080	20.49	2.5455	5.e-002	3.1302e-006
18081	20.767	2.5455	0.	2.5156e-002
18082	20.675	2.4545	0.	2.4009e-002
18083	20.675	2.5455	5.e-002	4.1469e-006
18084	20.952	2.5455	0.	2.6864e-002
18085	20.859	2.4545	0.	2.5622e-002
18086	20.859	2.5455	5.e-002	6.0541e-006
18087	21.137	2.5455	0.	2.8782e-002
18088	21.044	2.4545	0.	2.7419e-002
18089	21.044	2.5455	5.e-002	8.8363e-006
18090	21.321	2.5455	0.	3.0965e-002
18091	21.229	2.4545	0.	2.9455e-002
18092	21.229	2.5455	5.e-002	8.7817e-006
18093	21.506	2.5455	0.	3.3469e-002
18094	21.414	2.4545	0.	3.1782e-002
18095	21.414	2.5455	5.e-002	8.7893e-006
18096	21.691	2.5455	0.	3.6375e-002
18097	21.598	2.4545	0.	3.4468e-002
18098	21.598	2.5455	5.e-002	1.2576e-005
18099	21.876	2.5455	0.	3.9787e-002
18100	21.783	2.4545	0.	3.7607e-002
18101	21.783	2.5455	5.e-002	1.0586e-005
18102	22.06	2.5455	0.	4.3845e-002
18103	21.968	2.4545	0.	4.1314e-002
18104	21.968	2.5455	5.e-002	6.6757e-006
18105	22.245	2.5455	0.	4.8758e-002
18106	22.153	2.4545	0.	4.5758e-002
18107	22.153	2.5455	5.e-002	1.0536e-005
18108	22.43	2.5455	0.	5.4864e-002
18109	22.337	2.4545	0.	5.1197e-002
18110	22.337	2.5455	5.e-002	8.5996e-006
18111	22.614	2.5455	0.	6.2593e-002
18112	22.522	2.4545	0.	5.8065e-002
18113	22.522	2.5455	5.e-002	1.0299e-005
18114	22.799	2.5455	0.	7.2971e-002
18115	22.707	2.4545	0.	6.6814e-002
18116	22.707	2.5455	5.e-002	6.7603e-006
18117	22.984	2.5455	0.	8.6428e-002
18118	22.892	2.4545	0.	7.9103e-002
18119	22.892	2.5455	5.e-002	4.8102e-006
18120	23.169	2.5455	0.	0.10928
18121	23.076	2.4545	0.	9.4273e-002
18122	23.076	2.5455	5.e-002	6.6618e-006
18123	23.353	2.5455	0.	0.13232
18124	23.261	2.4545	0.	0.12599
18125	23.261	2.5455	5.e-002	2.9403e-006
18126	23.538	2.5455	0.	0.22947
18127	23.446	2.4545	0.	0.14348
18128	23.446	2.5455	5.e-002	-7.0439e-007
18129	23.723	2.5455	0.	0.22585
18130	23.631	2.4545	0.	0.33076
18131	23.631	2.5455	5.e-002	1.3902e-006
18132	23.815	2.4545	0.	0.20405
18133	23.815	2.5455	5.e-002	-4.652e-007
18134	23.908	2.5455	0.	0.42591
18135	8.9438	2.3636	0.	-12.689
18136	8.8514	2.2727	0.	-11.263
18137	8.8514	2.3636	5.e-002	2.3191e-004
18138	9.1285	2.3636	0.	-2.3122
18139	9.0361	2.2727	0.	12.09
18140	9.0361	2.3636	5.e-002	6.6422e-005
18141	9.3133	2.3636	0.	-2.8935
18142	9.2209	2.2727	0.	-0.2165
18143	9.2209	2.3636	5.e-002	1.2876e-005
18144	9.498	2.3636	0.	-136.14
18145	9.4056	2.2727	0.	-73.996
18146	9.4056	2.3636	5.e-002	7.8503e-006
18147	9.6827	2.3636	0.	-218.76
18148	9.5904	2.2727	0.	-173.48
18149	9.5904	2.3636	5.e-002	5.761e-006
18150	9.8675	2.3636	0.	-265.48
18151	9.7751	2.2727	0.	-231.58
18152	9.7751	2.3636	5.e-002	1.2839e-005
18153	10.052	2.3636	0.	-288.6
18154	9.9598	2.2727	0.	-263.03
18155	9.9598	2.3636	5.e-002	9.9878e-006
18156	10.237	2.3636	0.	-296.18
18157	10.145	2.2727	0.	-276.72
18158	10.145	2.3636	5.e-002	1.3584e-005
18159	10.422	2.3636	0.	-293.62
18160	10.329	2.2727	0.	-278.75
18161	10.329	2.3636	5.e-002	6.9581e-006
18162	10.606	2.3636	0.	-284.58
18163	10.514	2.2727	0.	-273.24
18164	10.514	2.3636	5.e-002	4.9362e-006
18165	10.791	2.3636	0.	-271.57
18166	10.699	2.2727	0.	-262.98
18167	10.699	2.3636	5.e-002	6.7431e-006
18168	10.976	2.3636	0.	-256.29
18169	10.884	2.2727	0.	-249.87
18170	10.884	2.3636	5.e-002	-8.1599e-006
18171	11.161	2.3636	0.	-239.9
18172	11.068	2.2727	0.	-235.22
18173	11.068	2.3636	5.e-002	-8.2527e-006
18174	11.345	2.3636	0.	-223.17
18175	11.253	2.2727	0.	-219.87
18176	11.253	2.3636	5.e-002	-6.7117e-006
18177	11.53	2.3636	0.	-206.62
18178	11.438	2.2727	0.	-204.43
18179	11.438	2.3636	5.e-002	-1.2395e-005
18180	11.715	2.3636	0.	-190.58
18181	11.622	2.2727	0.	-189.27
18182	11.622	2.3636	5.e-002	-1.1459e-005
18183	11.9	2.3636	0.	-175.25
18184	11.807	2.2727	0.	-174.65
18185	11.807	2.3636	5.e-002	-1.1331e-005
18186	12.084	2.3636	0.	-160.76
18187	11.992	2.2727	0.	-160.7
18188	11.992	2.3636	5.e-002	-1.2835e-005
18189	12.269	2.3636	0.	-147.15
18190	12.177	2.2727	0.	-147.51
18191	12.177	2.3636	5.e-002	-1.1715e-005
18192	12.454	2.3636	0.	-134.44
18193	12.361	2.2727	0.	-135.13
18194	12.361	2.3636	5.e-002	-1.3968e-005
18195	12.639	2.3636	0.	-122.62
18196	12.546	2.2727	0.	-123.55
18197	12.546	2.3636	5.e-002	-1.3212e-005
18198	12.823	2.3636	0.	-111.66
18199	12.731	2.2727	0.	-112.76
18200	12.731	2.3636	5.e-002	-9.7178e-006
18201	13.008	2.3636	0.	-101.51
18202	12.916	2.2727	0.	-102.74
18203	12.916	2.3636	5.e-002	-8.2992e-006
18204	13.193	2.3636	0.	-92.14
18205	13.1	2.2727	0.	-93.444
18206	13.1	2.3636	5.e-002	-5.074e-006
18207	13.378	2.3636	0.	-83.485
18208	13.285	2.2727	0.	-84.834
18209	13.285	2.3636	5.e-002	-4.7704e-006
18210	13.562	2.3636	0.	-75.497
18211	13.47	2.2727	0.	-76.865
18212	13.47	2.3636	5.e-002	-3.2102e-006
18213	13.747	2.3636	0.	-68.125
18214	13.655	2.2727	0.	-69.493
18215	13.655	2.3636	5.e-002	-3.5895e-006
18216	13.932	2.3636	0.	-61.32
18217	13.839	2.2727	0.	-62.672
18218	13.839	2.3636	5.e-002	-2.5904e-006
18219	14.116	2.3636	0.	-55.035
18220	14.024	2.2727	0.	-56.362
18221	14.024	2.3636	5.e-002	-1.8606e-006
18222	14.301	2.3636	0.	-49.226
18223	14.209	2.2727	0.	-50.519
18224	14.209	2.3636	5.e-002	-6.4084e-007
18225	14.486	2.3636	0.	-43.851
18226	14.394	2.2727	0.	-45.106
18227	14.394	2.3636	5.e-002	-8.3384e-007
18228	14.671	2.3636	0.	-38.872
18229	14.578	2.2727	0.	-40.087
18230	14.578	2.3636	5.e-002	-1.44e-006
18231	14.855	2.3636	0.	-34.253
18232	14.763	2.2727	0.	-35.427
18233	14.763	2.3636	5.e-002	-1.117e-006
18234	15.04	2.3636	0.	-29.961
18235	14.948	2.2727	0.	-31.094
18236	14.948	2.3636	5.e-002	2.4531e-007
18237	15.225	2.3636	0.	-25.965
18238	15.133	2.2727	0.	-27.059
18239	15.133	2.3636	5.e-002	1.8217e-006
18240	15.41	2.3636	0.	-22.235
18241	15.317	2.2727	0.	-23.293
18242	15.317	2.3636	5.e-002	3.6267e-006
18243	15.594	2.3636	0.	-18.747
18244	15.502	2.2727	0.	-19.772
18245	15.502	2.3636	5.e-002	3.2943e-006
18246	15.779	2.3636	0.	-15.475
18247	15.687	2.2727	0.	-16.471
18248	15.687	2.3636	5.e-002	3.4745e-006
18249	15.964	2.3636	0.	-12.397
18250	15.871	2.2727	0.	-13.367
18251	15.871	2.3636	5.e-002	4.9765e-006
18252	16.149	2.3636	0.	-9.4905
18253	16.056	2.2727	0.	-10.439
18254	16.056	2.3636	5.e-002	5.9923e-006
18255	16.333	2.3636	0.	-6.7361
18256	16.241	2.2727	0.	-7.6684
18257	16.241	2.3636	5.e-002	5.8389e-006
18258	16.518	2.3636	0.	-4.1152
18259	16.426	2.2727	0.	-5.036
18260	16.426	2.3636	5.e-002	6.1174e-006
18261	16.703	2.3636	0.	-1.6113
18262	16.61	2.2727	0.	-2.525
18263	16.61	2.3636	5.e-002	5.4636e-006
18264	16.888	2.3636	0.	1.0326e-003
18265	16.795	2.2727	0.	-0.16263
18266	16.795	2.3636	5.e-002	5.3192e-006
18267	17.072	2.3636	0.	7.5622e-003
18268	16.98	2.2727	0.	5.433e-003
18269	16.98	2.3636	5.e-002	3.1974e-006
18270	17.257	2.3636	0.	8.818e-003
18271	17.165	2.2727	0.	7.737e-003
18272	17.165	2.3636	5.e-002	2.7927e-006
18273	17.442	2.3636	0.	9.5598e-003
18274	17.349	2.2727	0.	8.7299e-003
18275	17.349	2.3636	5.e-002	5.2698e-006
18276	17.627	2.3636	0.	1.0169e-002
18277	17.534	2.2727	0.	9.4266e-003
18278	17.534	2.3636	5.e-002	4.3097e-006
18279	17.811	2.3636	0.	1.0737e-002
18280	17.719	2.2727	0.	1.0039e-002
18281	17.719	2.3636	5.e-002	4.9753e-006
18282	17.996	2.3636	0.	1.1272e-002
18283	17.904	2.2727	0.	1.0609e-002
18284	17.904	2.3636	5.e-002	6.0102e-006
18285	18.181	2.3636	0.	1.1791e-002
18286	18.088	2.2727	0.	1.1131e-002
18287	18.088	2.3636	5.e-002	6.4525e-006
18288	18.365	2.3636	0.	1.2335e-002
18289	18.273	2.2727	0.	1.1659e-002
18290	18.273	2.3636	5.e-002	4.981e-006
18291	18.55	2.3636	0.	1.2918e-002
18292	18.458	2.2727	0.	1.2221e-002
18293	18.458	2.3636	5.e-002	2.3208e-006
18294	18.735	2.3636	0.	1.3538e-002
18295	18.643	2.2727	0.	1.2824e-002
18296	18.643	2.3636	5.e-002	4.1657e-006
18297	18.92	2.3636	0.	1.4181e-002
18298	18.827	2.2727	0.	1.3455e-002
18299	18.827	2.3636	5.e-002	4.1527e-006
18300	19.104	2.3636	0.	1.4854e-002
18301	19.012	2.2727	0.	1.41e-002
18302	19.012	2.3636	5.e-002	4.84e-006
18303	19.289	2.3636	0.	1.5578e-002
18304	19.197	2.2727	0.	1.4789e-002
18305	19.197	2.3636	5.e-002	5.9863e-006
18306	19.474	2.3636	0.	1.6362e-002
18307	19.382	2.2727	0.	1.5534e-002
18308	19.382	2.3636	5.e-002	3.7768e-006
18309	19.659	2.3636	0.	1.7222e-002
18310	19.566	2.2727	0.	1.6343e-002
18311	19.566	2.3636	5.e-002	2.9565e-006
18312	19.843	2.3636	0.	1.8163e-002
18313	19.751	2.2727	0.	1.7236e-002
18314	19.751	2.3636	5.e-002	5.0296e-006
18315	20.028	2.3636	0.	1.9175e-002
18316	19.936	2.2727	0.	1.8206e-002
18317	19.936	2.3636	5.e-002	1.6346e-006
18318	20.213	2.3636	0.	2.0274e-002
18319	20.12	2.2727	0.	1.9241e-002
18320	20.12	2.3636	5.e-002	3.9795e-006
18321	20.398	2.3636	0.	2.1492e-002
18322	20.305	2.2727	0.	2.0384e-002
18323	20.305	2.3636	5.e-002	5.3332e-006
18324	20.582	2.3636	0.	2.2851e-002
18325	20.49	2.2727	0.	2.1659e-002
18326	20.49	2.3636	5.e-002	3.3603e-006
18327	20.767	2.3636	0.	2.4369e-002
18328	20.675	2.2727	0.	2.3084e-002
18329	20.675	2.3636	5.e-002	3.4488e-006
18330	20.952	2.3636	0.	2.6061e-002
18331	20.859	2.2727	0.	2.4675e-002
18332	20.859	2.3636	5.e-002	5.8266e-006
18333	21.137	2.3636	0.	2.7963e-002
18334	21.044	2.2727	0.	2.645e-002
18335	21.044	2.3636	5.e-002	8.6277e-006
18336	21.321	2.3636	0.	3.0127e-002
18337	21.229	2.2727	0.	2.8464e-002
18338	21.229	2.3636	5.e-002	1.0479e-005
18339	21.506	2.3636	0.	3.2615e-002
18340	21.414	2.2727	0.	3.0771e-002
18341	21.414	2.3636	5.e-002	9.4711e-006
18342	21.691	2.3636	0.	3.5506e-002
18343	21.598	2.2727	0.	3.3434e-002
18344	21.598	2.3636	5.e-002	1.2352e-005
18345	21.876	2.3636	0.	3.8902e-002
18346	21.783	2.2727	0.	3.6556e-002
18347	21.783	2.3636	5.e-002	1.0335e-005
18348	22.06	2.3636	0.	4.2942e-002
18349	21.968	2.2727	0.	4.0241e-002
18350	21.968	2.3636	5.e-002	8.2562e-006
18351	22.245	2.3636	0.	4.7835e-002
18352	22.153	2.2727	0.	4.4662e-002
18353	22.153	2.3636	5.e-002	7.4182e-006
18354	22.43	2.3636	0.	5.3918e-002
18355	22.337	2.2727	0.	5.0077e-002
18356	22.337	2.3636	5.e-002	9.3209e-006
18357	22.614	2.3636	0.	6.1616e-002
18358	22.522	2.2727	0.	5.691e-002
18359	22.522	2.3636	5.e-002	9.9414e-006
18360	22.799	2.3636	0.	7.195e-002
18361	22.707	2.2727	0.	6.5615e-002
18362	22.707	2.3636	5.e-002	5.6231e-006
18363	22.984	2.3636	0.	8.534e-002
18364	22.892	2.2727	0.	7.7838e-002
18365	22.892	2.3636	5.e-002	5.4803e-006
18366	23.169	2.3636	0.	0.10809
18367	23.076	2.2727	0.	9.2914e-002
18368	23.076	2.3636	5.e-002	4.4702e-006
18369	23.353	2.3636	0.	0.13098
18370	23.261	2.2727	0.	0.12447
18371	23.261	2.3636	5.e-002	4.5822e-006
18372	23.538	2.3636	0.	0.22776
18373	23.446	2.2727	0.	0.14174
18374	23.446	2.3636	5.e-002	1.e-006
18375	23.723	2.3636	0.	0.22307
18376	23.631	2.2727	0.	0.32828
18377	23.631	2.3636	5.e-002	-6.6233e-007
18378	23.815	2.2727	0.	0.19893
18379	23.815	2.3636	5.e-002	-4.3463e-006
18380	23.908	2.3636	0.	0.42503
18381	8.9438	2.1818	0.	12.694
18382	8.8514	2.0909	0.	-229.75
18383	8.8514	2.1818	5.e-002	1.9801e-004
18384	9.1285	2.1818	0.	13.211
18385	9.0361	2.0909	0.	53.958
18386	9.0361	2.1818	5.e-002	5.588e-005
18387	9.3133	2.1818	0.	-5.9634
18388	9.2209	2.0909	0.	-11.745
18389	9.2209	2.1818	5.e-002	4.0226e-005
18390	9.498	2.1818	0.	-111.03
18391	9.4056	2.0909	0.	-26.492
18392	9.4056	2.1818	5.e-002	3.646e-005
18393	9.6827	2.1818	0.	-186.78
18394	9.5904	2.0909	0.	-124.25
18395	9.5904	2.1818	5.e-002	2.8682e-005
18396	9.8675	2.1818	0.	-229.71
18397	9.7751	2.0909	0.	-184.17
18398	9.7751	2.1818	5.e-002	4.9553e-005
18399	10.052	2.1818	0.	-251.6
18400	9.9598	2.0909	0.	-217.51
18401	9.9598	2.1818	5.e-002	3.292e-005
18402	10.237	2.1818	0.	-259.59
18403	10.145	2.0909	0.	-233.37
18404	10.145	2.1818	5.e-002	2.6221e-005
18405	10.422	2.1818	0.	-258.56
18406	10.329	2.0909	0.	-238.
18407	10.329	2.1818	5.e-002	2.6388e-005
18408	10.606	2.1818	0.	-251.75
18409	10.514	2.0909	0.	-235.42
18410	10.514	2.1818	5.e-002	1.7019e-005
18411	10.791	2.1818	0.	-241.35
18412	10.699	2.0909	0.	-228.29
18413	10.699	2.1818	5.e-002	1.8448e-005
18414	10.976	2.1818	0.	-228.83
18415	10.884	2.0909	0.	-218.39
18416	10.884	2.1818	5.e-002	5.7645e-008
18417	11.161	2.1818	0.	-215.2
18418	11.068	2.0909	0.	-206.89
18419	11.068	2.1818	5.e-002	3.6212e-006
18420	11.345	2.1818	0.	-201.14
18421	11.253	2.0909	0.	-194.57
18422	11.253	2.1818	5.e-002	2.5878e-006
18423	11.53	2.1818	0.	-187.08
18424	11.438	2.0909	0.	-181.96
18425	11.438	2.1818	5.e-002	-6.1051e-006
18426	11.715	2.1818	0.	-173.34
18427	11.622	2.0909	0.	-169.41
18428	11.622	2.1818	5.e-002	-7.629e-006
18429	11.9	2.1818	0.	-160.08
18430	11.807	2.0909	0.	-157.14
18431	11.807	2.1818	5.e-002	-1.1047e-005
18432	12.084	2.1818	0.	-147.45
18433	11.992	2.0909	0.	-145.32
18434	11.992	2.1818	5.e-002	-9.8308e-006
18435	12.269	2.1818	0.	-135.49
18436	12.177	2.0909	0.	-134.02
18437	12.177	2.1818	5.e-002	-7.0984e-006
18438	12.454	2.1818	0.	-124.23
18439	12.361	2.0909	0.	-123.3
18440	12.361	2.1818	5.e-002	-1.0476e-005
18441	12.639	2.1818	0.	-113.69
18442	12.546	2.0909	0.	-113.19
18443	12.546	2.1818	5.e-002	-1.0987e-005
18444	12.823	2.1818	0.	-103.84
18445	12.731	2.0909	0.	-103.68
18446	12.731	2.1818	5.e-002	-9.294e-006
18447	13.008	2.1818	0.	-94.663
18448	12.916	2.0909	0.	-94.78
18449	12.916	2.1818	5.e-002	-6.5784e-006
18450	13.193	2.1818	0.	-86.132
18451	13.1	2.0909	0.	-86.458
18452	13.1	2.1818	5.e-002	-3.082e-006
18453	13.378	2.1818	0.	-78.207
18454	13.285	2.0909	0.	-78.693
18455	13.285	2.1818	5.e-002	-4.2695e-006
18456	13.562	2.1818	0.	-70.853
18457	13.47	2.0909	0.	-71.459
18458	13.47	2.1818	5.e-002	-2.806e-006
18459	13.747	2.1818	0.	-64.031
18460	13.655	2.0909	0.	-64.724
18461	13.655	2.1818	5.e-002	-3.1948e-006
18462	13.932	2.1818	0.	-57.704
18463	13.839	2.0909	0.	-58.458
18464	13.839	2.1818	5.e-002	-1.7588e-006
18465	14.116	2.1818	0.	-51.834
18466	14.024	2.0909	0.	-52.629
18467	14.024	2.1818	5.e-002	-2.0689e-006
18468	14.301	2.1818	0.	-46.387
18469	14.209	2.0909	0.	-47.208
18470	14.209	2.1818	5.e-002	-3.7083e-007
18471	14.486	2.1818	0.	-41.329
18472	14.394	2.0909	0.	-42.163
18473	14.394	2.1818	5.e-002	1.3364e-006
18474	14.671	2.1818	0.	-36.627
18475	14.578	2.0909	0.	-37.465
18476	14.578	2.1818	5.e-002	-7.7363e-007
18477	14.855	2.1818	0.	-32.252
18478	14.763	2.0909	0.	-33.088
18479	14.763	2.1818	5.e-002	7.408e-008
18480	15.04	2.1818	0.	-28.175
18481	14.948	2.0909	0.	-29.006
18482	14.948	2.1818	5.e-002	5.8711e-007
18483	15.225	2.1818	0.	-24.37
18484	15.133	2.0909	0.	-25.192
18485	15.133	2.1818	5.e-002	2.2184e-006
18486	15.41	2.1818	0.	-20.811
18487	15.317	2.0909	0.	-21.624
18488	15.317	2.1818	5.e-002	3.9358e-006
18489	15.594	2.1818	0.	-17.475
18490	15.502	2.0909	0.	-18.279
18491	15.502	2.1818	5.e-002	3.6268e-006
18492	15.779	2.1818	0.	-14.341
18493	15.687	2.0909	0.	-15.137
18494	15.687	2.1818	5.e-002	4.2909e-006
18495	15.964	2.1818	0.	-11.387
18496	15.871	2.0909	0.	-12.177
18497	15.871	2.1818	5.e-002	5.7322e-006
18498	16.149	2.1818	0.	-8.5943
18499	16.056	2.0909	0.	-9.3804
18500	16.056	2.1818	5.e-002	6.0483e-006
18501	16.333	2.1818	0.	-5.9446
18502	16.241	2.0909	0.	-6.7299
18503	16.241	2.1818	5.e-002	6.302e-006
18504	16.518	2.1818	0.	-3.4209
18505	16.426	2.0909	0.	-4.2089
18506	16.426	2.1818	5.e-002	6.511e-006
18507	16.703	2.1818	0.	-1.0121
18508	16.61	2.0909	0.	-1.8035
18509	16.61	2.1818	5.e-002	5.9336e-006
18510	16.888	2.1818	0.	8.8513e-004
18511	16.795	2.0909	0.	-1.5729e-002
18512	16.795	2.1818	5.e-002	5.6025e-006
18513	17.072	2.1818	0.	6.2724e-003
18514	16.98	2.0909	0.	4.1392e-003
18515	16.98	2.1818	5.e-002	3.765e-006
18516	17.257	2.1818	0.	7.7402e-003
18517	17.165	2.0909	0.	6.5178e-003
18518	17.165	2.1818	5.e-002	3.1412e-006
18519	17.442	2.1818	0.	8.5966e-003
18520	17.349	2.0909	0.	7.6347e-003
18521	17.349	2.1818	5.e-002	5.8161e-006
18522	17.627	2.1818	0.	9.2683e-003
18523	17.534	2.0909	0.	8.4041e-003
18524	17.534	2.1818	5.e-002	4.4026e-006
18525	17.811	2.1818	0.	9.8705e-003
18526	17.719	2.0909	0.	9.057e-003
18527	17.719	2.1818	5.e-002	5.4227e-006
18528	17.996	2.1818	0.	1.0422e-002
18529	17.904	2.0909	0.	9.6479e-003
18530	17.904	2.1818	5.e-002	6.3212e-006
18531	18.181	2.1818	0.	1.0948e-002
18532	18.088	2.0909	0.	1.0179e-002
18533	18.088	2.1818	5.e-002	7.0086e-006
18534	18.365	2.1818	0.	1.1491e-002
18535	18.273	2.0909	0.	1.0707e-002
18536	18.273	2.1818	5.e-002	5.5298e-006
18537	18.55	2.1818	0.	1.207e-002
18538	18.458	2.0909	0.	1.1263e-002
18539	18.458	2.1818	5.e-002	2.2608e-006
18540	18.735	2.1818	0.	1.2682e-002
18541	18.643	2.0909	0.	1.1857e-002
18542	18.643	2.1818	5.e-002	4.3054e-006
18543	18.92	2.1818	0.	1.3312e-002
18544	18.827	2.0909	0.	1.2474e-002
18545	18.827	2.1818	5.e-002	4.5562e-006
18546	19.104	2.1818	0.	1.397e-002
18547	19.012	2.0909	0.	1.31e-002
18548	19.012	2.1818	5.e-002	4.9919e-006
18549	19.289	2.1818	0.	1.4677e-002
18550	19.197	2.0909	0.	1.3771e-002
18551	19.197	2.1818	5.e-002	6.1203e-006
18552	19.474	2.1818	0.	1.5444e-002
18553	19.382	2.0909	0.	1.4494e-002
18554	19.382	2.1818	5.e-002	3.9153e-006
18555	19.659	2.1818	0.	1.6282e-002
18556	19.566	2.0909	0.	1.5279e-002
18557	19.566	2.1818	5.e-002	3.798e-006
18558	19.843	2.1818	0.	1.72e-002
18559	19.751	2.0909	0.	1.6146e-002
18560	19.751	2.1818	5.e-002	4.3982e-006
18561	20.028	2.1818	0.	1.8189e-002
18562	19.936	2.0909	0.	1.7087e-002
18563	19.936	2.1818	5.e-002	1.9044e-006
18564	20.213	2.1818	0.	1.9262e-002
18565	20.12	2.0909	0.	1.8095e-002
18566	20.12	2.1818	5.e-002	3.3087e-006
18567	20.398	2.1818	0.	2.0455e-002
18568	20.305	2.0909	0.	1.9205e-002
18569	20.305	2.1818	5.e-002	6.1142e-006
18570	20.582	2.1818	0.	2.1788e-002
18571	20.49	2.0909	0.	2.045e-002
18572	20.49	2.1818	5.e-002	3.6189e-006
18573	20.767	2.1818	0.	2.3278e-002
18574	20.675	2.0909	0.	2.1843e-002
18575	20.675	2.1818	5.e-002	3.2706e-006
18576	20.952	2.1818	0.	2.4942e-002
18577	20.859	2.0909	0.	2.3399e-002
18578	20.859	2.1818	5.e-002	6.1737e-006
18579	21.137	2.1818	0.	2.6816e-002
18580	21.044	2.0909	0.	2.5141e-002
18581	21.044	2.1818	5.e-002	8.8913e-006
18582	21.321	2.1818	0.	2.8955e-002
18583	21.229	2.0909	0.	2.7121e-002
18584	21.229	2.1818	5.e-002	9.3444e-006
18585	21.506	2.1818	0.	3.1416e-002
18586	21.414	2.0909	0.	2.9394e-002
18587	21.414	2.1818	5.e-002	9.3537e-006
18588	21.691	2.1818	0.	3.4282e-002
18589	21.598	2.0909	0.	3.2026e-002
18590	21.598	2.1818	5.e-002	1.2141e-005
18591	21.876	2.1818	0.	3.7655e-002
18592	21.783	2.0909	0.	3.5115e-002
18593	21.783	2.1818	5.e-002	1.1097e-005
18594	22.06	2.1818	0.	4.1668e-002
18595	21.968	2.0909	0.	3.8767e-002
18596	21.968	2.1818	5.e-002	6.1528e-006
18597	22.245	2.1818	0.	4.6534e-002
18598	22.153	2.0909	0.	4.3157e-002
18599	22.153	2.1818	5.e-002	9.1296e-006
18600	22.43	2.1818	0.	5.2581e-002
18601	22.337	2.0909	0.	4.8534e-002
18602	22.337	2.1818	5.e-002	9.1557e-006
18603	22.614	2.1818	0.	6.0233e-002
18604	22.522	2.0909	0.	5.5321e-002
18605	22.522	2.1818	5.e-002	9.661e-006
18606	22.799	2.1818	0.	7.0502e-002
18607	22.707	2.0909	0.	6.3964e-002
18608	22.707	2.1818	5.e-002	6.4255e-006
18609	22.984	2.1818	0.	8.3802e-002
18610	22.892	2.0909	0.	7.6098e-002
18611	22.892	2.1818	5.e-002	4.3386e-006
18612	23.169	2.1818	0.	0.10641
18613	23.076	2.0909	0.	9.1048e-002
18614	23.076	2.1818	5.e-002	5.2175e-006
18615	23.353	2.1818	0.	0.1291
18616	23.261	2.0909	0.	0.12239
18617	23.261	2.1818	5.e-002	6.2796e-006
18618	23.538	2.1818	0.	0.22536
18619	23.446	2.0909	0.	0.13937
18620	23.446	2.1818	5.e-002	2.8101e-006
18621	23.723	2.1818	0.	0.21921
18622	23.631	2.0909	0.	0.3249
18623	23.631	2.1818	5.e-002	-6.7107e-007
18624	23.815	2.0909	0.	0.19209
18625	23.815	2.1818	5.e-002	-4.3485e-006
18626	23.908	2.1818	0.	0.42377
18627	8.9438	2.	0.	-229.98
18628	8.8514	1.9091	0.	-339.04
18629	8.8514	2.	5.e-002	6.0685e-004
18630	8.759	2.	0.	-438.13
18631	9.1285	2.	0.	28.731
18632	9.0361	1.9091	0.	40.748
18633	9.0361	2.	5.e-002	1.0993e-004
18634	9.3133	2.	0.	-9.923
18635	9.2209	1.9091	0.	-11.82
18636	9.2209	2.	5.e-002	1.0042e-004
18637	9.498	2.	0.	-41.842
18638	9.4056	1.9091	0.	-5.5979
18639	9.4056	2.	5.e-002	1.037e-004
18640	9.6827	2.	0.	-123.78
18641	9.5904	1.9091	0.	-48.111
18642	9.5904	2.	5.e-002	1.1341e-004
18643	9.8675	2.	0.	-173.46
18644	9.7751	1.9091	0.	-116.76
18645	9.7751	2.	5.e-002	9.8003e-005
18646	10.052	2.	0.	-200.25
18647	9.9598	1.9091	0.	-158.07
18648	9.9598	2.	5.e-002	7.4154e-005
18649	10.237	2.	0.	-212.37
18650	10.145	1.9091	0.	-179.9
18651	10.145	2.	5.e-002	7.5749e-005
18652	10.422	2.	0.	-215.2
18653	10.329	1.9091	0.	-189.5
18654	10.329	2.	5.e-002	5.3252e-005
18655	10.606	2.	0.	-212.16
18656	10.514	1.9091	0.	-191.39
18657	10.514	2.	5.e-002	3.9384e-005
18658	10.791	2.	0.	-205.45
18659	10.699	1.9091	0.	-188.47
18660	10.699	2.	5.e-002	3.3098e-005
18661	10.976	2.	0.	-196.5
18662	10.884	1.9091	0.	-182.54
18663	10.884	2.	5.e-002	3.0215e-005
18664	11.161	2.	0.	-186.28
18665	11.068	1.9091	0.	-174.79
18666	11.068	2.	5.e-002	7.5891e-006
18667	11.345	2.	0.	-175.4
18668	11.253	1.9091	0.	-165.96
18669	11.253	2.	5.e-002	6.343e-006
18670	11.53	2.	0.	-164.28
18671	11.438	1.9091	0.	-156.57
18672	11.438	2.	5.e-002	-6.1701e-006
18673	11.715	2.	0.	-153.21
18674	11.622	1.9091	0.	-146.96
18675	11.622	2.	5.e-002	-5.8994e-006
18676	11.9	2.	0.	-142.37
18677	11.807	1.9091	0.	-137.35
18678	11.807	2.	5.e-002	-7.0254e-006
18679	12.084	2.	0.	-131.88
18680	11.992	1.9091	0.	-127.89
18681	11.992	2.	5.e-002	-1.2828e-005
18682	12.269	2.	0.	-121.83
18683	12.177	1.9091	0.	-118.71
18684	12.177	2.	5.e-002	-1.164e-005
18685	12.454	2.	0.	-112.25
18686	12.361	1.9091	0.	-109.85
18687	12.361	2.	5.e-002	-9.2272e-006
18688	12.639	2.	0.	-103.18
18689	12.546	1.9091	0.	-101.37
18690	12.546	2.	5.e-002	-1.1569e-005
18691	12.823	2.	0.	-94.619
18692	12.731	1.9091	0.	-93.305
18693	12.731	2.	5.e-002	-5.4749e-006
18694	13.008	2.	0.	-86.567
18695	12.916	1.9091	0.	-85.653
18696	12.916	2.	5.e-002	-6.2072e-006
18697	13.193	2.	0.	-79.012
18698	13.1	1.9091	0.	-78.423
18699	13.1	2.	5.e-002	-3.3508e-006
18700	13.378	2.	0.	-71.937
18701	13.285	1.9091	0.	-71.609
18702	13.285	2.	5.e-002	-3.4131e-006
18703	13.562	2.	0.	-65.321
18704	13.47	1.9091	0.	-65.203
18705	13.47	2.	5.e-002	-1.5941e-006
18706	13.747	2.	0.	-59.141
18707	13.655	1.9091	0.	-59.189
18708	13.655	2.	5.e-002	-1.6139e-006
18709	13.932	2.	0.	-53.372
18710	13.839	1.9091	0.	-53.551
18711	13.839	2.	5.e-002	-1.0636e-006
18712	14.116	2.	0.	-47.991
18713	14.024	1.9091	0.	-48.271
18714	14.024	2.	5.e-002	-9.1095e-007
18715	14.301	2.	0.	-42.97
18716	14.209	1.9091	0.	-43.329
18717	14.209	2.	5.e-002	-2.2578e-007
18718	14.486	2.	0.	-38.285
18719	14.394	1.9091	0.	-38.705
18720	14.394	2.	5.e-002	2.9683e-008
18721	14.671	2.	0.	-33.911
18722	14.578	1.9091	0.	-34.378
18723	14.578	2.	5.e-002	-5.8508e-007
18724	14.855	2.	0.	-29.826
18725	14.763	1.9091	0.	-30.327
18726	14.763	2.	5.e-002	4.392e-007
18727	15.04	2.	0.	-26.005
18728	14.948	1.9091	0.	-26.534
18729	14.948	2.	5.e-002	5.3367e-007
18730	15.225	2.	0.	-22.428
18731	15.133	1.9091	0.	-22.977
18732	15.133	2.	5.e-002	2.282e-006
18733	15.41	2.	0.	-19.073
18734	15.317	1.9091	0.	-19.639
18735	15.317	2.	5.e-002	4.0532e-006
18736	15.594	2.	0.	-15.921
18737	15.502	1.9091	0.	-16.501
18738	15.502	2.	5.e-002	3.4377e-006
18739	15.779	2.	0.	-12.951
18740	15.687	1.9091	0.	-13.544
18741	15.687	2.	5.e-002	3.7713e-006
18742	15.964	2.	0.	-10.148
18743	15.871	1.9091	0.	-10.753
18744	15.871	2.	5.e-002	5.578e-006
18745	16.149	2.	0.	-7.4929
18746	16.056	1.9091	0.	-8.1112
18747	16.056	2.	5.e-002	6.0375e-006
18748	16.333	2.	0.	-4.9702
18749	16.241	1.9091	0.	-5.603
18750	16.241	2.	5.e-002	6.1527e-006
18751	16.518	2.	0.	-2.5655
18752	16.426	1.9091	0.	-3.2143
18753	16.426	2.	5.e-002	6.4141e-006
18754	16.703	2.	0.	-0.30225
18755	16.61	1.9091	0.	-0.94031
18756	16.61	2.	5.e-002	5.5886e-006
18757	16.888	2.	0.	6.8071e-004
18758	16.795	1.9091	0.	-5.7963e-003
18759	16.795	2.	5.e-002	5.5182e-006
18760	17.072	2.	0.	4.9948e-003
18761	16.98	1.9091	0.	3.0267e-003
18762	16.98	2.	5.e-002	3.3e-006
18763	17.257	2.	0.	6.5373e-003
18764	17.165	1.9091	0.	5.2531e-003
18765	17.165	2.	5.e-002	2.7749e-006
18766	17.442	2.	0.	7.4649e-003
18767	17.349	1.9091	0.	6.4102e-003
18768	17.349	2.	5.e-002	5.2007e-006
18769	17.627	2.	0.	8.1795e-003
18770	17.534	1.9091	0.	7.2151e-003
18771	17.534	2.	5.e-002	4.3779e-006
18772	17.811	2.	0.	8.8043e-003
18773	17.719	1.9091	0.	7.8885e-003
18774	17.719	2.	5.e-002	5.203e-006
18775	17.996	2.	0.	9.3656e-003
18776	17.904	1.9091	0.	8.4859e-003
18777	17.904	2.	5.e-002	6.0374e-006
18778	18.181	2.	0.	9.8917e-003
18779	18.088	1.9091	0.	9.0161e-003
18780	18.088	2.	5.e-002	6.8184e-006
18781	18.365	2.	0.	1.0428e-002
18782	18.273	1.9091	0.	9.5347e-003
18783	18.273	2.	5.e-002	4.8685e-006
18784	18.55	2.	0.	1.0995e-002
18785	18.458	1.9091	0.	1.0076e-002
18786	18.458	2.	5.e-002	2.0504e-006
18787	18.735	2.	0.	1.159e-002
18788	18.643	1.9091	0.	1.065e-002
18789	18.643	2.	5.e-002	3.7621e-006
18790	18.92	2.	0.	1.22e-002
18791	18.827	1.9091	0.	1.1244e-002
18792	18.827	2.	5.e-002	4.2336e-006
18793	19.104	2.	0.	1.2836e-002
18794	19.012	1.9091	0.	1.1845e-002
18795	19.012	2.	5.e-002	4.4594e-006
18796	19.289	2.	0.	1.3518e-002
18797	19.197	1.9091	0.	1.2487e-002
18798	19.197	2.	5.e-002	6.0331e-006
18799	19.474	2.	0.	1.4255e-002
18800	19.382	1.9091	0.	1.3178e-002
18801	19.382	2.	5.e-002	3.3382e-006
18802	19.659	2.	0.	1.5064e-002
18803	19.566	1.9091	0.	1.3927e-002
18804	19.566	2.	5.e-002	2.4984e-006
18805	19.843	2.	0.	1.595e-002
18806	19.751	1.9091	0.	1.4759e-002
18807	19.751	2.	5.e-002	3.4948e-006
18808	20.028	2.	0.	1.6904e-002
18809	19.936	1.9091	0.	1.5659e-002
18810	19.936	2.	5.e-002	8.4e-007
18811	20.213	2.	0.	1.7942e-002
18812	20.12	1.9091	0.	1.6627e-002
18813	20.12	2.	5.e-002	3.122e-006
18814	20.398	2.	0.	1.9098e-002
18815	20.305	1.9091	0.	1.7694e-002
18816	20.305	2.	5.e-002	4.9778e-006
18817	20.582	2.	0.	2.0395e-002
18818	20.49	1.9091	0.	1.8892e-002
18819	20.49	2.	5.e-002	3.473e-006
18820	20.767	2.	0.	2.1845e-002
18821	20.675	1.9091	0.	2.0238e-002
18822	20.675	2.	5.e-002	2.1575e-006
18823	20.952	2.	0.	2.3467e-002
18824	20.859	1.9091	0.	2.1747e-002
18825	20.859	2.	5.e-002	5.5582e-006
18826	21.137	2.	0.	2.53e-002
18827	21.044	1.9091	0.	2.344e-002
18828	21.044	2.	5.e-002	8.3342e-006
18829	21.321	2.	0.	2.7397e-002
18830	21.229	1.9091	0.	2.5369e-002
18831	21.229	2.	5.e-002	8.2052e-006
18832	21.506	2.	0.	2.9819e-002
18833	21.414	1.9091	0.	2.759e-002
18834	21.414	2.	5.e-002	9.2355e-006
18835	21.691	2.	0.	3.2645e-002
18836	21.598	1.9091	0.	3.0173e-002
18837	21.598	2.	5.e-002	1.019e-005
18838	21.876	2.	0.	3.5976e-002
18839	21.783	1.9091	0.	3.3211e-002
18840	21.783	2.	5.e-002	9.067e-006
18841	22.06	2.	0.	3.9951e-002
18842	21.968	1.9091	0.	3.6814e-002
18843	21.968	2.	5.e-002	6.9271e-006
18844	22.245	2.	0.	4.4774e-002
18845	22.153	1.9091	0.	4.1153e-002
18846	22.153	2.	5.e-002	8.0165e-006
18847	22.43	2.	0.	5.0773e-002
18848	22.337	1.9091	0.	4.6472e-002
18849	22.337	2.	5.e-002	9.001e-006
18850	22.614	2.	0.	5.8364e-002
18851	22.522	1.9091	0.	5.3197e-002
18852	22.522	2.	5.e-002	9.5316e-006
18853	22.799	2.	0.	6.855e-002
18854	22.707	1.9091	0.	6.1757e-002
18855	22.707	2.	5.e-002	4.5102e-006
18856	22.984	2.	0.	8.1729e-002
18857	22.892	1.9091	0.	7.3776e-002
18858	22.892	2.	5.e-002	3.3263e-006
18859	23.169	2.	0.	0.10415
18860	23.076	1.9091	0.	8.8562e-002
18861	23.076	2.	5.e-002	3.164e-006
18862	23.353	2.	0.	0.12657
18863	23.261	1.9091	0.	0.11963
18864	23.261	2.	5.e-002	4.2707e-006
18865	23.538	2.	0.	0.22216
18866	23.446	1.9091	0.	0.13624
18867	23.446	2.	5.e-002	4.6022e-006
18868	23.723	2.	0.	0.21412
18869	23.631	1.9091	0.	0.32047
18870	23.631	2.	5.e-002	-6.8439e-007
18871	23.815	1.9091	0.	0.1833
18872	23.815	2.	5.e-002	-6.1589e-006
18873	23.908	2.	0.	0.42207
18874	8.9438	1.8182	0.	-66.929
18875	8.8514	1.7273	0.	-66.577
18876	8.8514	1.8182	5.e-002	7.0672e-004
18877	8.759	1.8182	0.	-281.31
18878	9.1285	1.8182	0.	-8.3399e-002
18879	9.0361	1.7273	0.	4.9881
18880	9.0361	1.8182	5.e-002	4.5818e-004
18881	9.3133	1.8182	0.	-6.2559
18882	9.2209	1.7273	0.	-9.1472
18883	9.2209	1.8182	5.e-002	3.6555e-004
18884	9.498	1.8182	0.	-8.3004
18885	9.4056	1.7273	0.	-4.0506
18886	9.4056	1.8182	5.e-002	2.0105e-004
18887	9.6827	1.8182	0.	-44.796
18888	9.5904	1.7273	0.	-9.3464
18889	9.5904	1.8182	5.e-002	2.1075e-004
18890	9.8675	1.8182	0.	-103.68
18891	9.7751	1.7273	0.	-44.484
18892	9.7751	1.8182	5.e-002	1.1485e-004
18893	10.052	1.8182	0.	-139.14
18894	9.9598	1.7273	0.	-92.448
18895	9.9598	1.8182	5.e-002	1.1142e-004
18896	10.237	1.8182	0.	-157.88
18897	10.145	1.7273	0.	-121.35
18898	10.145	1.8182	5.e-002	1.3628e-004
18899	10.422	1.8182	0.	-166.18
18900	10.329	1.7273	0.	-136.87
18901	10.329	1.8182	5.e-002	7.5589e-005
18902	10.606	1.8182	0.	-167.97
18903	10.514	1.7273	0.	-143.96
18904	10.514	1.8182	5.e-002	7.0546e-005
18905	10.791	1.8182	0.	-165.71
18906	10.699	1.7273	0.	-145.76
18907	10.699	1.8182	5.e-002	6.0112e-005
18908	10.976	1.8182	0.	-160.89
18909	10.884	1.7273	0.	-144.2
18910	10.884	1.8182	5.e-002	1.4753e-005
18911	11.161	1.8182	0.	-154.5
18912	11.068	1.7273	0.	-140.49
18913	11.068	1.8182	5.e-002	2.3614e-005
18914	11.345	1.8182	0.	-147.14
18915	11.253	1.7273	0.	-135.41
18916	11.253	1.8182	5.e-002	1.4447e-005
18917	11.53	1.8182	0.	-139.25
18918	11.438	1.7273	0.	-129.44
18919	11.438	1.8182	5.e-002	1.1628e-005
18920	11.715	1.8182	0.	-131.09
18921	11.622	1.7273	0.	-122.93
18922	11.622	1.8182	5.e-002	-7.5846e-006
18923	11.9	1.8182	0.	-122.86
18924	11.807	1.7273	0.	-116.11
18925	11.807	1.8182	5.e-002	-3.8184e-006
18926	12.084	1.8182	0.	-114.71
18927	11.992	1.7273	0.	-109.16
18928	11.992	1.8182	5.e-002	-1.5036e-006
18929	12.269	1.8182	0.	-106.72
18930	12.177	1.7273	0.	-102.19
18931	12.177	1.8182	5.e-002	-8.0027e-006
18932	12.454	1.8182	0.	-98.965
18933	12.361	1.7273	0.	-95.299
18934	12.361	1.8182	5.e-002	-7.7491e-006
18935	12.639	1.8182	0.	-91.492
18936	12.546	1.7273	0.	-88.551
18937	12.546	1.8182	5.e-002	-8.5213e-006
18938	12.823	1.8182	0.	-84.33
18939	12.731	1.7273	0.	-81.996
18940	12.731	1.8182	5.e-002	-6.8635e-006
18941	13.008	1.8182	0.	-77.5
18942	12.916	1.7273	0.	-75.672
18943	12.916	1.8182	5.e-002	-4.2078e-006
18944	13.193	1.8182	0.	-71.012
18945	13.1	1.7273	0.	-69.602
18946	13.1	1.8182	5.e-002	-4.0056e-006
18947	13.378	1.8182	0.	-64.866
18948	13.285	1.7273	0.	-63.802
18949	13.285	1.8182	5.e-002	-2.8471e-006
18950	13.562	1.8182	0.	-59.061
18951	13.47	1.7273	0.	-58.28
18952	13.47	1.8182	5.e-002	-1.8668e-006
18953	13.747	1.8182	0.	-53.588
18954	13.655	1.7273	0.	-53.04
18955	13.655	1.8182	5.e-002	-1.2674e-006
18956	13.932	1.8182	0.	-48.438
18957	13.839	1.7273	0.	-48.08
18958	13.839	1.8182	5.e-002	-8.7101e-007
18959	14.116	1.8182	0.	-43.597
18960	14.024	1.7273	0.	-43.393
18961	14.024	1.8182	5.e-002	1.9162e-007
18962	14.301	1.8182	0.	-39.051
18963	14.209	1.7273	0.	-38.973
18964	14.209	1.8182	5.e-002	1.2557e-006
18965	14.486	1.8182	0.	-34.783
18966	14.394	1.7273	0.	-34.807
18967	14.394	1.8182	5.e-002	1.0853e-006
18968	14.671	1.8182	0.	-30.778
18969	14.578	1.7273	0.	-30.886
18970	14.578	1.8182	5.e-002	-1.1876e-007
18971	14.855	1.8182	0.	-27.019
18972	14.763	1.7273	0.	-27.195
18973	14.763	1.8182	5.e-002	5.2022e-007
18974	15.04	1.8182	0.	-23.488
18975	14.948	1.7273	0.	-23.721
18976	14.948	1.8182	5.e-002	9.2036e-007
18977	15.225	1.8182	0.	-20.17
18978	15.133	1.7273	0.	-20.45
18979	15.133	1.8182	5.e-002	3.0863e-006
18980	15.41	1.8182	0.	-17.047
18981	15.317	1.7273	0.	-17.368
18982	15.317	1.8182	5.e-002	3.9032e-006
18983	15.594	1.8182	0.	-14.104
18984	15.502	1.7273	0.	-14.46
18985	15.502	1.8182	5.e-002	3.2819e-006
18986	15.779	1.8182	0.	-11.324
18987	15.687	1.7273	0.	-11.713
18988	15.687	1.8182	5.e-002	3.8056e-006
18989	15.964	1.8182	0.	-8.694
18990	15.871	1.7273	0.	-9.1124
18991	15.871	1.8182	5.e-002	5.2467e-006
18992	16.149	1.8182	0.	-6.1979
18993	16.056	1.7273	0.	-6.6452
18994	16.056	1.8182	5.e-002	5.6411e-006
18995	16.333	1.8182	0.	-3.8225
18996	16.241	1.7273	0.	-4.2986
18997	16.241	1.8182	5.e-002	5.9309e-006
18998	16.518	1.8182	0.	-1.5586
18999	16.426	1.7273	0.	-2.0625
19000	16.426	1.8182	5.e-002	6.0931e-006
19001	16.703	1.8182	0.	-2.3002e-002
19002	16.61	1.7273	0.	-0.10464
19003	16.61	1.8182	5.e-002	5.4791e-006
19004	16.888	1.8182	0.	4.2397e-004
19005	16.795	1.7273	0.	-3.0922e-003
19006	16.795	1.8182	5.e-002	5.0881e-006
19007	17.072	1.8182	0.	3.7778e-003
19008	16.98	1.7273	0.	2.0631e-003
19009	16.98	1.8182	5.e-002	2.8172e-006
19010	17.257	1.8182	0.	5.2626e-003
19011	17.165	1.7273	0.	3.9898e-003
19012	17.165	1.8182	5.e-002	2.5519e-006
19013	17.442	1.8182	0.	6.1997e-003
19014	17.349	1.7273	0.	5.0979e-003
19015	17.349	1.8182	5.e-002	5.036e-006
19016	17.627	1.8182	0.	6.9239e-003
19017	17.534	1.7273	0.	5.8888e-003
19018	17.534	1.8182	5.e-002	3.8627e-006
19019	17.811	1.8182	0.	7.5496e-003
19020	17.719	1.7273	0.	6.5517e-003
19021	17.719	1.8182	5.e-002	4.9156e-006
19022	17.996	1.8182	0.	8.1035e-003
19023	17.904	1.7273	0.	7.1337e-003
19024	17.904	1.8182	5.e-002	5.4093e-006
19025	18.181	1.8182	0.	8.6176e-003
19026	18.088	1.7273	0.	7.6442e-003
19027	18.088	1.8182	5.e-002	6.3157e-006
19028	18.365	1.8182	0.	9.1352e-003
19029	18.273	1.7273	0.	8.1389e-003
19030	18.273	1.8182	5.e-002	4.4666e-006
19031	18.55	1.8182	0.	9.6783e-003
19032	18.458	1.7273	0.	8.6525e-003
19033	18.458	1.8182	5.e-002	1.5378e-006
19034	18.735	1.8182	0.	1.0246e-002
19035	18.643	1.7273	0.	9.1936e-003
19036	18.643	1.8182	5.e-002	3.4756e-006
19037	18.92	1.8182	0.	1.0826e-002
19038	18.827	1.7273	0.	9.7513e-003
19039	18.827	1.8182	5.e-002	3.1932e-006
19040	19.104	1.8182	0.	1.1428e-002
19041	19.012	1.7273	0.	1.0314e-002
19042	19.012	1.8182	5.e-002	3.7004e-006
19043	19.289	1.8182	0.	1.2074e-002
19044	19.197	1.7273	0.	1.0913e-002
19045	19.197	1.8182	5.e-002	5.0728e-006
19046	19.474	1.8182	0.	1.2771e-002
19047	19.382	1.7273	0.	1.1559e-002
19048	19.382	1.8182	5.e-002	2.2767e-006
19049	19.659	1.8182	0.	1.3537e-002
19050	19.566	1.7273	0.	1.2261e-002
19051	19.566	1.8182	5.e-002	2.3608e-006
19052	19.843	1.8182	0.	1.4379e-002
19053	19.751	1.7273	0.	1.3039e-002
19054	19.751	1.8182	5.e-002	3.2073e-006
19055	20.028	1.8182	0.	1.5287e-002
19056	19.936	1.7273	0.	1.3887e-002
19057	19.936	1.8182	5.e-002	4.6467e-007
19058	20.213	1.8182	0.	1.6276e-002
19059	20.12	1.7273	0.	1.4797e-002
19060	20.12	1.8182	5.e-002	2.5154e-006
19061	20.398	1.8182	0.	1.7378e-002
19062	20.305	1.7273	0.	1.5802e-002
19063	20.305	1.8182	5.e-002	3.8942e-006
19064	20.582	1.8182	0.	1.8616e-002
19065	20.49	1.7273	0.	1.6935e-002
19066	20.49	1.8182	5.e-002	1.3712e-006
19067	20.767	1.8182	0.	2.001e-002
19068	20.675	1.7273	0.	1.8215e-002
19069	20.675	1.8182	5.e-002	2.0184e-006
19070	20.952	1.8182	0.	2.1576e-002
19071	20.859	1.7273	0.	1.9654e-002
19072	20.859	1.8182	5.e-002	3.5378e-006
19073	21.137	1.8182	0.	2.335e-002
19074	21.044	1.7273	0.	2.1275e-002
19075	21.044	1.8182	5.e-002	7.2986e-006
19076	21.321	1.8182	0.	2.5386e-002
19077	21.229	1.7273	0.	2.3131e-002
19078	21.229	1.8182	5.e-002	7.6358e-006
19079	21.506	1.8182	0.	2.7745e-002
19080	21.414	1.7273	0.	2.5277e-002
19081	21.414	1.8182	5.e-002	7.3845e-006
19082	21.691	1.8182	0.	3.0509e-002
19083	21.598	1.7273	0.	2.7781e-002
19084	21.598	1.8182	5.e-002	9.6239e-006
19085	21.876	1.8182	0.	3.378e-002
19086	21.783	1.7273	0.	3.0743e-002
19087	21.783	1.8182	5.e-002	7.9506e-006
19088	22.06	1.8182	0.	3.7692e-002
19089	21.968	1.7273	0.	3.4269e-002
19090	21.968	1.8182	5.e-002	6.0389e-006
19091	22.245	1.8182	0.	4.2449e-002
19092	22.153	1.7273	0.	3.8526e-002
19093	22.153	1.8182	5.e-002	7.008e-006
19094	22.43	1.8182	0.	4.8377e-002
19095	22.337	1.7273	0.	4.3763e-002
19096	22.337	1.8182	5.e-002	8.1126e-006
19097	22.614	1.8182	0.	5.5883e-002
19098	22.522	1.7273	0.	5.0394e-002
19099	22.522	1.8182	5.e-002	5.6527e-006
19100	22.799	1.8182	0.	6.5956e-002
19101	22.707	1.7273	0.	5.8842e-002
19102	22.707	1.8182	5.e-002	3.4704e-006
19103	22.984	1.8182	0.	7.8984e-002
19104	22.892	1.7273	0.	7.0712e-002
19105	22.892	1.8182	5.e-002	2.2889e-006
19106	23.169	1.8182	0.	0.10117
19107	23.076	1.7273	0.	8.5291e-002
19108	23.076	1.8182	5.e-002	1.2896e-006
19109	23.353	1.8182	0.	0.12324
19110	23.261	1.7273	0.	0.11601
19111	23.261	1.8182	5.e-002	1.4167e-006
19112	23.538	1.8182	0.	0.21796
19113	23.446	1.7273	0.	0.13215
19114	23.446	1.8182	5.e-002	-9.981e-007
19115	23.723	1.8182	0.	0.20756
19116	23.631	1.7273	0.	0.31472
19117	23.631	1.8182	5.e-002	-6.9739e-007
19118	23.815	1.7273	0.	0.17223
19119	23.815	1.8182	5.e-002	-7.9546e-006
19120	23.908	1.8182	0.	0.41979
19121	8.9438	1.6364	0.	4.8724
19122	8.8514	1.5455	0.	-7.3813
19123	8.8514	1.6364	5.e-002	2.3614e-004
19124	8.759	1.6364	0.	62.25
19125	9.1285	1.6364	0.	-4.7378
19126	9.0361	1.5455	0.	-0.41127
19127	9.0361	1.6364	5.e-002	3.9139e-004
19128	9.3133	1.6364	0.	-6.7972
19129	9.2209	1.5455	0.	-7.2973
19130	9.2209	1.6364	5.e-002	3.708e-004
19131	9.498	1.6364	0.	-4.3059
19132	9.4056	1.5455	0.	-3.2546
19133	9.4056	1.6364	5.e-002	3.185e-004
19134	9.6827	1.6364	0.	-8.7602
19135	9.5904	1.5455	0.	-4.7349
19136	9.5904	1.6364	5.e-002	2.8929e-004
19137	9.8675	1.6364	0.	-36.629
19138	9.7751	1.5455	0.	-8.8274
19139	9.7751	1.6364	5.e-002	1.9129e-004
19140	10.052	1.6364	0.	-76.53
19141	9.9598	1.5455	0.	-33.165
19142	9.9598	1.6364	5.e-002	2.2296e-004
19143	10.237	1.6364	0.	-101.42
19144	10.145	1.5455	0.	-64.49
19145	10.145	1.6364	5.e-002	1.4766e-004
19146	10.422	1.6364	0.	-115.26
19147	10.329	1.5455	0.	-84.695
19148	10.329	1.6364	5.e-002	1.3156e-004
19149	10.606	1.6364	0.	-122.08
19150	10.514	1.5455	0.	-96.49
19151	10.514	1.6364	5.e-002	9.1188e-005
19152	10.791	1.6364	0.	-124.43
19153	10.699	1.5455	0.	-102.8
19154	10.699	1.6364	5.e-002	9.6761e-005
19155	10.976	1.6364	0.	-123.89
19156	10.884	1.5455	0.	-105.5
19157	10.884	1.6364	5.e-002	4.7454e-005
19158	11.161	1.6364	0.	-121.44
19159	11.068	1.5455	0.	-105.79
19160	11.068	1.6364	5.e-002	3.574e-005
19161	11.345	1.6364	0.	-117.71
19162	11.253	1.5455	0.	-104.4
19163	11.253	1.6364	5.e-002	2.7166e-005
19164	11.53	1.6364	0.	-113.12
19165	11.438	1.5455	0.	-101.82
19166	11.438	1.6364	5.e-002	7.8322e-006
19167	11.715	1.6364	0.	-107.95
19168	11.622	1.5455	0.	-98.394
19169	11.622	1.6364	5.e-002	1.0692e-005
19170	11.9	1.6364	0.	-102.4
19171	11.807	1.5455	0.	-94.356
19172	11.807	1.6364	5.e-002	4.9123e-006
19173	12.084	1.6364	0.	-96.632
19174	11.992	1.5455	0.	-89.889
19175	11.992	1.6364	5.e-002	-2.992e-006
19176	12.269	1.6364	0.	-90.76
19177	12.177	1.5455	0.	-85.133
19178	12.177	1.6364	5.e-002	-4.3989e-006
19179	12.454	1.6364	0.	-84.874
19180	12.361	1.5455	0.	-80.201
19181	12.361	1.6364	5.e-002	-4.0818e-006
19182	12.639	1.6364	0.	-79.046
19183	12.546	1.5455	0.	-75.184
19184	12.546	1.6364	5.e-002	-3.4441e-006
19185	12.823	1.6364	0.	-73.328
19186	12.731	1.5455	0.	-70.152
19187	12.731	1.6364	5.e-002	-3.9936e-006
19188	13.008	1.6364	0.	-67.763
19189	12.916	1.5455	0.	-65.166
19190	12.916	1.6364	5.e-002	-1.7247e-006
19191	13.193	1.6364	0.	-62.381
19192	13.1	1.5455	0.	-60.271
19193	13.1	1.6364	5.e-002	-1.8954e-006
19194	13.378	1.6364	0.	-57.205
19195	13.285	1.5455	0.	-55.502
19196	13.285	1.6364	5.e-002	-8.4243e-007
19197	13.562	1.6364	0.	-52.248
19198	13.47	1.5455	0.	-50.885
19199	13.47	1.6364	5.e-002	-9.6772e-007
19200	13.747	1.6364	0.	-47.52
19201	13.655	1.5455	0.	-46.44
19202	13.655	1.6364	5.e-002	-3.1844e-007
19203	13.932	1.6364	0.	-43.022
19204	13.839	1.5455	0.	-42.179
19205	13.839	1.6364	5.e-002	1.2251e-007
19206	14.116	1.6364	0.	-38.755
19207	14.024	1.5455	0.	-38.108
19208	14.024	1.6364	5.e-002	-6.9037e-007
19209	14.301	1.6364	0.	-34.715
19210	14.209	1.5455	0.	-34.232
19211	14.209	1.6364	5.e-002	1.8488e-006
19212	14.486	1.6364	0.	-30.895
19213	14.394	1.5455	0.	-30.549
19214	14.394	1.6364	5.e-002	1.3645e-006
19215	14.671	1.6364	0.	-27.286
19216	14.578	1.5455	0.	-27.055
19217	14.578	1.6364	5.e-002	-2.1158e-007
19218	14.855	1.6364	0.	-23.88
19219	14.763	1.5455	0.	-23.745
19220	14.763	1.6364	5.e-002	1.5385e-006
19221	15.04	1.6364	0.	-20.664
19222	14.948	1.5455	0.	-20.612
19223	14.948	1.6364	5.e-002	1.3899e-006
19224	15.225	1.6364	0.	-17.629
19225	15.133	1.5455	0.	-17.648
19226	15.133	1.6364	5.e-002	2.9573e-006
19227	15.41	1.6364	0.	-14.761
19228	15.317	1.5455	0.	-14.841
19229	15.317	1.6364	5.e-002	4.4882e-006
19230	15.594	1.6364	0.	-12.048
19231	15.502	1.5455	0.	-12.184
19232	15.502	1.6364	5.e-002	3.8121e-006
19233	15.779	1.6364	0.	-9.4788
19234	15.687	1.5455	0.	-9.6643
19235	15.687	1.6364	5.e-002	4.0892e-006
19236	15.964	1.6364	0.	-7.0407
19237	15.871	1.5455	0.	-7.2721
19238	15.871	1.6364	5.e-002	5.4319e-006
19239	16.149	1.6364	0.	-4.7221
19240	16.056	1.5455	0.	-4.997
19241	16.056	1.6364	5.e-002	5.9761e-006
19242	16.333	1.6364	0.	-2.5129
19243	16.241	1.5455	0.	-2.8296
19244	16.241	1.6364	5.e-002	5.9778e-006
19245	16.518	1.6364	0.	-0.43934
19246	16.426	1.5455	0.	-0.77709
19247	16.426	1.6364	5.e-002	6.0429e-006
19248	16.703	1.6364	0.	-8.0633e-003
19249	16.61	1.5455	0.	-1.4833e-002
19250	16.61	1.6364	5.e-002	5.5857e-006
19251	16.888	1.6364	0.	1.2327e-004
19252	16.795	1.5455	0.	-2.0255e-003
19253	16.795	1.6364	5.e-002	5.1746e-006
19254	17.072	1.6364	0.	2.6406e-003
19255	16.98	1.5455	0.	1.2053e-003
19256	16.98	1.6364	5.e-002	3.5077e-006
19257	17.257	1.6364	0.	3.9559e-003
19258	17.165	1.5455	0.	2.7566e-003
19259	17.165	1.6364	5.e-002	2.3804e-006
19260	17.442	1.6364	0.	4.836e-003
19261	17.349	1.5455	0.	3.7344e-003
19262	17.349	1.6364	5.e-002	5.1458e-006
19263	17.627	1.6364	0.	5.5272e-003
19264	17.534	1.5455	0.	4.4559e-003
19265	17.534	1.6364	5.e-002	3.803e-006
19266	17.811	1.6364	0.	6.1244e-003
19267	17.719	1.5455	0.	5.0688e-003
19268	17.719	1.6364	5.e-002	4.8552e-006
19269	17.996	1.6364	0.	6.6486e-003
19270	17.904	1.5455	0.	5.6057e-003
19271	17.904	1.6364	5.e-002	5.5614e-006
19272	18.181	1.6364	0.	7.1293e-003
19273	18.088	1.5455	0.	6.0724e-003
19274	18.088	1.6364	5.e-002	6.4837e-006
19275	18.365	1.6364	0.	7.6116e-003
19276	18.273	1.5455	0.	6.5206e-003
19277	18.273	1.6364	5.e-002	4.41e-006
19278	18.55	1.6364	0.	8.1161e-003
19279	18.458	1.5455	0.	6.9859e-003
19280	18.458	1.6364	5.e-002	2.1716e-006
19281	18.735	1.6364	0.	8.6409e-003
19282	18.643	1.5455	0.	7.4778e-003
19283	18.643	1.6364	5.e-002	3.5786e-006
19284	18.92	1.6364	0.	9.1751e-003
19285	18.827	1.5455	0.	7.9819e-003
19286	18.827	1.6364	5.e-002	3.6628e-006
19287	19.104	1.6364	0.	9.7282e-003
19288	19.012	1.5455	0.	8.486e-003
19289	19.012	1.6364	5.e-002	3.5686e-006
19290	19.289	1.6364	0.	1.0321e-002
19291	19.197	1.5455	0.	9.0253e-003
19292	19.197	1.6364	5.e-002	5.2161e-006
19293	19.474	1.6364	0.	1.0966e-002
19294	19.382	1.5455	0.	9.6062e-003
19295	19.382	1.6364	5.e-002	2.4727e-006
19296	19.659	1.6364	0.	1.1674e-002
19297	19.566	1.5455	0.	1.0243e-002
19298	19.566	1.6364	5.e-002	2.5642e-006
19299	19.843	1.6364	0.	1.2451e-002
19300	19.751	1.5455	0.	1.0949e-002
19301	19.751	1.6364	5.e-002	3.3539e-006
19302	20.028	1.6364	0.	1.3292e-002
19303	19.936	1.5455	0.	1.172e-002
19304	19.936	1.6364	5.e-002	1.5496e-007
19305	20.213	1.6364	0.	1.421e-002
19306	20.12	1.5455	0.	1.2549e-002
19307	20.12	1.6364	5.e-002	2.1722e-006
19308	20.398	1.6364	0.	1.5238e-002
19309	20.305	1.5455	0.	1.347e-002
19310	20.305	1.6364	5.e-002	4.2362e-006
19311	20.582	1.6364	0.	1.6401e-002
19312	20.49	1.5455	0.	1.4514e-002
19313	20.49	1.6364	5.e-002	1.706e-006
19314	20.767	1.6364	0.	1.7714e-002
19315	20.675	1.5455	0.	1.57e-002
19316	20.675	1.6364	5.e-002	1.878e-006
19317	20.952	1.6364	0.	1.9194e-002
19318	20.859	1.5455	0.	1.704e-002
19319	20.859	1.6364	5.e-002	3.3777e-006
19320	21.137	1.6364	0.	2.088e-002
19321	21.044	1.5455	0.	1.8556e-002
19322	21.044	1.6364	5.e-002	6.778e-006
19323	21.321	1.6364	0.	2.2826e-002
19324	21.229	1.5455	0.	2.0305e-002
19325	21.229	1.6364	5.e-002	7.1109e-006
19326	21.506	1.6364	0.	2.5093e-002
19327	21.414	1.5455	0.	2.2338e-002
19328	21.414	1.6364	5.e-002	7.1532e-006
19329	21.691	1.6364	0.	2.7762e-002
19330	21.598	1.5455	0.	2.4727e-002
19331	21.598	1.6364	5.e-002	9.1443e-006
19332	21.876	1.6364	0.	3.0937e-002
19333	21.783	1.5455	0.	2.7567e-002
19334	21.783	1.6364	5.e-002	7.6489e-006
19335	22.06	1.6364	0.	3.4752e-002
19336	21.968	1.5455	0.	3.0971e-002
19337	21.968	1.6364	5.e-002	3.8165e-006
19338	22.245	1.6364	0.	3.941e-002
19339	22.153	1.5455	0.	3.5105e-002
19340	22.153	1.6364	5.e-002	8.8361e-006
19341	22.43	1.6364	0.	4.5231e-002
19342	22.337	1.5455	0.	4.0212e-002
19343	22.337	1.6364	5.e-002	7.2131e-006
19344	22.614	1.6364	0.	5.2616e-002
19345	22.522	1.5455	0.	4.6703e-002
19346	22.522	1.6364	5.e-002	5.6901e-006
19347	22.799	1.6364	0.	6.2544e-002
19348	22.707	1.5455	0.	5.4995e-002
19349	22.707	1.6364	5.e-002	4.4614e-006
19350	22.984	1.6364	0.	7.5375e-002
19351	22.892	1.5455	0.	6.6665e-002
19352	22.892	1.6364	5.e-002	1.2817e-006
19353	23.169	1.6364	0.	9.7253e-002
19354	23.076	1.5455	0.	8.0977e-002
19355	23.076	1.6364	5.e-002	3.1655e-006
19356	23.353	1.6364	0.	0.1189
19357	23.261	1.5455	0.	0.11126
19358	23.261	1.6364	5.e-002	4.1756e-007
19359	23.538	1.6364	0.	0.21252
19360	23.446	1.5455	0.	0.12679
19361	23.446	1.6364	5.e-002	-1.9885e-006
19362	23.723	1.6364	0.	0.19919
19363	23.631	1.5455	0.	0.30729
19364	23.631	1.6364	5.e-002	-5.9059e-007
19365	23.815	1.5455	0.	0.15836
19366	23.815	1.6364	5.e-002	-7.8226e-006
19367	23.908	1.6364	0.	0.41678
19368	8.9438	1.4545	0.	-12.982
19369	8.8514	1.3636	0.	-15.624
19370	8.8514	1.4545	5.e-002	5.6751e-005
19371	8.759	1.4545	0.	-14.92
19372	9.1285	1.4545	0.	-2.9658
19373	9.0361	1.3636	0.	-1.5808
19374	9.0361	1.4545	5.e-002	1.9052e-004
19375	9.3133	1.4545	0.	-3.6583
19376	9.2209	1.3636	0.	-3.6524
19377	9.2209	1.4545	5.e-002	2.4852e-004
19378	9.498	1.4545	0.	-3.5336
19379	9.4056	1.3636	0.	-3.138
19380	9.4056	1.4545	5.e-002	2.6961e-004
19381	9.6827	1.4545	0.	-4.2036
19382	9.5904	1.3636	0.	-3.2092
19383	9.5904	1.4545	5.e-002	2.8828e-004
19384	9.8675	1.4545	0.	-7.5195
19385	9.7751	1.3636	0.	-3.9446
19386	9.7751	1.4545	5.e-002	2.7932e-004
19387	10.052	1.4545	0.	-24.184
19388	9.9598	1.3636	0.	-6.8194
19389	9.9598	1.4545	5.e-002	2.179e-004
19390	10.237	1.4545	0.	-49.18
19391	10.145	1.3636	0.	-18.857
19392	10.145	1.4545	5.e-002	2.2283e-004
19393	10.422	1.4545	0.	-66.676
19394	10.329	1.3636	0.	-37.923
19395	10.329	1.4545	5.e-002	1.671e-004
19396	10.606	1.4545	0.	-77.615
19397	10.514	1.3636	0.	-52.474
19398	10.514	1.4545	5.e-002	1.1821e-004
19399	10.791	1.4545	0.	-84.084
19400	10.699	1.3636	0.	-62.284
19401	10.699	1.4545	5.e-002	1.1877e-004
19402	10.976	1.4545	0.	-87.506
19403	10.884	1.3636	0.	-68.63
19404	10.884	1.4545	5.e-002	1.1853e-004
19405	11.161	1.4545	0.	-88.789
19406	11.068	1.3636	0.	-72.471
19407	11.068	1.4545	5.e-002	7.5077e-005
19408	11.345	1.4545	0.	-88.519
19409	11.253	1.3636	0.	-74.449
19410	11.253	1.4545	5.e-002	4.0977e-005
19411	11.53	1.4545	0.	-87.093
19412	11.438	1.3636	0.	-75.
19413	11.438	1.4545	5.e-002	2.6609e-005
19414	11.715	1.4545	0.	-84.794
19415	11.622	1.3636	0.	-74.437
19416	11.622	1.4545	5.e-002	1.6768e-005
19417	11.9	1.4545	0.	-81.833
19418	11.807	1.3636	0.	-72.994
19419	11.807	1.4545	5.e-002	1.109e-005
19420	12.084	1.4545	0.	-78.377
19421	11.992	1.3636	0.	-70.861
19422	11.992	1.4545	5.e-002	4.2529e-006
19423	12.269	1.4545	0.	-74.562
19424	12.177	1.3636	0.	-68.191
19425	12.177	1.4545	5.e-002	1.6255e-006
19426	12.454	1.4545	0.	-70.498
19427	12.361	1.3636	0.	-65.115
19428	12.361	1.4545	5.e-002	-7.6054e-006
19429	12.639	1.4545	0.	-66.278
19430	12.546	1.3636	0.	-61.742
19431	12.546	1.4545	5.e-002	-4.7978e-006
19432	12.823	1.4545	0.	-61.979
19433	12.731	1.3636	0.	-58.167
19434	12.731	1.4545	5.e-002	-3.5151e-006
19435	13.008	1.4545	0.	-57.662
19436	12.916	1.3636	0.	-54.468
19437	12.916	1.4545	5.e-002	1.7059e-006
19438	13.193	1.4545	0.	-53.379
19439	13.1	1.3636	0.	-50.709
19440	13.1	1.4545	5.e-002	6.1602e-008
19441	13.378	1.4545	0.	-49.17
19442	13.285	1.3636	0.	-46.943
19443	13.285	1.4545	5.e-002	4.1647e-007
19444	13.562	1.4545	0.	-45.064
19445	13.47	1.3636	0.	-43.212
19446	13.47	1.4545	5.e-002	5.6946e-007
19447	13.747	1.4545	0.	-41.086
19448	13.655	1.3636	0.	-39.551
19449	13.655	1.4545	5.e-002	-1.505e-008
19450	13.932	1.4545	0.	-37.251
19451	13.839	1.3636	0.	-35.984
19452	13.839	1.4545	5.e-002	6.1357e-007
19453	14.116	1.4545	0.	-33.57
19454	14.024	1.3636	0.	-32.53
19455	14.024	1.4545	5.e-002	4.9364e-007
19456	14.301	1.4545	0.	-30.05
19457	14.209	1.3636	0.	-29.202
19458	14.209	1.4545	5.e-002	2.8165e-006
19459	14.486	1.4545	0.	-26.692
19460	14.394	1.3636	0.	-26.007
19461	14.394	1.4545	5.e-002	1.9551e-006
19462	14.671	1.4545	0.	-23.497
19463	14.578	1.3636	0.	-22.951
19464	14.578	1.4545	5.e-002	3.6844e-007
19465	14.855	1.4545	0.	-20.46
19466	14.763	1.3636	0.	-20.034
19467	14.763	1.4545	5.e-002	1.7849e-006
19468	15.04	1.4545	0.	-17.577
19469	14.948	1.3636	0.	-17.255
19470	14.948	1.4545	5.e-002	1.8277e-006
19471	15.225	1.4545	0.	-14.84
19472	15.133	1.3636	0.	-14.609
19473	15.133	1.4545	5.e-002	3.3026e-006
19474	15.41	1.4545	0.	-12.244
19475	15.317	1.3636	0.	-12.093
19476	15.317	1.4545	5.e-002	4.1717e-006
19477	15.594	1.4545	0.	-9.7783
19478	15.502	1.3636	0.	-9.6989
19479	15.502	1.4545	5.e-002	3.8067e-006
19480	15.779	1.4545	0.	-7.4351
19481	15.687	1.3636	0.	-7.4209
19482	15.687	1.4545	5.e-002	3.858e-006
19483	15.964	1.4545	0.	-5.205
19484	15.871	1.3636	0.	-5.2511
19485	15.871	1.4545	5.e-002	5.2752e-006
19486	16.149	1.4545	0.	-3.0799
19487	16.056	1.3636	0.	-3.1826
19488	16.056	1.4545	5.e-002	5.6161e-006
19489	16.333	1.4545	0.	-1.0615
19490	16.241	1.3636	0.	-1.2161
19491	16.241	1.4545	5.e-002	5.5706e-006
19492	16.518	1.4545	0.	-2.4306e-002
19493	16.426	1.3636	0.	-3.4684e-002
19494	16.426	1.4545	5.e-002	6.0247e-006
19495	16.703	1.4545	0.	-4.2903e-003
19496	16.61	1.3636	0.	-6.4333e-003
19497	16.61	1.4545	5.e-002	5.2321e-006
19498	16.888	1.4545	0.	-2.2305e-004
19499	16.795	1.3636	0.	-1.597e-003
19500	16.795	1.4545	5.e-002	5.1401e-006
19501	17.072	1.4545	0.	1.5771e-003
19502	16.98	1.3636	0.	4.1815e-004
19503	16.98	1.4545	5.e-002	2.8919e-006
19504	17.257	1.4545	0.	2.6498e-003
19505	17.165	1.3636	0.	1.5684e-003
19506	17.165	1.4545	5.e-002	2.3406e-006
19507	17.442	1.4545	0.	3.4068e-003
19508	17.349	1.3636	0.	2.3496e-003
19509	17.349	1.4545	5.e-002	5.1409e-006
19510	17.627	1.4545	0.	4.016e-003
19511	17.534	1.3636	0.	2.9474e-003
19512	17.534	1.4545	5.e-002	3.808e-006
19513	17.811	1.4545	0.	4.5469e-003
19514	17.719	1.3636	0.	3.4655e-003
19515	17.719	1.4545	5.e-002	4.5772e-006
19516	17.996	1.4545	0.	5.0109e-003
19517	17.904	1.3636	0.	3.9209e-003
19518	17.904	1.4545	5.e-002	5.224e-006
19519	18.181	1.4545	0.	5.4331e-003
19520	18.088	1.3636	0.	4.3128e-003
19521	18.088	1.4545	5.e-002	6.4146e-006
19522	18.365	1.4545	0.	5.8545e-003
19523	18.273	1.3636	0.	4.6876e-003
19524	18.273	1.4545	5.e-002	4.3326e-006
19525	18.55	1.4545	0.	6.2985e-003
19526	18.458	1.3636	0.	5.0787e-003
19527	18.458	1.4545	5.e-002	1.3914e-006
19528	18.735	1.4545	0.	6.7616e-003
19529	18.643	1.3636	0.	5.4953e-003
19530	18.643	1.4545	5.e-002	3.5751e-006
19531	18.92	1.4545	0.	7.228e-003
19532	18.827	1.3636	0.	5.922e-003
19533	18.827	1.4545	5.e-002	3.5445e-006
19534	19.104	1.4545	0.	7.7108e-003
19535	19.012	1.3636	0.	6.3453e-003
19536	19.012	1.4545	5.e-002	3.6376e-006
19537	19.289	1.4545	0.	8.2302e-003
19538	19.197	1.3636	0.	6.8004e-003
19539	19.197	1.4545	5.e-002	4.7033e-006
19540	19.474	1.4545	0.	8.7952e-003
19541	19.382	1.3636	0.	7.2931e-003
19542	19.382	1.4545	5.e-002	2.0635e-006
19543	19.659	1.4545	0.	9.4218e-003
19544	19.566	1.3636	0.	7.8345e-003
19545	19.566	1.4545	5.e-002	2.0557e-006
19546	19.843	1.4545	0.	1.0113e-002
19547	19.751	1.3636	0.	8.4432e-003
19548	19.751	1.4545	5.e-002	3.2358e-006
19549	20.028	1.4545	0.	1.0863e-002
19550	19.936	1.3636	0.	9.1104e-003
19551	19.936	1.4545	5.e-002	4.4601e-007
19552	20.213	1.4545	0.	1.1685e-002
19553	20.12	1.3636	0.	9.8288e-003
19554	20.12	1.4545	5.e-002	1.9884e-006
19555	20.398	1.4545	0.	1.2611e-002
19556	20.305	1.3636	0.	1.0634e-002
19557	20.305	1.4545	5.e-002	4.3952e-006
19558	20.582	1.4545	0.	1.3665e-002
19559	20.49	1.3636	0.	1.1553e-002
19560	20.49	1.4545	5.e-002	1.235e-006
19561	20.767	1.4545	0.	1.4863e-002
19562	20.675	1.3636	0.	1.2607e-002
19563	20.675	1.4545	5.e-002	1.3898e-006
19564	20.952	1.4545	0.	1.6222e-002
19565	20.859	1.3636	0.	1.3808e-002
19566	20.859	1.4545	5.e-002	3.5834e-006
19567	21.137	1.4545	0.	1.7782e-002
19568	21.044	1.3636	0.	1.5176e-002
19569	21.044	1.4545	5.e-002	5.741e-006
19570	21.321	1.4545	0.	1.9595e-002
19571	21.229	1.3636	0.	1.6768e-002
19572	21.229	1.4545	5.e-002	6.3302e-006
19573	21.506	1.4545	0.	2.1722e-002
19574	21.414	1.3636	0.	1.8634e-002
19575	21.414	1.4545	5.e-002	6.1002e-006
19576	21.691	1.4545	0.	2.4247e-002
19577	21.598	1.3636	0.	2.0851e-002
19578	21.598	1.4545	5.e-002	9.9044e-006
19579	21.876	1.4545	0.	2.7271e-002
19580	21.783	1.3636	0.	2.3508e-002
19581	21.783	1.4545	5.e-002	7.5939e-006
19582	22.06	1.4545	0.	3.0933e-002
19583	21.968	1.3636	0.	2.6723e-002
19584	21.968	1.4545	5.e-002	5.0475e-006
19585	22.245	1.4545	0.	3.5433e-002
19586	22.153	1.3636	0.	3.066e-002
19587	22.153	1.4545	5.e-002	6.3297e-006
19588	22.43	1.4545	0.	4.109e-002
19589	22.337	1.3636	0.	3.5563e-002
19590	22.337	1.4545	5.e-002	5.4563e-006
19591	22.614	1.4545	0.	4.8299e-002
19592	22.522	1.3636	0.	4.1838e-002
19593	22.522	1.4545	5.e-002	6.1191e-006
19594	22.799	1.4545	0.	5.8017e-002
19595	22.707	1.3636	0.	4.9895e-002
19596	22.707	1.4545	5.e-002	5.0922e-006
19597	22.984	1.4545	0.	7.0584e-002
19598	22.892	1.3636	0.	6.1286e-002
19599	22.892	1.4545	5.e-002	7.0019e-007
19600	23.169	1.4545	0.	9.2075e-002
19601	23.076	1.3636	0.	7.5246e-002
19602	23.076	1.4545	5.e-002	2.3882e-006
19603	23.353	1.4545	0.	0.11317
19604	23.261	1.3636	0.	0.10496
19605	23.261	1.4545	5.e-002	-2.8505e-007
19606	23.538	1.4545	0.	0.20541
19607	23.446	1.3636	0.	0.11975
19608	23.446	1.4545	5.e-002	-1.6553e-006
19609	23.723	1.4545	0.	0.18849
19610	23.631	1.3636	0.	0.29762
19611	23.631	1.4545	5.e-002	-2.9267e-006
19612	23.815	1.3636	0.	0.14097
19613	23.815	1.4545	5.e-002	-7.3309e-006
19614	23.908	1.4545	0.	0.41272
19615	8.9438	1.2727	0.	-4.5995
19616	8.8514	1.1818	0.	-8.3196
19617	8.8514	1.2727	5.e-002	2.6606e-005
19618	8.759	1.2727	0.	5.4443
19619	9.1285	1.2727	0.	-2.2641
19620	9.0361	1.1818	0.	-0.93441
19621	9.0361	1.2727	5.e-002	1.2233e-004
19622	9.3133	1.2727	0.	-3.0789
19623	9.2209	1.1818	0.	-3.2025
19624	9.2209	1.2727	5.e-002	1.5341e-004
19625	9.498	1.2727	0.	-2.7364
19626	9.4056	1.1818	0.	-2.5207
19627	9.4056	1.2727	5.e-002	1.9376e-004
19628	9.6827	1.2727	0.	-2.854
19629	9.5904	1.1818	0.	-2.499
19630	9.5904	1.2727	5.e-002	1.9518e-004
19631	9.8675	1.2727	0.	-3.4091
19632	9.7751	1.1818	0.	-2.566
19633	9.7751	1.2727	5.e-002	2.356e-004
19634	10.052	1.2727	0.	-5.1149
19635	9.9598	1.1818	0.	-2.9434
19636	9.9598	1.2727	5.e-002	1.9983e-004
19637	10.237	1.2727	0.	-11.392
19638	10.145	1.1818	0.	-3.9662
19639	10.145	1.2727	5.e-002	1.7912e-004
19640	10.422	1.2727	0.	-25.012
19641	10.329	1.1818	0.	-7.2787
19642	10.329	1.2727	5.e-002	1.8978e-004
19643	10.606	1.2727	0.	-37.7
19644	10.514	1.1818	0.	-16.246
19645	10.514	1.2727	5.e-002	1.6663e-004
19646	10.791	1.2727	0.	-47.097
19647	10.699	1.1818	0.	-26.925
19648	10.699	1.2727	5.e-002	1.6799e-004
19649	10.976	1.2727	0.	-53.722
19650	10.884	1.1818	0.	-35.671
19651	10.884	1.2727	5.e-002	8.5573e-005
19652	11.161	1.2727	0.	-58.186
19653	11.068	1.1818	0.	-42.265
19654	11.068	1.2727	5.e-002	6.2438e-005
19655	11.345	1.2727	0.	-60.948
19656	11.253	1.1818	0.	-47.009
19657	11.253	1.2727	5.e-002	5.9781e-005
19658	11.53	1.2727	0.	-62.342
19659	11.438	1.1818	0.	-50.203
19660	11.438	1.2727	5.e-002	2.5225e-005
19661	11.715	1.2727	0.	-62.627
19662	11.622	1.1818	0.	-52.099
19663	11.622	1.2727	5.e-002	1.4865e-005
19664	11.9	1.2727	0.	-62.008
19665	11.807	1.1818	0.	-52.911
19666	11.807	1.2727	5.e-002	2.1333e-005
19667	12.084	1.2727	0.	-60.659
19668	11.992	1.1818	0.	-52.823
19669	11.992	1.2727	5.e-002	9.439e-007
19670	12.269	1.2727	0.	-58.728
19671	12.177	1.1818	0.	-51.995
19672	12.177	1.2727	5.e-002	3.3524e-006
19673	12.454	1.2727	0.	-56.344
19674	12.361	1.1818	0.	-50.571
19675	12.361	1.2727	5.e-002	-6.4794e-006
19676	12.639	1.2727	0.	-53.617
19677	12.546	1.1818	0.	-48.676
19678	12.546	1.2727	5.e-002	-1.7969e-006
19679	12.823	1.2727	0.	-50.642
19680	12.731	1.1818	0.	-46.418
19681	12.731	1.2727	5.e-002	-1.6054e-006
19682	13.008	1.2727	0.	-47.5
19683	12.916	1.1818	0.	-43.892
19684	12.916	1.2727	5.e-002	1.0499e-006
19685	13.193	1.2727	0.	-44.258
19686	13.1	1.1818	0.	-41.179
19687	13.1	1.2727	5.e-002	-5.7288e-007
19688	13.378	1.2727	0.	-40.971
19689	13.285	1.1818	0.	-38.345
19690	13.285	1.2727	5.e-002	3.3263e-007
19691	13.562	1.2727	0.	-37.685
19692	13.47	1.1818	0.	-35.447
19693	13.47	1.2727	5.e-002	3.1841e-006
19694	13.747	1.2727	0.	-34.434
19695	13.655	1.1818	0.	-32.528
19696	13.655	1.2727	5.e-002	6.46e-007
19697	13.932	1.2727	0.	-31.248
19698	13.839	1.1818	0.	-29.626
19699	13.839	1.2727	5.e-002	7.1619e-007
19700	14.116	1.2727	0.	-28.146
19701	14.024	1.1818	0.	-26.767
19702	14.024	1.2727	5.e-002	5.8956e-007
19703	14.301	1.2727	0.	-25.143
19704	14.209	1.1818	0.	-23.974
19705	14.209	1.2727	5.e-002	2.5763e-006
19706	14.486	1.2727	0.	-22.249
19707	14.394	1.1818	0.	-21.261
19708	14.394	1.2727	5.e-002	2.2416e-006
19709	14.671	1.2727	0.	-19.47
19710	14.578	1.1818	0.	-18.639
19711	14.578	1.2727	5.e-002	9.0102e-007
19712	14.855	1.2727	0.	-16.81
19713	14.763	1.1818	0.	-16.115
19714	14.763	1.2727	5.e-002	2.1698e-006
19715	15.04	1.2727	0.	-14.267
19716	14.948	1.1818	0.	-13.693
19717	14.948	1.2727	5.e-002	1.96e-006
19718	15.225	1.2727	0.	-11.841
19719	15.133	1.1818	0.	-11.372
19720	15.133	1.2727	5.e-002	2.936e-006
19721	15.41	1.2727	0.	-9.5262
19722	15.317	1.1818	0.	-9.153
19723	15.317	1.2727	5.e-002	4.5671e-006
19724	15.594	1.2727	0.	-7.3191
19725	15.502	1.1818	0.	-7.0317
19726	15.502	1.2727	5.e-002	3.7803e-006
19727	15.779	1.2727	0.	-5.2138
19728	15.687	1.1818	0.	-5.005
19729	15.687	1.2727	5.e-002	3.9928e-006
19730	15.964	1.2727	0.	-3.2047
19731	15.871	1.1818	0.	-3.0687
19732	15.871	1.2727	5.e-002	4.9047e-006
19733	16.149	1.2727	0.	-1.2931
19734	16.056	1.1818	0.	-1.2262
19735	16.056	1.2727	5.e-002	5.5055e-006
19736	16.333	1.2727	0.	-4.4034e-002
19737	16.241	1.1818	0.	-4.4422e-002
19738	16.241	1.2727	5.e-002	5.4009e-006
19739	16.518	1.2727	0.	-8.1817e-003
19740	16.426	1.1818	0.	-9.1484e-003
19741	16.426	1.2727	5.e-002	5.6533e-006
19742	16.703	1.2727	0.	-2.7856e-003
19743	16.61	1.1818	0.	-3.6926e-003
19744	16.61	1.2727	5.e-002	5.0987e-006
19745	16.888	1.2727	0.	-6.0952e-004
19746	16.795	1.1818	0.	-1.4941e-003
19747	16.795	1.2727	5.e-002	5.0117e-006
19748	17.072	1.2727	0.	5.8121e-004
19749	16.98	1.1818	0.	-3.2549e-004
19750	16.98	1.2727	5.e-002	2.7598e-006
19751	17.257	1.2727	0.	1.3627e-003
19752	17.165	1.1818	0.	4.2284e-004
19753	17.165	1.2727	5.e-002	2.6114e-006
19754	17.442	1.2727	0.	1.9417e-003
19755	17.349	1.1818	0.	9.5974e-004
19756	17.349	1.2727	5.e-002	5.155e-006
19757	17.627	1.2727	0.	2.4206e-003
19758	17.534	1.1818	0.	1.3858e-003
19759	17.534	1.2727	5.e-002	3.8439e-006
19760	17.811	1.2727	0.	2.8434e-003
19761	17.719	1.1818	0.	1.7625e-003
19762	17.719	1.2727	5.e-002	4.2965e-006
19763	17.996	1.2727	0.	3.2113e-003
19764	17.904	1.1818	0.	2.0963e-003
19765	17.904	1.2727	5.e-002	4.6848e-006
19766	18.181	1.2727	0.	3.5429e-003
19767	18.088	1.1818	0.	2.3744e-003
19768	18.088	1.2727	5.e-002	5.6384e-006
19769	18.365	1.2727	0.	3.8762e-003
19770	18.273	1.1818	0.	2.6413e-003
19771	18.273	1.2727	5.e-002	4.2892e-006
19772	18.55	1.2727	0.	4.2298e-003
19773	18.458	1.1818	0.	2.9261e-003
19774	18.458	1.2727	5.e-002	1.8991e-006
19775	18.735	1.2727	0.	4.6004e-003
19776	18.643	1.1818	0.	3.2337e-003
19777	18.643	1.2727	5.e-002	2.7575e-006
19778	18.92	1.2727	0.	4.9746e-003
19779	18.827	1.1818	0.	3.5511e-003
19780	18.827	1.2727	5.e-002	2.7337e-006
19781	19.104	1.2727	0.	5.361e-003
19782	19.012	1.1818	0.	3.8623e-003
19783	19.012	1.2727	5.e-002	3.1854e-006
19784	19.289	1.2727	0.	5.7799e-003
19785	19.197	1.1818	0.	4.199e-003
19786	19.197	1.2727	5.e-002	4.5572e-006
19787	19.474	1.2727	0.	6.2392e-003
19788	19.382	1.1818	0.	4.5711e-003
19789	19.382	1.2727	5.e-002	2.489e-006
19790	19.659	1.2727	0.	6.7524e-003
19791	19.566	1.1818	0.	4.9831e-003
19792	19.566	1.2727	5.e-002	1.8593e-006
19793	19.843	1.2727	0.	7.3257e-003
19794	19.751	1.1818	0.	5.4563e-003
19795	19.751	1.2727	5.e-002	3.3529e-006
19796	20.028	1.2727	0.	7.9502e-003
19797	19.936	1.1818	0.	5.9786e-003
19798	19.936	1.2727	5.e-002	1.5943e-007
19799	20.213	1.2727	0.	8.6389e-003
19800	20.12	1.1818	0.	6.544e-003
19801	20.12	1.2727	5.e-002	2.1868e-006
19802	20.398	1.2727	0.	9.4229e-003
19803	20.305	1.1818	0.	7.1873e-003
19804	20.305	1.2727	5.e-002	3.8036e-006
19805	20.582	1.2727	0.	1.0327e-002
19806	20.49	1.1818	0.	7.9324e-003
19807	20.49	1.2727	5.e-002	9.3365e-008
19808	20.767	1.2727	0.	1.1366e-002
19809	20.675	1.1818	0.	8.7997e-003
19810	20.675	1.2727	5.e-002	1.0305e-006
19811	20.952	1.2727	0.	1.2554e-002
19812	20.859	1.1818	0.	9.8035e-003
19813	20.859	1.2727	5.e-002	2.6623e-006
19814	21.137	1.2727	0.	1.3931e-002
19815	21.044	1.1818	0.	1.0957e-002
19816	21.044	1.2727	5.e-002	4.8135e-006
19817	21.321	1.2727	0.	1.5548e-002
19818	21.229	1.1818	0.	1.232e-002
19819	21.229	1.2727	5.e-002	6.0788e-006
19820	21.506	1.2727	0.	1.7471e-002
19821	21.414	1.1818	0.	1.3943e-002
19822	21.414	1.2727	5.e-002	4.7787e-006
19823	21.691	1.2727	0.	1.9781e-002
19824	21.598	1.1818	0.	1.5899e-002
19825	21.598	1.2727	5.e-002	9.2487e-006
19826	21.876	1.2727	0.	2.2578e-002
19827	21.783	1.1818	0.	1.8276e-002
19828	21.783	1.2727	5.e-002	9.1051e-006
19829	22.06	1.2727	0.	2.6001e-002
19830	21.968	1.1818	0.	2.1195e-002
19831	21.968	1.2727	5.e-002	4.1277e-006
19832	22.245	1.2727	0.	3.0251e-002
19833	22.153	1.1818	0.	2.4815e-002
19834	22.153	1.2727	5.e-002	6.48e-006
19835	22.43	1.2727	0.	3.5646e-002
19836	22.337	1.1818	0.	2.9384e-002
19837	22.337	1.2727	5.e-002	6.0912e-006
19838	22.614	1.2727	0.	4.2576e-002
19839	22.522	1.1818	0.	3.5306e-002
19840	22.522	1.2727	5.e-002	5.6419e-006
19841	22.799	1.2727	0.	5.1988e-002
19842	22.707	1.1818	0.	4.2986e-002
19843	22.707	1.2727	5.e-002	4.7996e-006
19844	22.984	1.2727	0.	6.4193e-002
19845	22.892	1.1818	0.	5.395e-002
19846	22.892	1.2727	5.e-002	8.5439e-007
19847	23.169	1.2727	0.	8.5176e-002
19848	23.076	1.1818	0.	6.7406e-002
19849	23.076	1.2727	5.e-002	1.8904e-006
19850	23.353	1.2727	0.	0.10558
19851	23.261	1.1818	0.	9.6365e-002
19852	23.261	1.2727	5.e-002	8.0343e-007
19853	23.538	1.2727	0.	0.19606
19854	23.446	1.1818	0.	0.11017
19855	23.446	1.2727	5.e-002	-4.1687e-006
19856	23.723	1.2727	0.	0.17472
19857	23.631	1.1818	0.	0.28468
19858	23.631	1.2727	5.e-002	-3.1142e-006
19859	23.815	1.1818	0.	0.11868
19860	23.815	1.2727	5.e-002	-6.4006e-006
19861	23.908	1.2727	0.	0.40728
19862	8.9438	1.0909	0.	-5.0402
19863	8.8514	1.	0.	-7.979
19864	8.8514	1.0909	5.e-002	8.9234e-006
19865	8.759	1.0909	0.	0.6249
19866	9.1285	1.0909	0.	-1.898
19867	9.0361	1.	0.	-0.91232
19868	9.0361	1.0909	5.e-002	4.5532e-005
19869	9.3133	1.0909	0.	-2.631
19870	9.2209	1.	0.	-2.8007
19871	9.2209	1.0909	5.e-002	1.0494e-004
19872	9.498	1.0909	0.	-2.2543
19873	9.4056	1.	0.	-2.1622
19874	9.4056	1.0909	5.e-002	1.2368e-004
19875	9.6827	1.0909	0.	-2.1956
19876	9.5904	1.	0.	-2.0675
19877	9.5904	1.0909	5.e-002	1.4314e-004
19878	9.8675	1.0909	0.	-2.1725
19879	9.7751	1.	0.	-1.8802
19880	9.7751	1.0909	5.e-002	1.6436e-004
19881	10.052	1.0909	0.	-2.3075
19882	9.9598	1.	0.	-1.7891
19883	9.9598	1.0909	5.e-002	1.7705e-004
19884	10.237	1.0909	0.	-2.7156
19885	10.145	1.	0.	-1.7772
19886	10.145	1.0909	5.e-002	1.6444e-004
19887	10.422	1.0909	0.	-3.9102
19888	10.329	1.	0.	-1.9117
19889	10.329	1.0909	5.e-002	1.8031e-004
19890	10.606	1.0909	0.	-7.9499
19891	10.514	1.	0.	-2.387
19892	10.514	1.0909	5.e-002	1.9873e-004
19893	10.791	1.0909	0.	-16.15
19894	10.699	1.	0.	-4.0679
19895	10.699	1.0909	5.e-002	1.8064e-004
19896	10.976	1.0909	0.	-24.434
19897	10.884	1.	0.	-9.4378
19898	10.884	1.0909	5.e-002	1.5022e-004
19899	11.161	1.0909	0.	-31.17
19900	11.068	1.	0.	-16.88
19901	11.068	1.0909	5.e-002	8.9717e-005
19902	11.345	1.0909	0.	-36.29
19903	11.253	1.	0.	-23.416
19904	11.253	1.0909	5.e-002	3.8003e-005
19905	11.53	1.0909	0.	-39.96
19906	11.438	1.	0.	-28.545
19907	11.438	1.0909	5.e-002	1.7556e-005
19908	11.715	1.0909	0.	-42.373
19909	11.622	1.	0.	-32.325
19910	11.622	1.0909	5.e-002	1.9725e-005
19911	11.9	1.0909	0.	-43.71
19912	11.807	1.	0.	-34.907
19913	11.807	1.0909	5.e-002	6.161e-007
19914	12.084	1.0909	0.	-44.142
19915	11.992	1.	0.	-36.452
19916	11.992	1.0909	5.e-002	1.44e-005
19917	12.269	1.0909	0.	-43.82
19918	12.177	1.	0.	-37.118
19919	12.177	1.0909	5.e-002	3.2382e-006
19920	12.454	1.0909	0.	-42.885
19921	12.361	1.	0.	-37.052
19922	12.361	1.0909	5.e-002	-4.3315e-006
19923	12.639	1.0909	0.	-41.459
19924	12.546	1.	0.	-36.387
19925	12.546	1.0909	5.e-002	-2.0437e-006
19926	12.823	1.0909	0.	-39.651
19927	12.731	1.	0.	-35.243
19928	12.731	1.0909	5.e-002	2.1503e-006
19929	13.008	1.0909	0.	-37.555
19930	12.916	1.	0.	-33.724
19931	12.916	1.0909	5.e-002	8.5186e-007
19932	13.193	1.0909	0.	-35.251
19933	13.1	1.	0.	-31.921
19934	13.1	1.0909	5.e-002	1.775e-006
19935	13.378	1.0909	0.	-32.805
19936	13.285	1.	0.	-29.911
19937	13.285	1.0909	5.e-002	3.0934e-006
19938	13.562	1.0909	0.	-30.274
19939	13.47	1.	0.	-27.757
19940	13.47	1.0909	5.e-002	2.805e-006
19941	13.747	1.0909	0.	-27.703
19942	13.655	1.	0.	-25.513
19943	13.655	1.0909	5.e-002	1.3294e-006
19944	13.932	1.0909	0.	-25.128
19945	13.839	1.	0.	-23.222
19946	13.839	1.0909	5.e-002	2.1351e-006
19947	14.116	1.0909	0.	-22.578
19948	14.024	1.	0.	-20.919
19949	14.024	1.0909	5.e-002	2.6482e-006
19950	14.301	1.0909	0.	-20.074
19951	14.209	1.	0.	-18.631
19952	14.209	1.0909	5.e-002	2.8223e-006
19953	14.486	1.0909	0.	-17.633
19954	14.394	1.	0.	-16.379
19955	14.394	1.0909	5.e-002	3.1387e-006
19956	14.671	1.0909	0.	-15.265
19957	14.578	1.	0.	-14.178
19958	14.578	1.0909	5.e-002	1.5099e-006
19959	14.855	1.0909	0.	-12.978
19960	14.763	1.	0.	-12.039
19961	14.763	1.0909	5.e-002	3.1768e-006
19962	15.04	1.0909	0.	-10.777
19963	14.948	1.	0.	-9.9693
19964	14.948	1.0909	5.e-002	2.8648e-006
19965	15.225	1.0909	0.	-8.6634
19966	15.133	1.	0.	-7.9733
19967	15.133	1.0909	5.e-002	3.3997e-006
19968	15.41	1.0909	0.	-6.6365
19969	15.317	1.	0.	-6.0528
19970	15.317	1.0909	5.e-002	4.4677e-006
19971	15.594	1.0909	0.	-4.6948
19972	15.502	1.	0.	-4.2083
19973	15.502	1.0909	5.e-002	4.2717e-006
19974	15.779	1.0909	0.	-2.8365
19975	15.687	1.	0.	-2.44
19976	15.687	1.0909	5.e-002	3.6757e-006
19977	15.964	1.0909	0.	-1.0681
19978	15.871	1.	0.	-0.76227
19979	15.871	1.0909	5.e-002	5.4004e-006
19980	16.149	1.0909	0.	-3.7704e-002
19981	16.056	1.	0.	-2.6441e-002
19982	16.056	1.0909	5.e-002	5.5076e-006
19983	16.333	1.0909	0.	-9.1657e-003
19984	16.241	1.	0.	-8.2492e-003
19985	16.241	1.0909	5.e-002	4.9951e-006
19986	16.518	1.0909	0.	-4.1718e-003
19987	16.426	1.	0.	-4.2337e-003
19988	16.426	1.0909	5.e-002	5.6896e-006
19989	16.703	1.0909	0.	-2.129e-003
19990	16.61	1.	0.	-2.5131e-003
19991	16.61	1.0909	5.e-002	5.7086e-006
19992	16.888	1.0909	0.	-1.0395e-003
19993	16.795	1.	0.	-1.5793e-003
19994	16.795	1.0909	5.e-002	4.9304e-006
19995	17.072	1.0909	0.	-3.7095e-004
19996	16.98	1.	0.	-1.0333e-003
19997	16.98	1.0909	5.e-002	2.4582e-006
19998	17.257	1.0909	0.	9.5188e-005
19999	17.165	1.	0.	-6.6676e-004
20000	17.165	1.0909	5.e-002	2.8221e-006
20001	17.442	1.0909	0.	4.5214e-004
20002	17.349	1.	0.	-3.9801e-004
20003	17.349	1.0909	5.e-002	4.853e-006
20004	17.627	1.0909	0.	7.5506e-004
20005	17.534	1.	0.	-1.843e-004
20006	17.534	1.0909	5.e-002	3.5431e-006
20007	17.811	1.0909	0.	1.0257e-003
20008	17.719	1.	0.	1.3434e-005
20009	17.719	1.0909	5.e-002	4.6522e-006
20010	17.996	1.0909	0.	1.2551e-003
20011	17.904	1.	0.	1.8796e-004
20012	17.904	1.0909	5.e-002	4.8562e-006
20013	18.181	1.0909	0.	1.4555e-003
20014	18.088	1.	0.	3.1394e-004
20015	18.088	1.0909	5.e-002	4.8791e-006
20016	18.365	1.0909	0.	1.6619e-003
20017	18.273	1.	0.	4.3681e-004
20018	18.273	1.0909	5.e-002	3.3822e-006
20019	18.55	1.0909	0.	1.8892e-003
20020	18.458	1.	0.	5.786e-004
20021	18.458	1.0909	5.e-002	1.6221e-006
20022	18.735	1.0909	0.	2.1324e-003
20023	18.643	1.	0.	7.4295e-004
20024	18.643	1.0909	5.e-002	2.6413e-006
20025	18.92	1.0909	0.	2.3757e-003
20026	18.827	1.	0.	9.1584e-004
20027	18.827	1.0909	5.e-002	2.8484e-006
20028	19.104	1.0909	0.	2.6258e-003
20029	19.012	1.	0.	1.0773e-003
20030	19.012	1.0909	5.e-002	3.7649e-006
20031	19.289	1.0909	0.	2.9041e-003
20032	19.197	1.	0.	1.2585e-003
20033	19.197	1.0909	5.e-002	4.5144e-006
20034	19.474	1.0909	0.	3.2167e-003
20035	19.382	1.	0.	1.4685e-003
20036	19.382	1.0909	5.e-002	2.7032e-006
20037	19.659	1.0909	0.	3.5758e-003
20038	19.566	1.	0.	1.7098e-003
20039	19.566	1.0909	5.e-002	2.8109e-006
20040	19.843	1.0909	0.	3.9842e-003
20041	19.751	1.	0.	2.0047e-003
20042	19.751	1.0909	5.e-002	3.6238e-006
20043	20.028	1.0909	0.	4.4323e-003
20044	19.936	1.	0.	2.3347e-003
20045	19.936	1.0909	5.e-002	-9.3586e-009
20046	20.213	1.0909	0.	4.936e-003
20047	20.12	1.	0.	2.6953e-003
20048	20.12	1.0909	5.e-002	2.7469e-006
20049	20.398	1.0909	0.	5.5224e-003
20050	20.305	1.	0.	3.1204e-003
20051	20.305	1.0909	5.e-002	3.6912e-006
20052	20.582	1.0909	0.	6.2111e-003
20053	20.49	1.	0.	3.631e-003
20054	20.49	1.0909	5.e-002	4.1692e-007
20055	20.767	1.0909	0.	7.0203e-003
20056	20.675	1.	0.	4.2444e-003
20057	20.675	1.0909	5.e-002	9.4759e-007
20058	20.952	1.0909	0.	7.9635e-003
20059	20.859	1.	0.	4.9747e-003
20060	20.859	1.0909	5.e-002	3.0998e-006
20061	21.137	1.0909	0.	9.0743e-003
20062	21.044	1.	0.	5.8332e-003
20063	21.044	1.0909	5.e-002	3.8236e-006
20064	21.321	1.0909	0.	1.0408e-002
20065	21.229	1.	0.	6.8722e-003
20066	21.229	1.0909	5.e-002	4.2957e-006
20067	21.506	1.0909	0.	1.2023e-002
20068	21.414	1.	0.	8.1469e-003
20069	21.414	1.0909	5.e-002	4.2127e-006
20070	21.691	1.0909	0.	1.3998e-002
20071	21.598	1.	0.	9.7211e-003
20072	21.598	1.0909	5.e-002	1.0307e-005
20073	21.876	1.0909	0.	1.6436e-002
20074	21.783	1.	0.	1.1684e-002
20075	21.783	1.0909	5.e-002	9.8773e-006
20076	22.06	1.0909	0.	1.9474e-002
20077	21.968	1.	0.	1.4149e-002
20078	21.968	1.0909	5.e-002	2.8549e-006
20079	22.245	1.0909	0.	2.3313e-002
20080	22.153	1.	0.	1.7279e-002
20081	22.153	1.0909	5.e-002	3.7907e-006
20082	22.43	1.0909	0.	2.8268e-002
20083	22.337	1.	0.	2.1319e-002
20084	22.337	1.0909	5.e-002	4.183e-006
20085	22.614	1.0909	0.	3.4734e-002
20086	22.522	1.	0.	2.6667e-002
20087	22.522	1.0909	5.e-002	6.2705e-006
20088	22.799	1.0909	0.	4.3639e-002
20089	22.707	1.	0.	3.3732e-002
20090	22.707	1.0909	5.e-002	6.1874e-006
20091	22.984	1.0909	0.	5.5271e-002
20092	22.892	1.	0.	4.4013e-002
20093	22.892	1.0909	5.e-002	-8.3004e-008
20094	23.169	1.0909	0.	7.5516e-002
20095	23.076	1.	0.	5.6705e-002
20096	23.076	1.0909	5.e-002	1.672e-006
20097	23.353	1.0909	0.	9.4947e-002
20098	23.261	1.	0.	8.4589e-002
20099	23.261	1.0909	5.e-002	-1.1086e-006
20100	23.538	1.0909	0.	0.18313
20101	23.446	1.	0.	9.7129e-002
20102	23.446	1.0909	5.e-002	-2.3894e-006
20103	23.723	1.0909	0.	0.15621
20104	23.631	1.	0.	0.26727
20105	23.631	1.0909	5.e-002	1.2353e-007
20106	23.815	1.	0.	8.9993e-002
20107	23.815	1.0909	5.e-002	-7.9031e-006
20108	23.908	1.0909	0.	0.39922
20109	8.9438	0.90909	0.	-4.3379
20110	8.8514	0.81818	0.	-7.0481
20111	8.8514	0.90909	5.e-002	4.5144e-006
20112	8.759	0.90909	0.	1.9866
20113	9.1285	0.90909	0.	-1.8922
20114	9.0361	0.81818	0.	-1.2684
20115	9.0361	0.90909	5.e-002	2.9445e-005
20116	9.3133	0.90909	0.	-2.3584
20117	9.2209	0.81818	0.	-2.6386
20118	9.2209	0.90909	5.e-002	8.1013e-005
20119	9.498	0.90909	0.	-1.9813
20120	9.4056	0.81818	0.	-1.9978
20121	9.4056	0.90909	5.e-002	9.0615e-005
20122	9.6827	0.90909	0.	-1.7599
20123	9.5904	0.81818	0.	-1.7389
20124	9.5904	0.90909	5.e-002	9.6966e-005
20125	9.8675	0.90909	0.	-1.5375
20126	9.7751	0.81818	0.	-1.4249
20127	9.7751	0.90909	5.e-002	8.2453e-005
20128	10.052	0.90909	0.	-1.379
20129	9.9598	0.81818	0.	-1.196
20130	9.9598	0.90909	5.e-002	1.1364e-004
20131	10.237	0.90909	0.	-1.2805
20132	10.145	0.81818	0.	-1.0221
20133	10.145	0.90909	5.e-002	1.3048e-004
20134	10.422	0.90909	0.	-1.2637
20135	10.329	0.81818	0.	-0.90794
20136	10.329	0.90909	5.e-002	1.3771e-004
20137	10.606	0.90909	0.	-1.3844
20138	10.514	0.81818	0.	-0.85352
20139	10.514	0.90909	5.e-002	1.9151e-004
20140	10.791	0.90909	0.	-1.8622
20141	10.699	0.81818	0.	-0.87884
20142	10.699	0.90909	5.e-002	1.6936e-004
20143	10.976	0.90909	0.	-3.859
20144	10.884	0.81818	0.	-1.066
20145	10.884	0.90909	5.e-002	1.5373e-004
20146	11.161	0.90909	0.	-9.4693
20147	11.068	0.81818	0.	-1.8581
20148	11.068	0.90909	5.e-002	9.0979e-005
20149	11.345	0.90909	0.	-15.744
20150	11.253	0.81818	0.	-5.4341
20151	11.253	0.90909	5.e-002	5.3596e-005
20152	11.53	0.90909	0.	-20.921
20153	11.438	0.81818	0.	-11.068
20154	11.438	0.90909	5.e-002	4.117e-005
20155	11.715	0.90909	0.	-24.851
20156	11.622	0.81818	0.	-15.937
20157	11.622	0.90909	5.e-002	2.2955e-005
20158	11.9	0.90909	0.	-27.632
20159	11.807	0.81818	0.	-19.666
20160	11.807	0.90909	5.e-002	9.0958e-006
20161	12.084	0.90909	0.	-29.409
20162	11.992	0.81818	0.	-22.323
20163	11.992	0.90909	5.e-002	3.4774e-006
20164	12.269	0.90909	0.	-30.33
20165	12.177	0.81818	0.	-24.042
20166	12.177	0.90909	5.e-002	1.2214e-006
20167	12.454	0.90909	0.	-30.534
20168	12.361	0.81818	0.	-24.963
20169	12.361	0.90909	5.e-002	-1.7497e-006
20170	12.639	0.90909	0.	-30.152
20171	12.546	0.81818	0.	-25.218
20172	12.546	0.90909	5.e-002	1.9459e-006
20173	12.823	0.90909	0.	-29.298
20174	12.731	0.81818	0.	-24.928
20175	12.731	0.90909	5.e-002	-9.7721e-007
20176	13.008	0.90909	0.	-28.073
20177	12.916	0.81818	0.	-24.203
20178	12.916	0.90909	5.e-002	2.4099e-006
20179	13.193	0.90909	0.	-26.564
20180	13.1	0.81818	0.	-23.136
20181	13.1	0.90909	5.e-002	4.572e-006
20182	13.378	0.90909	0.	-24.845
20183	13.285	0.81818	0.	-21.807
20184	13.285	0.90909	5.e-002	2.1449e-006
20185	13.562	0.90909	0.	-22.978
20186	13.47	0.81818	0.	-20.284
20187	13.47	0.90909	5.e-002	3.6729e-006
20188	13.747	0.90909	0.	-21.014
20189	13.655	0.81818	0.	-18.624
20190	13.655	0.90909	5.e-002	2.7472e-006
20191	13.932	0.90909	0.	-18.995
20192	13.839	0.81818	0.	-16.874
20193	13.839	0.90909	5.e-002	1.39e-006
20194	14.116	0.90909	0.	-16.954
20195	14.024	0.81818	0.	-15.071
20196	14.024	0.90909	5.e-002	1.8196e-006
20197	14.301	0.90909	0.	-14.918
20198	14.209	0.81818	0.	-13.247
20199	14.209	0.90909	5.e-002	4.0674e-006
20200	14.486	0.90909	0.	-12.905
20201	14.394	0.81818	0.	-11.424
20202	14.394	0.90909	5.e-002	3.9695e-006
20203	14.671	0.90909	0.	-10.932
20204	14.578	0.81818	0.	-9.6201
20205	14.578	0.90909	5.e-002	2.3405e-006
20206	14.855	0.90909	0.	-9.0093
20207	14.763	0.81818	0.	-7.8495
20208	14.763	0.90909	5.e-002	3.1825e-006
20209	15.04	0.90909	0.	-7.1439
20210	14.948	0.81818	0.	-6.1219
20211	14.948	0.90909	5.e-002	3.1632e-006
20212	15.225	0.90909	0.	-5.3406
20213	15.133	0.81818	0.	-4.4438
20214	15.133	0.90909	5.e-002	4.341e-006
20215	15.41	0.90909	0.	-3.602
20216	15.317	0.81818	0.	-2.8202
20217	15.317	0.90909	5.e-002	5.1728e-006
20218	15.594	0.90909	0.	-1.9312
20219	15.502	0.81818	0.	-1.2579
20220	15.502	0.90909	5.e-002	3.9263e-006
20221	15.779	0.90909	0.	-0.37038
20222	15.687	0.81818	0.	-5.9016e-002
20223	15.687	0.90909	5.e-002	3.7445e-006
20224	15.964	0.90909	0.	-1.6829e-002
20225	15.871	0.81818	0.	-9.5464e-003
20226	15.871	0.90909	5.e-002	4.883e-006
20227	16.149	0.90909	0.	-6.6405e-003
20228	16.056	0.81818	0.	-4.6924e-003
20229	16.056	0.90909	5.e-002	5.322e-006
20230	16.333	0.90909	0.	-3.827e-003
20231	16.241	0.81818	0.	-3.0918e-003
20232	16.241	0.90909	5.e-002	5.1079e-006
20233	16.518	0.90909	0.	-2.5674e-003
20234	16.426	0.81818	0.	-2.3709e-003
20235	16.426	0.90909	5.e-002	6.1041e-006
20236	16.703	0.90909	0.	-1.881e-003
20237	16.61	0.81818	0.	-1.9976e-003
20238	16.61	0.90909	5.e-002	6.0978e-006
20239	16.888	0.90909	0.	-1.4869e-003
20240	16.795	0.81818	0.	-1.809e-003
20241	16.795	0.90909	5.e-002	5.5655e-006
20242	17.072	0.90909	0.	-1.2545e-003
20243	16.98	0.81818	0.	-1.7532e-003
20244	16.98	0.90909	5.e-002	3.0146e-006
20245	17.257	0.90909	0.	-1.1002e-003
20246	17.165	0.81818	0.	-1.7534e-003
20247	17.165	0.90909	5.e-002	2.8219e-006
20248	17.442	0.90909	0.	-9.8983e-004
20249	17.349	0.81818	0.	-1.7796e-003
20250	17.349	0.90909	5.e-002	6.2086e-006
20251	17.627	0.90909	0.	-8.9575e-004
20252	17.534	0.81818	0.	-1.8221e-003
20253	17.534	0.90909	5.e-002	5.0906e-006
20254	17.811	0.90909	0.	-8.0781e-004
20255	17.719	0.81818	0.	-1.8514e-003
20256	17.719	0.90909	5.e-002	4.8941e-006
20257	17.996	0.90909	0.	-7.4981e-004
20258	17.904	0.81818	0.	-1.8907e-003
20259	17.904	0.90909	5.e-002	5.2979e-006
20260	18.181	0.90909	0.	-7.1401e-004
20261	18.088	0.81818	0.	-1.9686e-003
20262	18.088	0.90909	5.e-002	4.5531e-006
20263	18.365	0.90909	0.	-6.6813e-004
20264	18.273	0.81818	0.	-2.0465e-003
20265	18.273	0.90909	5.e-002	7.7034e-007
20266	18.55	0.90909	0.	-6.0171e-004
20267	18.458	0.81818	0.	-2.1037e-003
20268	18.458	0.90909	5.e-002	-6.1456e-007
20269	18.735	0.90909	0.	-5.2019e-004
20270	18.643	0.81818	0.	-2.1394e-003
20271	18.643	0.90909	5.e-002	1.3425e-006
20272	18.92	0.90909	0.	-4.42e-004
20273	18.827	0.81818	0.	-2.1735e-003
20274	18.827	0.90909	5.e-002	1.143e-006
20275	19.104	0.90909	0.	-3.6293e-004
20276	19.012	0.81818	0.	-2.2222e-003
20277	19.012	0.90909	5.e-002	3.6189e-006
20278	19.289	0.90909	0.	-2.6408e-004
20279	19.197	0.81818	0.	-2.2615e-003
20280	19.197	0.90909	5.e-002	4.7574e-006
20281	19.474	0.90909	0.	-1.4029e-004
20282	19.382	0.81818	0.	-2.2841e-003
20283	19.382	0.90909	5.e-002	1.592e-006
20284	19.659	0.90909	0.	2.081e-005
20285	19.566	0.81818	0.	-2.2879e-003
20286	19.566	0.90909	5.e-002	2.5517e-006
20287	19.843	0.90909	0.	2.199e-004
20288	19.751	0.81818	0.	-2.2527e-003
20289	19.751	0.90909	5.e-002	3.3254e-006
20290	20.028	0.90909	0.	4.4331e-004
20291	19.936	0.81818	0.	-2.1981e-003
20292	19.936	0.90909	5.e-002	1.9793e-006
20293	20.213	0.90909	0.	7.0449e-004
20294	20.12	0.81818	0.	-2.1348e-003
20295	20.12	0.90909	5.e-002	3.8964e-006
20296	20.398	0.90909	0.	1.0306e-003
20297	20.305	0.81818	0.	-2.0308e-003
20298	20.305	0.90909	5.e-002	4.6229e-006
20299	20.582	0.90909	0.	1.4398e-003
20300	20.49	0.81818	0.	-1.8664e-003
20301	20.49	0.90909	5.e-002	5.3632e-007
20302	20.767	0.90909	0.	1.9448e-003
20303	20.675	0.81818	0.	-1.6276e-003
20304	20.675	0.90909	5.e-002	1.494e-006
20305	20.952	0.90909	0.	2.5568e-003
20306	20.859	0.81818	0.	-1.3098e-003
20307	20.859	0.90909	5.e-002	5.2221e-006
20308	21.137	0.90909	0.	3.3048e-003
20309	21.044	0.81818	0.	-8.9934e-004
20310	21.044	0.90909	5.e-002	5.2661e-006
20311	21.321	0.90909	0.	4.2402e-003
20312	21.229	0.81818	0.	-3.5474e-004
20313	21.229	0.90909	5.e-002	3.9371e-006
20314	21.506	0.90909	0.	5.4211e-003
20315	21.414	0.81818	0.	3.7468e-004
20316	21.414	0.90909	5.e-002	4.2554e-006
20317	21.691	0.90909	0.	6.9201e-003
20318	21.598	0.81818	0.	1.3442e-003
20319	21.598	0.90909	5.e-002	8.6604e-006
20320	21.876	0.90909	0.	8.833e-003
20321	21.783	0.81818	0.	2.6415e-003
20322	21.783	0.90909	5.e-002	8.4498e-006
20323	22.06	0.90909	0.	1.1293e-002
20324	21.968	0.81818	0.	4.359e-003
20325	21.968	0.90909	5.e-002	6.6215e-007
20326	22.245	0.90909	0.	1.45e-002
20327	22.153	0.81818	0.	6.6594e-003
20328	22.153	0.90909	5.e-002	2.908e-006
20329	22.43	0.90909	0.	1.8768e-002
20330	22.337	0.81818	0.	9.7742e-003
20331	22.337	0.90909	5.e-002	2.7086e-006
20332	22.614	0.90909	0.	2.4481e-002
20333	22.522	0.81818	0.	1.4093e-002
20334	22.522	0.90909	5.e-002	3.548e-006
20335	22.799	0.90909	0.	3.2565e-002
20336	22.707	0.81818	0.	2.0003e-002
20337	22.707	0.90909	5.e-002	2.1641e-006
20338	22.984	0.90909	0.	4.3301e-002
20339	22.892	0.81818	0.	2.8999e-002
20340	22.892	0.90909	5.e-002	-3.2906e-006
20341	23.169	0.90909	0.	6.2445e-002
20342	23.076	0.81818	0.	4.0233e-002
20343	23.076	0.90909	5.e-002	2.2721e-007
20344	23.353	0.90909	0.	8.0573e-002
20345	23.261	0.81818	0.	6.6263e-002
20346	23.261	0.90909	5.e-002	1.2043e-007
20347	23.538	0.90909	0.	0.16577
20348	23.446	0.81818	0.	7.6697e-002
20349	23.446	0.90909	5.e-002	-9.2559e-007
20350	23.723	0.90909	0.	0.13196
20351	23.631	0.81818	0.	0.24035
20352	23.631	0.90909	5.e-002	-2.1461e-006
20353	23.815	0.81818	0.	4.8343e-002
20354	23.815	0.90909	5.e-002	-6.6979e-006
20355	23.908	0.90909	0.	0.38902
20356	8.9438	0.72727	0.	-4.6291
20357	8.8514	0.63636	0.	-7.4075
20358	8.8514	0.72727	5.e-002	-2.444e-006
20359	8.759	0.72727	0.	1.7038
20360	9.1285	0.72727	0.	-2.1824
20361	9.0361	0.63636	0.	-2.0252
20362	9.0361	0.72727	5.e-002	2.2847e-005
20363	9.3133	0.72727	0.	-2.35
20364	9.2209	0.63636	0.	-2.8392
20365	9.2209	0.72727	5.e-002	3.2457e-005
20366	9.498	0.72727	0.	-1.776
20367	9.4056	0.63636	0.	-1.8995
20368	9.4056	0.72727	5.e-002	5.1689e-005
20369	9.6827	0.72727	0.	-1.4119
20370	9.5904	0.63636	0.	-1.4337
20371	9.5904	0.72727	5.e-002	5.18e-005
20372	9.8675	0.72727	0.	-1.1034
20373	9.7751	0.63636	0.	-1.0368
20374	9.7751	0.72727	5.e-002	6.9806e-005
20375	10.052	0.72727	0.	-0.88244
20376	9.9598	0.63636	0.	-0.77927
20377	9.9598	0.72727	5.e-002	5.6312e-005
20378	10.237	0.72727	0.	-0.72367
20379	10.145	0.63636	0.	-0.59939
20380	10.145	0.72727	5.e-002	8.1568e-005
20381	10.422	0.72727	0.	-0.61647
20382	10.329	0.63636	0.	-0.47798
20383	10.329	0.72727	5.e-002	9.6668e-005
20384	10.606	0.72727	0.	-0.55297
20385	10.514	0.63636	0.	-0.39728
20386	10.514	0.72727	5.e-002	1.0942e-004
20387	10.791	0.72727	0.	-0.53495
20388	10.699	0.63636	0.	-0.34879
20389	10.699	0.72727	5.e-002	1.2978e-004
20390	10.976	0.72727	0.	-0.58432
20391	10.884	0.63636	0.	-0.33016
20392	10.884	0.72727	5.e-002	1.8897e-004
20393	11.161	0.72727	0.	-0.80761
20394	11.068	0.63636	0.	-0.34995
20395	11.068	0.72727	5.e-002	1.4756e-004
20396	11.345	0.72727	0.	-1.9856
20397	11.253	0.63636	0.	-0.45334
20398	11.253	0.72727	5.e-002	9.5764e-005
20399	11.53	0.72727	0.	-6.2067
20400	11.438	0.63636	0.	-0.95413
20401	11.438	0.72727	5.e-002	3.1141e-005
20402	11.715	0.72727	0.	-10.76
20403	11.622	0.63636	0.	-3.8054
20404	11.622	0.72727	5.e-002	2.1949e-005
20405	11.9	0.72727	0.	-14.344
20406	11.807	0.63636	0.	-7.7485
20407	11.807	0.72727	5.e-002	1.0558e-005
20408	12.084	0.72727	0.	-16.937
20409	11.992	0.63636	0.	-10.885
20410	11.992	0.72727	5.e-002	7.6519e-006
20411	12.269	0.72727	0.	-18.655
20412	12.177	0.63636	0.	-13.139
20413	12.177	0.72727	5.e-002	5.3879e-006
20414	12.454	0.72727	0.	-19.625
20415	12.361	0.63636	0.	-14.612
20416	12.361	0.72727	5.e-002	-2.4217e-006
20417	12.639	0.72727	0.	-19.974
20418	12.546	0.63636	0.	-15.424
20419	12.546	0.72727	5.e-002	-1.4228e-007
20420	12.823	0.72727	0.	-19.814
20421	12.731	0.63636	0.	-15.689
20422	12.731	0.72727	5.e-002	2.3813e-006
20423	13.008	0.72727	0.	-19.247
20424	12.916	0.63636	0.	-15.509
20425	12.916	0.72727	5.e-002	4.3236e-006
20426	13.193	0.72727	0.	-18.36
20427	13.1	0.63636	0.	-14.974
20428	13.1	0.72727	5.e-002	4.3671e-006
20429	13.378	0.72727	0.	-17.227
20430	13.285	0.63636	0.	-14.16
20431	13.285	0.72727	5.e-002	4.6528e-006
20432	13.562	0.72727	0.	-15.911
20433	13.47	0.63636	0.	-13.135
20434	13.47	0.72727	5.e-002	4.6837e-006
20435	13.747	0.72727	0.	-14.465
20436	13.655	0.63636	0.	-11.952
20437	13.655	0.72727	5.e-002	3.8563e-006
20438	13.932	0.72727	0.	-12.931
20439	13.839	0.63636	0.	-10.658
20440	13.839	0.72727	5.e-002	3.7714e-006
20441	14.116	0.72727	0.	-11.345
20442	14.024	0.63636	0.	-9.2894
20443	14.024	0.72727	5.e-002	3.3437e-006
20444	14.301	0.72727	0.	-9.7332
20445	14.209	0.63636	0.	-7.8761
20446	14.209	0.72727	5.e-002	4.9851e-006
20447	14.486	0.72727	0.	-8.1182
20448	14.394	0.63636	0.	-6.442
20449	14.394	0.72727	5.e-002	4.3729e-006
20450	14.671	0.72727	0.	-6.5164
20451	14.578	0.63636	0.	-5.0057
20452	14.578	0.72727	5.e-002	1.4532e-006
20453	14.855	0.72727	0.	-4.9405
20454	14.763	0.63636	0.	-3.5814
20455	14.763	0.72727	5.e-002	2.6895e-006
20456	15.04	0.72727	0.	-3.3997
20457	14.948	0.63636	0.	-2.1805
20458	14.948	0.72727	5.e-002	2.9845e-006
20459	15.225	0.72727	0.	-1.9015
20460	15.133	0.63636	0.	-0.81459
20461	15.133	0.72727	5.e-002	4.6917e-006
20462	15.41	0.72727	0.	-0.46823
20463	15.317	0.63636	0.	-1.3956e-002
20464	15.317	0.72727	5.e-002	5.3356e-006
20465	15.594	0.72727	0.	-1.2876e-002
20466	15.502	0.63636	0.	-2.8982e-003
20467	15.502	0.72727	5.e-002	3.5347e-006
20468	15.779	0.72727	0.	-4.4953e-003
20469	15.687	0.63636	0.	-1.4391e-003
20470	15.687	0.72727	5.e-002	3.9805e-006
20471	15.964	0.72727	0.	-2.6546e-003
20472	15.871	0.63636	0.	-1.1206e-003
20473	15.871	0.72727	5.e-002	4.9746e-006
20474	16.149	0.72727	0.	-2.0563e-003
20475	16.056	0.63636	0.	-1.1772e-003
20476	16.056	0.72727	5.e-002	4.8985e-006
20477	16.333	0.72727	0.	-1.8685e-003
20478	16.241	0.63636	0.	-1.3721e-003
20479	16.241	0.72727	5.e-002	5.1944e-006
20480	16.518	0.72727	0.	-1.8427e-003
20481	16.426	0.63636	0.	-1.5978e-003
20482	16.426	0.72727	5.e-002	5.6665e-006
20483	16.703	0.72727	0.	-1.9012e-003
20484	16.61	0.63636	0.	-1.8282e-003
20485	16.61	0.72727	5.e-002	5.8671e-006
20486	16.888	0.72727	0.	-2.0283e-003
20487	16.795	0.63636	0.	-2.0741e-003
20488	16.795	0.72727	5.e-002	6.0854e-006
20489	17.072	0.72727	0.	-2.2e-003
20490	16.98	0.63636	0.	-2.357e-003
20491	16.98	0.72727	5.e-002	4.2386e-006
20492	17.257	0.72727	0.	-2.3836e-003
20493	17.165	0.63636	0.	-2.6378e-003
20494	17.165	0.72727	5.e-002	3.0845e-006
20495	17.442	0.72727	0.	-2.5697e-003
20496	17.349	0.63636	0.	-2.9113e-003
20497	17.349	0.72727	5.e-002	6.0281e-006
20498	17.627	0.72727	0.	-2.7445e-003
20499	17.534	0.63636	0.	-3.1749e-003
20500	17.534	0.72727	5.e-002	5.6087e-006
20501	17.811	0.72727	0.	-2.9112e-003
20502	17.719	0.63636	0.	-3.4116e-003
20503	17.719	0.72727	5.e-002	4.8153e-006
20504	17.996	0.72727	0.	-3.0973e-003
20505	17.904	0.63636	0.	-3.6511e-003
20506	17.904	0.72727	5.e-002	3.9314e-006
20507	18.181	0.72727	0.	-3.3005e-003
20508	18.088	0.63636	0.	-3.9201e-003
20509	18.088	0.72727	5.e-002	3.9808e-006
20510	18.365	0.72727	0.	-3.4936e-003
20511	18.273	0.63636	0.	-4.1914e-003
20512	18.273	0.72727	5.e-002	5.4395e-007
20513	18.55	0.72727	0.	-3.6657e-003
20514	18.458	0.63636	0.	-4.4423e-003
20515	18.458	0.72727	5.e-002	-3.7908e-006
20516	18.735	0.72727	0.	-3.8304e-003
20517	18.643	0.63636	0.	-4.6755e-003
20518	18.643	0.72727	5.e-002	-1.7732e-006
20519	18.92	0.72727	0.	-4.0057e-003
20520	18.827	0.63636	0.	-4.9142e-003
20521	18.827	0.72727	5.e-002	-6.9875e-007
20522	19.104	0.72727	0.	-4.1881e-003
20523	19.012	0.63636	0.	-5.1752e-003
20524	19.012	0.72727	5.e-002	1.4863e-006
20525	19.289	0.72727	0.	-4.3652e-003
20526	19.197	0.63636	0.	-5.4376e-003
20527	19.197	0.72727	5.e-002	3.2254e-006
20528	19.474	0.72727	0.	-4.5332e-003
20529	19.382	0.63636	0.	-5.6979e-003
20530	19.382	0.72727	5.e-002	1.5364e-006
20531	19.659	0.72727	0.	-4.6825e-003
20532	19.566	0.63636	0.	-5.9553e-003
20533	19.566	0.72727	5.e-002	-5.6266e-007
20534	19.843	0.72727	0.	-4.8133e-003
20535	19.751	0.63636	0.	-6.1938e-003
20536	19.751	0.72727	5.e-002	3.4132e-006
20537	20.028	0.72727	0.	-4.9427e-003
20538	19.936	0.63636	0.	-6.4338e-003
20539	19.936	0.72727	5.e-002	1.5319e-006
20540	20.213	0.72727	0.	-5.0633e-003
20541	20.12	0.63636	0.	-6.6893e-003
20542	20.12	0.72727	5.e-002	2.6288e-006
20543	20.398	0.72727	0.	-5.151e-003
20544	20.305	0.63636	0.	-6.9357e-003
20545	20.305	0.72727	5.e-002	4.9594e-006
20546	20.582	0.72727	0.	-5.191e-003
20547	20.49	0.63636	0.	-7.156e-003
20548	20.49	0.72727	5.e-002	2.8124e-006
20549	20.767	0.72727	0.	-5.1782e-003
20550	20.675	0.63636	0.	-7.3418e-003
20551	20.675	0.72727	5.e-002	5.4081e-006
20552	20.952	0.72727	0.	-5.1066e-003
20553	20.859	0.63636	0.	-7.4964e-003
20554	20.859	0.72727	5.e-002	7.0992e-006
20555	21.137	0.72727	0.	-4.9514e-003
20556	21.044	0.63636	0.	-7.6106e-003
20557	21.044	0.72727	5.e-002	6.6961e-006
20558	21.321	0.72727	0.	-4.6734e-003
20559	21.229	0.63636	0.	-7.6522e-003
20560	21.229	0.72727	5.e-002	6.575e-006
20561	21.506	0.72727	0.	-4.2271e-003
20562	21.414	0.63636	0.	-7.5862e-003
20563	21.414	0.72727	5.e-002	4.3622e-006
20564	21.691	0.72727	0.	-3.5453e-003
20565	21.598	0.63636	0.	-7.3679e-003
20566	21.598	0.72727	5.e-002	7.6129e-006
20567	21.876	0.72727	0.	-2.5479e-003
20568	21.783	0.63636	0.	-6.925e-003
20569	21.783	0.72727	5.e-002	1.7984e-006
20570	22.06	0.72727	0.	-1.1194e-003
20571	21.968	0.63636	0.	-6.1824e-003
20572	21.968	0.72727	5.e-002	-3.4452e-006
20573	22.245	0.72727	0.	9.2356e-004
20574	22.153	0.63636	0.	-5.004e-003
20575	22.153	0.72727	5.e-002	3.1761e-006
20576	22.43	0.72727	0.	3.8741e-003
20577	22.337	0.63636	0.	-3.1883e-003
20578	22.337	0.72727	5.e-002	2.7207e-006
20579	22.614	0.72727	0.	8.0961e-003
20580	22.522	0.63636	0.	-3.7183e-004
20581	22.522	0.72727	5.e-002	2.6025e-007
20582	22.799	0.72727	0.	1.4491e-002
20583	22.707	0.63636	0.	3.7958e-003
20584	22.707	0.72727	5.e-002	-6.9843e-006
20585	22.984	0.72727	0.	2.3304e-002
20586	22.892	0.63636	0.	1.0754e-002
20587	22.892	0.72727	5.e-002	-5.0729e-006
20588	23.169	0.72727	0.	4.0176e-002
20589	23.076	0.63636	0.	1.9658e-002
20590	23.076	0.72727	5.e-002	3.1044e-007
20591	23.353	0.72727	0.	5.567e-002
20592	23.261	0.63636	0.	4.2784e-002
20593	23.261	0.72727	5.e-002	-2.2744e-006
20594	23.538	0.72727	0.	0.13562
20595	23.446	0.63636	0.	4.9229e-002
20596	23.446	0.72727	5.e-002	-1.2368e-006
20597	23.723	0.72727	0.	9.1205e-002
20598	23.631	0.63636	0.	0.20561
20599	23.631	0.72727	5.e-002	-1.1324e-006
20600	23.815	0.63636	0.	-3.2942e-003
20601	23.815	0.72727	5.e-002	-3.0203e-006
20602	23.908	0.72727	0.	0.3658
20603	8.9438	0.54545	0.	-5.8603
20604	8.8514	0.45455	0.	-8.7927
20605	8.8514	0.54545	5.e-002	-1.1122e-005
20606	8.759	0.54545	0.	1.7424
20607	9.1285	0.54545	0.	-3.0412
20608	9.0361	0.45455	0.	-3.5058
20609	9.0361	0.54545	5.e-002	1.0689e-005
20610	9.3133	0.54545	0.	-2.4889
20611	9.2209	0.45455	0.	-3.245
20612	9.2209	0.54545	5.e-002	2.2941e-005
20613	9.498	0.54545	0.	-1.5583
20614	9.4056	0.45455	0.	-1.7532
20615	9.4056	0.54545	5.e-002	3.1883e-005
20616	9.6827	0.54545	0.	-1.0495
20617	9.5904	0.45455	0.	-1.1109
20618	9.5904	0.54545	5.e-002	3.4135e-005
20619	9.8675	0.54545	0.	-0.71668
20620	9.7751	0.45455	0.	-0.71239
20621	9.7751	0.54545	5.e-002	3.0852e-005
20622	10.052	0.54545	0.	-0.51396
20623	9.9598	0.45455	0.	-0.49916
20624	9.9598	0.54545	5.e-002	4.1323e-005
20625	10.237	0.54545	0.	-0.38187
20626	10.145	0.45455	0.	-0.36571
20627	10.145	0.54545	5.e-002	4.228e-005
20628	10.422	0.54545	0.	-0.29539
20629	10.329	0.45455	0.	-0.27918
20630	10.329	0.54545	5.e-002	4.8786e-005
20631	10.606	0.54545	0.	-0.2388
20632	10.514	0.45455	0.	-0.21946
20633	10.514	0.54545	5.e-002	5.1028e-005
20634	10.791	0.54545	0.	-0.20398
20635	10.699	0.45455	0.	-0.17768
20636	10.699	0.54545	5.e-002	7.7735e-005
20637	10.976	0.54545	0.	-0.18721
20638	10.884	0.45455	0.	-0.1491
20639	10.884	0.54545	5.e-002	1.0291e-004
20640	11.161	0.54545	0.	-0.18974
20641	11.068	0.45455	0.	-0.13169
20642	11.068	0.54545	5.e-002	1.3165e-004
20643	11.345	0.54545	0.	-0.22415
20644	11.253	0.45455	0.	-0.126
20645	11.253	0.54545	5.e-002	8.6563e-005
20646	11.53	0.54545	0.	-0.35766
20647	11.438	0.45455	0.	-0.13795
20648	11.438	0.54545	5.e-002	4.4847e-005
20649	11.715	0.54545	0.	-1.2804
20650	11.622	0.45455	0.	-0.1951
20651	11.622	0.54545	5.e-002	1.6763e-005
20652	11.9	0.54545	0.	-4.3146
20653	11.807	0.45455	0.	-0.53938
20654	11.807	0.54545	5.e-002	7.3215e-006
20655	12.084	0.54545	0.	-7.0754
20656	11.992	0.45455	0.	-2.4958
20657	11.992	0.54545	5.e-002	1.0389e-006
20658	12.269	0.54545	0.	-9.0783
20659	12.177	0.45455	0.	-4.6418
20660	12.177	0.54545	5.e-002	2.4416e-006
20661	12.454	0.54545	0.	-10.391
20662	12.361	0.45455	0.	-6.1792
20663	12.361	0.54545	5.e-002	-1.2197e-006
20664	12.639	0.54545	0.	-11.119
20665	12.546	0.45455	0.	-7.1478
20666	12.546	0.54545	5.e-002	-1.8968e-006
20667	12.823	0.54545	0.	-11.364
20668	12.731	0.45455	0.	-7.6357
20669	12.731	0.54545	5.e-002	3.8926e-006
20670	13.008	0.54545	0.	-11.216
20671	12.916	0.45455	0.	-7.7288
20672	12.916	0.54545	5.e-002	4.6086e-006
20673	13.193	0.54545	0.	-10.755
20674	13.1	0.45455	0.	-7.5032
20675	13.1	0.54545	5.e-002	4.4055e-006
20676	13.378	0.54545	0.	-10.049
20677	13.285	0.45455	0.	-7.025
20678	13.285	0.54545	5.e-002	4.0289e-006
20679	13.562	0.54545	0.	-9.1567
20680	13.47	0.45455	0.	-6.3508
20681	13.47	0.54545	5.e-002	5.8038e-006
20682	13.747	0.54545	0.	-8.1259
20683	13.655	0.45455	0.	-5.5278
20684	13.655	0.54545	5.e-002	6.1486e-006
20685	13.932	0.54545	0.	-6.9963
20686	13.839	0.45455	0.	-4.5954
20687	13.839	0.54545	5.e-002	4.4904e-006
20688	14.116	0.54545	0.	-5.8004
20689	14.024	0.45455	0.	-3.5858
20690	14.024	0.54545	5.e-002	4.5478e-006
20691	14.301	0.54545	0.	-4.5642
20692	14.209	0.45455	0.	-2.5251
20693	14.209	0.54545	5.e-002	5.2389e-006
20694	14.486	0.54545	0.	-3.3082
20695	14.394	0.45455	0.	-1.4341
20696	14.394	0.54545	5.e-002	4.5836e-006
20697	14.671	0.54545	0.	-2.0487
20698	14.578	0.45455	0.	-0.3293
20699	14.578	0.54545	5.e-002	2.0604e-006
20700	14.855	0.54545	0.	-0.79961
20701	14.763	0.45455	0.	9.712e-003
20702	14.763	0.54545	5.e-002	1.9062e-006
20703	15.04	0.54545	0.	-3.6002e-003
20704	14.948	0.45455	0.	8.2153e-003
20705	14.948	0.54545	5.e-002	2.1012e-006
20706	15.225	0.54545	0.	7.7596e-004
20707	15.133	0.45455	0.	6.7937e-003
20708	15.133	0.54545	5.e-002	4.2414e-006
20709	15.41	0.54545	0.	8.6356e-004
20710	15.317	0.45455	0.	5.4859e-003
20711	15.317	0.54545	5.e-002	5.2558e-006
20712	15.594	0.54545	0.	5.4624e-004
20713	15.502	0.45455	0.	4.2618e-003
20714	15.502	0.54545	5.e-002	3.9227e-006
20715	15.779	0.54545	0.	1.3602e-004
20716	15.687	0.45455	0.	3.1114e-003
20717	15.687	0.54545	5.e-002	3.4773e-006
20718	15.964	0.54545	0.	-3.126e-004
20719	15.871	0.45455	0.	2.024e-003
20720	15.871	0.54545	5.e-002	4.8806e-006
20721	16.149	0.54545	0.	-7.7737e-004
20722	16.056	0.45455	0.	9.5484e-004
20723	16.056	0.54545	5.e-002	5.0299e-006
20724	16.333	0.54545	0.	-1.2178e-003
20725	16.241	0.45455	0.	-6.7489e-005
20726	16.241	0.54545	5.e-002	5.0268e-006
20727	16.518	0.54545	0.	-1.6169e-003
20728	16.426	0.45455	0.	-1.0167e-003
20729	16.426	0.54545	5.e-002	4.538e-006
20730	16.703	0.54545	0.	-1.9914e-003
20731	16.61	0.45455	0.	-1.9049e-003
20732	16.61	0.54545	5.e-002	3.9587e-006
20733	16.888	0.54545	0.	-2.3706e-003
20734	16.795	0.45455	0.	-2.7626e-003
20735	16.795	0.54545	5.e-002	4.9067e-006
20736	17.072	0.54545	0.	-2.7518e-003
20737	16.98	0.45455	0.	-3.6251e-003
20738	16.98	0.54545	5.e-002	3.8822e-006
20739	17.257	0.54545	0.	-3.1189e-003
20740	17.165	0.45455	0.	-4.4612e-003
20741	17.165	0.54545	5.e-002	2.7522e-006
20742	17.442	0.54545	0.	-3.4708e-003
20743	17.349	0.45455	0.	-5.2747e-003
20744	17.349	0.54545	5.e-002	5.5166e-006
20745	17.627	0.54545	0.	-3.8002e-003
20746	17.534	0.45455	0.	-6.0672e-003
20747	17.534	0.54545	5.e-002	3.5658e-006
20748	17.811	0.54545	0.	-4.1159e-003
20749	17.719	0.45455	0.	-6.8267e-003
20750	17.719	0.54545	5.e-002	3.5657e-006
20751	17.996	0.54545	0.	-4.4462e-003
20752	17.904	0.45455	0.	-7.5896e-003
20753	17.904	0.54545	5.e-002	3.2161e-006
20754	18.181	0.54545	0.	-4.7925e-003
20755	18.088	0.45455	0.	-8.3821e-003
20756	18.088	0.54545	5.e-002	3.4554e-006
20757	18.365	0.54545	0.	-5.1322e-003
20758	18.273	0.45455	0.	-9.184e-003
20759	18.273	0.54545	5.e-002	1.7767e-006
20760	18.55	0.54545	0.	-5.456e-003
20761	18.458	0.45455	0.	-9.9811e-003
20762	18.458	0.54545	5.e-002	-4.938e-006
20763	18.735	0.54545	0.	-5.7762e-003
20764	18.643	0.45455	0.	-1.0775e-002
20765	18.643	0.54545	5.e-002	-3.4838e-006
20766	18.92	0.54545	0.	-6.1152e-003
20767	18.827	0.45455	0.	-1.1593e-002
20768	18.827	0.54545	5.e-002	5.8761e-007
20769	19.104	0.54545	0.	-6.4724e-003
20770	19.012	0.45455	0.	-1.2462e-002
20771	19.012	0.54545	5.e-002	4.5831e-007
20772	19.289	0.54545	0.	-6.836e-003
20773	19.197	0.45455	0.	-1.3362e-002
20774	19.197	0.54545	5.e-002	3.9582e-006
20775	19.474	0.54545	0.	-7.2059e-003
20776	19.382	0.45455	0.	-1.4296e-002
20777	19.382	0.54545	5.e-002	8.8628e-007
20778	19.659	0.54545	0.	-7.575e-003
20779	19.566	0.45455	0.	-1.5268e-002
20780	19.566	0.54545	5.e-002	-9.2169e-007
20781	19.843	0.54545	0.	-7.948e-003
20782	19.751	0.45455	0.	-1.6274e-002
20783	19.751	0.54545	5.e-002	2.5946e-006
20784	20.028	0.54545	0.	-8.3429e-003
20785	19.936	0.45455	0.	-1.7339e-002
20786	19.936	0.54545	5.e-002	5.8377e-007
20787	20.213	0.54545	0.	-8.7571e-003
20788	20.12	0.45455	0.	-1.8483e-002
20789	20.12	0.54545	5.e-002	1.7366e-006
20790	20.398	0.54545	0.	-9.1737e-003
20791	20.305	0.45455	0.	-1.9697e-002
20792	20.305	0.54545	5.e-002	6.1741e-006
20793	20.582	0.54545	0.	-9.5833e-003
20794	20.49	0.45455	0.	-2.0971e-002
20795	20.49	0.54545	5.e-002	4.8498e-006
20796	20.767	0.54545	0.	-9.9869e-003
20797	20.675	0.45455	0.	-2.2313e-002
20798	20.675	0.54545	5.e-002	5.5011e-006
20799	20.952	0.54545	0.	-1.0386e-002
20800	20.859	0.45455	0.	-2.3742e-002
20801	20.859	0.54545	5.e-002	5.4079e-006
20802	21.137	0.54545	0.	-1.0767e-002
20803	21.044	0.45455	0.	-2.5267e-002
20804	21.044	0.54545	5.e-002	9.7212e-006
20805	21.321	0.54545	0.	-1.1103e-002
20806	21.229	0.45455	0.	-2.688e-002
20807	21.229	0.54545	5.e-002	8.8565e-006
20808	21.506	0.54545	0.	-1.1365e-002
20809	21.414	0.45455	0.	-2.8575e-002
20810	21.414	0.54545	5.e-002	4.2976e-006
20811	21.691	0.54545	0.	-1.1506e-002
20812	21.598	0.45455	0.	-3.0344e-002
20813	21.598	0.54545	5.e-002	1.9163e-006
20814	21.876	0.54545	0.	-1.1466e-002
20815	21.783	0.45455	0.	-3.2162e-002
20816	21.783	0.54545	5.e-002	-4.8545e-006
20817	22.06	0.54545	0.	-1.1159e-002
20818	21.968	0.45455	0.	-3.4004e-002
20819	21.968	0.54545	5.e-002	-3.5084e-006
20820	22.245	0.54545	0.	-1.0444e-002
20821	22.153	0.45455	0.	-3.5819e-002
20822	22.153	0.54545	5.e-002	8.576e-006
20823	22.43	0.54545	0.	-9.0709e-003
20824	22.337	0.45455	0.	-3.7495e-002
20825	22.337	0.54545	5.e-002	5.1594e-006
20826	22.614	0.54545	0.	-6.7248e-003
20827	22.522	0.45455	0.	-3.881e-002
20828	22.522	0.54545	5.e-002	-3.6474e-006
20829	22.799	0.54545	0.	-2.5811e-003
20830	22.707	0.45455	0.	-3.9571e-002
20831	22.707	0.54545	5.e-002	-1.0248e-005
20832	22.984	0.54545	0.	3.5828e-003
20833	22.892	0.45455	0.	-3.8629e-002
20834	22.892	0.54545	5.e-002	-4.6074e-006
20835	23.169	0.54545	0.	1.7251e-002
20836	23.076	0.45455	0.	-3.6973e-002
20837	23.076	0.54545	5.e-002	-4.8704e-007
20838	23.353	0.54545	0.	2.8284e-002
20839	23.261	0.45455	0.	-2.3711e-002
20840	23.261	0.54545	5.e-002	3.1352e-007
20841	23.538	0.54545	0.	0.10246
20842	23.446	0.45455	0.	-2.7498e-002
20843	23.446	0.54545	5.e-002	-1.9437e-006
20844	23.723	0.54545	0.	4.8652e-002
20845	23.631	0.45455	0.	0.10081
20846	23.631	0.54545	5.e-002	-9.3978e-007
20847	23.815	0.45455	0.	-0.15128
20848	23.815	0.54545	5.e-002	-1.4615e-006
20849	23.908	0.54545	0.	0.35325
20850	8.9438	0.36364	0.	-8.721
20851	8.8514	0.27273	0.	-14.899
20852	8.8514	0.36364	5.e-002	-9.5267e-006
20853	8.759	0.36364	0.	2.7909
20854	9.1285	0.36364	0.	-4.3031
20855	9.0361	0.27273	0.	-6.0932
20856	9.0361	0.36364	5.e-002	-1.9871e-006
20857	9.3133	0.36364	0.	-2.5026
20858	9.2209	0.27273	0.	-3.5026
20859	9.2209	0.36364	5.e-002	8.2414e-006
20860	9.498	0.36364	0.	-1.2402
20861	9.4056	0.27273	0.	-1.3585
20862	9.4056	0.36364	5.e-002	1.4751e-005
20863	9.6827	0.36364	0.	-0.7415
20864	9.5904	0.27273	0.	-0.62307
20865	9.5904	0.36364	5.e-002	1.5528e-005
20866	9.8675	0.36364	0.	-0.48914
20867	9.7751	0.27273	0.	-0.27799
20868	9.7751	0.36364	5.e-002	1.3369e-005
20869	10.052	0.36364	0.	-0.35973
20870	9.9598	0.27273	0.	-0.1462
20871	9.9598	0.36364	5.e-002	1.3606e-005
20872	10.237	0.36364	0.	-0.27913
20873	10.145	0.27273	0.	-8.9743e-002
20874	10.145	0.36364	5.e-002	1.3105e-005
20875	10.422	0.36364	0.	-0.22288
20876	10.329	0.27273	0.	-6.5885e-002
20877	10.329	0.36364	5.e-002	1.2351e-005
20878	10.606	0.36364	0.	-0.1798
20879	10.514	0.27273	0.	-5.347e-002
20880	10.514	0.36364	5.e-002	1.2622e-005
20881	10.791	0.36364	0.	-0.1457
20882	10.699	0.27273	0.	-4.535e-002
20883	10.699	0.36364	5.e-002	1.6991e-005
20884	10.976	0.36364	0.	-0.11879
20885	10.884	0.27273	0.	-3.9026e-002
20886	10.884	0.36364	5.e-002	2.4409e-005
20887	11.161	0.36364	0.	-9.843e-002
20888	11.068	0.27273	0.	-3.4021e-002
20889	11.068	0.36364	5.e-002	6.8645e-005
20890	11.345	0.36364	0.	-8.4845e-002
20891	11.253	0.27273	0.	-3.0638e-002
20892	11.253	0.36364	5.e-002	1.2152e-004
20893	11.53	0.36364	0.	-7.9683e-002
20894	11.438	0.27273	0.	-2.9663e-002
20895	11.438	0.36364	5.e-002	3.3289e-005
20896	11.715	0.36364	0.	-8.8707e-002
20897	11.622	0.27273	0.	-3.2294e-002
20898	11.622	0.36364	5.e-002	1.0214e-005
20899	11.9	0.36364	0.	-0.13818
20900	11.807	0.27273	0.	-4.0744e-002
20901	11.807	0.36364	5.e-002	2.6004e-006
20902	12.084	0.36364	0.	-0.47567
20903	11.992	0.27273	0.	-6.005e-002
20904	11.992	0.36364	5.e-002	1.6051e-006
20905	12.269	0.36364	0.	-1.7755
20906	12.177	0.27273	0.	-0.10369
20907	12.177	0.36364	5.e-002	3.0431e-006
20908	12.454	0.36364	0.	-2.9318
20909	12.361	0.27273	0.	-0.2123
20910	12.361	0.36364	5.e-002	1.1056e-006
20911	12.639	0.36364	0.	-3.6519
20912	12.546	0.27273	0.	-0.44041
20913	12.546	0.36364	5.e-002	1.387e-006
20914	12.823	0.36364	0.	-3.9856
20915	12.731	0.27273	0.	-0.65349
20916	12.731	0.36364	5.e-002	3.0683e-006
20917	13.008	0.36364	0.	-4.
20918	12.916	0.27273	0.	-0.69357
20919	12.916	0.36364	5.e-002	4.2876e-006
20920	13.193	0.36364	0.	-3.7567
20921	13.1	0.27273	0.	-0.55763
20922	13.1	0.36364	5.e-002	3.1582e-006
20923	13.378	0.36364	0.	-3.3097
20924	13.285	0.27273	0.	-0.32457
20925	13.285	0.36364	5.e-002	4.869e-006
20926	13.562	0.36364	0.	-2.7049
20927	13.47	0.27273	0.	-0.14153
20928	13.47	0.36364	5.e-002	4.6114e-006
20929	13.747	0.36364	0.	-1.981
20930	13.655	0.27273	0.	-6.1944e-002
20931	13.655	0.36364	5.e-002	3.4221e-006
20932	13.932	0.36364	0.	-1.1709
20933	13.839	0.27273	0.	-2.9846e-002
20934	13.839	0.36364	5.e-002	4.5016e-006
20935	14.116	0.36364	0.	-0.31414
20936	14.024	0.27273	0.	-1.5031e-002
20937	14.024	0.36364	5.e-002	5.1182e-006
20938	14.301	0.36364	0.	8.2564e-003
20939	14.209	0.27273	0.	-7.4215e-003
20940	14.209	0.36364	5.e-002	6.2194e-006
20941	14.486	0.36364	0.	1.4161e-002
20942	14.394	0.27273	0.	-3.2585e-003
20943	14.394	0.36364	5.e-002	4.3526e-006
20944	14.671	0.36364	0.	1.3973e-002
20945	14.578	0.27273	0.	-9.28e-004
20946	14.578	0.36364	5.e-002	2.517e-006
20947	14.855	0.36364	0.	1.2711e-002
20948	14.763	0.27273	0.	3.2134e-004
20949	14.763	0.36364	5.e-002	4.1602e-006
20950	15.04	0.36364	0.	1.1115e-002
20951	14.948	0.27273	0.	8.6455e-004
20952	14.948	0.36364	5.e-002	3.272e-006
20953	15.225	0.36364	0.	9.4421e-003
20954	15.133	0.27273	0.	9.9565e-004
20955	15.133	0.36364	5.e-002	4.4404e-006
20956	15.41	0.36364	0.	7.7803e-003
20957	15.317	0.27273	0.	8.9635e-004
20958	15.317	0.36364	5.e-002	5.8981e-006
20959	15.594	0.36364	0.	6.1522e-003
20960	15.502	0.27273	0.	6.3399e-004
20961	15.502	0.36364	5.e-002	4.985e-006
20962	15.779	0.36364	0.	4.5714e-003
20963	15.687	0.27273	0.	2.6372e-004
20964	15.687	0.36364	5.e-002	2.8767e-006
20965	15.964	0.36364	0.	3.0224e-003
20966	15.871	0.27273	0.	-1.771e-004
20967	15.871	0.36364	5.e-002	3.7622e-006
20968	16.149	0.36364	0.	1.5049e-003
20969	16.056	0.27273	0.	-7.0413e-004
20970	16.056	0.36364	5.e-002	4.5327e-006
20971	16.333	0.36364	0.	5.1899e-005
20972	16.241	0.27273	0.	-1.2622e-003
20973	16.241	0.36364	5.e-002	4.9083e-006
20974	16.518	0.36364	0.	-1.329e-003
20975	16.426	0.27273	0.	-1.8123e-003
20976	16.426	0.36364	5.e-002	4.3168e-006
20977	16.703	0.36364	0.	-2.6571e-003
20978	16.61	0.27273	0.	-2.3527e-003
20979	16.61	0.36364	5.e-002	2.007e-006
20980	16.888	0.36364	0.	-3.9652e-003
20981	16.795	0.27273	0.	-2.9028e-003
20982	16.795	0.36364	5.e-002	3.9863e-006
20983	17.072	0.36364	0.	-5.2572e-003
20984	16.98	0.27273	0.	-3.4909e-003
20985	16.98	0.36364	5.e-002	2.9417e-006
20986	17.257	0.36364	0.	-6.5199e-003
20987	17.165	0.27273	0.	-4.0838e-003
20988	17.165	0.36364	5.e-002	9.0908e-007
20989	17.442	0.36364	0.	-7.7585e-003
20990	17.349	0.27273	0.	-4.6743e-003
20991	17.349	0.36364	5.e-002	5.3721e-006
20992	17.627	0.36364	0.	-8.9691e-003
20993	17.534	0.27273	0.	-5.2685e-003
20994	17.534	0.36364	5.e-002	4.1737e-006
20995	17.811	0.36364	0.	-1.0166e-002
20996	17.719	0.27273	0.	-5.8478e-003
20997	17.719	0.36364	5.e-002	3.3787e-006
20998	17.996	0.36364	0.	-1.1385e-002
20999	17.904	0.27273	0.	-6.4468e-003
21000	17.904	0.36364	5.e-002	4.0439e-006
21001	18.181	0.36364	0.	-1.2628e-002
21002	18.088	0.27273	0.	-7.0928e-003
21003	18.088	0.36364	5.e-002	4.2558e-006
21004	18.365	0.36364	0.	-1.3883e-002
21005	18.273	0.27273	0.	-7.7626e-003
21006	18.273	0.36364	5.e-002	-5.0318e-008
21007	18.55	0.36364	0.	-1.5149e-002
21008	18.458	0.27273	0.	-8.4433e-003
21009	18.458	0.36364	5.e-002	-3.789e-007
21010	18.735	0.36364	0.	-1.6441e-002
21011	18.643	0.27273	0.	-9.1386e-003
21012	18.643	0.36364	5.e-002	3.295e-006
21013	18.92	0.36364	0.	-1.779e-002
21014	18.827	0.27273	0.	-9.8779e-003
21015	18.827	0.36364	5.e-002	4.1618e-006
21016	19.104	0.36364	0.	-1.9204e-002
21017	19.012	0.27273	0.	-1.0688e-002
21018	19.012	0.36364	5.e-002	2.125e-006
21019	19.289	0.36364	0.	-2.068e-002
21020	19.197	0.27273	0.	-1.155e-002
21021	19.197	0.36364	5.e-002	3.9833e-006
21022	19.474	0.36364	0.	-2.2224e-002
21023	19.382	0.27273	0.	-1.2472e-002
21024	19.382	0.36364	5.e-002	4.3998e-006
21025	19.659	0.36364	0.	-2.3843e-002
21026	19.566	0.27273	0.	-1.3462e-002
21027	19.566	0.36364	5.e-002	5.018e-006
21028	19.843	0.36364	0.	-2.5553e-002
21029	19.751	0.27273	0.	-1.4526e-002
21030	19.751	0.36364	5.e-002	4.2302e-006
21031	20.028	0.36364	0.	-2.7384e-002
21032	19.936	0.27273	0.	-1.569e-002
21033	19.936	0.36364	5.e-002	1.8364e-006
21034	20.213	0.36364	0.	-2.9349e-002
21035	20.12	0.27273	0.	-1.6988e-002
21036	20.12	0.36364	5.e-002	3.3285e-006
21037	20.398	0.36364	0.	-3.1448e-002
21038	20.305	0.27273	0.	-1.8415e-002
21039	20.305	0.36364	5.e-002	8.5661e-006
21040	20.582	0.36364	0.	-3.3688e-002
21041	20.49	0.27273	0.	-1.9984e-002
21042	20.49	0.36364	5.e-002	4.3919e-006
21043	20.767	0.36364	0.	-3.6097e-002
21044	20.675	0.27273	0.	-2.1714e-002
21045	20.675	0.36364	5.e-002	2.3983e-006
21046	20.952	0.36364	0.	-3.8705e-002
21047	20.859	0.27273	0.	-2.3649e-002
21048	20.859	0.36364	5.e-002	4.6745e-006
21049	21.137	0.36364	0.	-4.1529e-002
21050	21.044	0.27273	0.	-2.5826e-002
21051	21.044	0.36364	5.e-002	1.0698e-005
21052	21.321	0.36364	0.	-4.4585e-002
21053	21.229	0.27273	0.	-2.8274e-002
21054	21.229	0.36364	5.e-002	9.4686e-006
21055	21.506	0.36364	0.	-4.7895e-002
21056	21.414	0.27273	0.	-3.1032e-002
21057	21.414	0.36364	5.e-002	5.6527e-006
21058	21.691	0.36364	0.	-5.1478e-002
21059	21.598	0.27273	0.	-3.4152e-002
21060	21.598	0.36364	5.e-002	5.6588e-006
21061	21.876	0.36364	0.	-5.5357e-002
21062	21.783	0.27273	0.	-3.7698e-002
21063	21.783	0.36364	5.e-002	3.6468e-006
21064	22.06	0.36364	0.	-5.9554e-002
21065	21.968	0.27273	0.	-4.1758e-002
21066	21.968	0.36364	5.e-002	5.3743e-006
21067	22.245	0.36364	0.	-6.4072e-002
21068	22.153	0.27273	0.	-4.6426e-002
21069	22.153	0.36364	5.e-002	9.0955e-006
21070	22.43	0.36364	0.	-6.8861e-002
21071	22.337	0.27273	0.	-5.1805e-002
21072	22.337	0.36364	5.e-002	3.1737e-006
21073	22.614	0.36364	0.	-7.3878e-002
21074	22.522	0.27273	0.	-5.8e-002
21075	22.522	0.36364	5.e-002	1.9428e-006
21076	22.799	0.36364	0.	-7.8704e-002
21077	22.707	0.27273	0.	-6.5251e-002
21078	22.707	0.36364	5.e-002	-5.1539e-006
21079	22.984	0.36364	0.	-8.3584e-002
21080	22.892	0.27273	0.	-7.3209e-002
21081	22.892	0.36364	5.e-002	3.6697e-006
21082	23.169	0.36364	0.	-8.4481e-002
21083	23.076	0.27273	0.	-8.3628e-002
21084	23.076	0.36364	5.e-002	-3.2835e-006
21085	23.353	0.36364	0.	-9.0029e-002
21086	23.261	0.27273	0.	-8.9165e-002
21087	23.261	0.36364	5.e-002	5.1976e-007
21088	23.538	0.36364	0.	-4.9281e-002
21089	23.446	0.27273	0.	-0.11425
21090	23.446	0.36364	5.e-002	7.4562e-007
21091	23.723	0.36364	0.	-0.16106
21092	23.631	0.27273	0.	-5.3091e-002
21093	23.631	0.36364	5.e-002	4.7189e-006
21094	23.815	0.27273	0.	-0.38396
21095	23.815	0.36364	5.e-002	-3.7487e-006
21096	23.908	0.36364	0.	0.16009
21097	8.9438	0.18182	0.	-15.146
21098	8.8514	0.18182	5.e-002	-3.6807e-006
21099	8.8514	9.0909e-002	0.	-12.579
21100	8.759	0.18182	0.	-0.15212
21101	9.1285	0.18182	0.	-4.8315
21102	9.0361	0.18182	5.e-002	-2.1367e-006
21103	9.0361	9.0909e-002	0.	-0.75467
21104	9.3133	0.18182	0.	-2.0107
21105	9.2209	0.18182	5.e-002	2.485e-006
21106	9.2209	9.0909e-002	0.	-0.44964
21107	9.498	0.18182	0.	-0.58093
21108	9.4056	0.18182	5.e-002	3.5896e-006
21109	9.4056	9.0909e-002	0.	0.1013
21110	9.6827	0.18182	0.	-8.8926e-002
21111	9.5904	0.18182	5.e-002	3.9307e-006
21112	9.5904	9.0909e-002	0.	6.4999e-002
21113	9.8675	0.18182	0.	9.3638e-002
21114	9.7751	0.18182	5.e-002	3.3329e-006
21115	9.7751	9.0909e-002	0.	6.4263e-002
21116	10.052	0.18182	0.	0.13041
21117	9.9598	0.18182	5.e-002	2.1996e-006
21118	9.9598	9.0909e-002	0.	4.0702e-002
21119	10.237	0.18182	0.	0.11777
21120	10.145	0.18182	5.e-002	9.7296e-007
21121	10.145	9.0909e-002	0.	2.9884e-002
21122	10.422	0.18182	0.	9.1211e-002
21123	10.329	0.18182	5.e-002	-7.2617e-009
21124	10.329	9.0909e-002	0.	2.5513e-002
21125	10.606	0.18182	0.	6.5835e-002
21126	10.514	0.18182	5.e-002	-1.7496e-006
21127	10.514	9.0909e-002	0.	2.7093e-002
21128	10.791	0.18182	0.	4.5768e-002
21129	10.699	0.18182	5.e-002	-5.8642e-007
21130	10.699	9.0909e-002	0.	3.1971e-002
21131	10.976	0.18182	0.	3.1107e-002
21132	10.884	0.18182	5.e-002	-8.7879e-007
21133	10.884	9.0909e-002	0.	3.8421e-002
21134	11.161	0.18182	0.	2.0471e-002
21135	11.068	0.18182	5.e-002	2.0571e-007
21136	11.068	9.0909e-002	0.	4.517e-002
21137	11.345	0.18182	0.	1.2129e-002
21138	11.253	0.18182	5.e-002	-6.1681e-007
21139	11.253	9.0909e-002	0.	5.1296e-002
21140	11.53	0.18182	0.	4.4631e-003
21141	11.438	0.18182	5.e-002	1.4764e-006
21142	11.438	9.0909e-002	0.	5.5975e-002
21143	11.715	0.18182	0.	-3.8466e-003
21144	11.622	0.18182	5.e-002	5.2379e-006
21145	11.622	9.0909e-002	0.	5.8498e-002
21146	11.9	0.18182	0.	-1.3758e-002
21147	11.807	0.18182	5.e-002	1.4601e-005
21148	11.807	9.0909e-002	0.	5.8185e-002
21149	12.084	0.18182	0.	-2.5585e-002
21150	11.992	0.18182	5.e-002	9.6141e-005
21151	11.992	9.0909e-002	0.	5.4455e-002
21152	12.269	0.18182	0.	-3.8571e-002
21153	12.177	0.18182	5.e-002	1.0766e-004
21154	12.177	9.0909e-002	0.	4.7255e-002
21155	12.454	0.18182	0.	-5.0703e-002
21156	12.361	0.18182	5.e-002	8.5626e-005
21157	12.361	9.0909e-002	0.	3.7315e-002
21158	12.639	0.18182	0.	-5.9278e-002
21159	12.546	0.18182	5.e-002	4.6815e-005
21160	12.546	9.0909e-002	0.	2.6201e-002
21161	12.823	0.18182	0.	-6.2431e-002
21162	12.731	0.18182	5.e-002	5.2374e-005
21163	12.731	9.0909e-002	0.	1.5794e-002
21164	13.008	0.18182	0.	-6.028e-002
21165	12.916	0.18182	5.e-002	4.8298e-005
21166	12.916	9.0909e-002	0.	7.4606e-003
21167	13.193	0.18182	0.	-5.4518e-002
21168	13.1	0.18182	5.e-002	3.1817e-005
21169	13.1	9.0909e-002	0.	1.7438e-003
21170	13.378	0.18182	0.	-4.7201e-002
21171	13.285	0.18182	5.e-002	3.5777e-005
21172	13.285	9.0909e-002	0.	-1.5909e-003
21173	13.562	0.18182	0.	-3.983e-002
21174	13.47	0.18182	5.e-002	2.5998e-005
21175	13.47	9.0909e-002	0.	-3.1896e-003
21176	13.747	0.18182	0.	-3.3173e-002
21177	13.655	0.18182	5.e-002	3.6037e-005
21178	13.655	9.0909e-002	0.	-3.678e-003
21179	13.932	0.18182	0.	-2.7519e-002
21180	13.839	0.18182	5.e-002	3.8186e-005
21181	13.839	9.0909e-002	0.	-3.5394e-003
21182	14.116	0.18182	0.	-2.2861e-002
21183	14.024	0.18182	5.e-002	3.5135e-005
21184	14.024	9.0909e-002	0.	-3.1485e-003
21185	14.301	0.18182	0.	-1.9046e-002
21186	14.209	0.18182	5.e-002	2.5693e-005
21187	14.209	9.0909e-002	0.	-2.6585e-003
21188	14.486	0.18182	0.	-1.5915e-002
21189	14.394	0.18182	5.e-002	2.5202e-005
21190	14.394	9.0909e-002	0.	-2.1494e-003
21191	14.671	0.18182	0.	-1.335e-002
21192	14.578	0.18182	5.e-002	2.6089e-005
21193	14.578	9.0909e-002	0.	-1.682e-003
21194	14.855	0.18182	0.	-1.1276e-002
21195	14.763	0.18182	5.e-002	2.4199e-005
21196	14.763	9.0909e-002	0.	-1.3071e-003
21197	15.04	0.18182	0.	-9.5968e-003
21198	14.948	0.18182	5.e-002	2.4832e-005
21199	14.948	9.0909e-002	0.	-1.0812e-003
21200	15.225	0.18182	0.	-8.1959e-003
21201	15.133	0.18182	5.e-002	2.2844e-005
21202	15.133	9.0909e-002	0.	-9.4646e-004
21203	15.41	0.18182	0.	-7.0076e-003
21204	15.317	0.18182	5.e-002	2.3927e-005
21205	15.317	9.0909e-002	0.	-8.6109e-004
21206	15.594	0.18182	0.	-6.0006e-003
21207	15.502	0.18182	5.e-002	1.7848e-005
21208	15.502	9.0909e-002	0.	-8.413e-004
21209	15.779	0.18182	0.	-5.1412e-003
21210	15.687	0.18182	5.e-002	1.4553e-005
21211	15.687	9.0909e-002	0.	-8.7412e-004
21212	15.964	0.18182	0.	-4.4217e-003
21213	15.871	0.18182	5.e-002	1.3698e-005
21214	15.871	9.0909e-002	0.	-9.5574e-004
21215	16.149	0.18182	0.	-3.8213e-003
21216	16.056	0.18182	5.e-002	1.0441e-005
21217	16.056	9.0909e-002	0.	-1.1142e-003
21218	16.333	0.18182	0.	-3.2911e-003
21219	16.241	0.18182	5.e-002	8.1536e-006
21220	16.241	9.0909e-002	0.	-1.3053e-003
21221	16.518	0.18182	0.	-2.8054e-003
21222	16.426	0.18182	5.e-002	5.9991e-006
21223	16.426	9.0909e-002	0.	-1.4961e-003
21224	16.703	0.18182	0.	-2.3674e-003
21225	16.61	0.18182	5.e-002	3.2555e-006
21226	16.61	9.0909e-002	0.	-1.6879e-003
21227	16.888	0.18182	0.	-1.995e-003
21228	16.795	0.18182	5.e-002	5.4431e-006
21229	16.795	9.0909e-002	0.	-1.8939e-003
21230	17.072	0.18182	0.	-1.6807e-003
21231	16.98	0.18182	5.e-002	6.2616e-006
21232	16.98	9.0909e-002	0.	-2.1475e-003
21233	17.257	0.18182	0.	-1.3979e-003
21234	17.165	0.18182	5.e-002	7.3946e-006
21235	17.165	9.0909e-002	0.	-2.4109e-003
21236	17.442	0.18182	0.	-1.1403e-003
21237	17.349	0.18182	5.e-002	1.8135e-005
21238	17.349	9.0909e-002	0.	-2.6701e-003
21239	17.627	0.18182	0.	-8.9873e-004
21240	17.534	0.18182	5.e-002	2.0398e-005
21241	17.534	9.0909e-002	0.	-2.9303e-003
21242	17.811	0.18182	0.	-6.7362e-004
21243	17.719	0.18182	5.e-002	2.7178e-005
21244	17.719	9.0909e-002	0.	-3.1766e-003
21245	17.996	0.18182	0.	-4.9199e-004
21246	17.904	0.18182	5.e-002	3.4068e-005
21247	17.904	9.0909e-002	0.	-3.4217e-003
21248	18.181	0.18182	0.	-3.5249e-004
21249	18.088	0.18182	5.e-002	4.2764e-005
21250	18.088	9.0909e-002	0.	-3.7134e-003
21251	18.365	0.18182	0.	-2.2978e-004
21252	18.273	0.18182	5.e-002	4.5251e-005
21253	18.273	9.0909e-002	0.	-4.0036e-003
21254	18.55	0.18182	0.	-1.1604e-004
21255	18.458	0.18182	5.e-002	4.7663e-005
21256	18.458	9.0909e-002	0.	-4.2722e-003
21257	18.735	0.18182	0.	-2.6525e-005
21258	18.643	0.18182	5.e-002	5.116e-005
21259	18.643	9.0909e-002	0.	-4.5347e-003
21260	18.92	0.18182	0.	1.535e-005
21261	18.827	0.18182	5.e-002	5.7118e-005
21262	18.827	9.0909e-002	0.	-4.8016e-003
21263	19.104	0.18182	0.	1.2205e-005
21264	19.012	0.18182	5.e-002	5.2599e-005
21265	19.012	9.0909e-002	0.	-5.0954e-003
21266	19.289	0.18182	0.	-2.7707e-005
21267	19.197	0.18182	5.e-002	5.7142e-005
21268	19.197	9.0909e-002	0.	-5.3886e-003
21269	19.474	0.18182	0.	-1.1221e-004
21270	19.382	0.18182	5.e-002	5.109e-005
21271	19.382	9.0909e-002	0.	-5.6756e-003
21272	19.659	0.18182	0.	-2.4563e-004
21273	19.566	0.18182	5.e-002	4.5635e-005
21274	19.566	9.0909e-002	0.	-5.9626e-003
21275	19.843	0.18182	0.	-4.3882e-004
21276	19.751	0.18182	5.e-002	4.9376e-005
21277	19.751	9.0909e-002	0.	-6.2336e-003
21278	20.028	0.18182	0.	-7.2082e-004
21279	19.936	0.18182	5.e-002	4.015e-005
21280	19.936	9.0909e-002	0.	-6.5027e-003
21281	20.213	0.18182	0.	-1.1056e-003
21282	20.12	0.18182	5.e-002	3.8382e-005
21283	20.12	9.0909e-002	0.	-6.7879e-003
21284	20.398	0.18182	0.	-1.5969e-003
21285	20.305	0.18182	5.e-002	4.3033e-005
21286	20.305	9.0909e-002	0.	-7.0567e-003
21287	20.582	0.18182	0.	-2.2141e-003
21288	20.49	0.18182	5.e-002	3.1301e-005
21289	20.49	9.0909e-002	0.	-7.3018e-003
21290	20.767	0.18182	0.	-2.9911e-003
21291	20.675	0.18182	5.e-002	2.9748e-005
21292	20.675	9.0909e-002	0.	-7.5124e-003
21293	20.952	0.18182	0.	-3.9717e-003
21294	20.859	0.18182	5.e-002	3.1514e-005
21295	20.859	9.0909e-002	0.	-7.6891e-003
21296	21.137	0.18182	0.	-5.1994e-003
21297	21.044	0.18182	5.e-002	3.7281e-005
21298	21.044	9.0909e-002	0.	-7.8268e-003
21299	21.321	0.18182	0.	-6.7227e-003
21300	21.229	0.18182	5.e-002	2.9966e-005
21301	21.229	9.0909e-002	0.	-7.8936e-003
21302	21.506	0.18182	0.	-8.6045e-003
21303	21.414	0.18182	5.e-002	3.1748e-005
21304	21.414	9.0909e-002	0.	-7.8607e-003
21305	21.691	0.18182	0.	-1.0935e-002
21306	21.598	0.18182	5.e-002	3.6391e-005
21307	21.598	9.0909e-002	0.	-7.6831e-003
21308	21.876	0.18182	0.	-1.3839e-002
21309	21.783	0.18182	5.e-002	3.3461e-005
21310	21.783	9.0909e-002	0.	-7.3122e-003
21311	22.06	0.18182	0.	-1.7469e-002
21312	21.968	0.18182	5.e-002	2.7459e-005
21313	21.968	9.0909e-002	0.	-6.6775e-003
21314	22.245	0.18182	0.	-2.2027e-002
21315	22.153	0.18182	5.e-002	2.796e-005
21316	22.153	9.0909e-002	0.	-5.6715e-003
21317	22.43	0.18182	0.	-2.778e-002
21318	22.337	0.18182	5.e-002	2.2922e-005
21319	22.337	9.0909e-002	0.	-4.1107e-003
21320	22.614	0.18182	0.	-3.5154e-002
21321	22.522	0.18182	5.e-002	1.6689e-005
21322	22.522	9.0909e-002	0.	-1.7104e-003
21323	22.799	0.18182	0.	-4.4557e-002
21324	22.707	0.18182	5.e-002	2.1172e-005
21325	22.707	9.0909e-002	0.	1.8775e-003
21326	22.984	0.18182	0.	-5.7376e-002
21327	22.892	0.18182	5.e-002	2.1299e-005
21328	22.892	9.0909e-002	0.	7.756e-003
21329	23.169	0.18182	0.	-7.2643e-002
21330	23.076	0.18182	5.e-002	1.1442e-005
21331	23.076	9.0909e-002	0.	1.5917e-002
21332	23.353	0.18182	0.	-0.10034
21333	23.261	0.18182	5.e-002	7.4986e-006
21334	23.261	9.0909e-002	0.	3.4683e-002
21335	23.538	0.18182	0.	-0.11496
21336	23.446	0.18182	5.e-002	1.0988e-005
21337	23.446	9.0909e-002	0.	4.8165e-002
21338	23.723	0.18182	0.	-0.30976
21339	23.631	0.18182	5.e-002	6.7234e-006
21340	23.631	9.0909e-002	0.	0.14368
21341	23.815	0.18182	5.e-002	3.1664e-006
21342	23.815	9.0909e-002	0.	-7.1974e-002
21343	23.908	0.18182	0.	-3.7686e-002
21344	23.723	0.18182	0.1	0.30976
21345	23.815	0.27273	0.1	0.38396
21346	23.908	0.18182	0.1	3.7685e-002
21347	23.815	9.0909e-002	0.1	7.1973e-002
21348	23.538	0.18182	0.1	0.11496
21349	23.631	0.27273	0.1	5.3091e-002
21350	23.631	9.0909e-002	0.1	-0.14368
21351	23.353	0.18182	0.1	0.10033
21352	23.446	0.27273	0.1	0.11425
21353	23.446	9.0909e-002	0.1	-4.8165e-002
21354	23.169	0.18182	0.1	7.2641e-002
21355	23.261	0.27273	0.1	8.9165e-002
21356	23.261	9.0909e-002	0.1	-3.4684e-002
21357	22.984	0.18182	0.1	5.7376e-002
21358	23.076	0.27273	0.1	8.3629e-002
21359	23.076	9.0909e-002	0.1	-1.592e-002
21360	22.799	0.18182	0.1	4.4555e-002
21361	22.892	0.27273	0.1	7.3209e-002
21362	22.892	9.0909e-002	0.1	-7.7522e-003
21363	22.614	0.18182	0.1	3.5154e-002
21364	22.707	0.27273	0.1	6.5249e-002
21365	22.707	9.0909e-002	0.1	-1.8809e-003
21366	22.43	0.18182	0.1	2.7782e-002
21367	22.522	0.27273	0.1	5.8001e-002
21368	22.522	9.0909e-002	0.1	1.7116e-003
21369	22.245	0.18182	0.1	2.2026e-002
21370	22.337	0.27273	0.1	5.1808e-002
21371	22.337	9.0909e-002	0.1	4.1142e-003
21372	22.06	0.18182	0.1	1.7467e-002
21373	22.153	0.27273	0.1	4.6424e-002
21374	22.153	9.0909e-002	0.1	5.6695e-003
21375	21.876	0.18182	0.1	1.384e-002
21376	21.968	0.27273	0.1	4.1757e-002
21377	21.968	9.0909e-002	0.1	6.6787e-003
21378	21.691	0.18182	0.1	1.0938e-002
21379	21.783	0.27273	0.1	3.7701e-002
21380	21.783	9.0909e-002	0.1	7.3145e-003
21381	21.506	0.18182	0.1	8.6049e-003
21382	21.598	0.27273	0.1	3.4153e-002
21383	21.598	9.0909e-002	0.1	7.6858e-003
21384	21.321	0.18182	0.1	6.7223e-003
21385	21.414	0.27273	0.1	3.1031e-002
21386	21.414	9.0909e-002	0.1	7.8618e-003
21387	21.137	0.18182	0.1	5.1999e-003
21388	21.229	0.27273	0.1	2.8274e-002
21389	21.229	9.0909e-002	0.1	7.8949e-003
21390	20.952	0.18182	0.1	3.9716e-003
21391	21.044	0.27273	0.1	2.5827e-002
21392	21.044	9.0909e-002	0.1	7.8285e-003
21393	20.767	0.18182	0.1	2.99e-003
21394	20.859	0.27273	0.1	2.3649e-002
21395	20.859	9.0909e-002	0.1	7.688e-003
21396	20.582	0.18182	0.1	2.214e-003
21397	20.675	0.27273	0.1	2.1714e-002
21398	20.675	9.0909e-002	0.1	7.512e-003
21399	20.398	0.18182	0.1	1.5975e-003
21400	20.49	0.27273	0.1	1.9984e-002
21401	20.49	9.0909e-002	0.1	7.3018e-003
21402	20.213	0.18182	0.1	1.1055e-003
21403	20.305	0.27273	0.1	1.8416e-002
21404	20.305	9.0909e-002	0.1	7.0602e-003
21405	20.028	0.18182	0.1	7.1993e-004
21406	20.12	0.27273	0.1	1.6988e-002
21407	20.12	9.0909e-002	0.1	6.7866e-003
21408	19.843	0.18182	0.1	4.383e-004
21409	19.936	0.27273	0.1	1.569e-002
21410	19.936	9.0909e-002	0.1	6.5033e-003
21411	19.659	0.18182	0.1	2.4588e-004
21412	19.751	0.27273	0.1	1.4527e-002
21413	19.751	9.0909e-002	0.1	6.2343e-003
21414	19.474	0.18182	0.1	1.1302e-004
21415	19.566	0.27273	0.1	1.3463e-002
21416	19.566	9.0909e-002	0.1	5.9631e-003
21417	19.289	0.18182	0.1	2.8584e-005
21418	19.382	0.27273	0.1	1.2472e-002
21419	19.382	9.0909e-002	0.1	5.6773e-003
21420	19.104	0.18182	0.1	-1.2059e-005
21421	19.197	0.27273	0.1	1.155e-002
21422	19.197	9.0909e-002	0.1	5.3888e-003
21423	18.92	0.18182	0.1	-1.6078e-005
21424	19.012	0.27273	0.1	1.0688e-002
21425	19.012	9.0909e-002	0.1	5.095e-003
21426	18.735	0.18182	0.1	2.6344e-005
21427	18.827	0.27273	0.1	9.8774e-003
21428	18.827	9.0909e-002	0.1	4.8021e-003
21429	18.55	0.18182	0.1	1.1567e-004
21430	18.643	0.27273	0.1	9.1385e-003
21431	18.643	9.0909e-002	0.1	4.5351e-003
21432	18.365	0.18182	0.1	2.2893e-004
21433	18.458	0.27273	0.1	8.4427e-003
21434	18.458	9.0909e-002	0.1	4.2725e-003
21435	18.181	0.18182	0.1	3.5264e-004
21436	18.273	0.27273	0.1	7.7626e-003
21437	18.273	9.0909e-002	0.1	4.0026e-003
21438	17.996	0.18182	0.1	4.9193e-004
21439	18.088	0.27273	0.1	7.0936e-003
21440	18.088	9.0909e-002	0.1	3.7144e-003
21441	17.811	0.18182	0.1	6.7291e-004
21442	17.904	0.27273	0.1	6.4471e-003
21443	17.904	9.0909e-002	0.1	3.4222e-003
21444	17.627	0.18182	0.1	8.9808e-004
21445	17.719	0.27273	0.1	5.8479e-003
21446	17.719	9.0909e-002	0.1	3.1763e-003
21447	17.442	0.18182	0.1	1.1405e-003
21448	17.534	0.27273	0.1	5.2686e-003
21449	17.534	9.0909e-002	0.1	2.9327e-003
21450	17.257	0.18182	0.1	1.3971e-003
21451	17.349	0.27273	0.1	4.6753e-003
21452	17.349	9.0909e-002	0.1	2.6704e-003
21453	17.072	0.18182	0.1	1.6795e-003
21454	17.165	0.27273	0.1	4.0824e-003
21455	17.165	9.0909e-002	0.1	2.4095e-003
21456	16.888	0.18182	0.1	1.9948e-003
21457	16.98	0.27273	0.1	3.4915e-003
21458	16.98	9.0909e-002	0.1	2.1477e-003
21459	16.703	0.18182	0.1	2.3669e-003
21460	16.795	0.27273	0.1	2.9028e-003
21461	16.795	9.0909e-002	0.1	1.8955e-003
21462	16.518	0.18182	0.1	2.8058e-003
21463	16.61	0.27273	0.1	2.3525e-003
21464	16.61	9.0909e-002	0.1	1.6865e-003
21465	16.333	0.18182	0.1	3.2917e-003
21466	16.426	0.27273	0.1	1.8128e-003
21467	16.426	9.0909e-002	0.1	1.4978e-003
21468	16.149	0.18182	0.1	3.8213e-003
21469	16.241	0.27273	0.1	1.2622e-003
21470	16.241	9.0909e-002	0.1	1.3052e-003
21471	15.964	0.18182	0.1	4.4213e-003
21472	16.056	0.27273	0.1	7.0412e-004
21473	16.056	9.0909e-002	0.1	1.1146e-003
21474	15.779	0.18182	0.1	5.1399e-003
21475	15.871	0.27273	0.1	1.771e-004
21476	15.871	9.0909e-002	0.1	9.5508e-004
21477	15.594	0.18182	0.1	5.9999e-003
21478	15.687	0.27273	0.1	-2.6432e-004
21479	15.687	9.0909e-002	0.1	8.7402e-004
21480	15.41	0.18182	0.1	7.0075e-003
21481	15.502	0.27273	0.1	-6.3354e-004
21482	15.502	9.0909e-002	0.1	8.4171e-004
21483	15.225	0.18182	0.1	8.1954e-003
21484	15.317	0.27273	0.1	-8.959e-004
21485	15.317	9.0909e-002	0.1	8.6176e-004
21486	15.04	0.18182	0.1	9.5962e-003
21487	15.133	0.27273	0.1	-9.9551e-004
21488	15.133	9.0909e-002	0.1	9.4728e-004
21489	14.855	0.18182	0.1	1.1275e-002
21490	14.948	0.27273	0.1	-8.6526e-004
21491	14.948	9.0909e-002	0.1	1.0807e-003
21492	14.671	0.18182	0.1	1.335e-002
21493	14.763	0.27273	0.1	-3.2176e-004
21494	14.763	9.0909e-002	0.1	1.3082e-003
21495	14.486	0.18182	0.1	1.5915e-002
21496	14.578	0.27273	0.1	9.2801e-004
21497	14.578	9.0909e-002	0.1	1.6816e-003
21498	14.301	0.18182	0.1	1.9046e-002
21499	14.394	0.27273	0.1	3.258e-003
21500	14.394	9.0909e-002	0.1	2.1497e-003
21501	14.116	0.18182	0.1	2.2861e-002
21502	14.209	0.27273	0.1	7.4223e-003
21503	14.209	9.0909e-002	0.1	2.6594e-003
21504	13.932	0.18182	0.1	2.7518e-002
21505	14.024	0.27273	0.1	1.5031e-002
21506	14.024	9.0909e-002	0.1	3.149e-003
21507	13.747	0.18182	0.1	3.3173e-002
21508	13.839	0.27273	0.1	2.9847e-002
21509	13.839	9.0909e-002	0.1	3.5404e-003
21510	13.562	0.18182	0.1	3.9829e-002
21511	13.655	0.27273	0.1	6.1945e-002
21512	13.655	9.0909e-002	0.1	3.6775e-003
21513	13.378	0.18182	0.1	4.7201e-002
21514	13.47	0.27273	0.1	0.14152
21515	13.47	9.0909e-002	0.1	3.1901e-003
21516	13.193	0.18182	0.1	5.4519e-002
21517	13.285	0.27273	0.1	0.32458
21518	13.285	9.0909e-002	0.1	1.5915e-003
21519	13.008	0.18182	0.1	6.0281e-002
21520	13.1	0.27273	0.1	0.55763
21521	13.1	9.0909e-002	0.1	-1.7431e-003
21522	12.823	0.18182	0.1	6.2432e-002
21523	12.916	0.27273	0.1	0.69357
21524	12.916	9.0909e-002	0.1	-7.4608e-003
21525	12.639	0.18182	0.1	5.9277e-002
21526	12.731	0.27273	0.1	0.65349
21527	12.731	9.0909e-002	0.1	-1.5794e-002
21528	12.454	0.18182	0.1	5.0703e-002
21529	12.546	0.27273	0.1	0.44041
21530	12.546	9.0909e-002	0.1	-2.6202e-002
21531	12.269	0.18182	0.1	3.8571e-002
21532	12.361	0.27273	0.1	0.2123
21533	12.361	9.0909e-002	0.1	-3.7315e-002
21534	12.084	0.18182	0.1	2.5585e-002
21535	12.177	0.27273	0.1	0.10369
21536	12.177	9.0909e-002	0.1	-4.7255e-002
21537	11.9	0.18182	0.1	1.3758e-002
21538	11.992	0.27273	0.1	6.005e-002
21539	11.992	9.0909e-002	0.1	-5.4454e-002
21540	11.715	0.18182	0.1	3.8469e-003
21541	11.807	0.27273	0.1	4.0745e-002
21542	11.807	9.0909e-002	0.1	-5.8185e-002
21543	11.53	0.18182	0.1	-4.4631e-003
21544	11.622	0.27273	0.1	3.2294e-002
21545	11.622	9.0909e-002	0.1	-5.8498e-002
21546	11.345	0.18182	0.1	-1.2129e-002
21547	11.438	0.27273	0.1	2.9664e-002
21548	11.438	9.0909e-002	0.1	-5.5975e-002
21549	11.161	0.18182	0.1	-2.047e-002
21550	11.253	0.27273	0.1	3.0638e-002
21551	11.253	9.0909e-002	0.1	-5.1296e-002
21552	10.976	0.18182	0.1	-3.1107e-002
21553	11.068	0.27273	0.1	3.4021e-002
21554	11.068	9.0909e-002	0.1	-4.5169e-002
21555	10.791	0.18182	0.1	-4.5769e-002
21556	10.884	0.27273	0.1	3.9026e-002
21557	10.884	9.0909e-002	0.1	-3.8421e-002
21558	10.606	0.18182	0.1	-6.5836e-002
21559	10.699	0.27273	0.1	4.535e-002
21560	10.699	9.0909e-002	0.1	-3.1971e-002
21561	10.422	0.18182	0.1	-9.1211e-002
21562	10.514	0.27273	0.1	5.347e-002
21563	10.514	9.0909e-002	0.1	-2.7093e-002
21564	10.237	0.18182	0.1	-0.11777
21565	10.329	0.27273	0.1	6.5886e-002
21566	10.329	9.0909e-002	0.1	-2.5513e-002
21567	10.052	0.18182	0.1	-0.13041
21568	10.145	0.27273	0.1	8.9742e-002
21569	10.145	9.0909e-002	0.1	-2.9884e-002
21570	9.8675	0.18182	0.1	-9.3638e-002
21571	9.9598	0.27273	0.1	0.1462
21572	9.9598	9.0909e-002	0.1	-4.0702e-002
21573	9.6827	0.18182	0.1	8.8926e-002
21574	9.7751	0.27273	0.1	0.27799
21575	9.7751	9.0909e-002	0.1	-6.4263e-002
21576	9.498	0.18182	0.1	0.58093
21577	9.5904	0.27273	0.1	0.62307
21578	9.5904	9.0909e-002	0.1	-6.4999e-002
21579	9.3133	0.18182	0.1	2.0107
21580	9.4056	0.27273	0.1	1.3585
21581	9.4056	9.0909e-002	0.1	-0.1013
21582	9.1285	0.18182	0.1	4.8315
21583	9.2209	0.27273	0.1	3.5026
21584	9.2209	9.0909e-002	0.1	0.44964
21585	8.9438	0.18182	0.1	15.146
21586	9.0361	0.27273	0.1	6.0932
21587	9.0361	9.0909e-002	0.1	0.75467
21588	8.8514	0.27273	0.1	14.899
21589	8.759	0.18182	0.1	0.15212
21590	8.8514	9.0909e-002	0.1	12.579
21591	23.723	0.36364	0.1	0.16105
21592	23.815	0.45455	0.1	0.15128
21593	23.908	0.36364	0.1	-0.16009
21594	23.538	0.36364	0.1	4.9281e-002
21595	23.631	0.45455	0.1	-0.10081
21596	23.353	0.36364	0.1	9.003e-002
21597	23.446	0.45455	0.1	2.7497e-002
21598	23.169	0.36364	0.1	8.4482e-002
21599	23.261	0.45455	0.1	2.3711e-002
21600	22.984	0.36364	0.1	8.3585e-002
21601	23.076	0.45455	0.1	3.6974e-002
21602	22.799	0.36364	0.1	7.8703e-002
21603	22.892	0.45455	0.1	3.8629e-002
21604	22.614	0.36364	0.1	7.3877e-002
21605	22.707	0.45455	0.1	3.9569e-002
21606	22.43	0.36364	0.1	6.8862e-002
21607	22.522	0.45455	0.1	3.881e-002
21608	22.245	0.36364	0.1	6.4073e-002
21609	22.337	0.45455	0.1	3.7497e-002
21610	22.06	0.36364	0.1	5.9553e-002
21611	22.153	0.45455	0.1	3.5818e-002
21612	21.876	0.36364	0.1	5.5356e-002
21613	21.968	0.45455	0.1	3.4003e-002
21614	21.691	0.36364	0.1	5.1478e-002
21615	21.783	0.45455	0.1	3.2162e-002
21616	21.506	0.36364	0.1	4.7895e-002
21617	21.598	0.45455	0.1	3.0344e-002
21618	21.321	0.36364	0.1	4.4585e-002
21619	21.414	0.45455	0.1	2.8574e-002
21620	21.137	0.36364	0.1	4.153e-002
21621	21.229	0.45455	0.1	2.688e-002
21622	20.952	0.36364	0.1	3.8705e-002
21623	21.044	0.45455	0.1	2.5268e-002
21624	20.767	0.36364	0.1	3.6098e-002
21625	20.859	0.45455	0.1	2.3741e-002
21626	20.582	0.36364	0.1	3.3689e-002
21627	20.675	0.45455	0.1	2.2314e-002
21628	20.398	0.36364	0.1	3.1448e-002
21629	20.49	0.45455	0.1	2.0971e-002
21630	20.213	0.36364	0.1	2.935e-002
21631	20.305	0.45455	0.1	1.9698e-002
21632	20.028	0.36364	0.1	2.7384e-002
21633	20.12	0.45455	0.1	1.8483e-002
21634	19.843	0.36364	0.1	2.5554e-002
21635	19.936	0.45455	0.1	1.7337e-002
21636	19.659	0.36364	0.1	2.3843e-002
21637	19.751	0.45455	0.1	1.6274e-002
21638	19.474	0.36364	0.1	2.2224e-002
21639	19.566	0.45455	0.1	1.5267e-002
21640	19.289	0.36364	0.1	2.068e-002
21641	19.382	0.45455	0.1	1.4296e-002
21642	19.104	0.36364	0.1	1.9205e-002
21643	19.197	0.45455	0.1	1.3362e-002
21644	18.92	0.36364	0.1	1.779e-002
21645	19.012	0.45455	0.1	1.2462e-002
21646	18.735	0.36364	0.1	1.644e-002
21647	18.827	0.45455	0.1	1.1593e-002
21648	18.55	0.36364	0.1	1.5149e-002
21649	18.643	0.45455	0.1	1.0775e-002
21650	18.365	0.36364	0.1	1.3884e-002
21651	18.458	0.45455	0.1	9.9803e-003
21652	18.181	0.36364	0.1	1.2628e-002
21653	18.273	0.45455	0.1	9.1844e-003
21654	17.996	0.36364	0.1	1.1386e-002
21655	18.088	0.45455	0.1	8.3826e-003
21656	17.811	0.36364	0.1	1.0168e-002
21657	17.904	0.45455	0.1	7.5903e-003
21658	17.627	0.36364	0.1	8.9698e-003
21659	17.719	0.45455	0.1	6.827e-003
21660	17.442	0.36364	0.1	7.7593e-003
21661	17.534	0.45455	0.1	6.0674e-003
21662	17.257	0.36364	0.1	6.5203e-003
21663	17.349	0.45455	0.1	5.2755e-003
21664	17.072	0.36364	0.1	5.2576e-003
21665	17.165	0.45455	0.1	4.461e-003
21666	16.888	0.36364	0.1	3.966e-003
21667	16.98	0.45455	0.1	3.6255e-003
21668	16.703	0.36364	0.1	2.6575e-003
21669	16.795	0.45455	0.1	2.7633e-003
21670	16.518	0.36364	0.1	1.3289e-003
21671	16.61	0.45455	0.1	1.9051e-003
21672	16.333	0.36364	0.1	-5.2014e-005
21673	16.426	0.45455	0.1	1.0165e-003
21674	16.149	0.36364	0.1	-1.5048e-003
21675	16.241	0.45455	0.1	6.7193e-005
21676	15.964	0.36364	0.1	-3.0219e-003
21677	16.056	0.45455	0.1	-9.5461e-004
21678	15.779	0.36364	0.1	-4.5706e-003
21679	15.871	0.45455	0.1	-2.0236e-003
21680	15.594	0.36364	0.1	-6.1517e-003
21681	15.687	0.45455	0.1	-3.1109e-003
21682	15.41	0.36364	0.1	-7.7794e-003
21683	15.502	0.45455	0.1	-4.2616e-003
21684	15.225	0.36364	0.1	-9.441e-003
21685	15.317	0.45455	0.1	-5.4855e-003
21686	15.04	0.36364	0.1	-1.1115e-002
21687	15.133	0.45455	0.1	-6.7935e-003
21688	14.855	0.36364	0.1	-1.2711e-002
21689	14.948	0.45455	0.1	-8.2158e-003
21690	14.671	0.36364	0.1	-1.3973e-002
21691	14.763	0.45455	0.1	-9.7123e-003
21692	14.486	0.36364	0.1	-1.4161e-002
21693	14.578	0.45455	0.1	0.3293
21694	14.301	0.36364	0.1	-8.256e-003
21695	14.394	0.45455	0.1	1.4341
21696	14.116	0.36364	0.1	0.31415
21697	14.209	0.45455	0.1	2.5251
21698	13.932	0.36364	0.1	1.1709
21699	14.024	0.45455	0.1	3.5858
21700	13.747	0.36364	0.1	1.981
21701	13.839	0.45455	0.1	4.5954
21702	13.562	0.36364	0.1	2.7049
21703	13.655	0.45455	0.1	5.5278
21704	13.378	0.36364	0.1	3.3097
21705	13.47	0.45455	0.1	6.3508
21706	13.193	0.36364	0.1	3.7567
21707	13.285	0.45455	0.1	7.025
21708	13.008	0.36364	0.1	4.
21709	13.1	0.45455	0.1	7.5032
21710	12.823	0.36364	0.1	3.9857
21711	12.916	0.45455	0.1	7.7288
21712	12.639	0.36364	0.1	3.6519
21713	12.731	0.45455	0.1	7.6357
21714	12.454	0.36364	0.1	2.9318
21715	12.546	0.45455	0.1	7.1478
21716	12.269	0.36364	0.1	1.7755
21717	12.361	0.45455	0.1	6.1792
21718	12.084	0.36364	0.1	0.47567
21719	12.177	0.45455	0.1	4.6418
21720	11.9	0.36364	0.1	0.13818
21721	11.992	0.45455	0.1	2.4958
21722	11.715	0.36364	0.1	8.8707e-002
21723	11.807	0.45455	0.1	0.53938
21724	11.53	0.36364	0.1	7.9684e-002
21725	11.622	0.45455	0.1	0.19511
21726	11.345	0.36364	0.1	8.4845e-002
21727	11.438	0.45455	0.1	0.13795
21728	11.161	0.36364	0.1	9.843e-002
21729	11.253	0.45455	0.1	0.126
21730	10.976	0.36364	0.1	0.11879
21731	11.068	0.45455	0.1	0.13169
21732	10.791	0.36364	0.1	0.1457
21733	10.884	0.45455	0.1	0.1491
21734	10.606	0.36364	0.1	0.1798
21735	10.699	0.45455	0.1	0.17768
21736	10.422	0.36364	0.1	0.22289
21737	10.514	0.45455	0.1	0.21946
21738	10.237	0.36364	0.1	0.27913
21739	10.329	0.45455	0.1	0.27918
21740	10.052	0.36364	0.1	0.35973
21741	10.145	0.45455	0.1	0.36571
21742	9.8675	0.36364	0.1	0.48914
21743	9.9598	0.45455	0.1	0.49916
21744	9.6827	0.36364	0.1	0.7415
21745	9.7751	0.45455	0.1	0.71239
21746	9.498	0.36364	0.1	1.2402
21747	9.5904	0.45455	0.1	1.1109
21748	9.3133	0.36364	0.1	2.5026
21749	9.4056	0.45455	0.1	1.7532
21750	9.1285	0.36364	0.1	4.3031
21751	9.2209	0.45455	0.1	3.245
21752	8.9438	0.36364	0.1	8.721
21753	9.0361	0.45455	0.1	3.5058
21754	8.8514	0.45455	0.1	8.7927
21755	8.759	0.36364	0.1	-2.7909
21756	23.723	0.54545	0.1	-4.865e-002
21757	23.815	0.63636	0.1	3.2948e-003
21758	23.908	0.54545	0.1	-0.35325
21759	23.538	0.54545	0.1	-0.10246
21760	23.631	0.63636	0.1	-0.2056
21761	23.353	0.54545	0.1	-2.8285e-002
21762	23.446	0.63636	0.1	-4.923e-002
21763	23.169	0.54545	0.1	-1.7251e-002
21764	23.261	0.63636	0.1	-4.2783e-002
21765	22.984	0.54545	0.1	-3.5822e-003
21766	23.076	0.63636	0.1	-1.9658e-002
21767	22.799	0.54545	0.1	2.5808e-003
21768	22.892	0.63636	0.1	-1.0753e-002
21769	22.614	0.54545	0.1	6.7241e-003
21770	22.707	0.63636	0.1	-3.7975e-003
21771	22.43	0.54545	0.1	9.072e-003
21772	22.522	0.63636	0.1	3.7287e-004
21773	22.245	0.54545	0.1	1.0445e-002
21774	22.337	0.63636	0.1	3.1888e-003
21775	22.06	0.54545	0.1	1.1158e-002
21776	22.153	0.63636	0.1	5.0028e-003
21777	21.876	0.54545	0.1	1.1466e-002
21778	21.968	0.63636	0.1	6.1813e-003
21779	21.691	0.54545	0.1	1.1506e-002
21780	21.783	0.63636	0.1	6.9268e-003
21781	21.506	0.54545	0.1	1.1364e-002
21782	21.598	0.63636	0.1	7.3683e-003
21783	21.321	0.54545	0.1	1.1103e-002
21784	21.414	0.63636	0.1	7.5863e-003
21785	21.137	0.54545	0.1	1.0768e-002
21786	21.229	0.63636	0.1	7.6513e-003
21787	20.952	0.54545	0.1	1.0386e-002
21788	21.044	0.63636	0.1	7.6117e-003
21789	20.767	0.54545	0.1	9.9864e-003
21790	20.859	0.63636	0.1	7.4952e-003
21791	20.582	0.54545	0.1	9.5832e-003
21792	20.675	0.63636	0.1	7.3418e-003
21793	20.398	0.54545	0.1	9.1744e-003
21794	20.49	0.63636	0.1	7.1559e-003
21795	20.213	0.54545	0.1	8.7576e-003
21796	20.305	0.63636	0.1	6.9366e-003
21797	20.028	0.54545	0.1	8.3413e-003
21798	20.12	0.63636	0.1	6.6888e-003
21799	19.843	0.54545	0.1	7.9466e-003
21800	19.936	0.63636	0.1	6.4322e-003
21801	19.659	0.54545	0.1	7.5741e-003
21802	19.751	0.63636	0.1	6.1937e-003
21803	19.474	0.54545	0.1	7.2056e-003
21804	19.566	0.63636	0.1	5.9543e-003
21805	19.289	0.54545	0.1	6.8363e-003
21806	19.382	0.63636	0.1	5.6985e-003
21807	19.104	0.54545	0.1	6.4718e-003
21808	19.197	0.63636	0.1	5.438e-003
21809	18.92	0.54545	0.1	6.1148e-003
21810	19.012	0.63636	0.1	5.1744e-003
21811	18.735	0.54545	0.1	5.7764e-003
21812	18.827	0.63636	0.1	4.9144e-003
21813	18.55	0.54545	0.1	5.4554e-003
21814	18.643	0.63636	0.1	4.6758e-003
21815	18.365	0.54545	0.1	5.1315e-003
21816	18.458	0.63636	0.1	4.441e-003
21817	18.181	0.54545	0.1	4.7927e-003
21818	18.273	0.63636	0.1	4.1908e-003
21819	17.996	0.54545	0.1	4.4462e-003
21820	18.088	0.63636	0.1	3.9209e-003
21821	17.811	0.54545	0.1	4.1158e-003
21822	17.904	0.63636	0.1	3.6511e-003
21823	17.627	0.54545	0.1	3.7999e-003
21824	17.719	0.63636	0.1	3.4115e-003
21825	17.442	0.54545	0.1	3.471e-003
21826	17.534	0.63636	0.1	3.1748e-003
21827	17.257	0.54545	0.1	3.119e-003
21828	17.349	0.63636	0.1	2.9117e-003
21829	17.072	0.54545	0.1	2.7516e-003
21830	17.165	0.63636	0.1	2.6372e-003
21831	16.888	0.54545	0.1	2.3709e-003
21832	16.98	0.63636	0.1	2.3569e-003
21833	16.703	0.54545	0.1	1.9919e-003
21834	16.795	0.63636	0.1	2.0745e-003
21835	16.518	0.54545	0.1	1.6169e-003
21836	16.61	0.63636	0.1	1.8281e-003
21837	16.333	0.54545	0.1	1.2175e-003
21838	16.426	0.63636	0.1	1.5987e-003
21839	16.149	0.54545	0.1	7.7726e-004
21840	16.241	0.63636	0.1	1.3718e-003
21841	15.964	0.54545	0.1	3.1269e-004
21842	16.056	0.63636	0.1	1.1777e-003
21843	15.779	0.54545	0.1	-1.3585e-004
21844	15.871	0.63636	0.1	1.1204e-003
21845	15.594	0.54545	0.1	-5.4602e-004
21846	15.687	0.63636	0.1	1.4386e-003
21847	15.41	0.54545	0.1	-8.6392e-004
21848	15.502	0.63636	0.1	2.8981e-003
21849	15.225	0.54545	0.1	-7.7649e-004
21850	15.317	0.63636	0.1	1.3957e-002
21851	15.04	0.54545	0.1	3.6001e-003
21852	15.133	0.63636	0.1	0.8146
21853	14.855	0.54545	0.1	0.79962
21854	14.948	0.63636	0.1	2.1805
21855	14.671	0.54545	0.1	2.0487
21856	14.763	0.63636	0.1	3.5814
21857	14.486	0.54545	0.1	3.3082
21858	14.578	0.63636	0.1	5.0057
21859	14.301	0.54545	0.1	4.5642
21860	14.394	0.63636	0.1	6.442
21861	14.116	0.54545	0.1	5.8004
21862	14.209	0.63636	0.1	7.8761
21863	13.932	0.54545	0.1	6.9963
21864	14.024	0.63636	0.1	9.2894
21865	13.747	0.54545	0.1	8.1259
21866	13.839	0.63636	0.1	10.658
21867	13.562	0.54545	0.1	9.1567
21868	13.655	0.63636	0.1	11.952
21869	13.378	0.54545	0.1	10.049
21870	13.47	0.63636	0.1	13.135
21871	13.193	0.54545	0.1	10.755
21872	13.285	0.63636	0.1	14.16
21873	13.008	0.54545	0.1	11.216
21874	13.1	0.63636	0.1	14.974
21875	12.823	0.54545	0.1	11.364
21876	12.916	0.63636	0.1	15.509
21877	12.639	0.54545	0.1	11.119
21878	12.731	0.63636	0.1	15.689
21879	12.454	0.54545	0.1	10.391
21880	12.546	0.63636	0.1	15.424
21881	12.269	0.54545	0.1	9.0782
21882	12.361	0.63636	0.1	14.612
21883	12.084	0.54545	0.1	7.0754
21884	12.177	0.63636	0.1	13.139
21885	11.9	0.54545	0.1	4.3146
21886	11.992	0.63636	0.1	10.885
21887	11.715	0.54545	0.1	1.2804
21888	11.807	0.63636	0.1	7.7485
21889	11.53	0.54545	0.1	0.35766
21890	11.622	0.63636	0.1	3.8054
21891	11.345	0.54545	0.1	0.22415
21892	11.438	0.63636	0.1	0.95412
21893	11.161	0.54545	0.1	0.18974
21894	11.253	0.63636	0.1	0.45334
21895	10.976	0.54545	0.1	0.18721
21896	11.068	0.63636	0.1	0.34995
21897	10.791	0.54545	0.1	0.20398
21898	10.884	0.63636	0.1	0.33016
21899	10.606	0.54545	0.1	0.2388
21900	10.699	0.63636	0.1	0.34879
21901	10.422	0.54545	0.1	0.29539
21902	10.514	0.63636	0.1	0.39728
21903	10.237	0.54545	0.1	0.38187
21904	10.329	0.63636	0.1	0.47798
21905	10.052	0.54545	0.1	0.51396
21906	10.145	0.63636	0.1	0.59939
21907	9.8675	0.54545	0.1	0.71668
21908	9.9598	0.63636	0.1	0.77927
21909	9.6827	0.54545	0.1	1.0495
21910	9.7751	0.63636	0.1	1.0368
21911	9.498	0.54545	0.1	1.5583
21912	9.5904	0.63636	0.1	1.4337
21913	9.3133	0.54545	0.1	2.4889
21914	9.4056	0.63636	0.1	1.8995
21915	9.1285	0.54545	0.1	3.0412
21916	9.2209	0.63636	0.1	2.8392
21917	8.9438	0.54545	0.1	5.8603
21918	9.0361	0.63636	0.1	2.0252
21919	8.8514	0.63636	0.1	7.4075
21920	8.759	0.54545	0.1	-1.7424
21921	23.723	0.72727	0.1	-9.1205e-002
21922	23.815	0.81818	0.1	-4.8343e-002
21923	23.908	0.72727	0.1	-0.3658
21924	23.538	0.72727	0.1	-0.13562
21925	23.631	0.81818	0.1	-0.24035
21926	23.353	0.72727	0.1	-5.5669e-002
21927	23.446	0.81818	0.1	-7.6696e-002
21928	23.169	0.72727	0.1	-4.0175e-002
21929	23.261	0.81818	0.1	-6.6262e-002
21930	22.984	0.72727	0.1	-2.3304e-002
21931	23.076	0.81818	0.1	-4.0232e-002
21932	22.799	0.72727	0.1	-1.4492e-002
21933	22.892	0.81818	0.1	-2.9e-002
21934	22.614	0.72727	0.1	-8.0961e-003
21935	22.707	0.81818	0.1	-2.0003e-002
21936	22.43	0.72727	0.1	-3.8736e-003
21937	22.522	0.81818	0.1	-1.4091e-002
21938	22.245	0.72727	0.1	-9.2475e-004
21939	22.337	0.81818	0.1	-9.7737e-003
21940	22.06	0.72727	0.1	1.1181e-003
21941	22.153	0.81818	0.1	-6.6607e-003
21942	21.876	0.72727	0.1	2.5491e-003
21943	21.968	0.81818	0.1	-4.3595e-003
21944	21.691	0.72727	0.1	3.5469e-003
21945	21.783	0.81818	0.1	-2.6394e-003
21946	21.506	0.72727	0.1	4.2281e-003
21947	21.598	0.81818	0.1	-1.3431e-003
21948	21.321	0.72727	0.1	4.6735e-003
21949	21.414	0.81818	0.1	-3.7475e-004
21950	21.137	0.72727	0.1	4.9512e-003
21951	21.229	0.81818	0.1	3.5361e-004
21952	20.952	0.72727	0.1	5.1067e-003
21953	21.044	0.81818	0.1	9.0051e-004
21954	20.767	0.72727	0.1	5.1775e-003
21955	20.859	0.81818	0.1	1.3097e-003
21956	20.582	0.72727	0.1	5.1909e-003
21957	20.675	0.81818	0.1	1.627e-003
21958	20.398	0.72727	0.1	5.1511e-003
21959	20.49	0.81818	0.1	1.8657e-003
21960	20.213	0.72727	0.1	5.0631e-003
21961	20.305	0.81818	0.1	2.0319e-003
21962	20.028	0.72727	0.1	4.9422e-003
21963	20.12	0.81818	0.1	2.1345e-003
21964	19.843	0.72727	0.1	4.813e-003
21965	19.936	0.81818	0.1	2.1975e-003
21966	19.659	0.72727	0.1	4.6821e-003
21967	19.751	0.81818	0.1	2.2532e-003
21968	19.474	0.72727	0.1	4.5329e-003
21969	19.566	0.81818	0.1	2.2871e-003
21970	19.289	0.72727	0.1	4.3658e-003
21971	19.382	0.81818	0.1	2.284e-003
21972	19.104	0.72727	0.1	4.1884e-003
21973	19.197	0.81818	0.1	2.2622e-003
21974	18.92	0.72727	0.1	4.0056e-003
21975	19.012	0.81818	0.1	2.2226e-003
21976	18.735	0.72727	0.1	3.8308e-003
21977	18.827	0.81818	0.1	2.1733e-003
21978	18.55	0.72727	0.1	3.6653e-003
21979	18.643	0.81818	0.1	2.1393e-003
21980	18.365	0.72727	0.1	3.4922e-003
21981	18.458	0.81818	0.1	2.1026e-003
21982	18.181	0.72727	0.1	3.3004e-003
21983	18.273	0.81818	0.1	2.0462e-003
21984	17.996	0.72727	0.1	3.0979e-003
21985	18.088	0.81818	0.1	1.9695e-003
21986	17.811	0.72727	0.1	2.9112e-003
21987	17.904	0.81818	0.1	1.8912e-003
21988	17.627	0.72727	0.1	2.7445e-003
21989	17.719	0.81818	0.1	1.851e-003
21990	17.442	0.72727	0.1	2.5698e-003
21991	17.534	0.81818	0.1	1.822e-003
21992	17.257	0.72727	0.1	2.3833e-003
21993	17.349	0.81818	0.1	1.7799e-003
21994	17.072	0.72727	0.1	2.1996e-003
21995	17.165	0.81818	0.1	1.7525e-003
21996	16.888	0.72727	0.1	2.0284e-003
21997	16.98	0.81818	0.1	1.7534e-003
21998	16.703	0.72727	0.1	1.901e-003
21999	16.795	0.81818	0.1	1.8094e-003
22000	16.518	0.72727	0.1	1.8434e-003
22001	16.61	0.81818	0.1	1.9978e-003
22002	16.333	0.72727	0.1	1.8694e-003
22003	16.426	0.81818	0.1	2.372e-003
22004	16.149	0.72727	0.1	2.0566e-003
22005	16.241	0.81818	0.1	3.0917e-003
22006	15.964	0.72727	0.1	2.6548e-003
22007	16.056	0.81818	0.1	4.6933e-003
22008	15.779	0.72727	0.1	4.4944e-003
22009	15.871	0.81818	0.1	9.5464e-003
22010	15.594	0.72727	0.1	1.2875e-002
22011	15.687	0.81818	0.1	5.9017e-002
22012	15.41	0.72727	0.1	0.46824
22013	15.502	0.81818	0.1	1.2579
22014	15.225	0.72727	0.1	1.9015
22015	15.317	0.81818	0.1	2.8202
22016	15.04	0.72727	0.1	3.3997
22017	15.133	0.81818	0.1	4.4438
22018	14.855	0.72727	0.1	4.9405
22019	14.948	0.81818	0.1	6.1219
22020	14.671	0.72727	0.1	6.5164
22021	14.763	0.81818	0.1	7.8495
22022	14.486	0.72727	0.1	8.1182
22023	14.578	0.81818	0.1	9.6201
22024	14.301	0.72727	0.1	9.7332
22025	14.394	0.81818	0.1	11.424
22026	14.116	0.72727	0.1	11.345
22027	14.209	0.81818	0.1	13.247
22028	13.932	0.72727	0.1	12.931
22029	14.024	0.81818	0.1	15.071
22030	13.747	0.72727	0.1	14.465
22031	13.839	0.81818	0.1	16.874
22032	13.562	0.72727	0.1	15.911
22033	13.655	0.81818	0.1	18.624
22034	13.378	0.72727	0.1	17.227
22035	13.47	0.81818	0.1	20.284
22036	13.193	0.72727	0.1	18.36
22037	13.285	0.81818	0.1	21.807
22038	13.008	0.72727	0.1	19.247
22039	13.1	0.81818	0.1	23.136
22040	12.823	0.72727	0.1	19.814
22041	12.916	0.81818	0.1	24.203
22042	12.639	0.72727	0.1	19.974
22043	12.731	0.81818	0.1	24.928
22044	12.454	0.72727	0.1	19.625
22045	12.546	0.81818	0.1	25.218
22046	12.269	0.72727	0.1	18.655
22047	12.361	0.81818	0.1	24.963
22048	12.084	0.72727	0.1	16.937
22049	12.177	0.81818	0.1	24.042
22050	11.9	0.72727	0.1	14.344
22051	11.992	0.81818	0.1	22.323
22052	11.715	0.72727	0.1	10.76
22053	11.807	0.81818	0.1	19.666
22054	11.53	0.72727	0.1	6.2067
22055	11.622	0.81818	0.1	15.937
22056	11.345	0.72727	0.1	1.9855
22057	11.438	0.81818	0.1	11.068
22058	11.161	0.72727	0.1	0.8076
22059	11.253	0.81818	0.1	5.4341
22060	10.976	0.72727	0.1	0.58432
22061	11.068	0.81818	0.1	1.8581
22062	10.791	0.72727	0.1	0.53495
22063	10.884	0.81818	0.1	1.066
22064	10.606	0.72727	0.1	0.55296
22065	10.699	0.81818	0.1	0.87884
22066	10.422	0.72727	0.1	0.61647
22067	10.514	0.81818	0.1	0.85352
22068	10.237	0.72727	0.1	0.72367
22069	10.329	0.81818	0.1	0.90794
22070	10.052	0.72727	0.1	0.88244
22071	10.145	0.81818	0.1	1.0221
22072	9.8675	0.72727	0.1	1.1034
22073	9.9598	0.81818	0.1	1.196
22074	9.6827	0.72727	0.1	1.4119
22075	9.7751	0.81818	0.1	1.4249
22076	9.498	0.72727	0.1	1.776
22077	9.5904	0.81818	0.1	1.7389
22078	9.3133	0.72727	0.1	2.35
22079	9.4056	0.81818	0.1	1.9978
22080	9.1285	0.72727	0.1	2.1824
22081	9.2209	0.81818	0.1	2.6386
22082	8.9438	0.72727	0.1	4.6291
22083	9.0361	0.81818	0.1	1.2684
22084	8.8514	0.81818	0.1	7.0481
22085	8.759	0.72727	0.1	-1.7038
22086	23.723	0.90909	0.1	-0.13196
22087	23.815	1.	0.1	-8.9993e-002
22088	23.908	0.90909	0.1	-0.38902
22089	23.538	0.90909	0.1	-0.16577
22090	23.631	1.	0.1	-0.26727
22091	23.353	0.90909	0.1	-8.0572e-002
22092	23.446	1.	0.1	-9.7129e-002
22093	23.169	0.90909	0.1	-6.2444e-002
22094	23.261	1.	0.1	-8.4589e-002
22095	22.984	0.90909	0.1	-4.3301e-002
22096	23.076	1.	0.1	-5.6705e-002
22097	22.799	0.90909	0.1	-3.2564e-002
22098	22.892	1.	0.1	-4.4013e-002
22099	22.614	0.90909	0.1	-2.4479e-002
22100	22.707	1.	0.1	-3.3731e-002
22101	22.43	0.90909	0.1	-1.8767e-002
22102	22.522	1.	0.1	-2.6667e-002
22103	22.245	0.90909	0.1	-1.45e-002
22104	22.337	1.	0.1	-2.1318e-002
22105	22.06	0.90909	0.1	-1.1293e-002
22106	22.153	1.	0.1	-1.7279e-002
22107	21.876	0.90909	0.1	-8.8325e-003
22108	21.968	1.	0.1	-1.415e-002
22109	21.691	0.90909	0.1	-6.9185e-003
22110	21.783	1.	0.1	-1.1683e-002
22111	21.506	0.90909	0.1	-5.4211e-003
22112	21.598	1.	0.1	-9.7195e-003
22113	21.321	0.90909	0.1	-4.2415e-003
22114	21.414	1.	0.1	-8.1479e-003
22115	21.137	0.90909	0.1	-3.3046e-003
22116	21.229	1.	0.1	-6.8728e-003
22117	20.952	0.90909	0.1	-2.5557e-003
22118	21.044	1.	0.1	-5.8326e-003
22119	20.767	0.90909	0.1	-1.9448e-003
22120	20.859	1.	0.1	-4.9741e-003
22121	20.582	0.90909	0.1	-1.441e-003
22122	20.675	1.	0.1	-4.2462e-003
22123	20.398	0.90909	0.1	-1.0302e-003
22124	20.49	1.	0.1	-3.6309e-003
22125	20.213	0.90909	0.1	-7.034e-004
22126	20.305	1.	0.1	-3.1187e-003
22127	20.028	0.90909	0.1	-4.4365e-004
22128	20.12	1.	0.1	-2.6953e-003
22129	19.843	0.90909	0.1	-2.1968e-004
22130	19.936	1.	0.1	-2.3353e-003
22131	19.659	0.90909	0.1	-2.0755e-005
22132	19.751	1.	0.1	-2.0032e-003
22133	19.474	0.90909	0.1	1.3977e-004
22134	19.566	1.	0.1	-1.7107e-003
22135	19.289	0.90909	0.1	2.641e-004
22136	19.382	1.	0.1	-1.4684e-003
22137	19.104	0.90909	0.1	3.6364e-004
22138	19.197	1.	0.1	-1.2586e-003
22139	18.92	0.90909	0.1	4.4231e-004
22140	19.012	1.	0.1	-1.0764e-003
22141	18.735	0.90909	0.1	5.1948e-004
22142	18.827	1.	0.1	-9.1595e-004
22143	18.55	0.90909	0.1	6.0078e-004
22144	18.643	1.	0.1	-7.433e-004
22145	18.365	0.90909	0.1	6.6804e-004
22146	18.458	1.	0.1	-5.7905e-004
22147	18.181	0.90909	0.1	7.1466e-004
22148	18.273	1.	0.1	-4.3629e-004
22149	17.996	0.90909	0.1	7.5058e-004
22150	18.088	1.	0.1	-3.1363e-004
22151	17.811	0.90909	0.1	8.0786e-004
22152	17.904	1.	0.1	-1.8691e-004
22153	17.627	0.90909	0.1	8.9513e-004
22154	17.719	1.	0.1	-1.4049e-005
22155	17.442	0.90909	0.1	9.8983e-004
22156	17.534	1.	0.1	1.8473e-004
22157	17.257	0.90909	0.1	1.1e-003
22158	17.349	1.	0.1	3.9758e-004
22159	17.072	0.90909	0.1	1.2542e-003
22160	17.165	1.	0.1	6.6645e-004
22161	16.888	0.90909	0.1	1.4874e-003
22162	16.98	1.	0.1	1.0324e-003
22163	16.703	0.90909	0.1	1.8819e-003
22164	16.795	1.	0.1	1.5803e-003
22165	16.518	0.90909	0.1	2.5679e-003
22166	16.61	1.	0.1	2.5136e-003
22167	16.333	0.90909	0.1	3.827e-003
22168	16.426	1.	0.1	4.2344e-003
22169	16.149	0.90909	0.1	6.641e-003
22170	16.241	1.	0.1	8.249e-003
22171	15.964	0.90909	0.1	1.683e-002
22172	16.056	1.	0.1	2.6442e-002
22173	15.779	0.90909	0.1	0.37039
22174	15.871	1.	0.1	0.76229
22175	15.594	0.90909	0.1	1.9312
22176	15.687	1.	0.1	2.44
22177	15.41	0.90909	0.1	3.6021
22178	15.502	1.	0.1	4.2083
22179	15.225	0.90909	0.1	5.3406
22180	15.317	1.	0.1	6.0528
22181	15.04	0.90909	0.1	7.1439
22182	15.133	1.	0.1	7.9733
22183	14.855	0.90909	0.1	9.0093
22184	14.948	1.	0.1	9.9693
22185	14.671	0.90909	0.1	10.932
22186	14.763	1.	0.1	12.039
22187	14.486	0.90909	0.1	12.905
22188	14.578	1.	0.1	14.178
22189	14.301	0.90909	0.1	14.918
22190	14.394	1.	0.1	16.379
22191	14.116	0.90909	0.1	16.954
22192	14.209	1.	0.1	18.631
22193	13.932	0.90909	0.1	18.995
22194	14.024	1.	0.1	20.919
22195	13.747	0.90909	0.1	21.014
22196	13.839	1.	0.1	23.222
22197	13.562	0.90909	0.1	22.978
22198	13.655	1.	0.1	25.513
22199	13.378	0.90909	0.1	24.845
22200	13.47	1.	0.1	27.757
22201	13.193	0.90909	0.1	26.564
22202	13.285	1.	0.1	29.911
22203	13.008	0.90909	0.1	28.073
22204	13.1	1.	0.1	31.921
22205	12.823	0.90909	0.1	29.298
22206	12.916	1.	0.1	33.724
22207	12.639	0.90909	0.1	30.152
22208	12.731	1.	0.1	35.243
22209	12.454	0.90909	0.1	30.534
22210	12.546	1.	0.1	36.387
22211	12.269	0.90909	0.1	30.33
22212	12.361	1.	0.1	37.052
22213	12.084	0.90909	0.1	29.409
22214	12.177	1.	0.1	37.118
22215	11.9	0.90909	0.1	27.632
22216	11.992	1.	0.1	36.452
22217	11.715	0.90909	0.1	24.851
22218	11.807	1.	0.1	34.907
22219	11.53	0.90909	0.1	20.921
22220	11.622	1.	0.1	32.325
22221	11.345	0.90909	0.1	15.744
22222	11.438	1.	0.1	28.545
22223	11.161	0.90909	0.1	9.4692
22224	11.253	1.	0.1	23.416
22225	10.976	0.90909	0.1	3.859
22226	11.068	1.	0.1	16.88
22227	10.791	0.90909	0.1	1.8622
22228	10.884	1.	0.1	9.4377
22229	10.606	0.90909	0.1	1.3843
22230	10.699	1.	0.1	4.0678
22231	10.422	0.90909	0.1	1.2637
22232	10.514	1.	0.1	2.387
22233	10.237	0.90909	0.1	1.2805
22234	10.329	1.	0.1	1.9117
22235	10.052	0.90909	0.1	1.379
22236	10.145	1.	0.1	1.7772
22237	9.8675	0.90909	0.1	1.5375
22238	9.9598	1.	0.1	1.7891
22239	9.6827	0.90909	0.1	1.7599
22240	9.7751	1.	0.1	1.8802
22241	9.498	0.90909	0.1	1.9813
22242	9.5904	1.	0.1	2.0675
22243	9.3133	0.90909	0.1	2.3584
22244	9.4056	1.	0.1	2.1622
22245	9.1285	0.90909	0.1	1.8922
22246	9.2209	1.	0.1	2.8007
22247	8.9438	0.90909	0.1	4.3379
22248	9.0361	1.	0.1	0.91232
22249	8.8514	1.	0.1	7.979
22250	8.759	0.90909	0.1	-1.9866
22251	23.723	1.0909	0.1	-0.15621
22252	23.815	1.1818	0.1	-0.11868
22253	23.908	1.0909	0.1	-0.39922
22254	23.538	1.0909	0.1	-0.18313
22255	23.631	1.1818	0.1	-0.28468
22256	23.353	1.0909	0.1	-9.4948e-002
22257	23.446	1.1818	0.1	-0.11017
22258	23.169	1.0909	0.1	-7.5517e-002
22259	23.261	1.1818	0.1	-9.6365e-002
22260	22.984	1.0909	0.1	-5.5271e-002
22261	23.076	1.1818	0.1	-6.7404e-002
22262	22.799	1.0909	0.1	-4.3638e-002
22263	22.892	1.1818	0.1	-5.395e-002
22264	22.614	1.0909	0.1	-3.4734e-002
22265	22.707	1.1818	0.1	-4.2986e-002
22266	22.43	1.0909	0.1	-2.8268e-002
22267	22.522	1.1818	0.1	-3.5306e-002
22268	22.245	1.0909	0.1	-2.3312e-002
22269	22.337	1.1818	0.1	-2.9383e-002
22270	22.06	1.0909	0.1	-1.9475e-002
22271	22.153	1.1818	0.1	-2.4814e-002
22272	21.876	1.0909	0.1	-1.6436e-002
22273	21.968	1.1818	0.1	-2.1196e-002
22274	21.691	1.0909	0.1	-1.3997e-002
22275	21.783	1.1818	0.1	-1.8276e-002
22276	21.506	1.0909	0.1	-1.2022e-002
22277	21.598	1.1818	0.1	-1.5898e-002
22278	21.321	1.0909	0.1	-1.0408e-002
22279	21.414	1.1818	0.1	-1.3944e-002
22280	21.137	1.0909	0.1	-9.0746e-003
22281	21.229	1.1818	0.1	-1.232e-002
22282	20.952	1.0909	0.1	-7.9633e-003
22283	21.044	1.1818	0.1	-1.0957e-002
22284	20.767	1.0909	0.1	-7.0215e-003
22285	20.859	1.1818	0.1	-9.803e-003
22286	20.582	1.0909	0.1	-6.2116e-003
22287	20.675	1.1818	0.1	-8.8012e-003
22288	20.398	1.0909	0.1	-5.5208e-003
22289	20.49	1.1818	0.1	-7.9321e-003
22290	20.213	1.0909	0.1	-4.9353e-003
22291	20.305	1.1818	0.1	-7.1863e-003
22292	20.028	1.0909	0.1	-4.4326e-003
22293	20.12	1.1818	0.1	-6.5442e-003
22294	19.843	1.0909	0.1	-3.9835e-003
22295	19.936	1.1818	0.1	-5.979e-003
22296	19.659	1.0909	0.1	-3.5752e-003
22297	19.751	1.1818	0.1	-5.4555e-003
22298	19.474	1.0909	0.1	-3.217e-003
22299	19.566	1.1818	0.1	-4.9835e-003
22300	19.289	1.0909	0.1	-2.9041e-003
22301	19.382	1.1818	0.1	-4.5705e-003
22302	19.104	1.0909	0.1	-2.6257e-003
22303	19.197	1.1818	0.1	-4.1987e-003
22304	18.92	1.0909	0.1	-2.3752e-003
22305	19.012	1.1818	0.1	-3.862e-003
22306	18.735	1.0909	0.1	-2.1321e-003
22307	18.827	1.1818	0.1	-3.551e-003
22308	18.55	1.0909	0.1	-1.8891e-003
22309	18.643	1.1818	0.1	-3.2339e-003
22310	18.365	1.0909	0.1	-1.6617e-003
22311	18.458	1.1818	0.1	-2.9262e-003
22312	18.181	1.0909	0.1	-1.4553e-003
22313	18.273	1.1818	0.1	-2.6411e-003
22314	17.996	1.0909	0.1	-1.2545e-003
22315	18.088	1.1818	0.1	-2.374e-003
22316	17.811	1.0909	0.1	-1.0253e-003
22317	17.904	1.1818	0.1	-2.0966e-003
22318	17.627	1.0909	0.1	-7.5463e-004
22319	17.719	1.1818	0.1	-1.7626e-003
22320	17.442	1.0909	0.1	-4.5215e-004
22321	17.534	1.1818	0.1	-1.3849e-003
22322	17.257	1.0909	0.1	-9.5651e-005
22323	17.349	1.1818	0.1	-9.5955e-004
22324	17.072	1.0909	0.1	3.7004e-004
22325	17.165	1.1818	0.1	-4.2246e-004
22326	16.888	1.0909	0.1	1.039e-003
22327	16.98	1.1818	0.1	3.2432e-004
22328	16.703	1.0909	0.1	2.1297e-003
22329	16.795	1.1818	0.1	1.4948e-003
22330	16.518	1.0909	0.1	4.1725e-003
22331	16.61	1.1818	0.1	3.6922e-003
22332	16.333	1.0909	0.1	9.1663e-003
22333	16.426	1.1818	0.1	9.1491e-003
22334	16.149	1.0909	0.1	3.7705e-002
22335	16.241	1.1818	0.1	4.4423e-002
22336	15.964	1.0909	0.1	1.0681
22337	16.056	1.1818	0.1	1.2262
22338	15.779	1.0909	0.1	2.8365
22339	15.871	1.1818	0.1	3.0687
22340	15.594	1.0909	0.1	4.6948
22341	15.687	1.1818	0.1	5.005
22342	15.41	1.0909	0.1	6.6365
22343	15.502	1.1818	0.1	7.0318
22344	15.225	1.0909	0.1	8.6634
22345	15.317	1.1818	0.1	9.153
22346	15.04	1.0909	0.1	10.777
22347	15.133	1.1818	0.1	11.372
22348	14.855	1.0909	0.1	12.978
22349	14.948	1.1818	0.1	13.693
22350	14.671	1.0909	0.1	15.265
22351	14.763	1.1818	0.1	16.115
22352	14.486	1.0909	0.1	17.633
22353	14.578	1.1818	0.1	18.639
22354	14.301	1.0909	0.1	20.074
22355	14.394	1.1818	0.1	21.261
22356	14.116	1.0909	0.1	22.578
22357	14.209	1.1818	0.1	23.974
22358	13.932	1.0909	0.1	25.128
22359	14.024	1.1818	0.1	26.767
22360	13.747	1.0909	0.1	27.703
22361	13.839	1.1818	0.1	29.626
22362	13.562	1.0909	0.1	30.274
22363	13.655	1.1818	0.1	32.528
22364	13.378	1.0909	0.1	32.805
22365	13.47	1.1818	0.1	35.447
22366	13.193	1.0909	0.1	35.251
22367	13.285	1.1818	0.1	38.345
22368	13.008	1.0909	0.1	37.555
22369	13.1	1.1818	0.1	41.179
22370	12.823	1.0909	0.1	39.651
22371	12.916	1.1818	0.1	43.892
22372	12.639	1.0909	0.1	41.459
22373	12.731	1.1818	0.1	46.418
22374	12.454	1.0909	0.1	42.885
22375	12.546	1.1818	0.1	48.675
22376	12.269	1.0909	0.1	43.82
22377	12.361	1.1818	0.1	50.571
22378	12.084	1.0909	0.1	44.142
22379	12.177	1.1818	0.1	51.995
22380	11.9	1.0909	0.1	43.71
22381	11.992	1.1818	0.1	52.823
22382	11.715	1.0909	0.1	42.372
22383	11.807	1.1818	0.1	52.911
22384	11.53	1.0909	0.1	39.96
22385	11.622	1.1818	0.1	52.099
22386	11.345	1.0909	0.1	36.289
22387	11.438	1.1818	0.1	50.203
22388	11.161	1.0909	0.1	31.17
22389	11.253	1.1818	0.1	47.009
22390	10.976	1.0909	0.1	24.434
22391	11.068	1.1818	0.1	42.265
22392	10.791	1.0909	0.1	16.15
22393	10.884	1.1818	0.1	35.671
22394	10.606	1.0909	0.1	7.9499
22395	10.699	1.1818	0.1	26.925
22396	10.422	1.0909	0.1	3.9102
22397	10.514	1.1818	0.1	16.246
22398	10.237	1.0909	0.1	2.7156
22399	10.329	1.1818	0.1	7.2786
22400	10.052	1.0909	0.1	2.3075
22401	10.145	1.1818	0.1	3.9662
22402	9.8675	1.0909	0.1	2.1725
22403	9.9598	1.1818	0.1	2.9434
22404	9.6827	1.0909	0.1	2.1957
22405	9.7751	1.1818	0.1	2.566
22406	9.498	1.0909	0.1	2.2543
22407	9.5904	1.1818	0.1	2.499
22408	9.3133	1.0909	0.1	2.631
22409	9.4056	1.1818	0.1	2.5207
22410	9.1285	1.0909	0.1	1.898
22411	9.2209	1.1818	0.1	3.2025
22412	8.9438	1.0909	0.1	5.0402
22413	9.0361	1.1818	0.1	0.93441
22414	8.8514	1.1818	0.1	8.3196
22415	8.759	1.0909	0.1	-0.6249
22416	23.723	1.2727	0.1	-0.17472
22417	23.815	1.3636	0.1	-0.14097
22418	23.908	1.2727	0.1	-0.40728
22419	23.538	1.2727	0.1	-0.19606
22420	23.631	1.3636	0.1	-0.29762
22421	23.353	1.2727	0.1	-0.10557
22422	23.446	1.3636	0.1	-0.11975
22423	23.169	1.2727	0.1	-8.5174e-002
22424	23.261	1.3636	0.1	-0.10496
22425	22.984	1.2727	0.1	-6.4191e-002
22426	23.076	1.3636	0.1	-7.5245e-002
22427	22.799	1.2727	0.1	-5.1988e-002
22428	22.892	1.3636	0.1	-6.1287e-002
22429	22.614	1.2727	0.1	-4.2577e-002
22430	22.707	1.3636	0.1	-4.9895e-002
22431	22.43	1.2727	0.1	-3.5645e-002
22432	22.522	1.3636	0.1	-4.1838e-002
22433	22.245	1.2727	0.1	-3.0249e-002
22434	22.337	1.3636	0.1	-3.5561e-002
22435	22.06	1.2727	0.1	-2.6e-002
22436	22.153	1.3636	0.1	-3.0659e-002
22437	21.876	1.2727	0.1	-2.2578e-002
22438	21.968	1.3636	0.1	-2.6723e-002
22439	21.691	1.2727	0.1	-1.978e-002
22440	21.783	1.3636	0.1	-2.3509e-002
22441	21.506	1.2727	0.1	-1.7472e-002
22442	21.598	1.3636	0.1	-2.0849e-002
22443	21.321	1.2727	0.1	-1.5549e-002
22444	21.414	1.3636	0.1	-1.8635e-002
22445	21.137	1.2727	0.1	-1.393e-002
22446	21.229	1.3636	0.1	-1.6766e-002
22447	20.952	1.2727	0.1	-1.2554e-002
22448	21.044	1.3636	0.1	-1.5175e-002
22449	20.767	1.2727	0.1	-1.1366e-002
22450	20.859	1.3636	0.1	-1.3808e-002
22451	20.582	1.2727	0.1	-1.0327e-002
22452	20.675	1.3636	0.1	-1.2608e-002
22453	20.398	1.2727	0.1	-9.4231e-003
22454	20.49	1.3636	0.1	-1.1554e-002
22455	20.213	1.2727	0.1	-8.6388e-003
22456	20.305	1.3636	0.1	-1.0633e-002
22457	20.028	1.2727	0.1	-7.9506e-003
22458	20.12	1.3636	0.1	-9.8298e-003
22459	19.843	1.2727	0.1	-7.326e-003
22460	19.936	1.3636	0.1	-9.1109e-003
22461	19.659	1.2727	0.1	-6.7526e-003
22462	19.751	1.3636	0.1	-8.4434e-003
22463	19.474	1.2727	0.1	-6.2388e-003
22464	19.566	1.3636	0.1	-7.8346e-003
22465	19.289	1.2727	0.1	-5.779e-003
22466	19.382	1.3636	0.1	-7.2934e-003
22467	19.104	1.2727	0.1	-5.3606e-003
22468	19.197	1.3636	0.1	-6.7999e-003
22469	18.92	1.2727	0.1	-4.9747e-003
22470	19.012	1.3636	0.1	-6.3449e-003
22471	18.735	1.2727	0.1	-4.6008e-003
22472	18.827	1.3636	0.1	-5.9216e-003
22473	18.55	1.2727	0.1	-4.2302e-003
22474	18.643	1.3636	0.1	-5.4948e-003
22475	18.365	1.2727	0.1	-3.8762e-003
22476	18.458	1.3636	0.1	-5.0799e-003
22477	18.181	1.2727	0.1	-3.5425e-003
22478	18.273	1.3636	0.1	-4.6873e-003
22479	17.996	1.2727	0.1	-3.2119e-003
22480	18.088	1.3636	0.1	-4.3118e-003
22481	17.811	1.2727	0.1	-2.8443e-003
22482	17.904	1.3636	0.1	-3.9213e-003
22483	17.627	1.2727	0.1	-2.4204e-003
22484	17.719	1.3636	0.1	-3.4652e-003
22485	17.442	1.2727	0.1	-1.9406e-003
22486	17.534	1.3636	0.1	-2.9473e-003
22487	17.257	1.2727	0.1	-1.3617e-003
22488	17.349	1.3636	0.1	-2.3485e-003
22489	17.072	1.2727	0.1	-5.8108e-004
22490	17.165	1.3636	0.1	-1.5685e-003
22491	16.888	1.2727	0.1	6.0953e-004
22492	16.98	1.3636	0.1	-4.1897e-004
22493	16.703	1.2727	0.1	2.7853e-003
22494	16.795	1.3636	0.1	1.5975e-003
22495	16.518	1.2727	0.1	8.1811e-003
22496	16.61	1.3636	0.1	6.4323e-003
22497	16.333	1.2727	0.1	4.4036e-002
22498	16.426	1.3636	0.1	3.4686e-002
22499	16.149	1.2727	0.1	1.2931
22500	16.241	1.3636	0.1	1.2162
22501	15.964	1.2727	0.1	3.2047
22502	16.056	1.3636	0.1	3.1826
22503	15.779	1.2727	0.1	5.2138
22504	15.871	1.3636	0.1	5.2511
22505	15.594	1.2727	0.1	7.3191
22506	15.687	1.3636	0.1	7.4209
22507	15.41	1.2727	0.1	9.5262
22508	15.502	1.3636	0.1	9.6989
22509	15.225	1.2727	0.1	11.841
22510	15.317	1.3636	0.1	12.093
22511	15.04	1.2727	0.1	14.267
22512	15.133	1.3636	0.1	14.609
22513	14.855	1.2727	0.1	16.81
22514	14.948	1.3636	0.1	17.255
22515	14.671	1.2727	0.1	19.47
22516	14.763	1.3636	0.1	20.034
22517	14.486	1.2727	0.1	22.249
22518	14.578	1.3636	0.1	22.951
22519	14.301	1.2727	0.1	25.143
22520	14.394	1.3636	0.1	26.007
22521	14.116	1.2727	0.1	28.146
22522	14.209	1.3636	0.1	29.202
22523	13.932	1.2727	0.1	31.248
22524	14.024	1.3636	0.1	32.53
22525	13.747	1.2727	0.1	34.434
22526	13.839	1.3636	0.1	35.984
22527	13.562	1.2727	0.1	37.685
22528	13.655	1.3636	0.1	39.551
22529	13.378	1.2727	0.1	40.971
22530	13.47	1.3636	0.1	43.212
22531	13.193	1.2727	0.1	44.258
22532	13.285	1.3636	0.1	46.943
22533	13.008	1.2727	0.1	47.5
22534	13.1	1.3636	0.1	50.709
22535	12.823	1.2727	0.1	50.642
22536	12.916	1.3636	0.1	54.468
22537	12.639	1.2727	0.1	53.617
22538	12.731	1.3636	0.1	58.167
22539	12.454	1.2727	0.1	56.344
22540	12.546	1.3636	0.1	61.742
22541	12.269	1.2727	0.1	58.728
22542	12.361	1.3636	0.1	65.115
22543	12.084	1.2727	0.1	60.659
22544	12.177	1.3636	0.1	68.191
22545	11.9	1.2727	0.1	62.008
22546	11.992	1.3636	0.1	70.861
22547	11.715	1.2727	0.1	62.626
22548	11.807	1.3636	0.1	72.994
22549	11.53	1.2727	0.1	62.342
22550	11.622	1.3636	0.1	74.437
22551	11.345	1.2727	0.1	60.948
22552	11.438	1.3636	0.1	75.
22553	11.161	1.2727	0.1	58.186
22554	11.253	1.3636	0.1	74.449
22555	10.976	1.2727	0.1	53.722
22556	11.068	1.3636	0.1	72.471
22557	10.791	1.2727	0.1	47.097
22558	10.884	1.3636	0.1	68.63
22559	10.606	1.2727	0.1	37.7
22560	10.699	1.3636	0.1	62.284
22561	10.422	1.2727	0.1	25.012
22562	10.514	1.3636	0.1	52.474
22563	10.237	1.2727	0.1	11.392
22564	10.329	1.3636	0.1	37.923
22565	10.052	1.2727	0.1	5.1149
22566	10.145	1.3636	0.1	18.857
22567	9.8675	1.2727	0.1	3.4091
22568	9.9598	1.3636	0.1	6.8194
22569	9.6827	1.2727	0.1	2.854
22570	9.7751	1.3636	0.1	3.9446
22571	9.498	1.2727	0.1	2.7364
22572	9.5904	1.3636	0.1	3.2092
22573	9.3133	1.2727	0.1	3.0789
22574	9.4056	1.3636	0.1	3.138
22575	9.1285	1.2727	0.1	2.2641
22576	9.2209	1.3636	0.1	3.6524
22577	8.9438	1.2727	0.1	4.5995
22578	9.0361	1.3636	0.1	1.5808
22579	8.8514	1.3636	0.1	15.624
22580	8.759	1.2727	0.1	-5.4443
22581	23.723	1.4545	0.1	-0.18849
22582	23.815	1.5455	0.1	-0.15836
22583	23.908	1.4545	0.1	-0.41272
22584	23.538	1.4545	0.1	-0.20541
22585	23.631	1.5455	0.1	-0.30729
22586	23.353	1.4545	0.1	-0.11317
22587	23.446	1.5455	0.1	-0.1268
22588	23.169	1.4545	0.1	-9.2076e-002
22589	23.261	1.5455	0.1	-0.11126
22590	22.984	1.4545	0.1	-7.0585e-002
22591	23.076	1.5455	0.1	-8.0976e-002
22592	22.799	1.4545	0.1	-5.8017e-002
22593	22.892	1.5455	0.1	-6.6666e-002
22594	22.614	1.4545	0.1	-4.8298e-002
22595	22.707	1.5455	0.1	-5.4995e-002
22596	22.43	1.4545	0.1	-4.1089e-002
22597	22.522	1.5455	0.1	-4.6703e-002
22598	22.245	1.4545	0.1	-3.5433e-002
22599	22.337	1.5455	0.1	-4.0211e-002
22600	22.06	1.4545	0.1	-3.0934e-002
22601	22.153	1.5455	0.1	-3.5105e-002
22602	21.876	1.4545	0.1	-2.7272e-002
22603	21.968	1.5455	0.1	-3.0972e-002
22604	21.691	1.4545	0.1	-2.4246e-002
22605	21.783	1.5455	0.1	-2.7567e-002
22606	21.506	1.4545	0.1	-2.1721e-002
22607	21.598	1.5455	0.1	-2.4726e-002
22608	21.321	1.4545	0.1	-1.9594e-002
22609	21.414	1.5455	0.1	-2.2338e-002
22610	21.137	1.4545	0.1	-1.778e-002
22611	21.229	1.5455	0.1	-2.0304e-002
22612	20.952	1.4545	0.1	-1.6222e-002
22613	21.044	1.5455	0.1	-1.8556e-002
22614	20.767	1.4545	0.1	-1.4863e-002
22615	20.859	1.5455	0.1	-1.704e-002
22616	20.582	1.4545	0.1	-1.3665e-002
22617	20.675	1.5455	0.1	-1.5701e-002
22618	20.398	1.4545	0.1	-1.261e-002
22619	20.49	1.5455	0.1	-1.4514e-002
22620	20.213	1.4545	0.1	-1.1685e-002
22621	20.305	1.5455	0.1	-1.347e-002
22622	20.028	1.4545	0.1	-1.0864e-002
22623	20.12	1.5455	0.1	-1.255e-002
22624	19.843	1.4545	0.1	-1.0114e-002
22625	19.936	1.5455	0.1	-1.1721e-002
22626	19.659	1.4545	0.1	-9.4218e-003
22627	19.751	1.5455	0.1	-1.0949e-002
22628	19.474	1.4545	0.1	-8.796e-003
22629	19.566	1.5455	0.1	-1.0243e-002
22630	19.289	1.4545	0.1	-8.2308e-003
22631	19.382	1.5455	0.1	-9.6068e-003
22632	19.104	1.4545	0.1	-7.7103e-003
22633	19.197	1.5455	0.1	-9.025e-003
22634	18.92	1.4545	0.1	-7.2271e-003
22635	19.012	1.5455	0.1	-8.4856e-003
22636	18.735	1.4545	0.1	-6.7602e-003
22637	18.827	1.5455	0.1	-7.9813e-003
22638	18.55	1.4545	0.1	-6.2988e-003
22639	18.643	1.5455	0.1	-7.4768e-003
22640	18.365	1.4545	0.1	-5.8555e-003
22641	18.458	1.5455	0.1	-6.9873e-003
22642	18.181	1.4545	0.1	-5.4322e-003
22643	18.273	1.5455	0.1	-6.5205e-003
22644	17.996	1.4545	0.1	-5.0097e-003
22645	18.088	1.5455	0.1	-6.0713e-003
22646	17.811	1.4545	0.1	-4.5462e-003
22647	17.904	1.5455	0.1	-5.605e-003
22648	17.627	1.4545	0.1	-4.016e-003
22649	17.719	1.5455	0.1	-5.0685e-003
22650	17.442	1.4545	0.1	-3.4067e-003
22651	17.534	1.5455	0.1	-4.4564e-003
22652	17.257	1.4545	0.1	-2.6499e-003
22653	17.349	1.5455	0.1	-3.734e-003
22654	17.072	1.4545	0.1	-1.5782e-003
22655	17.165	1.5455	0.1	-2.7581e-003
22656	16.888	1.4545	0.1	2.2265e-004
22657	16.98	1.5455	0.1	-1.2048e-003
22658	16.703	1.4545	0.1	4.2902e-003
22659	16.795	1.5455	0.1	2.0258e-003
22660	16.518	1.4545	0.1	2.4306e-002
22661	16.61	1.5455	0.1	1.4833e-002
22662	16.333	1.4545	0.1	1.0616
22663	16.426	1.5455	0.1	0.7771
22664	16.149	1.4545	0.1	3.0799
22665	16.241	1.5455	0.1	2.8296
22666	15.964	1.4545	0.1	5.205
22667	16.056	1.5455	0.1	4.997
22668	15.779	1.4545	0.1	7.4351
22669	15.871	1.5455	0.1	7.2722
22670	15.594	1.4545	0.1	9.7784
22671	15.687	1.5455	0.1	9.6643
22672	15.41	1.4545	0.1	12.244
22673	15.502	1.5455	0.1	12.184
22674	15.225	1.4545	0.1	14.84
22675	15.317	1.5455	0.1	14.841
22676	15.04	1.4545	0.1	17.577
22677	15.133	1.5455	0.1	17.648
22678	14.855	1.4545	0.1	20.46
22679	14.948	1.5455	0.1	20.612
22680	14.671	1.4545	0.1	23.497
22681	14.763	1.5455	0.1	23.745
22682	14.486	1.4545	0.1	26.692
22683	14.578	1.5455	0.1	27.055
22684	14.301	1.4545	0.1	30.05
22685	14.394	1.5455	0.1	30.549
22686	14.116	1.4545	0.1	33.57
22687	14.209	1.5455	0.1	34.232
22688	13.932	1.4545	0.1	37.251
22689	14.024	1.5455	0.1	38.108
22690	13.747	1.4545	0.1	41.086
22691	13.839	1.5455	0.1	42.179
22692	13.562	1.4545	0.1	45.064
22693	13.655	1.5455	0.1	46.44
22694	13.378	1.4545	0.1	49.17
22695	13.47	1.5455	0.1	50.885
22696	13.193	1.4545	0.1	53.379
22697	13.285	1.5455	0.1	55.502
22698	13.008	1.4545	0.1	57.662
22699	13.1	1.5455	0.1	60.271
22700	12.823	1.4545	0.1	61.979
22701	12.916	1.5455	0.1	65.166
22702	12.639	1.4545	0.1	66.278
22703	12.731	1.5455	0.1	70.152
22704	12.454	1.4545	0.1	70.498
22705	12.546	1.5455	0.1	75.183
22706	12.269	1.4545	0.1	74.562
22707	12.361	1.5455	0.1	80.201
22708	12.084	1.4545	0.1	78.377
22709	12.177	1.5455	0.1	85.133
22710	11.9	1.4545	0.1	81.833
22711	11.992	1.5455	0.1	89.889
22712	11.715	1.4545	0.1	84.794
22713	11.807	1.5455	0.1	94.356
22714	11.53	1.4545	0.1	87.093
22715	11.622	1.5455	0.1	98.394
22716	11.345	1.4545	0.1	88.519
22717	11.438	1.5455	0.1	101.82
22718	11.161	1.4545	0.1	88.789
22719	11.253	1.5455	0.1	104.4
22720	10.976	1.4545	0.1	87.506
22721	11.068	1.5455	0.1	105.79
22722	10.791	1.4545	0.1	84.084
22723	10.884	1.5455	0.1	105.5
22724	10.606	1.4545	0.1	77.615
22725	10.699	1.5455	0.1	102.8
22726	10.422	1.4545	0.1	66.676
22727	10.514	1.5455	0.1	96.49
22728	10.237	1.4545	0.1	49.18
22729	10.329	1.5455	0.1	84.695
22730	10.052	1.4545	0.1	24.184
22731	10.145	1.5455	0.1	64.49
22732	9.8675	1.4545	0.1	7.5194
22733	9.9598	1.5455	0.1	33.165
22734	9.6827	1.4545	0.1	4.2036
22735	9.7751	1.5455	0.1	8.8274
22736	9.498	1.4545	0.1	3.5336
22737	9.5904	1.5455	0.1	4.7349
22738	9.3133	1.4545	0.1	3.6583
22739	9.4056	1.5455	0.1	3.2546
22740	9.1285	1.4545	0.1	2.9658
22741	9.2209	1.5455	0.1	7.2973
22742	8.9438	1.4545	0.1	12.982
22743	9.0361	1.5455	0.1	0.41126
22744	8.8514	1.5455	0.1	7.3813
22745	8.759	1.4545	0.1	14.92
22746	23.723	1.6364	0.1	-0.19919
22747	23.815	1.7273	0.1	-0.17223
22748	23.908	1.6364	0.1	-0.41678
22749	23.538	1.6364	0.1	-0.21252
22750	23.631	1.7273	0.1	-0.31472
22751	23.353	1.6364	0.1	-0.1189
22752	23.446	1.7273	0.1	-0.13215
22753	23.169	1.6364	0.1	-9.7252e-002
22754	23.261	1.7273	0.1	-0.11601
22755	22.984	1.6364	0.1	-7.5373e-002
22756	23.076	1.7273	0.1	-8.529e-002
22757	22.799	1.6364	0.1	-6.2544e-002
22758	22.892	1.7273	0.1	-7.0713e-002
22759	22.614	1.6364	0.1	-5.2617e-002
22760	22.707	1.7273	0.1	-5.8843e-002
22761	22.43	1.6364	0.1	-4.523e-002
22762	22.522	1.7273	0.1	-5.0393e-002
22763	22.245	1.6364	0.1	-3.9409e-002
22764	22.337	1.7273	0.1	-4.3762e-002
22765	22.06	1.6364	0.1	-3.4752e-002
22766	22.153	1.7273	0.1	-3.8527e-002
22767	21.876	1.6364	0.1	-3.0937e-002
22768	21.968	1.7273	0.1	-3.4269e-002
22769	21.691	1.6364	0.1	-2.7762e-002
22770	21.783	1.7273	0.1	-3.0742e-002
22771	21.506	1.6364	0.1	-2.5093e-002
22772	21.598	1.7273	0.1	-2.7782e-002
22773	21.321	1.6364	0.1	-2.2826e-002
22774	21.414	1.7273	0.1	-2.5277e-002
22775	21.137	1.6364	0.1	-2.088e-002
22776	21.229	1.7273	0.1	-2.313e-002
22777	20.952	1.6364	0.1	-1.9195e-002
22778	21.044	1.7273	0.1	-2.1274e-002
22779	20.767	1.6364	0.1	-1.7715e-002
22780	20.859	1.7273	0.1	-1.9655e-002
22781	20.582	1.6364	0.1	-1.6402e-002
22782	20.675	1.7273	0.1	-1.8216e-002
22783	20.398	1.6364	0.1	-1.5238e-002
22784	20.49	1.7273	0.1	-1.6935e-002
22785	20.213	1.6364	0.1	-1.4211e-002
22786	20.305	1.7273	0.1	-1.5801e-002
22787	20.028	1.6364	0.1	-1.3293e-002
22788	20.12	1.7273	0.1	-1.4796e-002
22789	19.843	1.6364	0.1	-1.2451e-002
22790	19.936	1.7273	0.1	-1.3888e-002
22791	19.659	1.6364	0.1	-1.1674e-002
22792	19.751	1.7273	0.1	-1.304e-002
22793	19.474	1.6364	0.1	-1.0966e-002
22794	19.566	1.7273	0.1	-1.2262e-002
22795	19.289	1.6364	0.1	-1.0321e-002
22796	19.382	1.7273	0.1	-1.1559e-002
22797	19.104	1.6364	0.1	-9.728e-003
22798	19.197	1.7273	0.1	-1.0912e-002
22799	18.92	1.6364	0.1	-9.1749e-003
22800	19.012	1.7273	0.1	-1.0313e-002
22801	18.735	1.6364	0.1	-8.6407e-003
22802	18.827	1.7273	0.1	-9.7518e-003
22803	18.55	1.6364	0.1	-8.1161e-003
22804	18.643	1.7273	0.1	-9.1936e-003
22805	18.365	1.6364	0.1	-7.6118e-003
22806	18.458	1.7273	0.1	-8.6529e-003
22807	18.181	1.6364	0.1	-7.129e-003
22808	18.273	1.7273	0.1	-8.1391e-003
22809	17.996	1.6364	0.1	-6.648e-003
22810	18.088	1.7273	0.1	-7.6437e-003
22811	17.811	1.6364	0.1	-6.1241e-003
22812	17.904	1.7273	0.1	-7.1339e-003
22813	17.627	1.6364	0.1	-5.5274e-003
22814	17.719	1.7273	0.1	-6.5515e-003
22815	17.442	1.6364	0.1	-4.8363e-003
22816	17.534	1.7273	0.1	-5.8891e-003
22817	17.257	1.6364	0.1	-3.9569e-003
22818	17.349	1.7273	0.1	-5.098e-003
22819	17.072	1.6364	0.1	-2.6404e-003
22820	17.165	1.7273	0.1	-3.9905e-003
22821	16.888	1.6364	0.1	-1.2213e-004
22822	16.98	1.7273	0.1	-2.0628e-003
22823	16.703	1.6364	0.1	8.0636e-003
22824	16.795	1.7273	0.1	3.0926e-003
22825	16.518	1.6364	0.1	0.43935
22826	16.61	1.7273	0.1	0.10465
22827	16.333	1.6364	0.1	2.5129
22828	16.426	1.7273	0.1	2.0625
22829	16.149	1.6364	0.1	4.7221
22830	16.241	1.7273	0.1	4.2986
22831	15.964	1.6364	0.1	7.0407
22832	16.056	1.7273	0.1	6.6453
22833	15.779	1.6364	0.1	9.4789
22834	15.871	1.7273	0.1	9.1124
22835	15.594	1.6364	0.1	12.048
22836	15.687	1.7273	0.1	11.713
22837	15.41	1.6364	0.1	14.761
22838	15.502	1.7273	0.1	14.46
22839	15.225	1.6364	0.1	17.629
22840	15.317	1.7273	0.1	17.368
22841	15.04	1.6364	0.1	20.664
22842	15.133	1.7273	0.1	20.45
22843	14.855	1.6364	0.1	23.88
22844	14.948	1.7273	0.1	23.721
22845	14.671	1.6364	0.1	27.286
22846	14.763	1.7273	0.1	27.195
22847	14.486	1.6364	0.1	30.895
22848	14.578	1.7273	0.1	30.886
22849	14.301	1.6364	0.1	34.715
22850	14.394	1.7273	0.1	34.807
22851	14.116	1.6364	0.1	38.755
22852	14.209	1.7273	0.1	38.973
22853	13.932	1.6364	0.1	43.022
22854	14.024	1.7273	0.1	43.393
22855	13.747	1.6364	0.1	47.52
22856	13.839	1.7273	0.1	48.08
22857	13.562	1.6364	0.1	52.248
22858	13.655	1.7273	0.1	53.04
22859	13.378	1.6364	0.1	57.205
22860	13.47	1.7273	0.1	58.28
22861	13.193	1.6364	0.1	62.381
22862	13.285	1.7273	0.1	63.802
22863	13.008	1.6364	0.1	67.763
22864	13.1	1.7273	0.1	69.602
22865	12.823	1.6364	0.1	73.328
22866	12.916	1.7273	0.1	75.672
22867	12.639	1.6364	0.1	79.046
22868	12.731	1.7273	0.1	81.996
22869	12.454	1.6364	0.1	84.874
22870	12.546	1.7273	0.1	88.551
22871	12.269	1.6364	0.1	90.76
22872	12.361	1.7273	0.1	95.299
22873	12.084	1.6364	0.1	96.632
22874	12.177	1.7273	0.1	102.19
22875	11.9	1.6364	0.1	102.4
22876	11.992	1.7273	0.1	109.16
22877	11.715	1.6364	0.1	107.95
22878	11.807	1.7273	0.1	116.11
22879	11.53	1.6364	0.1	113.12
22880	11.622	1.7273	0.1	122.93
22881	11.345	1.6364	0.1	117.71
22882	11.438	1.7273	0.1	129.44
22883	11.161	1.6364	0.1	121.44
22884	11.253	1.7273	0.1	135.41
22885	10.976	1.6364	0.1	123.89
22886	11.068	1.7273	0.1	140.49
22887	10.791	1.6364	0.1	124.43
22888	10.884	1.7273	0.1	144.2
22889	10.606	1.6364	0.1	122.08
22890	10.699	1.7273	0.1	145.76
22891	10.422	1.6364	0.1	115.26
22892	10.514	1.7273	0.1	143.96
22893	10.237	1.6364	0.1	101.42
22894	10.329	1.7273	0.1	136.87
22895	10.052	1.6364	0.1	76.53
22896	10.145	1.7273	0.1	121.35
22897	9.8675	1.6364	0.1	36.629
22898	9.9598	1.7273	0.1	92.448
22899	9.6827	1.6364	0.1	8.7602
22900	9.7751	1.7273	0.1	44.484
22901	9.498	1.6364	0.1	4.3059
22902	9.5904	1.7273	0.1	9.3463
22903	9.3133	1.6364	0.1	6.7972
22904	9.4056	1.7273	0.1	4.0506
22905	9.1285	1.6364	0.1	4.7378
22906	9.2209	1.7273	0.1	9.1472
22907	8.9438	1.6364	0.1	-4.8724
22908	9.0361	1.7273	0.1	-4.9881
22909	8.8514	1.7273	0.1	66.577
22910	8.759	1.6364	0.1	-62.25
22911	23.723	1.8182	0.1	-0.20756
22912	23.815	1.9091	0.1	-0.1833
22913	23.908	1.8182	0.1	-0.41979
22914	23.538	1.8182	0.1	-0.21796
22915	23.631	1.9091	0.1	-0.32046
22916	23.353	1.8182	0.1	-0.12324
22917	23.446	1.9091	0.1	-0.13624
22918	23.169	1.8182	0.1	-0.10116
22919	23.261	1.9091	0.1	-0.11963
22920	22.984	1.8182	0.1	-7.8984e-002
22921	23.076	1.9091	0.1	-8.8561e-002
22922	22.799	1.8182	0.1	-6.5958e-002
22923	22.892	1.9091	0.1	-7.3776e-002
22924	22.614	1.8182	0.1	-5.5882e-002
22925	22.707	1.9091	0.1	-6.1757e-002
22926	22.43	1.8182	0.1	-4.8376e-002
22927	22.522	1.9091	0.1	-5.3195e-002
22928	22.245	1.8182	0.1	-4.2449e-002
22929	22.337	1.9091	0.1	-4.6471e-002
22930	22.06	1.8182	0.1	-3.7692e-002
22931	22.153	1.9091	0.1	-4.1153e-002
22932	21.876	1.8182	0.1	-3.3779e-002
22933	21.968	1.9091	0.1	-3.6815e-002
22934	21.691	1.8182	0.1	-3.0509e-002
22935	21.783	1.9091	0.1	-3.321e-002
22936	21.506	1.8182	0.1	-2.7745e-002
22937	21.598	1.9091	0.1	-3.0173e-002
22938	21.321	1.8182	0.1	-2.5385e-002
22939	21.414	1.9091	0.1	-2.7591e-002
22940	21.137	1.8182	0.1	-2.3349e-002
22941	21.229	1.9091	0.1	-2.5369e-002
22942	20.952	1.8182	0.1	-2.1576e-002
22943	21.044	1.9091	0.1	-2.3438e-002
22944	20.767	1.8182	0.1	-2.0011e-002
22945	20.859	1.9091	0.1	-2.1747e-002
22946	20.582	1.8182	0.1	-1.8617e-002
22947	20.675	1.9091	0.1	-2.0239e-002
22948	20.398	1.8182	0.1	-1.7377e-002
22949	20.49	1.9091	0.1	-1.8892e-002
22950	20.213	1.8182	0.1	-1.6275e-002
22951	20.305	1.9091	0.1	-1.7693e-002
22952	20.028	1.8182	0.1	-1.5287e-002
22953	20.12	1.9091	0.1	-1.6627e-002
22954	19.843	1.8182	0.1	-1.438e-002
22955	19.936	1.9091	0.1	-1.5661e-002
22956	19.659	1.8182	0.1	-1.3539e-002
22957	19.751	1.9091	0.1	-1.4759e-002
22958	19.474	1.8182	0.1	-1.2773e-002
22959	19.566	1.9091	0.1	-1.3928e-002
22960	19.289	1.8182	0.1	-1.2074e-002
22961	19.382	1.9091	0.1	-1.3178e-002
22962	19.104	1.8182	0.1	-1.1428e-002
22963	19.197	1.9091	0.1	-1.2486e-002
22964	18.92	1.8182	0.1	-1.0826e-002
22965	19.012	1.9091	0.1	-1.1845e-002
22966	18.735	1.8182	0.1	-1.0247e-002
22967	18.827	1.9091	0.1	-1.1244e-002
22968	18.55	1.8182	0.1	-9.6788e-003
22969	18.643	1.9091	0.1	-1.065e-002
22970	18.365	1.8182	0.1	-9.1357e-003
22971	18.458	1.9091	0.1	-1.0077e-002
22972	18.181	1.8182	0.1	-8.6176e-003
22973	18.273	1.9091	0.1	-9.5349e-003
22974	17.996	1.8182	0.1	-8.1039e-003
22975	18.088	1.9091	0.1	-9.0153e-003
22976	17.811	1.8182	0.1	-7.5499e-003
22977	17.904	1.9091	0.1	-8.4857e-003
22978	17.627	1.8182	0.1	-6.9237e-003
22979	17.719	1.9091	0.1	-7.8882e-003
22980	17.442	1.8182	0.1	-6.1998e-003
22981	17.534	1.9091	0.1	-7.2151e-003
22982	17.257	1.8182	0.1	-5.2625e-003
22983	17.349	1.9091	0.1	-6.4105e-003
22984	17.072	1.8182	0.1	-3.7784e-003
22985	17.165	1.9091	0.1	-5.2531e-003
22986	16.888	1.8182	0.1	-4.246e-004
22987	16.98	1.9091	0.1	-3.0277e-003
22988	16.703	1.8182	0.1	2.3002e-002
22989	16.795	1.9091	0.1	5.7975e-003
22990	16.518	1.8182	0.1	1.5586
22991	16.61	1.9091	0.1	0.94032
22992	16.333	1.8182	0.1	3.8225
22993	16.426	1.9091	0.1	3.2143
22994	16.149	1.8182	0.1	6.1979
22995	16.241	1.9091	0.1	5.603
22996	15.964	1.8182	0.1	8.694
22997	16.056	1.9091	0.1	8.1113
22998	15.779	1.8182	0.1	11.324
22999	15.871	1.9091	0.1	10.753
23000	15.594	1.8182	0.1	14.104
23001	15.687	1.9091	0.1	13.544
23002	15.41	1.8182	0.1	17.047
23003	15.502	1.9091	0.1	16.501
23004	15.225	1.8182	0.1	20.17
23005	15.317	1.9091	0.1	19.639
23006	15.04	1.8182	0.1	23.488
23007	15.133	1.9091	0.1	22.977
23008	14.855	1.8182	0.1	27.019
23009	14.948	1.9091	0.1	26.534
23010	14.671	1.8182	0.1	30.778
23011	14.763	1.9091	0.1	30.327
23012	14.486	1.8182	0.1	34.783
23013	14.578	1.9091	0.1	34.378
23014	14.301	1.8182	0.1	39.051
23015	14.394	1.9091	0.1	38.705
23016	14.116	1.8182	0.1	43.597
23017	14.209	1.9091	0.1	43.329
23018	13.932	1.8182	0.1	48.438
23019	14.024	1.9091	0.1	48.271
23020	13.747	1.8182	0.1	53.588
23021	13.839	1.9091	0.1	53.551
23022	13.562	1.8182	0.1	59.061
23023	13.655	1.9091	0.1	59.189
23024	13.378	1.8182	0.1	64.866
23025	13.47	1.9091	0.1	65.203
23026	13.193	1.8182	0.1	71.012
23027	13.285	1.9091	0.1	71.609
23028	13.008	1.8182	0.1	77.5
23029	13.1	1.9091	0.1	78.423
23030	12.823	1.8182	0.1	84.33
23031	12.916	1.9091	0.1	85.653
23032	12.639	1.8182	0.1	91.492
23033	12.731	1.9091	0.1	93.305
23034	12.454	1.8182	0.1	98.965
23035	12.546	1.9091	0.1	101.37
23036	12.269	1.8182	0.1	106.72
23037	12.361	1.9091	0.1	109.85
23038	12.084	1.8182	0.1	114.71
23039	12.177	1.9091	0.1	118.71
23040	11.9	1.8182	0.1	122.86
23041	11.992	1.9091	0.1	127.89
23042	11.715	1.8182	0.1	131.09
23043	11.807	1.9091	0.1	137.35
23044	11.53	1.8182	0.1	139.25
23045	11.622	1.9091	0.1	146.96
23046	11.345	1.8182	0.1	147.14
23047	11.438	1.9091	0.1	156.57
23048	11.161	1.8182	0.1	154.5
23049	11.253	1.9091	0.1	165.96
23050	10.976	1.8182	0.1	160.89
23051	11.068	1.9091	0.1	174.79
23052	10.791	1.8182	0.1	165.71
23053	10.884	1.9091	0.1	182.54
23054	10.606	1.8182	0.1	167.97
23055	10.699	1.9091	0.1	188.47
23056	10.422	1.8182	0.1	166.18
23057	10.514	1.9091	0.1	191.39
23058	10.237	1.8182	0.1	157.88
23059	10.329	1.9091	0.1	189.5
23060	10.052	1.8182	0.1	139.14
23061	10.145	1.9091	0.1	179.9
23062	9.8675	1.8182	0.1	103.68
23063	9.9598	1.9091	0.1	158.07
23064	9.6827	1.8182	0.1	44.796
23065	9.7751	1.9091	0.1	116.76
23066	9.498	1.8182	0.1	8.3004
23067	9.5904	1.9091	0.1	48.111
23068	9.3133	1.8182	0.1	6.2559
23069	9.4056	1.9091	0.1	5.5979
23070	9.1285	1.8182	0.1	8.34e-002
23071	9.2209	1.9091	0.1	11.82
23072	8.9438	1.8182	0.1	66.929
23073	9.0361	1.9091	0.1	-40.748
23074	8.8514	1.9091	0.1	339.04
23075	8.759	1.8182	0.1	281.31
23076	23.723	2.	0.1	-0.21412
23077	23.815	2.0909	0.1	-0.19209
23078	23.908	2.	0.1	-0.42206
23079	23.538	2.	0.1	-0.22215
23080	23.631	2.0909	0.1	-0.3249
23081	23.353	2.	0.1	-0.12657
23082	23.446	2.0909	0.1	-0.13937
23083	23.169	2.	0.1	-0.10415
23084	23.261	2.0909	0.1	-0.12239
23085	22.984	2.	0.1	-8.1728e-002
23086	23.076	2.0909	0.1	-9.1047e-002
23087	22.799	2.	0.1	-6.8548e-002
23088	22.892	2.0909	0.1	-7.6098e-002
23089	22.614	2.	0.1	-5.8363e-002
23090	22.707	2.0909	0.1	-6.3964e-002
23091	22.43	2.	0.1	-5.0772e-002
23092	22.522	2.0909	0.1	-5.532e-002
23093	22.245	2.	0.1	-4.4774e-002
23094	22.337	2.0909	0.1	-4.8532e-002
23095	22.06	2.	0.1	-3.9952e-002
23096	22.153	2.0909	0.1	-4.3158e-002
23097	21.876	2.	0.1	-3.5977e-002
23098	21.968	2.0909	0.1	-3.8769e-002
23099	21.691	2.	0.1	-3.2645e-002
23100	21.783	2.0909	0.1	-3.5114e-002
23101	21.506	2.	0.1	-2.9819e-002
23102	21.598	2.0909	0.1	-3.2026e-002
23103	21.321	2.	0.1	-2.7398e-002
23104	21.414	2.0909	0.1	-2.9394e-002
23105	21.137	2.	0.1	-2.53e-002
23106	21.229	2.0909	0.1	-2.7121e-002
23107	20.952	2.	0.1	-2.3467e-002
23108	21.044	2.0909	0.1	-2.514e-002
23109	20.767	2.	0.1	-2.1845e-002
23110	20.859	2.0909	0.1	-2.34e-002
23111	20.582	2.	0.1	-2.0394e-002
23112	20.675	2.0909	0.1	-2.1843e-002
23113	20.398	2.	0.1	-1.9098e-002
23114	20.49	2.0909	0.1	-2.0449e-002
23115	20.213	2.	0.1	-1.7943e-002
23116	20.305	2.0909	0.1	-1.9205e-002
23117	20.028	2.	0.1	-1.6905e-002
23118	20.12	2.0909	0.1	-1.8095e-002
23119	19.843	2.	0.1	-1.595e-002
23120	19.936	2.0909	0.1	-1.7088e-002
23121	19.659	2.	0.1	-1.5065e-002
23122	19.751	2.0909	0.1	-1.6146e-002
23123	19.474	2.	0.1	-1.4256e-002
23124	19.566	2.0909	0.1	-1.528e-002
23125	19.289	2.	0.1	-1.3517e-002
23126	19.382	2.0909	0.1	-1.4494e-002
23127	19.104	2.	0.1	-1.2835e-002
23128	19.197	2.0909	0.1	-1.3771e-002
23129	18.92	2.	0.1	-1.22e-002
23130	19.012	2.0909	0.1	-1.31e-002
23131	18.735	2.	0.1	-1.1589e-002
23132	18.827	2.0909	0.1	-1.2474e-002
23133	18.55	2.	0.1	-1.0995e-002
23134	18.643	2.0909	0.1	-1.1857e-002
23135	18.365	2.	0.1	-1.0428e-002
23136	18.458	2.0909	0.1	-1.1265e-002
23137	18.181	2.	0.1	-9.8913e-003
23138	18.273	2.0909	0.1	-1.0707e-002
23139	17.996	2.	0.1	-9.3642e-003
23140	18.088	2.0909	0.1	-1.0179e-002
23141	17.811	2.	0.1	-8.8035e-003
23142	17.904	2.0909	0.1	-9.6468e-003
23143	17.627	2.	0.1	-8.1794e-003
23144	17.719	2.0909	0.1	-9.0572e-003
23145	17.442	2.	0.1	-7.4651e-003
23146	17.534	2.0909	0.1	-8.4044e-003
23147	17.257	2.	0.1	-6.5378e-003
23148	17.349	2.0909	0.1	-7.6349e-003
23149	17.072	2.	0.1	-4.9951e-003
23150	17.165	2.0909	0.1	-6.5182e-003
23151	16.888	2.	0.1	-6.8017e-004
23152	16.98	2.0909	0.1	-4.139e-003
23153	16.703	2.	0.1	0.30226
23154	16.795	2.0909	0.1	1.5731e-002
23155	16.518	2.	0.1	2.5655
23156	16.61	2.0909	0.1	1.8035
23157	16.333	2.	0.1	4.9702
23158	16.426	2.0909	0.1	4.2089
23159	16.149	2.	0.1	7.4929
23160	16.241	2.0909	0.1	6.7299
23161	15.964	2.	0.1	10.148
23162	16.056	2.0909	0.1	9.3804
23163	15.779	2.	0.1	12.951
23164	15.871	2.0909	0.1	12.177
23165	15.594	2.	0.1	15.921
23166	15.687	2.0909	0.1	15.137
23167	15.41	2.	0.1	19.073
23168	15.502	2.0909	0.1	18.279
23169	15.225	2.	0.1	22.428
23170	15.317	2.0909	0.1	21.624
23171	15.04	2.	0.1	26.005
23172	15.133	2.0909	0.1	25.192
23173	14.855	2.	0.1	29.826
23174	14.948	2.0909	0.1	29.006
23175	14.671	2.	0.1	33.911
23176	14.763	2.0909	0.1	33.088
23177	14.486	2.	0.1	38.285
23178	14.578	2.0909	0.1	37.465
23179	14.301	2.	0.1	42.97
23180	14.394	2.0909	0.1	42.163
23181	14.116	2.	0.1	47.991
23182	14.209	2.0909	0.1	47.208
23183	13.932	2.	0.1	53.372
23184	14.024	2.0909	0.1	52.629
23185	13.747	2.	0.1	59.141
23186	13.839	2.0909	0.1	58.458
23187	13.562	2.	0.1	65.321
23188	13.655	2.0909	0.1	64.724
23189	13.378	2.	0.1	71.937
23190	13.47	2.0909	0.1	71.459
23191	13.193	2.	0.1	79.012
23192	13.285	2.0909	0.1	78.693
23193	13.008	2.	0.1	86.567
23194	13.1	2.0909	0.1	86.458
23195	12.823	2.	0.1	94.619
23196	12.916	2.0909	0.1	94.78
23197	12.639	2.	0.1	103.18
23198	12.731	2.0909	0.1	103.68
23199	12.454	2.	0.1	112.25
23200	12.546	2.0909	0.1	113.19
23201	12.269	2.	0.1	121.83
23202	12.361	2.0909	0.1	123.3
23203	12.084	2.	0.1	131.88
23204	12.177	2.0909	0.1	134.02
23205	11.9	2.	0.1	142.37
23206	11.992	2.0909	0.1	145.32
23207	11.715	2.	0.1	153.21
23208	11.807	2.0909	0.1	157.14
23209	11.53	2.	0.1	164.28
23210	11.622	2.0909	0.1	169.41
23211	11.345	2.	0.1	175.4
23212	11.438	2.0909	0.1	181.96
23213	11.161	2.	0.1	186.28
23214	11.253	2.0909	0.1	194.57
23215	10.976	2.	0.1	196.5
23216	11.068	2.0909	0.1	206.89
23217	10.791	2.	0.1	205.45
23218	10.884	2.0909	0.1	218.39
23219	10.606	2.	0.1	212.16
23220	10.699	2.0909	0.1	228.29
23221	10.422	2.	0.1	215.2
23222	10.514	2.0909	0.1	235.42
23223	10.237	2.	0.1	212.37
23224	10.329	2.0909	0.1	238.
23225	10.052	2.	0.1	200.25
23226	10.145	2.0909	0.1	233.37
23227	9.8675	2.	0.1	173.46
23228	9.9598	2.0909	0.1	217.51
23229	9.6827	2.	0.1	123.78
23230	9.7751	2.0909	0.1	184.17
23231	9.498	2.	0.1	41.842
23232	9.5904	2.0909	0.1	124.25
23233	9.3133	2.	0.1	9.9229
23234	9.4056	2.0909	0.1	26.492
23235	9.1285	2.	0.1	-28.731
23236	9.2209	2.0909	0.1	11.745
23237	8.9438	2.	0.1	229.98
23238	9.0361	2.0909	0.1	-53.958
23239	8.8514	2.0909	0.1	229.75
23240	8.759	2.	0.1	438.13
23241	23.723	2.1818	0.1	-0.21921
23242	23.815	2.2727	0.1	-0.19893
23243	23.908	2.1818	0.1	-0.42377
23244	23.538	2.1818	0.1	-0.22536
23245	23.631	2.2727	0.1	-0.32828
23246	23.353	2.1818	0.1	-0.1291
23247	23.446	2.2727	0.1	-0.14174
23248	23.169	2.1818	0.1	-0.10641
23249	23.261	2.2727	0.1	-0.12447
23250	22.984	2.1818	0.1	-8.3802e-002
23251	23.076	2.2727	0.1	-9.2914e-002
23252	22.799	2.1818	0.1	-7.0503e-002
23253	22.892	2.2727	0.1	-7.7839e-002
23254	22.614	2.1818	0.1	-6.0233e-002
23255	22.707	2.2727	0.1	-6.5615e-002
23256	22.43	2.1818	0.1	-5.258e-002
23257	22.522	2.2727	0.1	-5.691e-002
23258	22.245	2.1818	0.1	-4.6534e-002
23259	22.337	2.2727	0.1	-5.0076e-002
23260	22.06	2.1818	0.1	-4.1669e-002
23261	22.153	2.2727	0.1	-4.4663e-002
23262	21.876	2.1818	0.1	-3.7654e-002
23263	21.968	2.2727	0.1	-4.0241e-002
23264	21.691	2.1818	0.1	-3.4282e-002
23265	21.783	2.2727	0.1	-3.6555e-002
23266	21.506	2.1818	0.1	-3.1417e-002
23267	21.598	2.2727	0.1	-3.3434e-002
23268	21.321	2.1818	0.1	-2.8955e-002
23269	21.414	2.2727	0.1	-3.077e-002
23270	21.137	2.1818	0.1	-2.6816e-002
23271	21.229	2.2727	0.1	-2.8464e-002
23272	20.952	2.1818	0.1	-2.4943e-002
23273	21.044	2.2727	0.1	-2.645e-002
23274	20.767	2.1818	0.1	-2.3286e-002
23275	20.859	2.2727	0.1	-2.4675e-002
23276	20.582	2.1818	0.1	-2.1788e-002
23277	20.675	2.2727	0.1	-2.3086e-002
23278	20.398	2.1818	0.1	-2.0454e-002
23279	20.49	2.2727	0.1	-2.1658e-002
23280	20.213	2.1818	0.1	-1.9263e-002
23281	20.305	2.2727	0.1	-2.0383e-002
23282	20.028	2.1818	0.1	-1.819e-002
23283	20.12	2.2727	0.1	-1.9243e-002
23284	19.843	2.1818	0.1	-1.7201e-002
23285	19.936	2.2727	0.1	-1.8205e-002
23286	19.659	2.1818	0.1	-1.6283e-002
23287	19.751	2.2727	0.1	-1.7236e-002
23288	19.474	2.1818	0.1	-1.5444e-002
23289	19.566	2.2727	0.1	-1.6343e-002
23290	19.289	2.1818	0.1	-1.4678e-002
23291	19.382	2.2727	0.1	-1.5534e-002
23292	19.104	2.1818	0.1	-1.397e-002
23293	19.197	2.2727	0.1	-1.4789e-002
23294	18.92	2.1818	0.1	-1.3312e-002
23295	19.012	2.2727	0.1	-1.4099e-002
23296	18.735	2.1818	0.1	-1.2682e-002
23297	18.827	2.2727	0.1	-1.3456e-002
23298	18.55	2.1818	0.1	-1.2071e-002
23299	18.643	2.2727	0.1	-1.2824e-002
23300	18.365	2.1818	0.1	-1.1492e-002
23301	18.458	2.2727	0.1	-1.2222e-002
23302	18.181	2.1818	0.1	-1.0949e-002
23303	18.273	2.2727	0.1	-1.1658e-002
23304	17.996	2.1818	0.1	-1.0422e-002
23305	18.088	2.2727	0.1	-1.1131e-002
23306	17.811	2.1818	0.1	-9.8703e-003
23307	17.904	2.2727	0.1	-1.0608e-002
23308	17.627	2.1818	0.1	-9.2688e-003
23309	17.719	2.2727	0.1	-1.0039e-002
23310	17.442	2.1818	0.1	-8.5968e-003
23311	17.534	2.2727	0.1	-9.4267e-003
23312	17.257	2.1818	0.1	-7.7402e-003
23313	17.349	2.2727	0.1	-8.73e-003
23314	17.072	2.1818	0.1	-6.2723e-003
23315	17.165	2.2727	0.1	-7.7373e-003
23316	16.888	2.1818	0.1	-8.8487e-004
23317	16.98	2.2727	0.1	-5.4329e-003
23318	16.703	2.1818	0.1	1.0121
23319	16.795	2.2727	0.1	0.16264
23320	16.518	2.1818	0.1	3.4209
23321	16.61	2.2727	0.1	2.525
23322	16.333	2.1818	0.1	5.9446
23323	16.426	2.2727	0.1	5.036
23324	16.149	2.1818	0.1	8.5943
23325	16.241	2.2727	0.1	7.6684
23326	15.964	2.1818	0.1	11.387
23327	16.056	2.2727	0.1	10.439
23328	15.779	2.1818	0.1	14.341
23329	15.871	2.2727	0.1	13.367
23330	15.594	2.1818	0.1	17.475
23331	15.687	2.2727	0.1	16.471
23332	15.41	2.1818	0.1	20.811
23333	15.502	2.2727	0.1	19.772
23334	15.225	2.1818	0.1	24.37
23335	15.317	2.2727	0.1	23.293
23336	15.04	2.1818	0.1	28.175
23337	15.133	2.2727	0.1	27.059
23338	14.855	2.1818	0.1	32.252
23339	14.948	2.2727	0.1	31.094
23340	14.671	2.1818	0.1	36.627
23341	14.763	2.2727	0.1	35.427
23342	14.486	2.1818	0.1	41.329
23343	14.578	2.2727	0.1	40.087
23344	14.301	2.1818	0.1	46.387
23345	14.394	2.2727	0.1	45.106
23346	14.116	2.1818	0.1	51.834
23347	14.209	2.2727	0.1	50.519
23348	13.932	2.1818	0.1	57.704
23349	14.024	2.2727	0.1	56.361
23350	13.747	2.1818	0.1	64.031
23351	13.839	2.2727	0.1	62.672
23352	13.562	2.1818	0.1	70.853
23353	13.655	2.2727	0.1	69.493
23354	13.378	2.1818	0.1	78.207
23355	13.47	2.2727	0.1	76.865
23356	13.193	2.1818	0.1	86.132
23357	13.285	2.2727	0.1	84.834
23358	13.008	2.1818	0.1	94.663
23359	13.1	2.2727	0.1	93.444
23360	12.823	2.1818	0.1	103.84
23361	12.916	2.2727	0.1	102.74
23362	12.639	2.1818	0.1	113.69
23363	12.731	2.2727	0.1	112.76
23364	12.454	2.1818	0.1	124.23
23365	12.546	2.2727	0.1	123.55
23366	12.269	2.1818	0.1	135.49
23367	12.361	2.2727	0.1	135.13
23368	12.084	2.1818	0.1	147.45
23369	12.177	2.2727	0.1	147.51
23370	11.9	2.1818	0.1	160.08
23371	11.992	2.2727	0.1	160.7
23372	11.715	2.1818	0.1	173.34
23373	11.807	2.2727	0.1	174.65
23374	11.53	2.1818	0.1	187.08
23375	11.622	2.2727	0.1	189.27
23376	11.345	2.1818	0.1	201.14
23377	11.438	2.2727	0.1	204.43
23378	11.161	2.1818	0.1	215.2
23379	11.253	2.2727	0.1	219.87
23380	10.976	2.1818	0.1	228.83
23381	11.068	2.2727	0.1	235.22
23382	10.791	2.1818	0.1	241.35
23383	10.884	2.2727	0.1	249.87
23384	10.606	2.1818	0.1	251.75
23385	10.699	2.2727	0.1	262.98
23386	10.422	2.1818	0.1	258.56
23387	10.514	2.2727	0.1	273.24
23388	10.237	2.1818	0.1	259.59
23389	10.329	2.2727	0.1	278.75
23390	10.052	2.1818	0.1	251.6
23391	10.145	2.2727	0.1	276.72
23392	9.8675	2.1818	0.1	229.71
23393	9.9598	2.2727	0.1	263.03
23394	9.6827	2.1818	0.1	186.78
23395	9.7751	2.2727	0.1	231.58
23396	9.498	2.1818	0.1	111.03
23397	9.5904	2.2727	0.1	173.48
23398	9.3133	2.1818	0.1	5.9634
23399	9.4056	2.2727	0.1	73.996
23400	9.1285	2.1818	0.1	-13.211
23401	9.2209	2.2727	0.1	0.2165
23402	8.9438	2.1818	0.1	-12.694
23403	9.0361	2.2727	0.1	-12.09
23404	8.8514	2.2727	0.1	11.263
23405	8.759	2.1818	0.1	-30.31
23406	23.723	2.3636	0.1	-0.22307
23407	23.815	2.4545	0.1	-0.20405
23408	23.908	2.3636	0.1	-0.42502
23409	23.538	2.3636	0.1	-0.22776
23410	23.631	2.4545	0.1	-0.33076
23411	23.353	2.3636	0.1	-0.13098
23412	23.446	2.4545	0.1	-0.14348
23413	23.169	2.3636	0.1	-0.10809
23414	23.261	2.4545	0.1	-0.12599
23415	22.984	2.3636	0.1	-8.534e-002
23416	23.076	2.4545	0.1	-9.4272e-002
23417	22.799	2.3636	0.1	-7.195e-002
23418	22.892	2.4545	0.1	-7.9104e-002
23419	22.614	2.3636	0.1	-6.1616e-002
23420	22.707	2.4545	0.1	-6.6814e-002
23421	22.43	2.3636	0.1	-5.3918e-002
23422	22.522	2.4545	0.1	-5.8064e-002
23423	22.245	2.3636	0.1	-4.7836e-002
23424	22.337	2.4545	0.1	-5.1196e-002
23425	22.06	2.3636	0.1	-4.2943e-002
23426	22.153	2.4545	0.1	-4.5758e-002
23427	21.876	2.3636	0.1	-3.8903e-002
23428	21.968	2.4545	0.1	-4.1315e-002
23429	21.691	2.3636	0.1	-3.5505e-002
23430	21.783	2.4545	0.1	-3.7607e-002
23431	21.506	2.3636	0.1	-3.2614e-002
23432	21.598	2.4545	0.1	-3.4466e-002
23433	21.321	2.3636	0.1	-3.0127e-002
23434	21.414	2.4545	0.1	-3.1782e-002
23435	21.137	2.3636	0.1	-2.7962e-002
23436	21.229	2.4545	0.1	-2.9455e-002
23437	20.952	2.3636	0.1	-2.606e-002
23438	21.044	2.4545	0.1	-2.7419e-002
23439	20.767	2.3636	0.1	-2.437e-002
23440	20.859	2.4545	0.1	-2.5622e-002
23441	20.582	2.3636	0.1	-2.2852e-002
23442	20.675	2.4545	0.1	-2.4009e-002
23443	20.398	2.3636	0.1	-2.1491e-002
23444	20.49	2.4545	0.1	-2.256e-002
23445	20.213	2.3636	0.1	-2.0274e-002
23446	20.305	2.4545	0.1	-2.1264e-002
23447	20.028	2.3636	0.1	-1.9175e-002
23448	20.12	2.4545	0.1	-2.0102e-002
23449	19.843	2.3636	0.1	-1.8162e-002
23450	19.936	2.4545	0.1	-1.9045e-002
23451	19.659	2.3636	0.1	-1.7222e-002
23452	19.751	2.4545	0.1	-1.8057e-002
23453	19.474	2.3636	0.1	-1.6362e-002
23454	19.566	2.4545	0.1	-1.7145e-002
23455	19.289	2.3636	0.1	-1.5578e-002
23456	19.382	2.4545	0.1	-1.6321e-002
23457	19.104	2.3636	0.1	-1.4853e-002
23458	19.197	2.4545	0.1	-1.5561e-002
23459	18.92	2.3636	0.1	-1.4181e-002
23460	19.012	2.4545	0.1	-1.4858e-002
23461	18.735	2.3636	0.1	-1.3539e-002
23462	18.827	2.4545	0.1	-1.4204e-002
23463	18.55	2.3636	0.1	-1.2918e-002
23464	18.643	2.4545	0.1	-1.3563e-002
23465	18.365	2.3636	0.1	-1.2335e-002
23466	18.458	2.4545	0.1	-1.2957e-002
23467	18.181	2.3636	0.1	-1.1791e-002
23468	18.273	2.4545	0.1	-1.2393e-002
23469	17.996	2.3636	0.1	-1.1271e-002
23470	18.088	2.4545	0.1	-1.1871e-002
23471	17.811	2.3636	0.1	-1.0737e-002
23472	17.904	2.4545	0.1	-1.1361e-002
23473	17.627	2.3636	0.1	-1.0169e-002
23474	17.719	2.4545	0.1	-1.0819e-002
23475	17.442	2.3636	0.1	-9.5597e-003
23476	17.534	2.4545	0.1	-1.0255e-002
23477	17.257	2.3636	0.1	-8.8184e-003
23478	17.349	2.4545	0.1	-9.6496e-003
23479	17.072	2.3636	0.1	-7.5625e-003
23480	17.165	2.4545	0.1	-8.8383e-003
23481	16.888	2.3636	0.1	-1.0324e-003
23482	16.98	2.4545	0.1	-6.9019e-003
23483	16.703	2.3636	0.1	1.6114
23484	16.795	2.4545	0.1	0.61394
23485	16.518	2.3636	0.1	4.1152
23486	16.61	2.4545	0.1	3.0936
23487	16.333	2.3636	0.1	6.7362
23488	16.426	2.4545	0.1	5.6877
23489	16.149	2.3636	0.1	9.4905
23490	16.241	2.4545	0.1	8.409
23491	15.964	2.3636	0.1	12.397
23492	16.056	2.4545	0.1	11.276
23493	15.779	2.3636	0.1	15.475
23494	15.871	2.4545	0.1	14.308
23495	15.594	2.3636	0.1	18.747
23496	15.687	2.4545	0.1	17.528
23497	15.41	2.3636	0.1	22.235
23498	15.502	2.4545	0.1	20.957
23499	15.225	2.3636	0.1	25.965
23500	15.317	2.4545	0.1	24.621
23501	15.04	2.3636	0.1	29.961
23502	15.133	2.4545	0.1	28.546
23503	14.855	2.3636	0.1	34.253
23504	14.948	2.4545	0.1	32.761
23505	14.671	2.3636	0.1	38.872
23506	14.763	2.4545	0.1	37.297
23507	14.486	2.3636	0.1	43.851
23508	14.578	2.4545	0.1	42.188
23509	14.301	2.3636	0.1	49.226
23510	14.394	2.4545	0.1	47.471
23511	14.116	2.3636	0.1	55.035
23512	14.209	2.4545	0.1	53.185
23513	13.932	2.3636	0.1	61.32
23514	14.024	2.4545	0.1	59.373
23515	13.747	2.3636	0.1	68.125
23516	13.839	2.4545	0.1	66.08
23517	13.562	2.3636	0.1	75.497
23518	13.655	2.4545	0.1	73.358
23519	13.378	2.3636	0.1	83.485
23520	13.47	2.4545	0.1	81.258
23521	13.193	2.3636	0.1	92.14
23522	13.285	2.4545	0.1	89.835
23523	13.008	2.3636	0.1	101.51
23524	13.1	2.4545	0.1	99.146
23525	12.823	2.3636	0.1	111.66
23526	12.916	2.4545	0.1	109.25
23527	12.639	2.3636	0.1	122.62
23528	12.731	2.4545	0.1	120.2
23529	12.454	2.3636	0.1	134.44
23530	12.546	2.4545	0.1	132.06
23531	12.269	2.3636	0.1	147.15
23532	12.361	2.4545	0.1	144.86
23533	12.084	2.3636	0.1	160.76
23534	12.177	2.4545	0.1	158.63
23535	11.9	2.3636	0.1	175.25
23536	11.992	2.4545	0.1	173.39
23537	11.715	2.3636	0.1	190.58
23538	11.807	2.4545	0.1	189.1
23539	11.53	2.3636	0.1	206.62
23540	11.622	2.4545	0.1	205.68
23541	11.345	2.3636	0.1	223.17
23542	11.438	2.4545	0.1	222.98
23543	11.161	2.3636	0.1	239.9
23544	11.253	2.4545	0.1	240.72
23545	10.976	2.3636	0.1	256.29
23546	11.068	2.4545	0.1	258.46
23547	10.791	2.3636	0.1	271.56
23548	10.884	2.4545	0.1	275.52
23549	10.606	2.3636	0.1	284.58
23550	10.699	2.4545	0.1	290.9
23551	10.422	2.3636	0.1	293.62
23552	10.514	2.4545	0.1	303.07
23553	10.237	2.3636	0.1	296.18
23554	10.329	2.4545	0.1	309.79
23555	10.052	2.3636	0.1	288.6
23556	10.145	2.4545	0.1	307.79
23557	9.8675	2.3636	0.1	265.48
23558	9.9598	2.4545	0.1	292.24
23559	9.6827	2.3636	0.1	218.76
23560	9.7751	2.4545	0.1	256.1
23561	9.498	2.3636	0.1	136.14
23562	9.5904	2.4545	0.1	189.06
23563	9.3133	2.3636	0.1	2.8935
23564	9.4056	2.4545	0.1	76.108
23565	9.1285	2.3636	0.1	2.3122
23566	9.2209	2.4545	0.1	-2.1101
23567	8.9438	2.3636	0.1	12.689
23568	9.0361	2.4545	0.1	4.3269
23569	8.8514	2.4545	0.1	5.6719
23570	8.759	2.3636	0.1	26.513
23571	23.723	2.5455	0.1	-0.22585
23572	23.815	2.6364	0.1	-0.20762
23573	23.908	2.5455	0.1	-0.42591
23574	23.538	2.5455	0.1	-0.22947
23575	23.631	2.6364	0.1	-0.33247
23576	23.353	2.5455	0.1	-0.13232
23577	23.446	2.6364	0.1	-0.14466
23578	23.169	2.5455	0.1	-0.10928
23579	23.261	2.6364	0.1	-0.12702
23580	22.984	2.5455	0.1	-8.6427e-002
23581	23.076	2.6364	0.1	-9.5197e-002
23582	22.799	2.5455	0.1	-7.2971e-002
23583	22.892	2.6364	0.1	-7.9962e-002
23584	22.614	2.5455	0.1	-6.2592e-002
23585	22.707	2.6364	0.1	-6.7627e-002
23586	22.43	2.5455	0.1	-5.4862e-002
23587	22.522	2.6364	0.1	-5.8845e-002
23588	22.245	2.5455	0.1	-4.8757e-002
23589	22.337	2.6364	0.1	-5.1957e-002
23590	22.06	2.5455	0.1	-4.3846e-002
23591	22.153	2.6364	0.1	-4.6502e-002
23592	21.876	2.5455	0.1	-3.9788e-002
23593	21.968	2.6364	0.1	-4.2044e-002
23594	21.691	2.5455	0.1	-3.6375e-002
23595	21.783	2.6364	0.1	-3.8325e-002
23596	21.506	2.5455	0.1	-3.3468e-002
23597	21.598	2.6364	0.1	-3.5172e-002
23598	21.321	2.5455	0.1	-3.0965e-002
23599	21.414	2.6364	0.1	-3.2475e-002
23600	21.137	2.5455	0.1	-2.8783e-002
23601	21.229	2.6364	0.1	-3.0135e-002
23602	20.952	2.5455	0.1	-2.6864e-002
23603	21.044	2.6364	0.1	-2.8085e-002
23604	20.767	2.5455	0.1	-2.5155e-002
23605	20.859	2.6364	0.1	-2.6275e-002
23606	20.582	2.5455	0.1	-2.3619e-002
23607	20.675	2.6364	0.1	-2.4649e-002
23608	20.398	2.5455	0.1	-2.2242e-002
23609	20.49	2.6364	0.1	-2.3184e-002
23610	20.213	2.5455	0.1	-2.1008e-002
23611	20.305	2.6364	0.1	-2.1874e-002
23612	20.028	2.5455	0.1	-1.9892e-002
23613	20.12	2.6364	0.1	-2.0699e-002
23614	19.843	2.5455	0.1	-1.8864e-002
23615	19.936	2.6364	0.1	-1.9629e-002
23616	19.659	2.5455	0.1	-1.7909e-002
23617	19.751	2.6364	0.1	-1.8629e-002
23618	19.474	2.5455	0.1	-1.7035e-002
23619	19.566	2.6364	0.1	-1.7706e-002
23620	19.289	2.5455	0.1	-1.6238e-002
23621	19.382	2.6364	0.1	-1.6871e-002
23622	19.104	2.5455	0.1	-1.5502e-002
23623	19.197	2.6364	0.1	-1.6102e-002
23624	18.92	2.5455	0.1	-1.4819e-002
23625	19.012	2.6364	0.1	-1.539e-002
23626	18.735	2.5455	0.1	-1.417e-002
23627	18.827	2.6364	0.1	-1.4729e-002
23628	18.55	2.5455	0.1	-1.3545e-002
23629	18.643	2.6364	0.1	-1.4085e-002
23630	18.365	2.5455	0.1	-1.296e-002
23631	18.458	2.6364	0.1	-1.3477e-002
23632	18.181	2.5455	0.1	-1.242e-002
23633	18.273	2.6364	0.1	-1.2914e-002
23634	17.996	2.5455	0.1	-1.1909e-002
23635	18.088	2.6364	0.1	-1.2399e-002
23636	17.811	2.5455	0.1	-1.1395e-002
23637	17.904	2.6364	0.1	-1.1902e-002
23638	17.627	2.5455	0.1	-1.0863e-002
23639	17.719	2.6364	0.1	-1.1385e-002
23640	17.442	2.5455	0.1	-1.0319e-002
23641	17.534	2.6364	0.1	-1.0866e-002
23642	17.257	2.5455	0.1	-9.7076e-003
23643	17.349	2.6364	0.1	-1.0347e-002
23644	17.072	2.5455	0.1	-8.7605e-003
23645	17.165	2.6364	0.1	-9.729e-003
23646	16.888	2.5455	0.1	-1.0975e-003
23647	16.98	2.6364	0.1	-8.4152e-003
23648	16.703	2.5455	0.1	2.0672
23649	16.795	2.6364	0.1	0.96317
23650	16.518	2.5455	0.1	4.6417
23651	16.61	2.6364	0.1	3.5035
23652	16.333	2.5455	0.1	7.3371
23653	16.426	2.6364	0.1	6.1579
23654	16.149	2.5455	0.1	10.172
23655	16.241	2.6364	0.1	8.9438
23656	15.964	2.5455	0.1	13.166
23657	16.056	2.6364	0.1	11.881
23658	15.779	2.5455	0.1	16.34
23659	15.871	2.6364	0.1	14.99
23660	15.594	2.5455	0.1	19.718
23661	15.687	2.6364	0.1	18.294
23662	15.41	2.5455	0.1	23.324
23663	15.502	2.6364	0.1	21.817
23664	15.225	2.5455	0.1	27.185
23665	15.317	2.6364	0.1	25.586
23666	15.04	2.5455	0.1	31.33
23667	15.133	2.6364	0.1	29.628
23668	14.855	2.5455	0.1	35.79
23669	14.948	2.6364	0.1	33.976
23670	14.671	2.5455	0.1	40.599
23671	14.763	2.6364	0.1	38.662
23672	14.486	2.5455	0.1	45.795
23673	14.578	2.6364	0.1	43.724
23674	14.301	2.5455	0.1	51.418
23675	14.394	2.6364	0.1	49.201
23676	14.116	2.5455	0.1	57.512
23677	14.209	2.6364	0.1	55.139
23678	13.932	2.5455	0.1	64.123
23679	14.024	2.6364	0.1	61.583
23680	13.747	2.5455	0.1	71.305
23681	13.839	2.6364	0.1	68.587
23682	13.562	2.5455	0.1	79.111
23683	13.655	2.6364	0.1	76.206
23684	13.378	2.5455	0.1	87.601
23685	13.47	2.6364	0.1	84.499
23686	13.193	2.5455	0.1	96.835
23687	13.285	2.6364	0.1	93.531
23688	13.008	2.5455	0.1	106.88
23689	13.1	2.6364	0.1	103.37
23690	12.823	2.5455	0.1	117.79
23691	12.916	2.6364	0.1	114.08
23692	12.639	2.5455	0.1	129.64
23693	12.731	2.6364	0.1	125.73
23694	12.454	2.5455	0.1	142.47
23695	12.546	2.6364	0.1	138.38
23696	12.269	2.5455	0.1	156.34
23697	12.361	2.6364	0.1	152.1
23698	12.084	2.5455	0.1	171.26
23699	12.177	2.6364	0.1	166.92
23700	11.9	2.5455	0.1	187.23
23701	11.992	2.6364	0.1	182.85
23702	11.715	2.5455	0.1	204.2
23703	11.807	2.6364	0.1	199.88
23704	11.53	2.5455	0.1	222.04
23705	11.622	2.6364	0.1	217.92
23706	11.345	2.5455	0.1	240.53
23707	11.438	2.6364	0.1	236.8
23708	11.161	2.5455	0.1	259.28
23709	11.253	2.6364	0.1	256.21
23710	10.976	2.5455	0.1	277.7
23711	11.068	2.6364	0.1	275.66
23712	10.791	2.5455	0.1	294.87
23713	10.884	2.6364	0.1	294.36
23714	10.606	2.5455	0.1	309.41
23715	10.699	2.6364	0.1	311.13
23716	10.422	2.5455	0.1	319.26
23717	10.514	2.6364	0.1	324.19
23718	10.237	2.5455	0.1	321.38
23719	10.329	2.6364	0.1	330.88
23720	10.052	2.5455	0.1	311.29
23721	10.145	2.6364	0.1	327.26
23722	9.8675	2.5455	0.1	282.43
23723	9.9598	2.6364	0.1	307.62
23724	9.6827	2.5455	0.1	225.18
23725	9.7751	2.6364	0.1	263.64
23726	9.498	2.5455	0.1	125.78
23727	9.5904	2.6364	0.1	183.69
23728	9.3133	2.5455	0.1	1.0152
23729	9.4056	2.6364	0.1	52.725
23730	9.1285	2.5455	0.1	-9.9115e-002
23731	9.2209	2.6364	0.1	-0.32736
23732	8.9438	2.5455	0.1	-2.4492
23733	9.0361	2.6364	0.1	-0.24156
23734	8.8514	2.6364	0.1	-1.0817
23735	8.759	2.5455	0.1	-3.2267
23736	23.723	2.7273	0.1	-0.22765
23737	23.815	2.8182	0.1	-0.20971
23738	23.908	2.7273	0.1	-0.42647
23739	23.538	2.7273	0.1	-0.23057
23740	23.631	2.8182	0.1	-0.33346
23741	23.353	2.7273	0.1	-0.13318
23742	23.446	2.8182	0.1	-0.14535
23743	23.169	2.7273	0.1	-0.11004
23744	23.261	2.8182	0.1	-0.12763
23745	22.984	2.7273	0.1	-8.7124e-002
23746	23.076	2.8182	0.1	-9.5734e-002
23747	22.799	2.7273	0.1	-7.3625e-002
23748	22.892	2.8182	0.1	-8.046e-002
23749	22.614	2.7273	0.1	-6.3215e-002
23750	22.707	2.8182	0.1	-6.8099e-002
23751	22.43	2.7273	0.1	-5.5465e-002
23752	22.522	2.8182	0.1	-5.9298e-002
23753	22.245	2.7273	0.1	-4.9346e-002
23754	22.337	2.8182	0.1	-5.2398e-002
23755	22.06	2.7273	0.1	-4.4421e-002
23756	22.153	2.8182	0.1	-4.6933e-002
23757	21.876	2.7273	0.1	-4.0355e-002
23758	21.968	2.8182	0.1	-4.2468e-002
23759	21.691	2.7273	0.1	-3.6933e-002
23760	21.783	2.8182	0.1	-3.8741e-002
23761	21.506	2.7273	0.1	-3.4017e-002
23762	21.598	2.8182	0.1	-3.5583e-002
23763	21.321	2.7273	0.1	-3.1504e-002
23764	21.414	2.8182	0.1	-3.2879e-002
23765	21.137	2.7273	0.1	-2.9313e-002
23766	21.229	2.8182	0.1	-3.0532e-002
23767	20.952	2.7273	0.1	-2.7384e-002
23768	21.044	2.8182	0.1	-2.8476e-002
23769	20.767	2.7273	0.1	-2.5664e-002
23770	20.859	2.8182	0.1	-2.6657e-002
23771	20.582	2.7273	0.1	-2.4118e-002
23772	20.675	2.8182	0.1	-2.5022e-002
23773	20.398	2.7273	0.1	-2.2729e-002
23774	20.49	2.8182	0.1	-2.3551e-002
23775	20.213	2.7273	0.1	-2.1483e-002
23776	20.305	2.8182	0.1	-2.2233e-002
23777	20.028	2.7273	0.1	-2.0358e-002
23778	20.12	2.8182	0.1	-2.105e-002
23779	19.843	2.7273	0.1	-1.9321e-002
23780	19.936	2.8182	0.1	-1.9973e-002
23781	19.659	2.7273	0.1	-1.8357e-002
23782	19.751	2.8182	0.1	-1.8966e-002
23783	19.474	2.7273	0.1	-1.7474e-002
23784	19.566	2.8182	0.1	-1.8037e-002
23785	19.289	2.7273	0.1	-1.667e-002
23786	19.382	2.8182	0.1	-1.7195e-002
23787	19.104	2.7273	0.1	-1.5927e-002
23788	19.197	2.8182	0.1	-1.6421e-002
23789	18.92	2.7273	0.1	-1.5239e-002
23790	19.012	2.8182	0.1	-1.5705e-002
23791	18.735	2.7273	0.1	-1.4586e-002
23792	18.827	2.8182	0.1	-1.5041e-002
23793	18.55	2.7273	0.1	-1.3959e-002
23794	18.643	2.8182	0.1	-1.4395e-002
23795	18.365	2.7273	0.1	-1.3374e-002
23796	18.458	2.8182	0.1	-1.3786e-002
23797	18.181	2.7273	0.1	-1.2837e-002
23798	18.273	2.8182	0.1	-1.3225e-002
23799	17.996	2.7273	0.1	-1.2336e-002
23800	18.088	2.8182	0.1	-1.2714e-002
23801	17.811	2.7273	0.1	-1.1837e-002
23802	17.904	2.8182	0.1	-1.2228e-002
23803	17.627	2.7273	0.1	-1.1334e-002
23804	17.719	2.8182	0.1	-1.1727e-002
23805	17.442	2.7273	0.1	-1.0844e-002
23806	17.534	2.8182	0.1	-1.1241e-002
23807	17.257	2.7273	0.1	-1.0346e-002
23808	17.349	2.8182	0.1	-1.0783e-002
23809	17.072	2.7273	0.1	-9.7141e-003
23810	17.165	2.8182	0.1	-1.0315e-002
23811	16.888	2.7273	0.1	-9.4673e-004
23812	16.98	2.8182	0.1	-9.6405e-003
23813	16.703	2.7273	0.1	2.3737
23814	16.795	2.8182	0.1	1.1753
23815	16.518	2.7273	0.1	4.9955
23816	16.61	2.8182	0.1	3.7509
23817	16.333	2.7273	0.1	7.7413
23818	16.426	2.8182	0.1	6.4419
23819	16.149	2.7273	0.1	10.63
23820	16.241	2.8182	0.1	9.2671
23821	15.964	2.7273	0.1	13.684
23822	16.056	2.8182	0.1	12.247
23823	15.779	2.7273	0.1	16.923
23824	15.871	2.8182	0.1	15.403
23825	15.594	2.7273	0.1	20.374
23826	15.687	2.8182	0.1	18.758
23827	15.41	2.7273	0.1	24.06
23828	15.502	2.8182	0.1	22.339
23829	15.225	2.7273	0.1	28.011
23830	15.317	2.8182	0.1	26.171
23831	15.04	2.7273	0.1	32.257
23832	15.133	2.8182	0.1	30.285
23833	14.855	2.7273	0.1	36.832
23834	14.948	2.8182	0.1	34.714
23835	14.671	2.7273	0.1	41.772
23836	14.763	2.8182	0.1	39.492
23837	14.486	2.7273	0.1	47.117
23838	14.578	2.8182	0.1	44.659
23839	14.301	2.7273	0.1	52.91
23840	14.394	2.8182	0.1	50.257
23841	14.116	2.7273	0.1	59.2
23842	14.209	2.8182	0.1	56.332
23843	13.932	2.7273	0.1	66.038
23844	14.024	2.8182	0.1	62.934
23845	13.747	2.7273	0.1	73.479
23846	13.839	2.8182	0.1	70.121
23847	13.562	2.7273	0.1	81.586
23848	13.655	2.8182	0.1	77.95
23849	13.378	2.7273	0.1	90.423
23850	13.47	2.8182	0.1	86.487
23851	13.193	2.7273	0.1	100.06
23852	13.285	2.8182	0.1	95.8
23853	13.008	2.7273	0.1	110.56
23854	13.1	2.8182	0.1	105.96
23855	12.823	2.7273	0.1	122.01
23856	12.916	2.8182	0.1	117.05
23857	12.639	2.7273	0.1	134.47
23858	12.731	2.8182	0.1	129.13
23859	12.454	2.7273	0.1	148.01
23860	12.546	2.8182	0.1	142.28
23861	12.269	2.7273	0.1	162.68
23862	12.361	2.8182	0.1	156.57
23863	12.084	2.7273	0.1	178.51
23864	12.177	2.8182	0.1	172.03
23865	11.9	2.7273	0.1	195.51
23866	11.992	2.8182	0.1	188.7
23867	11.715	2.7273	0.1	213.61
23868	11.807	2.8182	0.1	206.54
23869	11.53	2.7273	0.1	232.68
23870	11.622	2.8182	0.1	225.48
23871	11.345	2.7273	0.1	252.48
23872	11.438	2.8182	0.1	245.32
23873	11.161	2.7273	0.1	272.58
23874	11.253	2.8182	0.1	265.74
23875	10.976	2.7273	0.1	292.3
23876	11.068	2.8182	0.1	286.2
23877	10.791	2.7273	0.1	310.59
23878	10.884	2.8182	0.1	305.83
23879	10.606	2.7273	0.1	325.84
23880	10.699	2.8182	0.1	323.31
23881	10.422	2.7273	0.1	335.65
23882	10.514	2.8182	0.1	336.64
23883	10.237	2.7273	0.1	336.43
23884	10.329	2.8182	0.1	342.83
23885	10.052	2.7273	0.1	322.92
23886	10.145	2.8182	0.1	337.44
23887	9.8675	2.7273	0.1	287.5
23888	9.9598	2.8182	0.1	314.
23889	9.6827	2.7273	0.1	219.54
23890	9.7751	2.8182	0.1	263.36
23891	9.498	2.7273	0.1	105.46
23892	9.5904	2.8182	0.1	173.31
23893	9.3133	2.7273	0.1	-0.58645
23894	9.4056	2.8182	0.1	29.963
23895	9.1285	2.7273	0.1	-0.37812
23896	9.2209	2.8182	0.1	-0.89976
23897	8.9438	2.7273	0.1	1.4048
23898	9.0361	2.8182	0.1	-7.8408e-002
23899	8.8514	2.8182	0.1	1.4587
23900	8.759	2.7273	0.1	3.3247
23901	23.723	2.9091	0.1	-0.22853
23902	23.815	3.	0.1	-0.21041
23903	23.908	2.9091	0.1	-0.42675
23904	23.538	2.9091	0.1	-0.23111
23905	23.631	3.	0.1	-0.33379
23906	23.353	2.9091	0.1	-0.1336
23907	23.446	3.	0.1	-0.14558
23908	23.169	2.9091	0.1	-0.11041
23909	23.261	3.	0.1	-0.12782
23910	22.984	2.9091	0.1	-8.7463e-002
23911	23.076	3.	0.1	-9.5911e-002
23912	22.799	2.9091	0.1	-7.3943e-002
23913	22.892	3.	0.1	-8.0624e-002
23914	22.614	2.9091	0.1	-6.3519e-002
23915	22.707	3.	0.1	-6.8254e-002
23916	22.43	2.9091	0.1	-5.5759e-002
23917	22.522	3.	0.1	-5.9448e-002
23918	22.245	2.9091	0.1	-4.9632e-002
23919	22.337	3.	0.1	-5.2542e-002
23920	22.06	2.9091	0.1	-4.4704e-002
23921	22.153	3.	0.1	-4.7075e-002
23922	21.876	2.9091	0.1	-4.0631e-002
23923	21.968	3.	0.1	-4.2607e-002
23924	21.691	2.9091	0.1	-3.7205e-002
23925	21.783	3.	0.1	-3.8878e-002
23926	21.506	2.9091	0.1	-3.4286e-002
23927	21.598	3.	0.1	-3.5718e-002
23928	21.321	2.9091	0.1	-3.1769e-002
23929	21.414	3.	0.1	-3.3012e-002
23930	21.137	2.9091	0.1	-2.9572e-002
23931	21.229	3.	0.1	-3.0663e-002
23932	20.952	2.9091	0.1	-2.7638e-002
23933	21.044	3.	0.1	-2.8603e-002
23934	20.767	2.9091	0.1	-2.5914e-002
23935	20.859	3.	0.1	-2.6783e-002
23936	20.582	2.9091	0.1	-2.4363e-002
23937	20.675	3.	0.1	-2.5146e-002
23938	20.398	2.9091	0.1	-2.2969e-002
23939	20.49	3.	0.1	-2.3672e-002
23940	20.213	2.9091	0.1	-2.1718e-002
23941	20.305	3.	0.1	-2.2351e-002
23942	20.028	2.9091	0.1	-2.0588e-002
23943	20.12	3.	0.1	-2.1165e-002
23944	19.843	2.9091	0.1	-1.9546e-002
23945	19.936	3.	0.1	-2.0087e-002
23946	19.659	2.9091	0.1	-1.8577e-002
23947	19.751	3.	0.1	-1.9076e-002
23948	19.474	2.9091	0.1	-1.7691e-002
23949	19.566	3.	0.1	-1.8146e-002
23950	19.289	2.9091	0.1	-1.6882e-002
23951	19.382	3.	0.1	-1.7302e-002
23952	19.104	2.9091	0.1	-1.6137e-002
23953	19.197	3.	0.1	-1.6526e-002
23954	18.92	2.9091	0.1	-1.5446e-002
23955	19.012	3.	0.1	-1.581e-002
23956	18.735	2.9091	0.1	-1.4791e-002
23957	18.827	3.	0.1	-1.5144e-002
23958	18.55	2.9091	0.1	-1.4164e-002
23959	18.643	3.	0.1	-1.4498e-002
23960	18.365	2.9091	0.1	-1.358e-002
23961	18.458	3.	0.1	-1.3888e-002
23962	18.181	2.9091	0.1	-1.3045e-002
23963	18.273	3.	0.1	-1.3328e-002
23964	17.996	2.9091	0.1	-1.2548e-002
23965	18.088	3.	0.1	-1.2819e-002
23966	17.811	2.9091	0.1	-1.2058e-002
23967	17.904	3.	0.1	-1.2336e-002
23968	17.627	2.9091	0.1	-1.1572e-002
23969	17.719	3.	0.1	-1.1843e-002
23970	17.442	2.9091	0.1	-1.1113e-002
23971	17.534	3.	0.1	-1.1366e-002
23972	17.257	2.9091	0.1	-1.068e-002
23973	17.349	3.	0.1	-1.0932e-002
23974	17.072	2.9091	0.1	-1.0249e-002
23975	17.165	3.	0.1	-1.052e-002
23976	16.888	2.9091	0.1	1.3144e-003
23977	16.98	3.	0.1	-1.0125e-002
23978	16.703	2.9091	0.1	2.5276
23979	16.795	3.	0.1	1.2463
23980	16.518	2.9091	0.1	5.1733
23981	16.61	3.	0.1	3.8337
23982	16.333	2.9091	0.1	7.9445
23983	16.426	3.	0.1	6.5369
23984	16.149	2.9091	0.1	10.861
23985	16.241	3.	0.1	9.3752
23986	15.964	2.9091	0.1	13.944
23987	16.056	3.	0.1	12.369
23988	15.779	2.9091	0.1	17.217
23989	15.871	3.	0.1	15.541
23990	15.594	2.9091	0.1	20.704
23991	15.687	3.	0.1	18.914
23992	15.41	2.9091	0.1	24.431
23993	15.502	3.	0.1	22.513
23994	15.225	2.9091	0.1	28.428
23995	15.317	3.	0.1	26.367
23996	15.04	2.9091	0.1	32.726
23997	15.133	3.	0.1	30.506
23998	14.855	2.9091	0.1	37.359
23999	14.948	3.	0.1	34.962
24000	14.671	2.9091	0.1	42.365
24001	14.763	3.	0.1	39.771
24002	14.486	2.9091	0.1	47.786
24003	14.578	3.	0.1	44.973
24004	14.301	2.9091	0.1	53.666
24005	14.394	3.	0.1	50.611
24006	14.116	2.9091	0.1	60.056
24007	14.209	3.	0.1	56.733
24008	13.932	2.9091	0.1	67.008
24009	14.024	3.	0.1	63.389
24010	13.747	2.9091	0.1	74.583
24011	13.839	3.	0.1	70.637
24012	13.562	2.9091	0.1	82.844
24013	13.655	3.	0.1	78.537
24014	13.378	2.9091	0.1	91.858
24015	13.47	3.	0.1	87.157
24016	13.193	2.9091	0.1	101.7
24017	13.285	3.	0.1	96.565
24018	13.008	2.9091	0.1	112.44
24019	13.1	3.	0.1	106.84
24020	12.823	2.9091	0.1	124.16
24021	12.916	3.	0.1	118.05
24022	12.639	2.9091	0.1	136.94
24023	12.731	3.	0.1	130.28
24024	12.454	2.9091	0.1	150.84
24025	12.546	3.	0.1	143.6
24026	12.269	2.9091	0.1	165.92
24027	12.361	3.	0.1	158.08
24028	12.084	2.9091	0.1	182.22
24029	12.177	3.	0.1	173.76
24030	11.9	2.9091	0.1	199.73
24031	11.992	3.	0.1	190.67
24032	11.715	2.9091	0.1	218.41
24033	11.807	3.	0.1	208.79
24034	11.53	2.9091	0.1	238.11
24035	11.622	3.	0.1	228.03
24036	11.345	2.9091	0.1	258.58
24037	11.438	3.	0.1	248.2
24038	11.161	2.9091	0.1	279.35
24039	11.253	3.	0.1	268.96
24040	10.976	2.9091	0.1	299.69
24041	11.068	3.	0.1	289.75
24042	10.791	2.9091	0.1	318.48
24043	10.884	3.	0.1	309.67
24044	10.606	2.9091	0.1	333.97
24045	10.699	3.	0.1	327.37
24046	10.422	2.9091	0.1	343.54
24047	10.514	3.	0.1	340.74
24048	10.237	2.9091	0.1	343.28
24049	10.329	3.	0.1	346.67
24050	10.052	2.9091	0.1	327.46
24051	10.145	3.	0.1	340.53
24052	9.8675	2.9091	0.1	287.92
24053	9.9598	3.	0.1	315.59
24054	9.6827	2.9091	0.1	213.7
24055	9.7751	3.	0.1	262.41
24056	9.498	2.9091	0.1	91.977
24057	9.5904	3.	0.1	168.68
24058	9.3133	2.9091	0.1	-0.98488
24059	9.4056	3.	0.1	21.046
24060	9.1285	2.9091	0.1	-0.48399
24061	9.2209	3.	0.1	-0.96677
24062	8.9438	2.9091	0.1	8.6685e-002
24063	9.0361	3.	0.1	-0.11322
24064	8.8514	3.	0.1	0.17898
24065	8.759	2.9091	0.1	1.0392
24066	23.723	3.0909	0.1	-0.22853
24067	23.815	3.1818	0.1	-0.20971
24068	23.908	3.0909	0.1	-0.42675
24069	23.538	3.0909	0.1	-0.23111
24070	23.631	3.1818	0.1	-0.33346
24071	23.353	3.0909	0.1	-0.1336
24072	23.446	3.1818	0.1	-0.14535
24073	23.169	3.0909	0.1	-0.11041
24074	23.261	3.1818	0.1	-0.12762
24075	22.984	3.0909	0.1	-8.7464e-002
24076	23.076	3.1818	0.1	-9.5735e-002
24077	22.799	3.0909	0.1	-7.3944e-002
24078	22.892	3.1818	0.1	-8.0461e-002
24079	22.614	3.0909	0.1	-6.352e-002
24080	22.707	3.1818	0.1	-6.8098e-002
24081	22.43	3.0909	0.1	-5.576e-002
24082	22.522	3.1818	0.1	-5.93e-002
24083	22.245	3.0909	0.1	-4.9632e-002
24084	22.337	3.1818	0.1	-5.2397e-002
24085	22.06	3.0909	0.1	-4.4703e-002
24086	22.153	3.1818	0.1	-4.6933e-002
24087	21.876	3.0909	0.1	-4.0631e-002
24088	21.968	3.1818	0.1	-4.2469e-002
24089	21.691	3.0909	0.1	-3.7205e-002
24090	21.783	3.1818	0.1	-3.874e-002
24091	21.506	3.0909	0.1	-3.4286e-002
24092	21.598	3.1818	0.1	-3.5583e-002
24093	21.321	3.0909	0.1	-3.1769e-002
24094	21.414	3.1818	0.1	-3.2879e-002
24095	21.137	3.0909	0.1	-2.9572e-002
24096	21.229	3.1818	0.1	-3.0532e-002
24097	20.952	3.0909	0.1	-2.7638e-002
24098	21.044	3.1818	0.1	-2.8474e-002
24099	20.767	3.0909	0.1	-2.5915e-002
24100	20.859	3.1818	0.1	-2.6657e-002
24101	20.582	3.0909	0.1	-2.4363e-002
24102	20.675	3.1818	0.1	-2.5022e-002
24103	20.398	3.0909	0.1	-2.2969e-002
24104	20.49	3.1818	0.1	-2.355e-002
24105	20.213	3.0909	0.1	-2.1718e-002
24106	20.305	3.1818	0.1	-2.2232e-002
24107	20.028	3.0909	0.1	-2.0588e-002
24108	20.12	3.1818	0.1	-2.105e-002
24109	19.843	3.0909	0.1	-1.9546e-002
24110	19.936	3.1818	0.1	-1.9973e-002
24111	19.659	3.0909	0.1	-1.8577e-002
24112	19.751	3.1818	0.1	-1.8966e-002
24113	19.474	3.0909	0.1	-1.7691e-002
24114	19.566	3.1818	0.1	-1.8038e-002
24115	19.289	3.0909	0.1	-1.6882e-002
24116	19.382	3.1818	0.1	-1.7195e-002
24117	19.104	3.0909	0.1	-1.6137e-002
24118	19.197	3.1818	0.1	-1.642e-002
24119	18.92	3.0909	0.1	-1.5447e-002
24120	19.012	3.1818	0.1	-1.5705e-002
24121	18.735	3.0909	0.1	-1.4792e-002
24122	18.827	3.1818	0.1	-1.5041e-002
24123	18.55	3.0909	0.1	-1.4164e-002
24124	18.643	3.1818	0.1	-1.4395e-002
24125	18.365	3.0909	0.1	-1.3579e-002
24126	18.458	3.1818	0.1	-1.3786e-002
24127	18.181	3.0909	0.1	-1.3045e-002
24128	18.273	3.1818	0.1	-1.3225e-002
24129	17.996	3.0909	0.1	-1.2548e-002
24130	18.088	3.1818	0.1	-1.2714e-002
24131	17.811	3.0909	0.1	-1.2059e-002
24132	17.904	3.1818	0.1	-1.2227e-002
24133	17.627	3.0909	0.1	-1.1572e-002
24134	17.719	3.1818	0.1	-1.1728e-002
24135	17.442	3.0909	0.1	-1.1112e-002
24136	17.534	3.1818	0.1	-1.124e-002
24137	17.257	3.0909	0.1	-1.068e-002
24138	17.349	3.1818	0.1	-1.0783e-002
24139	17.072	3.0909	0.1	-1.0249e-002
24140	17.165	3.1818	0.1	-1.0315e-002
24141	16.888	3.0909	0.1	1.3154e-003
24142	16.98	3.1818	0.1	-9.64e-003
24143	16.703	3.0909	0.1	2.5276
24144	16.795	3.1818	0.1	1.1753
24145	16.518	3.0909	0.1	5.1733
24146	16.61	3.1818	0.1	3.7509
24147	16.333	3.0909	0.1	7.9445
24148	16.426	3.1818	0.1	6.4419
24149	16.149	3.0909	0.1	10.861
24150	16.241	3.1818	0.1	9.2671
24151	15.964	3.0909	0.1	13.944
24152	16.056	3.1818	0.1	12.247
24153	15.779	3.0909	0.1	17.217
24154	15.871	3.1818	0.1	15.403
24155	15.594	3.0909	0.1	20.704
24156	15.687	3.1818	0.1	18.758
24157	15.41	3.0909	0.1	24.431
24158	15.502	3.1818	0.1	22.339
24159	15.225	3.0909	0.1	28.428
24160	15.317	3.1818	0.1	26.171
24161	15.04	3.0909	0.1	32.726
24162	15.133	3.1818	0.1	30.285
24163	14.855	3.0909	0.1	37.359
24164	14.948	3.1818	0.1	34.714
24165	14.671	3.0909	0.1	42.365
24166	14.763	3.1818	0.1	39.492
24167	14.486	3.0909	0.1	47.786
24168	14.578	3.1818	0.1	44.659
24169	14.301	3.0909	0.1	53.666
24170	14.394	3.1818	0.1	50.257
24171	14.116	3.0909	0.1	60.056
24172	14.209	3.1818	0.1	56.332
24173	13.932	3.0909	0.1	67.008
24174	14.024	3.1818	0.1	62.934
24175	13.747	3.0909	0.1	74.583
24176	13.839	3.1818	0.1	70.121
24177	13.562	3.0909	0.1	82.844
24178	13.655	3.1818	0.1	77.95
24179	13.378	3.0909	0.1	91.858
24180	13.47	3.1818	0.1	86.487
24181	13.193	3.0909	0.1	101.7
24182	13.285	3.1818	0.1	95.8
24183	13.008	3.0909	0.1	112.44
24184	13.1	3.1818	0.1	105.96
24185	12.823	3.0909	0.1	124.16
24186	12.916	3.1818	0.1	117.05
24187	12.639	3.0909	0.1	136.94
24188	12.731	3.1818	0.1	129.13
24189	12.454	3.0909	0.1	150.84
24190	12.546	3.1818	0.1	142.28
24191	12.269	3.0909	0.1	165.92
24192	12.361	3.1818	0.1	156.57
24193	12.084	3.0909	0.1	182.22
24194	12.177	3.1818	0.1	172.03
24195	11.9	3.0909	0.1	199.73
24196	11.992	3.1818	0.1	188.7
24197	11.715	3.0909	0.1	218.41
24198	11.807	3.1818	0.1	206.54
24199	11.53	3.0909	0.1	238.11
24200	11.622	3.1818	0.1	225.48
24201	11.345	3.0909	0.1	258.58
24202	11.438	3.1818	0.1	245.32
24203	11.161	3.0909	0.1	279.35
24204	11.253	3.1818	0.1	265.74
24205	10.976	3.0909	0.1	299.69
24206	11.068	3.1818	0.1	286.2
24207	10.791	3.0909	0.1	318.48
24208	10.884	3.1818	0.1	305.83
24209	10.606	3.0909	0.1	333.97
24210	10.699	3.1818	0.1	323.31
24211	10.422	3.0909	0.1	343.54
24212	10.514	3.1818	0.1	336.64
24213	10.237	3.0909	0.1	343.28
24214	10.329	3.1818	0.1	342.83
24215	10.052	3.0909	0.1	327.46
24216	10.145	3.1818	0.1	337.44
24217	9.8675	3.0909	0.1	287.92
24218	9.9598	3.1818	0.1	314.
24219	9.6827	3.0909	0.1	213.7
24220	9.7751	3.1818	0.1	263.36
24221	9.498	3.0909	0.1	91.977
24222	9.5904	3.1818	0.1	173.31
24223	9.3133	3.0909	0.1	-0.98488
24224	9.4056	3.1818	0.1	29.963
24225	9.1285	3.0909	0.1	-0.48399
24226	9.2209	3.1818	0.1	-0.89976
24227	8.9438	3.0909	0.1	8.6686e-002
24228	9.0361	3.1818	0.1	-7.8408e-002
24229	8.8514	3.1818	0.1	1.4587
24230	8.759	3.0909	0.1	1.0392
24231	23.723	3.2727	0.1	-0.22765
24232	23.815	3.3636	0.1	-0.20761
24233	23.908	3.2727	0.1	-0.42648
24234	23.538	3.2727	0.1	-0.23058
24235	23.631	3.3636	0.1	-0.33247
24236	23.353	3.2727	0.1	-0.13318
24237	23.446	3.3636	0.1	-0.14466
24238	23.169	3.2727	0.1	-0.11004
24239	23.261	3.3636	0.1	-0.12702
24240	22.984	3.2727	0.1	-8.7124e-002
24241	23.076	3.3636	0.1	-9.5197e-002
24242	22.799	3.2727	0.1	-7.3624e-002
24243	22.892	3.3636	0.1	-7.9961e-002
24244	22.614	3.2727	0.1	-6.3215e-002
24245	22.707	3.3636	0.1	-6.7627e-002
24246	22.43	3.2727	0.1	-5.5465e-002
24247	22.522	3.3636	0.1	-5.8846e-002
24248	22.245	3.2727	0.1	-4.9345e-002
24249	22.337	3.3636	0.1	-5.1956e-002
24250	22.06	3.2727	0.1	-4.4423e-002
24251	22.153	3.3636	0.1	-4.6502e-002
24252	21.876	3.2727	0.1	-4.0355e-002
24253	21.968	3.3636	0.1	-4.2045e-002
24254	21.691	3.2727	0.1	-3.6932e-002
24255	21.783	3.3636	0.1	-3.8323e-002
24256	21.506	3.2727	0.1	-3.4018e-002
24257	21.598	3.3636	0.1	-3.5173e-002
24258	21.321	3.2727	0.1	-3.1504e-002
24259	21.414	3.3636	0.1	-3.2474e-002
24260	21.137	3.2727	0.1	-2.9312e-002
24261	21.229	3.3636	0.1	-3.0135e-002
24262	20.952	3.2727	0.1	-2.7383e-002
24263	21.044	3.3636	0.1	-2.8085e-002
24264	20.767	3.2727	0.1	-2.5664e-002
24265	20.859	3.3636	0.1	-2.6275e-002
24266	20.582	3.2727	0.1	-2.4117e-002
24267	20.675	3.3636	0.1	-2.4649e-002
24268	20.398	3.2727	0.1	-2.2728e-002
24269	20.49	3.3636	0.1	-2.3184e-002
24270	20.213	3.2727	0.1	-2.1483e-002
24271	20.305	3.3636	0.1	-2.1874e-002
24272	20.028	3.2727	0.1	-2.0358e-002
24273	20.12	3.3636	0.1	-2.0699e-002
24274	19.843	3.2727	0.1	-1.932e-002
24275	19.936	3.3636	0.1	-1.9628e-002
24276	19.659	3.2727	0.1	-1.8357e-002
24277	19.751	3.3636	0.1	-1.8629e-002
24278	19.474	3.2727	0.1	-1.7475e-002
24279	19.566	3.3636	0.1	-1.7707e-002
24280	19.289	3.2727	0.1	-1.6669e-002
24281	19.382	3.3636	0.1	-1.687e-002
24282	19.104	3.2727	0.1	-1.5926e-002
24283	19.197	3.3636	0.1	-1.6101e-002
24284	18.92	3.2727	0.1	-1.5239e-002
24285	19.012	3.3636	0.1	-1.539e-002
24286	18.735	3.2727	0.1	-1.4585e-002
24287	18.827	3.3636	0.1	-1.4729e-002
24288	18.55	3.2727	0.1	-1.3959e-002
24289	18.643	3.3636	0.1	-1.4085e-002
24290	18.365	3.2727	0.1	-1.3374e-002
24291	18.458	3.3636	0.1	-1.3477e-002
24292	18.181	3.2727	0.1	-1.2837e-002
24293	18.273	3.3636	0.1	-1.2915e-002
24294	17.996	3.2727	0.1	-1.2335e-002
24295	18.088	3.3636	0.1	-1.2398e-002
24296	17.811	3.2727	0.1	-1.1836e-002
24297	17.904	3.3636	0.1	-1.1902e-002
24298	17.627	3.2727	0.1	-1.1334e-002
24299	17.719	3.3636	0.1	-1.1385e-002
24300	17.442	3.2727	0.1	-1.0844e-002
24301	17.534	3.3636	0.1	-1.0866e-002
24302	17.257	3.2727	0.1	-1.0346e-002
24303	17.349	3.3636	0.1	-1.0347e-002
24304	17.072	3.2727	0.1	-9.7143e-003
24305	17.165	3.3636	0.1	-9.7298e-003
24306	16.888	3.2727	0.1	-9.4643e-004
24307	16.98	3.3636	0.1	-8.4152e-003
24308	16.703	3.2727	0.1	2.3737
24309	16.795	3.3636	0.1	0.96316
24310	16.518	3.2727	0.1	4.9955
24311	16.61	3.3636	0.1	3.5035
24312	16.333	3.2727	0.1	7.7413
24313	16.426	3.3636	0.1	6.1579
24314	16.149	3.2727	0.1	10.63
24315	16.241	3.3636	0.1	8.9438
24316	15.964	3.2727	0.1	13.684
24317	16.056	3.3636	0.1	11.881
24318	15.779	3.2727	0.1	16.923
24319	15.871	3.3636	0.1	14.99
24320	15.594	3.2727	0.1	20.374
24321	15.687	3.3636	0.1	18.294
24322	15.41	3.2727	0.1	24.06
24323	15.502	3.3636	0.1	21.817
24324	15.225	3.2727	0.1	28.011
24325	15.317	3.3636	0.1	25.586
24326	15.04	3.2727	0.1	32.257
24327	15.133	3.3636	0.1	29.628
24328	14.855	3.2727	0.1	36.832
24329	14.948	3.3636	0.1	33.976
24330	14.671	3.2727	0.1	41.772
24331	14.763	3.3636	0.1	38.662
24332	14.486	3.2727	0.1	47.117
24333	14.578	3.3636	0.1	43.724
24334	14.301	3.2727	0.1	52.91
24335	14.394	3.3636	0.1	49.201
24336	14.116	3.2727	0.1	59.2
24337	14.209	3.3636	0.1	55.139
24338	13.932	3.2727	0.1	66.038
24339	14.024	3.3636	0.1	61.583
24340	13.747	3.2727	0.1	73.479
24341	13.839	3.3636	0.1	68.587
24342	13.562	3.2727	0.1	81.586
24343	13.655	3.3636	0.1	76.206
24344	13.378	3.2727	0.1	90.423
24345	13.47	3.3636	0.1	84.499
24346	13.193	3.2727	0.1	100.06
24347	13.285	3.3636	0.1	93.531
24348	13.008	3.2727	0.1	110.56
24349	13.1	3.3636	0.1	103.37
24350	12.823	3.2727	0.1	122.01
24351	12.916	3.3636	0.1	114.08
24352	12.639	3.2727	0.1	134.47
24353	12.731	3.3636	0.1	125.73
24354	12.454	3.2727	0.1	148.01
24355	12.546	3.3636	0.1	138.38
24356	12.269	3.2727	0.1	162.68
24357	12.361	3.3636	0.1	152.1
24358	12.084	3.2727	0.1	178.51
24359	12.177	3.3636	0.1	166.92
24360	11.9	3.2727	0.1	195.51
24361	11.992	3.3636	0.1	182.85
24362	11.715	3.2727	0.1	213.61
24363	11.807	3.3636	0.1	199.88
24364	11.53	3.2727	0.1	232.68
24365	11.622	3.3636	0.1	217.92
24366	11.345	3.2727	0.1	252.48
24367	11.438	3.3636	0.1	236.8
24368	11.161	3.2727	0.1	272.58
24369	11.253	3.3636	0.1	256.21
24370	10.976	3.2727	0.1	292.3
24371	11.068	3.3636	0.1	275.66
24372	10.791	3.2727	0.1	310.59
24373	10.884	3.3636	0.1	294.36
24374	10.606	3.2727	0.1	325.84
24375	10.699	3.3636	0.1	311.13
24376	10.422	3.2727	0.1	335.65
24377	10.514	3.3636	0.1	324.19
24378	10.237	3.2727	0.1	336.43
24379	10.329	3.3636	0.1	330.88
24380	10.052	3.2727	0.1	322.92
24381	10.145	3.3636	0.1	327.26
24382	9.8675	3.2727	0.1	287.5
24383	9.9598	3.3636	0.1	307.62
24384	9.6827	3.2727	0.1	219.54
24385	9.7751	3.3636	0.1	263.64
24386	9.498	3.2727	0.1	105.46
24387	9.5904	3.3636	0.1	183.69
24388	9.3133	3.2727	0.1	-0.58645
24389	9.4056	3.3636	0.1	52.725
24390	9.1285	3.2727	0.1	-0.37812
24391	9.2209	3.3636	0.1	-0.32737
24392	8.9438	3.2727	0.1	1.4048
24393	9.0361	3.3636	0.1	-0.24156
24394	8.8514	3.3636	0.1	-1.0817
24395	8.759	3.2727	0.1	3.3247
24396	23.723	3.4545	0.1	-0.22585
24397	23.815	3.5455	0.1	-0.20405
24398	23.908	3.4545	0.1	-0.42591
24399	23.538	3.4545	0.1	-0.22947
24400	23.631	3.5455	0.1	-0.33076
24401	23.353	3.4545	0.1	-0.13232
24402	23.446	3.5455	0.1	-0.14348
24403	23.169	3.4545	0.1	-0.10928
24404	23.261	3.5455	0.1	-0.12599
24405	22.984	3.4545	0.1	-8.6427e-002
24406	23.076	3.5455	0.1	-9.4272e-002
24407	22.799	3.4545	0.1	-7.2971e-002
24408	22.892	3.5455	0.1	-7.9102e-002
24409	22.614	3.4545	0.1	-6.2593e-002
24410	22.707	3.5455	0.1	-6.6814e-002
24411	22.43	3.4545	0.1	-5.4863e-002
24412	22.522	3.5455	0.1	-5.8063e-002
24413	22.245	3.4545	0.1	-4.8757e-002
24414	22.337	3.5455	0.1	-5.1196e-002
24415	22.06	3.4545	0.1	-4.3845e-002
24416	22.153	3.5455	0.1	-4.5759e-002
24417	21.876	3.4545	0.1	-3.9787e-002
24418	21.968	3.5455	0.1	-4.1314e-002
24419	21.691	3.4545	0.1	-3.6375e-002
24420	21.783	3.5455	0.1	-3.7606e-002
24421	21.506	3.4545	0.1	-3.3468e-002
24422	21.598	3.5455	0.1	-3.4467e-002
24423	21.321	3.4545	0.1	-3.0965e-002
24424	21.414	3.5455	0.1	-3.1782e-002
24425	21.137	3.4545	0.1	-2.8783e-002
24426	21.229	3.5455	0.1	-2.9455e-002
24427	20.952	3.4545	0.1	-2.6864e-002
24428	21.044	3.5455	0.1	-2.7419e-002
24429	20.767	3.4545	0.1	-2.5156e-002
24430	20.859	3.5455	0.1	-2.5622e-002
24431	20.582	3.4545	0.1	-2.362e-002
24432	20.675	3.5455	0.1	-2.4009e-002
24433	20.398	3.4545	0.1	-2.2242e-002
24434	20.49	3.5455	0.1	-2.256e-002
24435	20.213	3.4545	0.1	-2.1007e-002
24436	20.305	3.5455	0.1	-2.1264e-002
24437	20.028	3.4545	0.1	-1.9892e-002
24438	20.12	3.5455	0.1	-2.0102e-002
24439	19.843	3.4545	0.1	-1.8864e-002
24440	19.936	3.5455	0.1	-1.9045e-002
24441	19.659	3.4545	0.1	-1.7908e-002
24442	19.751	3.5455	0.1	-1.8057e-002
24443	19.474	3.4545	0.1	-1.7035e-002
24444	19.566	3.5455	0.1	-1.7146e-002
24445	19.289	3.4545	0.1	-1.6238e-002
24446	19.382	3.5455	0.1	-1.6321e-002
24447	19.104	3.4545	0.1	-1.5502e-002
24448	19.197	3.5455	0.1	-1.556e-002
24449	18.92	3.4545	0.1	-1.482e-002
24450	19.012	3.5455	0.1	-1.4858e-002
24451	18.735	3.4545	0.1	-1.417e-002
24452	18.827	3.5455	0.1	-1.4203e-002
24453	18.55	3.4545	0.1	-1.3545e-002
24454	18.643	3.5455	0.1	-1.3564e-002
24455	18.365	3.4545	0.1	-1.296e-002
24456	18.458	3.5455	0.1	-1.2956e-002
24457	18.181	3.4545	0.1	-1.242e-002
24458	18.273	3.5455	0.1	-1.2393e-002
24459	17.996	3.4545	0.1	-1.1909e-002
24460	18.088	3.5455	0.1	-1.187e-002
24461	17.811	3.4545	0.1	-1.1395e-002
24462	17.904	3.5455	0.1	-1.1361e-002
24463	17.627	3.4545	0.1	-1.0863e-002
24464	17.719	3.5455	0.1	-1.0819e-002
24465	17.442	3.4545	0.1	-1.0319e-002
24466	17.534	3.5455	0.1	-1.0256e-002
24467	17.257	3.4545	0.1	-9.7077e-003
24468	17.349	3.5455	0.1	-9.6491e-003
24469	17.072	3.4545	0.1	-8.7612e-003
24470	17.165	3.5455	0.1	-8.8381e-003
24471	16.888	3.4545	0.1	-1.0984e-003
24472	16.98	3.5455	0.1	-6.9028e-003
24473	16.703	3.4545	0.1	2.0672
24474	16.795	3.5455	0.1	0.61392
24475	16.518	3.4545	0.1	4.6417
24476	16.61	3.5455	0.1	3.0936
24477	16.333	3.4545	0.1	7.3371
24478	16.426	3.5455	0.1	5.6877
24479	16.149	3.4545	0.1	10.172
24480	16.241	3.5455	0.1	8.409
24481	15.964	3.4545	0.1	13.166
24482	16.056	3.5455	0.1	11.276
24483	15.779	3.4545	0.1	16.34
24484	15.871	3.5455	0.1	14.308
24485	15.594	3.4545	0.1	19.718
24486	15.687	3.5455	0.1	17.528
24487	15.41	3.4545	0.1	23.324
24488	15.502	3.5455	0.1	20.957
24489	15.225	3.4545	0.1	27.185
24490	15.317	3.5455	0.1	24.621
24491	15.04	3.4545	0.1	31.33
24492	15.133	3.5455	0.1	28.546
24493	14.855	3.4545	0.1	35.79
24494	14.948	3.5455	0.1	32.761
24495	14.671	3.4545	0.1	40.599
24496	14.763	3.5455	0.1	37.297
24497	14.486	3.4545	0.1	45.795
24498	14.578	3.5455	0.1	42.188
24499	14.301	3.4545	0.1	51.418
24500	14.394	3.5455	0.1	47.471
24501	14.116	3.4545	0.1	57.512
24502	14.209	3.5455	0.1	53.185
24503	13.932	3.4545	0.1	64.123
24504	14.024	3.5455	0.1	59.373
24505	13.747	3.4545	0.1	71.305
24506	13.839	3.5455	0.1	66.08
24507	13.562	3.4545	0.1	79.111
24508	13.655	3.5455	0.1	73.358
24509	13.378	3.4545	0.1	87.601
24510	13.47	3.5455	0.1	81.258
24511	13.193	3.4545	0.1	96.835
24512	13.285	3.5455	0.1	89.834
24513	13.008	3.4545	0.1	106.88
24514	13.1	3.5455	0.1	99.146
24515	12.823	3.4545	0.1	117.79
24516	12.916	3.5455	0.1	109.25
24517	12.639	3.4545	0.1	129.64
24518	12.731	3.5455	0.1	120.2
24519	12.454	3.4545	0.1	142.47
24520	12.546	3.5455	0.1	132.06
24521	12.269	3.4545	0.1	156.34
24522	12.361	3.5455	0.1	144.86
24523	12.084	3.4545	0.1	171.26
24524	12.177	3.5455	0.1	158.63
24525	11.9	3.4545	0.1	187.23
24526	11.992	3.5455	0.1	173.39
24527	11.715	3.4545	0.1	204.2
24528	11.807	3.5455	0.1	189.1
24529	11.53	3.4545	0.1	222.04
24530	11.622	3.5455	0.1	205.68
24531	11.345	3.4545	0.1	240.53
24532	11.438	3.5455	0.1	222.98
24533	11.161	3.4545	0.1	259.28
24534	11.253	3.5455	0.1	240.72
24535	10.976	3.4545	0.1	277.7
24536	11.068	3.5455	0.1	258.46
24537	10.791	3.4545	0.1	294.87
24538	10.884	3.5455	0.1	275.52
24539	10.606	3.4545	0.1	309.41
24540	10.699	3.5455	0.1	290.9
24541	10.422	3.4545	0.1	319.26
24542	10.514	3.5455	0.1	303.07
24543	10.237	3.4545	0.1	321.38
24544	10.329	3.5455	0.1	309.79
24545	10.052	3.4545	0.1	311.29
24546	10.145	3.5455	0.1	307.79
24547	9.8675	3.4545	0.1	282.43
24548	9.9598	3.5455	0.1	292.24
24549	9.6827	3.4545	0.1	225.18
24550	9.7751	3.5455	0.1	256.1
24551	9.498	3.4545	0.1	125.78
24552	9.5904	3.5455	0.1	189.06
24553	9.3133	3.4545	0.1	1.0152
24554	9.4056	3.5455	0.1	76.108
24555	9.1285	3.4545	0.1	-9.9116e-002
24556	9.2209	3.5455	0.1	-2.1101
24557	8.9438	3.4545	0.1	-2.4492
24558	9.0361	3.5455	0.1	4.3269
24559	8.8514	3.5455	0.1	5.6719
24560	8.759	3.4545	0.1	-3.2267
24561	23.723	3.6364	0.1	-0.22307
24562	23.815	3.7273	0.1	-0.19893
24563	23.908	3.6364	0.1	-0.42503
24564	23.538	3.6364	0.1	-0.22776
24565	23.631	3.7273	0.1	-0.32828
24566	23.353	3.6364	0.1	-0.13098
24567	23.446	3.7273	0.1	-0.14174
24568	23.169	3.6364	0.1	-0.10809
24569	23.261	3.7273	0.1	-0.12447
24570	22.984	3.6364	0.1	-8.5339e-002
24571	23.076	3.7273	0.1	-9.2914e-002
24572	22.799	3.6364	0.1	-7.195e-002
24573	22.892	3.7273	0.1	-7.7839e-002
24574	22.614	3.6364	0.1	-6.1616e-002
24575	22.707	3.7273	0.1	-6.5616e-002
24576	22.43	3.6364	0.1	-5.3917e-002
24577	22.522	3.7273	0.1	-5.6909e-002
24578	22.245	3.6364	0.1	-4.7837e-002
24579	22.337	3.7273	0.1	-5.0076e-002
24580	22.06	3.6364	0.1	-4.2944e-002
24581	22.153	3.7273	0.1	-4.4664e-002
24582	21.876	3.6364	0.1	-3.8901e-002
24583	21.968	3.7273	0.1	-4.0241e-002
24584	21.691	3.6364	0.1	-3.5505e-002
24585	21.783	3.7273	0.1	-3.6553e-002
24586	21.506	3.6364	0.1	-3.2615e-002
24587	21.598	3.7273	0.1	-3.3434e-002
24588	21.321	3.6364	0.1	-3.0127e-002
24589	21.414	3.7273	0.1	-3.077e-002
24590	21.137	3.6364	0.1	-2.7962e-002
24591	21.229	3.7273	0.1	-2.8464e-002
24592	20.952	3.6364	0.1	-2.6061e-002
24593	21.044	3.7273	0.1	-2.645e-002
24594	20.767	3.6364	0.1	-2.4369e-002
24595	20.859	3.7273	0.1	-2.4676e-002
24596	20.582	3.6364	0.1	-2.2852e-002
24597	20.675	3.7273	0.1	-2.3084e-002
24598	20.398	3.6364	0.1	-2.1491e-002
24599	20.49	3.7273	0.1	-2.1658e-002
24600	20.213	3.6364	0.1	-2.0273e-002
24601	20.305	3.7273	0.1	-2.0383e-002
24602	20.028	3.6364	0.1	-1.9175e-002
24603	20.12	3.7273	0.1	-1.9243e-002
24604	19.843	3.6364	0.1	-1.8163e-002
24605	19.936	3.7273	0.1	-1.8205e-002
24606	19.659	3.6364	0.1	-1.7223e-002
24607	19.751	3.7273	0.1	-1.7237e-002
24608	19.474	3.6364	0.1	-1.6364e-002
24609	19.566	3.7273	0.1	-1.6343e-002
24610	19.289	3.6364	0.1	-1.5578e-002
24611	19.382	3.7273	0.1	-1.5535e-002
24612	19.104	3.6364	0.1	-1.4853e-002
24613	19.197	3.7273	0.1	-1.4788e-002
24614	18.92	3.6364	0.1	-1.418e-002
24615	19.012	3.7273	0.1	-1.4099e-002
24616	18.735	3.6364	0.1	-1.3538e-002
24617	18.827	3.7273	0.1	-1.3454e-002
24618	18.55	3.6364	0.1	-1.2918e-002
24619	18.643	3.7273	0.1	-1.2824e-002
24620	18.365	3.6364	0.1	-1.2334e-002
24621	18.458	3.7273	0.1	-1.2221e-002
24622	18.181	3.6364	0.1	-1.179e-002
24623	18.273	3.7273	0.1	-1.1659e-002
24624	17.996	3.6364	0.1	-1.1271e-002
24625	18.088	3.7273	0.1	-1.1131e-002
24626	17.811	3.6364	0.1	-1.0737e-002
24627	17.904	3.7273	0.1	-1.0608e-002
24628	17.627	3.6364	0.1	-1.0169e-002
24629	17.719	3.7273	0.1	-1.0039e-002
24630	17.442	3.6364	0.1	-9.5598e-003
24631	17.534	3.7273	0.1	-9.4263e-003
24632	17.257	3.6364	0.1	-8.8178e-003
24633	17.349	3.7273	0.1	-8.7298e-003
24634	17.072	3.6364	0.1	-7.5626e-003
24635	17.165	3.7273	0.1	-7.7366e-003
24636	16.888	3.6364	0.1	-1.0332e-003
24637	16.98	3.7273	0.1	-5.434e-003
24638	16.703	3.6364	0.1	1.6113
24639	16.795	3.7273	0.1	0.16262
24640	16.518	3.6364	0.1	4.1152
24641	16.61	3.7273	0.1	2.525
24642	16.333	3.6364	0.1	6.7361
24643	16.426	3.7273	0.1	5.0359
24644	16.149	3.6364	0.1	9.4905
24645	16.241	3.7273	0.1	7.6684
24646	15.964	3.6364	0.1	12.397
24647	16.056	3.7273	0.1	10.439
24648	15.779	3.6364	0.1	15.475
24649	15.871	3.7273	0.1	13.367
24650	15.594	3.6364	0.1	18.747
24651	15.687	3.7273	0.1	16.471
24652	15.41	3.6364	0.1	22.235
24653	15.502	3.7273	0.1	19.772
24654	15.225	3.6364	0.1	25.965
24655	15.317	3.7273	0.1	23.293
24656	15.04	3.6364	0.1	29.961
24657	15.133	3.7273	0.1	27.059
24658	14.855	3.6364	0.1	34.253
24659	14.948	3.7273	0.1	31.094
24660	14.671	3.6364	0.1	38.872
24661	14.763	3.7273	0.1	35.427
24662	14.486	3.6364	0.1	43.851
24663	14.578	3.7273	0.1	40.087
24664	14.301	3.6364	0.1	49.226
24665	14.394	3.7273	0.1	45.106
24666	14.116	3.6364	0.1	55.035
24667	14.209	3.7273	0.1	50.519
24668	13.932	3.6364	0.1	61.32
24669	14.024	3.7273	0.1	56.361
24670	13.747	3.6364	0.1	68.125
24671	13.839	3.7273	0.1	62.672
24672	13.562	3.6364	0.1	75.497
24673	13.655	3.7273	0.1	69.493
24674	13.378	3.6364	0.1	83.485
24675	13.47	3.7273	0.1	76.865
24676	13.193	3.6364	0.1	92.14
24677	13.285	3.7273	0.1	84.834
24678	13.008	3.6364	0.1	101.51
24679	13.1	3.7273	0.1	93.444
24680	12.823	3.6364	0.1	111.66
24681	12.916	3.7273	0.1	102.74
24682	12.639	3.6364	0.1	122.62
24683	12.731	3.7273	0.1	112.76
24684	12.454	3.6364	0.1	134.44
24685	12.546	3.7273	0.1	123.55
24686	12.269	3.6364	0.1	147.15
24687	12.361	3.7273	0.1	135.13
24688	12.084	3.6364	0.1	160.76
24689	12.177	3.7273	0.1	147.51
24690	11.9	3.6364	0.1	175.25
24691	11.992	3.7273	0.1	160.7
24692	11.715	3.6364	0.1	190.58
24693	11.807	3.7273	0.1	174.65
24694	11.53	3.6364	0.1	206.62
24695	11.622	3.7273	0.1	189.27
24696	11.345	3.6364	0.1	223.17
24697	11.438	3.7273	0.1	204.43
24698	11.161	3.6364	0.1	239.9
24699	11.253	3.7273	0.1	219.87
24700	10.976	3.6364	0.1	256.29
24701	11.068	3.7273	0.1	235.22
24702	10.791	3.6364	0.1	271.56
24703	10.884	3.7273	0.1	249.87
24704	10.606	3.6364	0.1	284.58
24705	10.699	3.7273	0.1	262.98
24706	10.422	3.6364	0.1	293.62
24707	10.514	3.7273	0.1	273.24
24708	10.237	3.6364	0.1	296.18
24709	10.329	3.7273	0.1	278.75
24710	10.052	3.6364	0.1	288.6
24711	10.145	3.7273	0.1	276.72
24712	9.8675	3.6364	0.1	265.48
24713	9.9598	3.7273	0.1	263.03
24714	9.6827	3.6364	0.1	218.76
24715	9.7751	3.7273	0.1	231.58
24716	9.498	3.6364	0.1	136.14
24717	9.5904	3.7273	0.1	173.48
24718	9.3133	3.6364	0.1	2.8935
24719	9.4056	3.7273	0.1	73.996
24720	9.1285	3.6364	0.1	2.3122
24721	9.2209	3.7273	0.1	0.2165
24722	8.9438	3.6364	0.1	12.689
24723	9.0361	3.7273	0.1	-12.09
24724	8.8514	3.7273	0.1	11.263
24725	8.759	3.6364	0.1	26.513
24726	23.723	3.8182	0.1	-0.21921
24727	23.815	3.9091	0.1	-0.19209
24728	23.908	3.8182	0.1	-0.42377
24729	23.538	3.8182	0.1	-0.22536
24730	23.631	3.9091	0.1	-0.3249
24731	23.353	3.8182	0.1	-0.1291
24732	23.446	3.9091	0.1	-0.13937
24733	23.169	3.8182	0.1	-0.10641
24734	23.261	3.9091	0.1	-0.12239
24735	22.984	3.8182	0.1	-8.3804e-002
24736	23.076	3.9091	0.1	-9.1047e-002
24737	22.799	3.8182	0.1	-7.0504e-002
24738	22.892	3.9091	0.1	-7.6099e-002
24739	22.614	3.8182	0.1	-6.0233e-002
24740	22.707	3.9091	0.1	-6.3964e-002
24741	22.43	3.8182	0.1	-5.258e-002
24742	22.522	3.9091	0.1	-5.5321e-002
24743	22.245	3.8182	0.1	-4.6533e-002
24744	22.337	3.9091	0.1	-4.8532e-002
24745	22.06	3.8182	0.1	-4.1669e-002
24746	22.153	3.9091	0.1	-4.3157e-002
24747	21.876	3.8182	0.1	-3.7653e-002
24748	21.968	3.9091	0.1	-3.8769e-002
24749	21.691	3.8182	0.1	-3.428e-002
24750	21.783	3.9091	0.1	-3.5113e-002
24751	21.506	3.8182	0.1	-3.1416e-002
24752	21.598	3.9091	0.1	-3.2025e-002
24753	21.321	3.8182	0.1	-2.8955e-002
24754	21.414	3.9091	0.1	-2.9394e-002
24755	21.137	3.8182	0.1	-2.6817e-002
24756	21.229	3.9091	0.1	-2.7121e-002
24757	20.952	3.8182	0.1	-2.4943e-002
24758	21.044	3.9091	0.1	-2.5141e-002
24759	20.767	3.8182	0.1	-2.3279e-002
24760	20.859	3.9091	0.1	-2.34e-002
24761	20.582	3.8182	0.1	-2.1788e-002
24762	20.675	3.9091	0.1	-2.1842e-002
24763	20.398	3.8182	0.1	-2.0455e-002
24764	20.49	3.9091	0.1	-2.0449e-002
24765	20.213	3.8182	0.1	-1.9263e-002
24766	20.305	3.9091	0.1	-1.9205e-002
24767	20.028	3.8182	0.1	-1.8189e-002
24768	20.12	3.9091	0.1	-1.8095e-002
24769	19.843	3.8182	0.1	-1.72e-002
24770	19.936	3.9091	0.1	-1.7087e-002
24771	19.659	3.8182	0.1	-1.6282e-002
24772	19.751	3.9091	0.1	-1.6147e-002
24773	19.474	3.8182	0.1	-1.5443e-002
24774	19.566	3.9091	0.1	-1.5279e-002
24775	19.289	3.8182	0.1	-1.4677e-002
24776	19.382	3.9091	0.1	-1.4494e-002
24777	19.104	3.8182	0.1	-1.397e-002
24778	19.197	3.9091	0.1	-1.377e-002
24779	18.92	3.8182	0.1	-1.3311e-002
24780	19.012	3.9091	0.1	-1.31e-002
24781	18.735	3.8182	0.1	-1.2681e-002
24782	18.827	3.9091	0.1	-1.2473e-002
24783	18.55	3.8182	0.1	-1.207e-002
24784	18.643	3.9091	0.1	-1.1856e-002
24785	18.365	3.8182	0.1	-1.1492e-002
24786	18.458	3.9091	0.1	-1.1264e-002
24787	18.181	3.8182	0.1	-1.0949e-002
24788	18.273	3.9091	0.1	-1.0707e-002
24789	17.996	3.8182	0.1	-1.0422e-002
24790	18.088	3.9091	0.1	-1.0179e-002
24791	17.811	3.8182	0.1	-9.8706e-003
24792	17.904	3.9091	0.1	-9.6468e-003
24793	17.627	3.8182	0.1	-9.2683e-003
24794	17.719	3.9091	0.1	-9.0575e-003
24795	17.442	3.8182	0.1	-8.5962e-003
24796	17.534	3.9091	0.1	-8.4038e-003
24797	17.257	3.8182	0.1	-7.7399e-003
24798	17.349	3.9091	0.1	-7.6348e-003
24799	17.072	3.8182	0.1	-6.2727e-003
24800	17.165	3.9091	0.1	-6.5177e-003
24801	16.888	3.8182	0.1	-8.8507e-004
24802	16.98	3.9091	0.1	-4.1393e-003
24803	16.703	3.8182	0.1	1.0121
24804	16.795	3.9091	0.1	1.573e-002
24805	16.518	3.8182	0.1	3.4209
24806	16.61	3.9091	0.1	1.8034
24807	16.333	3.8182	0.1	5.9445
24808	16.426	3.9091	0.1	4.2089
24809	16.149	3.8182	0.1	8.5943
24810	16.241	3.9091	0.1	6.7299
24811	15.964	3.8182	0.1	11.387
24812	16.056	3.9091	0.1	9.3803
24813	15.779	3.8182	0.1	14.341
24814	15.871	3.9091	0.1	12.177
24815	15.594	3.8182	0.1	17.475
24816	15.687	3.9091	0.1	15.137
24817	15.41	3.8182	0.1	20.811
24818	15.502	3.9091	0.1	18.279
24819	15.225	3.8182	0.1	24.37
24820	15.317	3.9091	0.1	21.624
24821	15.04	3.8182	0.1	28.175
24822	15.133	3.9091	0.1	25.192
24823	14.855	3.8182	0.1	32.252
24824	14.948	3.9091	0.1	29.006
24825	14.671	3.8182	0.1	36.627
24826	14.763	3.9091	0.1	33.088
24827	14.486	3.8182	0.1	41.329
24828	14.578	3.9091	0.1	37.465
24829	14.301	3.8182	0.1	46.387
24830	14.394	3.9091	0.1	42.162
24831	14.116	3.8182	0.1	51.834
24832	14.209	3.9091	0.1	47.208
24833	13.932	3.8182	0.1	57.704
24834	14.024	3.9091	0.1	52.629
24835	13.747	3.8182	0.1	64.031
24836	13.839	3.9091	0.1	58.458
24837	13.562	3.8182	0.1	70.853
24838	13.655	3.9091	0.1	64.724
24839	13.378	3.8182	0.1	78.207
24840	13.47	3.9091	0.1	71.459
24841	13.193	3.8182	0.1	86.132
24842	13.285	3.9091	0.1	78.693
24843	13.008	3.8182	0.1	94.663
24844	13.1	3.9091	0.1	86.458
24845	12.823	3.8182	0.1	103.84
24846	12.916	3.9091	0.1	94.78
24847	12.639	3.8182	0.1	113.69
24848	12.731	3.9091	0.1	103.68
24849	12.454	3.8182	0.1	124.23
24850	12.546	3.9091	0.1	113.19
24851	12.269	3.8182	0.1	135.49
24852	12.361	3.9091	0.1	123.3
24853	12.084	3.8182	0.1	147.45
24854	12.177	3.9091	0.1	134.02
24855	11.9	3.8182	0.1	160.08
24856	11.992	3.9091	0.1	145.32
24857	11.715	3.8182	0.1	173.34
24858	11.807	3.9091	0.1	157.14
24859	11.53	3.8182	0.1	187.08
24860	11.622	3.9091	0.1	169.41
24861	11.345	3.8182	0.1	201.14
24862	11.438	3.9091	0.1	181.96
24863	11.161	3.8182	0.1	215.2
24864	11.253	3.9091	0.1	194.57
24865	10.976	3.8182	0.1	228.83
24866	11.068	3.9091	0.1	206.89
24867	10.791	3.8182	0.1	241.35
24868	10.884	3.9091	0.1	218.39
24869	10.606	3.8182	0.1	251.75
24870	10.699	3.9091	0.1	228.29
24871	10.422	3.8182	0.1	258.56
24872	10.514	3.9091	0.1	235.42
24873	10.237	3.8182	0.1	259.59
24874	10.329	3.9091	0.1	238.
24875	10.052	3.8182	0.1	251.6
24876	10.145	3.9091	0.1	233.37
24877	9.8675	3.8182	0.1	229.71
24878	9.9598	3.9091	0.1	217.51
24879	9.6827	3.8182	0.1	186.78
24880	9.7751	3.9091	0.1	184.17
24881	9.498	3.8182	0.1	111.03
24882	9.5904	3.9091	0.1	124.25
24883	9.3133	3.8182	0.1	5.9634
24884	9.4056	3.9091	0.1	26.492
24885	9.1285	3.8182	0.1	-13.211
24886	9.2209	3.9091	0.1	11.745
24887	8.9438	3.8182	0.1	-12.694
24888	9.0361	3.9091	0.1	-53.958
24889	8.8514	3.9091	0.1	229.75
24890	8.759	3.8182	0.1	-30.31
24891	23.723	4.	0.1	-0.21412
24892	23.815	4.0909	0.1	-0.1833
24893	23.908	4.	0.1	-0.42207
24894	23.538	4.	0.1	-0.22215
24895	23.631	4.0909	0.1	-0.32046
24896	23.353	4.	0.1	-0.12657
24897	23.446	4.0909	0.1	-0.13624
24898	23.169	4.	0.1	-0.10415
24899	23.261	4.0909	0.1	-0.11963
24900	22.984	4.	0.1	-8.1728e-002
24901	23.076	4.0909	0.1	-8.856e-002
24902	22.799	4.	0.1	-6.8549e-002
24903	22.892	4.0909	0.1	-7.3777e-002
24904	22.614	4.	0.1	-5.8363e-002
24905	22.707	4.0909	0.1	-6.1756e-002
24906	22.43	4.	0.1	-5.0772e-002
24907	22.522	4.0909	0.1	-5.3195e-002
24908	22.245	4.	0.1	-4.4774e-002
24909	22.337	4.0909	0.1	-4.6471e-002
24910	22.06	4.	0.1	-3.9953e-002
24911	22.153	4.0909	0.1	-4.1153e-002
24912	21.876	4.	0.1	-3.5978e-002
24913	21.968	4.0909	0.1	-3.6816e-002
24914	21.691	4.	0.1	-3.2645e-002
24915	21.783	4.0909	0.1	-3.321e-002
24916	21.506	4.	0.1	-2.9819e-002
24917	21.598	4.0909	0.1	-3.0173e-002
24918	21.321	4.	0.1	-2.7398e-002
24919	21.414	4.0909	0.1	-2.7591e-002
24920	21.137	4.	0.1	-2.53e-002
24921	21.229	4.0909	0.1	-2.5369e-002
24922	20.952	4.	0.1	-2.3467e-002
24923	21.044	4.0909	0.1	-2.3439e-002
24924	20.767	4.	0.1	-2.1844e-002
24925	20.859	4.0909	0.1	-2.1747e-002
24926	20.582	4.	0.1	-2.0393e-002
24927	20.675	4.0909	0.1	-2.0238e-002
24928	20.398	4.	0.1	-1.9098e-002
24929	20.49	4.0909	0.1	-1.8892e-002
24930	20.213	4.	0.1	-1.7943e-002
24931	20.305	4.0909	0.1	-1.7694e-002
24932	20.028	4.	0.1	-1.6905e-002
24933	20.12	4.0909	0.1	-1.6627e-002
24934	19.843	4.	0.1	-1.5951e-002
24935	19.936	4.0909	0.1	-1.5661e-002
24936	19.659	4.	0.1	-1.5065e-002
24937	19.751	4.0909	0.1	-1.4759e-002
24938	19.474	4.	0.1	-1.4256e-002
24939	19.566	4.0909	0.1	-1.3929e-002
24940	19.289	4.	0.1	-1.3518e-002
24941	19.382	4.0909	0.1	-1.3177e-002
24942	19.104	4.	0.1	-1.2835e-002
24943	19.197	4.0909	0.1	-1.2486e-002
24944	18.92	4.	0.1	-1.2199e-002
24945	19.012	4.0909	0.1	-1.1844e-002
24946	18.735	4.	0.1	-1.159e-002
24947	18.827	4.0909	0.1	-1.1245e-002
24948	18.55	4.	0.1	-1.0995e-002
24949	18.643	4.0909	0.1	-1.065e-002
24950	18.365	4.	0.1	-1.0428e-002
24951	18.458	4.0909	0.1	-1.0077e-002
24952	18.181	4.	0.1	-9.8911e-003
24953	18.273	4.0909	0.1	-9.5343e-003
24954	17.996	4.	0.1	-9.3644e-003
24955	18.088	4.0909	0.1	-9.0159e-003
24956	17.811	4.	0.1	-8.8036e-003
24957	17.904	4.0909	0.1	-8.4847e-003
24958	17.627	4.	0.1	-8.1797e-003
24959	17.719	4.0909	0.1	-7.8882e-003
24960	17.442	4.	0.1	-7.465e-003
24961	17.534	4.0909	0.1	-7.2155e-003
24962	17.257	4.	0.1	-6.5375e-003
24963	17.349	4.0909	0.1	-6.4099e-003
24964	17.072	4.	0.1	-4.9946e-003
24965	17.165	4.0909	0.1	-5.2528e-003
24966	16.888	4.	0.1	-6.8e-004
24967	16.98	4.0909	0.1	-3.0272e-003
24968	16.703	4.	0.1	0.30223
24969	16.795	4.0909	0.1	5.7964e-003
24970	16.518	4.	0.1	2.5655
24971	16.61	4.0909	0.1	0.94028
24972	16.333	4.	0.1	4.9702
24973	16.426	4.0909	0.1	3.2143
24974	16.149	4.	0.1	7.4929
24975	16.241	4.0909	0.1	5.603
24976	15.964	4.	0.1	10.148
24977	16.056	4.0909	0.1	8.1112
24978	15.779	4.	0.1	12.951
24979	15.871	4.0909	0.1	10.753
24980	15.594	4.	0.1	15.92
24981	15.687	4.0909	0.1	13.544
24982	15.41	4.	0.1	19.073
24983	15.502	4.0909	0.1	16.501
24984	15.225	4.	0.1	22.428
24985	15.317	4.0909	0.1	19.639
24986	15.04	4.	0.1	26.005
24987	15.133	4.0909	0.1	22.977
24988	14.855	4.	0.1	29.826
24989	14.948	4.0909	0.1	26.534
24990	14.671	4.	0.1	33.911
24991	14.763	4.0909	0.1	30.327
24992	14.486	4.	0.1	38.285
24993	14.578	4.0909	0.1	34.378
24994	14.301	4.	0.1	42.97
24995	14.394	4.0909	0.1	38.705
24996	14.116	4.	0.1	47.991
24997	14.209	4.0909	0.1	43.329
24998	13.932	4.	0.1	53.372
24999	14.024	4.0909	0.1	48.271
25000	13.747	4.	0.1	59.141
25001	13.839	4.0909	0.1	53.551
25002	13.562	4.	0.1	65.321
25003	13.655	4.0909	0.1	59.189
25004	13.378	4.	0.1	71.937
25005	13.47	4.0909	0.1	65.203
25006	13.193	4.	0.1	79.012
25007	13.285	4.0909	0.1	71.609
25008	13.008	4.	0.1	86.567
25009	13.1	4.0909	0.1	78.423
25010	12.823	4.	0.1	94.619
25011	12.916	4.0909	0.1	85.653
25012	12.639	4.	0.1	103.18
25013	12.731	4.0909	0.1	93.305
25014	12.454	4.	0.1	112.25
25015	12.546	4.0909	0.1	101.37
25016	12.269	4.	0.1	121.83
25017	12.361	4.0909	0.1	109.85
25018	12.084	4.	0.1	131.88
25019	12.177	4.0909	0.1	118.71
25020	11.9	4.	0.1	142.37
25021	11.992	4.0909	0.1	127.89
25022	11.715	4.	0.1	153.21
25023	11.807	4.0909	0.1	137.35
25024	11.53	4.	0.1	164.28
25025	11.622	4.0909	0.1	146.96
25026	11.345	4.	0.1	175.4
25027	11.438	4.0909	0.1	156.57
25028	11.161	4.	0.1	186.28
25029	11.253	4.0909	0.1	165.96
25030	10.976	4.	0.1	196.5
25031	11.068	4.0909	0.1	174.79
25032	10.791	4.	0.1	205.45
25033	10.884	4.0909	0.1	182.54
25034	10.606	4.	0.1	212.16
25035	10.699	4.0909	0.1	188.47
25036	10.422	4.	0.1	215.2
25037	10.514	4.0909	0.1	191.39
25038	10.237	4.	0.1	212.37
25039	10.329	4.0909	0.1	189.5
25040	10.052	4.	0.1	200.25
25041	10.145	4.0909	0.1	179.9
25042	9.8675	4.	0.1	173.46
25043	9.9598	4.0909	0.1	158.07
25044	9.6827	4.	0.1	123.78
25045	9.7751	4.0909	0.1	116.76
25046	9.498	4.	0.1	41.842
25047	9.5904	4.0909	0.1	48.111
25048	9.3133	4.	0.1	9.923
25049	9.4056	4.0909	0.1	5.5979
25050	9.1285	4.	0.1	-28.731
25051	9.2209	4.0909	0.1	11.82
25052	8.9438	4.	0.1	229.98
25053	9.0361	4.0909	0.1	-40.748
25054	8.8514	4.0909	0.1	339.04
25055	8.759	4.	0.1	438.13
25056	23.723	4.1818	0.1	-0.20756
25057	23.815	4.2727	0.1	-0.17223
25058	23.908	4.1818	0.1	-0.41979
25059	23.538	4.1818	0.1	-0.21796
25060	23.631	4.2727	0.1	-0.31472
25061	23.353	4.1818	0.1	-0.12324
25062	23.446	4.2727	0.1	-0.13215
25063	23.169	4.1818	0.1	-0.10116
25064	23.261	4.2727	0.1	-0.11601
25065	22.984	4.1818	0.1	-7.8984e-002
25066	23.076	4.2727	0.1	-8.5289e-002
25067	22.799	4.1818	0.1	-6.5957e-002
25068	22.892	4.2727	0.1	-7.0712e-002
25069	22.614	4.1818	0.1	-5.5882e-002
25070	22.707	4.2727	0.1	-5.8842e-002
25071	22.43	4.1818	0.1	-4.8375e-002
25072	22.522	4.2727	0.1	-5.0392e-002
25073	22.245	4.1818	0.1	-4.2449e-002
25074	22.337	4.2727	0.1	-4.3762e-002
25075	22.06	4.1818	0.1	-3.7692e-002
25076	22.153	4.2727	0.1	-3.8527e-002
25077	21.876	4.1818	0.1	-3.3779e-002
25078	21.968	4.2727	0.1	-3.4269e-002
25079	21.691	4.1818	0.1	-3.0509e-002
25080	21.783	4.2727	0.1	-3.0741e-002
25081	21.506	4.1818	0.1	-2.7745e-002
25082	21.598	4.2727	0.1	-2.7782e-002
25083	21.321	4.1818	0.1	-2.5385e-002
25084	21.414	4.2727	0.1	-2.5277e-002
25085	21.137	4.1818	0.1	-2.3349e-002
25086	21.229	4.2727	0.1	-2.313e-002
25087	20.952	4.1818	0.1	-2.1576e-002
25088	21.044	4.2727	0.1	-2.1274e-002
25089	20.767	4.1818	0.1	-2.0011e-002
25090	20.859	4.2727	0.1	-1.9655e-002
25091	20.582	4.1818	0.1	-1.8617e-002
25092	20.675	4.2727	0.1	-1.8215e-002
25093	20.398	4.1818	0.1	-1.7377e-002
25094	20.49	4.2727	0.1	-1.6936e-002
25095	20.213	4.1818	0.1	-1.6275e-002
25096	20.305	4.2727	0.1	-1.5802e-002
25097	20.028	4.1818	0.1	-1.5288e-002
25098	20.12	4.2727	0.1	-1.4796e-002
25099	19.843	4.1818	0.1	-1.438e-002
25100	19.936	4.2727	0.1	-1.3887e-002
25101	19.659	4.1818	0.1	-1.354e-002
25102	19.751	4.2727	0.1	-1.304e-002
25103	19.474	4.1818	0.1	-1.2773e-002
25104	19.566	4.2727	0.1	-1.226e-002
25105	19.289	4.1818	0.1	-1.2073e-002
25106	19.382	4.2727	0.1	-1.1559e-002
25107	19.104	4.1818	0.1	-1.1427e-002
25108	19.197	4.2727	0.1	-1.0912e-002
25109	18.92	4.1818	0.1	-1.0826e-002
25110	19.012	4.2727	0.1	-1.0313e-002
25111	18.735	4.1818	0.1	-1.0246e-002
25112	18.827	4.2727	0.1	-9.7522e-003
25113	18.55	4.1818	0.1	-9.6787e-003
25114	18.643	4.2727	0.1	-9.1935e-003
25115	18.365	4.1818	0.1	-9.1359e-003
25116	18.458	4.2727	0.1	-8.6534e-003
25117	18.181	4.1818	0.1	-8.6177e-003
25118	18.273	4.2727	0.1	-8.139e-003
25119	17.996	4.1818	0.1	-8.1033e-003
25120	18.088	4.2727	0.1	-7.6442e-003
25121	17.811	4.1818	0.1	-7.5489e-003
25122	17.904	4.2727	0.1	-7.1331e-003
25123	17.627	4.1818	0.1	-6.9237e-003
25124	17.719	4.2727	0.1	-6.5514e-003
25125	17.442	4.1818	0.1	-6.1996e-003
25126	17.534	4.2727	0.1	-5.8896e-003
25127	17.257	4.1818	0.1	-5.2619e-003
25128	17.349	4.2727	0.1	-5.0975e-003
25129	17.072	4.1818	0.1	-3.7781e-003
25130	17.165	4.2727	0.1	-3.9902e-003
25131	16.888	4.1818	0.1	-4.2498e-004
25132	16.98	4.2727	0.1	-2.0631e-003
25133	16.703	4.1818	0.1	2.3001e-002
25134	16.795	4.2727	0.1	3.0918e-003
25135	16.518	4.1818	0.1	1.5586
25136	16.61	4.2727	0.1	0.10464
25137	16.333	4.1818	0.1	3.8225
25138	16.426	4.2727	0.1	2.0624
25139	16.149	4.1818	0.1	6.1978
25140	16.241	4.2727	0.1	4.2986
25141	15.964	4.1818	0.1	8.6939
25142	16.056	4.2727	0.1	6.6452
25143	15.779	4.1818	0.1	11.324
25144	15.871	4.2727	0.1	9.1124
25145	15.594	4.1818	0.1	14.104
25146	15.687	4.2727	0.1	11.713
25147	15.41	4.1818	0.1	17.047
25148	15.502	4.2727	0.1	14.46
25149	15.225	4.1818	0.1	20.17
25150	15.317	4.2727	0.1	17.368
25151	15.04	4.1818	0.1	23.488
25152	15.133	4.2727	0.1	20.45
25153	14.855	4.1818	0.1	27.019
25154	14.948	4.2727	0.1	23.721
25155	14.671	4.1818	0.1	30.778
25156	14.763	4.2727	0.1	27.195
25157	14.486	4.1818	0.1	34.783
25158	14.578	4.2727	0.1	30.886
25159	14.301	4.1818	0.1	39.051
25160	14.394	4.2727	0.1	34.807
25161	14.116	4.1818	0.1	43.597
25162	14.209	4.2727	0.1	38.973
25163	13.932	4.1818	0.1	48.438
25164	14.024	4.2727	0.1	43.393
25165	13.747	4.1818	0.1	53.588
25166	13.839	4.2727	0.1	48.08
25167	13.562	4.1818	0.1	59.061
25168	13.655	4.2727	0.1	53.04
25169	13.378	4.1818	0.1	64.866
25170	13.47	4.2727	0.1	58.28
25171	13.193	4.1818	0.1	71.011
25172	13.285	4.2727	0.1	63.802
25173	13.008	4.1818	0.1	77.5
25174	13.1	4.2727	0.1	69.602
25175	12.823	4.1818	0.1	84.33
25176	12.916	4.2727	0.1	75.672
25177	12.639	4.1818	0.1	91.492
25178	12.731	4.2727	0.1	81.996
25179	12.454	4.1818	0.1	98.965
25180	12.546	4.2727	0.1	88.551
25181	12.269	4.1818	0.1	106.72
25182	12.361	4.2727	0.1	95.299
25183	12.084	4.1818	0.1	114.71
25184	12.177	4.2727	0.1	102.19
25185	11.9	4.1818	0.1	122.86
25186	11.992	4.2727	0.1	109.16
25187	11.715	4.1818	0.1	131.09
25188	11.807	4.2727	0.1	116.11
25189	11.53	4.1818	0.1	139.25
25190	11.622	4.2727	0.1	122.93
25191	11.345	4.1818	0.1	147.14
25192	11.438	4.2727	0.1	129.44
25193	11.161	4.1818	0.1	154.5
25194	11.253	4.2727	0.1	135.41
25195	10.976	4.1818	0.1	160.89
25196	11.068	4.2727	0.1	140.49
25197	10.791	4.1818	0.1	165.71
25198	10.884	4.2727	0.1	144.2
25199	10.606	4.1818	0.1	167.97
25200	10.699	4.2727	0.1	145.76
25201	10.422	4.1818	0.1	166.18
25202	10.514	4.2727	0.1	143.96
25203	10.237	4.1818	0.1	157.88
25204	10.329	4.2727	0.1	136.87
25205	10.052	4.1818	0.1	139.14
25206	10.145	4.2727	0.1	121.35
25207	9.8675	4.1818	0.1	103.68
25208	9.9598	4.2727	0.1	92.448
25209	9.6827	4.1818	0.1	44.796
25210	9.7751	4.2727	0.1	44.484
25211	9.498	4.1818	0.1	8.3004
25212	9.5904	4.2727	0.1	9.3463
25213	9.3133	4.1818	0.1	6.2559
25214	9.4056	4.2727	0.1	4.0506
25215	9.1285	4.1818	0.1	8.3399e-002
25216	9.2209	4.2727	0.1	9.1472
25217	8.9438	4.1818	0.1	66.929
25218	9.0361	4.2727	0.1	-4.9881
25219	8.8514	4.2727	0.1	66.577
25220	8.759	4.1818	0.1	281.31
25221	23.723	4.3636	0.1	-0.19919
25222	23.815	4.4545	0.1	-0.15836
25223	23.908	4.3636	0.1	-0.41678
25224	23.538	4.3636	0.1	-0.21252
25225	23.631	4.4545	0.1	-0.30729
25226	23.353	4.3636	0.1	-0.1189
25227	23.446	4.4545	0.1	-0.1268
25228	23.169	4.3636	0.1	-9.7251e-002
25229	23.261	4.4545	0.1	-0.11126
25230	22.984	4.3636	0.1	-7.5373e-002
25231	23.076	4.4545	0.1	-8.0975e-002
25232	22.799	4.3636	0.1	-6.2544e-002
25233	22.892	4.4545	0.1	-6.6665e-002
25234	22.614	4.3636	0.1	-5.2617e-002
25235	22.707	4.4545	0.1	-5.4995e-002
25236	22.43	4.3636	0.1	-4.5231e-002
25237	22.522	4.4545	0.1	-4.6702e-002
25238	22.245	4.3636	0.1	-3.941e-002
25239	22.337	4.4545	0.1	-4.0212e-002
25240	22.06	4.3636	0.1	-3.4753e-002
25241	22.153	4.4545	0.1	-3.5105e-002
25242	21.876	4.3636	0.1	-3.0937e-002
25243	21.968	4.4545	0.1	-3.0972e-002
25244	21.691	4.3636	0.1	-2.7762e-002
25245	21.783	4.4545	0.1	-2.7567e-002
25246	21.506	4.3636	0.1	-2.5093e-002
25247	21.598	4.4545	0.1	-2.4727e-002
25248	21.321	4.3636	0.1	-2.2826e-002
25249	21.414	4.4545	0.1	-2.2338e-002
25250	21.137	4.3636	0.1	-2.088e-002
25251	21.229	4.4545	0.1	-2.0303e-002
25252	20.952	4.3636	0.1	-1.9194e-002
25253	21.044	4.4545	0.1	-1.8556e-002
25254	20.767	4.3636	0.1	-1.7714e-002
25255	20.859	4.4545	0.1	-1.704e-002
25256	20.582	4.3636	0.1	-1.6401e-002
25257	20.675	4.4545	0.1	-1.5699e-002
25258	20.398	4.3636	0.1	-1.5239e-002
25259	20.49	4.4545	0.1	-1.4514e-002
25260	20.213	4.3636	0.1	-1.421e-002
25261	20.305	4.4545	0.1	-1.347e-002
25262	20.028	4.3636	0.1	-1.3292e-002
25263	20.12	4.4545	0.1	-1.2549e-002
25264	19.843	4.3636	0.1	-1.2451e-002
25265	19.936	4.4545	0.1	-1.172e-002
25266	19.659	4.3636	0.1	-1.1671e-002
25267	19.751	4.4545	0.1	-1.0949e-002
25268	19.474	4.3636	0.1	-1.0964e-002
25269	19.566	4.4545	0.1	-1.0241e-002
25270	19.289	4.3636	0.1	-1.0322e-002
25271	19.382	4.4545	0.1	-9.6082e-003
25272	19.104	4.3636	0.1	-9.7278e-003
25273	19.197	4.4545	0.1	-9.0246e-003
25274	18.92	4.3636	0.1	-9.1752e-003
25275	19.012	4.4545	0.1	-8.4856e-003
25276	18.735	4.3636	0.1	-8.6413e-003
25277	18.827	4.4545	0.1	-7.9815e-003
25278	18.55	4.3636	0.1	-8.1164e-003
25279	18.643	4.4545	0.1	-7.4763e-003
25280	18.365	4.3636	0.1	-7.6119e-003
25281	18.458	4.4545	0.1	-6.987e-003
25282	18.181	4.3636	0.1	-7.1293e-003
25283	18.273	4.4545	0.1	-6.5205e-003
25284	17.996	4.3636	0.1	-6.6482e-003
25285	18.088	4.4545	0.1	-6.0716e-003
25286	17.811	4.3636	0.1	-6.1243e-003
25287	17.904	4.4545	0.1	-5.605e-003
25288	17.627	4.3636	0.1	-5.5278e-003
25289	17.719	4.4545	0.1	-5.0686e-003
25290	17.442	4.3636	0.1	-4.8364e-003
25291	17.534	4.4545	0.1	-4.4568e-003
25292	17.257	4.3636	0.1	-3.9567e-003
25293	17.349	4.4545	0.1	-3.7337e-003
25294	17.072	4.3636	0.1	-2.6406e-003
25295	17.165	4.4545	0.1	-2.7573e-003
25296	16.888	4.3636	0.1	-1.2275e-004
25297	16.98	4.4545	0.1	-1.2053e-003
25298	16.703	4.3636	0.1	8.063e-003
25299	16.795	4.4545	0.1	2.0254e-003
25300	16.518	4.3636	0.1	0.43931
25301	16.61	4.4545	0.1	1.4833e-002
25302	16.333	4.3636	0.1	2.5128
25303	16.426	4.4545	0.1	0.77706
25304	16.149	4.3636	0.1	4.722
25305	16.241	4.4545	0.1	2.8295
25306	15.964	4.3636	0.1	7.0407
25307	16.056	4.4545	0.1	4.997
25308	15.779	4.3636	0.1	9.4788
25309	15.871	4.4545	0.1	7.2721
25310	15.594	4.3636	0.1	12.048
25311	15.687	4.4545	0.1	9.6643
25312	15.41	4.3636	0.1	14.761
25313	15.502	4.4545	0.1	12.184
25314	15.225	4.3636	0.1	17.629
25315	15.317	4.4545	0.1	14.841
25316	15.04	4.3636	0.1	20.664
25317	15.133	4.4545	0.1	17.648
25318	14.855	4.3636	0.1	23.88
25319	14.948	4.4545	0.1	20.612
25320	14.671	4.3636	0.1	27.286
25321	14.763	4.4545	0.1	23.745
25322	14.486	4.3636	0.1	30.895
25323	14.578	4.4545	0.1	27.055
25324	14.301	4.3636	0.1	34.715
25325	14.394	4.4545	0.1	30.549
25326	14.116	4.3636	0.1	38.755
25327	14.209	4.4545	0.1	34.232
25328	13.932	4.3636	0.1	43.022
25329	14.024	4.4545	0.1	38.108
25330	13.747	4.3636	0.1	47.52
25331	13.839	4.4545	0.1	42.179
25332	13.562	4.3636	0.1	52.248
25333	13.655	4.4545	0.1	46.44
25334	13.378	4.3636	0.1	57.205
25335	13.47	4.4545	0.1	50.885
25336	13.193	4.3636	0.1	62.381
25337	13.285	4.4545	0.1	55.502
25338	13.008	4.3636	0.1	67.763
25339	13.1	4.4545	0.1	60.271
25340	12.823	4.3636	0.1	73.328
25341	12.916	4.4545	0.1	65.166
25342	12.639	4.3636	0.1	79.045
25343	12.731	4.4545	0.1	70.152
25344	12.454	4.3636	0.1	84.874
25345	12.546	4.4545	0.1	75.183
25346	12.269	4.3636	0.1	90.76
25347	12.361	4.4545	0.1	80.201
25348	12.084	4.3636	0.1	96.632
25349	12.177	4.4545	0.1	85.133
25350	11.9	4.3636	0.1	102.4
25351	11.992	4.4545	0.1	89.889
25352	11.715	4.3636	0.1	107.95
25353	11.807	4.4545	0.1	94.356
25354	11.53	4.3636	0.1	113.12
25355	11.622	4.4545	0.1	98.394
25356	11.345	4.3636	0.1	117.71
25357	11.438	4.4545	0.1	101.82
25358	11.161	4.3636	0.1	121.44
25359	11.253	4.4545	0.1	104.4
25360	10.976	4.3636	0.1	123.89
25361	11.068	4.4545	0.1	105.79
25362	10.791	4.3636	0.1	124.43
25363	10.884	4.4545	0.1	105.5
25364	10.606	4.3636	0.1	122.08
25365	10.699	4.4545	0.1	102.8
25366	10.422	4.3636	0.1	115.26
25367	10.514	4.4545	0.1	96.49
25368	10.237	4.3636	0.1	101.42
25369	10.329	4.4545	0.1	84.695
25370	10.052	4.3636	0.1	76.53
25371	10.145	4.4545	0.1	64.49
25372	9.8675	4.3636	0.1	36.629
25373	9.9598	4.4545	0.1	33.165
25374	9.6827	4.3636	0.1	8.7602
25375	9.7751	4.4545	0.1	8.8274
25376	9.498	4.3636	0.1	4.3059
25377	9.5904	4.4545	0.1	4.7349
25378	9.3133	4.3636	0.1	6.7972
25379	9.4056	4.4545	0.1	3.2546
25380	9.1285	4.3636	0.1	4.7378
25381	9.2209	4.4545	0.1	7.2973
25382	8.9438	4.3636	0.1	-4.8724
25383	9.0361	4.4545	0.1	0.41127
25384	8.8514	4.4545	0.1	7.3813
25385	8.759	4.3636	0.1	-62.25
25386	23.723	4.5455	0.1	-0.18849
25387	23.815	4.6364	0.1	-0.14097
25388	23.908	4.5455	0.1	-0.41272
25389	23.538	4.5455	0.1	-0.20541
25390	23.631	4.6364	0.1	-0.29762
25391	23.353	4.5455	0.1	-0.11317
25392	23.446	4.6364	0.1	-0.11975
25393	23.169	4.5455	0.1	-9.2075e-002
25394	23.261	4.6364	0.1	-0.10496
25395	22.984	4.5455	0.1	-7.0584e-002
25396	23.076	4.6364	0.1	-7.5245e-002
25397	22.799	4.5455	0.1	-5.8017e-002
25398	22.892	4.6364	0.1	-6.1287e-002
25399	22.614	4.5455	0.1	-4.8297e-002
25400	22.707	4.6364	0.1	-4.9894e-002
25401	22.43	4.5455	0.1	-4.1089e-002
25402	22.522	4.6364	0.1	-4.1837e-002
25403	22.245	4.5455	0.1	-3.5433e-002
25404	22.337	4.6364	0.1	-3.5561e-002
25405	22.06	4.5455	0.1	-3.0934e-002
25406	22.153	4.6364	0.1	-3.0659e-002
25407	21.876	4.5455	0.1	-2.7272e-002
25408	21.968	4.6364	0.1	-2.6724e-002
25409	21.691	4.5455	0.1	-2.4246e-002
25410	21.783	4.6364	0.1	-2.3508e-002
25411	21.506	4.5455	0.1	-2.1721e-002
25412	21.598	4.6364	0.1	-2.085e-002
25413	21.321	4.5455	0.1	-1.9593e-002
25414	21.414	4.6364	0.1	-1.8635e-002
25415	21.137	4.5455	0.1	-1.778e-002
25416	21.229	4.6364	0.1	-1.6765e-002
25417	20.952	4.5455	0.1	-1.6222e-002
25418	21.044	4.6364	0.1	-1.5174e-002
25419	20.767	4.5455	0.1	-1.4862e-002
25420	20.859	4.6364	0.1	-1.3807e-002
25421	20.582	4.5455	0.1	-1.3664e-002
25422	20.675	4.6364	0.1	-1.2607e-002
25423	20.398	4.5455	0.1	-1.261e-002
25424	20.49	4.6364	0.1	-1.1553e-002
25425	20.213	4.5455	0.1	-1.1685e-002
25426	20.305	4.6364	0.1	-1.0633e-002
25427	20.028	4.5455	0.1	-1.0863e-002
25428	20.12	4.6364	0.1	-9.8286e-003
25429	19.843	4.5455	0.1	-1.0114e-002
25430	19.936	4.6364	0.1	-9.1106e-003
25431	19.659	4.5455	0.1	-9.4222e-003
25432	19.751	4.6364	0.1	-8.4442e-003
25433	19.474	4.5455	0.1	-8.7967e-003
25434	19.566	4.6364	0.1	-7.8349e-003
25435	19.289	4.5455	0.1	-8.231e-003
25436	19.382	4.6364	0.1	-7.2938e-003
25437	19.104	4.5455	0.1	-7.71e-003
25438	19.197	4.6364	0.1	-6.7999e-003
25439	18.92	4.5455	0.1	-7.2271e-003
25440	19.012	4.6364	0.1	-6.3449e-003
25441	18.735	4.5455	0.1	-6.7593e-003
25442	18.827	4.6364	0.1	-5.9212e-003
25443	18.55	4.5455	0.1	-6.2976e-003
25444	18.643	4.6364	0.1	-5.4938e-003
25445	18.365	4.5455	0.1	-5.855e-003
25446	18.458	4.6364	0.1	-5.0797e-003
25447	18.181	4.5455	0.1	-5.4322e-003
25448	18.273	4.6364	0.1	-4.687e-003
25449	17.996	4.5455	0.1	-5.0097e-003
25450	18.088	4.6364	0.1	-4.3116e-003
25451	17.811	4.5455	0.1	-4.5461e-003
25452	17.904	4.6364	0.1	-3.9207e-003
25453	17.627	4.5455	0.1	-4.0161e-003
25454	17.719	4.6364	0.1	-3.4655e-003
25455	17.442	4.5455	0.1	-3.4066e-003
25456	17.534	4.6364	0.1	-2.9468e-003
25457	17.257	4.5455	0.1	-2.649e-003
25458	17.349	4.6364	0.1	-2.3481e-003
25459	17.072	4.5455	0.1	-1.5776e-003
25460	17.165	4.6364	0.1	-1.5675e-003
25461	16.888	4.5455	0.1	2.2248e-004
25462	16.98	4.6364	0.1	-4.1873e-004
25463	16.703	4.5455	0.1	4.2902e-003
25464	16.795	4.6364	0.1	1.5974e-003
25465	16.518	4.5455	0.1	2.4305e-002
25466	16.61	4.6364	0.1	6.4328e-003
25467	16.333	4.5455	0.1	1.0615
25468	16.426	4.6364	0.1	3.4683e-002
25469	16.149	4.5455	0.1	3.0799
25470	16.241	4.6364	0.1	1.2161
25471	15.964	4.5455	0.1	5.205
25472	16.056	4.6364	0.1	3.1826
25473	15.779	4.5455	0.1	7.435
25474	15.871	4.6364	0.1	5.251
25475	15.594	4.5455	0.1	9.7783
25476	15.687	4.6364	0.1	7.4208
25477	15.41	4.5455	0.1	12.244
25478	15.502	4.6364	0.1	9.6988
25479	15.225	4.5455	0.1	14.84
25480	15.317	4.6364	0.1	12.093
25481	15.04	4.5455	0.1	17.577
25482	15.133	4.6364	0.1	14.609
25483	14.855	4.5455	0.1	20.46
25484	14.948	4.6364	0.1	17.255
25485	14.671	4.5455	0.1	23.497
25486	14.763	4.6364	0.1	20.034
25487	14.486	4.5455	0.1	26.692
25488	14.578	4.6364	0.1	22.951
25489	14.301	4.5455	0.1	30.05
25490	14.394	4.6364	0.1	26.007
25491	14.116	4.5455	0.1	33.57
25492	14.209	4.6364	0.1	29.202
25493	13.932	4.5455	0.1	37.251
25494	14.024	4.6364	0.1	32.53
25495	13.747	4.5455	0.1	41.086
25496	13.839	4.6364	0.1	35.984
25497	13.562	4.5455	0.1	45.064
25498	13.655	4.6364	0.1	39.551
25499	13.378	4.5455	0.1	49.17
25500	13.47	4.6364	0.1	43.212
25501	13.193	4.5455	0.1	53.379
25502	13.285	4.6364	0.1	46.943
25503	13.008	4.5455	0.1	57.662
25504	13.1	4.6364	0.1	50.709
25505	12.823	4.5455	0.1	61.979
25506	12.916	4.6364	0.1	54.468
25507	12.639	4.5455	0.1	66.278
25508	12.731	4.6364	0.1	58.167
25509	12.454	4.5455	0.1	70.498
25510	12.546	4.6364	0.1	61.742
25511	12.269	4.5455	0.1	74.562
25512	12.361	4.6364	0.1	65.115
25513	12.084	4.5455	0.1	78.377
25514	12.177	4.6364	0.1	68.191
25515	11.9	4.5455	0.1	81.833
25516	11.992	4.6364	0.1	70.861
25517	11.715	4.5455	0.1	84.794
25518	11.807	4.6364	0.1	72.994
25519	11.53	4.5455	0.1	87.093
25520	11.622	4.6364	0.1	74.437
25521	11.345	4.5455	0.1	88.519
25522	11.438	4.6364	0.1	75.
25523	11.161	4.5455	0.1	88.789
25524	11.253	4.6364	0.1	74.449
25525	10.976	4.5455	0.1	87.506
25526	11.068	4.6364	0.1	72.471
25527	10.791	4.5455	0.1	84.084
25528	10.884	4.6364	0.1	68.63
25529	10.606	4.5455	0.1	77.615
25530	10.699	4.6364	0.1	62.284
25531	10.422	4.5455	0.1	66.676
25532	10.514	4.6364	0.1	52.474
25533	10.237	4.5455	0.1	49.18
25534	10.329	4.6364	0.1	37.923
25535	10.052	4.5455	0.1	24.184
25536	10.145	4.6364	0.1	18.857
25537	9.8675	4.5455	0.1	7.5194
25538	9.9598	4.6364	0.1	6.8193
25539	9.6827	4.5455	0.1	4.2036
25540	9.7751	4.6364	0.1	3.9446
25541	9.498	4.5455	0.1	3.5336
25542	9.5904	4.6364	0.1	3.2092
25543	9.3133	4.5455	0.1	3.6583
25544	9.4056	4.6364	0.1	3.138
25545	9.1285	4.5455	0.1	2.9658
25546	9.2209	4.6364	0.1	3.6524
25547	8.9438	4.5455	0.1	12.982
25548	9.0361	4.6364	0.1	1.5808
25549	8.8514	4.6364	0.1	15.624
25550	8.759	4.5455	0.1	14.92
25551	23.723	4.7273	0.1	-0.17472
25552	23.815	4.8182	0.1	-0.11868
25553	23.908	4.7273	0.1	-0.40728
25554	23.538	4.7273	0.1	-0.19606
25555	23.631	4.8182	0.1	-0.28467
25556	23.353	4.7273	0.1	-0.10557
25557	23.446	4.8182	0.1	-0.11017
25558	23.169	4.7273	0.1	-8.5174e-002
25559	23.261	4.8182	0.1	-9.6365e-002
25560	22.984	4.7273	0.1	-6.4192e-002
25561	23.076	4.8182	0.1	-6.7404e-002
25562	22.799	4.7273	0.1	-5.1988e-002
25563	22.892	4.8182	0.1	-5.3951e-002
25564	22.614	4.7273	0.1	-4.2576e-002
25565	22.707	4.8182	0.1	-4.2984e-002
25566	22.43	4.7273	0.1	-3.5645e-002
25567	22.522	4.8182	0.1	-3.5305e-002
25568	22.245	4.7273	0.1	-3.025e-002
25569	22.337	4.8182	0.1	-2.9382e-002
25570	22.06	4.7273	0.1	-2.6001e-002
25571	22.153	4.8182	0.1	-2.4814e-002
25572	21.876	4.7273	0.1	-2.2577e-002
25573	21.968	4.8182	0.1	-2.1194e-002
25574	21.691	4.7273	0.1	-1.978e-002
25575	21.783	4.8182	0.1	-1.8275e-002
25576	21.506	4.7273	0.1	-1.7473e-002
25577	21.598	4.8182	0.1	-1.5897e-002
25578	21.321	4.7273	0.1	-1.555e-002
25579	21.414	4.8182	0.1	-1.3945e-002
25580	21.137	4.7273	0.1	-1.3929e-002
25581	21.229	4.8182	0.1	-1.232e-002
25582	20.952	4.7273	0.1	-1.2553e-002
25583	21.044	4.8182	0.1	-1.0956e-002
25584	20.767	4.7273	0.1	-1.1365e-002
25585	20.859	4.8182	0.1	-9.8018e-003
25586	20.582	4.7273	0.1	-1.0326e-002
25587	20.675	4.8182	0.1	-8.8002e-003
25588	20.398	4.7273	0.1	-9.4228e-003
25589	20.49	4.8182	0.1	-7.932e-003
25590	20.213	4.7273	0.1	-8.6382e-003
25591	20.305	4.8182	0.1	-7.1856e-003
25592	20.028	4.7273	0.1	-7.9498e-003
25593	20.12	4.8182	0.1	-6.5438e-003
25594	19.843	4.7273	0.1	-7.3267e-003
25595	19.936	4.8182	0.1	-5.9788e-003
25596	19.659	4.7273	0.1	-6.7534e-003
25597	19.751	4.8182	0.1	-5.4562e-003
25598	19.474	4.7273	0.1	-6.2388e-003
25599	19.566	4.8182	0.1	-4.9828e-003
25600	19.289	4.7273	0.1	-5.7792e-003
25601	19.382	4.8182	0.1	-4.57e-003
25602	19.104	4.7273	0.1	-5.3608e-003
25603	19.197	4.8182	0.1	-4.1993e-003
25604	18.92	4.7273	0.1	-4.9744e-003
25605	19.012	4.8182	0.1	-3.8622e-003
25606	18.735	4.7273	0.1	-4.6004e-003
25607	18.827	4.8182	0.1	-3.5508e-003
25608	18.55	4.7273	0.1	-4.2302e-003
25609	18.643	4.8182	0.1	-3.2334e-003
25610	18.365	4.7273	0.1	-3.8762e-003
25611	18.458	4.8182	0.1	-2.9264e-003
25612	18.181	4.7273	0.1	-3.5421e-003
25613	18.273	4.8182	0.1	-2.641e-003
25614	17.996	4.7273	0.1	-3.211e-003
25615	18.088	4.8182	0.1	-2.3737e-003
25616	17.811	4.7273	0.1	-2.8441e-003
25617	17.904	4.8182	0.1	-2.0966e-003
25618	17.627	4.7273	0.1	-2.4201e-003
25619	17.719	4.8182	0.1	-1.7626e-003
25620	17.442	4.7273	0.1	-1.94e-003
25621	17.534	4.8182	0.1	-1.3841e-003
25622	17.257	4.7273	0.1	-1.3611e-003
25623	17.349	4.8182	0.1	-9.5938e-004
25624	17.072	4.7273	0.1	-5.8038e-004
25625	17.165	4.8182	0.1	-4.226e-004
25626	16.888	4.7273	0.1	6.0986e-004
25627	16.98	4.8182	0.1	3.2457e-004
25628	16.703	4.7273	0.1	2.7857e-003
25629	16.795	4.8182	0.1	1.4949e-003
25630	16.518	4.7273	0.1	8.1809e-003
25631	16.61	4.8182	0.1	3.6923e-003
25632	16.333	4.7273	0.1	4.4032e-002
25633	16.426	4.8182	0.1	9.1491e-003
25634	16.149	4.7273	0.1	1.293
25635	16.241	4.8182	0.1	4.442e-002
25636	15.964	4.7273	0.1	3.2047
25637	16.056	4.8182	0.1	1.2262
25638	15.779	4.7273	0.1	5.2137
25639	15.871	4.8182	0.1	3.0687
25640	15.594	4.7273	0.1	7.3191
25641	15.687	4.8182	0.1	5.0049
25642	15.41	4.7273	0.1	9.5261
25643	15.502	4.8182	0.1	7.0317
25644	15.225	4.7273	0.1	11.841
25645	15.317	4.8182	0.1	9.1529
25646	15.04	4.7273	0.1	14.267
25647	15.133	4.8182	0.1	11.372
25648	14.855	4.7273	0.1	16.81
25649	14.948	4.8182	0.1	13.693
25650	14.671	4.7273	0.1	19.47
25651	14.763	4.8182	0.1	16.115
25652	14.486	4.7273	0.1	22.249
25653	14.578	4.8182	0.1	18.639
25654	14.301	4.7273	0.1	25.143
25655	14.394	4.8182	0.1	21.261
25656	14.116	4.7273	0.1	28.146
25657	14.209	4.8182	0.1	23.974
25658	13.932	4.7273	0.1	31.248
25659	14.024	4.8182	0.1	26.767
25660	13.747	4.7273	0.1	34.434
25661	13.839	4.8182	0.1	29.626
25662	13.562	4.7273	0.1	37.685
25663	13.655	4.8182	0.1	32.528
25664	13.378	4.7273	0.1	40.971
25665	13.47	4.8182	0.1	35.447
25666	13.193	4.7273	0.1	44.258
25667	13.285	4.8182	0.1	38.345
25668	13.008	4.7273	0.1	47.5
25669	13.1	4.8182	0.1	41.179
25670	12.823	4.7273	0.1	50.642
25671	12.916	4.8182	0.1	43.892
25672	12.639	4.7273	0.1	53.617
25673	12.731	4.8182	0.1	46.418
25674	12.454	4.7273	0.1	56.344
25675	12.546	4.8182	0.1	48.675
25676	12.269	4.7273	0.1	58.728
25677	12.361	4.8182	0.1	50.571
25678	12.084	4.7273	0.1	60.659
25679	12.177	4.8182	0.1	51.995
25680	11.9	4.7273	0.1	62.008
25681	11.992	4.8182	0.1	52.823
25682	11.715	4.7273	0.1	62.626
25683	11.807	4.8182	0.1	52.911
25684	11.53	4.7273	0.1	62.342
25685	11.622	4.8182	0.1	52.099
25686	11.345	4.7273	0.1	60.948
25687	11.438	4.8182	0.1	50.203
25688	11.161	4.7273	0.1	58.186
25689	11.253	4.8182	0.1	47.009
25690	10.976	4.7273	0.1	53.722
25691	11.068	4.8182	0.1	42.265
25692	10.791	4.7273	0.1	47.097
25693	10.884	4.8182	0.1	35.671
25694	10.606	4.7273	0.1	37.7
25695	10.699	4.8182	0.1	26.925
25696	10.422	4.7273	0.1	25.012
25697	10.514	4.8182	0.1	16.246
25698	10.237	4.7273	0.1	11.392
25699	10.329	4.8182	0.1	7.2786
25700	10.052	4.7273	0.1	5.1149
25701	10.145	4.8182	0.1	3.9662
25702	9.8675	4.7273	0.1	3.4091
25703	9.9598	4.8182	0.1	2.9434
25704	9.6827	4.7273	0.1	2.854
25705	9.7751	4.8182	0.1	2.566
25706	9.498	4.7273	0.1	2.7364
25707	9.5904	4.8182	0.1	2.499
25708	9.3133	4.7273	0.1	3.0789
25709	9.4056	4.8182	0.1	2.5207
25710	9.1285	4.7273	0.1	2.2641
25711	9.2209	4.8182	0.1	3.2025
25712	8.9438	4.7273	0.1	4.5995
25713	9.0361	4.8182	0.1	0.93441
25714	8.8514	4.8182	0.1	8.3196
25715	8.759	4.7273	0.1	-5.4443
25716	23.723	4.9091	0.1	-0.15621
25717	23.815	5.	0.1	-8.9994e-002
25718	23.908	4.9091	0.1	-0.39922
25719	23.538	4.9091	0.1	-0.18312
25720	23.631	5.	0.1	-0.26727
25721	23.353	4.9091	0.1	-9.4948e-002
25722	23.446	5.	0.1	-9.7127e-002
25723	23.169	4.9091	0.1	-7.5517e-002
25724	23.261	5.	0.1	-8.4589e-002
25725	22.984	4.9091	0.1	-5.5271e-002
25726	23.076	5.	0.1	-5.6702e-002
25727	22.799	4.9091	0.1	-4.3638e-002
25728	22.892	5.	0.1	-4.4014e-002
25729	22.614	4.9091	0.1	-3.4732e-002
25730	22.707	5.	0.1	-3.3729e-002
25731	22.43	4.9091	0.1	-2.8267e-002
25732	22.522	5.	0.1	-2.6667e-002
25733	22.245	4.9091	0.1	-2.331e-002
25734	22.337	5.	0.1	-2.1316e-002
25735	22.06	4.9091	0.1	-1.9472e-002
25736	22.153	5.	0.1	-1.7279e-002
25737	21.876	4.9091	0.1	-1.6434e-002
25738	21.968	5.	0.1	-1.4149e-002
25739	21.691	4.9091	0.1	-1.3995e-002
25740	21.783	5.	0.1	-1.1682e-002
25741	21.506	4.9091	0.1	-1.2021e-002
25742	21.598	5.	0.1	-9.718e-003
25743	21.321	4.9091	0.1	-1.0408e-002
25744	21.414	5.	0.1	-8.1471e-003
25745	21.137	4.9091	0.1	-9.0741e-003
25746	21.229	5.	0.1	-6.8719e-003
25747	20.952	4.9091	0.1	-7.9623e-003
25748	21.044	5.	0.1	-5.8307e-003
25749	20.767	4.9091	0.1	-7.0202e-003
25750	20.859	5.	0.1	-4.9724e-003
25751	20.582	4.9091	0.1	-6.2114e-003
25752	20.675	5.	0.1	-4.2447e-003
25753	20.398	4.9091	0.1	-5.5205e-003
25754	20.49	5.	0.1	-3.6295e-003
25755	20.213	4.9091	0.1	-4.9349e-003
25756	20.305	5.	0.1	-3.1176e-003
25757	20.028	4.9091	0.1	-4.4328e-003
25758	20.12	5.	0.1	-2.6947e-003
25759	19.843	4.9091	0.1	-3.9834e-003
25760	19.936	5.	0.1	-2.3338e-003
25761	19.659	4.9091	0.1	-3.5744e-003
25762	19.751	5.	0.1	-2.002e-003
25763	19.474	4.9091	0.1	-3.2157e-003
25764	19.566	5.	0.1	-1.7097e-003
25765	19.289	4.9091	0.1	-2.904e-003
25766	19.382	5.	0.1	-1.4673e-003
25767	19.104	4.9091	0.1	-2.6262e-003
25768	19.197	5.	0.1	-1.2574e-003
25769	18.92	4.9091	0.1	-2.3753e-003
25770	19.012	5.	0.1	-1.0752e-003
25771	18.735	4.9091	0.1	-2.1317e-003
25772	18.827	5.	0.1	-9.1398e-004
25773	18.55	4.9091	0.1	-1.8887e-003
25774	18.643	5.	0.1	-7.4212e-004
25775	18.365	4.9091	0.1	-1.6618e-003
25776	18.458	5.	0.1	-5.7824e-004
25777	18.181	4.9091	0.1	-1.4552e-003
25778	18.273	5.	0.1	-4.3574e-004
25779	17.996	4.9091	0.1	-1.255e-003
25780	18.088	5.	0.1	-3.1269e-004
25781	17.811	4.9091	0.1	-1.0255e-003
25782	17.904	5.	0.1	-1.8635e-004
25783	17.627	4.9091	0.1	-7.5399e-004
25784	17.719	5.	0.1	-1.271e-005
25785	17.442	4.9091	0.1	-4.5179e-004
25786	17.534	5.	0.1	1.8584e-004
25787	17.257	4.9091	0.1	-9.6143e-005
25788	17.349	5.	0.1	3.9871e-004
25789	17.072	4.9091	0.1	3.6942e-004
25790	17.165	5.	0.1	6.6705e-004
25791	16.888	4.9091	0.1	1.039e-003
25792	16.98	5.	0.1	1.0333e-003
25793	16.703	4.9091	0.1	2.1295e-003
25794	16.795	5.	0.1	1.5813e-003
25795	16.518	4.9091	0.1	4.173e-003
25796	16.61	5.	0.1	2.5147e-003
25797	16.333	4.9091	0.1	9.1669e-003
25798	16.426	5.	0.1	4.2359e-003
25799	16.149	4.9091	0.1	3.7702e-002
25800	16.241	5.	0.1	8.2493e-003
25801	15.964	4.9091	0.1	1.0681
25802	16.056	5.	0.1	2.6441e-002
25803	15.779	4.9091	0.1	2.8365
25804	15.871	5.	0.1	0.76224
25805	15.594	4.9091	0.1	4.6947
25806	15.687	5.	0.1	2.44
25807	15.41	4.9091	0.1	6.6364
25808	15.502	5.	0.1	4.2083
25809	15.225	4.9091	0.1	8.6634
25810	15.317	5.	0.1	6.0528
25811	15.04	4.9091	0.1	10.777
25812	15.133	5.	0.1	7.9732
25813	14.855	4.9091	0.1	12.978
25814	14.948	5.	0.1	9.9693
25815	14.671	4.9091	0.1	15.265
25816	14.763	5.	0.1	12.039
25817	14.486	4.9091	0.1	17.633
25818	14.578	5.	0.1	14.178
25819	14.301	4.9091	0.1	20.074
25820	14.394	5.	0.1	16.379
25821	14.116	4.9091	0.1	22.578
25822	14.209	5.	0.1	18.631
25823	13.932	4.9091	0.1	25.128
25824	14.024	5.	0.1	20.919
25825	13.747	4.9091	0.1	27.703
25826	13.839	5.	0.1	23.222
25827	13.562	4.9091	0.1	30.274
25828	13.655	5.	0.1	25.513
25829	13.378	4.9091	0.1	32.805
25830	13.47	5.	0.1	27.757
25831	13.193	4.9091	0.1	35.251
25832	13.285	5.	0.1	29.911
25833	13.008	4.9091	0.1	37.555
25834	13.1	5.	0.1	31.921
25835	12.823	4.9091	0.1	39.651
25836	12.916	5.	0.1	33.724
25837	12.639	4.9091	0.1	41.459
25838	12.731	5.	0.1	35.243
25839	12.454	4.9091	0.1	42.885
25840	12.546	5.	0.1	36.387
25841	12.269	4.9091	0.1	43.82
25842	12.361	5.	0.1	37.052
25843	12.084	4.9091	0.1	44.141
25844	12.177	5.	0.1	37.118
25845	11.9	4.9091	0.1	43.71
25846	11.992	5.	0.1	36.452
25847	11.715	4.9091	0.1	42.372
25848	11.807	5.	0.1	34.907
25849	11.53	4.9091	0.1	39.96
25850	11.622	5.	0.1	32.325
25851	11.345	4.9091	0.1	36.289
25852	11.438	5.	0.1	28.545
25853	11.161	4.9091	0.1	31.17
25854	11.253	5.	0.1	23.416
25855	10.976	4.9091	0.1	24.434
25856	11.068	5.	0.1	16.88
25857	10.791	4.9091	0.1	16.15
25858	10.884	5.	0.1	9.4377
25859	10.606	4.9091	0.1	7.9499
25860	10.699	5.	0.1	4.0678
25861	10.422	4.9091	0.1	3.9102
25862	10.514	5.	0.1	2.387
25863	10.237	4.9091	0.1	2.7156
25864	10.329	5.	0.1	1.9117
25865	10.052	4.9091	0.1	2.3075
25866	10.145	5.	0.1	1.7772
25867	9.8675	4.9091	0.1	2.1725
25868	9.9598	5.	0.1	1.7891
25869	9.6827	4.9091	0.1	2.1956
25870	9.7751	5.	0.1	1.8802
25871	9.498	4.9091	0.1	2.2543
25872	9.5904	5.	0.1	2.0675
25873	9.3133	4.9091	0.1	2.631
25874	9.4056	5.	0.1	2.1622
25875	9.1285	4.9091	0.1	1.898
25876	9.2209	5.	0.1	2.8007
25877	8.9438	4.9091	0.1	5.0402
25878	9.0361	5.	0.1	0.91232
25879	8.8514	5.	0.1	7.979
25880	8.759	4.9091	0.1	-0.6249
25881	23.723	5.0909	0.1	-0.13196
25882	23.815	5.1818	0.1	-4.8342e-002
25883	23.908	5.0909	0.1	-0.38902
25884	23.538	5.0909	0.1	-0.16577
25885	23.631	5.1818	0.1	-0.24034
25886	23.353	5.0909	0.1	-8.057e-002
25887	23.446	5.1818	0.1	-7.6693e-002
25888	23.169	5.0909	0.1	-6.2442e-002
25889	23.261	5.1818	0.1	-6.6261e-002
25890	22.984	5.0909	0.1	-4.3299e-002
25891	23.076	5.1818	0.1	-4.023e-002
25892	22.799	5.0909	0.1	-3.2565e-002
25893	22.892	5.1818	0.1	-2.8998e-002
25894	22.614	5.0909	0.1	-2.448e-002
25895	22.707	5.1818	0.1	-2.0004e-002
25896	22.43	5.0909	0.1	-1.8766e-002
25897	22.522	5.1818	0.1	-1.409e-002
25898	22.245	5.0909	0.1	-1.4501e-002
25899	22.337	5.1818	0.1	-9.7731e-003
25900	22.06	5.0909	0.1	-1.1295e-002
25901	22.153	5.1818	0.1	-6.6596e-003
25902	21.876	5.0909	0.1	-8.8321e-003
25903	21.968	5.1818	0.1	-4.3598e-003
25904	21.691	5.0909	0.1	-6.9174e-003
25905	21.783	5.1818	0.1	-2.638e-003
25906	21.506	5.0909	0.1	-5.4198e-003
25907	21.598	5.1818	0.1	-1.3432e-003
25908	21.321	5.0909	0.1	-4.2402e-003
25909	21.414	5.1818	0.1	-3.7398e-004
25910	21.137	5.0909	0.1	-3.3022e-003
25911	21.229	5.1818	0.1	3.558e-004
25912	20.952	5.0909	0.1	-2.5531e-003
25913	21.044	5.1818	0.1	9.0358e-004
25914	20.767	5.0909	0.1	-1.9429e-003
25915	20.859	5.1818	0.1	1.312e-003
25916	20.582	5.0909	0.1	-1.4382e-003
25917	20.675	5.1818	0.1	1.6296e-003
25918	20.398	5.0909	0.1	-1.0281e-003
25919	20.49	5.1818	0.1	1.8681e-003
25920	20.213	5.0909	0.1	-7.0213e-004
25921	20.305	5.1818	0.1	2.0336e-003
25922	20.028	5.0909	0.1	-4.4135e-004
25923	20.12	5.1818	0.1	2.1365e-003
25924	19.843	5.0909	0.1	-2.1716e-004
25925	19.936	5.1818	0.1	2.2e-003
25926	19.659	5.0909	0.1	-1.9516e-005
25927	19.751	5.1818	0.1	2.2551e-003
25928	19.474	5.0909	0.1	1.405e-004
25929	19.566	5.1818	0.1	2.2876e-003
25930	19.289	5.0909	0.1	2.6619e-004
25931	19.382	5.1818	0.1	2.2864e-003
25932	19.104	5.0909	0.1	3.6642e-004
25933	19.197	5.1818	0.1	2.2643e-003
25934	18.92	5.0909	0.1	4.4562e-004
25935	19.012	5.1818	0.1	2.2261e-003
25936	18.735	5.0909	0.1	5.2222e-004
25937	18.827	5.1818	0.1	2.1752e-003
25938	18.55	5.0909	0.1	6.0241e-004
25939	18.643	5.1818	0.1	2.1413e-003
25940	18.365	5.0909	0.1	6.6945e-004
25941	18.458	5.1818	0.1	2.1044e-003
25942	18.181	5.0909	0.1	7.1601e-004
25943	18.273	5.1818	0.1	2.0484e-003
25944	17.996	5.0909	0.1	7.5251e-004
25945	18.088	5.1818	0.1	1.9706e-003
25946	17.811	5.0909	0.1	8.0997e-004
25947	17.904	5.1818	0.1	1.8934e-003
25948	17.627	5.0909	0.1	8.9694e-004
25949	17.719	5.1818	0.1	1.853e-003
25950	17.442	5.0909	0.1	9.9171e-004
25951	17.534	5.1818	0.1	1.8234e-003
25952	17.257	5.0909	0.1	1.1022e-003
25953	17.349	5.1818	0.1	1.782e-003
25954	17.072	5.0909	0.1	1.2562e-003
25955	17.165	5.1818	0.1	1.7546e-003
25956	16.888	5.0909	0.1	1.4893e-003
25957	16.98	5.1818	0.1	1.755e-003
25958	16.703	5.0909	0.1	1.8842e-003
25959	16.795	5.1818	0.1	1.811e-003
25960	16.518	5.0909	0.1	2.57e-003
25961	16.61	5.1818	0.1	1.9995e-003
25962	16.333	5.0909	0.1	3.8281e-003
25963	16.426	5.1818	0.1	2.3729e-003
25964	16.149	5.0909	0.1	6.6413e-003
25965	16.241	5.1818	0.1	3.0926e-003
25966	15.964	5.0909	0.1	1.683e-002
25967	16.056	5.1818	0.1	4.694e-003
25968	15.779	5.0909	0.1	0.37035
25969	15.871	5.1818	0.1	9.5478e-003
25970	15.594	5.0909	0.1	1.9311
25971	15.687	5.1818	0.1	5.9013e-002
25972	15.41	5.0909	0.1	3.602
25973	15.502	5.1818	0.1	1.2579
25974	15.225	5.0909	0.1	5.3406
25975	15.317	5.1818	0.1	2.8202
25976	15.04	5.0909	0.1	7.1439
25977	15.133	5.1818	0.1	4.4438
25978	14.855	5.0909	0.1	9.0093
25979	14.948	5.1818	0.1	6.1218
25980	14.671	5.0909	0.1	10.932
25981	14.763	5.1818	0.1	7.8495
25982	14.486	5.0909	0.1	12.905
25983	14.578	5.1818	0.1	9.62
25984	14.301	5.0909	0.1	14.918
25985	14.394	5.1818	0.1	11.424
25986	14.116	5.0909	0.1	16.954
25987	14.209	5.1818	0.1	13.247
25988	13.932	5.0909	0.1	18.995
25989	14.024	5.1818	0.1	15.071
25990	13.747	5.0909	0.1	21.014
25991	13.839	5.1818	0.1	16.874
25992	13.562	5.0909	0.1	22.978
25993	13.655	5.1818	0.1	18.624
25994	13.378	5.0909	0.1	24.844
25995	13.47	5.1818	0.1	20.284
25996	13.193	5.0909	0.1	26.563
25997	13.285	5.1818	0.1	21.806
25998	13.008	5.0909	0.1	28.073
25999	13.1	5.1818	0.1	23.136
26000	12.823	5.0909	0.1	29.298
26001	12.916	5.1818	0.1	24.203
26002	12.639	5.0909	0.1	30.152
26003	12.731	5.1818	0.1	24.928
26004	12.454	5.0909	0.1	30.534
26005	12.546	5.1818	0.1	25.218
26006	12.269	5.0909	0.1	30.33
26007	12.361	5.1818	0.1	24.963
26008	12.084	5.0909	0.1	29.409
26009	12.177	5.1818	0.1	24.042
26010	11.9	5.0909	0.1	27.632
26011	11.992	5.1818	0.1	22.323
26012	11.715	5.0909	0.1	24.851
26013	11.807	5.1818	0.1	19.666
26014	11.53	5.0909	0.1	20.921
26015	11.622	5.1818	0.1	15.937
26016	11.345	5.0909	0.1	15.744
26017	11.438	5.1818	0.1	11.068
26018	11.161	5.0909	0.1	9.4692
26019	11.253	5.1818	0.1	5.4341
26020	10.976	5.0909	0.1	3.859
26021	11.068	5.1818	0.1	1.8581
26022	10.791	5.0909	0.1	1.8622
26023	10.884	5.1818	0.1	1.066
26024	10.606	5.0909	0.1	1.3844
26025	10.699	5.1818	0.1	0.87884
26026	10.422	5.0909	0.1	1.2637
26027	10.514	5.1818	0.1	0.85352
26028	10.237	5.0909	0.1	1.2805
26029	10.329	5.1818	0.1	0.90794
26030	10.052	5.0909	0.1	1.379
26031	10.145	5.1818	0.1	1.0221
26032	9.8675	5.0909	0.1	1.5375
26033	9.9598	5.1818	0.1	1.196
26034	9.6827	5.0909	0.1	1.7599
26035	9.7751	5.1818	0.1	1.4249
26036	9.498	5.0909	0.1	1.9813
26037	9.5904	5.1818	0.1	1.7389
26038	9.3133	5.0909	0.1	2.3584
26039	9.4056	5.1818	0.1	1.9978
26040	9.1285	5.0909	0.1	1.8922
26041	9.2209	5.1818	0.1	2.6386
26042	8.9438	5.0909	0.1	4.3379
26043	9.0361	5.1818	0.1	1.2684
26044	8.8514	5.1818	0.1	7.0481
26045	8.759	5.0909	0.1	-1.9866
26046	23.723	5.2727	0.1	-9.1202e-002
26047	23.815	5.3636	0.1	3.2958e-003
26048	23.908	5.2727	0.1	-0.3658
26049	23.538	5.2727	0.1	-0.13561
26050	23.631	5.3636	0.1	-0.2056
26051	23.353	5.2727	0.1	-5.5667e-002
26052	23.446	5.3636	0.1	-4.9229e-002
26053	23.169	5.2727	0.1	-4.0175e-002
26054	23.261	5.3636	0.1	-4.2782e-002
26055	22.984	5.2727	0.1	-2.3303e-002
26056	23.076	5.3636	0.1	-1.9656e-002
26057	22.799	5.2727	0.1	-1.4491e-002
26058	22.892	5.3636	0.1	-1.0754e-002
26059	22.614	5.2727	0.1	-8.0947e-003
26060	22.707	5.3636	0.1	-3.7976e-003
26061	22.43	5.2727	0.1	-3.872e-003
26062	22.522	5.3636	0.1	3.7437e-004
26063	22.245	5.2727	0.1	-9.2209e-004
26064	22.337	5.3636	0.1	3.1889e-003
26065	22.06	5.2727	0.1	1.1205e-003
26066	22.153	5.3636	0.1	5.0056e-003
26067	21.876	5.2727	0.1	2.5498e-003
26068	21.968	5.3636	0.1	6.1812e-003
26069	21.691	5.2727	0.1	3.5471e-003
26070	21.783	5.3636	0.1	6.926e-003
26071	21.506	5.2727	0.1	4.2275e-003
26072	21.598	5.3636	0.1	7.3672e-003
26073	21.321	5.2727	0.1	4.6752e-003
26074	21.414	5.3636	0.1	7.5866e-003
26075	21.137	5.2727	0.1	4.9542e-003
26076	21.229	5.3636	0.1	7.6536e-003
26077	20.952	5.2727	0.1	5.1095e-003
26078	21.044	5.3636	0.1	7.6134e-003
26079	20.767	5.2727	0.1	5.1806e-003
26080	20.859	5.3636	0.1	7.4964e-003
26081	20.582	5.2727	0.1	5.1932e-003
26082	20.675	5.3636	0.1	7.3432e-003
26083	20.398	5.2727	0.1	5.1531e-003
26084	20.49	5.3636	0.1	7.1562e-003
26085	20.213	5.2727	0.1	5.0655e-003
26086	20.305	5.3636	0.1	6.9381e-003
26087	20.028	5.2727	0.1	4.9444e-003
26088	20.12	5.3636	0.1	6.6898e-003
26089	19.843	5.2727	0.1	4.8149e-003
26090	19.936	5.3636	0.1	6.434e-003
26091	19.659	5.2727	0.1	4.6833e-003
26092	19.751	5.3636	0.1	6.1935e-003
26093	19.474	5.2727	0.1	4.5351e-003
26094	19.566	5.3636	0.1	5.9545e-003
26095	19.289	5.2727	0.1	4.3682e-003
26096	19.382	5.3636	0.1	5.6991e-003
26097	19.104	5.2727	0.1	4.1912e-003
26098	19.197	5.3636	0.1	5.439e-003
26099	18.92	5.2727	0.1	4.0077e-003
26100	19.012	5.3636	0.1	5.1771e-003
26101	18.735	5.2727	0.1	3.832e-003
26102	18.827	5.3636	0.1	4.9135e-003
26103	18.55	5.2727	0.1	3.6675e-003
26104	18.643	5.3636	0.1	4.6761e-003
26105	18.365	5.2727	0.1	3.4948e-003
26106	18.458	5.3636	0.1	4.4414e-003
26107	18.181	5.2727	0.1	3.3024e-003
26108	18.273	5.3636	0.1	4.1918e-003
26109	17.996	5.2727	0.1	3.0993e-003
26110	18.088	5.3636	0.1	3.9217e-003
26111	17.811	5.2727	0.1	2.9134e-003
26112	17.904	5.3636	0.1	3.6515e-003
26113	17.627	5.2727	0.1	2.7462e-003
26114	17.719	5.3636	0.1	3.4132e-003
26115	17.442	5.2727	0.1	2.5714e-003
26116	17.534	5.3636	0.1	3.1756e-003
26117	17.257	5.2727	0.1	2.3852e-003
26118	17.349	5.3636	0.1	2.9123e-003
26119	17.072	5.2727	0.1	2.2013e-003
26120	17.165	5.3636	0.1	2.6382e-003
26121	16.888	5.2727	0.1	2.0298e-003
26122	16.98	5.3636	0.1	2.3578e-003
26123	16.703	5.2727	0.1	1.902e-003
26124	16.795	5.3636	0.1	2.0744e-003
26125	16.518	5.2727	0.1	1.8439e-003
26126	16.61	5.3636	0.1	1.8285e-003
26127	16.333	5.2727	0.1	1.8702e-003
26128	16.426	5.3636	0.1	1.5992e-003
26129	16.149	5.2727	0.1	2.0577e-003
26130	16.241	5.3636	0.1	1.3728e-003
26131	15.964	5.2727	0.1	2.656e-003
26132	16.056	5.3636	0.1	1.1789e-003
26133	15.779	5.2727	0.1	4.4965e-003
26134	15.871	5.3636	0.1	1.121e-003
26135	15.594	5.2727	0.1	1.2877e-002
26136	15.687	5.3636	0.1	1.4403e-003
26137	15.41	5.2727	0.1	0.46821
26138	15.502	5.3636	0.1	2.8986e-003
26139	15.225	5.2727	0.1	1.9015
26140	15.317	5.3636	0.1	1.3957e-002
26141	15.04	5.2727	0.1	3.3997
26142	15.133	5.3636	0.1	0.81457
26143	14.855	5.2727	0.1	4.9404
26144	14.948	5.3636	0.1	2.1805
26145	14.671	5.2727	0.1	6.5164
26146	14.763	5.3636	0.1	3.5814
26147	14.486	5.2727	0.1	8.1181
26148	14.578	5.3636	0.1	5.0057
26149	14.301	5.2727	0.1	9.7332
26150	14.394	5.3636	0.1	6.442
26151	14.116	5.2727	0.1	11.345
26152	14.209	5.3636	0.1	7.8761
26153	13.932	5.2727	0.1	12.931
26154	14.024	5.3636	0.1	9.2894
26155	13.747	5.2727	0.1	14.465
26156	13.839	5.3636	0.1	10.658
26157	13.562	5.2727	0.1	15.911
26158	13.655	5.3636	0.1	11.952
26159	13.378	5.2727	0.1	17.227
26160	13.47	5.3636	0.1	13.135
26161	13.193	5.2727	0.1	18.36
26162	13.285	5.3636	0.1	14.16
26163	13.008	5.2727	0.1	19.247
26164	13.1	5.3636	0.1	14.974
26165	12.823	5.2727	0.1	19.814
26166	12.916	5.3636	0.1	15.509
26167	12.639	5.2727	0.1	19.974
26168	12.731	5.3636	0.1	15.689
26169	12.454	5.2727	0.1	19.625
26170	12.546	5.3636	0.1	15.424
26171	12.269	5.2727	0.1	18.655
26172	12.361	5.3636	0.1	14.612
26173	12.084	5.2727	0.1	16.937
26174	12.177	5.3636	0.1	13.139
26175	11.9	5.2727	0.1	14.344
26176	11.992	5.3636	0.1	10.885
26177	11.715	5.2727	0.1	10.76
26178	11.807	5.3636	0.1	7.7485
26179	11.53	5.2727	0.1	6.2067
26180	11.622	5.3636	0.1	3.8054
26181	11.345	5.2727	0.1	1.9855
26182	11.438	5.3636	0.1	0.95412
26183	11.161	5.2727	0.1	0.8076
26184	11.253	5.3636	0.1	0.45334
26185	10.976	5.2727	0.1	0.58432
26186	11.068	5.3636	0.1	0.34995
26187	10.791	5.2727	0.1	0.53495
26188	10.884	5.3636	0.1	0.33016
26189	10.606	5.2727	0.1	0.55297
26190	10.699	5.3636	0.1	0.34879
26191	10.422	5.2727	0.1	0.61647
26192	10.514	5.3636	0.1	0.39728
26193	10.237	5.2727	0.1	0.72367
26194	10.329	5.3636	0.1	0.47799
26195	10.052	5.2727	0.1	0.88244
26196	10.145	5.3636	0.1	0.59939
26197	9.8675	5.2727	0.1	1.1034
26198	9.9598	5.3636	0.1	0.77927
26199	9.6827	5.2727	0.1	1.4119
26200	9.7751	5.3636	0.1	1.0368
26201	9.498	5.2727	0.1	1.776
26202	9.5904	5.3636	0.1	1.4337
26203	9.3133	5.2727	0.1	2.35
26204	9.4056	5.3636	0.1	1.8995
26205	9.1285	5.2727	0.1	2.1824
26206	9.2209	5.3636	0.1	2.8392
26207	8.9438	5.2727	0.1	4.6291
26208	9.0361	5.3636	0.1	2.0252
26209	8.8514	5.3636	0.1	7.4075
26210	8.759	5.2727	0.1	-1.7038
26211	23.723	5.4545	0.1	-4.8652e-002
26212	23.815	5.5455	0.1	0.15128
26213	23.908	5.4545	0.1	-0.35325
26214	23.538	5.4545	0.1	-0.10246
26215	23.631	5.5455	0.1	-0.10081
26216	23.353	5.4545	0.1	-2.8285e-002
26217	23.446	5.5455	0.1	2.7495e-002
26218	23.169	5.4545	0.1	-1.7249e-002
26219	23.261	5.5455	0.1	2.3712e-002
26220	22.984	5.4545	0.1	-3.5828e-003
26221	23.076	5.5455	0.1	3.6975e-002
26222	22.799	5.4545	0.1	2.5794e-003
26223	22.892	5.5455	0.1	3.8626e-002
26224	22.614	5.4545	0.1	6.7242e-003
26225	22.707	5.5455	0.1	3.9567e-002
26226	22.43	5.4545	0.1	9.072e-003
26227	22.522	5.5455	0.1	3.8808e-002
26228	22.245	5.4545	0.1	1.0445e-002
26229	22.337	5.5455	0.1	3.7496e-002
26230	22.06	5.4545	0.1	1.1158e-002
26231	22.153	5.5455	0.1	3.5817e-002
26232	21.876	5.4545	0.1	1.1464e-002
26233	21.968	5.5455	0.1	3.4002e-002
26234	21.691	5.4545	0.1	1.1504e-002
26235	21.783	5.5455	0.1	3.2159e-002
26236	21.506	5.4545	0.1	1.1364e-002
26237	21.598	5.5455	0.1	3.0343e-002
26238	21.321	5.4545	0.1	1.1103e-002
26239	21.414	5.5455	0.1	2.8574e-002
26240	21.137	5.4545	0.1	1.0768e-002
26241	21.229	5.5455	0.1	2.688e-002
26242	20.952	5.4545	0.1	1.0386e-002
26243	21.044	5.5455	0.1	2.5268e-002
26244	20.767	5.4545	0.1	9.986e-003
26245	20.859	5.5455	0.1	2.374e-002
26246	20.582	5.4545	0.1	9.5827e-003
26247	20.675	5.5455	0.1	2.2312e-002
26248	20.398	5.4545	0.1	9.1743e-003
26249	20.49	5.5455	0.1	2.097e-002
26250	20.213	5.4545	0.1	8.7578e-003
26251	20.305	5.5455	0.1	1.9697e-002
26252	20.028	5.4545	0.1	8.3419e-003
26253	20.12	5.5455	0.1	1.8483e-002
26254	19.843	5.4545	0.1	7.9463e-003
26255	19.936	5.5455	0.1	1.7336e-002
26256	19.659	5.4545	0.1	7.573e-003
26257	19.751	5.5455	0.1	1.6273e-002
26258	19.474	5.4545	0.1	7.2043e-003
26259	19.566	5.5455	0.1	1.5267e-002
26260	19.289	5.4545	0.1	6.8355e-003
26261	19.382	5.5455	0.1	1.4294e-002
26262	19.104	5.4545	0.1	6.4726e-003
26263	19.197	5.5455	0.1	1.3361e-002
26264	18.92	5.4545	0.1	6.1145e-003
26265	19.012	5.5455	0.1	1.2462e-002
26266	18.735	5.4545	0.1	5.7746e-003
26267	18.827	5.5455	0.1	1.1591e-002
26268	18.55	5.4545	0.1	5.4539e-003
26269	18.643	5.5455	0.1	1.0773e-002
26270	18.365	5.4545	0.1	5.1304e-003
26271	18.458	5.5455	0.1	9.9781e-003
26272	18.181	5.4545	0.1	4.7926e-003
26273	18.273	5.5455	0.1	9.1848e-003
26274	17.996	5.4545	0.1	4.4461e-003
26275	18.088	5.5455	0.1	8.3826e-003
26276	17.811	5.4545	0.1	4.1157e-003
26277	17.904	5.5455	0.1	7.5874e-003
26278	17.627	5.4545	0.1	3.8007e-003
26279	17.719	5.5455	0.1	6.8273e-003
26280	17.442	5.4545	0.1	3.4707e-003
26281	17.534	5.5455	0.1	6.067e-003
26282	17.257	5.4545	0.1	3.1186e-003
26283	17.349	5.5455	0.1	5.2749e-003
26284	17.072	5.4545	0.1	2.7518e-003
26285	17.165	5.5455	0.1	4.4616e-003
26286	16.888	5.4545	0.1	2.3703e-003
26287	16.98	5.5455	0.1	3.6249e-003
26288	16.703	5.4545	0.1	1.9913e-003
26289	16.795	5.5455	0.1	2.7619e-003
26290	16.518	5.4545	0.1	1.6173e-003
26291	16.61	5.5455	0.1	1.9048e-003
26292	16.333	5.4545	0.1	1.2182e-003
26293	16.426	5.5455	0.1	1.0175e-003
26294	16.149	5.4545	0.1	7.7836e-004
26295	16.241	5.5455	0.1	6.7329e-005
26296	15.964	5.4545	0.1	3.1332e-004
26297	16.056	5.5455	0.1	-9.5414e-004
26298	15.779	5.4545	0.1	-1.3555e-004
26299	15.871	5.5455	0.1	-2.0238e-003
26300	15.594	5.4545	0.1	-5.4582e-004
26301	15.687	5.5455	0.1	-3.1113e-003
26302	15.41	5.4545	0.1	-8.6379e-004
26303	15.502	5.5455	0.1	-4.2624e-003
26304	15.225	5.4545	0.1	-7.7648e-004
26305	15.317	5.5455	0.1	-5.486e-003
26306	15.04	5.4545	0.1	3.599e-003
26307	15.133	5.5455	0.1	-6.7934e-003
26308	14.855	5.4545	0.1	0.7996
26309	14.948	5.5455	0.1	-8.2163e-003
26310	14.671	5.4545	0.1	2.0487
26311	14.763	5.5455	0.1	-9.7117e-003
26312	14.486	5.4545	0.1	3.3082
26313	14.578	5.5455	0.1	0.3293
26314	14.301	5.4545	0.1	4.5641
26315	14.394	5.5455	0.1	1.4341
26316	14.116	5.4545	0.1	5.8004
26317	14.209	5.5455	0.1	2.5251
26318	13.932	5.4545	0.1	6.9963
26319	14.024	5.5455	0.1	3.5858
26320	13.747	5.4545	0.1	8.1259
26321	13.839	5.5455	0.1	4.5954
26322	13.562	5.4545	0.1	9.1567
26323	13.655	5.5455	0.1	5.5278
26324	13.378	5.4545	0.1	10.049
26325	13.47	5.5455	0.1	6.3508
26326	13.193	5.4545	0.1	10.755
26327	13.285	5.5455	0.1	7.025
26328	13.008	5.4545	0.1	11.216
26329	13.1	5.5455	0.1	7.5032
26330	12.823	5.4545	0.1	11.364
26331	12.916	5.5455	0.1	7.7288
26332	12.639	5.4545	0.1	11.119
26333	12.731	5.5455	0.1	7.6357
26334	12.454	5.4545	0.1	10.391
26335	12.546	5.5455	0.1	7.1477
26336	12.269	5.4545	0.1	9.0782
26337	12.361	5.5455	0.1	6.1792
26338	12.084	5.4545	0.1	7.0754
26339	12.177	5.5455	0.1	4.6418
26340	11.9	5.4545	0.1	4.3146
26341	11.992	5.5455	0.1	2.4958
26342	11.715	5.4545	0.1	1.2804
26343	11.807	5.5455	0.1	0.53938
26344	11.53	5.4545	0.1	0.35766
26345	11.622	5.5455	0.1	0.19511
26346	11.345	5.4545	0.1	0.22415
26347	11.438	5.5455	0.1	0.13796
26348	11.161	5.4545	0.1	0.18974
26349	11.253	5.5455	0.1	0.126
26350	10.976	5.4545	0.1	0.18721
26351	11.068	5.5455	0.1	0.13169
26352	10.791	5.4545	0.1	0.20399
26353	10.884	5.5455	0.1	0.1491
26354	10.606	5.4545	0.1	0.2388
26355	10.699	5.5455	0.1	0.17768
26356	10.422	5.4545	0.1	0.29539
26357	10.514	5.5455	0.1	0.21946
26358	10.237	5.4545	0.1	0.38187
26359	10.329	5.5455	0.1	0.27918
26360	10.052	5.4545	0.1	0.51396
26361	10.145	5.5455	0.1	0.36571
26362	9.8675	5.4545	0.1	0.71668
26363	9.9598	5.5455	0.1	0.49917
26364	9.6827	5.4545	0.1	1.0495
26365	9.7751	5.5455	0.1	0.71239
26366	9.498	5.4545	0.1	1.5583
26367	9.5904	5.5455	0.1	1.1109
26368	9.3133	5.4545	0.1	2.4889
26369	9.4056	5.5455	0.1	1.7532
26370	9.1285	5.4545	0.1	3.0412
26371	9.2209	5.5455	0.1	3.245
26372	8.9438	5.4545	0.1	5.8603
26373	9.0361	5.5455	0.1	3.5058
26374	8.8514	5.5455	0.1	8.7927
26375	8.759	5.4545	0.1	-1.7424
26376	23.723	5.6364	0.1	0.16105
26377	23.815	5.7273	0.1	0.38395
26378	23.908	5.6364	0.1	-0.16009
26379	23.538	5.6364	0.1	4.928e-002
26380	23.631	5.7273	0.1	5.3092e-002
26381	23.353	5.6364	0.1	9.0028e-002
26382	23.446	5.7273	0.1	0.11425
26383	23.169	5.6364	0.1	8.4481e-002
26384	23.261	5.7273	0.1	8.9162e-002
26385	22.984	5.6364	0.1	8.3584e-002
26386	23.076	5.7273	0.1	8.3628e-002
26387	22.799	5.6364	0.1	7.8699e-002
26388	22.892	5.7273	0.1	7.3207e-002
26389	22.614	5.6364	0.1	7.3873e-002
26390	22.707	5.7273	0.1	6.5249e-002
26391	22.43	5.6364	0.1	6.8859e-002
26392	22.522	5.7273	0.1	5.7999e-002
26393	22.245	5.6364	0.1	6.4069e-002
26394	22.337	5.7273	0.1	5.1807e-002
26395	22.06	5.6364	0.1	5.9551e-002
26396	22.153	5.7273	0.1	4.6423e-002
26397	21.876	5.6364	0.1	5.5353e-002
26398	21.968	5.7273	0.1	4.1756e-002
26399	21.691	5.6364	0.1	5.1475e-002
26400	21.783	5.7273	0.1	3.7698e-002
26401	21.506	5.6364	0.1	4.7894e-002
26402	21.598	5.7273	0.1	3.4154e-002
26403	21.321	5.6364	0.1	4.4584e-002
26404	21.414	5.7273	0.1	3.103e-002
26405	21.137	5.6364	0.1	4.1528e-002
26406	21.229	5.7273	0.1	2.8271e-002
26407	20.952	5.6364	0.1	3.8704e-002
26408	21.044	5.7273	0.1	2.5825e-002
26409	20.767	5.6364	0.1	3.6095e-002
26410	20.859	5.7273	0.1	2.3646e-002
26411	20.582	5.6364	0.1	3.3686e-002
26412	20.675	5.7273	0.1	2.1713e-002
26413	20.398	5.6364	0.1	3.1446e-002
26414	20.49	5.7273	0.1	1.9981e-002
26415	20.213	5.6364	0.1	2.9348e-002
26416	20.305	5.7273	0.1	1.8415e-002
26417	20.028	5.6364	0.1	2.7382e-002
26418	20.12	5.7273	0.1	1.6986e-002
26419	19.843	5.6364	0.1	2.5551e-002
26420	19.936	5.7273	0.1	1.5687e-002
26421	19.659	5.6364	0.1	2.3842e-002
26422	19.751	5.7273	0.1	1.4525e-002
26423	19.474	5.6364	0.1	2.2222e-002
26424	19.566	5.7273	0.1	1.3463e-002
26425	19.289	5.6364	0.1	2.0678e-002
26426	19.382	5.7273	0.1	1.2471e-002
26427	19.104	5.6364	0.1	1.9204e-002
26428	19.197	5.7273	0.1	1.1549e-002
26429	18.92	5.6364	0.1	1.7789e-002
26430	19.012	5.7273	0.1	1.0687e-002
26431	18.735	5.6364	0.1	1.6439e-002
26432	18.827	5.7273	0.1	9.8772e-003
26433	18.55	5.6364	0.1	1.5146e-002
26434	18.643	5.7273	0.1	9.1386e-003
26435	18.365	5.6364	0.1	1.3883e-002
26436	18.458	5.7273	0.1	8.4414e-003
26437	18.181	5.6364	0.1	1.2629e-002
26438	18.273	5.7273	0.1	7.763e-003
26439	17.996	5.6364	0.1	1.1383e-002
26440	18.088	5.7273	0.1	7.0922e-003
26441	17.811	5.6364	0.1	1.0165e-002
26442	17.904	5.7273	0.1	6.4447e-003
26443	17.627	5.6364	0.1	8.969e-003
26444	17.719	5.7273	0.1	5.8475e-003
26445	17.442	5.6364	0.1	7.7586e-003
26446	17.534	5.7273	0.1	5.2677e-003
26447	17.257	5.6364	0.1	6.5208e-003
26448	17.349	5.7273	0.1	4.6744e-003
26449	17.072	5.6364	0.1	5.2574e-003
26450	17.165	5.7273	0.1	4.0827e-003
26451	16.888	5.6364	0.1	3.9646e-003
26452	16.98	5.7273	0.1	3.4907e-003
26453	16.703	5.6364	0.1	2.6565e-003
26454	16.795	5.7273	0.1	2.9015e-003
26455	16.518	5.6364	0.1	1.3292e-003
26456	16.61	5.7273	0.1	2.3519e-003
26457	16.333	5.6364	0.1	-5.1666e-005
26458	16.426	5.7273	0.1	1.8126e-003
26459	16.149	5.6364	0.1	-1.5053e-003
26460	16.241	5.7273	0.1	1.2615e-003
26461	15.964	5.6364	0.1	-3.0223e-003
26462	16.056	5.7273	0.1	7.0325e-004
26463	15.779	5.6364	0.1	-4.5716e-003
26464	15.871	5.7273	0.1	1.7683e-004
26465	15.594	5.6364	0.1	-6.1532e-003
26466	15.687	5.7273	0.1	-2.6484e-004
26467	15.41	5.6364	0.1	-7.7808e-003
26468	15.502	5.7273	0.1	-6.3439e-004
26469	15.225	5.6364	0.1	-9.4413e-003
26470	15.317	5.7273	0.1	-8.9662e-004
26471	15.04	5.6364	0.1	-1.1115e-002
26472	15.133	5.7273	0.1	-9.9539e-004
26473	14.855	5.6364	0.1	-1.2711e-002
26474	14.948	5.7273	0.1	-8.658e-004
26475	14.671	5.6364	0.1	-1.3973e-002
26476	14.763	5.7273	0.1	-3.2183e-004
26477	14.486	5.6364	0.1	-1.4161e-002
26478	14.578	5.7273	0.1	9.2772e-004
26479	14.301	5.6364	0.1	-8.2562e-003
26480	14.394	5.7273	0.1	3.258e-003
26481	14.116	5.6364	0.1	0.31415
26482	14.209	5.7273	0.1	7.4221e-003
26483	13.932	5.6364	0.1	1.1709
26484	14.024	5.7273	0.1	1.5032e-002
26485	13.747	5.6364	0.1	1.981
26486	13.839	5.7273	0.1	2.9847e-002
26487	13.562	5.6364	0.1	2.7049
26488	13.655	5.7273	0.1	6.1945e-002
26489	13.378	5.6364	0.1	3.3097
26490	13.47	5.7273	0.1	0.14153
26491	13.193	5.6364	0.1	3.7567
26492	13.285	5.7273	0.1	0.32458
26493	13.008	5.6364	0.1	4.
26494	13.1	5.7273	0.1	0.55764
26495	12.823	5.6364	0.1	3.9857
26496	12.916	5.7273	0.1	0.69358
26497	12.639	5.6364	0.1	3.652
26498	12.731	5.7273	0.1	0.6535
26499	12.454	5.6364	0.1	2.9318
26500	12.546	5.7273	0.1	0.44042
26501	12.269	5.6364	0.1	1.7755
26502	12.361	5.7273	0.1	0.2123
26503	12.084	5.6364	0.1	0.47568
26504	12.177	5.7273	0.1	0.10369
26505	11.9	5.6364	0.1	0.13818
26506	11.992	5.7273	0.1	6.0051e-002
26507	11.715	5.6364	0.1	8.8708e-002
26508	11.807	5.7273	0.1	4.0745e-002
26509	11.53	5.6364	0.1	7.9684e-002
26510	11.622	5.7273	0.1	3.2294e-002
26511	11.345	5.6364	0.1	8.4846e-002
26512	11.438	5.7273	0.1	2.9664e-002
26513	11.161	5.6364	0.1	9.8431e-002
26514	11.253	5.7273	0.1	3.0639e-002
26515	10.976	5.6364	0.1	0.1188
26516	11.068	5.7273	0.1	3.4022e-002
26517	10.791	5.6364	0.1	0.1457
26518	10.884	5.7273	0.1	3.9027e-002
26519	10.606	5.6364	0.1	0.1798
26520	10.699	5.7273	0.1	4.5351e-002
26521	10.422	5.6364	0.1	0.22289
26522	10.514	5.7273	0.1	5.3471e-002
26523	10.237	5.6364	0.1	0.27913
26524	10.329	5.7273	0.1	6.5886e-002
26525	10.052	5.6364	0.1	0.35973
26526	10.145	5.7273	0.1	8.9743e-002
26527	9.8675	5.6364	0.1	0.48914
26528	9.9598	5.7273	0.1	0.1462
26529	9.6827	5.6364	0.1	0.7415
26530	9.7751	5.7273	0.1	0.27799
26531	9.498	5.6364	0.1	1.2402
26532	9.5904	5.7273	0.1	0.62307
26533	9.3133	5.6364	0.1	2.5026
26534	9.4056	5.7273	0.1	1.3585
26535	9.1285	5.6364	0.1	4.3031
26536	9.2209	5.7273	0.1	3.5026
26537	8.9438	5.6364	0.1	8.721
26538	9.0361	5.7273	0.1	6.0932
26539	8.8514	5.7273	0.1	14.899
26540	8.759	5.6364	0.1	-2.7909
26541	23.723	5.8182	0.1	0.30976
26542	23.815	5.9091	0.1	7.1974e-002
26543	23.908	5.8182	0.1	3.7684e-002
26544	23.538	5.8182	0.1	0.11496
26545	23.631	5.9091	0.1	-0.14368
26546	23.353	5.8182	0.1	0.10033
26547	23.446	5.9091	0.1	-4.8164e-002
26548	23.169	5.8182	0.1	7.2639e-002
26549	23.261	5.9091	0.1	-3.4685e-002
26550	22.984	5.8182	0.1	5.7376e-002
26551	23.076	5.9091	0.1	-1.5919e-002
26552	22.799	5.8182	0.1	4.4558e-002
26553	22.892	5.9091	0.1	-7.7539e-003
26554	22.614	5.8182	0.1	3.5155e-002
26555	22.707	5.9091	0.1	-1.8749e-003
26556	22.43	5.8182	0.1	2.7782e-002
26557	22.522	5.9091	0.1	1.7126e-003
26558	22.245	5.8182	0.1	2.2028e-002
26559	22.337	5.9091	0.1	4.1128e-003
26560	22.06	5.8182	0.1	1.7468e-002
26561	22.153	5.9091	0.1	5.671e-003
26562	21.876	5.8182	0.1	1.384e-002
26563	21.968	5.9091	0.1	6.6804e-003
26564	21.691	5.8182	0.1	1.094e-002
26565	21.783	5.9091	0.1	7.3157e-003
26566	21.506	5.8182	0.1	8.6063e-003
26567	21.598	5.9091	0.1	7.6879e-003
26568	21.321	5.8182	0.1	6.7204e-003
26569	21.414	5.9091	0.1	7.8603e-003
26570	21.137	5.8182	0.1	5.1972e-003
26571	21.229	5.9091	0.1	7.8937e-003
26572	20.952	5.8182	0.1	3.9686e-003
26573	21.044	5.9091	0.1	7.8271e-003
26574	20.767	5.8182	0.1	2.9881e-003
26575	20.859	5.9091	0.1	7.688e-003
26576	20.582	5.8182	0.1	2.2121e-003
26577	20.675	5.9091	0.1	7.5123e-003
26578	20.398	5.8182	0.1	1.5959e-003
26579	20.49	5.9091	0.1	7.3014e-003
26580	20.213	5.8182	0.1	1.1047e-003
26581	20.305	5.9091	0.1	7.059e-003
26582	20.028	5.8182	0.1	7.1796e-004
26583	20.12	5.9091	0.1	6.7857e-003
26584	19.843	5.8182	0.1	4.3653e-004
26585	19.936	5.9091	0.1	6.5035e-003
26586	19.659	5.8182	0.1	2.4507e-004
26587	19.751	5.9091	0.1	6.2343e-003
26588	19.474	5.8182	0.1	1.1287e-004
26589	19.566	5.9091	0.1	5.9632e-003
26590	19.289	5.8182	0.1	2.8182e-005
26591	19.382	5.9091	0.1	5.6771e-003
26592	19.104	5.8182	0.1	-1.3448e-005
26593	19.197	5.9091	0.1	5.3879e-003
26594	18.92	5.8182	0.1	-1.6614e-005
26595	19.012	5.9091	0.1	5.0953e-003
26596	18.735	5.8182	0.1	2.7959e-005
26597	18.827	5.9091	0.1	4.8037e-003
26598	18.55	5.8182	0.1	1.1698e-004
26599	18.643	5.9091	0.1	4.5365e-003
26600	18.365	5.8182	0.1	2.2865e-004
26601	18.458	5.9091	0.1	4.2752e-003
26602	18.181	5.8182	0.1	3.5116e-004
26603	18.273	5.9091	0.1	4.0004e-003
26604	17.996	5.8182	0.1	4.909e-004
26605	18.088	5.9091	0.1	3.7115e-003
26606	17.811	5.8182	0.1	6.7252e-004
26607	17.904	5.9091	0.1	3.4259e-003
26608	17.627	5.8182	0.1	8.9766e-004
26609	17.719	5.9091	0.1	3.1759e-003
26610	17.442	5.8182	0.1	1.1394e-003
26611	17.534	5.9091	0.1	2.9316e-003
26612	17.257	5.8182	0.1	1.3959e-003
26613	17.349	5.9091	0.1	2.6706e-003
26614	17.072	5.8182	0.1	1.6792e-003
26615	17.165	5.9091	0.1	2.4089e-003
26616	16.888	5.8182	0.1	1.994e-003
26617	16.98	5.9091	0.1	2.1485e-003
26618	16.703	5.8182	0.1	2.3658e-003
26619	16.795	5.9091	0.1	1.8961e-003
26620	16.518	5.8182	0.1	2.8046e-003
26621	16.61	5.9091	0.1	1.687e-003
26622	16.333	5.8182	0.1	3.2903e-003
26623	16.426	5.9091	0.1	1.4978e-003
26624	16.149	5.8182	0.1	3.8202e-003
26625	16.241	5.9091	0.1	1.3055e-003
26626	15.964	5.8182	0.1	4.4204e-003
26627	16.056	5.9091	0.1	1.1136e-003
26628	15.779	5.8182	0.1	5.1399e-003
26629	15.871	5.9091	0.1	9.5601e-004
26630	15.594	5.8182	0.1	5.9999e-003
26631	15.687	5.9091	0.1	8.7495e-004
26632	15.41	5.8182	0.1	7.0073e-003
26633	15.502	5.9091	0.1	8.4152e-004
26634	15.225	5.8182	0.1	8.195e-003
26635	15.317	5.9091	0.1	8.6297e-004
26636	15.04	5.8182	0.1	9.5955e-003
26637	15.133	5.9091	0.1	9.4646e-004
26638	14.855	5.8182	0.1	1.1274e-002
26639	14.948	5.9091	0.1	1.0806e-003
26640	14.671	5.8182	0.1	1.3349e-002
26641	14.763	5.9091	0.1	1.3077e-003
26642	14.486	5.8182	0.1	1.5914e-002
26643	14.578	5.9091	0.1	1.6815e-003
26644	14.301	5.8182	0.1	1.9046e-002
26645	14.394	5.9091	0.1	2.1505e-003
26646	14.116	5.8182	0.1	2.2861e-002
26647	14.209	5.9091	0.1	2.6597e-003
26648	13.932	5.8182	0.1	2.7519e-002
26649	14.024	5.9091	0.1	3.1488e-003
26650	13.747	5.8182	0.1	3.3174e-002
26651	13.839	5.9091	0.1	3.5397e-003
26652	13.562	5.8182	0.1	3.983e-002
26653	13.655	5.9091	0.1	3.6799e-003
26654	13.378	5.8182	0.1	4.7201e-002
26655	13.47	5.9091	0.1	3.1914e-003
26656	13.193	5.8182	0.1	5.4519e-002
26657	13.285	5.9091	0.1	1.5924e-003
26658	13.008	5.8182	0.1	6.0281e-002
26659	13.1	5.9091	0.1	-1.7433e-003
26660	12.823	5.8182	0.1	6.2432e-002
26661	12.916	5.9091	0.1	-7.4595e-003
26662	12.639	5.8182	0.1	5.9277e-002
26663	12.731	5.9091	0.1	-1.5795e-002
26664	12.454	5.8182	0.1	5.0703e-002
26665	12.546	5.9091	0.1	-2.6201e-002
26666	12.269	5.8182	0.1	3.8571e-002
26667	12.361	5.9091	0.1	-3.7314e-002
26668	12.084	5.8182	0.1	2.5585e-002
26669	12.177	5.9091	0.1	-4.7254e-002
26670	11.9	5.8182	0.1	1.3759e-002
26671	11.992	5.9091	0.1	-5.4455e-002
26672	11.715	5.8182	0.1	3.8469e-003
26673	11.807	5.9091	0.1	-5.8184e-002
26674	11.53	5.8182	0.1	-4.4629e-003
26675	11.622	5.9091	0.1	-5.8496e-002
26676	11.345	5.8182	0.1	-1.2129e-002
26677	11.438	5.9091	0.1	-5.5975e-002
26678	11.161	5.8182	0.1	-2.047e-002
26679	11.253	5.9091	0.1	-5.1295e-002
26680	10.976	5.8182	0.1	-3.1107e-002
26681	11.068	5.9091	0.1	-4.5169e-002
26682	10.791	5.8182	0.1	-4.5768e-002
26683	10.884	5.9091	0.1	-3.842e-002
26684	10.606	5.8182	0.1	-6.5835e-002
26685	10.699	5.9091	0.1	-3.197e-002
26686	10.422	5.8182	0.1	-9.1211e-002
26687	10.514	5.9091	0.1	-2.7092e-002
26688	10.237	5.8182	0.1	-0.11777
26689	10.329	5.9091	0.1	-2.5513e-002
26690	10.052	5.8182	0.1	-0.13041
26691	10.145	5.9091	0.1	-2.9883e-002
26692	9.8675	5.8182	0.1	-9.3637e-002
26693	9.9598	5.9091	0.1	-4.0701e-002
26694	9.6827	5.8182	0.1	8.8926e-002
26695	9.7751	5.9091	0.1	-6.4262e-002
26696	9.498	5.8182	0.1	0.58093
26697	9.5904	5.9091	0.1	-6.4998e-002
26698	9.3133	5.8182	0.1	2.0107
26699	9.4056	5.9091	0.1	-0.1013
26700	9.1285	5.8182	0.1	4.8315
26701	9.2209	5.9091	0.1	0.44964
26702	8.9438	5.8182	0.1	15.146
26703	9.0361	5.9091	0.1	0.75467
26704	8.759	5.8182	0.1	0.15212
26705	8.8514	5.9091	0.1	12.579
26706	0.18478	0.27273	0.1	410.04
26707	0.27717	0.18182	0.1	1.8853
26708	9.2391e-002	0.18182	0.1	571.58
26709	0.18478	9.0909e-002	0.1	-88.828
26710	0.18478	0.45455	0.1	1043.7
26711	0.27717	0.36364	0.1	741.24
26712	9.2391e-002	0.36364	0.1	1564.7
26713	0.18478	0.63636	0.1	1383.4
26714	0.27717	0.54545	0.1	1243.1
26715	9.2391e-002	0.54545	0.1	2041.8
26716	0.18478	0.81818	0.1	1586.3
26717	0.27717	0.72727	0.1	1554.2
26718	9.2391e-002	0.72727	0.1	2320.6
26719	0.18478	1.	0.1	1719.1
26720	0.27717	0.90909	0.1	1755.6
26721	9.2391e-002	0.90909	0.1	2503.
26722	0.18478	1.1818	0.1	1812.8
26723	0.27717	1.0909	0.1	1893.8
26724	9.2391e-002	1.0909	0.1	2631.9
26725	0.18478	1.3636	0.1	1881.7
26726	0.27717	1.2727	0.1	1993.3
26727	9.2391e-002	1.2727	0.1	2726.7
26728	0.18478	1.5455	0.1	1933.9
26729	0.27717	1.4545	0.1	2067.3
26730	9.2391e-002	1.4545	0.1	2798.5
26731	0.18478	1.7273	0.1	1974.
26732	0.27717	1.6364	0.1	2123.5
26733	9.2391e-002	1.6364	0.1	2853.6
26734	0.18478	1.9091	0.1	2005.
26735	0.27717	1.8182	0.1	2166.7
26736	9.2391e-002	1.8182	0.1	2896.3
26737	0.18478	2.0909	0.1	2028.9
26738	0.27717	2.	0.1	2200.
26739	9.2391e-002	2.	0.1	2929.4
26740	0.18478	2.2727	0.1	2047.
26741	0.27717	2.1818	0.1	2225.4
26742	9.2391e-002	2.1818	0.1	2954.7
26743	0.18478	2.4545	0.1	2060.2
26744	0.27717	2.3636	0.1	2244.4
26745	9.2391e-002	2.3636	0.1	2973.7
26746	0.18478	2.6364	0.1	2069.3
26747	0.27717	2.5455	0.1	2258.
26748	9.2391e-002	2.5455	0.1	2987.3
26749	0.18478	2.8182	0.1	2074.6
26750	0.27717	2.7273	0.1	2266.6
26751	9.2391e-002	2.7273	0.1	2996.
26752	0.18478	3.	0.1	2076.3
26753	0.27717	2.9091	0.1	2270.9
26754	9.2391e-002	2.9091	0.1	3000.2
26755	0.18478	3.1818	0.1	2074.6
26756	0.27717	3.0909	0.1	2270.9
26757	9.2391e-002	3.0909	0.1	3000.2
26758	0.18478	3.3636	0.1	2069.3
26759	0.27717	3.2727	0.1	2266.6
26760	9.2391e-002	3.2727	0.1	2996.
26761	0.18478	3.5455	0.1	2060.2
26762	0.27717	3.4545	0.1	2258.
26763	9.2391e-002	3.4545	0.1	2987.3
26764	0.18478	3.7273	0.1	2047.
26765	0.27717	3.6364	0.1	2244.4
26766	9.2391e-002	3.6364	0.1	2973.7
26767	0.18478	3.9091	0.1	2028.9
26768	0.27717	3.8182	0.1	2225.4
26769	9.2391e-002	3.8182	0.1	2954.7
26770	0.18478	4.0909	0.1	2005.
26771	0.27717	4.	0.1	2200.
26772	9.2391e-002	4.	0.1	2929.4
26773	0.18478	4.2727	0.1	1974.
26774	0.27717	4.1818	0.1	2166.7
26775	9.2391e-002	4.1818	0.1	2896.3
26776	0.18478	4.4545	0.1	1933.9
26777	0.27717	4.3636	0.1	2123.5
26778	9.2391e-002	4.3636	0.1	2853.6
26779	0.18478	4.6364	0.1	1881.7
26780	0.27717	4.5455	0.1	2067.3
26781	9.2391e-002	4.5455	0.1	2798.5
26782	0.18478	4.8182	0.1	1812.8
26783	0.27717	4.7273	0.1	1993.3
26784	9.2391e-002	4.7273	0.1	2726.7
26785	0.18478	5.	0.1	1719.1
26786	0.27717	4.9091	0.1	1893.8
26787	9.2391e-002	4.9091	0.1	2631.9
26788	0.18478	5.1818	0.1	1586.3
26789	0.27717	5.0909	0.1	1755.6
26790	9.2391e-002	5.0909	0.1	2503.
26791	0.18478	5.3636	0.1	1383.4
26792	0.27717	5.2727	0.1	1554.2
26793	9.2391e-002	5.2727	0.1	2320.6
26794	0.18478	5.5455	0.1	1043.7
26795	0.27717	5.4545	0.1	1243.1
26796	9.2391e-002	5.4545	0.1	2041.8
26797	0.18478	5.7273	0.1	410.04
26798	0.27717	5.6364	0.1	741.24
26799	9.2391e-002	5.6364	0.1	1564.7
26800	0.27717	5.8182	0.1	1.8853
26801	9.2391e-002	5.8182	0.1	571.58
26802	0.18478	5.9091	0.1	-88.828
26803	0.36957	0.27273	0.1	305.28
26804	0.46196	0.18182	0.1	41.308
26805	0.36957	9.0909e-002	0.1	23.624
26806	0.36957	0.45455	0.1	940.3
26807	0.46196	0.36364	0.1	534.88
26808	0.36957	0.63636	0.1	1406.7
26809	0.46196	0.54545	0.1	1038.
26810	0.36957	0.81818	0.1	1716.8
26811	0.46196	0.72727	0.1	1407.
26812	0.36957	1.	0.1	1925.6
26813	0.46196	0.90909	0.1	1667.3
26814	0.36957	1.1818	0.1	2071.3
26815	0.46196	1.0909	0.1	1851.6
26816	0.36957	1.3636	0.1	2177.
26817	0.46196	1.2727	0.1	1985.1
26818	0.36957	1.5455	0.1	2255.7
26819	0.46196	1.4545	0.1	2084.1
26820	0.36957	1.7273	0.1	2315.5
26821	0.46196	1.6364	0.1	2158.8
26822	0.36957	1.9091	0.1	2361.3
26823	0.46196	1.8182	0.1	2215.9
26824	0.36957	2.0909	0.1	2396.3
26825	0.46196	2.	0.1	2259.7
26826	0.36957	2.2727	0.1	2422.8
26827	0.46196	2.1818	0.1	2292.9
26828	0.36957	2.4545	0.1	2442.1
26829	0.46196	2.3636	0.1	2317.7
26830	0.36957	2.6364	0.1	2455.3
26831	0.46196	2.5455	0.1	2335.2
26832	0.36957	2.8182	0.1	2462.9
26833	0.46196	2.7273	0.1	2346.5
26834	0.36957	3.	0.1	2465.5
26835	0.46196	2.9091	0.1	2352.
26836	0.36957	3.1818	0.1	2462.9
26837	0.46196	3.0909	0.1	2352.
26838	0.36957	3.3636	0.1	2455.3
26839	0.46196	3.2727	0.1	2346.5
26840	0.36957	3.5455	0.1	2442.1
26841	0.46196	3.4545	0.1	2335.2
26842	0.36957	3.7273	0.1	2422.8
26843	0.46196	3.6364	0.1	2317.7
26844	0.36957	3.9091	0.1	2396.3
26845	0.46196	3.8182	0.1	2292.9
26846	0.36957	4.0909	0.1	2361.3
26847	0.46196	4.	0.1	2259.7
26848	0.36957	4.2727	0.1	2315.5
26849	0.46196	4.1818	0.1	2215.9
26850	0.36957	4.4545	0.1	2255.7
26851	0.46196	4.3636	0.1	2158.8
26852	0.36957	4.6364	0.1	2177.
26853	0.46196	4.5455	0.1	2084.1
26854	0.36957	4.8182	0.1	2071.3
26855	0.46196	4.7273	0.1	1985.1
26856	0.36957	5.	0.1	1925.6
26857	0.46196	4.9091	0.1	1851.6
26858	0.36957	5.1818	0.1	1716.8
26859	0.46196	5.0909	0.1	1667.3
26860	0.36957	5.3636	0.1	1406.7
26861	0.46196	5.2727	0.1	1407.
26862	0.36957	5.5455	0.1	940.3
26863	0.46196	5.4545	0.1	1038.
26864	0.36957	5.7273	0.1	305.28
26865	0.46196	5.6364	0.1	534.88
26866	0.46196	5.8182	0.1	41.308
26867	0.36957	5.9091	0.1	23.624
26868	0.55435	0.27273	0.1	168.52
26869	0.64674	0.18182	0.1	9.7754
26870	0.55435	9.0909e-002	0.1	-9.0981
26871	0.55435	0.45455	0.1	635.4
26872	0.64674	0.36364	0.1	374.36
26873	0.55435	0.63636	0.1	1041.3
26874	0.64674	0.54545	0.1	782.01
26875	0.55435	0.81818	0.1	1358.5
26876	0.64674	0.72727	0.1	1128.5
26877	0.55435	1.	0.1	1593.1
26878	0.64674	0.90909	0.1	1400.2
26879	0.55435	1.1818	0.1	1764.7
26880	0.64674	1.0909	0.1	1606.2
26881	0.55435	1.3636	0.1	1891.6
26882	0.64674	1.2727	0.1	1761.4
26883	0.55435	1.5455	0.1	1986.7
26884	0.64674	1.4545	0.1	1878.8
26885	0.55435	1.7273	0.1	2058.9
26886	0.64674	1.6364	0.1	1968.4
26887	0.55435	1.9091	0.1	2114.
26888	0.64674	1.8182	0.1	2037.
26889	0.55435	2.0909	0.1	2156.1
26890	0.64674	2.	0.1	2089.7
26891	0.55435	2.2727	0.1	2187.7
26892	0.64674	2.1818	0.1	2129.8
26893	0.55435	2.4545	0.1	2210.8
26894	0.64674	2.3636	0.1	2159.5
26895	0.55435	2.6364	0.1	2226.5
26896	0.64674	2.5455	0.1	2180.7
26897	0.55435	2.8182	0.1	2235.6
26898	0.64674	2.7273	0.1	2194.2
26899	0.55435	3.	0.1	2238.6
26900	0.64674	2.9091	0.1	2200.8
26901	0.55435	3.1818	0.1	2235.6
26902	0.64674	3.0909	0.1	2200.8
26903	0.55435	3.3636	0.1	2226.5
26904	0.64674	3.2727	0.1	2194.2
26905	0.55435	3.5455	0.1	2210.8
26906	0.64674	3.4545	0.1	2180.7
26907	0.55435	3.7273	0.1	2187.7
26908	0.64674	3.6364	0.1	2159.5
26909	0.55435	3.9091	0.1	2156.1
26910	0.64674	3.8182	0.1	2129.8
26911	0.55435	4.0909	0.1	2114.
26912	0.64674	4.	0.1	2089.7
26913	0.55435	4.2727	0.1	2058.9
26914	0.64674	4.1818	0.1	2037.
26915	0.55435	4.4545	0.1	1986.7
26916	0.64674	4.3636	0.1	1968.4
26917	0.55435	4.6364	0.1	1891.6
26918	0.64674	4.5455	0.1	1878.8
26919	0.55435	4.8182	0.1	1764.7
26920	0.64674	4.7273	0.1	1761.4
26921	0.55435	5.	0.1	1593.1
26922	0.64674	4.9091	0.1	1606.2
26923	0.55435	5.1818	0.1	1358.5
26924	0.64674	5.0909	0.1	1400.2
26925	0.55435	5.3636	0.1	1041.3
26926	0.64674	5.2727	0.1	1128.5
26927	0.55435	5.5455	0.1	635.4
26928	0.64674	5.4545	0.1	782.01
26929	0.55435	5.7273	0.1	168.52
26930	0.64674	5.6364	0.1	374.36
26931	0.64674	5.8182	0.1	9.7754
26932	0.55435	5.9091	0.1	-9.0981
26933	0.73913	0.27273	0.1	145.47
26934	0.83152	0.18182	0.1	16.373
26935	0.73913	9.0909e-002	0.1	1.4098
26936	0.73913	0.45455	0.1	521.23
26937	0.83152	0.36364	0.1	310.6
26938	0.73913	0.63636	0.1	870.92
26939	0.83152	0.54545	0.1	646.58
26940	0.73913	0.81818	0.1	1171.8
26941	0.83152	0.72727	0.1	954.96
26942	0.73913	1.	0.1	1414.2
26943	0.83152	0.90909	0.1	1217.1
26944	0.73913	1.1818	0.1	1603.2
26945	0.83152	1.0909	0.1	1429.5
26946	0.73913	1.3636	0.1	1748.6
26947	0.83152	1.2727	0.1	1597.5
26948	0.73913	1.5455	0.1	1860.4
26949	0.83152	1.4545	0.1	1729.1
26950	0.73913	1.7273	0.1	1946.4
26951	0.83152	1.6364	0.1	1831.6
26952	0.73913	1.9091	0.1	2012.6
26953	0.83152	1.8182	0.1	1911.4
26954	0.73913	2.0909	0.1	2063.4
26955	0.83152	2.	0.1	1973.2
26956	0.73913	2.2727	0.1	2101.6
26957	0.83152	2.1818	0.1	2020.4
26958	0.73913	2.4545	0.1	2129.5
26959	0.83152	2.3636	0.1	2055.6
26960	0.73913	2.6364	0.1	2148.5
26961	0.83152	2.5455	0.1	2080.6
26962	0.73913	2.8182	0.1	2159.5
26963	0.83152	2.7273	0.1	2096.7
26964	0.73913	3.	0.1	2163.1
26965	0.83152	2.9091	0.1	2104.5
26966	0.73913	3.1818	0.1	2159.5
26967	0.83152	3.0909	0.1	2104.5
26968	0.73913	3.3636	0.1	2148.5
26969	0.83152	3.2727	0.1	2096.7
26970	0.73913	3.5455	0.1	2129.5
26971	0.83152	3.4545	0.1	2080.6
26972	0.73913	3.7273	0.1	2101.6
26973	0.83152	3.6364	0.1	2055.6
26974	0.73913	3.9091	0.1	2063.4
26975	0.83152	3.8182	0.1	2020.4
26976	0.73913	4.0909	0.1	2012.6
26977	0.83152	4.	0.1	1973.2
26978	0.73913	4.2727	0.1	1946.4
26979	0.83152	4.1818	0.1	1911.4
26980	0.73913	4.4545	0.1	1860.4
26981	0.83152	4.3636	0.1	1831.6
26982	0.73913	4.6364	0.1	1748.6
26983	0.83152	4.5455	0.1	1729.1
26984	0.73913	4.8182	0.1	1603.2
26985	0.83152	4.7273	0.1	1597.5
26986	0.73913	5.	0.1	1414.2
26987	0.83152	4.9091	0.1	1429.5
26988	0.73913	5.1818	0.1	1171.8
26989	0.83152	5.0909	0.1	1217.1
26990	0.73913	5.3636	0.1	870.92
26991	0.83152	5.2727	0.1	954.96
26992	0.73913	5.5455	0.1	521.23
26993	0.83152	5.4545	0.1	646.58
26994	0.73913	5.7273	0.1	145.47
26995	0.83152	5.6364	0.1	310.6
26996	0.83152	5.8182	0.1	16.373
26997	0.73913	5.9091	0.1	1.4098
26998	0.92391	0.27273	0.1	127.43
26999	1.0163	0.18182	0.1	15.916
27000	0.92391	9.0909e-002	0.1	-1.0374
27001	0.92391	0.45455	0.1	435.28
27002	1.0163	0.36364	0.1	268.87
27003	0.92391	0.63636	0.1	731.14
27004	1.0163	0.54545	0.1	549.55
27005	0.92391	0.81818	0.1	1001.3
27006	1.0163	0.72727	0.1	818.12
27007	0.92391	1.	0.1	1233.4
27008	1.0163	0.90909	0.1	1059.2
27009	0.92391	1.1818	0.1	1424.6
27010	1.0163	1.0909	0.1	1265.2
27011	0.92391	1.3636	0.1	1578.5
27012	1.0163	1.2727	0.1	1435.7
27013	0.92391	1.5455	0.1	1700.6
27014	1.0163	1.4545	0.1	1574.1
27015	0.92391	1.7273	0.1	1796.8
27016	1.0163	1.6364	0.1	1685.
27017	0.92391	1.9091	0.1	1872.1
27018	1.0163	1.8182	0.1	1773.
27019	0.92391	2.0909	0.1	1930.3
27020	1.0163	2.	0.1	1842.1
27021	0.92391	2.2727	0.1	1974.4
27022	1.0163	2.1818	0.1	1895.4
27023	0.92391	2.4545	0.1	2006.8
27024	1.0163	2.3636	0.1	1935.5
27025	0.92391	2.6364	0.1	2028.9
27026	1.0163	2.5455	0.1	1964.1
27027	0.92391	2.8182	0.1	2041.8
27028	1.0163	2.7273	0.1	1982.5
27029	0.92391	3.	0.1	2046.
27030	1.0163	2.9091	0.1	1991.5
27031	0.92391	3.1818	0.1	2041.8
27032	1.0163	3.0909	0.1	1991.5
27033	0.92391	3.3636	0.1	2028.9
27034	1.0163	3.2727	0.1	1982.5
27035	0.92391	3.5455	0.1	2006.8
27036	1.0163	3.4545	0.1	1964.1
27037	0.92391	3.7273	0.1	1974.4
27038	1.0163	3.6364	0.1	1935.5
27039	0.92391	3.9091	0.1	1930.3
27040	1.0163	3.8182	0.1	1895.4
27041	0.92391	4.0909	0.1	1872.1
27042	1.0163	4.	0.1	1842.1
27043	0.92391	4.2727	0.1	1796.8
27044	1.0163	4.1818	0.1	1773.
27045	0.92391	4.4545	0.1	1700.6
27046	1.0163	4.3636	0.1	1685.
27047	0.92391	4.6364	0.1	1578.5
27048	1.0163	4.5455	0.1	1574.1
27049	0.92391	4.8182	0.1	1424.6
27050	1.0163	4.7273	0.1	1435.7
27051	0.92391	5.	0.1	1233.4
27052	1.0163	4.9091	0.1	1265.2
27053	0.92391	5.1818	0.1	1001.3
27054	1.0163	5.0909	0.1	1059.2
27055	0.92391	5.3636	0.1	731.14
27056	1.0163	5.2727	0.1	818.12
27057	0.92391	5.5455	0.1	435.28
27058	1.0163	5.4545	0.1	549.55
27059	0.92391	5.7273	0.1	127.43
27060	1.0163	5.6364	0.1	268.87
27061	1.0163	5.8182	0.1	15.916
27062	0.92391	5.9091	0.1	-1.0374
27063	1.1087	0.27273	0.1	121.35
27064	1.2011	0.18182	0.1	19.037
27065	1.1087	9.0909e-002	0.1	-6.2416e-003
27066	1.1087	0.45455	0.1	382.35
27067	1.2011	0.36364	0.1	243.23
27068	1.1087	0.63636	0.1	636.5
27069	1.2011	0.54545	0.1	483.29
27070	1.1087	0.81818	0.1	876.49
27071	1.2011	0.72727	0.1	717.84
27072	1.1087	1.	0.1	1091.7
27073	1.2011	0.90909	0.1	935.76
27074	1.1087	1.1818	0.1	1277.
27075	1.2011	1.0909	0.1	1129.3
27076	1.1087	1.3636	0.1	1432.
27077	1.2011	1.2727	0.1	1295.6
27078	1.1087	1.5455	0.1	1559.
27079	1.2011	1.4545	0.1	1435.
27080	1.1087	1.7273	0.1	1661.5
27081	1.2011	1.6364	0.1	1549.8
27082	1.1087	1.9091	0.1	1743.3
27083	1.2011	1.8182	0.1	1642.8
27084	1.1087	2.0909	0.1	1807.5
27085	1.2011	2.	0.1	1717.1
27086	1.1087	2.2727	0.1	1856.7
27087	1.2011	2.1818	0.1	1775.2
27088	1.1087	2.4545	0.1	1893.
27089	1.2011	2.3636	0.1	1819.2
27090	1.1087	2.6364	0.1	1917.9
27091	1.2011	2.5455	0.1	1850.8
27092	1.1087	2.8182	0.1	1932.4
27093	1.2011	2.7273	0.1	1871.3
27094	1.1087	3.	0.1	1937.2
27095	1.2011	2.9091	0.1	1881.3
27096	1.1087	3.1818	0.1	1932.4
27097	1.2011	3.0909	0.1	1881.3
27098	1.1087	3.3636	0.1	1917.9
27099	1.2011	3.2727	0.1	1871.3
27100	1.1087	3.5455	0.1	1893.
27101	1.2011	3.4545	0.1	1850.8
27102	1.1087	3.7273	0.1	1856.7
27103	1.2011	3.6364	0.1	1819.2
27104	1.1087	3.9091	0.1	1807.5
27105	1.2011	3.8182	0.1	1775.2
27106	1.1087	4.0909	0.1	1743.3
27107	1.2011	4.	0.1	1717.1
27108	1.1087	4.2727	0.1	1661.5
27109	1.2011	4.1818	0.1	1642.8
27110	1.1087	4.4545	0.1	1559.
27111	1.2011	4.3636	0.1	1549.8
27112	1.1087	4.6364	0.1	1432.
27113	1.2011	4.5455	0.1	1435.
27114	1.1087	4.8182	0.1	1277.
27115	1.2011	4.7273	0.1	1295.6
27116	1.1087	5.	0.1	1091.7
27117	1.2011	4.9091	0.1	1129.3
27118	1.1087	5.1818	0.1	876.49
27119	1.2011	5.0909	0.1	935.76
27120	1.1087	5.3636	0.1	636.5
27121	1.2011	5.2727	0.1	717.84
27122	1.1087	5.5455	0.1	382.34
27123	1.2011	5.4545	0.1	483.29
27124	1.1087	5.7273	0.1	121.35
27125	1.2011	5.6364	0.1	243.23
27126	1.2011	5.8182	0.1	19.037
27127	1.1087	5.9091	0.1	-6.242e-003
27128	1.2935	0.27273	0.1	117.77
27129	1.3859	0.18182	0.1	23.082
27130	1.2935	9.0909e-002	0.1	0.1656
27131	1.2935	0.45455	0.1	343.42
27132	1.3859	0.36364	0.1	224.66
27133	1.2935	0.63636	0.1	564.38
27134	1.3859	0.54545	0.1	433.51
27135	1.2935	0.81818	0.1	777.22
27136	1.3859	0.72727	0.1	639.78
27137	1.2935	1.	0.1	973.72
27138	1.3859	0.90909	0.1	835.64
27139	1.2935	1.1818	0.1	1148.4
27140	1.3859	1.0909	0.1	1014.4
27141	1.2935	1.3636	0.1	1299.2
27142	1.3859	1.2727	0.1	1172.5
27143	1.2935	1.5455	0.1	1426.3
27144	1.3859	1.4545	0.1	1308.7
27145	1.2935	1.7273	0.1	1531.5
27146	1.3859	1.6364	0.1	1423.5
27147	1.2935	1.9091	0.1	1616.9
27148	1.3859	1.8182	0.1	1518.6
27149	1.2935	2.0909	0.1	1685.1
27150	1.3859	2.	0.1	1595.7
27151	1.2935	2.2727	0.1	1737.9
27152	1.3859	2.1818	0.1	1656.8
27153	1.2935	2.4545	0.1	1777.3
27154	1.3859	2.3636	0.1	1703.7
27155	1.2935	2.6364	0.1	1804.5
27156	1.3859	2.5455	0.1	1737.6
27157	1.2935	2.8182	0.1	1820.4
27158	1.3859	2.7273	0.1	1759.6
27159	1.2935	3.	0.1	1825.7
27160	1.3859	2.9091	0.1	1770.5
27161	1.2935	3.1818	0.1	1820.4
27162	1.3859	3.0909	0.1	1770.5
27163	1.2935	3.3636	0.1	1804.5
27164	1.3859	3.2727	0.1	1759.6
27165	1.2935	3.5455	0.1	1777.3
27166	1.3859	3.4545	0.1	1737.6
27167	1.2935	3.7273	0.1	1737.9
27168	1.3859	3.6364	0.1	1703.7
27169	1.2935	3.9091	0.1	1685.1
27170	1.3859	3.8182	0.1	1656.8
27171	1.2935	4.0909	0.1	1616.9
27172	1.3859	4.	0.1	1595.7
27173	1.2935	4.2727	0.1	1531.5
27174	1.3859	4.1818	0.1	1518.6
27175	1.2935	4.4545	0.1	1426.3
27176	1.3859	4.3636	0.1	1423.5
27177	1.2935	4.6364	0.1	1299.2
27178	1.3859	4.5455	0.1	1308.7
27179	1.2935	4.8182	0.1	1148.4
27180	1.3859	4.7273	0.1	1172.5
27181	1.2935	5.	0.1	973.72
27182	1.3859	4.9091	0.1	1014.4
27183	1.2935	5.1818	0.1	777.22
27184	1.3859	5.0909	0.1	835.64
27185	1.2935	5.3636	0.1	564.38
27186	1.3859	5.2727	0.1	639.78
27187	1.2935	5.5455	0.1	343.42
27188	1.3859	5.4545	0.1	433.51
27189	1.2935	5.7273	0.1	117.77
27190	1.3859	5.6364	0.1	224.66
27191	1.3859	5.8182	0.1	23.082
27192	1.2935	5.9091	0.1	0.1656
27193	1.4783	0.27273	0.1	115.82
27194	1.5707	0.18182	0.1	28.246
27195	1.4783	9.0909e-002	0.1	0.96528
27196	1.4783	0.45455	0.1	314.09
27197	1.5707	0.36364	0.1	210.41
27198	1.4783	0.63636	0.1	508.59
27199	1.5707	0.54545	0.1	394.68
27200	1.4783	0.81818	0.1	698.13
27201	1.5707	0.72727	0.1	577.61
27202	1.4783	1.	0.1	876.5
27203	1.5707	0.90909	0.1	753.68
27204	1.4783	1.1818	0.1	1038.8
27205	1.5707	1.0909	0.1	917.51
27206	1.4783	1.3636	0.1	1182.4
27207	1.5707	1.2727	0.1	1065.5
27208	1.4783	1.5455	0.1	1306.3
27209	1.5707	1.4545	0.1	1195.8
27210	1.4783	1.7273	0.1	1411.
27211	1.5707	1.6364	0.1	1307.9
27212	1.4783	1.9091	0.1	1497.7
27213	1.5707	1.8182	0.1	1402.5
27214	1.4783	2.0909	0.1	1567.8
27215	1.5707	2.	0.1	1480.4
27216	1.4783	2.2727	0.1	1622.9
27217	1.5707	2.1818	0.1	1543.
27218	1.4783	2.4545	0.1	1664.3
27219	1.5707	2.3636	0.1	1591.5
27220	1.4783	2.6364	0.1	1693.
27221	1.5707	2.5455	0.1	1626.8
27222	1.4783	2.8182	0.1	1710.
27223	1.5707	2.7273	0.1	1649.9
27224	1.4783	3.	0.1	1715.6
27225	1.5707	2.9091	0.1	1661.3
27226	1.4783	3.1818	0.1	1710.
27227	1.5707	3.0909	0.1	1661.3
27228	1.4783	3.3636	0.1	1693.
27229	1.5707	3.2727	0.1	1649.9
27230	1.4783	3.5455	0.1	1664.3
27231	1.5707	3.4545	0.1	1626.8
27232	1.4783	3.7273	0.1	1622.9
27233	1.5707	3.6364	0.1	1591.5
27234	1.4783	3.9091	0.1	1567.8
27235	1.5707	3.8182	0.1	1543.
27236	1.4783	4.0909	0.1	1497.7
27237	1.5707	4.	0.1	1480.4
27238	1.4783	4.2727	0.1	1411.
27239	1.5707	4.1818	0.1	1402.5
27240	1.4783	4.4545	0.1	1306.3
27241	1.5707	4.3636	0.1	1307.9
27242	1.4783	4.6364	0.1	1182.4
27243	1.5707	4.5455	0.1	1195.8
27244	1.4783	4.8182	0.1	1038.8
27245	1.5707	4.7273	0.1	1065.5
27246	1.4783	5.	0.1	876.5
27247	1.5707	4.9091	0.1	917.51
27248	1.4783	5.1818	0.1	698.13
27249	1.5707	5.0909	0.1	753.68
27250	1.4783	5.3636	0.1	508.59
27251	1.5707	5.2727	0.1	577.61
27252	1.4783	5.5455	0.1	314.09
27253	1.5707	5.4545	0.1	394.68
27254	1.4783	5.7273	0.1	115.82
27255	1.5707	5.6364	0.1	210.41
27256	1.5707	5.8182	0.1	28.246
27257	1.4783	5.9091	0.1	0.96528
27258	1.663	0.27273	0.1	114.22
27259	1.7554	0.18182	0.1	33.592
27260	1.663	9.0909e-002	0.1	3.2865
27261	1.663	0.45455	0.1	290.44
27262	1.7554	0.36364	0.1	198.58
27263	1.663	0.63636	0.1	463.36
27264	1.7554	0.54545	0.1	362.88
27265	1.663	0.81818	0.1	633.
27266	1.7554	0.72727	0.1	526.34
27267	1.663	1.	0.1	794.7
27268	1.7554	0.90909	0.1	685.01
27269	1.663	1.1818	0.1	944.34
27270	1.7554	1.0909	0.1	834.62
27271	1.663	1.3636	0.1	1079.2
27272	1.7554	1.2727	0.1	971.93
27273	1.663	1.5455	0.1	1197.8
27274	1.7554	1.4545	0.1	1094.9
27275	1.663	1.7273	0.1	1299.8
27276	1.7554	1.6364	0.1	1202.5
27277	1.663	1.9091	0.1	1385.6
27278	1.7554	1.8182	0.1	1294.7
27279	1.663	2.0909	0.1	1456.
27280	1.7554	2.	0.1	1371.7
27281	1.663	2.2727	0.1	1511.9
27282	1.7554	2.1818	0.1	1434.3
27283	1.663	2.4545	0.1	1554.3
27284	1.7554	2.3636	0.1	1483.2
27285	1.663	2.6364	0.1	1583.9
27286	1.7554	2.5455	0.1	1519.2
27287	1.663	2.8182	0.1	1601.5
27288	1.7554	2.7273	0.1	1542.8
27289	1.663	3.	0.1	1607.3
27290	1.7554	2.9091	0.1	1554.5
27291	1.663	3.1818	0.1	1601.5
27292	1.7554	3.0909	0.1	1554.5
27293	1.663	3.3636	0.1	1583.9
27294	1.7554	3.2727	0.1	1542.8
27295	1.663	3.5455	0.1	1554.3
27296	1.7554	3.4545	0.1	1519.2
27297	1.663	3.7273	0.1	1511.9
27298	1.7554	3.6364	0.1	1483.2
27299	1.663	3.9091	0.1	1456.
27300	1.7554	3.8182	0.1	1434.3
27301	1.663	4.0909	0.1	1385.6
27302	1.7554	4.	0.1	1371.7
27303	1.663	4.2727	0.1	1299.8
27304	1.7554	4.1818	0.1	1294.7
27305	1.663	4.4545	0.1	1197.8
27306	1.7554	4.3636	0.1	1202.5
27307	1.663	4.6364	0.1	1079.2
27308	1.7554	4.5455	0.1	1094.9
27309	1.663	4.8182	0.1	944.34
27310	1.7554	4.7273	0.1	971.93
27311	1.663	5.	0.1	794.7
27312	1.7554	4.9091	0.1	834.62
27313	1.663	5.1818	0.1	633.
27314	1.7554	5.0909	0.1	685.01
27315	1.663	5.3636	0.1	463.36
27316	1.7554	5.2727	0.1	526.34
27317	1.663	5.5455	0.1	290.44
27318	1.7554	5.4545	0.1	362.88
27319	1.663	5.7273	0.1	114.22
27320	1.7554	5.6364	0.1	198.58
27321	1.7554	5.8182	0.1	33.592
27322	1.663	5.9091	0.1	3.2865
27323	1.8478	0.27273	0.1	112.55
27324	1.9402	0.18182	0.1	38.462
27325	1.8478	9.0909e-002	0.1	7.9788
27326	1.8478	0.45455	0.1	270.54
27327	1.9402	0.36364	0.1	188.19
27328	1.8478	0.63636	0.1	425.54
27329	1.9402	0.54545	0.1	335.88
27330	1.8478	0.81818	0.1	578.15
27331	1.9402	0.72727	0.1	482.88
27332	1.8478	1.	0.1	724.86
27333	1.9402	0.90909	0.1	626.34
27334	1.8478	1.1818	0.1	862.26
27335	1.9402	1.0909	0.1	762.83
27336	1.8478	1.3636	0.1	987.82
27337	1.9402	1.2727	0.1	889.58
27338	1.8478	1.5455	0.1	1099.9
27339	1.9402	1.4545	0.1	1004.6
27340	1.8478	1.7273	0.1	1197.7
27341	1.9402	1.6364	0.1	1106.6
27342	1.8478	1.9091	0.1	1281.1
27343	1.9402	1.8182	0.1	1195.1
27344	1.8478	2.0909	0.1	1350.4
27345	1.9402	2.	0.1	1269.9
27346	1.8478	2.2727	0.1	1406.
27347	1.9402	2.1818	0.1	1331.4
27348	1.8478	2.4545	0.1	1448.4
27349	1.9402	2.3636	0.1	1379.8
27350	1.8478	2.6364	0.1	1478.4
27351	1.9402	2.5455	0.1	1415.7
27352	1.8478	2.8182	0.1	1496.1
27353	1.9402	2.7273	0.1	1439.3
27354	1.8478	3.	0.1	1502.
27355	1.9402	2.9091	0.1	1451.1
27356	1.8478	3.1818	0.1	1496.1
27357	1.9402	3.0909	0.1	1451.1
27358	1.8478	3.3636	0.1	1478.4
27359	1.9402	3.2727	0.1	1439.3
27360	1.8478	3.5455	0.1	1448.4
27361	1.9402	3.4545	0.1	1415.7
27362	1.8478	3.7273	0.1	1406.
27363	1.9402	3.6364	0.1	1379.8
27364	1.8478	3.9091	0.1	1350.4
27365	1.9402	3.8182	0.1	1331.4
27366	1.8478	4.0909	0.1	1281.1
27367	1.9402	4.	0.1	1269.9
27368	1.8478	4.2727	0.1	1197.7
27369	1.9402	4.1818	0.1	1195.1
27370	1.8478	4.4545	0.1	1099.9
27371	1.9402	4.3636	0.1	1106.6
27372	1.8478	4.6364	0.1	987.82
27373	1.9402	4.5455	0.1	1004.6
27374	1.8478	4.8182	0.1	862.26
27375	1.9402	4.7273	0.1	889.58
27376	1.8478	5.	0.1	724.86
27377	1.9402	4.9091	0.1	762.83
27378	1.8478	5.1818	0.1	578.15
27379	1.9402	5.0909	0.1	626.34
27380	1.8478	5.3636	0.1	425.54
27381	1.9402	5.2727	0.1	482.88
27382	1.8478	5.5455	0.1	270.54
27383	1.9402	5.4545	0.1	335.88
27384	1.8478	5.7273	0.1	112.55
27385	1.9402	5.6364	0.1	188.19
27386	1.9402	5.8182	0.1	38.462
27387	1.8478	5.9091	0.1	7.9788
27388	2.0326	0.27273	0.1	110.56
27389	2.125	0.18182	0.1	42.486
27390	2.0326	9.0909e-002	0.1	12.665
27391	2.0326	0.45455	0.1	253.13
27392	2.125	0.36364	0.1	178.67
27393	2.0326	0.63636	0.1	392.94
27394	2.125	0.54545	0.1	312.24
27395	2.0326	0.81818	0.1	530.87
27396	2.125	0.72727	0.1	445.14
27397	2.0326	1.	0.1	664.2
27398	2.125	0.90909	0.1	575.23
27399	2.0326	1.1818	0.1	790.14
27400	2.125	1.0909	0.1	699.8
27401	2.0326	1.3636	0.1	906.43
27402	2.125	1.2727	0.1	816.46
27403	2.0326	1.5455	0.1	1011.5
27404	2.125	1.4545	0.1	923.38
27405	2.0326	1.7273	0.1	1104.2
27406	2.125	1.6364	0.1	1019.2
27407	2.0326	1.9091	0.1	1184.2
27408	2.125	1.8182	0.1	1103.3
27409	2.0326	2.0909	0.1	1251.2
27410	2.125	2.	0.1	1175.
27411	2.0326	2.2727	0.1	1305.5
27412	2.125	2.1818	0.1	1234.4
27413	2.0326	2.4545	0.1	1347.3
27414	2.125	2.3636	0.1	1281.6
27415	2.0326	2.6364	0.1	1376.9
27416	2.125	2.5455	0.1	1316.8
27417	2.0326	2.8182	0.1	1394.6
27418	2.125	2.7273	0.1	1340.
27419	2.0326	3.	0.1	1400.4
27420	2.125	2.9091	0.1	1351.6
27421	2.0326	3.1818	0.1	1394.6
27422	2.125	3.0909	0.1	1351.6
27423	2.0326	3.3636	0.1	1376.9
27424	2.125	3.2727	0.1	1340.
27425	2.0326	3.5455	0.1	1347.3
27426	2.125	3.4545	0.1	1316.8
27427	2.0326	3.7273	0.1	1305.5
27428	2.125	3.6364	0.1	1281.6
27429	2.0326	3.9091	0.1	1251.2
27430	2.125	3.8182	0.1	1234.4
27431	2.0326	4.0909	0.1	1184.2
27432	2.125	4.	0.1	1175.
27433	2.0326	4.2727	0.1	1104.2
27434	2.125	4.1818	0.1	1103.3
27435	2.0326	4.4545	0.1	1011.5
27436	2.125	4.3636	0.1	1019.2
27437	2.0326	4.6364	0.1	906.43
27438	2.125	4.5455	0.1	923.38
27439	2.0326	4.8182	0.1	790.14
27440	2.125	4.7273	0.1	816.46
27441	2.0326	5.	0.1	664.2
27442	2.125	4.9091	0.1	699.8
27443	2.0326	5.1818	0.1	530.87
27444	2.125	5.0909	0.1	575.23
27445	2.0326	5.3636	0.1	392.94
27446	2.125	5.2727	0.1	445.14
27447	2.0326	5.5455	0.1	253.13
27448	2.125	5.4545	0.1	312.24
27449	2.0326	5.7273	0.1	110.56
27450	2.125	5.6364	0.1	178.67
27451	2.125	5.8182	0.1	42.486
27452	2.0326	5.9091	0.1	12.665
27453	2.2174	0.27273	0.1	108.16
27454	2.3098	0.18182	0.1	45.548
27455	2.2174	9.0909e-002	0.1	16.473
27456	2.2174	0.45455	0.1	237.43
27457	2.3098	0.36364	0.1	169.67
27458	2.2174	0.63636	0.1	364.18
27459	2.3098	0.54545	0.1	291.02
27460	2.2174	0.81818	0.1	489.3
27461	2.3098	0.72727	0.1	411.66
27462	2.2174	1.	0.1	610.7
27463	2.3098	0.90909	0.1	529.98
27464	2.2174	1.1818	0.1	726.07
27465	2.3098	1.0909	0.1	643.75
27466	2.2174	1.3636	0.1	833.44
27467	2.3098	1.2727	0.1	750.97
27468	2.2174	1.5455	0.1	931.27
27469	2.3098	1.4545	0.1	849.98
27470	2.2174	1.7273	0.1	1018.5
27471	2.3098	1.6364	0.1	939.49
27472	2.2174	1.9091	0.1	1094.3
27473	2.3098	1.8182	0.1	1018.6
27474	2.2174	2.0909	0.1	1158.5
27475	2.3098	2.	0.1	1086.7
27476	2.2174	2.2727	0.1	1210.8
27477	2.3098	2.1818	0.1	1143.5
27478	2.2174	2.4545	0.1	1251.3
27479	2.3098	2.3636	0.1	1188.9
27480	2.2174	2.6364	0.1	1280.2
27481	2.3098	2.5455	0.1	1222.9
27482	2.2174	2.8182	0.1	1297.4
27483	2.3098	2.7273	0.1	1245.5
27484	2.2174	3.	0.1	1303.2
27485	2.3098	2.9091	0.1	1256.8
27486	2.2174	3.1818	0.1	1297.4
27487	2.3098	3.0909	0.1	1256.8
27488	2.2174	3.3636	0.1	1280.2
27489	2.3098	3.2727	0.1	1245.5
27490	2.2174	3.5455	0.1	1251.3
27491	2.3098	3.4545	0.1	1222.9
27492	2.2174	3.7273	0.1	1210.8
27493	2.3098	3.6364	0.1	1188.9
27494	2.2174	3.9091	0.1	1158.5
27495	2.3098	3.8182	0.1	1143.5
27496	2.2174	4.0909	0.1	1094.3
27497	2.3098	4.	0.1	1086.7
27498	2.2174	4.2727	0.1	1018.5
27499	2.3098	4.1818	0.1	1018.6
27500	2.2174	4.4545	0.1	931.27
27501	2.3098	4.3636	0.1	939.49
27502	2.2174	4.6364	0.1	833.44
27503	2.3098	4.5455	0.1	849.98
27504	2.2174	4.8182	0.1	726.07
27505	2.3098	4.7273	0.1	750.97
27506	2.2174	5.	0.1	610.7
27507	2.3098	4.9091	0.1	643.75
27508	2.2174	5.1818	0.1	489.3
27509	2.3098	5.0909	0.1	529.98
27510	2.2174	5.3636	0.1	364.18
27511	2.3098	5.2727	0.1	411.66
27512	2.2174	5.5455	0.1	237.43
27513	2.3098	5.4545	0.1	291.02
27514	2.2174	5.7273	0.1	108.16
27515	2.3098	5.6364	0.1	169.67
27516	2.3098	5.8182	0.1	45.548
27517	2.2174	5.9091	0.1	16.473
27518	2.4022	0.27273	0.1	105.31
27519	2.4946	0.18182	0.1	47.657
27520	2.4022	9.0909e-002	0.1	19.377
27521	2.4022	0.45455	0.1	222.95
27522	2.4946	0.36364	0.1	160.97
27523	2.4022	0.63636	0.1	338.28
27524	2.4946	0.54545	0.1	271.6
27525	2.4022	0.81818	0.1	452.15
27526	2.4946	0.72727	0.1	381.47
27527	2.4022	1.	0.1	562.89
27528	2.4946	0.90909	0.1	489.32
27529	2.4022	1.1818	0.1	668.58
27530	2.4946	1.0909	0.1	593.34
27531	2.4022	1.3636	0.1	767.51
27532	2.4946	1.2727	0.1	691.82
27533	2.4022	1.5455	0.1	858.26
27534	2.4946	1.4545	0.1	783.28
27535	2.4022	1.7273	0.1	939.74
27536	2.4946	1.6364	0.1	866.49
27537	2.4022	1.9091	0.1	1011.1
27538	2.4946	1.8182	0.1	940.51
27539	2.4022	2.0909	0.1	1071.9
27540	2.4946	2.	0.1	1004.7
27541	2.4022	2.2727	0.1	1121.9
27542	2.4946	2.1818	0.1	1058.5
27543	2.4022	2.4545	0.1	1160.7
27544	2.4946	2.3636	0.1	1101.8
27545	2.4022	2.6364	0.1	1188.5
27546	2.4946	2.5455	0.1	1134.3
27547	2.4022	2.8182	0.1	1205.1
27548	2.4946	2.7273	0.1	1156.
27549	2.4022	3.	0.1	1210.7
27550	2.4946	2.9091	0.1	1166.8
27551	2.4022	3.1818	0.1	1205.1
27552	2.4946	3.0909	0.1	1166.8
27553	2.4022	3.3636	0.1	1188.5
27554	2.4946	3.2727	0.1	1156.
27555	2.4022	3.5455	0.1	1160.7
27556	2.4946	3.4545	0.1	1134.3
27557	2.4022	3.7273	0.1	1121.9
27558	2.4946	3.6364	0.1	1101.8
27559	2.4022	3.9091	0.1	1071.9
27560	2.4946	3.8182	0.1	1058.5
27561	2.4022	4.0909	0.1	1011.1
27562	2.4946	4.	0.1	1004.7
27563	2.4022	4.2727	0.1	939.74
27564	2.4946	4.1818	0.1	940.51
27565	2.4022	4.4545	0.1	858.26
27566	2.4946	4.3636	0.1	866.49
27567	2.4022	4.6364	0.1	767.51
27568	2.4946	4.5455	0.1	783.28
27569	2.4022	4.8182	0.1	668.58
27570	2.4946	4.7273	0.1	691.82
27571	2.4022	5.	0.1	562.89
27572	2.4946	4.9091	0.1	593.34
27573	2.4022	5.1818	0.1	452.15
27574	2.4946	5.0909	0.1	489.32
27575	2.4022	5.3636	0.1	338.28
27576	2.4946	5.2727	0.1	381.47
27577	2.4022	5.5455	0.1	222.95
27578	2.4946	5.4545	0.1	271.6
27579	2.4022	5.7273	0.1	105.31
27580	2.4946	5.6364	0.1	160.97
27581	2.4946	5.8182	0.1	47.657
27582	2.4022	5.9091	0.1	19.377
27583	2.587	0.27273	0.1	102.03
27584	2.6793	0.18182	0.1	48.882
27585	2.587	9.0909e-002	0.1	21.475
27586	2.587	0.45455	0.1	209.36
27587	2.6793	0.36364	0.1	152.46
27588	2.587	0.63636	0.1	314.59
27589	2.6793	0.54545	0.1	253.55
27590	2.587	0.81818	0.1	418.47
27591	2.6793	0.72727	0.1	353.85
27592	2.587	1.	0.1	519.64
27593	2.6793	0.90909	0.1	452.35
27594	2.587	1.1818	0.1	616.5
27595	2.6793	1.0909	0.1	547.55
27596	2.587	1.3636	0.1	707.56
27597	2.6793	1.2727	0.1	637.99
27598	2.587	1.5455	0.1	791.53
27599	2.6793	1.4545	0.1	722.34
27600	2.587	1.7273	0.1	867.34
27601	2.6793	1.6364	0.1	799.47
27602	2.587	1.9091	0.1	934.17
27603	2.6793	1.8182	0.1	868.45
27604	2.587	2.0909	0.1	991.4
27605	2.6793	2.	0.1	928.54
27606	2.587	2.2727	0.1	1038.6
27607	2.6793	2.1818	0.1	979.22
27608	2.587	2.4545	0.1	1075.5
27609	2.6793	2.3636	0.1	1020.1
27610	2.587	2.6364	0.1	1102.
27611	2.6793	2.5455	0.1	1050.9
27612	2.587	2.8182	0.1	1117.9
27613	2.6793	2.7273	0.1	1071.6
27614	2.587	3.	0.1	1123.2
27615	2.6793	2.9091	0.1	1081.9
27616	2.587	3.1818	0.1	1117.9
27617	2.6793	3.0909	0.1	1081.9
27618	2.587	3.3636	0.1	1102.
27619	2.6793	3.2727	0.1	1071.6
27620	2.587	3.5455	0.1	1075.5
27621	2.6793	3.4545	0.1	1050.9
27622	2.587	3.7273	0.1	1038.6
27623	2.6793	3.6364	0.1	1020.1
27624	2.587	3.9091	0.1	991.4
27625	2.6793	3.8182	0.1	979.22
27626	2.587	4.0909	0.1	934.17
27627	2.6793	4.	0.1	928.54
27628	2.587	4.2727	0.1	867.34
27629	2.6793	4.1818	0.1	868.45
27630	2.587	4.4545	0.1	791.53
27631	2.6793	4.3636	0.1	799.47
27632	2.587	4.6364	0.1	707.56
27633	2.6793	4.5455	0.1	722.34
27634	2.587	4.8182	0.1	616.5
27635	2.6793	4.7273	0.1	637.99
27636	2.587	5.	0.1	519.64
27637	2.6793	4.9091	0.1	547.55
27638	2.587	5.1818	0.1	418.47
27639	2.6793	5.0909	0.1	452.35
27640	2.587	5.3636	0.1	314.59
27641	2.6793	5.2727	0.1	353.85
27642	2.587	5.5455	0.1	209.36
27643	2.6793	5.4545	0.1	253.55
27644	2.587	5.7273	0.1	102.03
27645	2.6793	5.6364	0.1	152.46
27646	2.6793	5.8182	0.1	48.882
27647	2.587	5.9091	0.1	21.475
27648	2.7717	0.27273	0.1	98.335
27649	2.8641	0.18182	0.1	49.311
27650	2.7717	9.0909e-002	0.1	22.878
27651	2.7717	0.45455	0.1	196.43
27652	2.8641	0.36364	0.1	144.06
27653	2.7717	0.63636	0.1	292.63
27654	2.8641	0.54545	0.1	236.58
27655	2.7717	0.81818	0.1	387.58
27656	2.8641	0.72727	0.1	328.29
27657	2.7717	1.	0.1	480.14
27658	2.8641	0.90909	0.1	418.4
27659	2.7717	1.1818	0.1	568.95
27660	2.8641	1.0909	0.1	505.61
27661	2.7717	1.3636	0.1	652.72
27662	2.8641	1.2727	0.1	588.67
27663	2.7717	1.5455	0.1	730.29
27664	2.8641	1.4545	0.1	666.4
27665	2.7717	1.7273	0.1	800.63
27666	2.8641	1.6364	0.1	737.77
27667	2.7717	1.9091	0.1	862.92
27668	2.8641	1.8182	0.1	801.86
27669	2.7717	2.0909	0.1	916.5
27670	2.8641	2.	0.1	857.93
27671	2.7717	2.2727	0.1	960.89
27672	2.8641	2.1818	0.1	905.41
27673	2.7717	2.4545	0.1	995.72
27674	2.8641	2.3636	0.1	943.85
27675	2.7717	2.6364	0.1	1020.8
27676	2.8641	2.5455	0.1	972.92
27677	2.7717	2.8182	0.1	1035.8
27678	2.8641	2.7273	0.1	992.42
27679	2.7717	3.	0.1	1040.9
27680	2.8641	2.9091	0.1	1002.2
27681	2.7717	3.1818	0.1	1035.8
27682	2.8641	3.0909	0.1	1002.2
27683	2.7717	3.3636	0.1	1020.8
27684	2.8641	3.2727	0.1	992.42
27685	2.7717	3.5455	0.1	995.72
27686	2.8641	3.4545	0.1	972.92
27687	2.7717	3.7273	0.1	960.89
27688	2.8641	3.6364	0.1	943.85
27689	2.7717	3.9091	0.1	916.5
27690	2.8641	3.8182	0.1	905.41
27691	2.7717	4.0909	0.1	862.92
27692	2.8641	4.	0.1	857.93
27693	2.7717	4.2727	0.1	800.63
27694	2.8641	4.1818	0.1	801.86
27695	2.7717	4.4545	0.1	730.29
27696	2.8641	4.3636	0.1	737.77
27697	2.7717	4.6364	0.1	652.72
27698	2.8641	4.5455	0.1	666.4
27699	2.7717	4.8182	0.1	568.95
27700	2.8641	4.7273	0.1	588.67
27701	2.7717	5.	0.1	480.14
27702	2.8641	4.9091	0.1	505.61
27703	2.7717	5.1818	0.1	387.58
27704	2.8641	5.0909	0.1	418.4
27705	2.7717	5.3636	0.1	292.63
27706	2.8641	5.2727	0.1	328.29
27707	2.7717	5.5455	0.1	196.43
27708	2.8641	5.4545	0.1	236.58
27709	2.7717	5.7273	0.1	98.335
27710	2.8641	5.6364	0.1	144.06
27711	2.8641	5.8182	0.1	49.311
27712	2.7717	5.9091	0.1	22.878
27713	2.9565	0.27273	0.1	94.271
27714	3.0489	0.18182	0.1	49.035
27715	2.9565	9.0909e-002	0.1	23.685
27716	2.9565	0.45455	0.1	184.01
27717	3.0489	0.36364	0.1	135.72
27718	2.9565	0.63636	0.1	272.08
27719	3.0489	0.54545	0.1	220.47
27720	2.9565	0.81818	0.1	358.98
27721	3.0489	0.72727	0.1	304.43
27722	2.9565	1.	0.1	443.75
27723	3.0489	0.90909	0.1	386.94
27724	2.9565	1.1818	0.1	525.24
27725	3.0489	1.0909	0.1	466.9
27726	2.9565	1.3636	0.1	602.3
27727	3.0489	1.2727	0.1	543.22
27728	2.9565	1.5455	0.1	673.88
27729	3.0489	1.4545	0.1	614.84
27730	2.9565	1.7273	0.1	739.03
27731	3.0489	1.6364	0.1	680.8
27732	2.9565	1.9091	0.1	796.94
27733	3.0489	1.8182	0.1	740.25
27734	2.9565	2.0909	0.1	846.94
27735	3.0489	2.	0.1	792.45
27736	2.9565	2.2727	0.1	888.5
27737	3.0489	2.1818	0.1	836.78
27738	2.9565	2.4545	0.1	921.21
27739	3.0489	2.3636	0.1	872.79
27740	2.9565	2.6364	0.1	944.76
27741	3.0489	2.5455	0.1	900.09
27742	2.9565	2.8182	0.1	958.97
27743	3.0489	2.7273	0.1	918.43
27744	2.9565	3.	0.1	963.72
27745	3.0489	2.9091	0.1	927.64
27746	2.9565	3.1818	0.1	958.97
27747	3.0489	3.0909	0.1	927.64
27748	2.9565	3.3636	0.1	944.76
27749	3.0489	3.2727	0.1	918.43
27750	2.9565	3.5455	0.1	921.21
27751	3.0489	3.4545	0.1	900.09
27752	2.9565	3.7273	0.1	888.5
27753	3.0489	3.6364	0.1	872.79
27754	2.9565	3.9091	0.1	846.94
27755	3.0489	3.8182	0.1	836.78
27756	2.9565	4.0909	0.1	796.94
27757	3.0489	4.	0.1	792.45
27758	2.9565	4.2727	0.1	739.03
27759	3.0489	4.1818	0.1	740.25
27760	2.9565	4.4545	0.1	673.88
27761	3.0489	4.3636	0.1	680.8
27762	2.9565	4.6364	0.1	602.3
27763	3.0489	4.5455	0.1	614.84
27764	2.9565	4.8182	0.1	525.24
27765	3.0489	4.7273	0.1	543.22
27766	2.9565	5.	0.1	443.75
27767	3.0489	4.9091	0.1	466.9
27768	2.9565	5.1818	0.1	358.98
27769	3.0489	5.0909	0.1	386.94
27770	2.9565	5.3636	0.1	272.08
27771	3.0489	5.2727	0.1	304.43
27772	2.9565	5.5455	0.1	184.01
27773	3.0489	5.4545	0.1	220.47
27774	2.9565	5.7273	0.1	94.271
27775	3.0489	5.6364	0.1	135.72
27776	3.0489	5.8182	0.1	49.035
27777	2.9565	5.9091	0.1	23.685
27778	3.1413	0.27273	0.1	89.877
27779	3.2337	0.18182	0.1	48.142
27780	3.1413	9.0909e-002	0.1	23.983
27781	3.1413	0.45455	0.1	172.01
27782	3.2337	0.36364	0.1	127.41
27783	3.1413	0.63636	0.1	252.68
27784	3.2337	0.54545	0.1	205.06
27785	3.1413	0.81818	0.1	332.27
27786	3.2337	0.72727	0.1	281.97
27787	3.1413	1.	0.1	409.99
27788	3.2337	0.90909	0.1	357.58
27789	3.1413	1.1818	0.1	484.8
27790	3.2337	1.0909	0.1	430.95
27791	3.1413	1.3636	0.1	555.71
27792	3.2337	1.2727	0.1	501.11
27793	3.1413	1.5455	0.1	621.75
27794	3.2337	1.4545	0.1	567.12
27795	3.1413	1.7273	0.1	682.05
27796	3.2337	1.6364	0.1	628.09
27797	3.1413	1.9091	0.1	735.81
27798	3.2337	1.8182	0.1	683.19
27799	3.1413	2.0909	0.1	782.37
27800	3.2337	2.	0.1	731.72
27801	3.1413	2.2727	0.1	821.18
27802	3.2337	2.1818	0.1	773.06
27803	3.1413	2.4545	0.1	851.8
27804	3.2337	2.3636	0.1	806.71
27805	3.1413	2.6364	0.1	873.9
27806	3.2337	2.5455	0.1	832.29
27807	3.1413	2.8182	0.1	887.25
27808	3.2337	2.7273	0.1	849.49
27809	3.1413	3.	0.1	891.71
27810	3.2337	2.9091	0.1	858.14
27811	3.1413	3.1818	0.1	887.25
27812	3.2337	3.0909	0.1	858.14
27813	3.1413	3.3636	0.1	873.9
27814	3.2337	3.2727	0.1	849.49
27815	3.1413	3.5455	0.1	851.8
27816	3.2337	3.4545	0.1	832.29
27817	3.1413	3.7273	0.1	821.18
27818	3.2337	3.6364	0.1	806.71
27819	3.1413	3.9091	0.1	782.37
27820	3.2337	3.8182	0.1	773.06
27821	3.1413	4.0909	0.1	735.81
27822	3.2337	4.	0.1	731.72
27823	3.1413	4.2727	0.1	682.05
27824	3.2337	4.1818	0.1	683.19
27825	3.1413	4.4545	0.1	621.75
27826	3.2337	4.3636	0.1	628.09
27827	3.1413	4.6364	0.1	555.71
27828	3.2337	4.5455	0.1	567.12
27829	3.1413	4.8182	0.1	484.8
27830	3.2337	4.7273	0.1	501.11
27831	3.1413	5.	0.1	409.99
27832	3.2337	4.9091	0.1	430.95
27833	3.1413	5.1818	0.1	332.27
27834	3.2337	5.0909	0.1	357.58
27835	3.1413	5.3636	0.1	252.68
27836	3.2337	5.2727	0.1	281.97
27837	3.1413	5.5455	0.1	172.01
27838	3.2337	5.4545	0.1	205.06
27839	3.1413	5.7273	0.1	89.877
27840	3.2337	5.6364	0.1	127.41
27841	3.2337	5.8182	0.1	48.142
27842	3.1413	5.9091	0.1	23.983
27843	3.3261	0.27273	0.1	85.193
27844	3.4185	0.18182	0.1	46.71
27845	3.3261	9.0909e-002	0.1	23.847
27846	3.3261	0.45455	0.1	160.33
27847	3.4185	0.36364	0.1	119.13
27848	3.3261	0.63636	0.1	234.23
27849	3.4185	0.54545	0.1	190.22
27850	3.3261	0.81818	0.1	307.17
27851	3.4185	0.72727	0.1	260.68
27852	3.3261	1.	0.1	378.46
27853	3.4185	0.90909	0.1	330.
27854	3.3261	1.1818	0.1	447.19
27855	3.4185	1.0909	0.1	397.37
27856	3.3261	1.3636	0.1	512.48
27857	3.4185	1.2727	0.1	461.93
27858	3.3261	1.5455	0.1	573.44
27859	3.4185	1.4545	0.1	522.81
27860	3.3261	1.7273	0.1	629.24
27861	3.4185	1.6364	0.1	579.19
27862	3.3261	1.9091	0.1	679.14
27863	3.4185	1.8182	0.1	630.29
27864	3.3261	2.0909	0.1	722.48
27865	3.4185	2.	0.1	675.41
27866	3.3261	2.2727	0.1	758.68
27867	3.4185	2.1818	0.1	713.95
27868	3.3261	2.4545	0.1	787.31
27869	3.4185	2.3636	0.1	745.39
27870	3.3261	2.6364	0.1	808.01
27871	3.4185	2.5455	0.1	769.33
27872	3.3261	2.8182	0.1	820.52
27873	3.4185	2.7273	0.1	785.46
27874	3.3261	3.	0.1	824.71
27875	3.4185	2.9091	0.1	793.57
27876	3.3261	3.1818	0.1	820.52
27877	3.4185	3.0909	0.1	793.57
27878	3.3261	3.3636	0.1	808.01
27879	3.4185	3.2727	0.1	785.46
27880	3.3261	3.5455	0.1	787.31
27881	3.4185	3.4545	0.1	769.33
27882	3.3261	3.7273	0.1	758.68
27883	3.4185	3.6364	0.1	745.39
27884	3.3261	3.9091	0.1	722.48
27885	3.4185	3.8182	0.1	713.95
27886	3.3261	4.0909	0.1	679.14
27887	3.4185	4.	0.1	675.41
27888	3.3261	4.2727	0.1	629.24
27889	3.4185	4.1818	0.1	630.29
27890	3.3261	4.4545	0.1	573.44
27891	3.4185	4.3636	0.1	579.19
27892	3.3261	4.6364	0.1	512.48
27893	3.4185	4.5455	0.1	522.81
27894	3.3261	4.8182	0.1	447.19
27895	3.4185	4.7273	0.1	461.93
27896	3.3261	5.	0.1	378.46
27897	3.4185	4.9091	0.1	397.37
27898	3.3261	5.1818	0.1	307.17
27899	3.4185	5.0909	0.1	330.
27900	3.3261	5.3636	0.1	234.23
27901	3.4185	5.2727	0.1	260.68
27902	3.3261	5.5455	0.1	160.33
27903	3.4185	5.4545	0.1	190.22
27904	3.3261	5.7273	0.1	85.193
27905	3.4185	5.6364	0.1	119.13
27906	3.4185	5.8182	0.1	46.71
27907	3.3261	5.9091	0.1	23.847
27908	3.5109	0.27273	0.1	80.25
27909	3.6033	0.18182	0.1	44.809
27910	3.5109	9.0909e-002	0.1	23.339
27911	3.5109	0.45455	0.1	148.91
27912	3.6033	0.36364	0.1	110.84
27913	3.5109	0.63636	0.1	216.57
27914	3.6033	0.54545	0.1	175.86
27915	3.5109	0.81818	0.1	283.42
27916	3.6033	0.72727	0.1	240.36
27917	3.5109	1.	0.1	348.84
27918	3.6033	0.90909	0.1	303.94
27919	3.5109	1.1818	0.1	412.04
27920	3.6033	1.0909	0.1	365.84
27921	3.5109	1.3636	0.1	472.21
27922	3.6033	1.2727	0.1	425.29
27923	3.5109	1.5455	0.1	528.53
27924	3.6033	1.4545	0.1	481.51
27925	3.5109	1.7273	0.1	580.23
27926	3.6033	1.6364	0.1	533.72
27927	3.5109	1.9091	0.1	626.58
27928	3.6033	1.8182	0.1	581.17
27929	3.5109	2.0909	0.1	666.93
27930	3.6033	2.	0.1	623.18
27931	3.5109	2.2727	0.1	700.73
27932	3.6033	2.1818	0.1	659.15
27933	3.5109	2.4545	0.1	727.5
27934	3.6033	2.3636	0.1	688.56
27935	3.5109	2.6364	0.1	746.88
27936	3.6033	2.5455	0.1	710.99
27937	3.5109	2.8182	0.1	758.62
27938	3.6033	2.7273	0.1	726.13
27939	3.5109	3.	0.1	762.55
27940	3.6033	2.9091	0.1	733.75
27941	3.5109	3.1818	0.1	758.62
27942	3.6033	3.0909	0.1	733.75
27943	3.5109	3.3636	0.1	746.88
27944	3.6033	3.2727	0.1	726.13
27945	3.5109	3.5455	0.1	727.5
27946	3.6033	3.4545	0.1	710.99
27947	3.5109	3.7273	0.1	700.73
27948	3.6033	3.6364	0.1	688.56
27949	3.5109	3.9091	0.1	666.93
27950	3.6033	3.8182	0.1	659.15
27951	3.5109	4.0909	0.1	626.58
27952	3.6033	4.	0.1	623.18
27953	3.5109	4.2727	0.1	580.23
27954	3.6033	4.1818	0.1	581.17
27955	3.5109	4.4545	0.1	528.53
27956	3.6033	4.3636	0.1	533.72
27957	3.5109	4.6364	0.1	472.21
27958	3.6033	4.5455	0.1	481.51
27959	3.5109	4.8182	0.1	412.04
27960	3.6033	4.7273	0.1	425.29
27961	3.5109	5.	0.1	348.84
27962	3.6033	4.9091	0.1	365.84
27963	3.5109	5.1818	0.1	283.42
27964	3.6033	5.0909	0.1	303.94
27965	3.5109	5.3636	0.1	216.57
27966	3.6033	5.2727	0.1	240.36
27967	3.5109	5.5455	0.1	148.91
27968	3.6033	5.4545	0.1	175.86
27969	3.5109	5.7273	0.1	80.25
27970	3.6033	5.6364	0.1	110.84
27971	3.6033	5.8182	0.1	44.809
27972	3.5109	5.9091	0.1	23.339
27973	3.6957	0.27273	0.1	75.074
27974	3.788	0.18182	0.1	42.494
27975	3.6957	9.0909e-002	0.1	22.513
27976	3.6957	0.45455	0.1	137.69
27977	3.788	0.36364	0.1	102.53
27978	3.6957	0.63636	0.1	199.57
27979	3.788	0.54545	0.1	161.87
27980	3.6957	0.81818	0.1	260.81
27981	3.788	0.72727	0.1	220.87
27982	3.6957	1.	0.1	320.87
27983	3.788	0.90909	0.1	279.15
27984	3.6957	1.1818	0.1	379.03
27985	3.788	1.0909	0.1	336.06
27986	3.6957	1.3636	0.1	434.55
27987	3.788	1.2727	0.1	390.89
27988	3.6957	1.5455	0.1	486.67
27989	3.788	1.4545	0.1	442.89
27990	3.6957	1.7273	0.1	534.65
27991	3.788	1.6364	0.1	491.34
27992	3.6957	1.9091	0.1	577.78
27993	3.788	1.8182	0.1	535.5
27994	3.6957	2.0909	0.1	615.44
27995	3.788	2.	0.1	574.72
27996	3.6957	2.2727	0.1	647.04
27997	3.788	2.1818	0.1	608.38
27998	3.6957	2.4545	0.1	672.13
27999	3.788	2.3636	0.1	635.97
28000	3.6957	2.6364	0.1	690.32
28001	3.788	2.5455	0.1	657.05
28002	3.6957	2.8182	0.1	701.35
28003	3.788	2.7273	0.1	671.29
28004	3.6957	3.	0.1	705.04
28005	3.788	2.9091	0.1	678.47
28006	3.6957	3.1818	0.1	701.35
28007	3.788	3.0909	0.1	678.47
28008	3.6957	3.3636	0.1	690.32
28009	3.788	3.2727	0.1	671.29
28010	3.6957	3.5455	0.1	672.13
28011	3.788	3.4545	0.1	657.05
28012	3.6957	3.7273	0.1	647.04
28013	3.788	3.6364	0.1	635.97
28014	3.6957	3.9091	0.1	615.44
28015	3.788	3.8182	0.1	608.38
28016	3.6957	4.0909	0.1	577.78
28017	3.788	4.	0.1	574.72
28018	3.6957	4.2727	0.1	534.65
28019	3.788	4.1818	0.1	535.5
28020	3.6957	4.4545	0.1	486.67
28021	3.788	4.3636	0.1	491.34
28022	3.6957	4.6364	0.1	434.55
28023	3.788	4.5455	0.1	442.89
28024	3.6957	4.8182	0.1	379.03
28025	3.788	4.7273	0.1	390.89
28026	3.6957	5.	0.1	320.87
28027	3.788	4.9091	0.1	336.06
28028	3.6957	5.1818	0.1	260.81
28029	3.788	5.0909	0.1	279.15
28030	3.6957	5.3636	0.1	199.57
28031	3.788	5.2727	0.1	220.87
28032	3.6957	5.5455	0.1	137.69
28033	3.788	5.4545	0.1	161.87
28034	3.6957	5.7273	0.1	75.074
28035	3.788	5.6364	0.1	102.53
28036	3.788	5.8182	0.1	42.494
28037	3.6957	5.9091	0.1	22.513
28038	3.8804	0.27273	0.1	69.68
28039	3.9728	0.18182	0.1	39.811
28040	3.8804	9.0909e-002	0.1	21.409
28041	3.8804	0.45455	0.1	126.62
28042	3.9728	0.36364	0.1	94.164
28043	3.8804	0.63636	0.1	183.09
28044	3.9728	0.54545	0.1	148.16
28045	3.8804	0.81818	0.1	239.14
28046	3.9728	0.72727	0.1	202.02
28047	3.8804	1.	0.1	294.29
28048	3.9728	0.90909	0.1	255.43
28049	3.8804	1.1818	0.1	347.87
28050	3.9728	1.0909	0.1	307.78
28051	3.8804	1.3636	0.1	399.19
28052	3.9728	1.2727	0.1	358.42
28053	3.8804	1.5455	0.1	447.53
28054	3.9728	1.4545	0.1	406.64
28055	3.8804	1.7273	0.1	492.18
28056	3.9728	1.6364	0.1	451.73
28057	3.8804	1.9091	0.1	532.45
28058	3.9728	1.8182	0.1	492.98
28059	3.8804	2.0909	0.1	567.7
28060	3.9728	2.	0.1	529.74
28061	3.8804	2.2727	0.1	597.36
28062	3.9728	2.1818	0.1	561.38
28063	3.8804	2.4545	0.1	620.96
28064	3.9728	2.3636	0.1	587.37
28065	3.8804	2.6364	0.1	638.09
28066	3.9728	2.5455	0.1	607.27
28067	3.8804	2.8182	0.1	648.49
28068	3.9728	2.7273	0.1	620.74
28069	3.8804	3.	0.1	651.98
28070	3.9728	2.9091	0.1	627.53
28071	3.8804	3.1818	0.1	648.49
28072	3.9728	3.0909	0.1	627.53
28073	3.8804	3.3636	0.1	638.09
28074	3.9728	3.2727	0.1	620.74
28075	3.8804	3.5455	0.1	620.96
28076	3.9728	3.4545	0.1	607.27
28077	3.8804	3.7273	0.1	597.36
28078	3.9728	3.6364	0.1	587.37
28079	3.8804	3.9091	0.1	567.7
28080	3.9728	3.8182	0.1	561.38
28081	3.8804	4.0909	0.1	532.45
28082	3.9728	4.	0.1	529.74
28083	3.8804	4.2727	0.1	492.18
28084	3.9728	4.1818	0.1	492.98
28085	3.8804	4.4545	0.1	447.53
28086	3.9728	4.3636	0.1	451.73
28087	3.8804	4.6364	0.1	399.19
28088	3.9728	4.5455	0.1	406.64
28089	3.8804	4.8182	0.1	347.87
28090	3.9728	4.7273	0.1	358.42
28091	3.8804	5.	0.1	294.29
28092	3.9728	4.9091	0.1	307.78
28093	3.8804	5.1818	0.1	239.14
28094	3.9728	5.0909	0.1	255.43
28095	3.8804	5.3636	0.1	183.09
28096	3.9728	5.2727	0.1	202.02
28097	3.8804	5.5455	0.1	126.62
28098	3.9728	5.4545	0.1	148.16
28099	3.8804	5.7273	0.1	69.68
28100	3.9728	5.6364	0.1	94.164
28101	3.9728	5.8182	0.1	39.811
28102	3.8804	5.9091	0.1	21.409
28103	4.0652	0.27273	0.1	64.075
28104	4.1576	0.18182	0.1	36.794
28105	4.0652	9.0909e-002	0.1	20.063
28106	4.0652	0.45455	0.1	115.63
28107	4.1576	0.36364	0.1	85.714
28108	4.0652	0.63636	0.1	167.02
28109	4.1576	0.54545	0.1	134.62
28110	4.0652	0.81818	0.1	218.25
28111	4.1576	0.72727	0.1	183.67
28112	4.0652	1.	0.1	268.88
28113	4.1576	0.90909	0.1	232.57
28114	4.0652	1.1818	0.1	318.29
28115	4.1576	1.0909	0.1	280.76
28116	4.0652	1.3636	0.1	365.84
28117	4.1576	1.2727	0.1	327.62
28118	4.0652	1.5455	0.1	410.81
28119	4.1576	1.4545	0.1	372.46
28120	4.0652	1.7273	0.1	452.52
28121	4.1576	1.6364	0.1	414.6
28122	4.0652	1.9091	0.1	490.28
28123	4.1576	1.8182	0.1	453.32
28124	4.0652	2.0909	0.1	523.44
28125	4.1576	2.	0.1	487.95
28126	4.0652	2.2727	0.1	551.42
28127	4.1576	2.1818	0.1	517.86
28128	4.0652	2.4545	0.1	573.74
28129	4.1576	2.3636	0.1	542.51
28130	4.0652	2.6364	0.1	589.97
28131	4.1576	2.5455	0.1	561.42
28132	4.0652	2.8182	0.1	599.83
28133	4.1576	2.7273	0.1	574.23
28134	4.0652	3.	0.1	603.14
28135	4.1576	2.9091	0.1	580.7
28136	4.0652	3.1818	0.1	599.83
28137	4.1576	3.0909	0.1	580.7
28138	4.0652	3.3636	0.1	589.97
28139	4.1576	3.2727	0.1	574.23
28140	4.0652	3.5455	0.1	573.74
28141	4.1576	3.4545	0.1	561.42
28142	4.0652	3.7273	0.1	551.42
28143	4.1576	3.6364	0.1	542.51
28144	4.0652	3.9091	0.1	523.44
28145	4.1576	3.8182	0.1	517.86
28146	4.0652	4.0909	0.1	490.28
28147	4.1576	4.	0.1	487.95
28148	4.0652	4.2727	0.1	452.52
28149	4.1576	4.1818	0.1	453.32
28150	4.0652	4.4545	0.1	410.81
28151	4.1576	4.3636	0.1	414.6
28152	4.0652	4.6364	0.1	365.84
28153	4.1576	4.5455	0.1	372.46
28154	4.0652	4.8182	0.1	318.29
28155	4.1576	4.7273	0.1	327.62
28156	4.0652	5.	0.1	268.88
28157	4.1576	4.9091	0.1	280.76
28158	4.0652	5.1818	0.1	218.25
28159	4.1576	5.0909	0.1	232.57
28160	4.0652	5.3636	0.1	167.02
28161	4.1576	5.2727	0.1	183.67
28162	4.0652	5.5455	0.1	115.63
28163	4.1576	5.4545	0.1	134.62
28164	4.0652	5.7273	0.1	64.075
28165	4.1576	5.6364	0.1	85.714
28166	4.1576	5.8182	0.1	36.794
28167	4.0652	5.9091	0.1	20.063
28168	4.25	0.27273	0.1	58.253
28169	4.3424	0.18182	0.1	33.465
28170	4.25	9.0909e-002	0.1	18.498
28171	4.25	0.45455	0.1	104.65
28172	4.3424	0.36364	0.1	77.131
28173	4.25	0.63636	0.1	151.23
28174	4.3424	0.54545	0.1	121.17
28175	4.25	0.81818	0.1	197.95
28176	4.3424	0.72727	0.1	165.67
28177	4.25	1.	0.1	244.42
28178	4.3424	0.90909	0.1	210.38
28179	4.25	1.1818	0.1	290.05
28180	4.3424	1.0909	0.1	254.76
28181	4.25	1.3636	0.1	334.22
28182	4.3424	1.2727	0.1	298.22
28183	4.25	1.5455	0.1	376.23
28184	4.3424	1.4545	0.1	340.09
28185	4.25	1.7273	0.1	415.39
28186	4.3424	1.6364	0.1	379.66
28187	4.25	1.9091	0.1	450.99
28188	4.3424	1.8182	0.1	416.22
28189	4.25	2.0909	0.1	482.39
28190	4.3424	2.	0.1	449.08
28191	4.25	2.2727	0.1	508.97
28192	4.3424	2.1818	0.1	477.58
28193	4.25	2.4545	0.1	530.23
28194	4.3424	2.3636	0.1	501.14
28195	4.25	2.6364	0.1	545.73
28196	4.3424	2.5455	0.1	519.26
28197	4.25	2.8182	0.1	555.15
28198	4.3424	2.7273	0.1	531.56
28199	4.25	3.	0.1	558.32
28200	4.3424	2.9091	0.1	537.78
28201	4.25	3.1818	0.1	555.15
28202	4.3424	3.0909	0.1	537.78
28203	4.25	3.3636	0.1	545.73
28204	4.3424	3.2727	0.1	531.56
28205	4.25	3.5455	0.1	530.23
28206	4.3424	3.4545	0.1	519.26
28207	4.25	3.7273	0.1	508.97
28208	4.3424	3.6364	0.1	501.14
28209	4.25	3.9091	0.1	482.39
28210	4.3424	3.8182	0.1	477.58
28211	4.25	4.0909	0.1	450.99
28212	4.3424	4.	0.1	449.08
28213	4.25	4.2727	0.1	415.39
28214	4.3424	4.1818	0.1	416.22
28215	4.25	4.4545	0.1	376.23
28216	4.3424	4.3636	0.1	379.66
28217	4.25	4.6364	0.1	334.22
28218	4.3424	4.5455	0.1	340.09
28219	4.25	4.8182	0.1	290.05
28220	4.3424	4.7273	0.1	298.22
28221	4.25	5.	0.1	244.42
28222	4.3424	4.9091	0.1	254.76
28223	4.25	5.1818	0.1	197.95
28224	4.3424	5.0909	0.1	210.38
28225	4.25	5.3636	0.1	151.23
28226	4.3424	5.2727	0.1	165.67
28227	4.25	5.5455	0.1	104.65
28228	4.3424	5.4545	0.1	121.17
28229	4.25	5.7273	0.1	58.253
28230	4.3424	5.6364	0.1	77.131
28231	4.3424	5.8182	0.1	33.465
28232	4.25	5.9091	0.1	18.498
28233	4.4348	0.27273	0.1	52.197
28234	4.5272	0.18182	0.1	29.834
28235	4.4348	9.0909e-002	0.1	16.733
28236	4.4348	0.45455	0.1	93.604
28237	4.5272	0.36364	0.1	68.356
28238	4.4348	0.63636	0.1	135.58
28239	4.5272	0.54545	0.1	107.67
28240	4.4348	0.81818	0.1	178.06
28241	4.5272	0.72727	0.1	147.85
28242	4.4348	1.	0.1	220.69
28243	4.5272	0.90909	0.1	188.64
28244	4.4348	1.1818	0.1	262.9
28245	4.5272	1.0909	0.1	229.54
28246	4.4348	1.3636	0.1	304.07
28247	4.5272	1.2727	0.1	269.96
28248	4.4348	1.5455	0.1	343.5
28249	4.5272	1.4545	0.1	309.23
28250	4.4348	1.7273	0.1	380.49
28251	4.5272	1.6364	0.1	346.64
28252	4.4348	1.9091	0.1	414.31
28253	4.5272	1.8182	0.1	381.42
28254	4.4348	2.0909	0.1	444.28
28255	4.5272	2.	0.1	412.86
28256	4.4348	2.2727	0.1	469.76
28257	4.5272	2.1818	0.1	440.27
28258	4.4348	2.4545	0.1	490.19
28259	4.5272	2.3636	0.1	463.01
28260	4.4348	2.6364	0.1	505.13
28261	4.5272	2.5455	0.1	480.56
28262	4.4348	2.8182	0.1	514.23
28263	4.5272	2.7273	0.1	492.51
28264	4.4348	3.	0.1	517.29
28265	4.5272	2.9091	0.1	498.55
28266	4.4348	3.1818	0.1	514.23
28267	4.5272	3.0909	0.1	498.55
28268	4.4348	3.3636	0.1	505.13
28269	4.5272	3.2727	0.1	492.51
28270	4.4348	3.5455	0.1	490.19
28271	4.5272	3.4545	0.1	480.56
28272	4.4348	3.7273	0.1	469.76
28273	4.5272	3.6364	0.1	463.01
28274	4.4348	3.9091	0.1	444.28
28275	4.5272	3.8182	0.1	440.27
28276	4.4348	4.0909	0.1	414.31
28277	4.5272	4.	0.1	412.86
28278	4.4348	4.2727	0.1	380.49
28279	4.5272	4.1818	0.1	381.42
28280	4.4348	4.4545	0.1	343.5
28281	4.5272	4.3636	0.1	346.64
28282	4.4348	4.6364	0.1	304.07
28283	4.5272	4.5455	0.1	309.23
28284	4.4348	4.8182	0.1	262.9
28285	4.5272	4.7273	0.1	269.96
28286	4.4348	5.	0.1	220.69
28287	4.5272	4.9091	0.1	229.54
28288	4.4348	5.1818	0.1	178.06
28289	4.5272	5.0909	0.1	188.64
28290	4.4348	5.3636	0.1	135.58
28291	4.5272	5.2727	0.1	147.85
28292	4.4348	5.5455	0.1	93.604
28293	4.5272	5.4545	0.1	107.67
28294	4.4348	5.7273	0.1	52.197
28295	4.5272	5.6364	0.1	68.356
28296	4.5272	5.8182	0.1	29.834
28297	4.4348	5.9091	0.1	16.733
28298	4.6196	0.27273	0.1	45.878
28299	4.712	0.18182	0.1	25.902
28300	4.6196	9.0909e-002	0.1	14.778
28301	4.6196	0.45455	0.1	82.395
28302	4.712	0.36364	0.1	59.32
28303	4.6196	0.63636	0.1	119.92
28304	4.712	0.54545	0.1	94.016
28305	4.6196	0.81818	0.1	158.4
28306	4.712	0.72727	0.1	130.03
28307	4.6196	1.	0.1	197.46
28308	4.712	0.90909	0.1	167.14
28309	4.6196	1.1818	0.1	236.58
28310	4.712	1.0909	0.1	204.86
28311	4.6196	1.3636	0.1	275.11
28312	4.712	1.2727	0.1	242.58
28313	4.6196	1.5455	0.1	312.36
28314	4.712	1.4545	0.1	279.63
28315	4.6196	1.7273	0.1	347.56
28316	4.712	1.6364	0.1	315.25
28317	4.6196	1.9091	0.1	379.98
28318	4.712	1.8182	0.1	348.64
28319	4.6196	2.0909	0.1	408.86
28320	4.712	2.	0.1	379.04
28321	4.6196	2.2727	0.1	433.54
28322	4.712	2.1818	0.1	405.68
28323	4.6196	2.4545	0.1	453.4
28324	4.712	2.3636	0.1	427.9
28325	4.6196	2.6364	0.1	467.96
28326	4.712	2.5455	0.1	445.11
28327	4.6196	2.8182	0.1	476.85
28328	4.712	2.7273	0.1	456.84
28329	4.6196	3.	0.1	479.84
28330	4.712	2.9091	0.1	462.79
28331	4.6196	3.1818	0.1	476.85
28332	4.712	3.0909	0.1	462.79
28333	4.6196	3.3636	0.1	467.96
28334	4.712	3.2727	0.1	456.84
28335	4.6196	3.5455	0.1	453.4
28336	4.712	3.4545	0.1	445.11
28337	4.6196	3.7273	0.1	433.54
28338	4.712	3.6364	0.1	427.9
28339	4.6196	3.9091	0.1	408.86
28340	4.712	3.8182	0.1	405.68
28341	4.6196	4.0909	0.1	379.98
28342	4.712	4.	0.1	379.04
28343	4.6196	4.2727	0.1	347.56
28344	4.712	4.1818	0.1	348.64
28345	4.6196	4.4545	0.1	312.36
28346	4.712	4.3636	0.1	315.25
28347	4.6196	4.6364	0.1	275.11
28348	4.712	4.5455	0.1	279.63
28349	4.6196	4.8182	0.1	236.58
28350	4.712	4.7273	0.1	242.58
28351	4.6196	5.	0.1	197.46
28352	4.712	4.9091	0.1	204.86
28353	4.6196	5.1818	0.1	158.4
28354	4.712	5.0909	0.1	167.14
28355	4.6196	5.3636	0.1	119.92
28356	4.712	5.2727	0.1	130.03
28357	4.6196	5.5455	0.1	82.395
28358	4.712	5.4545	0.1	94.016
28359	4.6196	5.7273	0.1	45.878
28360	4.712	5.6364	0.1	59.32
28361	4.712	5.8182	0.1	25.902
28362	4.6196	5.9091	0.1	14.778
28363	4.8043	0.27273	0.1	39.255
28364	4.8967	0.18182	0.1	21.656
28365	4.8043	9.0909e-002	0.1	12.636
28366	4.8043	0.45455	0.1	70.92
28367	4.8967	0.36364	0.1	49.939
28368	4.8043	0.63636	0.1	104.11
28369	4.8967	0.54545	0.1	80.052
28370	4.8043	0.81818	0.1	138.76
28371	4.8967	0.72727	0.1	112.03
28372	4.8043	1.	0.1	174.51
28373	4.8967	0.90909	0.1	145.66
28374	4.8043	1.1818	0.1	210.84
28375	4.8967	1.0909	0.1	180.45
28376	4.8043	1.3636	0.1	247.09
28377	4.8967	1.2727	0.1	215.8
28378	4.8043	1.5455	0.1	282.51
28379	4.8967	1.4545	0.1	250.99
28380	4.8043	1.7273	0.1	316.32
28381	4.8967	1.6364	0.1	285.2
28382	4.8043	1.9091	0.1	347.71
28383	4.8967	1.8182	0.1	317.6
28384	4.8043	2.0909	0.1	375.87
28385	4.8967	2.	0.1	347.33
28386	4.8043	2.2727	0.1	400.06
28387	4.8967	2.1818	0.1	373.56
28388	4.8043	2.4545	0.1	419.62
28389	4.8967	2.3636	0.1	395.56
28390	4.8043	2.6364	0.1	434.
28391	4.8967	2.5455	0.1	412.66
28392	4.8043	2.8182	0.1	442.8
28393	4.8967	2.7273	0.1	424.36
28394	4.8043	3.	0.1	445.77
28395	4.8967	2.9091	0.1	430.3
28396	4.8043	3.1818	0.1	442.8
28397	4.8967	3.0909	0.1	430.3
28398	4.8043	3.3636	0.1	434.
28399	4.8967	3.2727	0.1	424.36
28400	4.8043	3.5455	0.1	419.62
28401	4.8967	3.4545	0.1	412.66
28402	4.8043	3.7273	0.1	400.06
28403	4.8967	3.6364	0.1	395.56
28404	4.8043	3.9091	0.1	375.87
28405	4.8967	3.8182	0.1	373.56
28406	4.8043	4.0909	0.1	347.71
28407	4.8967	4.	0.1	347.33
28408	4.8043	4.2727	0.1	316.32
28409	4.8967	4.1818	0.1	317.6
28410	4.8043	4.4545	0.1	282.51
28411	4.8967	4.3636	0.1	285.2
28412	4.8043	4.6364	0.1	247.09
28413	4.8967	4.5455	0.1	250.99
28414	4.8043	4.8182	0.1	210.84
28415	4.8967	4.7273	0.1	215.8
28416	4.8043	5.	0.1	174.51
28417	4.8967	4.9091	0.1	180.45
28418	4.8043	5.1818	0.1	138.76
28419	4.8967	5.0909	0.1	145.66
28420	4.8043	5.3636	0.1	104.11
28421	4.8967	5.2727	0.1	112.03
28422	4.8043	5.5455	0.1	70.92
28423	4.8967	5.4545	0.1	80.052
28424	4.8043	5.7273	0.1	39.255
28425	4.8967	5.6364	0.1	49.939
28426	4.8967	5.8182	0.1	21.656
28427	4.8043	5.9091	0.1	12.636
28428	4.9891	0.27273	0.1	32.275
28429	5.0815	0.18182	0.1	17.075
28430	4.9891	9.0909e-002	0.1	10.303
28431	4.9891	0.45455	0.1	59.06
28432	5.0815	0.36364	0.1	40.12
28433	4.9891	0.63636	0.1	87.967
28434	5.0815	0.54545	0.1	65.631
28435	4.9891	0.81818	0.1	118.93
28436	5.0815	0.72727	0.1	93.653
28437	4.9891	1.	0.1	151.59
28438	5.0815	0.90909	0.1	123.96
28439	4.9891	1.1818	0.1	185.41
28440	5.0815	1.0909	0.1	156.06
28441	4.9891	1.3636	0.1	219.7
28442	5.0815	1.2727	0.1	189.34
28443	4.9891	1.5455	0.1	253.68
28444	5.0815	1.4545	0.1	223.01
28445	4.9891	1.7273	0.1	286.48
28446	5.0815	1.6364	0.1	256.2
28447	4.9891	1.9091	0.1	317.23
28448	5.0815	1.8182	0.1	288.
28449	4.9891	2.0909	0.1	345.03
28450	5.0815	2.	0.1	317.45
28451	4.9891	2.2727	0.1	369.07
28452	5.0815	2.1818	0.1	343.65
28453	4.9891	2.4545	0.1	388.61
28454	5.0815	2.3636	0.1	365.73
28455	4.9891	2.6364	0.1	403.03
28456	5.0815	2.5455	0.1	382.99
28457	4.9891	2.8182	0.1	411.87
28458	5.0815	2.7273	0.1	394.83
28459	4.9891	3.	0.1	414.85
28460	5.0815	2.9091	0.1	400.85
28461	4.9891	3.1818	0.1	411.87
28462	5.0815	3.0909	0.1	400.85
28463	4.9891	3.3636	0.1	403.03
28464	5.0815	3.2727	0.1	394.83
28465	4.9891	3.5455	0.1	388.61
28466	5.0815	3.4545	0.1	382.99
28467	4.9891	3.7273	0.1	369.07
28468	5.0815	3.6364	0.1	365.73
28469	4.9891	3.9091	0.1	345.03
28470	5.0815	3.8182	0.1	343.65
28471	4.9891	4.0909	0.1	317.23
28472	5.0815	4.	0.1	317.45
28473	4.9891	4.2727	0.1	286.48
28474	5.0815	4.1818	0.1	288.
28475	4.9891	4.4545	0.1	253.68
28476	5.0815	4.3636	0.1	256.2
28477	4.9891	4.6364	0.1	219.7
28478	5.0815	4.5455	0.1	223.01
28479	4.9891	4.8182	0.1	185.41
28480	5.0815	4.7273	0.1	189.34
28481	4.9891	5.	0.1	151.59
28482	5.0815	4.9091	0.1	156.06
28483	4.9891	5.1818	0.1	118.93
28484	5.0815	5.0909	0.1	123.96
28485	4.9891	5.3636	0.1	87.967
28486	5.0815	5.2727	0.1	93.653
28487	4.9891	5.5455	0.1	59.06
28488	5.0815	5.4545	0.1	65.631
28489	4.9891	5.7273	0.1	32.275
28490	5.0815	5.6364	0.1	40.12
28491	5.0815	5.8182	0.1	17.075
28492	4.9891	5.9091	0.1	10.303
28493	5.1739	0.27273	0.1	24.875
28494	5.2663	0.18182	0.1	12.127
28495	5.1739	9.0909e-002	0.1	7.7687
28496	5.1739	0.45455	0.1	46.687
28497	5.2663	0.36364	0.1	29.758
28498	5.1739	0.63636	0.1	71.313
28499	5.2663	0.54545	0.1	50.591
28500	5.1739	0.81818	0.1	98.678
28501	5.2663	0.72727	0.1	74.677
28502	5.1739	1.	0.1	128.43
28503	5.2663	0.90909	0.1	101.78
28504	5.1739	1.1818	0.1	159.99
28505	5.2663	1.0909	0.1	131.4
28506	5.1739	1.3636	0.1	192.65
28507	5.2663	1.2727	0.1	162.87
28508	5.1739	1.5455	0.1	225.54
28509	5.2663	1.4545	0.1	195.37
28510	5.1739	1.7273	0.1	257.73
28511	5.2663	1.6364	0.1	227.93
28512	5.1739	1.9091	0.1	288.24
28513	5.2663	1.8182	0.1	259.53
28514	5.1739	2.0909	0.1	316.08
28515	5.2663	2.	0.1	289.11
28516	5.1739	2.2727	0.1	340.32
28517	5.2663	2.1818	0.1	315.64
28518	5.1739	2.4545	0.1	360.12
28519	5.2663	2.3636	0.1	338.16
28520	5.1739	2.6364	0.1	374.8
28521	5.2663	2.5455	0.1	355.84
28522	5.1739	2.8182	0.1	383.82
28523	5.2663	2.7273	0.1	368.01
28524	5.1739	3.	0.1	386.86
28525	5.2663	2.9091	0.1	374.21
28526	5.1739	3.1818	0.1	383.82
28527	5.2663	3.0909	0.1	374.21
28528	5.1739	3.3636	0.1	374.8
28529	5.2663	3.2727	0.1	368.01
28530	5.1739	3.5455	0.1	360.12
28531	5.2663	3.4545	0.1	355.84
28532	5.1739	3.7273	0.1	340.32
28533	5.2663	3.6364	0.1	338.16
28534	5.1739	3.9091	0.1	316.08
28535	5.2663	3.8182	0.1	315.64
28536	5.1739	4.0909	0.1	288.24
28537	5.2663	4.	0.1	289.11
28538	5.1739	4.2727	0.1	257.73
28539	5.2663	4.1818	0.1	259.53
28540	5.1739	4.4545	0.1	225.54
28541	5.2663	4.3636	0.1	227.93
28542	5.1739	4.6364	0.1	192.65
28543	5.2663	4.5455	0.1	195.37
28544	5.1739	4.8182	0.1	159.99
28545	5.2663	4.7273	0.1	162.87
28546	5.1739	5.	0.1	128.43
28547	5.2663	4.9091	0.1	131.4
28548	5.1739	5.1818	0.1	98.678
28549	5.2663	5.0909	0.1	101.78
28550	5.1739	5.3636	0.1	71.313
28551	5.2663	5.2727	0.1	74.677
28552	5.1739	5.5455	0.1	46.687
28553	5.2663	5.4545	0.1	50.591
28554	5.1739	5.7273	0.1	24.875
28555	5.2663	5.6364	0.1	29.758
28556	5.2663	5.8182	0.1	12.127
28557	5.1739	5.9091	0.1	7.7687
28558	5.3587	0.27273	0.1	16.985
28559	5.4511	0.18182	0.1	6.7847
28560	5.3587	9.0909e-002	0.1	5.0191
28561	5.3587	0.45455	0.1	33.666
28562	5.4511	0.36364	0.1	18.753
28563	5.3587	0.63636	0.1	53.957
28564	5.4511	0.54545	0.1	34.771
28565	5.3587	0.81818	0.1	77.776
28566	5.4511	0.72727	0.1	54.891
28567	5.3587	1.	0.1	104.75
28568	5.4511	0.90909	0.1	78.858
28569	5.3587	1.1818	0.1	134.29
28570	5.4511	1.0909	0.1	106.16
28571	5.3587	1.3636	0.1	165.6
28572	5.4511	1.2727	0.1	136.08
28573	5.3587	1.5455	0.1	197.76
28574	5.4511	1.4545	0.1	167.71
28575	5.3587	1.7273	0.1	229.73
28576	5.4511	1.6364	0.1	200.02
28577	5.3587	1.9091	0.1	260.42
28578	5.4511	1.8182	0.1	231.83
28579	5.3587	2.0909	0.1	288.69
28580	5.4511	2.	0.1	261.97
28581	5.3587	2.2727	0.1	313.5
28582	5.4511	2.1818	0.1	289.24
28583	5.3587	2.4545	0.1	333.89
28584	5.4511	2.3636	0.1	312.55
28585	5.3587	2.6364	0.1	349.06
28586	5.4511	2.5455	0.1	330.93
28587	5.3587	2.8182	0.1	358.41
28588	5.4511	2.7273	0.1	343.63
28589	5.3587	3.	0.1	361.56
28590	5.4511	2.9091	0.1	350.11
28591	5.3587	3.1818	0.1	358.41
28592	5.4511	3.0909	0.1	350.11
28593	5.3587	3.3636	0.1	349.06
28594	5.4511	3.2727	0.1	343.63
28595	5.3587	3.5455	0.1	333.89
28596	5.4511	3.4545	0.1	330.93
28597	5.3587	3.7273	0.1	313.5
28598	5.4511	3.6364	0.1	312.55
28599	5.3587	3.9091	0.1	288.69
28600	5.4511	3.8182	0.1	289.24
28601	5.3587	4.0909	0.1	260.42
28602	5.4511	4.	0.1	261.97
28603	5.3587	4.2727	0.1	229.73
28604	5.4511	4.1818	0.1	231.83
28605	5.3587	4.4545	0.1	197.76
28606	5.4511	4.3636	0.1	200.02
28607	5.3587	4.6364	0.1	165.6
28608	5.4511	4.5455	0.1	167.71
28609	5.3587	4.8182	0.1	134.29
28610	5.4511	4.7273	0.1	136.08
28611	5.3587	5.	0.1	104.75
28612	5.4511	4.9091	0.1	106.16
28613	5.3587	5.1818	0.1	77.776
28614	5.4511	5.0909	0.1	78.858
28615	5.3587	5.3636	0.1	53.957
28616	5.4511	5.2727	0.1	54.891
28617	5.3587	5.5455	0.1	33.666
28618	5.4511	5.4545	0.1	34.771
28619	5.3587	5.7273	0.1	16.985
28620	5.4511	5.6364	0.1	18.753
28621	5.4511	5.8182	0.1	6.7847
28622	5.3587	5.9091	0.1	5.0191
28623	5.5435	0.27273	0.1	8.5503
28624	5.6359	0.18182	0.1	1.2346
28625	5.5435	9.0909e-002	0.1	2.0454
28626	5.5435	0.45455	0.1	19.873
28627	5.6359	0.36364	0.1	7.0872
28628	5.5435	0.63636	0.1	35.714
28629	5.6359	0.54545	0.1	18.052
28630	5.5435	0.81818	0.1	55.978
28631	5.6359	0.72727	0.1	34.101
28632	5.5435	1.	0.1	80.27
28633	5.6359	0.90909	0.1	54.936
28634	5.5435	1.1818	0.1	107.96
28635	5.6359	1.0909	0.1	80.02
28636	5.5435	1.3636	0.1	138.2
28637	5.6359	1.2727	0.1	108.59
28638	5.5435	1.5455	0.1	169.97
28639	5.6359	1.4545	0.1	139.65
28640	5.5435	1.7273	0.1	202.12
28641	5.6359	1.6364	0.1	172.06
28642	5.5435	1.9091	0.1	233.4
28643	5.6359	1.8182	0.1	204.52
28644	5.5435	2.0909	0.1	262.53
28645	5.6359	2.	0.1	235.64
28646	5.5435	2.2727	0.1	288.3
28647	5.6359	2.1818	0.1	264.08
28648	5.5435	2.4545	0.1	309.6
28649	5.6359	2.3636	0.1	288.54
28650	5.5435	2.6364	0.1	325.51
28651	5.6359	2.5455	0.1	307.93
28652	5.5435	2.8182	0.1	335.34
28653	5.6359	2.7273	0.1	321.36
28654	5.5435	3.	0.1	338.67
28655	5.6359	2.9091	0.1	328.23
28656	5.5435	3.1818	0.1	335.34
28657	5.6359	3.0909	0.1	328.23
28658	5.5435	3.3636	0.1	325.51
28659	5.6359	3.2727	0.1	321.36
28660	5.5435	3.5455	0.1	309.6
28661	5.6359	3.4545	0.1	307.93
28662	5.5435	3.7273	0.1	288.3
28663	5.6359	3.6364	0.1	288.54
28664	5.5435	3.9091	0.1	262.53
28665	5.6359	3.8182	0.1	264.08
28666	5.5435	4.0909	0.1	233.4
28667	5.6359	4.	0.1	235.64
28668	5.5435	4.2727	0.1	202.12
28669	5.6359	4.1818	0.1	204.52
28670	5.5435	4.4545	0.1	169.97
28671	5.6359	4.3636	0.1	172.06
28672	5.5435	4.6364	0.1	138.2
28673	5.6359	4.5455	0.1	139.65
28674	5.5435	4.8182	0.1	107.96
28675	5.6359	4.7273	0.1	108.59
28676	5.5435	5.	0.1	80.27
28677	5.6359	4.9091	0.1	80.02
28678	5.5435	5.1818	0.1	55.978
28679	5.6359	5.0909	0.1	54.936
28680	5.5435	5.3636	0.1	35.714
28681	5.6359	5.2727	0.1	34.101
28682	5.5435	5.5455	0.1	19.873
28683	5.6359	5.4545	0.1	18.052
28684	5.5435	5.7273	0.1	8.5503
28685	5.6359	5.6364	0.1	7.0872
28686	5.6359	5.8182	0.1	1.2346
28687	5.5435	5.9091	0.1	2.0454
28688	5.7283	0.27273	0.1	0.61349
28689	5.8207	0.18182	0.1	-2.0611e-002
28690	5.7283	9.0909e-002	0.1	-9.7243e-003
28691	5.7283	0.45455	0.1	5.4362
28692	5.8207	0.36364	0.1	0.24781
28693	5.7283	0.63636	0.1	16.489
28694	5.8207	0.54545	0.1	1.9581
28695	5.7283	0.81818	0.1	33.076
28696	5.8207	0.72727	0.1	12.359
28697	5.7283	1.	0.1	54.691
28698	5.8207	0.90909	0.1	29.813
28699	5.7283	1.1818	0.1	80.65
28700	5.8207	1.0909	0.1	52.659
28701	5.7283	1.3636	0.1	110.04
28702	5.8207	1.2727	0.1	79.991
28703	5.7283	1.5455	0.1	141.75
28704	5.8207	1.4545	0.1	110.73
28705	5.7283	1.7273	0.1	174.46
28706	5.8207	1.6364	0.1	143.6
28707	5.7283	1.9091	0.1	206.77
28708	5.8207	1.8182	0.1	177.1
28709	5.7283	2.0909	0.1	237.2
28710	5.8207	2.	0.1	209.67
28711	5.7283	2.2727	0.1	264.33
28712	5.8207	2.1818	0.1	239.71
28713	5.7283	2.4545	0.1	286.88
28714	5.8207	2.3636	0.1	265.72
28715	5.7283	2.6364	0.1	303.79
28716	5.8207	2.5455	0.1	286.43
28717	5.7283	2.8182	0.1	314.27
28718	5.8207	2.7273	0.1	300.81
28719	5.7283	3.	0.1	317.81
28720	5.8207	2.9091	0.1	308.18
28721	5.7283	3.1818	0.1	314.27
28722	5.8207	3.0909	0.1	308.18
28723	5.7283	3.3636	0.1	303.79
28724	5.8207	3.2727	0.1	300.81
28725	5.7283	3.5455	0.1	286.88
28726	5.8207	3.4545	0.1	286.43
28727	5.7283	3.7273	0.1	264.33
28728	5.8207	3.6364	0.1	265.72
28729	5.7283	3.9091	0.1	237.2
28730	5.8207	3.8182	0.1	239.71
28731	5.7283	4.0909	0.1	206.77
28732	5.8207	4.	0.1	209.67
28733	5.7283	4.2727	0.1	174.46
28734	5.8207	4.1818	0.1	177.1
28735	5.7283	4.4545	0.1	141.75
28736	5.8207	4.3636	0.1	143.6
28737	5.7283	4.6364	0.1	110.04
28738	5.8207	4.5455	0.1	110.73
28739	5.7283	4.8182	0.1	80.65
28740	5.8207	4.7273	0.1	79.991
28741	5.7283	5.	0.1	54.691
28742	5.8207	4.9091	0.1	52.659
28743	5.7283	5.1818	0.1	33.076
28744	5.8207	5.0909	0.1	29.813
28745	5.7283	5.3636	0.1	16.489
28746	5.8207	5.2727	0.1	12.359
28747	5.7283	5.5455	0.1	5.4362
28748	5.8207	5.4545	0.1	1.9581
28749	5.7283	5.7273	0.1	0.6135
28750	5.8207	5.6364	0.1	0.24781
28751	5.8207	5.8182	0.1	-2.0609e-002
28752	5.7283	5.9091	0.1	-9.7228e-003
28753	5.913	0.27273	0.1	1.8873e-002
28754	6.0054	0.18182	0.1	-5.6361e-002
28755	5.913	9.0909e-002	0.1	-3.832e-002
28756	5.913	0.45455	0.1	0.21456
28757	6.0054	0.36364	0.1	8.1569e-002
28758	5.913	0.63636	0.1	1.0366
28759	6.0054	0.54545	0.1	0.18403
28760	5.913	0.81818	0.1	9.4206
28761	6.0054	0.72727	0.1	0.67359
28762	5.913	1.	0.1	27.831
28763	6.0054	0.90909	0.1	5.1697
28764	5.913	1.1818	0.1	52.007
28765	6.0054	1.0909	0.1	23.971
28766	5.913	1.3636	0.1	80.679
28767	6.0054	1.2727	0.1	49.895
28768	5.913	1.5455	0.1	112.58
28769	6.0054	1.4545	0.1	80.432
28770	5.913	1.7273	0.1	146.23
28771	6.0054	1.6364	0.1	114.04
28772	5.913	1.9091	0.1	180.01
28773	6.0054	1.8182	0.1	149.
28774	5.913	2.0909	0.1	212.18
28775	6.0054	2.	0.1	183.48
28776	5.913	2.2727	0.1	241.11
28777	6.0054	2.1818	0.1	215.59
28778	5.913	2.4545	0.1	265.28
28779	6.0054	2.3636	0.1	243.56
28780	5.913	2.6364	0.1	283.46
28781	6.0054	2.5455	0.1	265.9
28782	5.913	2.8182	0.1	294.73
28783	6.0054	2.7273	0.1	281.44
28784	5.913	3.	0.1	298.55
28785	6.0054	2.9091	0.1	289.4
28786	5.913	3.1818	0.1	294.73
28787	6.0054	3.0909	0.1	289.4
28788	5.913	3.3636	0.1	283.46
28789	6.0054	3.2727	0.1	281.44
28790	5.913	3.5455	0.1	265.28
28791	6.0054	3.4545	0.1	265.9
28792	5.913	3.7273	0.1	241.11
28793	6.0054	3.6364	0.1	243.56
28794	5.913	3.9091	0.1	212.19
28795	6.0054	3.8182	0.1	215.59
28796	5.913	4.0909	0.1	180.01
28797	6.0054	4.	0.1	183.48
28798	5.913	4.2727	0.1	146.23
28799	6.0054	4.1818	0.1	149.
28800	5.913	4.4545	0.1	112.58
28801	6.0054	4.3636	0.1	114.04
28802	5.913	4.6364	0.1	80.679
28803	6.0054	4.5455	0.1	80.432
28804	5.913	4.8182	0.1	52.007
28805	6.0054	4.7273	0.1	49.895
28806	5.913	5.	0.1	27.831
28807	6.0054	4.9091	0.1	23.971
28808	5.913	5.1818	0.1	9.4207
28809	6.0054	5.0909	0.1	5.1697
28810	5.913	5.3636	0.1	1.0366
28811	6.0054	5.2727	0.1	0.67359
28812	5.913	5.5455	0.1	0.21456
28813	6.0054	5.4545	0.1	0.18403
28814	5.913	5.7273	0.1	1.8875e-002
28815	6.0054	5.6364	0.1	8.1571e-002
28816	6.0054	5.8182	0.1	-5.6359e-002
28817	5.913	5.9091	0.1	-3.8318e-002
28818	6.0978	0.27273	0.1	-9.6774e-003
28819	6.1902	0.18182	0.1	-6.627e-002
28820	6.0978	9.0909e-002	0.1	-2.629e-002
28821	6.0978	0.45455	0.1	8.4315e-002
28822	6.1902	0.36364	0.1	7.4468e-002
28823	6.0978	0.63636	0.1	0.21637
28824	6.1902	0.54545	0.1	8.0399e-002
28825	6.0978	0.81818	0.1	0.64104
28826	6.1902	0.72727	0.1	0.25591
28827	6.0978	1.	0.1	3.5192
28828	6.1902	0.90909	0.1	0.62453
28829	6.0978	1.1818	0.1	21.995
28830	6.1902	1.0909	0.1	2.3578
28831	6.0978	1.3636	0.1	49.647
28832	6.1902	1.2727	0.1	18.509
28833	6.0978	1.5455	0.1	81.87
28834	6.1902	1.4545	0.1	48.208
28835	6.0978	1.7273	0.1	116.79
28836	6.1902	1.6364	0.1	82.681
28837	6.0978	1.9091	0.1	152.47
28838	6.1902	1.8182	0.1	119.48
28839	6.0978	2.0909	0.1	186.88
28840	6.1902	2.	0.1	156.35
28841	6.0978	2.2727	0.1	218.04
28842	6.1902	2.1818	0.1	191.01
28843	6.0978	2.4545	0.1	244.19
28844	6.1902	2.3636	0.1	221.37
28845	6.0978	2.6364	0.1	263.9
28846	6.1902	2.5455	0.1	245.65
28847	6.0978	2.8182	0.1	276.13
28848	6.1902	2.7273	0.1	262.54
28849	6.0978	3.	0.1	280.28
28850	6.1902	2.9091	0.1	271.18
28851	6.0978	3.1818	0.1	276.13
28852	6.1902	3.0909	0.1	271.18
28853	6.0978	3.3636	0.1	263.9
28854	6.1902	3.2727	0.1	262.54
28855	6.0978	3.5455	0.1	244.19
28856	6.1902	3.4545	0.1	245.65
28857	6.0978	3.7273	0.1	218.04
28858	6.1902	3.6364	0.1	221.37
28859	6.0978	3.9091	0.1	186.88
28860	6.1902	3.8182	0.1	191.01
28861	6.0978	4.0909	0.1	152.47
28862	6.1902	4.	0.1	156.35
28863	6.0978	4.2727	0.1	116.79
28864	6.1902	4.1818	0.1	119.48
28865	6.0978	4.4545	0.1	81.871
28866	6.1902	4.3636	0.1	82.681
28867	6.0978	4.6364	0.1	49.647
28868	6.1902	4.5455	0.1	48.208
28869	6.0978	4.8182	0.1	21.995
28870	6.1902	4.7273	0.1	18.509
28871	6.0978	5.	0.1	3.5192
28872	6.1902	4.9091	0.1	2.3578
28873	6.0978	5.1818	0.1	0.64104
28874	6.1902	5.0909	0.1	0.62453
28875	6.0978	5.3636	0.1	0.21637
28876	6.1902	5.2727	0.1	0.25591
28877	6.0978	5.5455	0.1	8.4317e-002
28878	6.1902	5.4545	0.1	8.04e-002
28879	6.0978	5.7273	0.1	-9.6757e-003
28880	6.1902	5.6364	0.1	7.447e-002
28881	6.1902	5.8182	0.1	-6.6268e-002
28882	6.0978	5.9091	0.1	-2.6288e-002
28883	6.2826	0.27273	0.1	-1.4858e-002
28884	6.375	0.18182	0.1	-8.183e-002
28885	6.2826	9.0909e-002	0.1	-1.0744e-002
28886	6.2826	0.45455	0.1	6.3921e-002
28887	6.375	0.36364	0.1	8.8576e-002
28888	6.2826	0.63636	0.1	0.12596
28889	6.375	0.54545	0.1	5.1433e-002
28890	6.2826	0.81818	0.1	0.30829
28891	6.375	0.72727	0.1	0.18403
28892	6.2826	1.	0.1	0.68504
28893	6.375	0.90909	0.1	0.36831
28894	6.2826	1.1818	0.1	2.2004
28895	6.375	1.0909	0.1	0.74659
28896	6.2826	1.3636	0.1	17.353
28897	6.375	1.2727	0.1	2.0296
28898	6.2826	1.5455	0.1	48.989
28899	6.375	1.4545	0.1	14.988
28900	6.2826	1.7273	0.1	85.324
28901	6.375	1.6364	0.1	48.767
28902	6.2826	1.9091	0.1	123.33
28903	6.375	1.8182	0.1	87.583
28904	6.2826	2.0909	0.1	160.47
28905	6.375	2.	0.1	127.33
28906	6.2826	2.2727	0.1	194.34
28907	6.375	2.1818	0.1	165.07
28908	6.2826	2.4545	0.1	222.83
28909	6.375	2.3636	0.1	198.23
28910	6.2826	2.6364	0.1	244.31
28911	6.375	2.5455	0.1	224.73
28912	6.2826	2.8182	0.1	257.62
28913	6.375	2.7273	0.1	243.11
28914	6.2826	3.	0.1	262.13
28915	6.375	2.9091	0.1	252.49
28916	6.2826	3.1818	0.1	257.62
28917	6.375	3.0909	0.1	252.49
28918	6.2826	3.3636	0.1	244.31
28919	6.375	3.2727	0.1	243.11
28920	6.2826	3.5455	0.1	222.83
28921	6.375	3.4545	0.1	224.73
28922	6.2826	3.7273	0.1	194.34
28923	6.375	3.6364	0.1	198.23
28924	6.2826	3.9091	0.1	160.47
28925	6.375	3.8182	0.1	165.07
28926	6.2826	4.0909	0.1	123.33
28927	6.375	4.	0.1	127.33
28928	6.2826	4.2727	0.1	85.325
28929	6.375	4.1818	0.1	87.583
28930	6.2826	4.4545	0.1	48.989
28931	6.375	4.3636	0.1	48.767
28932	6.2826	4.6364	0.1	17.353
28933	6.375	4.5455	0.1	14.988
28934	6.2826	4.8182	0.1	2.2004
28935	6.375	4.7273	0.1	2.0296
28936	6.2826	5.	0.1	0.68504
28937	6.375	4.9091	0.1	0.74659
28938	6.2826	5.1818	0.1	0.30829
28939	6.375	5.0909	0.1	0.36831
28940	6.2826	5.3636	0.1	0.12596
28941	6.375	5.2727	0.1	0.18403
28942	6.2826	5.5455	0.1	6.3922e-002
28943	6.375	5.4545	0.1	5.1433e-002
28944	6.2826	5.7273	0.1	-1.4856e-002
28945	6.375	5.6364	0.1	8.8578e-002
28946	6.375	5.8182	0.1	-8.1828e-002
28947	6.2826	5.9091	0.1	-1.0743e-002
28948	6.4674	0.27273	0.1	-1.9876e-002
28949	6.5598	0.18182	0.1	-0.11339
28950	6.4674	9.0909e-002	0.1	4.1903e-003
28951	6.4674	0.45455	0.1	6.5181e-002
28952	6.5598	0.36364	0.1	0.10765
28953	6.4674	0.63636	0.1	0.10321
28954	6.5598	0.54545	0.1	4.4613e-002
28955	6.4674	0.81818	0.1	0.24204
28956	6.5598	0.72727	0.1	0.17178
28957	6.4674	1.	0.1	0.44755
28958	6.5598	0.90909	0.1	0.31259
28959	6.4674	1.1818	0.1	0.8527
28960	6.5598	1.0909	0.1	0.53733
28961	6.4674	1.3636	0.1	2.1663
28962	6.5598	1.2727	0.1	0.95973
28963	6.4674	1.5455	0.1	15.066
28964	6.5598	1.4545	0.1	2.2349
28965	6.4674	1.7273	0.1	50.933
28966	6.5598	1.6364	0.1	14.044
28967	6.4674	1.9091	0.1	91.493
28968	6.5598	1.8182	0.1	52.216
28969	6.4674	2.0909	0.1	131.88
28970	6.5598	2.	0.1	95.148
28971	6.4674	2.2727	0.1	168.95
28972	6.5598	2.1818	0.1	136.53
28973	6.4674	2.4545	0.1	200.14
28974	6.5598	2.3636	0.1	172.93
28975	6.4674	2.6364	0.1	223.57
28976	6.5598	2.5455	0.1	201.86
28977	6.4674	2.8182	0.1	238.04
28978	6.5598	2.7273	0.1	221.76
28979	6.4674	3.	0.1	242.92
28980	6.5598	2.9091	0.1	231.87
28981	6.4674	3.1818	0.1	238.04
28982	6.5598	3.0909	0.1	231.87
28983	6.4674	3.3636	0.1	223.57
28984	6.5598	3.2727	0.1	221.76
28985	6.4674	3.5455	0.1	200.14
28986	6.5598	3.4545	0.1	201.86
28987	6.4674	3.7273	0.1	168.95
28988	6.5598	3.6364	0.1	172.93
28989	6.4674	3.9091	0.1	131.88
28990	6.5598	3.8182	0.1	136.53
28991	6.4674	4.0909	0.1	91.493
28992	6.5598	4.	0.1	95.148
28993	6.4674	4.2727	0.1	50.933
28994	6.5598	4.1818	0.1	52.217
28995	6.4674	4.4545	0.1	15.066
28996	6.5598	4.3636	0.1	14.044
28997	6.4674	4.6364	0.1	2.1663
28998	6.5598	4.5455	0.1	2.2349
28999	6.4674	4.8182	0.1	0.8527
29000	6.5598	4.7273	0.1	0.95974
29001	6.4674	5.	0.1	0.44756
29002	6.5598	4.9091	0.1	0.53733
29003	6.4674	5.1818	0.1	0.24204
29004	6.5598	5.0909	0.1	0.31259
29005	6.4674	5.3636	0.1	0.10321
29006	6.5598	5.2727	0.1	0.17178
29007	6.4674	5.5455	0.1	6.5182e-002
29008	6.5598	5.4545	0.1	4.4614e-002
29009	6.4674	5.7273	0.1	-1.9874e-002
29010	6.5598	5.6364	0.1	0.10765
29011	6.5598	5.8182	0.1	-0.11339
29012	6.4674	5.9091	0.1	4.1917e-003
29013	6.6522	0.27273	0.1	-3.2169e-002
29014	6.7446	0.18182	0.1	-0.1684
29015	6.6522	9.0909e-002	0.1	1.6195e-002
29016	6.6522	0.45455	0.1	7.5004e-002
29017	6.7446	0.36364	0.1	0.12591
29018	6.6522	0.63636	0.1	0.10565
29019	6.7446	0.54545	0.1	5.1162e-002
29020	6.6522	0.81818	0.1	0.23588
29021	6.7446	0.72727	0.1	0.18749
29022	6.6522	1.	0.1	0.39612
29023	6.7446	0.90909	0.1	0.31587
29024	6.6522	1.1818	0.1	0.64247
29025	6.7446	1.0909	0.1	0.49375
29026	6.6522	1.3636	0.1	1.1057
29027	6.7446	1.2727	0.1	0.75795
29028	6.6522	1.5455	0.1	2.4989
29029	6.7446	1.4545	0.1	1.2518
29030	6.6522	1.7273	0.1	15.277
29031	6.7446	1.6364	0.1	2.689
29032	6.6522	1.9091	0.1	55.682
29033	6.7446	1.8182	0.1	15.403
29034	6.6522	2.0909	0.1	99.675
29035	6.7446	2.	0.1	58.299
29036	6.6522	2.2727	0.1	140.46
29037	6.7446	2.1818	0.1	103.74
29038	6.6522	2.4545	0.1	174.65
29039	6.7446	2.3636	0.1	143.78
29040	6.6522	2.6364	0.1	200.12
29041	6.7446	2.5455	0.1	175.22
29042	6.6522	2.8182	0.1	215.7
29043	6.7446	2.7273	0.1	196.52
29044	6.6522	3.	0.1	220.93
29045	6.7446	2.9091	0.1	207.19
29046	6.6522	3.1818	0.1	215.7
29047	6.7446	3.0909	0.1	207.19
29048	6.6522	3.3636	0.1	200.12
29049	6.7446	3.2727	0.1	196.52
29050	6.6522	3.5455	0.1	174.65
29051	6.7446	3.4545	0.1	175.22
29052	6.6522	3.7273	0.1	140.46
29053	6.7446	3.6364	0.1	143.78
29054	6.6522	3.9091	0.1	99.675
29055	6.7446	3.8182	0.1	103.74
29056	6.6522	4.0909	0.1	55.682
29057	6.7446	4.	0.1	58.299
29058	6.6522	4.2727	0.1	15.277
29059	6.7446	4.1818	0.1	15.403
29060	6.6522	4.4545	0.1	2.499
29061	6.7446	4.3636	0.1	2.689
29062	6.6522	4.6364	0.1	1.1057
29063	6.7446	4.5455	0.1	1.2518
29064	6.6522	4.8182	0.1	0.64247
29065	6.7446	4.7273	0.1	0.75795
29066	6.6522	5.	0.1	0.39612
29067	6.7446	4.9091	0.1	0.49375
29068	6.6522	5.1818	0.1	0.23588
29069	6.7446	5.0909	0.1	0.31587
29070	6.6522	5.3636	0.1	0.10565
29071	6.7446	5.2727	0.1	0.1875
29072	6.6522	5.5455	0.1	7.5005e-002
29073	6.7446	5.4545	0.1	5.1163e-002
29074	6.6522	5.7273	0.1	-3.2167e-002
29075	6.7446	5.6364	0.1	0.12591
29076	6.7446	5.8182	0.1	-0.1684
29077	6.6522	5.9091	0.1	1.6196e-002
29078	6.837	0.27273	0.1	-5.6024e-002
29079	6.9293	0.18182	0.1	-0.25161
29080	6.837	9.0909e-002	0.1	2.2989e-002
29081	6.837	0.45455	0.1	9.019e-002
29082	6.9293	0.36364	0.1	0.14005
29083	6.837	0.63636	0.1	0.12613
29084	6.9293	0.54545	0.1	7.0769e-002
29085	6.837	0.81818	0.1	0.26171
29086	6.9293	0.72727	0.1	0.22552
29087	6.837	1.	0.1	0.40689
29088	6.9293	0.90909	0.1	0.35439
29089	6.837	1.1818	0.1	0.59988
29090	6.9293	1.0909	0.1	0.51355
29091	6.837	1.3636	0.1	0.8895
29092	6.9293	1.2727	0.1	0.71798
29093	6.837	1.5455	0.1	1.433
29094	6.9293	1.4545	0.1	1.0286
29095	6.837	1.7273	0.1	3.0382
29096	6.9293	1.6364	0.1	1.6097
29097	6.837	1.9091	0.1	17.444
29098	6.9293	1.8182	0.1	3.3017
29099	6.837	2.0909	0.1	62.098
29100	6.9293	2.	0.1	18.323
29101	6.837	2.2727	0.1	106.95
29102	6.9293	2.1818	0.1	64.67
29103	6.837	2.4545	0.1	144.36
29104	6.9293	2.3636	0.1	108.53
29105	6.837	2.6364	0.1	171.74
29106	6.9293	2.5455	0.1	142.31
29107	6.837	2.8182	0.1	188.2
29108	6.9293	2.7273	0.1	164.53
29109	6.837	3.	0.1	193.67
29110	6.9293	2.9091	0.1	175.39
29111	6.837	3.1818	0.1	188.2
29112	6.9293	3.0909	0.1	175.39
29113	6.837	3.3636	0.1	171.74
29114	6.9293	3.2727	0.1	164.53
29115	6.837	3.5455	0.1	144.36
29116	6.9293	3.4545	0.1	142.31
29117	6.837	3.7273	0.1	106.95
29118	6.9293	3.6364	0.1	108.53
29119	6.837	3.9091	0.1	62.098
29120	6.9293	3.8182	0.1	64.67
29121	6.837	4.0909	0.1	17.444
29122	6.9293	4.	0.1	18.323
29123	6.837	4.2727	0.1	3.0382
29124	6.9293	4.1818	0.1	3.3017
29125	6.837	4.4545	0.1	1.433
29126	6.9293	4.3636	0.1	1.6097
29127	6.837	4.6364	0.1	0.8895
29128	6.9293	4.5455	0.1	1.0286
29129	6.837	4.8182	0.1	0.59988
29130	6.9293	4.7273	0.1	0.71798
29131	6.837	5.	0.1	0.40689
29132	6.9293	4.9091	0.1	0.51356
29133	6.837	5.1818	0.1	0.26171
29134	6.9293	5.0909	0.1	0.35439
29135	6.837	5.3636	0.1	0.12614
29136	6.9293	5.2727	0.1	0.22553
29137	6.837	5.5455	0.1	9.0191e-002
29138	6.9293	5.4545	0.1	7.077e-002
29139	6.837	5.7273	0.1	-5.6022e-002
29140	6.9293	5.6364	0.1	0.14005
29141	6.9293	5.8182	0.1	-0.25161
29142	6.837	5.9091	0.1	2.299e-002
29143	7.0217	0.27273	0.1	-9.3119e-002
29144	7.1141	0.18182	0.1	-0.35864
29145	7.0217	9.0909e-002	0.1	2.1358e-002
29146	7.0217	0.45455	0.1	0.11075
29147	7.1141	0.36364	0.1	0.15064
29148	7.0217	0.63636	0.1	0.16522
29149	7.1141	0.54545	0.1	0.10869
29150	7.0217	0.81818	0.1	0.31449
29151	7.1141	0.72727	0.1	0.28841
29152	7.0217	1.	0.1	0.45675
29153	7.1141	0.90909	0.1	0.42548
29154	7.0217	1.1818	0.1	0.62487
29155	7.1141	1.0909	0.1	0.57715
29156	7.0217	1.3636	0.1	0.84427
29157	7.1141	1.2727	0.1	0.75107
29158	7.0217	1.5455	0.1	1.1781
29159	7.1141	1.4545	0.1	0.98625
29160	7.0217	1.7273	0.1	1.8019
29161	7.1141	1.6364	0.1	1.3477
29162	7.0217	1.9091	0.1	3.6352
29163	7.1141	1.8182	0.1	2.0008
29164	7.0217	2.0909	0.1	20.085
29165	7.1141	2.	0.1	3.8691
29166	7.0217	2.2727	0.1	66.013
29167	7.1141	2.1818	0.1	20.163
29168	7.0217	2.4545	0.1	106.5
29169	7.1141	2.3636	0.1	64.294
29170	7.0217	2.6364	0.1	135.31
29171	7.1141	2.5455	0.1	99.605
29172	7.0217	2.8182	0.1	152.08
29173	7.1141	2.7273	0.1	121.71
29174	7.0217	3.	0.1	157.53
29175	7.1141	2.9091	0.1	132.04
29176	7.0217	3.1818	0.1	152.08
29177	7.1141	3.0909	0.1	132.04
29178	7.0217	3.3636	0.1	135.31
29179	7.1141	3.2727	0.1	121.71
29180	7.0217	3.5455	0.1	106.5
29181	7.1141	3.4545	0.1	99.605
29182	7.0217	3.7273	0.1	66.013
29183	7.1141	3.6364	0.1	64.294
29184	7.0217	3.9091	0.1	20.086
29185	7.1141	3.8182	0.1	20.163
29186	7.0217	4.0909	0.1	3.6352
29187	7.1141	4.	0.1	3.8691
29188	7.0217	4.2727	0.1	1.802
29189	7.1141	4.1818	0.1	2.0008
29190	7.0217	4.4545	0.1	1.1781
29191	7.1141	4.3636	0.1	1.3477
29192	7.0217	4.6364	0.1	0.84428
29193	7.1141	4.5455	0.1	0.98625
29194	7.0217	4.8182	0.1	0.62487
29195	7.1141	4.7273	0.1	0.75107
29196	7.0217	5.	0.1	0.45676
29197	7.1141	4.9091	0.1	0.57715
29198	7.0217	5.1818	0.1	0.31449
29199	7.1141	5.0909	0.1	0.42548
29200	7.0217	5.3636	0.1	0.16522
29201	7.1141	5.2727	0.1	0.28841
29202	7.0217	5.5455	0.1	0.11075
29203	7.1141	5.4545	0.1	0.10869
29204	7.0217	5.7273	0.1	-9.3117e-002
29205	7.1141	5.6364	0.1	0.15065
29206	7.1141	5.8182	0.1	-0.35864
29207	7.0217	5.9091	0.1	2.136e-002
29208	7.2065	0.27273	0.1	-0.13492
29209	7.2989	0.18182	0.1	-0.46683
29210	7.2065	9.0909e-002	0.1	1.0565e-002
29211	7.2065	0.45455	0.1	0.14369
29212	7.2989	0.36364	0.1	0.16405
29213	7.2065	0.63636	0.1	0.2306
29214	7.2989	0.54545	0.1	0.17318
29215	7.2065	0.81818	0.1	0.39881
29216	7.2989	0.72727	0.1	0.3787
29217	7.2065	1.	0.1	0.54476
29218	7.2989	0.90909	0.1	0.52705
29219	7.2065	1.1818	0.1	0.70035
29220	7.2989	1.0909	0.1	0.67891
29221	7.2065	1.3636	0.1	0.88513
29222	7.2989	1.2727	0.1	0.84041
29223	7.2065	1.5455	0.1	1.1369
29224	7.2989	1.4545	0.1	1.0241
29225	7.2065	1.7273	0.1	1.5049
29226	7.2989	1.6364	0.1	1.2565
29227	7.2065	1.9091	0.1	2.1482
29228	7.2989	1.8182	0.1	1.6306
29229	7.2065	2.0909	0.1	3.8828
29230	7.2989	2.	0.1	2.1545
29231	7.2065	2.2727	0.1	18.338
29232	7.2989	2.1818	0.1	3.4529
29233	7.2065	2.4545	0.1	57.474
29234	7.2989	2.3636	0.1	12.82
29235	7.2065	2.6364	0.1	86.429
29236	7.2989	2.5455	0.1	42.5
29237	7.2065	2.8182	0.1	102.35
29238	7.2989	2.7273	0.1	62.335
29239	7.2065	3.	0.1	107.32
29240	7.2989	2.9091	0.1	70.881
29241	7.2065	3.1818	0.1	102.35
29242	7.2989	3.0909	0.1	70.881
29243	7.2065	3.3636	0.1	86.429
29244	7.2989	3.2727	0.1	62.335
29245	7.2065	3.5455	0.1	57.475
29246	7.2989	3.4545	0.1	42.5
29247	7.2065	3.7273	0.1	18.338
29248	7.2989	3.6364	0.1	12.82
29249	7.2065	3.9091	0.1	3.8829
29250	7.2989	3.8182	0.1	3.4529
29251	7.2065	4.0909	0.1	2.1482
29252	7.2989	4.	0.1	2.1545
29253	7.2065	4.2727	0.1	1.5049
29254	7.2989	4.1818	0.1	1.6306
29255	7.2065	4.4545	0.1	1.1369
29256	7.2989	4.3636	0.1	1.2565
29257	7.2065	4.6364	0.1	0.88513
29258	7.2989	4.5455	0.1	1.0241
29259	7.2065	4.8182	0.1	0.70035
29260	7.2989	4.7273	0.1	0.84041
29261	7.2065	5.	0.1	0.54476
29262	7.2989	4.9091	0.1	0.67892
29263	7.2065	5.1818	0.1	0.39881
29264	7.2989	5.0909	0.1	0.52706
29265	7.2065	5.3636	0.1	0.2306
29266	7.2989	5.2727	0.1	0.37871
29267	7.2065	5.5455	0.1	0.14369
29268	7.2989	5.4545	0.1	0.17318
29269	7.2065	5.7273	0.1	-0.13491
29270	7.2989	5.6364	0.1	0.16405
29271	7.2989	5.8182	0.1	-0.46683
29272	7.2065	5.9091	0.1	1.0566e-002
29273	7.3913	0.27273	0.1	-0.15943
29274	7.4837	0.18182	0.1	-0.49059
29275	7.3913	9.0909e-002	0.1	-1.7079e-002
29276	7.3913	0.45455	0.1	0.19873
29277	7.4837	0.36364	0.1	0.22485
29278	7.3913	0.63636	0.1	0.32607
29279	7.4837	0.54545	0.1	0.30083
29280	7.3913	0.81818	0.1	0.51028
29281	7.4837	0.72727	0.1	0.51623
29282	7.3913	1.	0.1	0.6636
29283	7.4837	0.90909	0.1	0.67594
29284	7.3913	1.1818	0.1	0.82027
29285	7.4837	1.0909	0.1	0.84062
29286	7.3913	1.3636	0.1	0.97659
29287	7.4837	1.2727	0.1	0.99636
29288	7.3913	1.5455	0.1	1.1305
29289	7.4837	1.4545	0.1	1.1898
29290	7.3913	1.7273	0.1	1.3517
29291	7.4837	1.6364	0.1	1.512
29292	7.3913	1.9091	0.1	1.5976
29293	7.4837	1.8182	0.1	1.6125
29294	7.3913	2.0909	0.1	1.8655
29295	7.4837	2.	0.1	1.9006
29296	7.3913	2.2727	0.1	2.4711
29297	7.4837	2.1818	0.1	1.8688
29298	7.3913	2.4545	0.1	5.0537
29299	7.4837	2.3636	0.1	1.1882
29300	7.3913	2.6364	0.1	19.721
29301	7.4837	2.5455	0.1	0.52891
29302	7.3913	2.8182	0.1	32.147
29303	7.4837	2.7273	0.1	-0.15884
29304	7.3913	3.	0.1	35.833
29305	7.4837	2.9091	0.1	-0.61494
29306	7.3913	3.1818	0.1	32.147
29307	7.4837	3.0909	0.1	-0.61494
29308	7.3913	3.3636	0.1	19.721
29309	7.4837	3.2727	0.1	-0.15884
29310	7.3913	3.5455	0.1	5.0537
29311	7.4837	3.4545	0.1	0.52891
29312	7.3913	3.7273	0.1	2.4711
29313	7.4837	3.6364	0.1	1.1882
29314	7.3913	3.9091	0.1	1.8655
29315	7.4837	3.8182	0.1	1.8688
29316	7.3913	4.0909	0.1	1.5976
29317	7.4837	4.	0.1	1.9006
29318	7.3913	4.2727	0.1	1.3517
29319	7.4837	4.1818	0.1	1.6125
29320	7.3913	4.4545	0.1	1.1305
29321	7.4837	4.3636	0.1	1.512
29322	7.3913	4.6364	0.1	0.97659
29323	7.4837	4.5455	0.1	1.1898
29324	7.3913	4.8182	0.1	0.82027
29325	7.4837	4.7273	0.1	0.99636
29326	7.3913	5.	0.1	0.6636
29327	7.4837	4.9091	0.1	0.84062
29328	7.3913	5.1818	0.1	0.51028
29329	7.4837	5.0909	0.1	0.67595
29330	7.3913	5.3636	0.1	0.32607
29331	7.4837	5.2727	0.1	0.51623
29332	7.3913	5.5455	0.1	0.19874
29333	7.4837	5.4545	0.1	0.30083
29334	7.3913	5.7273	0.1	-0.15942
29335	7.4837	5.6364	0.1	0.22485
29336	7.4837	5.8182	0.1	-0.49059
29337	7.3913	5.9091	0.1	-1.7077e-002
29338	7.5761	0.27273	0.1	-5.5665e-002
29339	7.6685	0.18182	0.1	-0.28301
29340	7.5761	9.0909e-002	0.1	-2.0753e-002
29341	7.5761	0.45455	0.1	0.35047
29342	7.6685	0.36364	0.1	0.39284
29343	7.5761	0.63636	0.1	0.50395
29344	7.6685	0.54545	0.1	0.50236
29345	7.5761	0.81818	0.1	0.68848
29346	7.6685	0.72727	0.1	0.66665
29347	7.5761	1.	0.1	0.85787
29348	7.6685	0.90909	0.1	0.80844
29349	7.5761	1.1818	0.1	1.0222
29350	7.6685	1.0909	0.1	0.96555
29351	7.5761	1.3636	0.1	1.2133
29352	7.6685	1.2727	0.1	1.2153
29353	7.5761	1.5455	0.1	1.5649
29354	7.6685	1.4545	0.1	1.5268
29355	7.5761	1.7273	0.1	1.7457
29356	7.6685	1.6364	0.1	1.0423
29357	7.5761	1.9091	0.1	1.8832
29358	7.6685	1.8182	0.1	1.5232
29359	7.5761	2.0909	0.1	1.9612
29360	7.6685	2.	0.1	0.34471
29361	7.5761	2.2727	0.1	1.1288
29362	7.6685	2.1818	0.1	-0.61606
29363	7.5761	2.4545	0.1	1.2844e-002
29364	7.6685	2.3636	0.1	-0.13796
29365	7.5761	2.6364	0.1	-0.52539
29366	7.6685	2.5455	0.1	-0.83595
29367	7.5761	2.8182	0.1	-0.71069
29368	7.6685	2.7273	0.1	-0.83567
29369	7.5761	3.	0.1	-0.75505
29370	7.6685	2.9091	0.1	-0.77465
29371	7.5761	3.1818	0.1	-0.71069
29372	7.6685	3.0909	0.1	-0.77465
29373	7.5761	3.3636	0.1	-0.52539
29374	7.6685	3.2727	0.1	-0.83567
29375	7.5761	3.5455	0.1	1.2844e-002
29376	7.6685	3.4545	0.1	-0.83595
29377	7.5761	3.7273	0.1	1.1288
29378	7.6685	3.6364	0.1	-0.13796
29379	7.5761	3.9091	0.1	1.9612
29380	7.6685	3.8182	0.1	-0.61605
29381	7.5761	4.0909	0.1	1.8832
29382	7.6685	4.	0.1	0.34471
29383	7.5761	4.2727	0.1	1.7457
29384	7.6685	4.1818	0.1	1.5232
29385	7.5761	4.4545	0.1	1.5649
29386	7.6685	4.3636	0.1	1.0423
29387	7.5761	4.6364	0.1	1.2133
29388	7.6685	4.5455	0.1	1.5268
29389	7.5761	4.8182	0.1	1.0222
29390	7.6685	4.7273	0.1	1.2153
29391	7.5761	5.	0.1	0.85787
29392	7.6685	4.9091	0.1	0.96555
29393	7.5761	5.1818	0.1	0.68849
29394	7.6685	5.0909	0.1	0.80844
29395	7.5761	5.3636	0.1	0.50395
29396	7.6685	5.2727	0.1	0.66665
29397	7.5761	5.5455	0.1	0.35048
29398	7.6685	5.4545	0.1	0.50236
29399	7.5761	5.7273	0.1	-5.5662e-002
29400	7.6685	5.6364	0.1	0.39284
29401	7.6685	5.8182	0.1	-0.28301
29402	7.5761	5.9091	0.1	-2.0751e-002
29403	7.7609	0.27273	0.1	0.2841
29404	7.8533	0.18182	0.1	0.81242
29405	7.7609	9.0909e-002	0.1	-7.4569e-002
29406	7.7609	0.45455	0.1	0.59471
29407	7.8533	0.36364	0.1	1.1278
29408	7.7609	0.63636	0.1	0.68206
29409	7.8533	0.54545	0.1	1.0667
29410	7.7609	0.81818	0.1	0.79116
29411	7.8533	0.72727	0.1	1.058
29412	7.7609	1.	0.1	0.9198
29413	7.8533	0.90909	0.1	1.1244
29414	7.7609	1.1818	0.1	1.1661
29415	7.8533	1.0909	0.1	1.3819
29416	7.7609	1.3636	0.1	1.5387
29417	7.8533	1.2727	0.1	1.6842
29418	7.7609	1.5455	0.1	1.0036
29419	7.8533	1.4545	0.1	1.9241
29420	7.7609	1.7273	0.1	0.7942
29421	7.8533	1.6364	0.1	4.8386
29422	7.7609	1.9091	0.1	-5.7315e-002
29423	7.8533	1.8182	0.1	3.2592
29424	7.7609	2.0909	0.1	-2.2122
29425	7.8533	2.	0.1	6.0515
29426	7.7609	2.2727	0.1	-1.7564
29427	7.8533	2.1818	0.1	2.7958
29428	7.7609	2.4545	0.1	-0.82291
29429	7.8533	2.3636	0.1	-3.1554
29430	7.7609	2.6364	0.1	-1.0335
29431	7.8533	2.5455	0.1	-0.99296
29432	7.7609	2.8182	0.1	-0.87285
29433	7.8533	2.7273	0.1	-0.90495
29434	7.7609	3.	0.1	-0.79718
29435	7.8533	2.9091	0.1	-0.69168
29436	7.7609	3.1818	0.1	-0.87285
29437	7.8533	3.0909	0.1	-0.69168
29438	7.7609	3.3636	0.1	-1.0335
29439	7.8533	3.2727	0.1	-0.90495
29440	7.7609	3.5455	0.1	-0.82291
29441	7.8533	3.4545	0.1	-0.99296
29442	7.7609	3.7273	0.1	-1.7564
29443	7.8533	3.6364	0.1	-3.1554
29444	7.7609	3.9091	0.1	-2.2122
29445	7.8533	3.8182	0.1	2.7958
29446	7.7609	4.0909	0.1	-5.7314e-002
29447	7.8533	4.	0.1	6.0515
29448	7.7609	4.2727	0.1	0.7942
29449	7.8533	4.1818	0.1	3.2592
29450	7.7609	4.4545	0.1	1.0036
29451	7.8533	4.3636	0.1	4.8386
29452	7.7609	4.6364	0.1	1.5387
29453	7.8533	4.5455	0.1	1.9241
29454	7.7609	4.8182	0.1	1.1661
29455	7.8533	4.7273	0.1	1.6842
29456	7.7609	5.	0.1	0.9198
29457	7.8533	4.9091	0.1	1.3819
29458	7.7609	5.1818	0.1	0.79116
29459	7.8533	5.0909	0.1	1.1244
29460	7.7609	5.3636	0.1	0.68206
29461	7.8533	5.2727	0.1	1.058
29462	7.7609	5.5455	0.1	0.59471
29463	7.8533	5.4545	0.1	1.0667
29464	7.7609	5.7273	0.1	0.28411
29465	7.8533	5.6364	0.1	1.1278
29466	7.8533	5.8182	0.1	0.81242
29467	7.7609	5.9091	0.1	-7.4568e-002
29468	7.9457	0.27273	0.1	1.8947
29469	8.038	0.18182	0.1	3.1425
29470	7.9457	9.0909e-002	0.1	0.5243
29471	7.9457	0.45455	0.1	1.6398
29472	8.038	0.36364	0.1	2.1005
29473	7.9457	0.63636	0.1	1.4298
29474	8.038	0.54545	0.1	1.2449
29475	7.9457	0.81818	0.1	1.3781
29476	8.038	0.72727	0.1	0.68977
29477	7.9457	1.	0.1	1.5813
29478	8.038	0.90909	0.1	0.49861
29479	7.9457	1.1818	0.1	1.9035
29480	8.038	1.0909	0.1	0.47201
29481	7.9457	1.3636	0.1	2.0815
29482	8.038	1.2727	0.1	0.70148
29483	7.9457	1.5455	0.1	5.7688
29484	8.038	1.4545	0.1	0.95662
29485	7.9457	1.7273	0.1	7.3145
29486	8.038	1.6364	0.1	2.192
29487	7.9457	1.9091	0.1	9.3091
29488	8.038	1.8182	0.1	-4.7166
29489	7.9457	2.0909	0.1	10.994
29490	8.038	2.	0.1	-27.953
29491	7.9457	2.2727	0.1	1.2467
29492	8.038	2.1818	0.1	-12.864
29493	7.9457	2.4545	0.1	-3.2633
29494	8.038	2.3636	0.1	-0.10018
29495	7.9457	2.6364	0.1	-0.8234
29496	8.038	2.5455	0.1	-1.0818
29497	7.9457	2.8182	0.1	-0.71796
29498	8.038	2.7273	0.1	-0.39174
29499	7.9457	3.	0.1	-0.59128
29500	8.038	2.9091	0.1	-0.21594
29501	7.9457	3.1818	0.1	-0.71796
29502	8.038	3.0909	0.1	-0.21594
29503	7.9457	3.3636	0.1	-0.8234
29504	8.038	3.2727	0.1	-0.39174
29505	7.9457	3.5455	0.1	-3.2633
29506	8.038	3.4545	0.1	-1.0818
29507	7.9457	3.7273	0.1	1.2467
29508	8.038	3.6364	0.1	-0.10018
29509	7.9457	3.9091	0.1	10.994
29510	8.038	3.8182	0.1	-12.864
29511	7.9457	4.0909	0.1	9.3092
29512	8.038	4.	0.1	-27.953
29513	7.9457	4.2727	0.1	7.3145
29514	8.038	4.1818	0.1	-4.7166
29515	7.9457	4.4545	0.1	5.7688
29516	8.038	4.3636	0.1	2.192
29517	7.9457	4.6364	0.1	2.0815
29518	8.038	4.5455	0.1	0.95662
29519	7.9457	4.8182	0.1	1.9035
29520	8.038	4.7273	0.1	0.70148
29521	7.9457	5.	0.1	1.5813
29522	8.038	4.9091	0.1	0.47202
29523	7.9457	5.1818	0.1	1.3781
29524	8.038	5.0909	0.1	0.49861
29525	7.9457	5.3636	0.1	1.4298
29526	8.038	5.2727	0.1	0.68977
29527	7.9457	5.5455	0.1	1.6398
29528	8.038	5.4545	0.1	1.2449
29529	7.9457	5.7273	0.1	1.8947
29530	8.038	5.6364	0.1	2.1005
29531	8.038	5.8182	0.1	3.1425
29532	7.9457	5.9091	0.1	0.5243
29533	8.1304	0.27273	0.1	3.6057
29534	8.2228	0.18182	0.1	14.005
29535	8.1304	9.0909e-002	0.1	0.60753
29536	8.1304	0.45455	0.1	1.42
29537	8.2228	0.36364	0.1	6.9529
29538	8.1304	0.63636	0.1	0.35334
29539	8.2228	0.54545	0.1	4.5617
29540	8.1304	0.81818	0.1	-0.25294
29541	8.2228	0.72727	0.1	3.4855
29542	8.1304	1.	0.1	-0.63214
29543	8.2228	0.90909	0.1	3.151
29544	8.1304	1.1818	0.1	-0.73397
29545	8.2228	1.0909	0.1	3.7471
29546	8.1304	1.3636	0.1	-0.42429
29547	8.2228	1.2727	0.1	2.74
29548	8.1304	1.5455	0.1	-2.593
29549	8.2228	1.4545	0.1	11.386
29550	8.1304	1.7273	0.1	-10.046
29551	8.2228	1.6364	0.1	-11.127
29552	8.1304	1.9091	0.1	-42.062
29553	8.2228	1.8182	0.1	58.564
29554	8.1304	2.0909	0.1	-52.018
29555	8.2228	2.	0.1	239.58
29556	8.1304	2.2727	0.1	-14.562
29557	8.2228	2.1818	0.1	-29.587
29558	8.1304	2.4545	0.1	2.2127
29559	8.2228	2.3636	0.1	10.626
29560	8.1304	2.6364	0.1	-0.62608
29561	8.2228	2.5455	0.1	-3.2252
29562	8.1304	2.8182	0.1	9.163e-002
29563	8.2228	2.7273	0.1	1.6135
29564	8.1304	3.	0.1	0.13614
29565	8.2228	2.9091	0.1	0.37899
29566	8.1304	3.1818	0.1	9.1629e-002
29567	8.2228	3.0909	0.1	0.37899
29568	8.1304	3.3636	0.1	-0.62608
29569	8.2228	3.2727	0.1	1.6135
29570	8.1304	3.5455	0.1	2.2127
29571	8.2228	3.4545	0.1	-3.2252
29572	8.1304	3.7273	0.1	-14.562
29573	8.2228	3.6364	0.1	10.626
29574	8.1304	3.9091	0.1	-52.018
29575	8.2228	3.8182	0.1	-29.587
29576	8.1304	4.0909	0.1	-42.062
29577	8.2228	4.	0.1	239.58
29578	8.1304	4.2727	0.1	-10.046
29579	8.2228	4.1818	0.1	58.564
29580	8.1304	4.4545	0.1	-2.593
29581	8.2228	4.3636	0.1	-11.127
29582	8.1304	4.6364	0.1	-0.42429
29583	8.2228	4.5455	0.1	11.386
29584	8.1304	4.8182	0.1	-0.73397
29585	8.2228	4.7273	0.1	2.74
29586	8.1304	5.	0.1	-0.63214
29587	8.2228	4.9091	0.1	3.7471
29588	8.1304	5.1818	0.1	-0.25294
29589	8.2228	5.0909	0.1	3.151
29590	8.1304	5.3636	0.1	0.35334
29591	8.2228	5.2727	0.1	3.4855
29592	8.1304	5.5455	0.1	1.42
29593	8.2228	5.4545	0.1	4.5617
29594	8.1304	5.7273	0.1	3.6057
29595	8.2228	5.6364	0.1	6.9529
29596	8.2228	5.8182	0.1	14.005
29597	8.1304	5.9091	0.1	0.60753
29598	8.3152	0.27273	0.1	14.251
29599	8.4076	0.18182	0.1	-1.4203
29600	8.3152	9.0909e-002	0.1	13.356
29601	8.3152	0.45455	0.1	8.2557
29602	8.4076	0.36364	0.1	-3.1815
29603	8.3152	0.63636	0.1	6.9344
29604	8.4076	0.54545	0.1	-2.0024
29605	8.3152	0.81818	0.1	6.498
29606	8.4076	0.72727	0.1	-1.9413
29607	8.3152	1.	0.1	7.3153
29608	8.4076	0.90909	0.1	-2.26
29609	8.3152	1.1818	0.1	7.1649
29610	8.4076	1.0909	0.1	-0.69536
29611	8.3152	1.3636	0.1	14.568
29612	8.4076	1.2727	0.1	-6.1784
29613	8.3152	1.5455	0.1	3.1566
29614	8.4076	1.4545	0.1	16.879
29615	8.3152	1.7273	0.1	57.593
29616	8.4076	1.6364	0.1	-68.303
29617	8.3152	1.9091	0.1	344.7
29618	8.4076	1.8182	0.1	306.88
29619	8.3152	2.0909	0.1	242.02
29620	8.4076	2.	0.1	361.13
29621	8.3152	2.2727	0.1	-2.2757
29622	8.4076	2.1818	0.1	-88.189
29623	8.3152	2.4545	0.1	5.279
29624	8.4076	2.3636	0.1	25.305
29625	8.3152	2.6364	0.1	-1.0652
29626	8.4076	2.5455	0.1	-3.0859
29627	8.3152	2.8182	0.1	1.8527
29628	8.4076	2.7273	0.1	3.5052
29629	8.3152	3.	0.1	0.57454
29630	8.4076	2.9091	0.1	1.2942
29631	8.3152	3.1818	0.1	1.8527
29632	8.4076	3.0909	0.1	1.2942
29633	8.3152	3.3636	0.1	-1.0652
29634	8.4076	3.2727	0.1	3.5052
29635	8.3152	3.5455	0.1	5.279
29636	8.4076	3.4545	0.1	-3.0859
29637	8.3152	3.7273	0.1	-2.2757
29638	8.4076	3.6364	0.1	25.305
29639	8.3152	3.9091	0.1	242.02
29640	8.4076	3.8182	0.1	-88.189
29641	8.3152	4.0909	0.1	344.7
29642	8.4076	4.	0.1	361.13
29643	8.3152	4.2727	0.1	57.593
29644	8.4076	4.1818	0.1	306.88
29645	8.3152	4.4545	0.1	3.1566
29646	8.4076	4.3636	0.1	-68.303
29647	8.3152	4.6364	0.1	14.568
29648	8.4076	4.5455	0.1	16.879
29649	8.3152	4.8182	0.1	7.1649
29650	8.4076	4.7273	0.1	-6.1784
29651	8.3152	5.	0.1	7.3153
29652	8.4076	4.9091	0.1	-0.69536
29653	8.3152	5.1818	0.1	6.498
29654	8.4076	5.0909	0.1	-2.26
29655	8.3152	5.3636	0.1	6.9344
29656	8.4076	5.2727	0.1	-1.9413
29657	8.3152	5.5455	0.1	8.2557
29658	8.4076	5.4545	0.1	-2.0024
29659	8.3152	5.7273	0.1	14.251
29660	8.4076	5.6364	0.1	-3.1814
29661	8.4076	5.8182	0.1	-1.4203
29662	8.3152	5.9091	0.1	13.356
29663	8.6667	3.7273	0.1	-25.706
29664	8.5833	3.8182	0.1	-118.57
29665	8.6667	3.9091	0.1	550.65
29666	8.6667	3.5455	0.1	17.243
29667	8.5833	3.6364	0.1	35.842
29668	8.6667	3.3636	0.1	1.0968
29669	8.5833	3.4545	0.1	-1.2377
29670	8.6667	3.1818	0.1	2.8003
29671	8.5833	3.2727	0.1	3.8539
29672	8.6667	3.	0.1	1.803
29673	8.5833	3.0909	0.1	1.9129
29674	8.6667	2.8182	0.1	2.8003
29675	8.5833	2.9091	0.1	1.9129
29676	8.6667	2.6364	0.1	1.0968
29677	8.5833	2.7273	0.1	3.8539
29678	8.6667	2.4545	0.1	17.243
29679	8.5833	2.5455	0.1	-1.2377
29680	8.6667	2.2727	0.1	-25.706
29681	8.5833	2.3636	0.1	35.842
29682	8.5833	2.1818	0.1	-118.57
29683	8.6667	2.0909	0.1	550.65
29684	8.5	3.7273	0.1	-59.956
29685	8.5	3.9091	0.1	355.62
29686	8.5	3.5455	0.1	16.665
29687	8.5	3.3636	0.1	1.3939
29688	8.5	3.1818	0.1	2.8703
29689	8.5	3.	0.1	1.9462
29690	8.5	2.8182	0.1	2.8703
29691	8.5	2.6364	0.1	1.3939
29692	8.5	2.4545	0.1	16.665
29693	8.5	2.2727	0.1	-59.956
29694	8.5	2.0909	0.1	355.62
29695	8.6667	5.7273	0.1	-12.014
29696	8.6667	5.9091	0.1	-0.25618
29697	8.6667	5.8182	5.e-002	2.1991e-006
29698	8.6667	5.5455	0.1	-13.766
29699	8.6667	5.6364	5.e-002	-3.6717e-014
29700	8.6667	5.3636	0.1	-14.658
29701	8.6667	5.4545	5.e-002	8.0756e-008
29702	8.6667	5.1818	0.1	-16.743
29703	8.6667	5.2727	5.e-002	-7.6899e-014
29704	8.6667	5.	0.1	-19.156
29705	8.6667	5.0909	5.e-002	2.2529e-006
29706	8.6667	4.8182	0.1	-25.078
29707	8.6667	4.9091	5.e-002	-1.2836e-013
29708	8.6667	4.6364	0.1	-28.294
29709	8.6667	4.7273	5.e-002	-1.6335e-013
29710	8.6667	4.4545	0.1	-67.533
29711	8.6667	4.5455	5.e-002	1.1372e-005
29712	8.6667	4.2727	0.1	-55.756
29713	8.6667	4.3636	5.e-002	-1.9025e-005
29714	8.6667	4.0909	0.1	1175.4
29715	8.6667	4.1818	5.e-002	1.7029e-004
29716	8.5833	4.	0.1	1865.4
29717	8.6667	4.	5.e-002	-1.1128e-003
29718	8.5	4.0909	0.1	1041.
29719	8.5	4.	5.e-002	-9.4714e-004
29720	8.5	4.2727	0.1	-55.447
29721	8.5	4.1818	5.e-002	1.621e-004
29722	8.5	4.4545	0.1	-72.267
29723	8.5	4.3636	5.e-002	-2.3206e-005
29724	8.5	4.6364	0.1	-31.359
29725	8.5	4.5455	5.e-002	1.3108e-005
29726	8.5	4.8182	0.1	-28.441
29727	8.5	4.7273	5.e-002	-6.7003e-008
29728	8.5	5.	0.1	-22.153
29729	8.5	4.9091	5.e-002	-6.8797e-008
29730	8.5	5.1818	0.1	-19.693
29731	8.5	5.0909	5.e-002	-1.2016e-013
29732	8.5	5.3636	0.1	-17.509
29733	8.5	5.2727	5.e-002	-9.2432e-014
29734	8.5	5.5455	0.1	-16.586
29735	8.5	5.4545	5.e-002	7.8123e-008
29736	8.5	5.7273	0.1	-14.762
29737	8.5	5.6364	5.e-002	-4.4358e-014
29738	8.5	5.9091	0.1	-3.1662
29739	8.5	5.8182	5.e-002	2.0708e-006
29740	8.6667	0.27273	0.1	-12.014
29741	8.6667	9.0909e-002	0.1	-0.25618
29742	8.6667	0.18182	5.e-002	-3.3929e-007
29743	8.6667	0.45455	0.1	-13.766
29744	8.6667	0.36364	5.e-002	-1.6772e-007
29745	8.6667	0.63636	0.1	-14.658
29746	8.6667	0.54545	5.e-002	-3.2302e-007
29747	8.6667	0.81818	0.1	-16.743
29748	8.6667	0.72727	5.e-002	-3.1966e-007
29749	8.6667	1.	0.1	-19.156
29750	8.6667	0.90909	5.e-002	-2.5085e-007
29751	8.6667	1.1818	0.1	-25.078
29752	8.6667	1.0909	5.e-002	1.8442e-006
29753	8.6667	1.3636	0.1	-28.294
29754	8.6667	1.2727	5.e-002	-2.2815e-007
29755	8.6667	1.5455	0.1	-67.533
29756	8.6667	1.4545	5.e-002	-2.3129e-005
29757	8.6667	1.7273	0.1	-55.756
29758	8.6667	1.6364	5.e-002	4.015e-005
29759	8.6667	1.9091	0.1	1175.4
29760	8.6667	1.8182	5.e-002	-2.6568e-004
29761	8.5833	2.	0.1	1865.4
29762	8.6667	2.	5.e-002	2.23e-003
29763	8.5	1.9091	0.1	1041.
29764	8.5	2.	5.e-002	1.8583e-003
29765	8.5	1.7273	0.1	-55.447
29766	8.5	1.8182	5.e-002	-3.1365e-004
29767	8.5	1.5455	0.1	-72.267
29768	8.5	1.6364	5.e-002	4.1525e-005
29769	8.5	1.3636	0.1	-31.359
29770	8.5	1.4545	5.e-002	-2.3921e-005
29771	8.5	1.1818	0.1	-28.441
29772	8.5	1.2727	5.e-002	-1.3401e-007
29773	8.5	1.	0.1	-22.153
29774	8.5	1.0909	5.e-002	-2.0639e-007
29775	8.5	0.81818	0.1	-19.693
29776	8.5	0.90909	5.e-002	-2.3274e-007
29777	8.5	0.63636	0.1	-17.509
29778	8.5	0.72727	5.e-002	-2.5295e-007
29779	8.5	0.45455	0.1	-16.586
29780	8.5	0.54545	5.e-002	-3.1249e-007
29781	8.5	0.27273	0.1	-14.762
29782	8.5	0.36364	5.e-002	-3.27e-007
29783	8.5	9.0909e-002	0.1	-3.1662
29784	8.5	0.18182	5.e-002	2.1354e-006
29785	8.759	6.	0.1	16.174
29786	8.6667	6.	5.e-002	4.5027e-007
29787	8.9438	6.	0.1	-0.2635
29788	8.8514	6.	5.e-002	-3.9718e-007
29789	9.1285	6.	0.1	-1.7355
29790	9.0361	6.	5.e-002	2.6618e-006
29791	9.3133	6.	0.1	-0.40619
29792	9.2209	6.	5.e-002	1.9058e-006
29793	9.498	6.	0.1	0.14924
29794	9.4056	6.	5.e-002	1.9073e-006
29795	9.6827	6.	0.1	0.60642
29796	9.5904	6.	5.e-002	1.7903e-006
29797	9.8675	6.	0.1	0.83303
29798	9.7751	6.	5.e-002	1.7237e-006
29799	10.052	6.	0.1	0.91683
29800	9.9598	6.	5.e-002	1.6882e-006
29801	10.237	6.	0.1	0.8962
29802	10.145	6.	5.e-002	1.7865e-006
29803	10.422	6.	0.1	0.81377
29804	10.329	6.	5.e-002	1.727e-006
29805	10.606	6.	0.1	0.69897
29806	10.514	6.	5.e-002	1.3695e-006
29807	10.791	6.	0.1	0.57261
29808	10.699	6.	5.e-002	2.0197e-006
29809	10.976	6.	0.1	0.44784
29810	10.884	6.	5.e-002	1.8763e-006
29811	11.161	6.	0.1	0.33233
29812	11.068	6.	5.e-002	2.2479e-006
29813	11.345	6.	0.1	0.23003
29814	11.253	6.	5.e-002	1.6622e-006
29815	11.53	6.	0.1	0.14247
29816	11.438	6.	5.e-002	2.9068e-006
29817	11.715	6.	0.1	6.9645e-002
29818	11.622	6.	5.e-002	2.0563e-006
29819	11.9	6.	0.1	1.068e-002
29820	11.807	6.	5.e-002	2.3421e-006
29821	12.084	6.	0.1	-3.5786e-002
29822	11.992	6.	5.e-002	3.0397e-006
29823	12.269	6.	0.1	-7.1352e-002
29824	12.177	6.	5.e-002	1.7285e-006
29825	12.454	6.	0.1	-9.762e-002
29826	12.361	6.	5.e-002	7.2715e-006
29827	12.639	6.	0.1	-0.11608
29828	12.546	6.	5.e-002	2.4811e-006
29829	12.823	6.	0.1	-0.12805
29830	12.731	6.	5.e-002	-1.239e-006
29831	13.008	6.	0.1	-0.13476
29832	12.916	6.	5.e-002	3.9338e-006
29833	13.193	6.	0.1	-0.13729
29834	13.1	6.	5.e-002	2.9802e-006
29835	13.378	6.	0.1	-0.13654
29836	13.285	6.	5.e-002	2.7418e-006
29837	13.562	6.	0.1	-0.13324
29838	13.47	6.	5.e-002	4.2319e-006
29839	13.747	6.	0.1	-0.12801
29840	13.655	6.	5.e-002	3.3974e-006
29841	13.932	6.	0.1	-0.12132
29842	13.839	6.	5.e-002	3.2186e-006
29843	14.116	6.	0.1	-0.11359
29844	14.024	6.	5.e-002	3.8147e-006
29845	14.301	6.	0.1	-0.10517
29846	14.209	6.	5.e-002	3.8743e-006
29847	14.486	6.	0.1	-9.6339e-002
29848	14.394	6.	5.e-002	3.2777e-006
29849	14.671	6.	0.1	-8.7285e-002
29850	14.578	6.	5.e-002	4.0531e-006
29851	14.855	6.	0.1	-7.813e-002
29852	14.763	6.	5.e-002	3.5167e-006
29853	15.04	6.	0.1	-6.899e-002
29854	14.948	6.	5.e-002	4.9988e-006
29855	15.225	6.	0.1	-5.9987e-002
29856	15.133	6.	5.e-002	3.8147e-006
29857	15.41	6.	0.1	-5.1187e-002
29858	15.317	6.	5.e-002	3.7015e-006
29859	15.594	6.	0.1	-4.2617e-002
29860	15.502	6.	5.e-002	4.6492e-006
29861	15.779	6.	0.1	-3.4296e-002
29862	15.687	6.	5.e-002	3.9935e-006
29863	15.964	6.	0.1	-2.6216e-002
29864	15.871	6.	5.e-002	4.3511e-006
29865	16.149	6.	0.1	-1.8375e-002
29866	16.056	6.	5.e-002	5.1856e-006
29867	16.333	6.	0.1	-1.0792e-002
29868	16.241	6.	5.e-002	4.7684e-006
29869	16.518	6.	0.1	-3.4636e-003
29870	16.426	6.	5.e-002	3.8743e-006
29871	16.703	6.	0.1	3.6442e-003
29872	16.61	6.	5.e-002	5.0664e-006
29873	16.888	6.	0.1	1.058e-002
29874	16.795	6.	5.e-002	5.1849e-006
29875	17.072	6.	0.1	1.7367e-002
29876	16.98	6.	5.e-002	4.7698e-006
29877	17.257	6.	0.1	2.402e-002
29878	17.165	6.	5.e-002	5.6007e-006
29879	17.442	6.	0.1	3.0566e-002
29880	17.349	6.	5.e-002	4.1127e-006
29881	17.627	6.	0.1	3.7032e-002
29882	17.534	6.	5.e-002	1.2219e-005
29883	17.811	6.	0.1	4.3456e-002
29884	17.719	6.	5.e-002	5.1856e-006
29885	17.996	6.	0.1	4.9899e-002
29886	17.904	6.	5.e-002	-1.3709e-006
29887	18.181	6.	0.1	5.6397e-002
29888	18.088	6.	5.e-002	4.9415e-006
29889	18.365	6.	0.1	6.2964e-002
29890	18.273	6.	5.e-002	5.7753e-006
29891	18.55	6.	0.1	6.9632e-002
29892	18.458	6.	5.e-002	6.3183e-006
29893	18.735	6.	0.1	7.6453e-002
29894	18.643	6.	5.e-002	4.9552e-006
29895	18.92	6.	0.1	8.3488e-002
29896	18.827	6.	5.e-002	6.5389e-006
29897	19.104	6.	0.1	9.0775e-002
29898	19.012	6.	5.e-002	7.0337e-006
29899	19.289	6.	0.1	9.8351e-002
29900	19.197	6.	5.e-002	4.9578e-006
29901	19.474	6.	0.1	0.10627
29902	19.382	6.	5.e-002	5.2338e-006
29903	19.659	6.	0.1	0.11456
29904	19.566	6.	5.e-002	7.0336e-006
29905	19.843	6.	0.1	0.12331
29906	19.751	6.	5.e-002	4.2321e-006
29907	20.028	6.	0.1	0.13257
29908	19.936	6.	5.e-002	8.8667e-006
29909	20.213	6.	0.1	0.14241
29910	20.12	6.	5.e-002	5.4251e-006
29911	20.398	6.	0.1	0.1529
29912	20.305	6.	5.e-002	6.8139e-006
29913	20.582	6.	0.1	0.16411
29914	20.49	6.	5.e-002	6.568e-006
29915	20.767	6.	0.1	0.17613
29916	20.675	6.	5.e-002	7.5336e-006
29917	20.952	6.	0.1	0.18908
29918	20.859	6.	5.e-002	5.068e-006
29919	21.137	6.	0.1	0.20308
29920	21.044	6.	5.e-002	7.7249e-006
29921	21.321	6.	0.1	0.21825
29922	21.229	6.	5.e-002	7.9007e-006
29923	21.506	6.	0.1	0.23476
29924	21.414	6.	5.e-002	6.5593e-006
29925	21.691	6.	0.1	0.2528
29926	21.598	6.	5.e-002	8.9743e-006
29927	21.876	6.	0.1	0.27264
29928	21.783	6.	5.e-002	7.0673e-006
29929	22.06	6.	0.1	0.29459
29930	21.968	6.	5.e-002	6.3755e-006
29931	22.245	6.	0.1	0.31905
29932	22.153	6.	5.e-002	9.9019e-006
29933	22.43	6.	0.1	0.34656
29934	22.337	6.	5.e-002	8.1974e-006
29935	22.614	6.	0.1	0.37787
29936	22.522	6.	5.e-002	6.278e-006
29937	22.799	6.	0.1	0.41396
29938	22.707	6.	5.e-002	7.2693e-006
29939	22.984	6.	0.1	0.45673
29940	22.892	6.	5.e-002	8.4767e-006
29941	23.169	6.	0.1	0.5071
29942	23.076	6.	5.e-002	5.9421e-006
29943	23.353	6.	0.1	0.57655
29944	23.261	6.	5.e-002	9.8995e-006
29945	23.538	6.	0.1	0.65656
29946	23.446	6.	5.e-002	8.2148e-006
29947	23.723	6.	0.1	0.8762
29948	23.631	6.	5.e-002	4.7882e-006
29949	23.908	6.	0.1	0.65431
29950	23.815	6.	5.e-002	8.0347e-006
29951	24.	5.9091	0.1	-2.373
29952	24.	6.	5.e-002	4.0323e-005
29953	24.	5.7273	0.1	-2.1787
29954	24.	5.8182	5.e-002	2.4823e-005
29955	24.	5.5455	0.1	-2.2705
29956	24.	5.6364	5.e-002	2.2228e-005
29957	24.	5.3636	0.1	-2.3859
29958	24.	5.4545	5.e-002	1.7518e-005
29959	24.	5.1818	0.1	-2.4203
29960	24.	5.2727	5.e-002	1.3909e-005
29961	24.	5.	0.1	-2.4494
29962	24.	5.0909	5.e-002	1.1961e-005
29963	24.	4.8182	0.1	-2.4687
29964	24.	4.9091	5.e-002	1.1696e-005
29965	24.	4.6364	0.1	-2.4837
29966	24.	4.7273	5.e-002	1.0144e-005
29967	24.	4.4545	0.1	-2.4951
29968	24.	4.5455	5.e-002	1.2518e-005
29969	24.	4.2727	0.1	-2.504
29970	24.	4.3636	5.e-002	8.2919e-006
29971	24.	4.0909	0.1	-2.511
29972	24.	4.1818	5.e-002	1.1206e-005
29973	24.	3.9091	0.1	-2.5164
29974	24.	4.	5.e-002	8.5173e-006
29975	24.	3.7273	0.1	-2.5206
29976	24.	3.8182	5.e-002	5.3576e-006
29977	24.	3.5455	0.1	-2.5237
29978	24.	3.6364	5.e-002	5.3653e-006
29979	24.	3.3636	0.1	-2.5258
29980	24.	3.4545	5.e-002	2.4792e-006
29981	24.	3.1818	0.1	-2.527
29982	24.	3.2727	5.e-002	2.8041e-006
29983	24.	3.	0.1	-2.5274
29984	24.	3.0909	5.e-002	3.4793e-006
29985	24.	2.8182	0.1	-2.527
29986	24.	2.9091	5.e-002	4.1578e-006
29987	24.	2.6364	0.1	-2.5258
29988	24.	2.7273	5.e-002	5.0771e-006
29989	24.	2.4545	0.1	-2.5237
29990	24.	2.5455	5.e-002	-1.3308e-006
29991	24.	2.2727	0.1	-2.5206
29992	24.	2.3636	5.e-002	3.2064e-006
29993	24.	2.0909	0.1	-2.5164
29994	24.	2.1818	5.e-002	8.4996e-007
29995	24.	1.9091	0.1	-2.511
29996	24.	2.	5.e-002	1.7839e-006
29997	24.	1.7273	0.1	-2.504
29998	24.	1.8182	5.e-002	2.8522e-006
29999	24.	1.5455	0.1	-2.4951
30000	24.	1.6364	5.e-002	9.2691e-007
30001	24.	1.3636	0.1	-2.4837
30002	24.	1.4545	5.e-002	4.0867e-006
30003	24.	1.1818	0.1	-2.4687
30004	24.	1.2727	5.e-002	2.7934e-006
30005	24.	1.	0.1	-2.4494
30006	24.	1.0909	5.e-002	1.8306e-006
30007	24.	0.81818	0.1	-2.4203
30008	24.	0.90909	5.e-002	5.155e-006
30009	24.	0.63636	0.1	-2.3859
30010	24.	0.72727	5.e-002	8.5386e-006
30011	24.	0.45455	0.1	-2.2705
30012	24.	0.54545	5.e-002	5.7225e-006
30013	24.	0.27273	0.1	-2.1787
30014	24.	0.36364	5.e-002	7.4338e-006
30015	24.	9.0909e-002	0.1	-2.373
30016	24.	0.18182	5.e-002	9.8471e-006
30017	2.3842e-015	0.27273	0.1	1765.6
30018	7.9472e-016	9.0909e-002	0.1	379.2
30019	1.6109e-015	0.18182	5.e-002	1.2233e-004
30020	3.9736e-015	0.45455	0.1	2569.
30021	3.2219e-015	0.36364	5.e-002	2.1437e-004
30022	5.563e-015	0.63636	0.1	2982.5
30023	4.8328e-015	0.54545	5.e-002	1.7182e-004
30024	7.1525e-015	0.81818	0.1	3241.
30025	6.4438e-015	0.72727	5.e-002	1.4925e-004
30026	8.7419e-015	1.	0.1	3419.2
30027	8.0547e-015	0.90909	5.e-002	1.3943e-004
30028	1.0331e-014	1.1818	0.1	3548.8
30029	9.6657e-015	1.0909	5.e-002	1.2923e-004
30030	1.1921e-014	1.3636	0.1	3645.9
30031	1.1277e-014	1.2727	5.e-002	1.2107e-005
30032	1.351e-014	1.5455	0.1	3720.1
30033	1.2888e-014	1.4545	5.e-002	6.8476e-005
30034	1.51e-014	1.7273	0.1	3777.5
30035	1.4498e-014	1.6364	5.e-002	1.2405e-004
30036	1.6689e-014	1.9091	0.1	3822.
30037	1.6109e-014	1.8182	5.e-002	1.249e-004
30038	1.8279e-014	2.0909	0.1	3856.3
30039	1.772e-014	2.	5.e-002	6.2173e-005
30040	1.9868e-014	2.2727	0.1	3882.3
30041	1.9331e-014	2.1818	5.e-002	6.2462e-005
30042	2.1457e-014	2.4545	0.1	3901.3
30043	2.0942e-014	2.3636	5.e-002	6.1691e-005
30044	2.3047e-014	2.6364	0.1	3914.2
30045	2.2553e-014	2.5455	5.e-002	-3.2852e-007
30046	2.4636e-014	2.8182	0.1	3921.7
30047	2.4164e-014	2.7273	5.e-002	-1.7342e-007
30048	2.6226e-014	3.	0.1	3924.1
30049	2.5775e-014	2.9091	5.e-002	6.0931e-005
30050	2.7815e-014	3.1818	0.1	3921.7
30051	2.7386e-014	3.0909	5.e-002	6.1201e-005
30052	2.9405e-014	3.3636	0.1	3914.2
30053	2.8997e-014	3.2727	5.e-002	6.066e-007
30054	3.0994e-014	3.5455	0.1	3901.3
30055	3.0608e-014	3.4545	5.e-002	8.7707e-007
30056	3.2583e-014	3.7273	0.1	3882.3
30057	3.2219e-014	3.6364	5.e-002	6.2604e-005
30058	3.4173e-014	3.9091	0.1	3856.3
30059	3.383e-014	3.8182	5.e-002	6.2244e-005
30060	3.5762e-014	4.0909	0.1	3822.
30061	3.5441e-014	4.	5.e-002	2.0299e-006
30062	3.7352e-014	4.2727	0.1	3777.5
30063	3.7052e-014	4.1818	5.e-002	2.3401e-006
30064	3.8941e-014	4.4545	0.1	3720.1
30065	3.8663e-014	4.3636	5.e-002	2.5889e-006
30066	4.0531e-014	4.6364	0.1	3645.9
30067	4.0274e-014	4.5455	5.e-002	2.7356e-006
30068	4.212e-014	4.8182	0.1	3548.8
30069	4.1885e-014	4.7273	5.e-002	2.9259e-006
30070	4.371e-014	5.	0.1	3419.2
30071	4.3495e-014	4.9091	5.e-002	2.788e-006
30072	4.5299e-014	5.1818	0.1	3241.
30073	4.5106e-014	5.0909	5.e-002	2.6082e-006
30074	4.6888e-014	5.3636	0.1	2982.5
30075	4.6717e-014	5.2727	5.e-002	2.1447e-006
30076	4.8478e-014	5.5455	0.1	2569.
30077	4.8328e-014	5.4545	5.e-002	-2.1446e-005
30078	5.0067e-014	5.7273	0.1	1765.6
30079	4.9939e-014	5.6364	5.e-002	-1.3622e-004
30080	5.1657e-014	5.9091	0.1	379.2
30081	5.155e-014	5.8182	5.e-002	-8.4052e-005
30082	23.908	0.	0.1	0.65431
30083	24.	0.	5.e-002	3.1986e-005
30084	23.723	0.	0.1	0.8762
30085	23.815	0.	5.e-002	2.0026e-006
30086	23.538	0.	0.1	0.65656
30087	23.631	0.	5.e-002	1.0811e-005
30088	23.353	0.	0.1	0.57655
30089	23.446	0.	5.e-002	8.4035e-006
30090	23.169	0.	0.1	0.5071
30091	23.261	0.	5.e-002	1.0948e-005
30092	22.984	0.	0.1	0.45674
30093	23.076	0.	5.e-002	9.1413e-006
30094	22.799	0.	0.1	0.41395
30095	22.892	0.	5.e-002	1.2473e-005
30096	22.614	0.	0.1	0.37787
30097	22.707	0.	5.e-002	7.226e-006
30098	22.43	0.	0.1	0.34656
30099	22.522	0.	5.e-002	9.6482e-006
30100	22.245	0.	0.1	0.31906
30101	22.337	0.	5.e-002	7.5518e-006
30102	22.06	0.	0.1	0.29459
30103	22.153	0.	5.e-002	1.0348e-005
30104	21.876	0.	0.1	0.27264
30105	21.968	0.	5.e-002	5.6867e-006
30106	21.691	0.	0.1	0.2528
30107	21.783	0.	5.e-002	9.942e-006
30108	21.506	0.	0.1	0.23475
30109	21.598	0.	5.e-002	6.8264e-006
30110	21.321	0.	0.1	0.21825
30111	21.414	0.	5.e-002	4.3296e-006
30112	21.137	0.	0.1	0.20308
30113	21.229	0.	5.e-002	7.813e-006
30114	20.952	0.	0.1	0.18908
30115	21.044	0.	5.e-002	8.0244e-006
30116	20.767	0.	0.1	0.17613
30117	20.859	0.	5.e-002	6.989e-006
30118	20.582	0.	0.1	0.16411
30119	20.675	0.	5.e-002	5.4723e-006
30120	20.398	0.	0.1	0.1529
30121	20.49	0.	5.e-002	7.4529e-006
30122	20.213	0.	0.1	0.14242
30123	20.305	0.	5.e-002	7.4528e-006
30124	20.028	0.	0.1	0.13257
30125	20.12	0.	5.e-002	5.9888e-006
30126	19.843	0.	0.1	0.12331
30127	19.936	0.	5.e-002	6.3943e-006
30128	19.659	0.	0.1	0.11456
30129	19.751	0.	5.e-002	6.572e-006
30130	19.474	0.	0.1	0.10627
30131	19.566	0.	5.e-002	6.0554e-006
30132	19.289	0.	0.1	9.8353e-002
30133	19.382	0.	5.e-002	5.4964e-006
30134	19.104	0.	0.1	9.0777e-002
30135	19.197	0.	5.e-002	6.4978e-006
30136	18.92	0.	0.1	8.3487e-002
30137	19.012	0.	5.e-002	6.4879e-006
30138	18.735	0.	0.1	7.6453e-002
30139	18.827	0.	5.e-002	6.5062e-006
30140	18.55	0.	0.1	6.9631e-002
30141	18.643	0.	5.e-002	5.7822e-006
30142	18.365	0.	0.1	6.2965e-002
30143	18.458	0.	5.e-002	4.3588e-006
30144	18.181	0.	0.1	5.64e-002
30145	18.273	0.	5.e-002	7.517e-006
30146	17.996	0.	0.1	4.9899e-002
30147	18.088	0.	5.e-002	-2.9855e-006
30148	17.811	0.	0.1	4.3456e-002
30149	17.904	0.	5.e-002	1.4072e-005
30150	17.627	0.	0.1	3.7033e-002
30151	17.719	0.	5.e-002	4.4705e-006
30152	17.442	0.	0.1	3.0566e-002
30153	17.534	0.	5.e-002	4.8281e-006
30154	17.257	0.	0.1	2.4021e-002
30155	17.349	0.	5.e-002	6.0173e-006
30156	17.072	0.	0.1	1.7369e-002
30157	17.165	0.	5.e-002	4.3512e-006
30158	16.888	0.	0.1	1.058e-002
30159	16.98	0.	5.e-002	3.3989e-006
30160	16.703	0.	0.1	3.6449e-003
30161	16.795	0.	5.e-002	6.4976e-006
30162	16.518	0.	0.1	-3.4626e-003
30163	16.61	0.	5.e-002	4.4703e-006
30164	16.333	0.	0.1	-1.0792e-002
30165	16.426	0.	5.e-002	4.7088e-006
30166	16.149	0.	0.1	-1.8374e-002
30167	16.241	0.	5.e-002	4.3512e-006
30168	15.964	0.	0.1	-2.6215e-002
30169	16.056	0.	5.e-002	5.1881e-006
30170	15.779	0.	0.1	-3.4295e-002
30171	15.871	0.	5.e-002	4.1757e-006
30172	15.594	0.	0.1	-4.2616e-002
30173	15.687	0.	5.e-002	4.5343e-006
30174	15.41	0.	0.1	-5.1187e-002
30175	15.502	0.	5.e-002	3.9888e-006
30176	15.225	0.	0.1	-5.9987e-002
30177	15.317	0.	5.e-002	4.0536e-006
30178	15.04	0.	0.1	-6.8989e-002
30179	15.133	0.	5.e-002	4.7759e-006
30180	14.855	0.	0.1	-7.8129e-002
30181	14.948	0.	5.e-002	2.981e-006
30182	14.671	0.	0.1	-8.7285e-002
30183	14.763	0.	5.e-002	3.9529e-006
30184	14.486	0.	0.1	-9.6338e-002
30185	14.578	0.	5.e-002	3.2199e-006
30186	14.301	0.	0.1	-0.10517
30187	14.394	0.	5.e-002	4.0541e-006
30188	14.116	0.	0.1	-0.11359
30189	14.209	0.	5.e-002	3.1615e-006
30190	13.932	0.	0.1	-0.12132
30191	14.024	0.	5.e-002	3.2804e-006
30192	13.747	0.	0.1	-0.12801
30193	13.839	0.	5.e-002	3.5795e-006
30194	13.562	0.	0.1	-0.13324
30195	13.655	0.	5.e-002	3.0425e-006
30196	13.378	0.	0.1	-0.13654
30197	13.47	0.	5.e-002	4.0993e-006
30198	13.193	0.	0.1	-0.13729
30199	13.285	0.	5.e-002	2.6842e-006
30200	13.008	0.	0.1	-0.13476
30201	13.1	0.	5.e-002	3.3418e-006
30202	12.823	0.	0.1	-0.12805
30203	12.916	0.	5.e-002	3.5203e-006
30204	12.639	0.	0.1	-0.11608
30205	12.731	0.	5.e-002	3.3393e-006
30206	12.454	0.	0.1	-9.762e-002
30207	12.546	0.	5.e-002	2.6247e-006
30208	12.269	0.	0.1	-7.1353e-002
30209	12.361	0.	5.e-002	2.7348e-006
30210	12.084	0.	0.1	-3.5786e-002
30211	12.177	0.	5.e-002	2.6555e-006
30212	11.9	0.	0.1	1.068e-002
30213	11.992	0.	5.e-002	3.0697e-006
30214	11.715	0.	0.1	6.9644e-002
30215	11.807	0.	5.e-002	-1.0717e-006
30216	11.53	0.	0.1	0.14247
30217	11.622	0.	5.e-002	6.9945e-006
30218	11.345	0.	0.1	0.23003
30219	11.438	0.	5.e-002	1.8861e-006
30220	11.161	0.	0.1	0.33233
30221	11.253	0.	5.e-002	2.6146e-006
30222	10.976	0.	0.1	0.44784
30223	11.068	0.	5.e-002	2.5461e-006
30224	10.791	0.	0.1	0.57261
30225	10.884	0.	5.e-002	2.1635e-006
30226	10.606	0.	0.1	0.69897
30227	10.699	0.	5.e-002	2.5458e-006
30228	10.422	0.	0.1	0.81377
30229	10.514	0.	5.e-002	1.981e-006
30230	10.237	0.	0.1	0.8962
30231	10.329	0.	5.e-002	1.7866e-006
30232	10.052	0.	0.1	0.91683
30233	10.145	0.	5.e-002	1.7865e-006
30234	9.8675	0.	0.1	0.83303
30235	9.9598	0.	5.e-002	1.7867e-006
30236	9.6827	0.	0.1	0.60642
30237	9.7751	0.	5.e-002	1.2472e-006
30238	9.498	0.	0.1	0.14924
30239	9.5904	0.	5.e-002	9.392e-007
30240	9.3133	0.	0.1	-0.40619
30241	9.4056	0.	5.e-002	-2.9283e-012
30242	9.1285	0.	0.1	-1.7355
30243	9.2209	0.	5.e-002	1.4293e-006
30244	8.9438	0.	0.1	-0.2635
30245	9.0361	0.	5.e-002	1.4156e-006
30246	8.759	0.	0.1	16.174
30247	8.8514	0.	5.e-002	-4.194e-015
30248	8.6667	0.	5.e-002	6.9055e-007
30249	8.4076	-3.84e-030	0.1	18.734
30250	8.5	-3.8822e-030	5.e-002	2.5696e-006
30251	8.2228	-3.7556e-030	0.1	0.5376
30252	8.3152	0.	5.e-002	5.1492e-007
30253	8.038	-3.6712e-030	0.1	-1.2401
30254	8.1304	0.	5.e-002	2.1677e-006
30255	7.8533	-3.5868e-030	0.1	0.2381
30256	7.9457	0.	5.e-002	-4.557e-009
30257	7.6685	-3.5024e-030	0.1	0.82778
30258	7.7609	0.	5.e-002	-1.795e-007
30259	7.4837	-3.418e-030	0.1	1.3072
30260	7.5761	0.	5.e-002	-1.3728e-007
30261	7.2989	-3.3336e-030	0.1	1.5146
30262	7.3913	0.	5.e-002	7.1216e-007
30263	7.1141	-3.2492e-030	0.1	1.5501
30264	7.2065	0.	5.e-002	4.7362e-007
30265	6.9293	-3.1648e-030	0.1	1.4569
30266	7.0217	0.	5.e-002	5.895e-007
30267	6.7446	-3.0804e-030	0.1	1.2845
30268	6.837	0.	5.e-002	1.5226e-006
30269	6.5598	-2.996e-030	0.1	1.0677
30270	6.6522	0.	5.e-002	2.8174e-006
30271	6.375	-2.9116e-030	0.1	0.83152
30272	6.4674	0.	5.e-002	4.0691e-006
30273	6.1902	-2.8272e-030	0.1	0.59239
30274	6.2826	0.	5.e-002	5.2803e-006
30275	6.0054	-2.7429e-030	0.1	0.36084
30276	6.0978	0.	5.e-002	1.2037e-005
30277	5.8207	-2.6585e-030	0.1	0.14581
30278	5.913	0.	5.e-002	1.0266e-005
30279	5.6359	-2.5741e-030	0.1	-4.1163e-003
30280	5.7283	0.	5.e-002	1.5494e-006
30281	5.4511	-2.4897e-030	0.1	0.37609
30282	5.5435	0.	5.e-002	7.1327e-007
30283	5.2663	-2.4053e-030	0.1	0.90148
30284	5.3587	0.	5.e-002	3.0079e-006
30285	5.0815	-2.3209e-030	0.1	1.3668
30286	5.1739	0.	5.e-002	2.0952e-006
30287	4.8967	-2.2365e-030	0.1	1.7572
30288	4.9891	0.	5.e-002	2.7879e-006
30289	4.712	-2.1521e-030	0.1	2.0618
30290	4.8043	0.	5.e-002	2.2571e-006
30291	4.5272	-2.0677e-030	0.1	2.2673
30292	4.6196	0.	5.e-002	1.8192e-006
30293	4.3424	-1.9833e-030	0.1	2.3569
30294	4.4348	0.	5.e-002	1.664e-006
30295	4.1576	-1.8989e-030	0.1	2.3107
30296	4.25	0.	5.e-002	9.0878e-007
30297	3.9728	-1.8145e-030	0.1	2.1052
30298	4.0652	0.	5.e-002	7.5125e-007
30299	3.788	-1.7301e-030	0.1	1.7139
30300	3.8804	0.	5.e-002	6.3203e-007
30301	3.6033	-1.6457e-030	0.1	1.1088
30302	3.6957	0.	5.e-002	5.4042e-007
30303	3.4185	-1.5613e-030	0.1	0.26927
30304	3.5109	0.	5.e-002	4.6895e-007
30305	3.2337	-1.4769e-030	0.1	-0.77773
30306	3.3261	0.	5.e-002	4.124e-007
30307	3.0489	-1.3925e-030	0.1	-1.7799
30308	3.1413	0.	5.e-002	5.5061e-007
30309	2.8641	-1.3081e-030	0.1	-2.3703
30310	2.9565	0.	5.e-002	3.3032e-007
30311	2.6793	-1.2237e-030	0.1	-2.7377
30312	2.7717	0.	5.e-002	3.0021e-007
30313	2.4946	-1.1393e-030	0.1	-3.0528
30314	2.587	0.	5.e-002	2.7536e-007
30315	2.3098	-1.0549e-030	0.1	-3.3653
30316	2.4022	0.	5.e-002	2.5471e-007
30317	2.125	-9.7055e-031	0.1	-3.6944
30318	2.2174	0.	5.e-002	2.3749e-007
30319	1.9402	-8.8615e-031	0.1	-4.0514
30320	2.0326	0.	5.e-002	2.2311e-007
30321	1.7554	-8.0176e-031	0.1	-4.4485
30322	1.8478	0.	5.e-002	3.1665e-007
30323	1.5707	-7.1736e-031	0.1	-4.893
30324	1.663	0.	5.e-002	2.011e-007
30325	1.3859	-6.3297e-031	0.1	-5.4171
30326	1.4783	0.	5.e-002	1.9279e-007
30327	1.2011	-5.4857e-031	0.1	-5.9879
30328	1.2935	0.	5.e-002	2.7871e-007
30329	1.0163	-4.6417e-031	0.1	-6.8074
30330	1.1087	0.	5.e-002	1.7953e-007
30331	0.83152	-3.7978e-031	0.1	-7.429
30332	0.92391	0.	5.e-002	2.603e-007
30333	0.64674	-2.9538e-031	0.1	-8.9085
30334	0.73913	0.	5.e-002	1.6299e-007
30335	0.46196	-2.1099e-031	0.1	-13.444
30336	0.55435	0.	5.e-002	1.5261e-007
30337	0.27717	-1.2659e-031	0.1	18.969
30338	0.36957	0.	5.e-002	1.4128e-007
30339	9.2391e-002	-4.2198e-032	0.1	-164.89
30340	0.18478	0.	5.e-002	-3.0517e-005
30341	0.	0.	5.e-002	2.542e-004
30342	9.2391e-002	6.	0.1	-164.89
30343	5.2451e-014	6.	5.e-002	-5.9725e-005
30344	0.27717	6.	0.1	18.969
30345	0.18478	6.	5.e-002	-1.7933e-013
30346	0.46196	6.	0.1	-13.444
30347	0.36957	6.	5.e-002	-8.0454e-007
30348	0.64674	6.	0.1	-8.9085
30349	0.55435	6.	5.e-002	-7.6307e-008
30350	0.83152	6.	0.1	-7.429
30351	0.73913	6.	5.e-002	-8.1497e-008
30352	1.0163	6.	0.1	-6.8074
30353	0.92391	6.	5.e-002	-1.7353e-007
30354	1.2011	6.	0.1	-5.9879
30355	1.1087	6.	5.e-002	-1.7954e-007
30356	1.3859	6.	0.1	-5.4171
30357	1.2935	6.	5.e-002	-7.6365e-014
30358	1.5707	6.	0.1	-4.893
30359	1.4783	6.	5.e-002	-1.9279e-007
30360	1.7554	6.	0.1	-4.4485
30361	1.663	6.	5.e-002	-6.1503e-014
30362	1.9402	6.	0.1	-4.0514
30363	1.8478	6.	5.e-002	-1.0555e-007
30364	2.125	6.	0.1	-3.6944
30365	2.0326	6.	5.e-002	-1.1155e-007
30366	2.3098	6.	0.1	-3.3653
30367	2.2174	6.	5.e-002	-2.3749e-007
30368	2.4946	6.	0.1	-3.0528
30369	2.4022	6.	5.e-002	-1.2736e-007
30370	2.6793	6.	0.1	-2.7377
30371	2.587	6.	5.e-002	-1.3768e-007
30372	2.8641	6.	0.1	-2.3703
30373	2.7717	6.	5.e-002	-3.0021e-007
30374	3.0489	6.	0.1	-1.7799
30375	2.9565	6.	5.e-002	-2.6999e-014
30376	3.2337	6.	0.1	-0.77773
30377	3.1413	6.	5.e-002	-2.3565e-014
30378	3.4185	6.	0.1	0.26927
30379	3.3261	6.	5.e-002	-2.0415e-014
30380	3.6033	6.	0.1	1.1088
30381	3.5109	6.	5.e-002	-2.3448e-007
30382	3.788	6.	0.1	1.7139
30383	3.6957	6.	5.e-002	-2.7021e-007
30384	3.9728	6.	0.1	2.1052
30385	3.8804	6.	5.e-002	-3.1601e-007
30386	4.1576	6.	0.1	2.3107
30387	4.0652	6.	5.e-002	-3.7562e-007
30388	4.3424	6.	0.1	2.3569
30389	4.25	6.	5.e-002	-4.5439e-007
30390	4.5272	6.	0.1	2.2673
30391	4.4348	6.	5.e-002	-5.5988e-007
30392	4.712	6.	0.1	2.0618
30393	4.6196	6.	5.e-002	-4.0585e-007
30394	4.8967	6.	0.1	1.7572
30395	4.8043	6.	5.e-002	4.5828e-007
30396	5.0815	6.	0.1	1.3668
30397	4.9891	6.	5.e-002	2.9527e-007
30398	5.2663	6.	0.1	0.90148
30399	5.1739	6.	5.e-002	-9.3449e-007
30400	5.4511	6.	0.1	0.37609
30401	5.3587	6.	5.e-002	-9.9943e-007
30402	5.6359	6.	0.1	-4.1151e-003
30403	5.5435	6.	5.e-002	5.2565e-007
30404	5.8207	6.	0.1	0.14581
30405	5.7283	6.	5.e-002	3.9867e-007
30406	6.0054	6.	0.1	0.36084
30407	5.913	6.	5.e-002	-8.9364e-006
30408	6.1902	6.	0.1	0.59239
30409	6.0978	6.	5.e-002	-4.9091e-006
30410	6.375	6.	0.1	0.83152
30411	6.2826	6.	5.e-002	-3.5468e-006
30412	6.5598	6.	0.1	1.0677
30413	6.4674	6.	5.e-002	-1.1054e-006
30414	6.7446	6.	0.1	1.2845
30415	6.6522	6.	5.e-002	-1.7871e-006
30416	6.9293	6.	0.1	1.4569
30417	6.837	6.	5.e-002	1.24e-007
30418	7.1141	6.	0.1	1.5501
30419	7.0217	6.	5.e-002	3.5496e-007
30420	7.2989	6.	0.1	1.5146
30421	7.2065	6.	5.e-002	-1.4062e-008
30422	7.4837	6.	0.1	1.3072
30423	7.3913	6.	5.e-002	6.8512e-007
30424	7.6685	6.	0.1	0.82778
30425	7.5761	6.	5.e-002	9.5153e-007
30426	7.8533	6.	0.1	0.2381
30427	7.7609	6.	5.e-002	9.5315e-007
30428	8.038	6.	0.1	-1.2401
30429	7.9457	6.	5.e-002	9.5809e-007
30430	8.2228	6.	0.1	0.5376
30431	8.1304	6.	5.e-002	1.4165e-006
30432	8.4076	6.	0.1	18.734
30433	8.3152	6.	5.e-002	-5.4679e-007
30434	8.5	6.	5.e-002	3.4264e-008
30435	8.2228	6.	0.	-0.5376
30436	8.4076	6.	0.	-18.734
30437	8.038	6.	0.	1.2401
30438	7.8533	6.	0.	-0.2381
30439	7.6685	6.	0.	-0.82778
30440	7.4837	6.	0.	-1.3072
30441	7.2989	6.	0.	-1.5146
30442	7.1141	6.	0.	-1.5501
30443	6.9293	6.	0.	-1.4569
30444	6.7446	6.	0.	-1.2845
30445	6.5598	6.	0.	-1.0677
30446	6.375	6.	0.	-0.83152
30447	6.1902	6.	0.	-0.59239
30448	6.0054	6.	0.	-0.36084
30449	5.8207	6.	0.	-0.14581
30450	5.6359	6.	0.	4.1152e-003
30451	5.4511	6.	0.	-0.37609
30452	5.2663	6.	0.	-0.90148
30453	5.0815	6.	0.	-1.3668
30454	4.8967	6.	0.	-1.7572
30455	4.712	6.	0.	-2.0618
30456	4.5272	6.	0.	-2.2673
30457	4.3424	6.	0.	-2.3569
30458	4.1576	6.	0.	-2.3107
30459	3.9728	6.	0.	-2.1052
30460	3.788	6.	0.	-1.7139
30461	3.6033	6.	0.	-1.1088
30462	3.4185	6.	0.	-0.26927
30463	3.2337	6.	0.	0.77773
30464	3.0489	6.	0.	1.7799
30465	2.8641	6.	0.	2.3703
30466	2.6793	6.	0.	2.7377
30467	2.4946	6.	0.	3.0528
30468	2.3098	6.	0.	3.3653
30469	2.125	6.	0.	3.6944
30470	1.9402	6.	0.	4.0514
30471	1.7554	6.	0.	4.4485
30472	1.5707	6.	0.	4.893
30473	1.3859	6.	0.	5.4171
30474	1.2011	6.	0.	5.9879
30475	1.0163	6.	0.	6.8074
30476	0.83152	6.	0.	7.429
30477	0.64674	6.	0.	8.9085
30478	0.46196	6.	0.	13.444
30479	0.27717	6.	0.	-18.969
30480	9.2391e-002	6.	0.	164.89
30481	8.5	5.9091	0.	3.1662
30482	5.1657e-014	5.9091	0.	-379.2
30483	0.27717	-1.2659e-031	0.	-18.969
30484	9.2391e-002	-4.2198e-032	0.	164.89
30485	0.46196	-2.1099e-031	0.	13.444
30486	0.64674	-2.9538e-031	0.	8.9085
30487	0.83152	-3.7978e-031	0.	7.429
30488	1.0163	-4.6417e-031	0.	6.8074
30489	1.2011	-5.4857e-031	0.	5.9879
30490	1.3859	-6.3297e-031	0.	5.4171
30491	1.5707	-7.1736e-031	0.	4.893
30492	1.7554	-8.0176e-031	0.	4.4485
30493	1.9402	-8.8615e-031	0.	4.0514
30494	2.125	-9.7055e-031	0.	3.6944
30495	2.3098	-1.0549e-030	0.	3.3653
30496	2.4946	-1.1393e-030	0.	3.0528
30497	2.6793	-1.2237e-030	0.	2.7377
30498	2.8641	-1.3081e-030	0.	2.3703
30499	3.0489	-1.3925e-030	0.	1.7799
30500	3.2337	-1.4769e-030	0.	0.77773
30501	3.4185	-1.5613e-030	0.	-0.26927
30502	3.6033	-1.6457e-030	0.	-1.1088
30503	3.788	-1.7301e-030	0.	-1.7139
30504	3.9728	-1.8145e-030	0.	-2.1052
30505	4.1576	-1.8989e-030	0.	-2.3107
30506	4.3424	-1.9833e-030	0.	-2.3569
30507	4.5272	-2.0677e-030	0.	-2.2673
30508	4.712	-2.1521e-030	0.	-2.0618
30509	4.8967	-2.2365e-030	0.	-1.7572
30510	5.0815	-2.3209e-030	0.	-1.3668
30511	5.2663	-2.4053e-030	0.	-0.90148
30512	5.4511	-2.4897e-030	0.	-0.37609
30513	5.6359	-2.5741e-030	0.	4.1164e-003
30514	5.8207	-2.6585e-030	0.	-0.14581
30515	6.0054	-2.7429e-030	0.	-0.36084
30516	6.1902	-2.8272e-030	0.	-0.59239
30517	6.375	-2.9116e-030	0.	-0.83152
30518	6.5598	-2.996e-030	0.	-1.0677
30519	6.7446	-3.0804e-030	0.	-1.2845
30520	6.9293	-3.1648e-030	0.	-1.4569
30521	7.1141	-3.2492e-030	0.	-1.5501
30522	7.2989	-3.3336e-030	0.	-1.5146
30523	7.4837	-3.418e-030	0.	-1.3072
30524	7.6685	-3.5024e-030	0.	-0.82778
30525	7.8533	-3.5868e-030	0.	-0.2381
30526	8.038	-3.6712e-030	0.	1.2401
30527	8.2228	-3.7556e-030	0.	-0.5376
30528	8.4076	-3.84e-030	0.	-18.734
30529	8.5	9.0909e-002	0.	3.1662
30530	7.9472e-016	9.0909e-002	0.	-379.2
30531	8.9438	0.	0.	0.2635
30532	8.759	0.	0.	-16.174
30533	9.1285	0.	0.	1.7355
30534	9.3133	0.	0.	0.40619
30535	9.498	0.	0.	-0.14924
30536	9.6827	0.	0.	-0.60642
30537	9.8675	0.	0.	-0.83303
30538	10.052	0.	0.	-0.91683
30539	10.237	0.	0.	-0.8962
30540	10.422	0.	0.	-0.81377
30541	10.606	0.	0.	-0.69897
30542	10.791	0.	0.	-0.57261
30543	10.976	0.	0.	-0.44784
30544	11.161	0.	0.	-0.33233
30545	11.345	0.	0.	-0.23003
30546	11.53	0.	0.	-0.14247
30547	11.715	0.	0.	-6.9644e-002
30548	11.9	0.	0.	-1.0681e-002
30549	12.084	0.	0.	3.5786e-002
30550	12.269	0.	0.	7.1353e-002
30551	12.454	0.	0.	9.762e-002
30552	12.639	0.	0.	0.11608
30553	12.823	0.	0.	0.12805
30554	13.008	0.	0.	0.13476
30555	13.193	0.	0.	0.13729
30556	13.378	0.	0.	0.13654
30557	13.562	0.	0.	0.13325
30558	13.747	0.	0.	0.12801
30559	13.932	0.	0.	0.12132
30560	14.116	0.	0.	0.11359
30561	14.301	0.	0.	0.10517
30562	14.486	0.	0.	9.6339e-002
30563	14.671	0.	0.	8.7285e-002
30564	14.855	0.	0.	7.8129e-002
30565	15.04	0.	0.	6.8989e-002
30566	15.225	0.	0.	5.9988e-002
30567	15.41	0.	0.	5.1187e-002
30568	15.594	0.	0.	4.2616e-002
30569	15.779	0.	0.	3.4296e-002
30570	15.964	0.	0.	2.6216e-002
30571	16.149	0.	0.	1.8375e-002
30572	16.333	0.	0.	1.0793e-002
30573	16.518	0.	0.	3.4641e-003
30574	16.703	0.	0.	-3.6433e-003
30575	16.888	0.	0.	-1.0579e-002
30576	17.072	0.	0.	-1.7368e-002
30577	17.257	0.	0.	-2.402e-002
30578	17.442	0.	0.	-3.0566e-002
30579	17.627	0.	0.	-3.7032e-002
30580	17.811	0.	0.	-4.3454e-002
30581	17.996	0.	0.	-4.9898e-002
30582	18.181	0.	0.	-5.6399e-002
30583	18.365	0.	0.	-6.2964e-002
30584	18.55	0.	0.	-6.9631e-002
30585	18.735	0.	0.	-7.6454e-002
30586	18.92	0.	0.	-8.3487e-002
30587	19.104	0.	0.	-9.0774e-002
30588	19.289	0.	0.	-9.8352e-002
30589	19.474	0.	0.	-0.10627
30590	19.659	0.	0.	-0.11456
30591	19.843	0.	0.	-0.12331
30592	20.028	0.	0.	-0.13257
30593	20.213	0.	0.	-0.14242
30594	20.398	0.	0.	-0.1529
30595	20.582	0.	0.	-0.16411
30596	20.767	0.	0.	-0.17613
30597	20.952	0.	0.	-0.18908
30598	21.137	0.	0.	-0.20308
30599	21.321	0.	0.	-0.21824
30600	21.506	0.	0.	-0.23476
30601	21.691	0.	0.	-0.2528
30602	21.876	0.	0.	-0.27264
30603	22.06	0.	0.	-0.29459
30604	22.245	0.	0.	-0.31905
30605	22.43	0.	0.	-0.34656
30606	22.614	0.	0.	-0.37787
30607	22.799	0.	0.	-0.41395
30608	22.984	0.	0.	-0.45673
30609	23.169	0.	0.	-0.5071
30610	23.353	0.	0.	-0.57655
30611	23.538	0.	0.	-0.65656
30612	23.723	0.	0.	-0.8762
30613	23.908	0.	0.	-0.6543
30614	8.6667	9.0909e-002	0.	0.25618
30615	24.	9.0909e-002	0.	2.373
30616	5.0067e-014	5.7273	0.	-1765.6
30617	4.8478e-014	5.5455	0.	-2569.
30618	4.6888e-014	5.3636	0.	-2982.5
30619	4.5299e-014	5.1818	0.	-3241.
30620	4.371e-014	5.	0.	-3419.2
30621	4.212e-014	4.8182	0.	-3548.8
30622	4.0531e-014	4.6364	0.	-3645.9
30623	3.8941e-014	4.4545	0.	-3720.1
30624	3.7352e-014	4.2727	0.	-3777.5
30625	3.5762e-014	4.0909	0.	-3822.
30626	3.4173e-014	3.9091	0.	-3856.3
30627	3.2583e-014	3.7273	0.	-3882.3
30628	3.0994e-014	3.5455	0.	-3901.3
30629	2.9405e-014	3.3636	0.	-3914.2
30630	2.7815e-014	3.1818	0.	-3921.7
30631	2.6226e-014	3.	0.	-3924.1
30632	2.4636e-014	2.8182	0.	-3921.7
30633	2.3047e-014	2.6364	0.	-3914.2
30634	2.1457e-014	2.4545	0.	-3901.3
30635	1.9868e-014	2.2727	0.	-3882.3
30636	1.8279e-014	2.0909	0.	-3856.3
30637	1.6689e-014	1.9091	0.	-3822.
30638	1.51e-014	1.7273	0.	-3777.5
30639	1.351e-014	1.5455	0.	-3720.1
30640	1.1921e-014	1.3636	0.	-3645.9
30641	1.0331e-014	1.1818	0.	-3548.8
30642	8.7419e-015	1.	0.	-3419.2
30643	7.1525e-015	0.81818	0.	-3241.
30644	5.563e-015	0.63636	0.	-2982.5
30645	3.9736e-015	0.45455	0.	-2569.
30646	2.3842e-015	0.27273	0.	-1765.6
30647	24.	0.27273	0.	2.1787
30648	24.	0.45455	0.	2.2705
30649	24.	0.63636	0.	2.3859
30650	24.	0.81818	0.	2.4203
30651	24.	1.	0.	2.4494
30652	24.	1.1818	0.	2.4687
30653	24.	1.3636	0.	2.4837
30654	24.	1.5455	0.	2.4951
30655	24.	1.7273	0.	2.504
30656	24.	1.9091	0.	2.511
30657	24.	2.0909	0.	2.5164
30658	24.	2.2727	0.	2.5206
30659	24.	2.4545	0.	2.5237
30660	24.	2.6364	0.	2.5258
30661	24.	2.8182	0.	2.527
30662	24.	3.	0.	2.5274
30663	24.	3.1818	0.	2.527
30664	24.	3.3636	0.	2.5258
30665	24.	3.5455	0.	2.5237
30666	24.	3.7273	0.	2.5206
30667	24.	3.9091	0.	2.5164
30668	24.	4.0909	0.	2.511
30669	24.	4.2727	0.	2.504
30670	24.	4.4545	0.	2.4951
30671	24.	4.6364	0.	2.4837
30672	24.	4.8182	0.	2.4687
30673	24.	5.	0.	2.4494
30674	24.	5.1818	0.	2.4203
30675	24.	5.3636	0.	2.3859
30676	24.	5.5455	0.	2.2705
30677	24.	5.7273	0.	2.1787
30678	24.	5.9091	0.	2.373
30679	23.908	6.	0.	-0.6543
30680	23.723	6.	0.	-0.8762
30681	23.538	6.	0.	-0.65656
30682	23.353	6.	0.	-0.57655
30683	23.169	6.	0.	-0.5071
30684	22.984	6.	0.	-0.45673
30685	22.799	6.	0.	-0.41395
30686	22.614	6.	0.	-0.37787
30687	22.43	6.	0.	-0.34656
30688	22.245	6.	0.	-0.31905
30689	22.06	6.	0.	-0.29459
30690	21.876	6.	0.	-0.27264
30691	21.691	6.	0.	-0.2528
30692	21.506	6.	0.	-0.23475
30693	21.321	6.	0.	-0.21824
30694	21.137	6.	0.	-0.20308
30695	20.952	6.	0.	-0.18908
30696	20.767	6.	0.	-0.17613
30697	20.582	6.	0.	-0.16411
30698	20.398	6.	0.	-0.1529
30699	20.213	6.	0.	-0.14241
30700	20.028	6.	0.	-0.13257
30701	19.843	6.	0.	-0.12331
30702	19.659	6.	0.	-0.11456
30703	19.474	6.	0.	-0.10626
30704	19.289	6.	0.	-9.8351e-002
30705	19.104	6.	0.	-9.0774e-002
30706	18.92	6.	0.	-8.3486e-002
30707	18.735	6.	0.	-7.6453e-002
30708	18.55	6.	0.	-6.9631e-002
30709	18.365	6.	0.	-6.2962e-002
30710	18.181	6.	0.	-5.6396e-002
30711	17.996	6.	0.	-4.99e-002
30712	17.811	6.	0.	-4.3457e-002
30713	17.627	6.	0.	-3.7032e-002
30714	17.442	6.	0.	-3.0565e-002
30715	17.257	6.	0.	-2.4019e-002
30716	17.072	6.	0.	-1.7367e-002
30717	16.888	6.	0.	-1.058e-002
30718	16.703	6.	0.	-3.6441e-003
30719	16.518	6.	0.	3.4647e-003
30720	16.333	6.	0.	1.0794e-002
30721	16.149	6.	0.	1.8376e-002
30722	15.964	6.	0.	2.6217e-002
30723	15.779	6.	0.	3.4296e-002
30724	15.594	6.	0.	4.2617e-002
30725	15.41	6.	0.	5.1188e-002
30726	15.225	6.	0.	5.9987e-002
30727	15.04	6.	0.	6.899e-002
30728	14.855	6.	0.	7.813e-002
30729	14.671	6.	0.	8.7286e-002
30730	14.486	6.	0.	9.6339e-002
30731	14.301	6.	0.	0.10517
30732	14.116	6.	0.	0.11359
30733	13.932	6.	0.	0.12132
30734	13.747	6.	0.	0.12801
30735	13.562	6.	0.	0.13325
30736	13.378	6.	0.	0.13654
30737	13.193	6.	0.	0.13729
30738	13.008	6.	0.	0.13476
30739	12.823	6.	0.	0.12805
30740	12.639	6.	0.	0.11608
30741	12.454	6.	0.	9.7621e-002
30742	12.269	6.	0.	7.1353e-002
30743	12.084	6.	0.	3.5787e-002
30744	11.9	6.	0.	-1.0679e-002
30745	11.715	6.	0.	-6.9646e-002
30746	11.53	6.	0.	-0.14247
30747	11.345	6.	0.	-0.23003
30748	11.161	6.	0.	-0.33233
30749	10.976	6.	0.	-0.44784
30750	10.791	6.	0.	-0.57261
30751	10.606	6.	0.	-0.69897
30752	10.422	6.	0.	-0.81377
30753	10.237	6.	0.	-0.8962
30754	10.052	6.	0.	-0.91683
30755	9.8675	6.	0.	-0.83303
30756	9.6827	6.	0.	-0.60642
30757	9.498	6.	0.	-0.14924
30758	9.3133	6.	0.	0.40619
30759	9.1285	6.	0.	1.7355
30760	8.9438	6.	0.	0.2635
30761	8.759	6.	0.	-16.174
30762	8.6667	5.9091	0.	0.25618
30763	8.5	1.7273	0.	55.447
30764	8.5	1.9091	0.	-1041.
30765	8.5	1.5455	0.	72.267
30766	8.5	1.3636	0.	31.359
30767	8.5	1.1818	0.	28.441
30768	8.5	1.	0.	22.153
30769	8.5	0.81818	0.	19.693
30770	8.5	0.63636	0.	17.509
30771	8.5	0.45455	0.	16.586
30772	8.5	0.27273	0.	14.762
30773	8.5833	2.	0.	-1865.4
30774	8.6667	0.27273	0.	12.014
30775	8.6667	0.45455	0.	13.766
30776	8.6667	0.63636	0.	14.658
30777	8.6667	0.81818	0.	16.743
30778	8.6667	1.	0.	19.156
30779	8.6667	1.1818	0.	25.078
30780	8.6667	1.3636	0.	28.294
30781	8.6667	1.5455	0.	67.533
30782	8.6667	1.7273	0.	55.756
30783	8.6667	1.9091	0.	-1175.4
30784	8.5	4.2727	0.	55.447
30785	8.5	4.0909	0.	-1041.
30786	8.5	4.4545	0.	72.267
30787	8.5	4.6364	0.	31.359
30788	8.5	4.8182	0.	28.441
30789	8.5	5.	0.	22.153
30790	8.5	5.1818	0.	19.693
30791	8.5	5.3636	0.	17.509
30792	8.5	5.5455	0.	16.586
30793	8.5	5.7273	0.	14.762
30794	8.5833	4.	0.	-1865.4
30795	8.6667	5.7273	0.	12.014
30796	8.6667	5.5455	0.	13.766
30797	8.6667	5.3636	0.	14.658
30798	8.6667	5.1818	0.	16.743
30799	8.6667	5.	0.	19.156
30800	8.6667	4.8182	0.	25.078
30801	8.6667	4.6364	0.	28.294
30802	8.6667	4.4545	0.	67.533
30803	8.6667	4.2727	0.	55.756
30804	8.6667	4.0909	0.	-1175.4
