Node Number	X Location (in)	Y Location (in)	Z Location (in)	Middle Principal Stress (psi)
1	8.	2.2	0.	173.95
2	8.	2.4	0.	-30.026
3	8.	2.6	0.	3.7065
4	8.	2.8	0.	-2.5747
5	8.	3.	0.	-0.74864
6	8.	3.2	0.	-2.5747
7	8.	3.4	0.	3.7065
8	8.	3.6	0.	-30.026
9	8.	3.8	0.	173.95
10	8.1667	2.2	0.	112.97
11	8.1667	2.4	0.	-31.965
12	8.1667	2.6	0.	3.6681
13	8.1667	2.8	0.	-2.6057
14	8.1667	3.	0.	-0.67796
15	8.1667	3.2	0.	-2.6057
16	8.1667	3.4	0.	3.6681
17	8.1667	3.6	0.	-31.966
18	8.1667	3.8	0.	112.97
19	7.8	5.8	0.	-23.264
20	7.8	5.6	0.	-10.972
21	7.8	5.4	0.	-8.9777
22	7.8	5.2	0.	-7.9774
23	7.8	5.	0.	-9.4703
24	7.8	4.8	0.	-7.0877
25	7.8	4.6	0.	-23.756
26	7.8	4.4	0.	19.041
27	7.8	4.2	0.	-129.18
28	7.8	4.	0.	-548.55
29	7.8	3.8	0.	24.841
30	7.8	3.6	0.	-12.916
31	7.8	3.4	0.	5.8471
32	7.8	3.2	0.	-2.1297
33	7.8	3.	0.	1.0592
34	7.8	2.8	0.	-2.1297
35	7.8	2.6	0.	5.8471
36	7.8	2.4	0.	-12.916
37	7.8	2.2	0.	24.841
38	7.8	2.	0.	-548.55
39	7.8	1.8	0.	-129.18
40	7.8	1.6	0.	19.041
41	7.8	1.4	0.	-23.756
42	7.8	1.2	0.	-7.0877
43	7.8	1.	0.	-9.4703
44	7.8	0.8	0.	-7.9774
45	7.8	0.6	0.	-8.9777
46	7.8	0.4	0.	-10.972
47	7.8	0.2	0.	-23.264
48	7.6	5.8	0.	-4.5021
49	7.6	5.6	0.	-1.6468
50	7.6	5.4	0.	-0.17647
51	7.6	5.2	0.	0.81965
52	7.6	5.	0.	1.6813
53	7.6	4.8	0.	2.02
54	7.6	4.6	0.	2.1886
55	7.6	4.4	0.	9.8373
56	7.6	4.2	0.	15.467
57	7.6	4.	0.	67.697
58	7.6	3.8	0.	30.35
59	7.6	3.6	0.	-10.208
60	7.6	3.4	0.	1.365
61	7.6	3.2	0.	-0.14058
62	7.6	3.	0.	7.7286e-002
63	7.6	2.8	0.	-0.14058
64	7.6	2.6	0.	1.365
65	7.6	2.4	0.	-10.208
66	7.6	2.2	0.	30.35
67	7.6	2.	0.	67.697
68	7.6	1.8	0.	15.468
69	7.6	1.6	0.	9.8373
70	7.6	1.4	0.	2.1886
71	7.6	1.2	0.	2.02
72	7.6	1.	0.	1.6813
73	7.6	0.8	0.	0.81965
74	7.6	0.6	0.	-0.17647
75	7.6	0.4	0.	-1.6468
76	7.6	0.2	0.	-4.5021
77	7.4	5.8	0.	-1.6141
78	7.4	5.6	0.	-1.5717
79	7.4	5.4	0.	-1.2674
80	7.4	5.2	0.	-1.0757
81	7.4	5.	0.	-1.2629
82	7.4	4.8	0.	-1.2419
83	7.4	4.6	0.	-1.1651
84	7.4	4.4	0.	-9.731
85	7.4	4.2	0.	-4.7121
86	7.4	4.	0.	-14.292
87	7.4	3.8	0.	-9.5365
88	7.4	3.6	0.	5.5067
89	7.4	3.4	0.	-5.1803e-002
90	7.4	3.2	0.	0.48379
91	7.4	3.	0.	0.43981
92	7.4	2.8	0.	0.48379
93	7.4	2.6	0.	-5.1801e-002
94	7.4	2.4	0.	5.5067
95	7.4	2.2	0.	-9.5365
96	7.4	2.	0.	-14.292
97	7.4	1.8	0.	-4.7121
98	7.4	1.6	0.	-9.731
99	7.4	1.4	0.	-1.1651
100	7.4	1.2	0.	-1.2419
101	7.4	1.	0.	-1.2629
102	7.4	0.8	0.	-1.0757
103	7.4	0.6	0.	-1.2673
104	7.4	0.4	0.	-1.5717
105	7.4	0.2	0.	-1.6141
106	7.2	5.8	0.	0.38707
107	7.2	5.6	0.	-0.31056
108	7.2	5.4	0.	-0.33123
109	7.2	5.2	0.	-0.42147
110	7.2	5.	0.	-0.48557
111	7.2	4.8	0.	-0.83261
112	7.2	4.6	0.	-1.307
113	7.2	4.4	0.	6.9916e-002
114	7.2	4.2	0.	-1.6936
115	7.2	4.	0.	0.87165
116	7.2	3.8	0.	2.35
117	7.2	3.6	0.	-0.18715
118	7.2	3.4	0.	0.59755
119	7.2	3.2	0.	0.56074
120	7.2	3.	0.	0.46198
121	7.2	2.8	0.	0.56074
122	7.2	2.6	0.	0.59755
123	7.2	2.4	0.	-0.18715
124	7.2	2.2	0.	2.35
125	7.2	2.	0.	0.87165
126	7.2	1.8	0.	-1.6936
127	7.2	1.6	0.	6.9919e-002
128	7.2	1.4	0.	-1.307
129	7.2	1.2	0.	-0.83261
130	7.2	1.	0.	-0.48557
131	7.2	0.8	0.	-0.42147
132	7.2	0.6	0.	-0.33123
133	7.2	0.4	0.	-0.31056
134	7.2	0.2	0.	0.38708
135	7.	5.8	0.	0.70259
136	7.	5.6	0.	-0.17338
137	7.	5.4	0.	-0.20852
138	7.	5.2	0.	-0.43158
139	7.	5.	0.	-0.62043
140	7.	4.8	0.	-0.83219
141	7.	4.6	0.	-1.2107
142	7.	4.4	0.	-1.9236
143	7.	4.2	0.	-1.9952
144	7.	4.	0.	-2.6936
145	7.	3.8	0.	-2.98
146	7.	3.6	0.	-2.6398
147	7.	3.4	0.	-6.4287
148	7.	3.2	0.	-16.062
149	7.	3.	0.	-18.848
150	7.	2.8	0.	-16.062
151	7.	2.6	0.	-6.4287
152	7.	2.4	0.	-2.6398
153	7.	2.2	0.	-2.98
154	7.	2.	0.	-2.6936
155	7.	1.8	0.	-1.9952
156	7.	1.6	0.	-1.9236
157	7.	1.4	0.	-1.2107
158	7.	1.2	0.	-0.83219
159	7.	1.	0.	-0.62043
160	7.	0.8	0.	-0.43158
161	7.	0.6	0.	-0.20852
162	7.	0.4	0.	-0.17337
163	7.	0.2	0.	0.70259
164	6.8	5.8	0.	0.72487
165	6.8	5.6	0.	-0.10821
166	6.8	5.4	0.	-9.2952e-002
167	6.8	5.2	0.	-0.33073
168	6.8	5.	0.	-0.52656
169	6.8	4.8	0.	-0.77604
170	6.8	4.6	0.	-1.0612
171	6.8	4.4	0.	-1.4095
172	6.8	4.2	0.	-2.0627
173	6.8	4.	0.	-3.2645
174	6.8	3.8	0.	-11.783
175	6.8	3.6	0.	-58.649
176	6.8	3.4	0.	-96.013
177	6.8	3.2	0.	-114.85
178	6.8	3.	0.	-120.32
179	6.8	2.8	0.	-114.85
180	6.8	2.6	0.	-96.013
181	6.8	2.4	0.	-58.649
182	6.8	2.2	0.	-11.783
183	6.8	2.	0.	-3.2645
184	6.8	1.8	0.	-2.0627
185	6.8	1.6	0.	-1.4095
186	6.8	1.4	0.	-1.0612
187	6.8	1.2	0.	-0.77604
188	6.8	1.	0.	-0.52656
189	6.8	0.8	0.	-0.33073
190	6.8	0.6	0.	-9.295e-002
191	6.8	0.4	0.	-0.10821
192	6.8	0.2	0.	0.72487
193	6.6	5.8	0.	0.59415
194	6.6	5.6	0.	-0.11907
195	6.6	5.4	0.	-6.6116e-002
196	6.6	5.2	0.	-0.29596
197	6.6	5.	0.	-0.49682
198	6.6	4.8	0.	-0.75956
199	6.6	4.6	0.	-1.125
200	6.6	4.4	0.	-1.7357
201	6.6	4.2	0.	-3.1645
202	6.6	4.	0.	-13.776
203	6.6	3.8	0.	-69.523
204	6.6	3.6	0.	-123.89
205	6.6	3.4	0.	-161.82
206	6.6	3.2	0.	-183.11
207	6.6	3.	0.	-189.84
208	6.6	2.8	0.	-183.11
209	6.6	2.6	0.	-161.82
210	6.6	2.4	0.	-123.89
211	6.6	2.2	0.	-69.523
212	6.6	2.	0.	-13.776
213	6.6	1.8	0.	-3.1645
214	6.6	1.6	0.	-1.7357
215	6.6	1.4	0.	-1.125
216	6.6	1.2	0.	-0.75956
217	6.6	1.	0.	-0.49682
218	6.6	0.8	0.	-0.29596
219	6.6	0.6	0.	-6.6116e-002
220	6.6	0.4	0.	-0.11907
221	6.6	0.2	0.	0.59415
222	6.4	5.8	0.	0.45722
223	6.4	5.6	0.	-0.12268
224	6.4	5.4	0.	-5.8302e-002
225	6.4	5.2	0.	-0.27424
226	6.4	5.	0.	-0.48838
227	6.4	4.8	0.	-0.80219
228	6.4	4.6	0.	-1.3293
229	6.4	4.4	0.	-2.6496
230	6.4	4.2	0.	-12.727
231	6.4	4.	0.	-65.151
232	6.4	3.8	0.	-123.89
233	6.4	3.6	0.	-173.66
234	6.4	3.4	0.	-209.94
235	6.4	3.2	0.	-231.47
236	6.4	3.	0.	-238.55
237	6.4	2.8	0.	-231.47
238	6.4	2.6	0.	-209.94
239	6.4	2.4	0.	-173.66
240	6.4	2.2	0.	-123.89
241	6.4	2.	0.	-65.151
242	6.4	1.8	0.	-12.727
243	6.4	1.6	0.	-2.6496
244	6.4	1.4	0.	-1.3293
245	6.4	1.2	0.	-0.80219
246	6.4	1.	0.	-0.48837
247	6.4	0.8	0.	-0.27424
248	6.4	0.6	0.	-5.83e-002
249	6.4	0.4	0.	-0.12267
250	6.4	0.2	0.	0.45722
251	6.2	5.8	0.	0.34085
252	6.2	5.6	0.	-0.11911
253	6.2	5.4	0.	-7.0299e-002
254	6.2	5.2	0.	-0.2836
255	6.2	5.	0.	-0.54044
256	6.2	4.8	0.	-1.0058
257	6.2	4.6	0.	-2.2374
258	6.2	4.4	0.	-12.64
259	6.2	4.2	0.	-59.393
260	6.2	4.	0.	-114.86
261	6.2	3.8	0.	-167.93
262	6.2	3.6	0.	-213.15
263	6.2	3.4	0.	-246.95
264	6.2	3.2	0.	-267.6
265	6.2	3.	0.	-274.52
266	6.2	2.8	0.	-267.6
267	6.2	2.6	0.	-246.95
268	6.2	2.4	0.	-213.15
269	6.2	2.2	0.	-167.93
270	6.2	2.	0.	-114.86
271	6.2	1.8	0.	-59.393
272	6.2	1.6	0.	-12.64
273	6.2	1.4	0.	-2.2373
274	6.2	1.2	0.	-1.0058
275	6.2	1.	0.	-0.54043
276	6.2	0.8	0.	-0.2836
277	6.2	0.6	0.	-7.0297e-002
278	6.2	0.4	0.	-0.1191
279	6.2	0.2	0.	0.34085
280	6.	5.8	0.	0.25279
281	6.	5.6	0.	-0.11093
282	6.	5.4	0.	-0.10342
283	6.	5.2	0.	-0.34676
284	6.	5.	0.	-0.75413
285	6.	4.8	0.	-2.0177
286	6.	4.6	0.	-14.819
287	6.	4.4	0.	-56.301
288	6.	4.2	0.	-105.85
289	6.	4.	0.	-157.01
290	6.	3.8	0.	-205.16
291	6.	3.6	0.	-246.3
292	6.	3.4	0.	-277.44
293	6.	3.2	0.	-296.71
294	6.	3.	0.	-303.22
295	6.	2.8	0.	-296.71
296	6.	2.6	0.	-277.44
297	6.	2.4	0.	-246.3
298	6.	2.2	0.	-205.16
299	6.	2.	0.	-157.01
300	6.	1.8	0.	-105.85
301	6.	1.6	0.	-56.301
302	6.	1.4	0.	-14.819
303	6.	1.2	0.	-2.0177
304	6.	1.	0.	-0.75413
305	6.	0.8	0.	-0.34675
306	6.	0.6	0.	-0.10342
307	6.	0.4	0.	-0.11093
308	6.	0.2	0.	0.25279
309	5.8	5.8	0.	0.18471
310	5.8	5.6	0.	-0.11296
311	5.8	5.4	0.	-0.18973
312	5.8	5.2	0.	-0.60391
313	5.8	5.	0.	-2.2757
314	5.8	4.8	0.	-19.851
315	5.8	4.6	0.	-56.213
316	5.8	4.4	0.	-99.723
317	5.8	4.2	0.	-146.88
318	5.8	4.	0.	-194.25
319	5.8	3.8	0.	-238.34
320	5.8	3.6	0.	-275.95
321	5.8	3.4	0.	-304.52
322	5.8	3.2	0.	-322.32
323	5.8	3.	0.	-328.36
324	5.8	2.8	0.	-322.32
325	5.8	2.6	0.	-304.52
326	5.8	2.4	0.	-275.95
327	5.8	2.2	0.	-238.34
328	5.8	2.	0.	-194.25
329	5.8	1.8	0.	-146.88
330	5.8	1.6	0.	-99.723
331	5.8	1.4	0.	-56.213
332	5.8	1.2	0.	-19.851
333	5.8	1.	0.	-2.2757
334	5.8	0.8	0.	-0.60391
335	5.8	0.6	0.	-0.18973
336	5.8	0.4	0.	-0.11295
337	5.8	0.2	0.	0.18471
338	5.6	5.8	0.	0.11516
339	5.6	5.6	0.	-0.17931
340	5.6	5.4	0.	-0.60159
341	5.6	5.2	0.	-5.0352
342	5.6	5.	0.	-26.632
343	5.6	4.8	0.	-58.197
344	5.6	4.6	0.	-96.48
345	5.6	4.4	0.	-139.36
346	5.6	4.2	0.	-184.34
347	5.6	4.	0.	-228.66
348	5.6	3.8	0.	-269.45
349	5.6	3.6	0.	-304.09
350	5.6	3.4	0.	-330.39
351	5.6	3.2	0.	-346.8
352	5.6	3.	0.	-352.37
353	5.6	2.8	0.	-346.8
354	5.6	2.6	0.	-330.39
355	5.6	2.4	0.	-304.09
356	5.6	2.2	0.	-269.45
357	5.6	2.	0.	-228.66
358	5.6	1.8	0.	-184.34
359	5.6	1.6	0.	-139.36
360	5.6	1.4	0.	-96.48
361	5.6	1.2	0.	-58.197
362	5.6	1.	0.	-26.632
363	5.6	0.8	0.	-5.0352
364	5.6	0.6	0.	-0.60159
365	5.6	0.4	0.	-0.17931
366	5.6	0.2	0.	0.11516
367	5.4	5.8	0.	-8.5501e-002
368	5.4	5.6	0.	-1.6977
369	5.4	5.4	0.	-12.565
370	5.4	5.2	0.	-32.816
371	5.4	5.	0.	-60.633
372	5.4	4.8	0.	-94.879
373	5.4	4.6	0.	-134.1
374	5.4	4.4	0.	-176.45
375	5.4	4.2	0.	-219.79
376	5.4	4.	0.	-261.75
377	5.4	3.8	0.	-299.95
378	5.4	3.6	0.	-332.17
379	5.4	3.4	0.	-356.57
380	5.4	3.2	0.	-371.77
381	5.4	3.	0.	-376.94
382	5.4	2.8	0.	-371.77
383	5.4	2.6	0.	-356.57
384	5.4	2.4	0.	-332.17
385	5.4	2.2	0.	-299.95
386	5.4	2.	0.	-261.75
387	5.4	1.8	0.	-219.79
388	5.4	1.6	0.	-176.45
389	5.4	1.4	0.	-134.1
390	5.4	1.2	0.	-94.879
391	5.4	1.	0.	-60.633
392	5.4	0.8	0.	-32.816
393	5.4	0.6	0.	-12.565
394	5.4	0.4	0.	-1.6977
395	5.4	0.2	0.	-8.5499e-002
396	5.2	5.8	0.	-4.1652
397	5.2	5.6	0.	-16.531
398	5.2	5.4	0.	-35.617
399	5.2	5.2	0.	-61.302
400	5.2	5.	0.	-92.971
401	5.2	4.8	0.	-129.62
402	5.2	4.6	0.	-169.88
403	5.2	4.4	0.	-212.09
404	5.2	4.2	0.	-254.36
405	5.2	4.	0.	-294.63
406	5.2	3.8	0.	-330.89
407	5.2	3.6	0.	-361.26
408	5.2	3.4	0.	-384.15
409	5.2	3.2	0.	-398.38
410	5.2	3.	0.	-403.21
411	5.2	2.8	0.	-398.38
412	5.2	2.6	0.	-384.15
413	5.2	2.4	0.	-361.26
414	5.2	2.2	0.	-330.89
415	5.2	2.	0.	-294.63
416	5.2	1.8	0.	-254.36
417	5.2	1.6	0.	-212.09
418	5.2	1.4	0.	-169.88
419	5.2	1.2	0.	-129.62
420	5.2	1.	0.	-92.971
421	5.2	0.8	0.	-61.302
422	5.2	0.6	0.	-35.617
423	5.2	0.4	0.	-16.531
424	5.2	0.2	0.	-4.1652
425	5.	5.8	0.	-11.759
426	5.	5.6	0.	-32.003
427	5.	5.4	0.	-57.545
428	5.	5.2	0.	-88.329
429	5.	5.	0.	-123.79
430	5.	4.8	0.	-162.96
431	5.	4.6	0.	-204.57
432	5.	4.4	0.	-247.12
433	5.	4.2	0.	-288.9
434	5.	4.	0.	-328.14
435	5.	3.8	0.	-363.09
436	5.	3.6	0.	-392.14
437	5.	3.4	0.	-413.93
438	5.	3.2	0.	-427.43
439	5.	3.	0.	-432.
440	5.	2.8	0.	-427.43
441	5.	2.6	0.	-413.93
442	5.	2.4	0.	-392.14
443	5.	2.2	0.	-363.09
444	5.	2.	0.	-328.14
445	5.	1.8	0.	-288.9
446	5.	1.6	0.	-247.12
447	5.	1.4	0.	-204.57
448	5.	1.2	0.	-162.96
449	5.	1.	0.	-123.79
450	5.	0.8	0.	-88.329
451	5.	0.6	0.	-57.545
452	5.	0.4	0.	-32.003
453	5.	0.2	0.	-11.759
454	4.8	5.8	0.	-18.806
455	4.8	5.6	0.	-46.49
456	4.8	5.4	0.	-78.282
457	4.8	5.2	0.	-114.13
458	4.8	5.	0.	-153.49
459	4.8	4.8	0.	-195.45
460	4.8	4.6	0.	-238.82
461	4.8	4.4	0.	-282.21
462	4.8	4.2	0.	-324.11
463	4.8	4.	0.	-362.94
464	4.8	3.8	0.	-397.18
465	4.8	3.6	0.	-425.43
466	4.8	3.4	0.	-446.51
467	4.8	3.2	0.	-459.53
468	4.8	3.	0.	-463.93
469	4.8	2.8	0.	-459.53
470	4.8	2.6	0.	-446.51
471	4.8	2.4	0.	-425.43
472	4.8	2.2	0.	-397.18
473	4.8	2.	0.	-362.94
474	4.8	1.8	0.	-324.11
475	4.8	1.6	0.	-282.21
476	4.8	1.4	0.	-238.82
477	4.8	1.2	0.	-195.45
478	4.8	1.	0.	-153.49
479	4.8	0.8	0.	-114.13
480	4.8	0.6	0.	-78.282
481	4.8	0.4	0.	-46.49
482	4.8	0.2	0.	-18.806
483	4.6	5.8	0.	-25.239
484	4.6	5.6	0.	-60.101
485	4.6	5.4	0.	-98.046
486	4.6	5.2	0.	-139.01
487	4.6	5.	0.	-182.49
488	4.6	4.8	0.	-227.57
489	4.6	4.6	0.	-273.15
490	4.6	4.4	0.	-317.94
491	4.6	4.2	0.	-360.56
492	4.6	4.	0.	-399.59
493	4.6	3.8	0.	-433.69
494	4.6	3.6	0.	-461.63
495	4.6	3.4	0.	-482.38
496	4.6	3.2	0.	-495.15
497	4.6	3.	0.	-499.46
498	4.6	2.8	0.	-495.15
499	4.6	2.6	0.	-482.38
500	4.6	2.4	0.	-461.63
501	4.6	2.2	0.	-433.69
502	4.6	2.	0.	-399.59
503	4.6	1.8	0.	-360.56
504	4.6	1.6	0.	-317.94
505	4.6	1.4	0.	-273.15
506	4.6	1.2	0.	-227.57
507	4.6	1.	0.	-182.49
508	4.6	0.8	0.	-139.01
509	4.6	0.6	0.	-98.046
510	4.6	0.4	0.	-60.101
511	4.6	0.2	0.	-25.239
512	4.4	5.8	0.	-31.1
513	4.4	5.6	0.	-72.989
514	4.4	5.4	0.	-117.08
515	4.4	5.2	0.	-163.32
516	4.4	5.	0.	-211.18
517	4.4	4.8	0.	-259.79
518	4.4	4.6	0.	-308.07
519	4.4	4.4	0.	-354.81
520	4.4	4.2	0.	-398.74
521	4.4	4.	0.	-438.57
522	4.4	3.8	0.	-473.08
523	4.4	3.6	0.	-501.17
524	4.4	3.4	0.	-521.94
525	4.4	3.2	0.	-534.68
526	4.4	3.	0.	-538.98
527	4.4	2.8	0.	-534.68
528	4.4	2.6	0.	-521.94
529	4.4	2.4	0.	-501.17
530	4.4	2.2	0.	-473.08
531	4.4	2.	0.	-438.57
532	4.4	1.8	0.	-398.74
533	4.4	1.6	0.	-354.81
534	4.4	1.4	0.	-308.07
535	4.4	1.2	0.	-259.79
536	4.4	1.	0.	-211.18
537	4.4	0.8	0.	-163.32
538	4.4	0.6	0.	-117.08
539	4.4	0.4	0.	-72.989
540	4.4	0.2	0.	-31.1
541	4.2	5.8	0.	-36.428
542	4.2	5.6	0.	-85.302
543	4.2	5.4	0.	-135.62
544	4.2	5.2	0.	-187.35
545	4.2	5.	0.	-239.95
546	4.2	4.8	0.	-292.53
547	4.2	4.6	0.	-344.02
548	4.2	4.4	0.	-393.29
549	4.2	4.2	0.	-439.11
550	4.2	4.	0.	-480.3
551	4.2	3.8	0.	-515.74
552	4.2	3.6	0.	-544.43
553	4.2	3.4	0.	-565.54
554	4.2	3.2	0.	-578.47
555	4.2	3.	0.	-582.82
556	4.2	2.8	0.	-578.47
557	4.2	2.6	0.	-565.54
558	4.2	2.4	0.	-544.43
559	4.2	2.2	0.	-515.74
560	4.2	2.	0.	-480.3
561	4.2	1.8	0.	-439.11
562	4.2	1.6	0.	-393.29
563	4.2	1.4	0.	-344.02
564	4.2	1.2	0.	-292.53
565	4.2	1.	0.	-239.95
566	4.2	0.8	0.	-187.35
567	4.2	0.6	0.	-135.62
568	4.2	0.4	0.	-85.302
569	4.2	0.2	0.	-36.428
570	4.	5.8	0.	-41.244
571	4.	5.6	0.	-97.175
572	4.	5.4	0.	-153.9
573	4.	5.2	0.	-211.41
574	4.	5.	0.	-269.15
575	4.	4.8	0.	-326.18
576	4.	4.6	0.	-381.44
577	4.	4.4	0.	-433.8
578	4.	4.2	0.	-482.09
579	4.	4.	0.	-525.19
580	4.	3.8	0.	-562.05
581	4.	3.6	0.	-591.75
582	4.	3.4	0.	-613.52
583	4.	3.2	0.	-626.82
584	4.	3.	0.	-631.29
585	4.	2.8	0.	-626.82
586	4.	2.6	0.	-613.52
587	4.	2.4	0.	-591.75
588	4.	2.2	0.	-562.05
589	4.	2.	0.	-525.19
590	4.	1.8	0.	-482.09
591	4.	1.6	0.	-433.8
592	4.	1.4	0.	-381.44
593	4.	1.2	0.	-326.18
594	4.	1.	0.	-269.15
595	4.	0.8	0.	-211.41
596	4.	0.6	0.	-153.9
597	4.	0.4	0.	-97.175
598	4.	0.2	0.	-41.244
599	3.8	5.8	0.	-45.555
600	3.8	5.6	0.	-108.73
601	3.8	5.4	0.	-172.12
602	3.8	5.2	0.	-235.79
603	3.8	5.	0.	-299.13
604	3.8	4.8	0.	-361.14
605	3.8	4.6	0.	-420.74
606	3.8	4.4	0.	-476.78
607	3.8	4.2	0.	-528.11
608	3.8	4.	0.	-573.65
609	3.8	3.8	0.	-612.39
610	3.8	3.6	0.	-643.47
611	3.8	3.4	0.	-666.2
612	3.8	3.2	0.	-680.04
613	3.8	3.	0.	-684.69
614	3.8	2.8	0.	-680.04
615	3.8	2.6	0.	-666.2
616	3.8	2.4	0.	-643.47
617	3.8	2.2	0.	-612.39
618	3.8	2.	0.	-573.65
619	3.8	1.8	0.	-528.11
620	3.8	1.6	0.	-476.78
621	3.8	1.4	0.	-420.74
622	3.8	1.2	0.	-361.14
623	3.8	1.	0.	-299.13
624	3.8	0.8	0.	-235.79
625	3.8	0.6	0.	-172.12
626	3.8	0.4	0.	-108.73
627	3.8	0.2	0.	-45.555
628	3.6	5.8	0.	-49.349
629	3.6	5.6	0.	-120.06
630	3.6	5.4	0.	-190.48
631	3.6	5.2	0.	-260.77
632	3.6	5.	0.	-330.24
633	3.6	4.8	0.	-397.81
634	3.6	4.6	0.	-462.34
635	3.6	4.4	0.	-522.65
636	3.6	4.2	0.	-577.58
637	3.6	4.	0.	-626.05
638	3.6	3.8	0.	-667.11
639	3.6	3.6	0.	-699.94
640	3.6	3.4	0.	-723.86
641	3.6	3.2	0.	-738.42
642	3.6	3.	0.	-743.3
643	3.6	2.8	0.	-738.42
644	3.6	2.6	0.	-723.86
645	3.6	2.4	0.	-699.94
646	3.6	2.2	0.	-667.11
647	3.6	2.	0.	-626.05
648	3.6	1.8	0.	-577.58
649	3.6	1.6	0.	-522.65
650	3.6	1.4	0.	-462.34
651	3.6	1.2	0.	-397.82
652	3.6	1.	0.	-330.24
653	3.6	0.8	0.	-260.77
654	3.6	0.6	0.	-190.48
655	3.6	0.4	0.	-120.06
656	3.6	0.2	0.	-49.349
657	3.4	5.8	0.	-52.594
658	3.4	5.6	0.	-131.25
659	3.4	5.4	0.	-209.17
660	3.4	5.2	0.	-286.62
661	3.4	5.	0.	-362.83
662	3.4	4.8	0.	-436.6
663	3.4	4.6	0.	-506.68
664	3.4	4.4	0.	-571.85
665	3.4	4.2	0.	-630.92
666	3.4	4.	0.	-682.81
667	3.4	3.8	0.	-726.59
668	3.4	3.6	0.	-761.47
669	3.4	3.4	0.	-786.82
670	3.4	3.2	0.	-802.21
671	3.4	3.	0.	-807.37
672	3.4	2.8	0.	-802.21
673	3.4	2.6	0.	-786.82
674	3.4	2.4	0.	-761.47
675	3.4	2.2	0.	-726.59
676	3.4	2.	0.	-682.81
677	3.4	1.8	0.	-630.92
678	3.4	1.6	0.	-571.85
679	3.4	1.4	0.	-506.68
680	3.4	1.2	0.	-436.6
681	3.4	1.	0.	-362.83
682	3.4	0.8	0.	-286.62
683	3.4	0.6	0.	-209.17
684	3.4	0.4	0.	-131.25
685	3.4	0.2	0.	-52.594
686	3.2	5.8	0.	-55.24
687	3.2	5.6	0.	-142.39
688	3.2	5.4	0.	-228.39
689	3.2	5.2	0.	-313.65
690	3.2	5.	0.	-397.29
691	3.2	4.8	0.	-477.94
692	3.2	4.6	0.	-554.23
693	3.2	4.4	0.	-624.86
694	3.2	4.2	0.	-688.59
695	3.2	4.	0.	-744.34
696	3.2	3.8	0.	-791.18
697	3.2	3.6	0.	-828.38
698	3.2	3.4	0.	-855.35
699	3.2	3.2	0.	-871.69
700	3.2	3.	0.	-877.16
701	3.2	2.8	0.	-871.69
702	3.2	2.6	0.	-855.35
703	3.2	2.4	0.	-828.38
704	3.2	2.2	0.	-791.18
705	3.2	2.	0.	-744.34
706	3.2	1.8	0.	-688.59
707	3.2	1.6	0.	-624.86
708	3.2	1.4	0.	-554.23
709	3.2	1.2	0.	-477.94
710	3.2	1.	0.	-397.29
711	3.2	0.8	0.	-313.65
712	3.2	0.6	0.	-228.39
713	3.2	0.4	0.	-142.39
714	3.2	0.2	0.	-55.24
715	3.	5.8	0.	-57.222
716	3.	5.6	0.	-153.54
717	3.	5.4	0.	-248.33
718	3.	5.2	0.	-342.18
719	3.	5.	0.	-434.03
720	3.	4.8	0.	-522.32
721	3.	4.6	0.	-605.52
722	3.	4.4	0.	-682.21
723	3.	4.2	0.	-751.09
724	3.	4.	0.	-811.07
725	3.	3.8	0.	-861.27
726	3.	3.6	0.	-900.99
727	3.	3.4	0.	-929.7
728	3.	3.2	0.	-947.07
729	3.	3.	0.	-952.88
730	3.	2.8	0.	-947.07
731	3.	2.6	0.	-929.7
732	3.	2.4	0.	-900.99
733	3.	2.2	0.	-861.27
734	3.	2.	0.	-811.07
735	3.	1.8	0.	-751.09
736	3.	1.6	0.	-682.21
737	3.	1.4	0.	-605.52
738	3.	1.2	0.	-522.32
739	3.	1.	0.	-434.03
740	3.	0.8	0.	-342.18
741	3.	0.6	0.	-248.33
742	3.	0.4	0.	-153.54
743	3.	0.2	0.	-57.222
744	2.8	5.8	0.	-58.454
745	2.8	5.6	0.	-164.78
746	2.8	5.4	0.	-269.24
747	2.8	5.2	0.	-372.61
748	2.8	5.	0.	-473.58
749	2.8	4.8	0.	-570.34
750	2.8	4.6	0.	-661.17
751	2.8	4.4	0.	-744.48
752	2.8	4.2	0.	-818.94
753	2.8	4.	0.	-883.47
754	2.8	3.8	0.	-937.22
755	2.8	3.6	0.	-979.57
756	2.8	3.4	0.	-1010.1
757	2.8	3.2	0.	-1028.5
758	2.8	3.	0.	-1034.7
759	2.8	2.8	0.	-1028.5
760	2.8	2.6	0.	-1010.1
761	2.8	2.4	0.	-979.57
762	2.8	2.2	0.	-937.22
763	2.8	2.	0.	-883.47
764	2.8	1.8	0.	-818.94
765	2.8	1.6	0.	-744.48
766	2.8	1.4	0.	-661.17
767	2.8	1.2	0.	-570.34
768	2.8	1.	0.	-473.58
769	2.8	0.8	0.	-372.61
770	2.8	0.6	0.	-269.24
771	2.8	0.4	0.	-164.78
772	2.8	0.2	0.	-58.454
773	2.6	5.8	0.	-58.839
774	2.6	5.6	0.	-176.21
775	2.6	5.4	0.	-291.41
776	2.6	5.2	0.	-405.4
777	2.6	5.	0.	-516.55
778	2.6	4.8	0.	-622.71
779	2.6	4.6	0.	-721.89
780	2.6	4.4	0.	-812.37
781	2.6	4.2	0.	-892.76
782	2.6	4.	0.	-962.01
783	2.6	3.8	0.	-1019.4
784	2.6	3.6	0.	-1064.4
785	2.6	3.4	0.	-1096.7
786	2.6	3.2	0.	-1116.1
787	2.6	3.	0.	-1122.6
788	2.6	2.8	0.	-1116.1
789	2.6	2.6	0.	-1096.7
790	2.6	2.4	0.	-1064.4
791	2.6	2.2	0.	-1019.4
792	2.6	2.	0.	-962.01
793	2.6	1.8	0.	-892.76
794	2.6	1.6	0.	-812.37
795	2.6	1.4	0.	-721.89
796	2.6	1.2	0.	-622.71
797	2.6	1.	0.	-516.55
798	2.6	0.8	0.	-405.4
799	2.6	0.6	0.	-291.41
800	2.6	0.4	0.	-176.21
801	2.6	0.2	0.	-58.839
802	2.4	5.8	0.	-58.268
803	2.4	5.6	0.	-187.94
804	2.4	5.4	0.	-315.25
805	2.4	5.2	0.	-441.21
806	2.4	5.	0.	-563.77
807	2.4	4.8	0.	-680.33
808	2.4	4.6	0.	-788.6
809	2.4	4.4	0.	-886.69
810	2.4	4.2	0.	-973.21
811	2.4	4.	0.	-1047.2
812	2.4	3.8	0.	-1108.1
813	2.4	3.6	0.	-1155.6
814	2.4	3.4	0.	-1189.5
815	2.4	3.2	0.	-1209.9
816	2.4	3.	0.	-1216.7
817	2.4	2.8	0.	-1209.9
818	2.4	2.6	0.	-1189.5
819	2.4	2.4	0.	-1155.6
820	2.4	2.2	0.	-1108.1
821	2.4	2.	0.	-1047.2
822	2.4	1.8	0.	-973.21
823	2.4	1.6	0.	-886.69
824	2.4	1.4	0.	-788.6
825	2.4	1.2	0.	-680.33
826	2.4	1.	0.	-563.77
827	2.4	0.8	0.	-441.21
828	2.4	0.6	0.	-315.25
829	2.4	0.4	0.	-187.94
830	2.4	0.2	0.	-58.268
831	2.2	5.8	0.	-56.631
832	2.2	5.6	0.	-200.18
833	2.2	5.4	0.	-341.29
834	2.2	5.2	0.	-480.89
835	2.2	5.	0.	-616.31
836	2.2	4.8	0.	-744.36
837	2.2	4.6	0.	-862.39
838	2.2	4.4	0.	-968.39
839	2.2	4.2	0.	-1061.
840	2.2	4.	0.	-1139.5
841	2.2	3.8	0.	-1203.6
842	2.2	3.6	0.	-1253.3
843	2.2	3.4	0.	-1288.5
844	2.2	3.2	0.	-1309.6
845	2.2	3.	0.	-1316.6
846	2.2	2.8	0.	-1309.6
847	2.2	2.6	0.	-1288.5
848	2.2	2.4	0.	-1253.3
849	2.2	2.2	0.	-1203.6
850	2.2	2.	0.	-1139.6
851	2.2	1.8	0.	-1061.
852	2.2	1.6	0.	-968.39
853	2.2	1.4	0.	-862.39
854	2.2	1.2	0.	-744.36
855	2.2	1.	0.	-616.31
856	2.2	0.8	0.	-480.89
857	2.2	0.6	0.	-341.29
858	2.2	0.4	0.	-200.18
859	2.2	0.2	0.	-56.631
860	2.	5.8	0.	-53.832
861	2.	5.6	0.	-213.23
862	2.	5.4	0.	-370.34
863	2.	5.2	0.	-525.66
864	2.	5.	0.	-675.63
865	2.	4.8	0.	-816.31
866	2.	4.6	0.	-944.65
867	2.	4.4	0.	-1058.6
868	2.	4.2	0.	-1157.
869	2.	4.	0.	-1239.5
870	2.	3.8	0.	-1306.2
871	2.	3.6	0.	-1357.4
872	2.	3.4	0.	-1393.5
873	2.	3.2	0.	-1415.
874	2.	3.	0.	-1422.2
875	2.	2.8	0.	-1415.
876	2.	2.6	0.	-1393.5
877	2.	2.4	0.	-1357.4
878	2.	2.2	0.	-1306.2
879	2.	2.	0.	-1239.5
880	2.	1.8	0.	-1157.
881	2.	1.6	0.	-1058.6
882	2.	1.4	0.	-944.65
883	2.	1.2	0.	-816.31
884	2.	1.	0.	-675.63
885	2.	0.8	0.	-525.66
886	2.	0.6	0.	-370.34
887	2.	0.4	0.	-213.23
888	2.	0.2	0.	-53.832
889	1.8	5.8	0.	-49.822
890	1.8	5.6	0.	-227.57
891	1.8	5.4	0.	-403.58
892	1.8	5.2	0.	-577.26
893	1.8	5.	0.	-743.74
894	1.8	4.8	0.	-898.15
895	1.8	4.6	0.	-1037.1
896	1.8	4.4	0.	-1158.5
897	1.8	4.2	0.	-1261.9
898	1.8	4.	0.	-1347.4
899	1.8	3.8	0.	-1415.7
900	1.8	3.6	0.	-1467.6
901	1.8	3.4	0.	-1504.
902	1.8	3.2	0.	-1525.6
903	1.8	3.	0.	-1532.7
904	1.8	2.8	0.	-1525.6
905	1.8	2.6	0.	-1504.
906	1.8	2.4	0.	-1467.6
907	1.8	2.2	0.	-1415.7
908	1.8	2.	0.	-1347.4
909	1.8	1.8	0.	-1261.9
910	1.8	1.6	0.	-1158.5
911	1.8	1.4	0.	-1037.1
912	1.8	1.2	0.	-898.15
913	1.8	1.	0.	-743.74
914	1.8	0.8	0.	-577.26
915	1.8	0.6	0.	-403.58
916	1.8	0.4	0.	-227.57
917	1.8	0.2	0.	-49.822
918	1.6	5.8	0.	-44.696
919	1.6	5.6	0.	-244.03
920	1.6	5.4	0.	-442.9
921	1.6	5.2	0.	-638.31
922	1.6	5.	0.	-823.5
923	1.6	4.8	0.	-992.48
924	1.6	4.6	0.	-1141.7
925	1.6	4.4	0.	-1269.6
926	1.6	4.2	0.	-1376.6
927	1.6	4.	0.	-1463.6
928	1.6	3.8	0.	-1532.
929	1.6	3.6	0.	-1583.5
930	1.6	3.4	0.	-1619.4
931	1.6	3.2	0.	-1640.4
932	1.6	3.	0.	-1647.4
933	1.6	2.8	0.	-1640.4
934	1.6	2.6	0.	-1619.4
935	1.6	2.4	0.	-1583.5
936	1.6	2.2	0.	-1532.
937	1.6	2.	0.	-1463.6
938	1.6	1.8	0.	-1376.6
939	1.6	1.6	0.	-1269.6
940	1.6	1.4	0.	-1141.7
941	1.6	1.2	0.	-992.48
942	1.6	1.	0.	-823.5
943	1.6	0.8	0.	-638.31
944	1.6	0.6	0.	-442.9
945	1.6	0.4	0.	-244.03
946	1.6	0.2	0.	-44.696
947	1.4	5.8	0.	-38.711
948	1.4	5.6	0.	-263.91
949	1.4	5.4	0.	-491.1
950	1.4	5.2	0.	-712.49
951	1.4	5.	0.	-918.61
952	1.4	4.8	0.	-1102.3
953	1.4	4.6	0.	-1260.5
954	1.4	4.4	0.	-1392.9
955	1.4	4.2	0.	-1501.1
956	1.4	4.	0.	-1587.4
957	1.4	3.8	0.	-1654.3
958	1.4	3.6	0.	-1704.1
959	1.4	3.4	0.	-1738.3
960	1.4	3.2	0.	-1758.4
961	1.4	3.	0.	-1765.
962	1.4	2.8	0.	-1758.4
963	1.4	2.6	0.	-1738.3
964	1.4	2.4	0.	-1704.1
965	1.4	2.2	0.	-1654.3
966	1.4	2.	0.	-1587.4
967	1.4	1.8	0.	-1501.1
968	1.4	1.6	0.	-1392.9
969	1.4	1.4	0.	-1260.5
970	1.4	1.2	0.	-1102.3
971	1.4	1.	0.	-918.61
972	1.4	0.8	0.	-712.49
973	1.4	0.6	0.	-491.1
974	1.4	0.4	0.	-263.91
975	1.4	0.2	0.	-38.712
976	1.2	5.8	0.	-32.95
977	1.2	5.6	0.	-290.1
978	1.2	5.4	0.	-553.58
979	1.2	5.2	0.	-806.24
980	1.2	5.	0.	-1035.
981	1.2	4.8	0.	-1232.2
982	1.2	4.6	0.	-1396.4
983	1.2	4.4	0.	-1529.7
984	1.2	4.2	0.	-1635.9
985	1.2	4.	0.	-1718.9
986	1.2	3.8	0.	-1782.2
987	1.2	3.6	0.	-1828.7
988	1.2	3.4	0.	-1860.4
989	1.2	3.2	0.	-1878.9
990	1.2	3.	0.	-1885.
991	1.2	2.8	0.	-1878.9
992	1.2	2.6	0.	-1860.4
993	1.2	2.4	0.	-1828.7
994	1.2	2.2	0.	-1782.2
995	1.2	2.	0.	-1718.9
996	1.2	1.8	0.	-1635.9
997	1.2	1.6	0.	-1529.7
998	1.2	1.4	0.	-1396.4
999	1.2	1.2	0.	-1232.2
1000	1.2	1.	0.	-1035.
1001	1.2	0.8	0.	-806.24
1002	1.2	0.6	0.	-553.58
1003	1.2	0.4	0.	-290.1
1004	1.2	0.2	0.	-32.95
1005	1.	5.8	0.	-27.024
1006	1.	5.6	0.	-325.67
1007	1.	5.4	0.	-636.42
1008	1.	5.2	0.	-925.8
1009	1.	5.	0.	-1176.5
1010	1.	4.8	0.	-1382.8
1011	1.	4.6	0.	-1547.5
1012	1.	4.4	0.	-1676.7
1013	1.	4.2	0.	-1776.7
1014	1.	4.	0.	-1853.3
1015	1.	3.8	0.	-1910.9
1016	1.	3.6	0.	-1952.6
1017	1.	3.4	0.	-1981.
1018	1.	3.2	0.	-1997.4
1019	1.	3.	0.	-2002.8
1020	1.	2.8	0.	-1997.4
1021	1.	2.6	0.	-1981.
1022	1.	2.4	0.	-1952.6
1023	1.	2.2	0.	-1910.9
1024	1.	2.	0.	-1853.3
1025	1.	1.8	0.	-1776.7
1026	1.	1.6	0.	-1676.7
1027	1.	1.4	0.	-1547.5
1028	1.	1.2	0.	-1382.8
1029	1.	1.	0.	-1176.5
1030	1.	0.8	0.	-925.8
1031	1.	0.6	0.	-636.42
1032	1.	0.4	0.	-325.67
1033	1.	0.2	0.	-27.024
1034	0.8	5.8	0.	-28.786
1035	0.8	5.6	0.	-386.97
1036	0.8	5.4	0.	-763.18
1037	0.8	5.2	0.	-1093.6
1038	0.8	5.	0.	-1360.8
1039	0.8	4.8	0.	-1567.5
1040	0.8	4.6	0.	-1724.5
1041	0.8	4.4	0.	-1843.2
1042	0.8	4.2	0.	-1932.8
1043	0.8	4.	0.	-2000.2
1044	0.8	3.8	0.	-2050.3
1045	0.8	3.6	0.	-2086.3
1046	0.8	3.4	0.	-2110.7
1047	0.8	3.2	0.	-2124.7
1048	0.8	3.	0.	-2129.3
1049	0.8	2.8	0.	-2124.7
1050	0.8	2.6	0.	-2110.7
1051	0.8	2.4	0.	-2086.3
1052	0.8	2.2	0.	-2050.3
1053	0.8	2.	0.	-2000.2
1054	0.8	1.8	0.	-1932.8
1055	0.8	1.6	0.	-1843.2
1056	0.8	1.4	0.	-1724.5
1057	0.8	1.2	0.	-1567.5
1058	0.8	1.	0.	-1360.8
1059	0.8	0.8	0.	-1093.6
1060	0.8	0.6	0.	-763.18
1061	0.8	0.4	0.	-386.97
1062	0.8	0.2	0.	-28.786
1063	0.6	5.8	0.	-10.669
1064	0.6	5.6	0.	-469.97
1065	0.6	5.4	0.	-924.51
1066	0.6	5.2	0.	-1284.5
1067	0.6	5.	0.	-1548.5
1068	0.6	4.8	0.	-1738.2
1069	0.6	4.6	0.	-1875.7
1070	0.6	4.4	0.	-1976.6
1071	0.6	4.2	0.	-2051.6
1072	0.6	4.	0.	-2107.4
1073	0.6	3.8	0.	-2148.7
1074	0.6	3.6	0.	-2178.3
1075	0.6	3.4	0.	-2198.3
1076	0.6	3.2	0.	-2209.8
1077	0.6	3.	0.	-2213.6
1078	0.6	2.8	0.	-2209.8
1079	0.6	2.6	0.	-2198.3
1080	0.6	2.4	0.	-2178.3
1081	0.6	2.2	0.	-2148.7
1082	0.6	2.	0.	-2107.4
1083	0.6	1.8	0.	-2051.6
1084	0.6	1.6	0.	-1976.6
1085	0.6	1.4	0.	-1875.7
1086	0.6	1.2	0.	-1738.2
1087	0.6	1.	0.	-1548.5
1088	0.6	0.8	0.	-1284.5
1089	0.6	0.6	0.	-924.51
1090	0.6	0.4	0.	-469.97
1091	0.6	0.2	0.	-10.669
1092	0.4	5.8	0.	-97.803
1093	0.4	5.6	0.	-739.31
1094	0.4	5.4	0.	-1298.6
1095	0.4	5.2	0.	-1661.9
1096	0.4	5.	0.	-1899.5
1097	0.4	4.8	0.	-2060.4
1098	0.4	4.6	0.	-2174.1
1099	0.4	4.4	0.	-2256.9
1100	0.4	4.2	0.	-2318.3
1101	0.4	4.	0.	-2364.1
1102	0.4	3.8	0.	-2398.
1103	0.4	3.6	0.	-2422.5
1104	0.4	3.4	0.	-2439.
1105	0.4	3.2	0.	-2448.5
1106	0.4	3.	0.	-2451.6
1107	0.4	2.8	0.	-2448.5
1108	0.4	2.6	0.	-2439.
1109	0.4	2.4	0.	-2422.5
1110	0.4	2.2	0.	-2398.
1111	0.4	2.	0.	-2364.1
1112	0.4	1.8	0.	-2318.3
1113	0.4	1.6	0.	-2256.9
1114	0.4	1.4	0.	-2174.1
1115	0.4	1.2	0.	-2060.4
1116	0.4	1.	0.	-1899.5
1117	0.4	0.8	0.	-1661.9
1118	0.4	0.6	0.	-1298.6
1119	0.4	0.4	0.	-739.31
1120	0.4	0.2	0.	-97.803
1121	0.2	5.8	0.	-48.937
1122	0.2	5.6	0.	-893.08
1123	0.2	5.4	0.	-1316.2
1124	0.2	5.2	0.	-1553.6
1125	0.2	5.	0.	-1702.
1126	0.2	4.8	0.	-1803.5
1127	0.2	4.6	0.	-1876.3
1128	0.2	4.4	0.	-1930.2
1129	0.2	4.2	0.	-1970.6
1130	0.2	4.	0.	-2001.1
1131	0.2	3.8	0.	-2023.8
1132	0.2	3.6	0.	-2040.3
1133	0.2	3.4	0.	-2051.4
1134	0.2	3.2	0.	-2057.9
1135	0.2	3.	0.	-2060.
1136	0.2	2.8	0.	-2057.9
1137	0.2	2.6	0.	-2051.4
1138	0.2	2.4	0.	-2040.3
1139	0.2	2.2	0.	-2023.8
1140	0.2	2.	0.	-2001.1
1141	0.2	1.8	0.	-1970.6
1142	0.2	1.6	0.	-1930.2
1143	0.2	1.4	0.	-1876.3
1144	0.2	1.2	0.	-1803.5
1145	0.2	1.	0.	-1702.
1146	0.2	0.8	0.	-1553.6
1147	0.2	0.6	0.	-1316.2
1148	0.2	0.4	0.	-893.08
1149	0.2	0.2	0.	-48.937
1150	8.3646	5.8	0.	-22.879
1151	8.5625	5.8	0.	-6.6526
1152	8.7604	5.8	0.	-3.0031
1153	8.9583	5.8	0.	-0.65641
1154	9.1563	5.8	0.	7.04e-004
1155	9.3542	5.8	0.	0.24934
1156	9.5521	5.8	0.	0.27716
1157	9.75	5.8	0.	0.24288
1158	9.9479	5.8	0.	0.19139
1159	10.146	5.8	0.	0.14384
1160	10.344	5.8	0.	0.10489
1161	10.542	5.8	0.	7.4458e-002
1162	10.74	5.8	0.	5.0495e-002
1163	10.937	5.8	0.	3.0577e-002
1164	11.135	5.8	0.	1.2305e-002
1165	11.333	5.8	0.	-6.4924e-003
1166	11.531	5.8	0.	-2.765e-002
1167	11.729	5.8	0.	-5.211e-002
1168	11.927	5.8	0.	-7.8285e-002
1169	12.125	5.8	0.	-0.10039
1170	12.323	5.8	0.	-0.11095
1171	12.521	5.8	0.	-0.10755
1172	12.719	5.8	0.	-9.4797e-002
1173	12.917	5.8	0.	-7.9097e-002
1174	13.115	5.8	0.	-6.4442e-002
1175	13.313	5.8	0.	-5.225e-002
1176	13.51	5.8	0.	-4.2607e-002
1177	13.708	5.8	0.	-3.5084e-002
1178	13.906	5.8	0.	-2.9167e-002
1179	14.104	5.8	0.	-2.4452e-002
1180	14.302	5.8	0.	-2.0675e-002
1181	14.5	5.8	0.	-1.7607e-002
1182	14.698	5.8	0.	-1.5046e-002
1183	14.896	5.8	0.	-1.2868e-002
1184	15.094	5.8	0.	-1.1026e-002
1185	15.292	5.8	0.	-9.4468e-003
1186	15.49	5.8	0.	-8.0507e-003
1187	15.688	5.8	0.	-6.798e-003
1188	15.885	5.8	0.	-5.6929e-003
1189	16.083	5.8	0.	-4.7111e-003
1190	16.281	5.8	0.	-3.8034e-003
1191	16.479	5.8	0.	-2.9562e-003
1192	16.677	5.8	0.	-2.1872e-003
1193	16.875	5.8	0.	-1.4842e-003
1194	17.073	5.8	0.	-8.1298e-004
1195	17.271	5.8	0.	-1.6794e-004
1196	17.469	5.8	0.	4.3005e-004
1197	17.667	5.8	0.	9.881e-004
1198	17.865	5.8	0.	1.5315e-003
1199	18.063	5.8	0.	2.0658e-003
1200	18.26	5.8	0.	2.5636e-003
1201	18.458	5.8	0.	3.033e-003
1202	18.656	5.8	0.	3.4921e-003
1203	18.854	5.8	0.	3.9391e-003
1204	19.052	5.8	0.	4.3548e-003
1205	19.25	5.8	0.	4.7335e-003
1206	19.448	5.8	0.	5.0857e-003
1207	19.646	5.8	0.	5.4086e-003
1208	19.844	5.8	0.	5.6748e-003
1209	20.042	5.8	0.	5.8714e-003
1210	20.24	5.8	0.	5.9992e-003
1211	20.438	5.8	0.	6.0362e-003
1212	20.635	5.8	0.	5.9435e-003
1213	20.833	5.8	0.	5.6921e-003
1214	21.031	5.8	0.	5.2489e-003
1215	21.229	5.8	0.	4.5593e-003
1216	21.427	5.8	0.	3.5484e-003
1217	21.625	5.8	0.	2.125e-003
1218	21.823	5.8	0.	1.8161e-004
1219	22.021	5.8	0.	-2.4364e-003
1220	22.219	5.8	0.	-5.9618e-003
1221	22.417	5.8	0.	-1.0653e-002
1222	22.615	5.8	0.	-1.7038e-002
1223	22.813	5.8	0.	-2.525e-002
1224	23.01	5.8	0.	-3.7975e-002
1225	23.208	5.8	0.	-4.9511e-002
1226	23.406	5.8	0.	-8.8514e-002
1227	23.604	5.8	0.	-5.9223e-002
1228	23.802	5.8	0.	-0.49265
1229	8.3646	5.6	0.	-11.206
1230	8.5625	5.6	0.	-4.0702
1231	8.7604	5.6	0.	-3.1265
1232	8.9583	5.6	0.	-1.3264
1233	9.1563	5.6	0.	-0.78099
1234	9.3542	5.6	0.	-0.49367
1235	9.5521	5.6	0.	-0.37024
1236	9.75	5.6	0.	-0.29446
1237	9.9479	5.6	0.	-0.24181
1238	10.146	5.6	0.	-0.19969
1239	10.344	5.6	0.	-0.16543
1240	10.542	5.6	0.	-0.13845
1241	10.74	5.6	0.	-0.11959
1242	10.937	5.6	0.	-0.11164
1243	11.135	5.6	0.	-0.12395
1244	11.333	5.6	0.	-0.20553
1245	11.531	5.6	0.	-0.96282
1246	11.729	5.6	0.	-2.9529
1247	11.927	5.6	0.	-4.4833
1248	12.125	5.6	0.	-5.4227
1249	12.323	5.6	0.	-5.862
1250	12.521	5.6	0.	-5.8969
1251	12.719	5.6	0.	-5.6124
1252	12.917	5.6	0.	-5.0806
1253	13.115	5.6	0.	-4.3623
1254	13.313	5.6	0.	-3.507
1255	13.51	5.6	0.	-2.5555
1256	13.708	5.6	0.	-1.5408
1257	13.906	5.6	0.	-0.49264
1258	14.104	5.6	0.	1.2123e-002
1259	14.302	5.6	0.	1.4797e-002
1260	14.5	5.6	0.	1.3376e-002
1261	14.698	5.6	0.	1.1453e-002
1262	14.896	5.6	0.	9.4516e-003
1263	15.094	5.6	0.	7.4457e-003
1264	15.292	5.6	0.	5.481e-003
1265	15.49	5.6	0.	3.6055e-003
1266	15.688	5.6	0.	1.8254e-003
1267	15.885	5.6	0.	1.007e-004
1268	16.083	5.6	0.	-1.5665e-003
1269	16.281	5.6	0.	-3.153e-003
1270	16.479	5.6	0.	-4.6653e-003
1271	16.677	5.6	0.	-6.1448e-003
1272	16.875	5.6	0.	-7.596e-003
1273	17.073	5.6	0.	-9.0006e-003
1274	17.271	5.6	0.	-1.0368e-002
1275	17.469	5.6	0.	-1.1735e-002
1276	17.667	5.6	0.	-1.311e-002
1277	17.865	5.6	0.	-1.4477e-002
1278	18.063	5.6	0.	-1.5847e-002
1279	18.26	5.6	0.	-1.7255e-002
1280	18.458	5.6	0.	-1.871e-002
1281	18.656	5.6	0.	-2.0199e-002
1282	18.854	5.6	0.	-2.1737e-002
1283	19.052	5.6	0.	-2.3358e-002
1284	19.25	5.6	0.	-2.5069e-002
1285	19.448	5.6	0.	-2.6867e-002
1286	19.646	5.6	0.	-2.8768e-002
1287	19.844	5.6	0.	-3.0806e-002
1288	20.042	5.6	0.	-3.2995e-002
1289	20.24	5.6	0.	-3.5339e-002
1290	20.438	5.6	0.	-3.7854e-002
1291	20.635	5.6	0.	-4.0585e-002
1292	20.833	5.6	0.	-4.3544e-002
1293	21.031	5.6	0.	-4.6749e-002
1294	21.229	5.6	0.	-5.023e-002
1295	21.427	5.6	0.	-5.4021e-002
1296	21.625	5.6	0.	-5.8156e-002
1297	21.823	5.6	0.	-6.2651e-002
1298	22.021	5.6	0.	-6.7527e-002
1299	22.219	5.6	0.	-7.2805e-002
1300	22.417	5.6	0.	-7.8417e-002
1301	22.615	5.6	0.	-8.4417e-002
1302	22.813	5.6	0.	-8.9909e-002
1303	23.01	5.6	0.	-9.6716e-002
1304	23.208	5.6	0.	-9.3871e-002
1305	23.406	5.6	0.	-0.11415
1306	23.604	5.6	0.	-2.0043e-003
1307	23.802	5.6	0.	-0.35379
1308	8.3646	5.4	0.	-9.1421
1309	8.5625	5.4	0.	-2.1094
1310	8.7604	5.4	0.	-2.758
1311	8.9583	5.4	0.	-1.5406
1312	9.1563	5.4	0.	-1.0688
1313	9.3542	5.4	0.	-0.7186
1314	9.5521	5.4	0.	-0.52563
1315	9.75	5.4	0.	-0.40126
1316	9.9479	5.4	0.	-0.32415
1317	10.146	5.4	0.	-0.27714
1318	10.344	5.4	0.	-0.25453
1319	10.542	5.4	0.	-0.25746
1320	10.74	5.4	0.	-0.30321
1321	10.937	5.4	0.	-0.48846
1322	11.135	5.4	0.	-1.8506
1323	11.333	5.4	0.	-5.8386
1324	11.531	5.4	0.	-9.3129
1325	11.729	5.4	0.	-11.792
1326	11.927	5.4	0.	-13.384
1327	12.125	5.4	0.	-14.236
1328	12.323	5.4	0.	-14.483
1329	12.521	5.4	0.	-14.25
1330	12.719	5.4	0.	-13.641
1331	12.917	5.4	0.	-12.746
1332	13.115	5.4	0.	-11.64
1333	13.313	5.4	0.	-10.384
1334	13.51	5.4	0.	-9.0268
1335	13.708	5.4	0.	-7.608
1336	13.906	5.4	0.	-6.1586
1337	14.104	5.4	0.	-4.7024
1338	14.302	5.4	0.	-3.2577
1339	14.5	5.4	0.	-1.838
1340	14.698	5.4	0.	-0.4597
1341	14.896	5.4	0.	-4.533e-003
1342	15.094	5.4	0.	-1.5825e-003
1343	15.292	5.4	0.	-1.3265e-003
1344	15.49	5.4	0.	-1.5039e-003
1345	15.688	5.4	0.	-1.7974e-003
1346	15.885	5.4	0.	-2.1558e-003
1347	16.083	5.4	0.	-2.5403e-003
1348	16.281	5.4	0.	-2.9094e-003
1349	16.479	5.4	0.	-3.2553e-003
1350	16.677	5.4	0.	-3.6066e-003
1351	16.875	5.4	0.	-3.9629e-003
1352	17.073	5.4	0.	-4.2956e-003
1353	17.271	5.4	0.	-4.6102e-003
1354	17.469	5.4	0.	-4.9316e-003
1355	17.667	5.4	0.	-5.26e-003
1356	17.865	5.4	0.	-5.5746e-003
1357	18.063	5.4	0.	-5.8765e-003
1358	18.26	5.4	0.	-6.1925e-003
1359	18.458	5.4	0.	-6.5209e-003
1360	18.656	5.4	0.	-6.8436e-003
1361	18.854	5.4	0.	-7.1586e-003
1362	19.052	5.4	0.	-7.4945e-003
1363	19.25	5.4	0.	-7.8454e-003
1364	19.448	5.4	0.	-8.1977e-003
1365	19.646	5.4	0.	-8.5464e-003
1366	19.844	5.4	0.	-8.917e-003
1367	20.042	5.4	0.	-9.2985e-003
1368	20.24	5.4	0.	-9.6773e-003
1369	20.438	5.4	0.	-1.0052e-002
1370	20.635	5.4	0.	-1.0422e-002
1371	20.833	5.4	0.	-1.0787e-002
1372	21.031	5.4	0.	-1.1112e-002
1373	21.229	5.4	0.	-1.1378e-002
1374	21.427	5.4	0.	-1.1565e-002
1375	21.625	5.4	0.	-1.1622e-002
1376	21.823	5.4	0.	-1.147e-002
1377	22.021	5.4	0.	-1.0997e-002
1378	22.219	5.4	0.	-1.0053e-002
1379	22.417	5.4	0.	-8.3245e-003
1380	22.615	5.4	0.	-5.5361e-003
1381	22.813	5.4	0.	-2.572e-004
1382	23.01	5.4	0.	6.2338e-003
1383	23.208	5.4	0.	2.7583e-002
1384	23.406	5.4	0.	2.5734e-002
1385	23.604	5.4	0.	0.19766
1386	23.802	5.4	0.	-7.7513e-002
1387	8.3646	5.2	0.	-8.2719
1388	8.5625	5.2	0.	-0.93171
1389	8.7604	5.2	0.	-2.4251
1390	8.9583	5.2	0.	-1.6647
1391	9.1563	5.2	0.	-1.4431
1392	9.3542	5.2	0.	-1.1644
1393	9.5521	5.2	0.	-0.98353
1394	9.75	5.2	0.	-0.85103
1395	9.9479	5.2	0.	-0.77353
1396	10.146	5.2	0.	-0.75542
1397	10.344	5.2	0.	-0.83401
1398	10.542	5.2	0.	-1.1837
1399	10.74	5.2	0.	-3.0763
1400	10.937	5.2	0.	-8.698
1401	11.135	5.2	0.	-14.285
1402	11.333	5.2	0.	-18.581
1403	11.531	5.2	0.	-21.614
1404	11.729	5.2	0.	-23.546
1405	11.927	5.2	0.	-24.552
1406	12.125	5.2	0.	-24.799
1407	12.323	5.2	0.	-24.438
1408	12.521	5.2	0.	-23.6
1409	12.719	5.2	0.	-22.397
1410	12.917	5.2	0.	-20.924
1411	13.115	5.2	0.	-19.259
1412	13.313	5.2	0.	-17.467
1413	13.51	5.2	0.	-15.599
1414	13.708	5.2	0.	-13.695
1415	13.906	5.2	0.	-11.787
1416	14.104	5.2	0.	-9.899
1417	14.302	5.2	0.	-8.0483
1418	14.5	5.2	0.	-6.2474
1419	14.698	5.2	0.	-4.5048
1420	14.896	5.2	0.	-2.826
1421	15.094	5.2	0.	-1.2184
1422	15.292	5.2	0.	-4.5884e-002
1423	15.49	5.2	0.	-8.7659e-003
1424	15.688	5.2	0.	-4.8086e-003
1425	15.885	5.2	0.	-3.5811e-003
1426	16.083	5.2	0.	-3.1403e-003
1427	16.281	5.2	0.	-2.9958e-003
1428	16.479	5.2	0.	-2.9858e-003
1429	16.677	5.2	0.	-3.0699e-003
1430	16.875	5.2	0.	-3.2139e-003
1431	17.073	5.2	0.	-3.3688e-003
1432	17.271	5.2	0.	-3.5225e-003
1433	17.469	5.2	0.	-3.7018e-003
1434	17.667	5.2	0.	-3.8934e-003
1435	17.865	5.2	0.	-4.0775e-003
1436	18.063	5.2	0.	-4.2475e-003
1437	18.26	5.2	0.	-4.4303e-003
1438	18.458	5.2	0.	-4.6197e-003
1439	18.656	5.2	0.	-4.7988e-003
1440	18.854	5.2	0.	-4.9626e-003
1441	19.052	5.2	0.	-5.1313e-003
1442	19.25	5.2	0.	-5.3054e-003
1443	19.448	5.2	0.	-5.4597e-003
1444	19.646	5.2	0.	-5.5974e-003
1445	19.844	5.2	0.	-5.725e-003
1446	20.042	5.2	0.	-5.8428e-003
1447	20.24	5.2	0.	-5.9252e-003
1448	20.438	5.2	0.	-5.9609e-003
1449	20.635	5.2	0.	-5.9549e-003
1450	20.833	5.2	0.	-5.8817e-003
1451	21.031	5.2	0.	-5.711e-003
1452	21.229	5.2	0.	-5.4036e-003
1453	21.427	5.2	0.	-4.9255e-003
1454	21.625	5.2	0.	-4.2116e-003
1455	21.823	5.2	0.	-3.1501e-003
1456	22.021	5.2	0.	-1.6056e-003
1457	22.219	5.2	0.	6.104e-004
1458	22.417	5.2	0.	3.8625e-003
1459	22.615	5.2	0.	8.4844e-003
1460	22.813	5.2	0.	1.6037e-002
1461	23.01	5.2	0.	2.5223e-002
1462	23.208	5.2	0.	5.0316e-002
1463	23.406	5.2	0.	5.4581e-002
1464	23.604	5.2	0.	0.23301
1465	23.802	5.2	0.	-2.8366e-002
1466	8.3646	5.	0.	-9.8347
1467	8.5625	5.	0.	-0.17453
1468	8.7604	5.	0.	-2.5902
1469	8.9583	5.	0.	-1.8099
1470	9.1563	5.	0.	-1.8427
1471	9.3542	5.	0.	-1.714
1472	9.5521	5.	0.	-1.6831
1473	9.75	5.	0.	-1.7416
1474	9.9479	5.	0.	-2.0129
1475	10.146	5.	0.	-2.9418
1476	10.344	5.	0.	-6.679
1477	10.542	5.	0.	-14.531
1478	10.74	5.	0.	-22.144
1479	10.937	5.	0.	-28.153
1480	11.135	5.	0.	-32.546
1481	11.333	5.	0.	-35.504
1482	11.531	5.	0.	-37.232
1483	11.729	5.	0.	-37.931
1484	11.927	5.	0.	-37.788
1485	12.125	5.	0.	-36.968
1486	12.323	5.	0.	-35.62
1487	12.521	5.	0.	-33.871
1488	12.719	5.	0.	-31.826
1489	12.917	5.	0.	-29.578
1490	13.115	5.	0.	-27.199
1491	13.313	5.	0.	-24.749
1492	13.51	5.	0.	-22.275
1493	13.708	5.	0.	-19.813
1494	13.906	5.	0.	-17.392
1495	14.104	5.	0.	-15.031
1496	14.302	5.	0.	-12.744
1497	14.5	5.	0.	-10.542
1498	14.698	5.	0.	-8.4281
1499	14.896	5.	0.	-6.4055
1500	15.094	5.	0.	-4.4743
1501	15.292	5.	0.	-2.6337
1502	15.49	5.	0.	-0.89338
1503	15.688	5.	0.	-3.0066e-002
1504	15.885	5.	0.	-9.2287e-003
1505	16.083	5.	0.	-5.1273e-003
1506	16.281	5.	0.	-3.4741e-003
1507	16.479	5.	0.	-2.6123e-003
1508	16.677	5.	0.	-2.1235e-003
1509	16.875	5.	0.	-1.8284e-003
1510	17.073	5.	0.	-1.6235e-003
1511	17.271	5.	0.	-1.463e-003
1512	17.469	5.	0.	-1.3534e-003
1513	17.667	5.	0.	-1.2777e-003
1514	17.865	5.	0.	-1.2001e-003
1515	18.063	5.	0.	-1.1138e-003
1516	18.26	5.	0.	-1.0398e-003
1517	18.458	5.	0.	-9.6959e-004
1518	18.656	5.	0.	-8.7933e-004
1519	18.854	5.	0.	-7.6377e-004
1520	19.052	5.	0.	-6.4301e-004
1521	19.25	5.	0.	-5.0833e-004
1522	19.448	5.	0.	-3.409e-004
1523	19.646	5.	0.	-1.2741e-004
1524	19.844	5.	0.	1.1659e-004
1525	20.042	5.	0.	4.0311e-004
1526	20.24	5.	0.	7.5841e-004
1527	20.438	5.	0.	1.1978e-003
1528	20.635	5.	0.	1.7251e-003
1529	20.833	5.	0.	2.3667e-003
1530	21.031	5.	0.	3.1677e-003
1531	21.229	5.	0.	4.173e-003
1532	21.427	5.	0.	5.4252e-003
1533	21.625	5.	0.	7.0115e-003
1534	21.823	5.	0.	9.0446e-003
1535	22.021	5.	0.	1.1691e-002
1536	22.219	5.	0.	1.5159e-002
1537	22.417	5.	0.	1.9845e-002
1538	22.615	5.	0.	2.612e-002
1539	22.813	5.	0.	3.5616e-002
1540	23.01	5.	0.	4.7139e-002
1541	23.208	5.	0.	7.522e-002
1542	23.406	5.	0.	8.2855e-002
1543	23.604	5.	0.	0.27035
1544	23.802	5.	0.	2.4543e-002
1545	8.3646	4.8	0.	-8.3273
1546	8.5625	4.8	0.	2.6596e-002
1547	8.7604	4.8	0.	-2.746
1548	8.9583	4.8	0.	-2.2997
1549	9.1563	4.8	0.	-2.404
1550	9.3542	4.8	0.	-2.6716
1551	9.5521	4.8	0.	-3.3966
1552	9.75	4.8	0.	-5.578
1553	9.9479	4.8	0.	-13.239
1554	10.146	4.8	0.	-25.54
1555	10.344	4.8	0.	-36.05
1556	10.542	4.8	0.	-43.871
1557	10.74	4.8	0.	-49.385
1558	10.937	4.8	0.	-53.003
1559	11.135	4.8	0.	-55.063
1560	11.333	4.8	0.	-55.842
1561	11.531	4.8	0.	-55.576
1562	11.729	4.8	0.	-54.469
1563	11.927	4.8	0.	-52.699
1564	12.125	4.8	0.	-50.42
1565	12.323	4.8	0.	-47.763
1566	12.521	4.8	0.	-44.841
1567	12.719	4.8	0.	-41.746
1568	12.917	4.8	0.	-38.556
1569	13.115	4.8	0.	-35.332
1570	13.313	4.8	0.	-32.122
1571	13.51	4.8	0.	-28.965
1572	13.708	4.8	0.	-25.887
1573	13.906	4.8	0.	-22.909
1574	14.104	4.8	0.	-20.044
1575	14.302	4.8	0.	-17.3
1576	14.5	4.8	0.	-14.682
1577	14.698	4.8	0.	-12.19
1578	14.896	4.8	0.	-9.8213
1579	15.094	4.8	0.	-7.5725
1580	15.292	4.8	0.	-5.4382
1581	15.49	4.8	0.	-3.4126
1582	15.688	4.8	0.	-1.4946
1583	15.885	4.8	0.	-6.7548e-002
1584	16.083	4.8	0.	-1.0992e-002
1585	16.281	4.8	0.	-4.7679e-003
1586	16.479	4.8	0.	-2.4454e-003
1587	16.677	4.8	0.	-1.2543e-003
1588	16.875	4.8	0.	-5.3785e-004
1589	17.073	4.8	0.	-3.3182e-005
1590	17.271	4.8	0.	3.5732e-004
1591	17.469	4.8	0.	6.6225e-004
1592	17.667	4.8	0.	9.1614e-004
1593	17.865	4.8	0.	1.1589e-003
1594	18.063	4.8	0.	1.403e-003
1595	18.26	4.8	0.	1.633e-003
1596	18.458	4.8	0.	1.863e-003
1597	18.656	4.8	0.	2.1123e-003
1598	18.854	4.8	0.	2.3956e-003
1599	19.052	4.8	0.	2.688e-003
1600	19.25	4.8	0.	3.0051e-003
1601	19.448	4.8	0.	3.3689e-003
1602	19.646	4.8	0.	3.7848e-003
1603	19.844	4.8	0.	4.2475e-003
1604	20.042	4.8	0.	4.768e-003
1605	20.24	4.8	0.	5.3767e-003
1606	20.438	4.8	0.	6.089e-003
1607	20.635	4.8	0.	6.9138e-003
1608	20.833	4.8	0.	7.8805e-003
1609	21.031	4.8	0.	9.0372e-003
1610	21.229	4.8	0.	1.0427e-002
1611	21.427	4.8	0.	1.2111e-002
1612	21.625	4.8	0.	1.4166e-002
1613	21.823	4.8	0.	1.6725e-002
1614	22.021	4.8	0.	1.9951e-002
1615	22.219	4.8	0.	2.4069e-002
1616	22.417	4.8	0.	2.9483e-002
1617	22.615	4.8	0.	3.6586e-002
1618	22.813	4.8	0.	4.7039e-002
1619	23.01	4.8	0.	5.9676e-002
1620	23.208	4.8	0.	8.9289e-002
1621	23.406	4.8	0.	9.8492e-002
1622	23.604	4.8	0.	0.29101
1623	23.802	4.8	0.	5.5866e-002
1624	8.3646	4.6	0.	-24.056
1625	8.5625	4.6	0.	-0.55459
1626	8.7604	4.6	0.	-2.9955
1627	8.9583	4.6	0.	-3.09
1628	9.1563	4.6	0.	-3.5295
1629	9.3542	4.6	0.	-5.1998
1630	9.5521	4.6	0.	-13.674
1631	9.75	4.6	0.	-36.252
1632	9.9479	4.6	0.	-55.236
1633	10.146	4.6	0.	-67.568
1634	10.344	4.6	0.	-75.16
1635	10.542	4.6	0.	-79.477
1636	10.74	4.6	0.	-81.463
1637	10.937	4.6	0.	-81.728
1638	11.135	4.6	0.	-80.691
1639	11.333	4.6	0.	-78.66
1640	11.531	4.6	0.	-75.872
1641	11.729	4.6	0.	-72.517
1642	11.927	4.6	0.	-68.753
1643	12.125	4.6	0.	-64.712
1644	12.323	4.6	0.	-60.5
1645	12.521	4.6	0.	-56.207
1646	12.719	4.6	0.	-51.905
1647	12.917	4.6	0.	-47.649
1648	13.115	4.6	0.	-43.484
1649	13.313	4.6	0.	-39.442
1650	13.51	4.6	0.	-35.547
1651	13.708	4.6	0.	-31.814
1652	13.906	4.6	0.	-28.252
1653	14.104	4.6	0.	-24.866
1654	14.302	4.6	0.	-21.656
1655	14.5	4.6	0.	-18.618
1656	14.698	4.6	0.	-15.747
1657	14.896	4.6	0.	-13.036
1658	15.094	4.6	0.	-10.476
1659	15.292	4.6	0.	-8.0575
1660	15.49	4.6	0.	-5.7704
1661	15.688	4.6	0.	-3.6051
1662	15.885	4.6	0.	-1.5567
1663	16.083	4.6	0.	-5.7226e-002
1664	16.281	4.6	0.	-8.1673e-003
1665	16.479	4.6	0.	-2.5e-003
1666	16.677	4.6	0.	-3.2096e-004
1667	16.875	4.6	0.	8.4992e-004
1668	17.073	4.6	0.	1.621e-003
1669	17.271	4.6	0.	2.2051e-003
1670	17.469	4.6	0.	2.6643e-003
1671	17.667	4.6	0.	3.0518e-003
1672	17.865	4.6	0.	3.4171e-003
1673	18.063	4.6	0.	3.7841e-003
1674	18.26	4.6	0.	4.133e-003
1675	18.458	4.6	0.	4.484e-003
1676	18.656	4.6	0.	4.857e-003
1677	18.854	4.6	0.	5.2671e-003
1678	19.052	4.6	0.	5.6946e-003
1679	19.25	4.6	0.	6.1502e-003
1680	19.448	4.6	0.	6.6599e-003
1681	19.646	4.6	0.	7.233e-003
1682	19.844	4.6	0.	7.8632e-003
1683	20.042	4.6	0.	8.5614e-003
1684	20.24	4.6	0.	9.3618e-003
1685	20.438	4.6	0.	1.0281e-002
1686	20.635	4.6	0.	1.1327e-002
1687	20.833	4.6	0.	1.2532e-002
1688	21.031	4.6	0.	1.3947e-002
1689	21.229	4.6	0.	1.5623e-002
1690	21.427	4.6	0.	1.7608e-002
1691	21.625	4.6	0.	1.9998e-002
1692	21.823	4.6	0.	2.292e-002
1693	22.021	4.6	0.	2.6548e-002
1694	22.219	4.6	0.	3.1108e-002
1695	22.417	4.6	0.	3.7009e-002
1696	22.615	4.6	0.	4.4665e-002
1697	22.813	4.6	0.	5.576e-002
1698	23.01	4.6	0.	6.9151e-002
1699	23.208	4.6	0.	9.9805e-002
1700	23.406	4.6	0.	0.1102
1701	23.604	4.6	0.	0.30653
1702	23.802	4.6	0.	8.0386e-002
1703	8.3646	4.4	0.	11.569
1704	8.5625	4.4	0.	5.3545
1705	8.7604	4.4	0.	-10.887
1706	8.9583	4.4	0.	-2.7635
1707	9.1563	4.4	0.	-6.6698
1708	9.3542	4.4	0.	-23.456
1709	9.5521	4.4	0.	-65.1
1710	9.75	4.4	0.	-93.022
1711	9.9479	4.4	0.	-108.53
1712	10.146	4.4	0.	-116.23
1713	10.344	4.4	0.	-119.06
1714	10.542	4.4	0.	-118.78
1715	10.74	4.4	0.	-116.45
1716	10.937	4.4	0.	-112.75
1717	11.135	4.4	0.	-108.11
1718	11.333	4.4	0.	-102.85
1719	11.531	4.4	0.	-97.196
1720	11.729	4.4	0.	-91.304
1721	11.927	4.4	0.	-85.309
1722	12.125	4.4	0.	-79.312
1723	12.323	4.4	0.	-73.391
1724	12.521	4.4	0.	-67.605
1725	12.719	4.4	0.	-62.
1726	12.917	4.4	0.	-56.607
1727	13.115	4.4	0.	-51.448
1728	13.313	4.4	0.	-46.537
1729	13.51	4.4	0.	-41.879
1730	13.708	4.4	0.	-37.476
1731	13.906	4.4	0.	-33.324
1732	14.104	4.4	0.	-29.415
1733	14.302	4.4	0.	-25.742
1734	14.5	4.4	0.	-22.291
1735	14.698	4.4	0.	-19.052
1736	14.896	4.4	0.	-16.01
1737	15.094	4.4	0.	-13.151
1738	15.292	4.4	0.	-10.462
1739	15.49	4.4	0.	-7.9278
1740	15.688	4.4	0.	-5.5356
1741	15.885	4.4	0.	-3.2724
1742	16.083	4.4	0.	-1.1345
1743	16.281	4.4	0.	-2.1309e-002
1744	16.479	4.4	0.	-2.9683e-003
1745	16.677	4.4	0.	6.7449e-004
1746	16.875	4.4	0.	2.2869e-003
1747	17.073	4.4	0.	3.2618e-003
1748	17.271	4.4	0.	3.9697e-003
1749	17.469	4.4	0.	4.5233e-003
1750	17.667	4.4	0.	4.9922e-003
1751	17.865	4.4	0.	5.436e-003
1752	18.063	4.4	0.	5.8769e-003
1753	18.26	4.4	0.	6.3041e-003
1754	18.458	4.4	0.	6.7322e-003
1755	18.656	4.4	0.	7.189e-003
1756	18.854	4.4	0.	7.6832e-003
1757	19.052	4.4	0.	8.2003e-003
1758	19.25	4.4	0.	8.7523e-003
1759	19.448	4.4	0.	9.3652e-003
1760	19.646	4.4	0.	1.0045e-002
1761	19.844	4.4	0.	1.0789e-002
1762	20.042	4.4	0.	1.1608e-002
1763	20.24	4.4	0.	1.254e-002
1764	20.438	4.4	0.	1.3599e-002
1765	20.635	4.4	0.	1.4793e-002
1766	20.833	4.4	0.	1.6159e-002
1767	21.031	4.4	0.	1.7748e-002
1768	21.229	4.4	0.	1.9606e-002
1769	21.427	4.4	0.	2.1795e-002
1770	21.625	4.4	0.	2.44e-002
1771	21.823	4.4	0.	2.7557e-002
1772	22.021	4.4	0.	3.1438e-002
1773	22.219	4.4	0.	3.6275e-002
1774	22.417	4.4	0.	4.2486e-002
1775	22.615	4.4	0.	5.0486e-002
1776	22.813	4.4	0.	6.1995e-002
1777	23.01	4.4	0.	7.5875e-002
1778	23.208	4.4	0.	0.10723
1779	23.406	4.4	0.	0.11843
1780	23.604	4.4	0.	0.31764
1781	23.802	4.4	0.	9.8764e-002
1782	8.3646	4.2	0.	-139.09
1783	8.5625	4.2	0.	9.1283
1784	8.7604	4.2	0.	-7.1534
1785	8.9583	4.2	0.	-6.1842
1786	9.1563	4.2	0.	-30.015
1787	9.3542	4.2	0.	-94.926
1788	9.5521	4.2	0.	-135.64
1789	9.75	4.2	0.	-156.61
1790	9.9479	4.2	0.	-165.6
1791	10.146	4.2	0.	-167.32
1792	10.344	4.2	0.	-164.64
1793	10.542	4.2	0.	-159.27
1794	10.74	4.2	0.	-152.27
1795	10.937	4.2	0.	-144.33
1796	11.135	4.2	0.	-135.88
1797	11.333	4.2	0.	-127.21
1798	11.531	4.2	0.	-118.53
1799	11.729	4.2	0.	-109.98
1800	11.927	4.2	0.	-101.66
1801	12.125	4.2	0.	-93.634
1802	12.323	4.2	0.	-85.948
1803	12.521	4.2	0.	-78.631
1804	12.719	4.2	0.	-71.698
1805	12.917	4.2	0.	-65.154
1806	13.115	4.2	0.	-58.997
1807	13.313	4.2	0.	-53.218
1808	13.51	4.2	0.	-47.806
1809	13.708	4.2	0.	-42.744
1810	13.906	4.2	0.	-38.016
1811	14.104	4.2	0.	-33.603
1812	14.302	4.2	0.	-29.484
1813	14.5	4.2	0.	-25.641
1814	14.698	4.2	0.	-22.053
1815	14.896	4.2	0.	-18.699
1816	15.094	4.2	0.	-15.562
1817	15.292	4.2	0.	-12.621
1818	15.49	4.2	0.	-9.8598
1819	15.688	4.2	0.	-7.2599
1820	15.885	4.2	0.	-4.8052
1821	16.083	4.2	0.	-2.4813
1822	16.281	4.2	0.	-0.32202
1823	16.479	4.2	0.	-4.3276e-003
1824	16.677	4.2	0.	1.7781e-003
1825	16.875	4.2	0.	3.7751e-003
1826	17.073	4.2	0.	4.8657e-003
1827	17.271	4.2	0.	5.6295e-003
1828	17.469	4.2	0.	6.2242e-003
1829	17.667	4.2	0.	6.7315e-003
1830	17.865	4.2	0.	7.2138e-003
1831	18.063	4.2	0.	7.6995e-003
1832	18.26	4.2	0.	8.1727e-003
1833	18.458	4.2	0.	8.6502e-003
1834	18.656	4.2	0.	9.1602e-003
1835	18.854	4.2	0.	9.7129e-003
1836	19.052	4.2	0.	1.0294e-002
1837	19.25	4.2	0.	1.0912e-002
1838	19.448	4.2	0.	1.159e-002
1839	19.646	4.2	0.	1.2349e-002
1840	19.844	4.2	0.	1.3173e-002
1841	20.042	4.2	0.	1.4083e-002
1842	20.24	4.2	0.	1.5103e-002
1843	20.438	4.2	0.	1.6257e-002
1844	20.635	4.2	0.	1.7559e-002
1845	20.833	4.2	0.	1.9037e-002
1846	21.031	4.2	0.	2.0743e-002
1847	21.229	4.2	0.	2.2732e-002
1848	21.427	4.2	0.	2.5055e-002
1849	21.625	4.2	0.	2.7806e-002
1850	21.823	4.2	0.	3.1122e-002
1851	22.021	4.2	0.	3.5172e-002
1852	22.219	4.2	0.	4.0195e-002
1853	22.417	4.2	0.	4.6613e-002
1854	22.615	4.2	0.	5.4852e-002
1855	22.813	4.2	0.	6.6646e-002
1856	23.01	4.2	0.	8.0875e-002
1857	23.208	4.2	0.	0.11275
1858	23.406	4.2	0.	0.12457
1859	23.604	4.2	0.	0.32599
1860	23.802	4.2	0.	0.1131
1861	8.3646	4.	0.	-530.3
1862	8.5625	4.	0.	72.738
1863	8.7604	4.	0.	-16.543
1864	8.9583	4.	0.	-24.71
1865	9.1563	4.	0.	-117.94
1866	9.3542	4.	0.	-175.53
1867	9.5521	4.	0.	-205.71
1868	9.75	4.	0.	-218.62
1869	9.9479	4.	0.	-220.95
1870	10.146	4.	0.	-216.78
1871	10.344	4.	0.	-208.7
1872	10.542	4.	0.	-198.36
1873	10.74	4.	0.	-186.79
1874	10.937	4.	0.	-174.69
1875	11.135	4.	0.	-162.48
1876	11.333	4.	0.	-150.47
1877	11.531	4.	0.	-138.83
1878	11.729	4.	0.	-127.67
1879	11.927	4.	0.	-117.07
1880	12.125	4.	0.	-107.07
1881	12.323	4.	0.	-97.667
1882	12.521	4.	0.	-88.867
1883	12.719	4.	0.	-80.653
1884	12.917	4.	0.	-73.004
1885	13.115	4.	0.	-65.893
1886	13.313	4.	0.	-59.29
1887	13.51	4.	0.	-53.165
1888	13.708	4.	0.	-47.485
1889	13.906	4.	0.	-42.22
1890	14.104	4.	0.	-37.338
1891	14.302	4.	0.	-32.809
1892	14.5	4.	0.	-28.605
1893	14.698	4.	0.	-24.698
1894	14.896	4.	0.	-21.063
1895	15.094	4.	0.	-17.674
1896	15.292	4.	0.	-14.508
1897	15.49	4.	0.	-11.543
1898	15.688	4.	0.	-8.758
1899	15.885	4.	0.	-6.1341
1900	16.083	4.	0.	-3.6529
1901	16.281	4.	0.	-1.3017
1902	16.479	4.	0.	-8.4377e-003
1903	16.677	4.	0.	3.0384e-003
1904	16.875	4.	0.	5.2842e-003
1905	17.073	4.	0.	6.3847e-003
1906	17.271	4.	0.	7.1368e-003
1907	17.469	4.	0.	7.7262e-003
1908	17.667	4.	0.	8.238e-003
1909	17.865	4.	0.	8.7331e-003
1910	18.063	4.	0.	9.2354e-003
1911	18.26	4.	0.	9.7323e-003
1912	18.458	4.	0.	1.024e-002
1913	18.656	4.	0.	1.0782e-002
1914	18.854	4.	0.	1.1373e-002
1915	19.052	4.	0.	1.1993e-002
1916	19.25	4.	0.	1.2655e-002
1917	19.448	4.	0.	1.3384e-002
1918	19.646	4.	0.	1.4192e-002
1919	19.844	4.	0.	1.5073e-002
1920	20.042	4.	0.	1.6039e-002
1921	20.24	4.	0.	1.7125e-002
1922	20.438	4.	0.	1.8347e-002
1923	20.635	4.	0.	1.9721e-002
1924	20.833	4.	0.	2.1276e-002
1925	21.031	4.	0.	2.3064e-002
1926	21.229	4.	0.	2.5138e-002
1927	21.427	4.	0.	2.7555e-002
1928	21.625	4.	0.	3.0404e-002
1929	21.823	4.	0.	3.3824e-002
1930	22.021	4.	0.	3.7988e-002
1931	22.219	4.	0.	4.3134e-002
1932	22.417	4.	0.	4.9697e-002
1933	22.615	4.	0.	5.8102e-002
1934	22.813	4.	0.	7.0095e-002
1935	23.01	4.	0.	8.458e-002
1936	23.208	4.	0.	0.11684
1937	23.406	4.	0.	0.12912
1938	23.604	4.	0.	0.33226
1939	23.802	4.	0.	0.12422
1940	8.3646	3.8	0.	-11.265
1941	8.5625	3.8	0.	29.531
1942	8.7604	3.8	0.	-8.4765
1943	8.9583	3.8	0.	-100.04
1944	9.1563	3.8	0.	-190.35
1945	9.3542	3.8	0.	-239.79
1946	9.5521	3.8	0.	-264.08
1947	9.75	3.8	0.	-272.
1948	9.9479	3.8	0.	-269.61
1949	10.146	3.8	0.	-260.83
1950	10.344	3.8	0.	-248.26
1951	10.542	3.8	0.	-233.59
1952	10.74	3.8	0.	-217.96
1953	10.937	3.8	0.	-202.11
1954	11.135	3.8	0.	-186.49
1955	11.333	3.8	0.	-171.42
1956	11.531	3.8	0.	-157.06
1957	11.729	3.8	0.	-143.52
1958	11.927	3.8	0.	-130.84
1959	12.125	3.8	0.	-119.02
1960	12.323	3.8	0.	-108.06
1961	12.521	3.8	0.	-97.904
1962	12.719	3.8	0.	-88.528
1963	12.917	3.8	0.	-79.879
1964	13.115	3.8	0.	-71.908
1965	13.313	3.8	0.	-64.565
1966	13.51	3.8	0.	-57.802
1967	13.708	3.8	0.	-51.572
1968	13.906	3.8	0.	-45.83
1969	14.104	3.8	0.	-40.534
1970	14.302	3.8	0.	-35.644
1971	14.5	3.8	0.	-31.125
1972	14.698	3.8	0.	-26.941
1973	14.896	3.8	0.	-23.06
1974	15.094	3.8	0.	-19.454
1975	15.292	3.8	0.	-16.093
1976	15.49	3.8	0.	-12.954
1977	15.688	3.8	0.	-10.012
1978	15.885	3.8	0.	-7.244
1979	16.083	3.8	0.	-4.6302
1980	16.281	3.8	0.	-2.1522
1981	16.479	3.8	0.	-3.385e-002
1982	16.677	3.8	0.	4.4968e-003
1983	16.875	3.8	0.	6.765e-003
1984	17.073	3.8	0.	7.7639e-003
1985	17.271	3.8	0.	8.4488e-003
1986	17.469	3.8	0.	9.0007e-003
1987	17.667	3.8	0.	9.4924e-003
1988	17.865	3.8	0.	9.9803e-003
1989	18.063	3.8	0.	1.0486e-002
1990	18.26	3.8	0.	1.0993e-002
1991	18.458	3.8	0.	1.1513e-002
1992	18.656	3.8	0.	1.2076e-002
1993	18.854	3.8	0.	1.2689e-002
1994	19.052	3.8	0.	1.3335e-002
1995	19.25	3.8	0.	1.4027e-002
1996	19.448	3.8	0.	1.4788e-002
1997	19.646	3.8	0.	1.5632e-002
1998	19.844	3.8	0.	1.655e-002
1999	20.042	3.8	0.	1.7557e-002
2000	20.24	3.8	0.	1.8685e-002
2001	20.438	3.8	0.	1.9955e-002
2002	20.635	3.8	0.	2.138e-002
2003	20.833	3.8	0.	2.2985e-002
2004	21.031	3.8	0.	2.4827e-002
2005	21.229	3.8	0.	2.6961e-002
2006	21.427	3.8	0.	2.944e-002
2007	21.625	3.8	0.	3.2356e-002
2008	21.823	3.8	0.	3.5845e-002
2009	22.021	3.8	0.	4.0088e-002
2010	22.219	3.8	0.	4.5321e-002
2011	22.417	3.8	0.	5.1981e-002
2012	22.615	3.8	0.	6.0501e-002
2013	22.813	3.8	0.	7.2642e-002
2014	23.01	3.8	0.	8.7313e-002
2015	23.208	3.8	0.	0.11986
2016	23.406	3.8	0.	0.13249
2017	23.604	3.8	0.	0.33693
2018	23.802	3.8	0.	0.13274
2019	8.3646	3.6	0.	-15.076
2020	8.5625	3.6	0.	-13.783
2021	8.7604	3.6	0.	2.4689
2022	8.9583	3.6	0.	-122.81
2023	9.1563	3.6	0.	-223.18
2024	9.3542	3.6	0.	-278.54
2025	9.5521	3.6	0.	-304.83
2026	9.75	3.6	0.	-312.41
2027	9.9479	3.6	0.	-308.17
2028	10.146	3.6	0.	-296.65
2029	10.344	3.6	0.	-280.9
2030	10.542	3.6	0.	-262.91
2031	10.74	3.6	0.	-244.02
2032	10.937	3.6	0.	-225.07
2033	11.135	3.6	0.	-206.61
2034	11.333	3.6	0.	-188.96
2035	11.531	3.6	0.	-172.31
2036	11.729	3.6	0.	-156.75
2037	11.927	3.6	0.	-142.3
2038	12.125	3.6	0.	-128.95
2039	12.323	3.6	0.	-116.66
2040	12.521	3.6	0.	-105.37
2041	12.719	3.6	0.	-95.013
2042	12.917	3.6	0.	-85.523
2043	13.115	3.6	0.	-76.83
2044	13.313	3.6	0.	-68.868
2045	13.51	3.6	0.	-61.574
2046	13.708	3.6	0.	-54.886
2047	13.906	3.6	0.	-48.748
2048	14.104	3.6	0.	-43.111
2049	14.302	3.6	0.	-37.924
2050	14.5	3.6	0.	-33.146
2051	14.698	3.6	0.	-28.735
2052	14.896	3.6	0.	-24.655
2053	15.094	3.6	0.	-20.872
2054	15.292	3.6	0.	-17.355
2055	15.49	3.6	0.	-14.074
2056	15.688	3.6	0.	-11.005
2057	15.885	3.6	0.	-8.1217
2058	16.083	3.6	0.	-5.4021
2059	16.281	3.6	0.	-2.825
2060	16.479	3.6	0.	-0.3825
2061	16.677	3.6	0.	6.1668e-003
2062	16.875	3.6	0.	8.1239e-003
2063	17.073	3.6	0.	8.9364e-003
2064	17.271	3.6	0.	9.5236e-003
2065	17.469	3.6	0.	1.002e-002
2066	17.667	3.6	0.	1.048e-002
2067	17.865	3.6	0.	1.0954e-002
2068	18.063	3.6	0.	1.1453e-002
2069	18.26	3.6	0.	1.1959e-002
2070	18.458	3.6	0.	1.2488e-002
2071	18.656	3.6	0.	1.306e-002
2072	18.854	3.6	0.	1.3684e-002
2073	19.052	3.6	0.	1.4348e-002
2074	19.25	3.6	0.	1.5058e-002
2075	19.448	3.6	0.	1.5842e-002
2076	19.646	3.6	0.	1.6707e-002
2077	19.844	3.6	0.	1.765e-002
2078	20.042	3.6	0.	1.8684e-002
2079	20.24	3.6	0.	1.9844e-002
2080	20.438	3.6	0.	2.1147e-002
2081	20.635	3.6	0.	2.2601e-002
2082	20.833	3.6	0.	2.4243e-002
2083	21.031	3.6	0.	2.6123e-002
2084	21.229	3.6	0.	2.8296e-002
2085	21.427	3.6	0.	3.0812e-002
2086	21.625	3.6	0.	3.3775e-002
2087	21.823	3.6	0.	3.7312e-002
2088	22.021	3.6	0.	4.1605e-002
2089	22.219	3.6	0.	4.6895e-002
2090	22.417	3.6	0.	5.3624e-002
2091	22.615	3.6	0.	6.2224e-002
2092	22.813	3.6	0.	7.4472e-002
2093	23.01	3.6	0.	8.9273e-002
2094	23.208	3.6	0.	0.12203
2095	23.406	3.6	0.	0.13492
2096	23.604	3.6	0.	0.34032
2097	23.802	3.6	0.	0.13905
2098	8.3646	3.4	0.	5.5038
2099	8.5625	3.4	0.	0.41123
2100	8.7604	3.4	0.	-1.4227
2101	8.9583	3.4	0.	-103.54
2102	9.1563	3.4	0.	-225.9
2103	9.3542	3.4	0.	-294.9
2104	9.5521	3.4	0.	-328.41
2105	9.75	3.4	0.	-339.02
2106	9.9479	3.4	0.	-335.2
2107	10.146	3.4	0.	-322.62
2108	10.344	3.4	0.	-305.
2109	10.542	3.4	0.	-284.79
2110	10.74	3.4	0.	-263.57
2111	10.937	3.4	0.	-242.36
2112	11.135	3.4	0.	-221.77
2113	11.333	3.4	0.	-202.18
2114	11.531	3.4	0.	-183.79
2115	11.729	3.4	0.	-166.7
2116	11.927	3.4	0.	-150.91
2117	12.125	3.4	0.	-136.4
2118	12.323	3.4	0.	-123.1
2119	12.521	3.4	0.	-110.95
2120	12.719	3.4	0.	-99.847
2121	12.917	3.4	0.	-89.721
2122	13.115	3.4	0.	-80.484
2123	13.313	3.4	0.	-72.055
2124	13.51	3.4	0.	-64.36
2125	13.708	3.4	0.	-57.329
2126	13.906	3.4	0.	-50.896
2127	14.104	3.4	0.	-45.002
2128	14.302	3.4	0.	-39.595
2129	14.5	3.4	0.	-34.624
2130	14.698	3.4	0.	-30.045
2131	14.896	3.4	0.	-25.817
2132	15.094	3.4	0.	-21.904
2133	15.292	3.4	0.	-18.271
2134	15.49	3.4	0.	-14.887
2135	15.688	3.4	0.	-11.724
2136	15.885	3.4	0.	-8.7568
2137	16.083	3.4	0.	-5.9598
2138	16.281	3.4	0.	-3.311
2139	16.479	3.4	0.	-0.79138
2140	16.677	3.4	0.	7.9139e-003
2141	16.875	3.4	0.	9.2449e-003
2142	17.073	3.4	0.	9.8373e-003
2143	17.271	3.4	0.	1.0322e-002
2144	17.469	3.4	0.	1.0762e-002
2145	17.667	3.4	0.	1.1192e-002
2146	17.865	3.4	0.	1.1648e-002
2147	18.063	3.4	0.	1.2139e-002
2148	18.26	3.4	0.	1.2645e-002
2149	18.458	3.4	0.	1.3173e-002
2150	18.656	3.4	0.	1.375e-002
2151	18.854	3.4	0.	1.4383e-002
2152	19.052	3.4	0.	1.5056e-002
2153	19.25	3.4	0.	1.5777e-002
2154	19.448	3.4	0.	1.6572e-002
2155	19.646	3.4	0.	1.7455e-002
2156	19.844	3.4	0.	1.8414e-002
2157	20.042	3.4	0.	1.9465e-002
2158	20.24	3.4	0.	2.0642e-002
2159	20.438	3.4	0.	2.1963e-002
2160	20.635	3.4	0.	2.344e-002
2161	20.833	3.4	0.	2.5104e-002
2162	21.031	3.4	0.	2.7009e-002
2163	21.229	3.4	0.	2.9203e-002
2164	21.427	3.4	0.	3.1751e-002
2165	21.625	3.4	0.	3.4738e-002
2166	21.823	3.4	0.	3.8304e-002
2167	22.021	3.4	0.	4.2631e-002
2168	22.219	3.4	0.	4.796e-002
2169	22.417	3.4	0.	5.4731e-002
2170	22.615	3.4	0.	6.3388e-002
2171	22.813	3.4	0.	7.5703e-002
2172	23.01	3.4	0.	9.0595e-002
2173	23.208	3.4	0.	0.12349
2174	23.406	3.4	0.	0.13655
2175	23.604	3.4	0.	0.34262
2176	23.802	3.4	0.	0.1434
2177	8.3646	3.2	0.	-1.9605
2178	8.5625	3.2	0.	-0.20496
2179	8.7604	3.2	0.	0.46048
2180	8.9583	3.2	0.	-78.971
2181	9.1563	3.2	0.	-217.73
2182	9.3542	3.2	0.	-298.71
2183	9.5521	3.2	0.	-339.35
2184	9.75	3.2	0.	-353.48
2185	9.9479	3.2	0.	-350.89
2186	10.146	3.2	0.	-338.19
2187	10.344	3.2	0.	-319.7
2188	10.542	3.2	0.	-298.26
2189	10.74	3.2	0.	-275.67
2190	10.937	3.2	0.	-253.08
2191	11.135	3.2	0.	-231.18
2192	11.333	3.2	0.	-210.39
2193	11.531	3.2	0.	-190.93
2194	11.729	3.2	0.	-172.88
2195	11.927	3.2	0.	-156.25
2196	12.125	3.2	0.	-141.01
2197	12.323	3.2	0.	-127.09
2198	12.521	3.2	0.	-114.39
2199	12.719	3.2	0.	-102.83
2200	12.917	3.2	0.	-92.308
2201	13.115	3.2	0.	-82.732
2202	13.313	3.2	0.	-74.013
2203	13.51	3.2	0.	-66.07
2204	13.708	3.2	0.	-58.826
2205	13.906	3.2	0.	-52.21
2206	14.104	3.2	0.	-46.159
2207	14.302	3.2	0.	-40.615
2208	14.5	3.2	0.	-35.525
2209	14.698	3.2	0.	-30.843
2210	14.896	3.2	0.	-26.524
2211	15.094	3.2	0.	-22.531
2212	15.292	3.2	0.	-18.827
2213	15.49	3.2	0.	-15.38
2214	15.688	3.2	0.	-12.16
2215	15.885	3.2	0.	-9.1411
2216	16.083	3.2	0.	-6.297
2217	16.281	3.2	0.	-3.6047
2218	16.479	3.2	0.	-1.0427
2219	16.677	3.2	0.	9.3584e-003
2220	16.875	3.2	0.	9.9919e-003
2221	17.073	3.2	0.	1.0405e-002
2222	17.271	3.2	0.	1.0814e-002
2223	17.469	3.2	0.	1.1213e-002
2224	17.667	3.2	0.	1.1624e-002
2225	17.865	3.2	0.	1.2065e-002
2226	18.063	3.2	0.	1.2549e-002
2227	18.26	3.2	0.	1.3051e-002
2228	18.458	3.2	0.	1.3579e-002
2229	18.656	3.2	0.	1.4158e-002
2230	18.854	3.2	0.	1.4795e-002
2231	19.052	3.2	0.	1.5473e-002
2232	19.25	3.2	0.	1.62e-002
2233	19.448	3.2	0.	1.7002e-002
2234	19.646	3.2	0.	1.7893e-002
2235	19.844	3.2	0.	1.886e-002
2236	20.042	3.2	0.	1.9922e-002
2237	20.24	3.2	0.	2.111e-002
2238	20.438	3.2	0.	2.2441e-002
2239	20.635	3.2	0.	2.393e-002
2240	20.833	3.2	0.	2.5605e-002
2241	21.031	3.2	0.	2.7524e-002
2242	21.229	3.2	0.	2.9734e-002
2243	21.427	3.2	0.	3.2294e-002
2244	21.625	3.2	0.	3.5297e-002
2245	21.823	3.2	0.	3.8879e-002
2246	22.021	3.2	0.	4.3225e-002
2247	22.219	3.2	0.	4.8575e-002
2248	22.417	3.2	0.	5.5372e-002
2249	22.615	3.2	0.	6.4058e-002
2250	22.813	3.2	0.	7.6415e-002
2251	23.01	3.2	0.	9.1358e-002
2252	23.208	3.2	0.	0.12434
2253	23.406	3.2	0.	0.1375
2254	23.604	3.2	0.	0.34396
2255	23.802	3.2	0.	0.14595
2256	8.3646	3.	0.	1.3916
2257	8.5625	3.	0.	0.13932
2258	8.7604	3.	0.	0.75782
2259	8.9583	3.	0.	-69.147
2260	9.1563	3.	0.	-213.37
2261	9.3542	3.	0.	-298.86
2262	9.5521	3.	0.	-342.35
2263	9.75	3.	0.	-357.98
2264	9.9479	3.	0.	-356.
2265	10.146	3.	0.	-343.35
2266	10.344	3.	0.	-324.63
2267	10.542	3.	0.	-302.8
2268	10.74	3.	0.	-279.76
2269	10.937	3.	0.	-256.71
2270	11.135	3.	0.	-234.37
2271	11.333	3.	0.	-213.18
2272	11.531	3.	0.	-193.35
2273	11.729	3.	0.	-174.97
2274	11.927	3.	0.	-158.06
2275	12.125	3.	0.	-142.58
2276	12.323	3.	0.	-128.44
2277	12.521	3.	0.	-115.56
2278	12.719	3.	0.	-103.84
2279	12.917	3.	0.	-93.182
2280	13.115	3.	0.	-83.491
2281	13.313	3.	0.	-74.674
2282	13.51	3.	0.	-66.647
2283	13.708	3.	0.	-59.33
2284	13.906	3.	0.	-52.652
2285	14.104	3.	0.	-46.548
2286	14.302	3.	0.	-40.957
2287	14.5	3.	0.	-35.828
2288	14.698	3.	0.	-31.111
2289	14.896	3.	0.	-26.761
2290	15.094	3.	0.	-22.741
2291	15.292	3.	0.	-19.013
2292	15.49	3.	0.	-15.545
2293	15.688	3.	0.	-12.306
2294	15.885	3.	0.	-9.2698
2295	16.083	3.	0.	-6.4099
2296	16.281	3.	0.	-3.703
2297	16.479	3.	0.	-1.127
2298	16.677	3.	0.	9.9402e-003
2299	16.875	3.	0.	1.0255e-002
2300	17.073	3.	0.	1.06e-002
2301	17.271	3.	0.	1.098e-002
2302	17.469	3.	0.	1.1367e-002
2303	17.667	3.	0.	1.1766e-002
2304	17.865	3.	0.	1.2204e-002
2305	18.063	3.	0.	1.2686e-002
2306	18.26	3.	0.	1.3187e-002
2307	18.458	3.	0.	1.3716e-002
2308	18.656	3.	0.	1.4294e-002
2309	18.854	3.	0.	1.4932e-002
2310	19.052	3.	0.	1.5612e-002
2311	19.25	3.	0.	1.6339e-002
2312	19.448	3.	0.	1.7147e-002
2313	19.646	3.	0.	1.8037e-002
2314	19.844	3.	0.	1.9009e-002
2315	20.042	3.	0.	2.0075e-002
2316	20.24	3.	0.	2.1264e-002
2317	20.438	3.	0.	2.2602e-002
2318	20.635	3.	0.	2.4091e-002
2319	20.833	3.	0.	2.5771e-002
2320	21.031	3.	0.	2.7695e-002
2321	21.229	3.	0.	2.9907e-002
2322	21.427	3.	0.	3.2471e-002
2323	21.625	3.	0.	3.5479e-002
2324	21.823	3.	0.	3.9069e-002
2325	22.021	3.	0.	4.3419e-002
2326	22.219	3.	0.	4.8775e-002
2327	22.417	3.	0.	5.5581e-002
2328	22.615	3.	0.	6.4278e-002
2329	22.813	3.	0.	7.6647e-002
2330	23.01	3.	0.	9.1606e-002
2331	23.208	3.	0.	0.12462
2332	23.406	3.	0.	0.13781
2333	23.604	3.	0.	0.34439
2334	23.802	3.	0.	0.14679
2335	8.3646	2.8	0.	-1.9605
2336	8.5625	2.8	0.	-0.20496
2337	8.7604	2.8	0.	0.46048
2338	8.9583	2.8	0.	-78.971
2339	9.1563	2.8	0.	-217.73
2340	9.3542	2.8	0.	-298.71
2341	9.5521	2.8	0.	-339.35
2342	9.75	2.8	0.	-353.48
2343	9.9479	2.8	0.	-350.89
2344	10.146	2.8	0.	-338.19
2345	10.344	2.8	0.	-319.7
2346	10.542	2.8	0.	-298.26
2347	10.74	2.8	0.	-275.67
2348	10.937	2.8	0.	-253.08
2349	11.135	2.8	0.	-231.18
2350	11.333	2.8	0.	-210.39
2351	11.531	2.8	0.	-190.93
2352	11.729	2.8	0.	-172.88
2353	11.927	2.8	0.	-156.25
2354	12.125	2.8	0.	-141.01
2355	12.323	2.8	0.	-127.09
2356	12.521	2.8	0.	-114.39
2357	12.719	2.8	0.	-102.83
2358	12.917	2.8	0.	-92.308
2359	13.115	2.8	0.	-82.732
2360	13.313	2.8	0.	-74.013
2361	13.51	2.8	0.	-66.07
2362	13.708	2.8	0.	-58.826
2363	13.906	2.8	0.	-52.21
2364	14.104	2.8	0.	-46.159
2365	14.302	2.8	0.	-40.615
2366	14.5	2.8	0.	-35.525
2367	14.698	2.8	0.	-30.843
2368	14.896	2.8	0.	-26.524
2369	15.094	2.8	0.	-22.531
2370	15.292	2.8	0.	-18.827
2371	15.49	2.8	0.	-15.38
2372	15.688	2.8	0.	-12.16
2373	15.885	2.8	0.	-9.1411
2374	16.083	2.8	0.	-6.297
2375	16.281	2.8	0.	-3.6047
2376	16.479	2.8	0.	-1.0427
2377	16.677	2.8	0.	9.359e-003
2378	16.875	2.8	0.	9.9924e-003
2379	17.073	2.8	0.	1.0405e-002
2380	17.271	2.8	0.	1.0814e-002
2381	17.469	2.8	0.	1.1215e-002
2382	17.667	2.8	0.	1.1622e-002
2383	17.865	2.8	0.	1.2066e-002
2384	18.063	2.8	0.	1.2549e-002
2385	18.26	2.8	0.	1.3051e-002
2386	18.458	2.8	0.	1.358e-002
2387	18.656	2.8	0.	1.4158e-002
2388	18.854	2.8	0.	1.4797e-002
2389	19.052	2.8	0.	1.5472e-002
2390	19.25	2.8	0.	1.6203e-002
2391	19.448	2.8	0.	1.7001e-002
2392	19.646	2.8	0.	1.7894e-002
2393	19.844	2.8	0.	1.8859e-002
2394	20.042	2.8	0.	1.9922e-002
2395	20.24	2.8	0.	2.1109e-002
2396	20.438	2.8	0.	2.2442e-002
2397	20.635	2.8	0.	2.393e-002
2398	20.833	2.8	0.	2.5606e-002
2399	21.031	2.8	0.	2.7523e-002
2400	21.229	2.8	0.	2.9734e-002
2401	21.427	2.8	0.	3.2292e-002
2402	21.625	2.8	0.	3.5296e-002
2403	21.823	2.8	0.	3.8879e-002
2404	22.021	2.8	0.	4.3225e-002
2405	22.219	2.8	0.	4.8576e-002
2406	22.417	2.8	0.	5.5371e-002
2407	22.615	2.8	0.	6.4058e-002
2408	22.813	2.8	0.	7.6415e-002
2409	23.01	2.8	0.	9.1358e-002
2410	23.208	2.8	0.	0.12434
2411	23.406	2.8	0.	0.1375
2412	23.604	2.8	0.	0.34396
2413	23.802	2.8	0.	0.14595
2414	8.3646	2.6	0.	5.5038
2415	8.5625	2.6	0.	0.41123
2416	8.7604	2.6	0.	-1.4227
2417	8.9583	2.6	0.	-103.54
2418	9.1563	2.6	0.	-225.9
2419	9.3542	2.6	0.	-294.9
2420	9.5521	2.6	0.	-328.41
2421	9.75	2.6	0.	-339.02
2422	9.9479	2.6	0.	-335.2
2423	10.146	2.6	0.	-322.62
2424	10.344	2.6	0.	-305.
2425	10.542	2.6	0.	-284.79
2426	10.74	2.6	0.	-263.57
2427	10.937	2.6	0.	-242.36
2428	11.135	2.6	0.	-221.77
2429	11.333	2.6	0.	-202.18
2430	11.531	2.6	0.	-183.79
2431	11.729	2.6	0.	-166.7
2432	11.927	2.6	0.	-150.91
2433	12.125	2.6	0.	-136.4
2434	12.323	2.6	0.	-123.1
2435	12.521	2.6	0.	-110.95
2436	12.719	2.6	0.	-99.847
2437	12.917	2.6	0.	-89.721
2438	13.115	2.6	0.	-80.484
2439	13.313	2.6	0.	-72.055
2440	13.51	2.6	0.	-64.36
2441	13.708	2.6	0.	-57.329
2442	13.906	2.6	0.	-50.896
2443	14.104	2.6	0.	-45.002
2444	14.302	2.6	0.	-39.595
2445	14.5	2.6	0.	-34.624
2446	14.698	2.6	0.	-30.045
2447	14.896	2.6	0.	-25.817
2448	15.094	2.6	0.	-21.904
2449	15.292	2.6	0.	-18.271
2450	15.49	2.6	0.	-14.887
2451	15.688	2.6	0.	-11.724
2452	15.885	2.6	0.	-8.7568
2453	16.083	2.6	0.	-5.9598
2454	16.281	2.6	0.	-3.311
2455	16.479	2.6	0.	-0.7914
2456	16.677	2.6	0.	7.9128e-003
2457	16.875	2.6	0.	9.2445e-003
2458	17.073	2.6	0.	9.8375e-003
2459	17.271	2.6	0.	1.0322e-002
2460	17.469	2.6	0.	1.0763e-002
2461	17.667	2.6	0.	1.1193e-002
2462	17.865	2.6	0.	1.165e-002
2463	18.063	2.6	0.	1.2138e-002
2464	18.26	2.6	0.	1.2645e-002
2465	18.458	2.6	0.	1.3171e-002
2466	18.656	2.6	0.	1.375e-002
2467	18.854	2.6	0.	1.4383e-002
2468	19.052	2.6	0.	1.5055e-002
2469	19.25	2.6	0.	1.5777e-002
2470	19.448	2.6	0.	1.6573e-002
2471	19.646	2.6	0.	1.7453e-002
2472	19.844	2.6	0.	1.8414e-002
2473	20.042	2.6	0.	1.9466e-002
2474	20.24	2.6	0.	2.0642e-002
2475	20.438	2.6	0.	2.1963e-002
2476	20.635	2.6	0.	2.3439e-002
2477	20.833	2.6	0.	2.5104e-002
2478	21.031	2.6	0.	2.701e-002
2479	21.229	2.6	0.	2.9203e-002
2480	21.427	2.6	0.	3.1748e-002
2481	21.625	2.6	0.	3.4739e-002
2482	21.823	2.6	0.	3.8305e-002
2483	22.021	2.6	0.	4.2629e-002
2484	22.219	2.6	0.	4.7959e-002
2485	22.417	2.6	0.	5.473e-002
2486	22.615	2.6	0.	6.3386e-002
2487	22.813	2.6	0.	7.5703e-002
2488	23.01	2.6	0.	9.0596e-002
2489	23.208	2.6	0.	0.12349
2490	23.406	2.6	0.	0.13656
2491	23.604	2.6	0.	0.34262
2492	23.802	2.6	0.	0.1434
2493	8.3646	2.4	0.	-15.076
2494	8.5625	2.4	0.	-13.783
2495	8.7604	2.4	0.	2.4689
2496	8.9583	2.4	0.	-122.81
2497	9.1563	2.4	0.	-223.18
2498	9.3542	2.4	0.	-278.54
2499	9.5521	2.4	0.	-304.83
2500	9.75	2.4	0.	-312.41
2501	9.9479	2.4	0.	-308.17
2502	10.146	2.4	0.	-296.65
2503	10.344	2.4	0.	-280.9
2504	10.542	2.4	0.	-262.91
2505	10.74	2.4	0.	-244.02
2506	10.937	2.4	0.	-225.07
2507	11.135	2.4	0.	-206.61
2508	11.333	2.4	0.	-188.96
2509	11.531	2.4	0.	-172.31
2510	11.729	2.4	0.	-156.75
2511	11.927	2.4	0.	-142.3
2512	12.125	2.4	0.	-128.95
2513	12.323	2.4	0.	-116.66
2514	12.521	2.4	0.	-105.37
2515	12.719	2.4	0.	-95.013
2516	12.917	2.4	0.	-85.523
2517	13.115	2.4	0.	-76.83
2518	13.313	2.4	0.	-68.868
2519	13.51	2.4	0.	-61.574
2520	13.708	2.4	0.	-54.886
2521	13.906	2.4	0.	-48.749
2522	14.104	2.4	0.	-43.111
2523	14.302	2.4	0.	-37.924
2524	14.5	2.4	0.	-33.146
2525	14.698	2.4	0.	-28.735
2526	14.896	2.4	0.	-24.655
2527	15.094	2.4	0.	-20.872
2528	15.292	2.4	0.	-17.355
2529	15.49	2.4	0.	-14.074
2530	15.688	2.4	0.	-11.005
2531	15.885	2.4	0.	-8.1218
2532	16.083	2.4	0.	-5.4021
2533	16.281	2.4	0.	-2.8251
2534	16.479	2.4	0.	-0.38252
2535	16.677	2.4	0.	6.1659e-003
2536	16.875	2.4	0.	8.1243e-003
2537	17.073	2.4	0.	8.9367e-003
2538	17.271	2.4	0.	9.5231e-003
2539	17.469	2.4	0.	1.0019e-002
2540	17.667	2.4	0.	1.048e-002
2541	17.865	2.4	0.	1.0953e-002
2542	18.063	2.4	0.	1.1452e-002
2543	18.26	2.4	0.	1.196e-002
2544	18.458	2.4	0.	1.2488e-002
2545	18.656	2.4	0.	1.306e-002
2546	18.854	2.4	0.	1.3686e-002
2547	19.052	2.4	0.	1.4349e-002
2548	19.25	2.4	0.	1.5059e-002
2549	19.448	2.4	0.	1.584e-002
2550	19.646	2.4	0.	1.6708e-002
2551	19.844	2.4	0.	1.7649e-002
2552	20.042	2.4	0.	1.8688e-002
2553	20.24	2.4	0.	1.9843e-002
2554	20.438	2.4	0.	2.1146e-002
2555	20.635	2.4	0.	2.26e-002
2556	20.833	2.4	0.	2.4243e-002
2557	21.031	2.4	0.	2.6122e-002
2558	21.229	2.4	0.	2.8296e-002
2559	21.427	2.4	0.	3.0815e-002
2560	21.625	2.4	0.	3.3775e-002
2561	21.823	2.4	0.	3.7313e-002
2562	22.021	2.4	0.	4.1606e-002
2563	22.219	2.4	0.	4.6897e-002
2564	22.417	2.4	0.	5.3623e-002
2565	22.615	2.4	0.	6.2224e-002
2566	22.813	2.4	0.	7.4472e-002
2567	23.01	2.4	0.	8.9274e-002
2568	23.208	2.4	0.	0.12203
2569	23.406	2.4	0.	0.13492
2570	23.604	2.4	0.	0.34032
2571	23.802	2.4	0.	0.13905
2572	8.3646	2.2	0.	-11.265
2573	8.5625	2.2	0.	29.531
2574	8.7604	2.2	0.	-8.4765
2575	8.9583	2.2	0.	-100.04
2576	9.1563	2.2	0.	-190.36
2577	9.3542	2.2	0.	-239.79
2578	9.5521	2.2	0.	-264.08
2579	9.75	2.2	0.	-272.
2580	9.9479	2.2	0.	-269.61
2581	10.146	2.2	0.	-260.83
2582	10.344	2.2	0.	-248.26
2583	10.542	2.2	0.	-233.59
2584	10.74	2.2	0.	-217.96
2585	10.937	2.2	0.	-202.11
2586	11.135	2.2	0.	-186.49
2587	11.333	2.2	0.	-171.42
2588	11.531	2.2	0.	-157.06
2589	11.729	2.2	0.	-143.52
2590	11.927	2.2	0.	-130.84
2591	12.125	2.2	0.	-119.02
2592	12.323	2.2	0.	-108.06
2593	12.521	2.2	0.	-97.904
2594	12.719	2.2	0.	-88.528
2595	12.917	2.2	0.	-79.879
2596	13.115	2.2	0.	-71.908
2597	13.313	2.2	0.	-64.565
2598	13.51	2.2	0.	-57.802
2599	13.708	2.2	0.	-51.572
2600	13.906	2.2	0.	-45.83
2601	14.104	2.2	0.	-40.534
2602	14.302	2.2	0.	-35.644
2603	14.5	2.2	0.	-31.125
2604	14.698	2.2	0.	-26.941
2605	14.896	2.2	0.	-23.06
2606	15.094	2.2	0.	-19.454
2607	15.292	2.2	0.	-16.093
2608	15.49	2.2	0.	-12.954
2609	15.688	2.2	0.	-10.012
2610	15.885	2.2	0.	-7.244
2611	16.083	2.2	0.	-4.6302
2612	16.281	2.2	0.	-2.1522
2613	16.479	2.2	0.	-3.3854e-002
2614	16.677	2.2	0.	4.4957e-003
2615	16.875	2.2	0.	6.764e-003
2616	17.073	2.2	0.	7.7622e-003
2617	17.271	2.2	0.	8.4494e-003
2618	17.469	2.2	0.	8.9998e-003
2619	17.667	2.2	0.	9.4926e-003
2620	17.865	2.2	0.	9.9818e-003
2621	18.063	2.2	0.	1.0487e-002
2622	18.26	2.2	0.	1.0993e-002
2623	18.458	2.2	0.	1.1513e-002
2624	18.656	2.2	0.	1.2075e-002
2625	18.854	2.2	0.	1.2689e-002
2626	19.052	2.2	0.	1.3335e-002
2627	19.25	2.2	0.	1.4027e-002
2628	19.448	2.2	0.	1.4788e-002
2629	19.646	2.2	0.	1.5633e-002
2630	19.844	2.2	0.	1.655e-002
2631	20.042	2.2	0.	1.7557e-002
2632	20.24	2.2	0.	1.8686e-002
2633	20.438	2.2	0.	1.9956e-002
2634	20.635	2.2	0.	2.1379e-002
2635	20.833	2.2	0.	2.2985e-002
2636	21.031	2.2	0.	2.4828e-002
2637	21.229	2.2	0.	2.6962e-002
2638	21.427	2.2	0.	2.9438e-002
2639	21.625	2.2	0.	3.2357e-002
2640	21.823	2.2	0.	3.5844e-002
2641	22.021	2.2	0.	4.0089e-002
2642	22.219	2.2	0.	4.532e-002
2643	22.417	2.2	0.	5.1981e-002
2644	22.615	2.2	0.	6.0499e-002
2645	22.813	2.2	0.	7.2644e-002
2646	23.01	2.2	0.	8.7312e-002
2647	23.208	2.2	0.	0.11986
2648	23.406	2.2	0.	0.13249
2649	23.604	2.2	0.	0.33693
2650	23.802	2.2	0.	0.13274
2651	8.3646	2.	0.	-530.3
2652	8.5625	2.	0.	72.738
2653	8.7604	2.	0.	-16.544
2654	8.9583	2.	0.	-24.71
2655	9.1563	2.	0.	-117.94
2656	9.3542	2.	0.	-175.53
2657	9.5521	2.	0.	-205.71
2658	9.75	2.	0.	-218.62
2659	9.9479	2.	0.	-220.95
2660	10.146	2.	0.	-216.78
2661	10.344	2.	0.	-208.7
2662	10.542	2.	0.	-198.36
2663	10.74	2.	0.	-186.79
2664	10.937	2.	0.	-174.69
2665	11.135	2.	0.	-162.48
2666	11.333	2.	0.	-150.47
2667	11.531	2.	0.	-138.83
2668	11.729	2.	0.	-127.67
2669	11.927	2.	0.	-117.07
2670	12.125	2.	0.	-107.07
2671	12.323	2.	0.	-97.667
2672	12.521	2.	0.	-88.867
2673	12.719	2.	0.	-80.653
2674	12.917	2.	0.	-73.004
2675	13.115	2.	0.	-65.893
2676	13.313	2.	0.	-59.29
2677	13.51	2.	0.	-53.165
2678	13.708	2.	0.	-47.485
2679	13.906	2.	0.	-42.22
2680	14.104	2.	0.	-37.338
2681	14.302	2.	0.	-32.809
2682	14.5	2.	0.	-28.605
2683	14.698	2.	0.	-24.698
2684	14.896	2.	0.	-21.063
2685	15.094	2.	0.	-17.674
2686	15.292	2.	0.	-14.508
2687	15.49	2.	0.	-11.543
2688	15.688	2.	0.	-8.758
2689	15.885	2.	0.	-6.1341
2690	16.083	2.	0.	-3.6529
2691	16.281	2.	0.	-1.3017
2692	16.479	2.	0.	-8.4363e-003
2693	16.677	2.	0.	3.0358e-003
2694	16.875	2.	0.	5.2857e-003
2695	17.073	2.	0.	6.3843e-003
2696	17.271	2.	0.	7.1381e-003
2697	17.469	2.	0.	7.7274e-003
2698	17.667	2.	0.	8.2372e-003
2699	17.865	2.	0.	8.7318e-003
2700	18.063	2.	0.	9.2361e-003
2701	18.26	2.	0.	9.7342e-003
2702	18.458	2.	0.	1.0239e-002
2703	18.656	2.	0.	1.0782e-002
2704	18.854	2.	0.	1.1372e-002
2705	19.052	2.	0.	1.1993e-002
2706	19.25	2.	0.	1.2654e-002
2707	19.448	2.	0.	1.3386e-002
2708	19.646	2.	0.	1.4192e-002
2709	19.844	2.	0.	1.5071e-002
2710	20.042	2.	0.	1.6039e-002
2711	20.24	2.	0.	1.7123e-002
2712	20.438	2.	0.	1.835e-002
2713	20.635	2.	0.	1.9721e-002
2714	20.833	2.	0.	2.1275e-002
2715	21.031	2.	0.	2.3064e-002
2716	21.229	2.	0.	2.5139e-002
2717	21.427	2.	0.	2.7553e-002
2718	21.625	2.	0.	3.0404e-002
2719	21.823	2.	0.	3.3822e-002
2720	22.021	2.	0.	3.7988e-002
2721	22.219	2.	0.	4.3134e-002
2722	22.417	2.	0.	4.9697e-002
2723	22.615	2.	0.	5.8099e-002
2724	22.813	2.	0.	7.0096e-002
2725	23.01	2.	0.	8.4578e-002
2726	23.208	2.	0.	0.11684
2727	23.406	2.	0.	0.12912
2728	23.604	2.	0.	0.33226
2729	23.802	2.	0.	0.12422
2730	8.3646	1.8	0.	-139.09
2731	8.5625	1.8	0.	9.1283
2732	8.7604	1.8	0.	-7.1534
2733	8.9583	1.8	0.	-6.1842
2734	9.1563	1.8	0.	-30.015
2735	9.3542	1.8	0.	-94.926
2736	9.5521	1.8	0.	-135.64
2737	9.75	1.8	0.	-156.61
2738	9.9479	1.8	0.	-165.6
2739	10.146	1.8	0.	-167.32
2740	10.344	1.8	0.	-164.64
2741	10.542	1.8	0.	-159.27
2742	10.74	1.8	0.	-152.27
2743	10.937	1.8	0.	-144.33
2744	11.135	1.8	0.	-135.88
2745	11.333	1.8	0.	-127.21
2746	11.531	1.8	0.	-118.53
2747	11.729	1.8	0.	-109.98
2748	11.927	1.8	0.	-101.66
2749	12.125	1.8	0.	-93.634
2750	12.323	1.8	0.	-85.948
2751	12.521	1.8	0.	-78.631
2752	12.719	1.8	0.	-71.698
2753	12.917	1.8	0.	-65.154
2754	13.115	1.8	0.	-58.997
2755	13.313	1.8	0.	-53.218
2756	13.51	1.8	0.	-47.806
2757	13.708	1.8	0.	-42.744
2758	13.906	1.8	0.	-38.016
2759	14.104	1.8	0.	-33.603
2760	14.302	1.8	0.	-29.484
2761	14.5	1.8	0.	-25.641
2762	14.698	1.8	0.	-22.053
2763	14.896	1.8	0.	-18.699
2764	15.094	1.8	0.	-15.562
2765	15.292	1.8	0.	-12.621
2766	15.49	1.8	0.	-9.8598
2767	15.688	1.8	0.	-7.2599
2768	15.885	1.8	0.	-4.8052
2769	16.083	1.8	0.	-2.4813
2770	16.281	1.8	0.	-0.32204
2771	16.479	1.8	0.	-4.328e-003
2772	16.677	1.8	0.	1.7795e-003
2773	16.875	1.8	0.	3.7741e-003
2774	17.073	1.8	0.	4.8663e-003
2775	17.271	1.8	0.	5.6299e-003
2776	17.469	1.8	0.	6.2247e-003
2777	17.667	1.8	0.	6.731e-003
2778	17.865	1.8	0.	7.2147e-003
2779	18.063	1.8	0.	7.6997e-003
2780	18.26	1.8	0.	8.1719e-003
2781	18.458	1.8	0.	8.6497e-003
2782	18.656	1.8	0.	9.1599e-003
2783	18.854	1.8	0.	9.7124e-003
2784	19.052	1.8	0.	1.0293e-002
2785	19.25	1.8	0.	1.0911e-002
2786	19.448	1.8	0.	1.1592e-002
2787	19.646	1.8	0.	1.2349e-002
2788	19.844	1.8	0.	1.3174e-002
2789	20.042	1.8	0.	1.408e-002
2790	20.24	1.8	0.	1.5104e-002
2791	20.438	1.8	0.	1.6258e-002
2792	20.635	1.8	0.	1.7559e-002
2793	20.833	1.8	0.	1.9038e-002
2794	21.031	1.8	0.	2.0744e-002
2795	21.229	1.8	0.	2.2731e-002
2796	21.427	1.8	0.	2.5056e-002
2797	21.625	1.8	0.	2.7807e-002
2798	21.823	1.8	0.	3.1121e-002
2799	22.021	1.8	0.	3.5172e-002
2800	22.219	1.8	0.	4.0194e-002
2801	22.417	1.8	0.	4.6614e-002
2802	22.615	1.8	0.	5.4853e-002
2803	22.813	1.8	0.	6.6645e-002
2804	23.01	1.8	0.	8.0876e-002
2805	23.208	1.8	0.	0.11275
2806	23.406	1.8	0.	0.12457
2807	23.604	1.8	0.	0.32599
2808	23.802	1.8	0.	0.1131
2809	8.3646	1.6	0.	11.569
2810	8.5625	1.6	0.	5.3545
2811	8.7604	1.6	0.	-10.887
2812	8.9583	1.6	0.	-2.7635
2813	9.1563	1.6	0.	-6.6698
2814	9.3542	1.6	0.	-23.456
2815	9.5521	1.6	0.	-65.1
2816	9.75	1.6	0.	-93.022
2817	9.9479	1.6	0.	-108.53
2818	10.146	1.6	0.	-116.23
2819	10.344	1.6	0.	-119.06
2820	10.542	1.6	0.	-118.78
2821	10.74	1.6	0.	-116.45
2822	10.937	1.6	0.	-112.75
2823	11.135	1.6	0.	-108.11
2824	11.333	1.6	0.	-102.85
2825	11.531	1.6	0.	-97.196
2826	11.729	1.6	0.	-91.304
2827	11.927	1.6	0.	-85.309
2828	12.125	1.6	0.	-79.312
2829	12.323	1.6	0.	-73.391
2830	12.521	1.6	0.	-67.605
2831	12.719	1.6	0.	-62.
2832	12.917	1.6	0.	-56.607
2833	13.115	1.6	0.	-51.448
2834	13.313	1.6	0.	-46.537
2835	13.51	1.6	0.	-41.879
2836	13.708	1.6	0.	-37.476
2837	13.906	1.6	0.	-33.324
2838	14.104	1.6	0.	-29.415
2839	14.302	1.6	0.	-25.742
2840	14.5	1.6	0.	-22.291
2841	14.698	1.6	0.	-19.052
2842	14.896	1.6	0.	-16.01
2843	15.094	1.6	0.	-13.151
2844	15.292	1.6	0.	-10.462
2845	15.49	1.6	0.	-7.9279
2846	15.688	1.6	0.	-5.5356
2847	15.885	1.6	0.	-3.2724
2848	16.083	1.6	0.	-1.1345
2849	16.281	1.6	0.	-2.131e-002
2850	16.479	1.6	0.	-2.9686e-003
2851	16.677	1.6	0.	6.7495e-004
2852	16.875	1.6	0.	2.2864e-003
2853	17.073	1.6	0.	3.2626e-003
2854	17.271	1.6	0.	3.9683e-003
2855	17.469	1.6	0.	4.5239e-003
2856	17.667	1.6	0.	4.9929e-003
2857	17.865	1.6	0.	5.4364e-003
2858	18.063	1.6	0.	5.8762e-003
2859	18.26	1.6	0.	6.3052e-003
2860	18.458	1.6	0.	6.7337e-003
2861	18.656	1.6	0.	7.1869e-003
2862	18.854	1.6	0.	7.684e-003
2863	19.052	1.6	0.	8.2015e-003
2864	19.25	1.6	0.	8.7532e-003
2865	19.448	1.6	0.	9.3626e-003
2866	19.646	1.6	0.	1.0046e-002
2867	19.844	1.6	0.	1.0788e-002
2868	20.042	1.6	0.	1.1612e-002
2869	20.24	1.6	0.	1.254e-002
2870	20.438	1.6	0.	1.3598e-002
2871	20.635	1.6	0.	1.4793e-002
2872	20.833	1.6	0.	1.616e-002
2873	21.031	1.6	0.	1.7749e-002
2874	21.229	1.6	0.	1.9607e-002
2875	21.427	1.6	0.	2.1794e-002
2876	21.625	1.6	0.	2.4402e-002
2877	21.823	1.6	0.	2.7556e-002
2878	22.021	1.6	0.	3.1439e-002
2879	22.219	1.6	0.	3.6274e-002
2880	22.417	1.6	0.	4.2488e-002
2881	22.615	1.6	0.	5.0487e-002
2882	22.813	1.6	0.	6.1994e-002
2883	23.01	1.6	0.	7.5873e-002
2884	23.208	1.6	0.	0.10723
2885	23.406	1.6	0.	0.11843
2886	23.604	1.6	0.	0.31764
2887	23.802	1.6	0.	9.8763e-002
2888	8.3646	1.4	0.	-24.056
2889	8.5625	1.4	0.	-0.55459
2890	8.7604	1.4	0.	-2.9955
2891	8.9583	1.4	0.	-3.09
2892	9.1563	1.4	0.	-3.5295
2893	9.3542	1.4	0.	-5.1998
2894	9.5521	1.4	0.	-13.674
2895	9.75	1.4	0.	-36.252
2896	9.9479	1.4	0.	-55.236
2897	10.146	1.4	0.	-67.569
2898	10.344	1.4	0.	-75.16
2899	10.542	1.4	0.	-79.478
2900	10.74	1.4	0.	-81.463
2901	10.937	1.4	0.	-81.728
2902	11.135	1.4	0.	-80.691
2903	11.333	1.4	0.	-78.66
2904	11.531	1.4	0.	-75.872
2905	11.729	1.4	0.	-72.517
2906	11.927	1.4	0.	-68.753
2907	12.125	1.4	0.	-64.712
2908	12.323	1.4	0.	-60.5
2909	12.521	1.4	0.	-56.207
2910	12.719	1.4	0.	-51.905
2911	12.917	1.4	0.	-47.649
2912	13.115	1.4	0.	-43.484
2913	13.313	1.4	0.	-39.442
2914	13.51	1.4	0.	-35.547
2915	13.708	1.4	0.	-31.814
2916	13.906	1.4	0.	-28.252
2917	14.104	1.4	0.	-24.866
2918	14.302	1.4	0.	-21.656
2919	14.5	1.4	0.	-18.618
2920	14.698	1.4	0.	-15.747
2921	14.896	1.4	0.	-13.036
2922	15.094	1.4	0.	-10.476
2923	15.292	1.4	0.	-8.0576
2924	15.49	1.4	0.	-5.7705
2925	15.688	1.4	0.	-3.6051
2926	15.885	1.4	0.	-1.5568
2927	16.083	1.4	0.	-5.7229e-002
2928	16.281	1.4	0.	-8.1671e-003
2929	16.479	1.4	0.	-2.4979e-003
2930	16.677	1.4	0.	-3.2025e-004
2931	16.875	1.4	0.	8.5024e-004
2932	17.073	1.4	0.	1.6209e-003
2933	17.271	1.4	0.	2.2046e-003
2934	17.469	1.4	0.	2.6652e-003
2935	17.667	1.4	0.	3.0498e-003
2936	17.865	1.4	0.	3.4183e-003
2937	18.063	1.4	0.	3.7834e-003
2938	18.26	1.4	0.	4.1334e-003
2939	18.458	1.4	0.	4.481e-003
2940	18.656	1.4	0.	4.8562e-003
2941	18.854	1.4	0.	5.2679e-003
2942	19.052	1.4	0.	5.6947e-003
2943	19.25	1.4	0.	6.1496e-003
2944	19.448	1.4	0.	6.66e-003
2945	19.646	1.4	0.	7.2349e-003
2946	19.844	1.4	0.	7.8608e-003
2947	20.042	1.4	0.	8.5626e-003
2948	20.24	1.4	0.	9.362e-003
2949	20.438	1.4	0.	1.028e-002
2950	20.635	1.4	0.	1.1328e-002
2951	20.833	1.4	0.	1.2533e-002
2952	21.031	1.4	0.	1.3948e-002
2953	21.229	1.4	0.	1.562e-002
2954	21.427	1.4	0.	1.7608e-002
2955	21.625	1.4	0.	1.9997e-002
2956	21.823	1.4	0.	2.2919e-002
2957	22.021	1.4	0.	2.6548e-002
2958	22.219	1.4	0.	3.1106e-002
2959	22.417	1.4	0.	3.7008e-002
2960	22.615	1.4	0.	4.4664e-002
2961	22.813	1.4	0.	5.5761e-002
2962	23.01	1.4	0.	6.915e-002
2963	23.208	1.4	0.	9.9804e-002
2964	23.406	1.4	0.	0.1102
2965	23.604	1.4	0.	0.30653
2966	23.802	1.4	0.	8.0386e-002
2967	8.3646	1.2	0.	-8.3273
2968	8.5625	1.2	0.	2.6596e-002
2969	8.7604	1.2	0.	-2.746
2970	8.9583	1.2	0.	-2.2997
2971	9.1563	1.2	0.	-2.404
2972	9.3542	1.2	0.	-2.6716
2973	9.5521	1.2	0.	-3.3966
2974	9.75	1.2	0.	-5.578
2975	9.9479	1.2	0.	-13.239
2976	10.146	1.2	0.	-25.54
2977	10.344	1.2	0.	-36.05
2978	10.542	1.2	0.	-43.871
2979	10.74	1.2	0.	-49.385
2980	10.937	1.2	0.	-53.003
2981	11.135	1.2	0.	-55.063
2982	11.333	1.2	0.	-55.842
2983	11.531	1.2	0.	-55.576
2984	11.729	1.2	0.	-54.47
2985	11.927	1.2	0.	-52.7
2986	12.125	1.2	0.	-50.42
2987	12.323	1.2	0.	-47.763
2988	12.521	1.2	0.	-44.841
2989	12.719	1.2	0.	-41.746
2990	12.917	1.2	0.	-38.556
2991	13.115	1.2	0.	-35.332
2992	13.313	1.2	0.	-32.122
2993	13.51	1.2	0.	-28.965
2994	13.708	1.2	0.	-25.887
2995	13.906	1.2	0.	-22.909
2996	14.104	1.2	0.	-20.044
2997	14.302	1.2	0.	-17.3
2998	14.5	1.2	0.	-14.682
2999	14.698	1.2	0.	-12.19
3000	14.896	1.2	0.	-9.8213
3001	15.094	1.2	0.	-7.5726
3002	15.292	1.2	0.	-5.4382
3003	15.49	1.2	0.	-3.4127
3004	15.688	1.2	0.	-1.4946
3005	15.885	1.2	0.	-6.7553e-002
3006	16.083	1.2	0.	-1.099e-002
3007	16.281	1.2	0.	-4.7678e-003
3008	16.479	1.2	0.	-2.4464e-003
3009	16.677	1.2	0.	-1.255e-003
3010	16.875	1.2	0.	-5.3746e-004
3011	17.073	1.2	0.	-3.3922e-005
3012	17.271	1.2	0.	3.585e-004
3013	17.469	1.2	0.	6.6494e-004
3014	17.667	1.2	0.	9.1698e-004
3015	17.865	1.2	0.	1.1588e-003
3016	18.063	1.2	0.	1.4037e-003
3017	18.26	1.2	0.	1.6348e-003
3018	18.458	1.2	0.	1.8627e-003
3019	18.656	1.2	0.	2.1132e-003
3020	18.854	1.2	0.	2.3947e-003
3021	19.052	1.2	0.	2.6897e-003
3022	19.25	1.2	0.	3.0051e-003
3023	19.448	1.2	0.	3.3683e-003
3024	19.646	1.2	0.	3.7864e-003
3025	19.844	1.2	0.	4.2482e-003
3026	20.042	1.2	0.	4.7684e-003
3027	20.24	1.2	0.	5.3771e-003
3028	20.438	1.2	0.	6.0894e-003
3029	20.635	1.2	0.	6.9146e-003
3030	20.833	1.2	0.	7.8805e-003
3031	21.031	1.2	0.	9.0357e-003
3032	21.229	1.2	0.	1.043e-002
3033	21.427	1.2	0.	1.2109e-002
3034	21.625	1.2	0.	1.417e-002
3035	21.823	1.2	0.	1.6726e-002
3036	22.021	1.2	0.	1.9953e-002
3037	22.219	1.2	0.	2.4068e-002
3038	22.417	1.2	0.	2.9484e-002
3039	22.615	1.2	0.	3.6585e-002
3040	22.813	1.2	0.	4.7041e-002
3041	23.01	1.2	0.	5.9675e-002
3042	23.208	1.2	0.	8.9292e-002
3043	23.406	1.2	0.	9.8493e-002
3044	23.604	1.2	0.	0.29101
3045	23.802	1.2	0.	5.5867e-002
3046	8.3646	1.	0.	-9.8347
3047	8.5625	1.	0.	-0.17453
3048	8.7604	1.	0.	-2.5902
3049	8.9583	1.	0.	-1.8099
3050	9.1563	1.	0.	-1.8427
3051	9.3542	1.	0.	-1.714
3052	9.5521	1.	0.	-1.6831
3053	9.75	1.	0.	-1.7416
3054	9.9479	1.	0.	-2.0129
3055	10.146	1.	0.	-2.9418
3056	10.344	1.	0.	-6.6791
3057	10.542	1.	0.	-14.531
3058	10.74	1.	0.	-22.144
3059	10.937	1.	0.	-28.153
3060	11.135	1.	0.	-32.546
3061	11.333	1.	0.	-35.504
3062	11.531	1.	0.	-37.232
3063	11.729	1.	0.	-37.931
3064	11.927	1.	0.	-37.788
3065	12.125	1.	0.	-36.969
3066	12.323	1.	0.	-35.621
3067	12.521	1.	0.	-33.871
3068	12.719	1.	0.	-31.827
3069	12.917	1.	0.	-29.578
3070	13.115	1.	0.	-27.199
3071	13.313	1.	0.	-24.749
3072	13.51	1.	0.	-22.275
3073	13.708	1.	0.	-19.813
3074	13.906	1.	0.	-17.392
3075	14.104	1.	0.	-15.031
3076	14.302	1.	0.	-12.745
3077	14.5	1.	0.	-10.542
3078	14.698	1.	0.	-8.4281
3079	14.896	1.	0.	-6.4055
3080	15.094	1.	0.	-4.4744
3081	15.292	1.	0.	-2.6337
3082	15.49	1.	0.	-0.8934
3083	15.688	1.	0.	-3.0064e-002
3084	15.885	1.	0.	-9.2256e-003
3085	16.083	1.	0.	-5.1244e-003
3086	16.281	1.	0.	-3.4718e-003
3087	16.479	1.	0.	-2.6103e-003
3088	16.677	1.	0.	-2.1209e-003
3089	16.875	1.	0.	-1.8278e-003
3090	17.073	1.	0.	-1.6216e-003
3091	17.271	1.	0.	-1.4613e-003
3092	17.469	1.	0.	-1.3526e-003
3093	17.667	1.	0.	-1.2759e-003
3094	17.865	1.	0.	-1.1981e-003
3095	18.063	1.	0.	-1.1119e-003
3096	18.26	1.	0.	-1.0385e-003
3097	18.458	1.	0.	-9.6701e-004
3098	18.656	1.	0.	-8.7513e-004
3099	18.854	1.	0.	-7.6164e-004
3100	19.052	1.	0.	-6.4112e-004
3101	19.25	1.	0.	-5.0654e-004
3102	19.448	1.	0.	-3.367e-004
3103	19.646	1.	0.	-1.2577e-004
3104	19.844	1.	0.	1.1886e-004
3105	20.042	1.	0.	4.0493e-004
3106	20.24	1.	0.	7.5988e-004
3107	20.438	1.	0.	1.2007e-003
3108	20.635	1.	0.	1.7265e-003
3109	20.833	1.	0.	2.3706e-003
3110	21.031	1.	0.	3.1697e-003
3111	21.229	1.	0.	4.1752e-003
3112	21.427	1.	0.	5.4291e-003
3113	21.625	1.	0.	7.0119e-003
3114	21.823	1.	0.	9.0484e-003
3115	22.021	1.	0.	1.1692e-002
3116	22.219	1.	0.	1.5161e-002
3117	22.417	1.	0.	1.9847e-002
3118	22.615	1.	0.	2.6126e-002
3119	22.813	1.	0.	3.5618e-002
3120	23.01	1.	0.	4.714e-002
3121	23.208	1.	0.	7.5222e-002
3122	23.406	1.	0.	8.2858e-002
3123	23.604	1.	0.	0.27035
3124	23.802	1.	0.	2.4543e-002
3125	8.3646	0.8	0.	-8.2719
3126	8.5625	0.8	0.	-0.93171
3127	8.7604	0.8	0.	-2.4251
3128	8.9583	0.8	0.	-1.6647
3129	9.1563	0.8	0.	-1.4431
3130	9.3542	0.8	0.	-1.1644
3131	9.5521	0.8	0.	-0.98353
3132	9.75	0.8	0.	-0.85103
3133	9.9479	0.8	0.	-0.77353
3134	10.146	0.8	0.	-0.75542
3135	10.344	0.8	0.	-0.83401
3136	10.542	0.8	0.	-1.1837
3137	10.74	0.8	0.	-3.0764
3138	10.937	0.8	0.	-8.6981
3139	11.135	0.8	0.	-14.285
3140	11.333	0.8	0.	-18.582
3141	11.531	0.8	0.	-21.614
3142	11.729	0.8	0.	-23.546
3143	11.927	0.8	0.	-24.552
3144	12.125	0.8	0.	-24.799
3145	12.323	0.8	0.	-24.438
3146	12.521	0.8	0.	-23.6
3147	12.719	0.8	0.	-22.397
3148	12.917	0.8	0.	-20.924
3149	13.115	0.8	0.	-19.259
3150	13.313	0.8	0.	-17.467
3151	13.51	0.8	0.	-15.599
3152	13.708	0.8	0.	-13.695
3153	13.906	0.8	0.	-11.787
3154	14.104	0.8	0.	-9.8991
3155	14.302	0.8	0.	-8.0483
3156	14.5	0.8	0.	-6.2474
3157	14.698	0.8	0.	-4.5048
3158	14.896	0.8	0.	-2.826
3159	15.094	0.8	0.	-1.2184
3160	15.292	0.8	0.	-4.5883e-002
3161	15.49	0.8	0.	-8.765e-003
3162	15.688	0.8	0.	-4.806e-003
3163	15.885	0.8	0.	-3.5807e-003
3164	16.083	0.8	0.	-3.1391e-003
3165	16.281	0.8	0.	-2.9936e-003
3166	16.479	0.8	0.	-2.9844e-003
3167	16.677	0.8	0.	-3.0679e-003
3168	16.875	0.8	0.	-3.2119e-003
3169	17.073	0.8	0.	-3.366e-003
3170	17.271	0.8	0.	-3.5223e-003
3171	17.469	0.8	0.	-3.698e-003
3172	17.667	0.8	0.	-3.8918e-003
3173	17.865	0.8	0.	-4.076e-003
3174	18.063	0.8	0.	-4.2455e-003
3175	18.26	0.8	0.	-4.4281e-003
3176	18.458	0.8	0.	-4.6179e-003
3177	18.656	0.8	0.	-4.7966e-003
3178	18.854	0.8	0.	-4.9614e-003
3179	19.052	0.8	0.	-5.1286e-003
3180	19.25	0.8	0.	-5.3024e-003
3181	19.448	0.8	0.	-5.4611e-003
3182	19.646	0.8	0.	-5.5959e-003
3183	19.844	0.8	0.	-5.7242e-003
3184	20.042	0.8	0.	-5.841e-003
3185	20.24	0.8	0.	-5.9204e-003
3186	20.438	0.8	0.	-5.9582e-003
3187	20.635	0.8	0.	-5.9496e-003
3188	20.833	0.8	0.	-5.8792e-003
3189	21.031	0.8	0.	-5.7094e-003
3190	21.229	0.8	0.	-5.4025e-003
3191	21.427	0.8	0.	-4.9237e-003
3192	21.625	0.8	0.	-4.2081e-003
3193	21.823	0.8	0.	-3.1506e-003
3194	22.021	0.8	0.	-1.603e-003
3195	22.219	0.8	0.	6.1416e-004
3196	22.417	0.8	0.	3.8639e-003
3197	22.615	0.8	0.	8.4852e-003
3198	22.813	0.8	0.	1.6037e-002
3199	23.01	0.8	0.	2.5226e-002
3200	23.208	0.8	0.	5.0318e-002
3201	23.406	0.8	0.	5.4585e-002
3202	23.604	0.8	0.	0.23301
3203	23.802	0.8	0.	-2.8362e-002
3204	8.3646	0.6	0.	-9.1421
3205	8.5625	0.6	0.	-2.1094
3206	8.7604	0.6	0.	-2.758
3207	8.9583	0.6	0.	-1.5406
3208	9.1563	0.6	0.	-1.0688
3209	9.3542	0.6	0.	-0.7186
3210	9.5521	0.6	0.	-0.52563
3211	9.75	0.6	0.	-0.40126
3212	9.9479	0.6	0.	-0.32416
3213	10.146	0.6	0.	-0.27715
3214	10.344	0.6	0.	-0.25452
3215	10.542	0.6	0.	-0.25747
3216	10.74	0.6	0.	-0.30322
3217	10.937	0.6	0.	-0.48847
3218	11.135	0.6	0.	-1.8506
3219	11.333	0.6	0.	-5.8386
3220	11.531	0.6	0.	-9.3129
3221	11.729	0.6	0.	-11.792
3222	11.927	0.6	0.	-13.384
3223	12.125	0.6	0.	-14.236
3224	12.323	0.6	0.	-14.483
3225	12.521	0.6	0.	-14.25
3226	12.719	0.6	0.	-13.641
3227	12.917	0.6	0.	-12.746
3228	13.115	0.6	0.	-11.64
3229	13.313	0.6	0.	-10.384
3230	13.51	0.6	0.	-9.0268
3231	13.708	0.6	0.	-7.6079
3232	13.906	0.6	0.	-6.1585
3233	14.104	0.6	0.	-4.7024
3234	14.302	0.6	0.	-3.2576
3235	14.5	0.6	0.	-1.838
3236	14.698	0.6	0.	-0.45969
3237	14.896	0.6	0.	-4.5333e-003
3238	15.094	0.6	0.	-1.583e-003
3239	15.292	0.6	0.	-1.3266e-003
3240	15.49	0.6	0.	-1.5045e-003
3241	15.688	0.6	0.	-1.7991e-003
3242	15.885	0.6	0.	-2.1563e-003
3243	16.083	0.6	0.	-2.54e-003
3244	16.281	0.6	0.	-2.9102e-003
3245	16.479	0.6	0.	-3.255e-003
3246	16.677	0.6	0.	-3.6051e-003
3247	16.875	0.6	0.	-3.962e-003
3248	17.073	0.6	0.	-4.2971e-003
3249	17.271	0.6	0.	-4.6112e-003
3250	17.469	0.6	0.	-4.9304e-003
3251	17.667	0.6	0.	-5.264e-003
3252	17.865	0.6	0.	-5.5805e-003
3253	18.063	0.6	0.	-5.8755e-003
3254	18.26	0.6	0.	-6.1914e-003
3255	18.458	0.6	0.	-6.5207e-003
3256	18.656	0.6	0.	-6.8437e-003
3257	18.854	0.6	0.	-7.1611e-003
3258	19.052	0.6	0.	-7.4959e-003
3259	19.25	0.6	0.	-7.8453e-003
3260	19.448	0.6	0.	-8.1976e-003
3261	19.646	0.6	0.	-8.5508e-003
3262	19.844	0.6	0.	-8.9186e-003
3263	20.042	0.6	0.	-9.2985e-003
3264	20.24	0.6	0.	-9.6786e-003
3265	20.438	0.6	0.	-1.0053e-002
3266	20.635	0.6	0.	-1.0424e-002
3267	20.833	0.6	0.	-1.0787e-002
3268	21.031	0.6	0.	-1.1114e-002
3269	21.229	0.6	0.	-1.138e-002
3270	21.427	0.6	0.	-1.1566e-002
3271	21.625	0.6	0.	-1.1626e-002
3272	21.823	0.6	0.	-1.1473e-002
3273	22.021	0.6	0.	-1.0993e-002
3274	22.219	0.6	0.	-1.0048e-002
3275	22.417	0.6	0.	-8.3271e-003
3276	22.615	0.6	0.	-5.5378e-003
3277	22.813	0.6	0.	-2.5973e-004
3278	23.01	0.6	0.	6.2288e-003
3279	23.208	0.6	0.	2.7582e-002
3280	23.406	0.6	0.	2.5732e-002
3281	23.604	0.6	0.	0.19766
3282	23.802	0.6	0.	-7.7514e-002
3283	8.3646	0.4	0.	-11.206
3284	8.5625	0.4	0.	-4.0702
3285	8.7604	0.4	0.	-3.1265
3286	8.9583	0.4	0.	-1.3264
3287	9.1563	0.4	0.	-0.78099
3288	9.3542	0.4	0.	-0.49367
3289	9.5521	0.4	0.	-0.37024
3290	9.75	0.4	0.	-0.29448
3291	9.9479	0.4	0.	-0.24175
3292	10.146	0.4	0.	-0.19968
3293	10.344	0.4	0.	-0.16548
3294	10.542	0.4	0.	-0.13845
3295	10.74	0.4	0.	-0.11954
3296	10.937	0.4	0.	-0.11163
3297	11.135	0.4	0.	-0.12401
3298	11.333	0.4	0.	-0.20551
3299	11.531	0.4	0.	-0.96282
3300	11.729	0.4	0.	-2.9529
3301	11.927	0.4	0.	-4.4833
3302	12.125	0.4	0.	-5.4227
3303	12.323	0.4	0.	-5.862
3304	12.521	0.4	0.	-5.8969
3305	12.719	0.4	0.	-5.6123
3306	12.917	0.4	0.	-5.0806
3307	13.115	0.4	0.	-4.3622
3308	13.313	0.4	0.	-3.5069
3309	13.51	0.4	0.	-2.5555
3310	13.708	0.4	0.	-1.5408
3311	13.906	0.4	0.	-0.49261
3312	14.104	0.4	0.	1.2123e-002
3313	14.302	0.4	0.	1.4795e-002
3314	14.5	0.4	0.	1.3375e-002
3315	14.698	0.4	0.	1.1452e-002
3316	14.896	0.4	0.	9.4506e-003
3317	15.094	0.4	0.	7.4455e-003
3318	15.292	0.4	0.	5.4791e-003
3319	15.49	0.4	0.	3.6045e-003
3320	15.688	0.4	0.	1.8239e-003
3321	15.885	0.4	0.	1.0005e-004
3322	16.083	0.4	0.	-1.5682e-003
3323	16.281	0.4	0.	-3.1537e-003
3324	16.479	0.4	0.	-4.6658e-003
3325	16.677	0.4	0.	-6.1455e-003
3326	16.875	0.4	0.	-7.5971e-003
3327	17.073	0.4	0.	-9.0012e-003
3328	17.271	0.4	0.	-1.037e-002
3329	17.469	0.4	0.	-1.1736e-002
3330	17.667	0.4	0.	-1.3114e-002
3331	17.865	0.4	0.	-1.4477e-002
3332	18.063	0.4	0.	-1.5846e-002
3333	18.26	0.4	0.	-1.7257e-002
3334	18.458	0.4	0.	-1.871e-002
3335	18.656	0.4	0.	-2.02e-002
3336	18.854	0.4	0.	-2.1739e-002
3337	19.052	0.4	0.	-2.3359e-002
3338	19.25	0.4	0.	-2.5068e-002
3339	19.448	0.4	0.	-2.6868e-002
3340	19.646	0.4	0.	-2.8771e-002
3341	19.844	0.4	0.	-3.0809e-002
3342	20.042	0.4	0.	-3.2996e-002
3343	20.24	0.4	0.	-3.5341e-002
3344	20.438	0.4	0.	-3.7857e-002
3345	20.635	0.4	0.	-4.0587e-002
3346	20.833	0.4	0.	-4.3545e-002
3347	21.031	0.4	0.	-4.6755e-002
3348	21.229	0.4	0.	-5.023e-002
3349	21.427	0.4	0.	-5.4021e-002
3350	21.625	0.4	0.	-5.8159e-002
3351	21.823	0.4	0.	-6.2652e-002
3352	22.021	0.4	0.	-6.7529e-002
3353	22.219	0.4	0.	-7.281e-002
3354	22.417	0.4	0.	-7.8422e-002
3355	22.615	0.4	0.	-8.4417e-002
3356	22.813	0.4	0.	-8.991e-002
3357	23.01	0.4	0.	-9.6718e-002
3358	23.208	0.4	0.	-9.3872e-002
3359	23.406	0.4	0.	-0.11415
3360	23.604	0.4	0.	-2.0085e-003
3361	23.802	0.4	0.	-0.35379
3362	8.3646	0.2	0.	-22.879
3363	8.5625	0.2	0.	-6.6526
3364	8.7604	0.2	0.	-3.0032
3365	8.9583	0.2	0.	-0.65641
3366	9.1563	0.2	0.	7.0486e-004
3367	9.3542	0.2	0.	0.24934
3368	9.5521	0.2	0.	0.27717
3369	9.75	0.2	0.	0.24282
3370	9.9479	0.2	0.	0.19159
3371	10.146	0.2	0.	0.14384
3372	10.344	0.2	0.	0.10472
3373	10.542	0.2	0.	7.4457e-002
3374	10.74	0.2	0.	5.0679e-002
3375	10.937	0.2	0.	3.0586e-002
3376	11.135	0.2	0.	1.2111e-002
3377	11.333	0.2	0.	-6.43e-003
3378	11.531	0.2	0.	-2.7665e-002
3379	11.729	0.2	0.	-5.2107e-002
3380	11.927	0.2	0.	-7.8284e-002
3381	12.125	0.2	0.	-0.10039
3382	12.323	0.2	0.	-0.11095
3383	12.521	0.2	0.	-0.10755
3384	12.719	0.2	0.	-9.4794e-002
3385	12.917	0.2	0.	-7.9095e-002
3386	13.115	0.2	0.	-6.4441e-002
3387	13.313	0.2	0.	-5.225e-002
3388	13.51	0.2	0.	-4.2607e-002
3389	13.708	0.2	0.	-3.5084e-002
3390	13.906	0.2	0.	-2.9167e-002
3391	14.104	0.2	0.	-2.4452e-002
3392	14.302	0.2	0.	-2.0676e-002
3393	14.5	0.2	0.	-1.7608e-002
3394	14.698	0.2	0.	-1.5044e-002
3395	14.896	0.2	0.	-1.2868e-002
3396	15.094	0.2	0.	-1.1026e-002
3397	15.292	0.2	0.	-9.4471e-003
3398	15.49	0.2	0.	-8.0523e-003
3399	15.688	0.2	0.	-6.7971e-003
3400	15.885	0.2	0.	-5.6923e-003
3401	16.083	0.2	0.	-4.7118e-003
3402	16.281	0.2	0.	-3.8037e-003
3403	16.479	0.2	0.	-2.956e-003
3404	16.677	0.2	0.	-2.188e-003
3405	16.875	0.2	0.	-1.4846e-003
3406	17.073	0.2	0.	-8.1356e-004
3407	17.271	0.2	0.	-1.692e-004
3408	17.469	0.2	0.	4.2968e-004
3409	17.667	0.2	0.	9.9103e-004
3410	17.865	0.2	0.	1.5338e-003
3411	18.063	0.2	0.	2.0632e-003
3412	18.26	0.2	0.	2.5624e-003
3413	18.458	0.2	0.	3.0312e-003
3414	18.656	0.2	0.	3.4891e-003
3415	18.854	0.2	0.	3.9394e-003
3416	19.052	0.2	0.	4.3518e-003
3417	19.25	0.2	0.	4.7286e-003
3418	19.448	0.2	0.	5.086e-003
3419	19.646	0.2	0.	5.4131e-003
3420	19.844	0.2	0.	5.6762e-003
3421	20.042	0.2	0.	5.8732e-003
3422	20.24	0.2	0.	5.9972e-003
3423	20.438	0.2	0.	6.0368e-003
3424	20.635	0.2	0.	5.9432e-003
3425	20.833	0.2	0.	5.6909e-003
3426	21.031	0.2	0.	5.2453e-003
3427	21.229	0.2	0.	4.5605e-003
3428	21.427	0.2	0.	3.545e-003
3429	21.625	0.2	0.	2.1316e-003
3430	21.823	0.2	0.	1.8243e-004
3431	22.021	0.2	0.	-2.4428e-003
3432	22.219	0.2	0.	-5.9642e-003
3433	22.417	0.2	0.	-1.0654e-002
3434	22.615	0.2	0.	-1.7036e-002
3435	22.813	0.2	0.	-2.525e-002
3436	23.01	0.2	0.	-3.7974e-002
3437	23.208	0.2	0.	-4.9512e-002
3438	23.406	0.2	0.	-8.8511e-002
3439	23.604	0.2	0.	-5.9224e-002
3440	23.802	0.2	0.	-0.49265
3441	23.802	0.2	0.1	0.49265
3442	23.604	0.2	0.1	5.9221e-002
3443	23.406	0.2	0.1	8.8513e-002
3444	23.208	0.2	0.1	4.9512e-002
3445	23.01	0.2	0.1	3.7975e-002
3446	22.813	0.2	0.1	2.525e-002
3447	22.615	0.2	0.1	1.7036e-002
3448	22.417	0.2	0.1	1.0653e-002
3449	22.219	0.2	0.1	5.9657e-003
3450	22.021	0.2	0.1	2.4406e-003
3451	21.823	0.2	0.1	-1.8626e-004
3452	21.625	0.2	0.1	-2.1307e-003
3453	21.427	0.2	0.1	-3.5465e-003
3454	21.229	0.2	0.1	-4.5605e-003
3455	21.031	0.2	0.1	-5.2477e-003
3456	20.833	0.2	0.1	-5.6898e-003
3457	20.635	0.2	0.1	-5.9407e-003
3458	20.438	0.2	0.1	-6.0367e-003
3459	20.24	0.2	0.1	-5.9975e-003
3460	20.042	0.2	0.1	-5.8724e-003
3461	19.844	0.2	0.1	-5.6751e-003
3462	19.646	0.2	0.1	-5.4124e-003
3463	19.448	0.2	0.1	-5.0869e-003
3464	19.25	0.2	0.1	-4.7292e-003
3465	19.052	0.2	0.1	-4.3525e-003
3466	18.854	0.2	0.1	-3.9395e-003
3467	18.656	0.2	0.1	-3.4902e-003
3468	18.458	0.2	0.1	-3.0318e-003
3469	18.26	0.2	0.1	-2.5636e-003
3470	18.063	0.2	0.1	-2.063e-003
3471	17.865	0.2	0.1	-1.5346e-003
3472	17.667	0.2	0.1	-9.9221e-004
3473	17.469	0.2	0.1	-4.2907e-004
3474	17.271	0.2	0.1	1.6911e-004
3475	17.073	0.2	0.1	8.1354e-004
3476	16.875	0.2	0.1	1.4849e-003
3477	16.677	0.2	0.1	2.1879e-003
3478	16.479	0.2	0.1	2.9552e-003
3479	16.281	0.2	0.1	3.8027e-003
3480	16.083	0.2	0.1	4.7129e-003
3481	15.885	0.2	0.1	5.6923e-003
3482	15.688	0.2	0.1	6.797e-003
3483	15.49	0.2	0.1	8.0513e-003
3484	15.292	0.2	0.1	9.4476e-003
3485	15.094	0.2	0.1	1.1025e-002
3486	14.896	0.2	0.1	1.2868e-002
3487	14.698	0.2	0.1	1.5044e-002
3488	14.5	0.2	0.1	1.7606e-002
3489	14.302	0.2	0.1	2.0677e-002
3490	14.104	0.2	0.1	2.4452e-002
3491	13.906	0.2	0.1	2.9166e-002
3492	13.708	0.2	0.1	3.5083e-002
3493	13.51	0.2	0.1	4.2608e-002
3494	13.313	0.2	0.1	5.2249e-002
3495	13.115	0.2	0.1	6.4441e-002
3496	12.917	0.2	0.1	7.9094e-002
3497	12.719	0.2	0.1	9.4794e-002
3498	12.521	0.2	0.1	0.10755
3499	12.323	0.2	0.1	0.11095
3500	12.125	0.2	0.1	0.10039
3501	11.927	0.2	0.1	7.8285e-002
3502	11.729	0.2	0.1	5.2107e-002
3503	11.531	0.2	0.1	2.7661e-002
3504	11.333	0.2	0.1	6.442e-003
3505	11.135	0.2	0.1	-1.2203e-002
3506	10.937	0.2	0.1	-3.0585e-002
3507	10.74	0.2	0.1	-5.0588e-002
3508	10.542	0.2	0.1	-7.4458e-002
3509	10.344	0.2	0.1	-0.10481
3510	10.146	0.2	0.1	-0.14384
3511	9.9479	0.2	0.1	-0.1915
3512	9.75	0.2	0.1	-0.24283
3513	9.5521	0.2	0.1	-0.27717
3514	9.3542	0.2	0.1	-0.24934
3515	9.1563	0.2	0.1	-7.0533e-004
3516	8.9583	0.2	0.1	0.65641
3517	8.7604	0.2	0.1	3.0032
3518	8.5625	0.2	0.1	6.6526
3519	8.3646	0.2	0.1	22.879
3520	23.802	0.4	0.1	0.35379
3521	23.604	0.4	0.1	2.0103e-003
3522	23.406	0.4	0.1	0.11415
3523	23.208	0.4	0.1	9.3872e-002
3524	23.01	0.4	0.1	9.6721e-002
3525	22.813	0.4	0.1	8.9911e-002
3526	22.615	0.4	0.1	8.4417e-002
3527	22.417	0.4	0.1	7.8424e-002
3528	22.219	0.4	0.1	7.2807e-002
3529	22.021	0.4	0.1	6.7529e-002
3530	21.823	0.4	0.1	6.2655e-002
3531	21.625	0.4	0.1	5.8158e-002
3532	21.427	0.4	0.1	5.4025e-002
3533	21.229	0.4	0.1	5.0231e-002
3534	21.031	0.4	0.1	4.6752e-002
3535	20.833	0.4	0.1	4.3545e-002
3536	20.635	0.4	0.1	4.0587e-002
3537	20.438	0.4	0.1	3.7857e-002
3538	20.24	0.4	0.1	3.5341e-002
3539	20.042	0.4	0.1	3.2997e-002
3540	19.844	0.4	0.1	3.0809e-002
3541	19.646	0.4	0.1	2.8771e-002
3542	19.448	0.4	0.1	2.6869e-002
3543	19.25	0.4	0.1	2.5069e-002
3544	19.052	0.4	0.1	2.336e-002
3545	18.854	0.4	0.1	2.1739e-002
3546	18.656	0.4	0.1	2.02e-002
3547	18.458	0.4	0.1	1.8712e-002
3548	18.26	0.4	0.1	1.7257e-002
3549	18.063	0.4	0.1	1.5848e-002
3550	17.865	0.4	0.1	1.4478e-002
3551	17.667	0.4	0.1	1.3114e-002
3552	17.469	0.4	0.1	1.1737e-002
3553	17.271	0.4	0.1	1.0369e-002
3554	17.073	0.4	0.1	9.0024e-003
3555	16.875	0.4	0.1	7.5977e-003
3556	16.677	0.4	0.1	6.1453e-003
3557	16.479	0.4	0.1	4.6671e-003
3558	16.281	0.4	0.1	3.1538e-003
3559	16.083	0.4	0.1	1.5683e-003
3560	15.885	0.4	0.1	-9.996e-005
3561	15.688	0.4	0.1	-1.8229e-003
3562	15.49	0.4	0.1	-3.6048e-003
3563	15.292	0.4	0.1	-5.4789e-003
3564	15.094	0.4	0.1	-7.4453e-003
3565	14.896	0.4	0.1	-9.4501e-003
3566	14.698	0.4	0.1	-1.1453e-002
3567	14.5	0.4	0.1	-1.3375e-002
3568	14.302	0.4	0.1	-1.4796e-002
3569	14.104	0.4	0.1	-1.2121e-002
3570	13.906	0.4	0.1	0.49262
3571	13.708	0.4	0.1	1.5408
3572	13.51	0.4	0.1	2.5555
3573	13.313	0.4	0.1	3.5069
3574	13.115	0.4	0.1	4.3622
3575	12.917	0.4	0.1	5.0806
3576	12.719	0.4	0.1	5.6124
3577	12.521	0.4	0.1	5.8969
3578	12.323	0.4	0.1	5.862
3579	12.125	0.4	0.1	5.4227
3580	11.927	0.4	0.1	4.4833
3581	11.729	0.4	0.1	2.9529
3582	11.531	0.4	0.1	0.96282
3583	11.333	0.4	0.1	0.20552
3584	11.135	0.4	0.1	0.12399
3585	10.937	0.4	0.1	0.11164
3586	10.74	0.4	0.1	0.11955
3587	10.542	0.4	0.1	0.13845
3588	10.344	0.4	0.1	0.16547
3589	10.146	0.4	0.1	0.19969
3590	9.9479	0.4	0.1	0.24177
3591	9.75	0.4	0.1	0.29448
3592	9.5521	0.4	0.1	0.37024
3593	9.3542	0.4	0.1	0.49367
3594	9.1563	0.4	0.1	0.78099
3595	8.9583	0.4	0.1	1.3264
3596	8.7604	0.4	0.1	3.1265
3597	8.5625	0.4	0.1	4.0702
3598	8.3646	0.4	0.1	11.206
3599	23.802	0.6	0.1	7.7513e-002
3600	23.604	0.6	0.1	-0.19766
3601	23.406	0.6	0.1	-2.5732e-002
3602	23.208	0.6	0.1	-2.7583e-002
3603	23.01	0.6	0.1	-6.23e-003
3604	22.813	0.6	0.1	2.5955e-004
3605	22.615	0.6	0.1	5.5379e-003
3606	22.417	0.6	0.1	8.3266e-003
3607	22.219	0.6	0.1	1.005e-002
3608	22.021	0.6	0.1	1.0994e-002
3609	21.823	0.6	0.1	1.1471e-002
3610	21.625	0.6	0.1	1.1629e-002
3611	21.427	0.6	0.1	1.1566e-002
3612	21.229	0.6	0.1	1.138e-002
3613	21.031	0.6	0.1	1.1114e-002
3614	20.833	0.6	0.1	1.0787e-002
3615	20.635	0.6	0.1	1.0425e-002
3616	20.438	0.6	0.1	1.0052e-002
3617	20.24	0.6	0.1	9.6779e-003
3618	20.042	0.6	0.1	9.3e-003
3619	19.844	0.6	0.1	8.9173e-003
3620	19.646	0.6	0.1	8.5499e-003
3621	19.448	0.6	0.1	8.1981e-003
3622	19.25	0.6	0.1	7.8452e-003
3623	19.052	0.6	0.1	7.4957e-003
3624	18.854	0.6	0.1	7.1605e-003
3625	18.656	0.6	0.1	6.8425e-003
3626	18.458	0.6	0.1	6.5194e-003
3627	18.26	0.6	0.1	6.1923e-003
3628	18.063	0.6	0.1	5.8753e-003
3629	17.865	0.6	0.1	5.5808e-003
3630	17.667	0.6	0.1	5.264e-003
3631	17.469	0.6	0.1	4.9304e-003
3632	17.271	0.6	0.1	4.6088e-003
3633	17.073	0.6	0.1	4.2983e-003
3634	16.875	0.6	0.1	3.9622e-003
3635	16.677	0.6	0.1	3.6056e-003
3636	16.479	0.6	0.1	3.2559e-003
3637	16.281	0.6	0.1	2.9107e-003
3638	16.083	0.6	0.1	2.5408e-003
3639	15.885	0.6	0.1	2.1568e-003
3640	15.688	0.6	0.1	1.7997e-003
3641	15.49	0.6	0.1	1.5038e-003
3642	15.292	0.6	0.1	1.3271e-003
3643	15.094	0.6	0.1	1.5829e-003
3644	14.896	0.6	0.1	4.5328e-003
3645	14.698	0.6	0.1	0.45969
3646	14.5	0.6	0.1	1.838
3647	14.302	0.6	0.1	3.2576
3648	14.104	0.6	0.1	4.7024
3649	13.906	0.6	0.1	6.1586
3650	13.708	0.6	0.1	7.608
3651	13.51	0.6	0.1	9.0268
3652	13.313	0.6	0.1	10.384
3653	13.115	0.6	0.1	11.64
3654	12.917	0.6	0.1	12.746
3655	12.719	0.6	0.1	13.641
3656	12.521	0.6	0.1	14.25
3657	12.323	0.6	0.1	14.483
3658	12.125	0.6	0.1	14.236
3659	11.927	0.6	0.1	13.384
3660	11.729	0.6	0.1	11.792
3661	11.531	0.6	0.1	9.3129
3662	11.333	0.6	0.1	5.8386
3663	11.135	0.6	0.1	1.8506
3664	10.937	0.6	0.1	0.48846
3665	10.74	0.6	0.1	0.30322
3666	10.542	0.6	0.1	0.25747
3667	10.344	0.6	0.1	0.25453
3668	10.146	0.6	0.1	0.27715
3669	9.9479	0.6	0.1	0.32415
3670	9.75	0.6	0.1	0.40126
3671	9.5521	0.6	0.1	0.52563
3672	9.3542	0.6	0.1	0.7186
3673	9.1563	0.6	0.1	1.0688
3674	8.9583	0.6	0.1	1.5406
3675	8.7604	0.6	0.1	2.758
3676	8.5625	0.6	0.1	2.1094
3677	8.3646	0.6	0.1	9.1421
3678	23.802	0.8	0.1	2.8363e-002
3679	23.604	0.8	0.1	-0.23301
3680	23.406	0.8	0.1	-5.4586e-002
3681	23.208	0.8	0.1	-5.032e-002
3682	23.01	0.8	0.1	-2.5226e-002
3683	22.813	0.8	0.1	-1.6037e-002
3684	22.615	0.8	0.1	-8.4866e-003
3685	22.417	0.8	0.1	-3.8635e-003
3686	22.219	0.8	0.1	-6.141e-004
3687	22.021	0.8	0.1	1.6031e-003
3688	21.823	0.8	0.1	3.1503e-003
3689	21.625	0.8	0.1	4.208e-003
3690	21.427	0.8	0.1	4.9256e-003
3691	21.229	0.8	0.1	5.4012e-003
3692	21.031	0.8	0.1	5.7093e-003
3693	20.833	0.8	0.1	5.88e-003
3694	20.635	0.8	0.1	5.9505e-003
3695	20.438	0.8	0.1	5.9594e-003
3696	20.24	0.8	0.1	5.9203e-003
3697	20.042	0.8	0.1	5.8402e-003
3698	19.844	0.8	0.1	5.7254e-003
3699	19.646	0.8	0.1	5.596e-003
3700	19.448	0.8	0.1	5.4587e-003
3701	19.25	0.8	0.1	5.3022e-003
3702	19.052	0.8	0.1	5.1298e-003
3703	18.854	0.8	0.1	4.9611e-003
3704	18.656	0.8	0.1	4.7974e-003
3705	18.458	0.8	0.1	4.6187e-003
3706	18.26	0.8	0.1	4.4279e-003
3707	18.063	0.8	0.1	4.2453e-003
3708	17.865	0.8	0.1	4.0754e-003
3709	17.667	0.8	0.1	3.8922e-003
3710	17.469	0.8	0.1	3.6983e-003
3711	17.271	0.8	0.1	3.5229e-003
3712	17.073	0.8	0.1	3.3667e-003
3713	16.875	0.8	0.1	3.2109e-003
3714	16.677	0.8	0.1	3.0686e-003
3715	16.479	0.8	0.1	2.9831e-003
3716	16.281	0.8	0.1	2.9934e-003
3717	16.083	0.8	0.1	3.1394e-003
3718	15.885	0.8	0.1	3.58e-003
3719	15.688	0.8	0.1	4.8061e-003
3720	15.49	0.8	0.1	8.7657e-003
3721	15.292	0.8	0.1	4.5884e-002
3722	15.094	0.8	0.1	1.2184
3723	14.896	0.8	0.1	2.826
3724	14.698	0.8	0.1	4.5048
3725	14.5	0.8	0.1	6.2474
3726	14.302	0.8	0.1	8.0483
3727	14.104	0.8	0.1	9.8991
3728	13.906	0.8	0.1	11.787
3729	13.708	0.8	0.1	13.695
3730	13.51	0.8	0.1	15.599
3731	13.313	0.8	0.1	17.467
3732	13.115	0.8	0.1	19.259
3733	12.917	0.8	0.1	20.924
3734	12.719	0.8	0.1	22.397
3735	12.521	0.8	0.1	23.6
3736	12.323	0.8	0.1	24.438
3737	12.125	0.8	0.1	24.799
3738	11.927	0.8	0.1	24.552
3739	11.729	0.8	0.1	23.546
3740	11.531	0.8	0.1	21.614
3741	11.333	0.8	0.1	18.582
3742	11.135	0.8	0.1	14.285
3743	10.937	0.8	0.1	8.6981
3744	10.74	0.8	0.1	3.0764
3745	10.542	0.8	0.1	1.1837
3746	10.344	0.8	0.1	0.83401
3747	10.146	0.8	0.1	0.75542
3748	9.9479	0.8	0.1	0.77353
3749	9.75	0.8	0.1	0.85103
3750	9.5521	0.8	0.1	0.98353
3751	9.3542	0.8	0.1	1.1644
3752	9.1563	0.8	0.1	1.4431
3753	8.9583	0.8	0.1	1.6647
3754	8.7604	0.8	0.1	2.4251
3755	8.5625	0.8	0.1	0.93171
3756	8.3646	0.8	0.1	8.2719
3757	23.802	1.	0.1	-2.4542e-002
3758	23.604	1.	0.1	-0.27035
3759	23.406	1.	0.1	-8.286e-002
3760	23.208	1.	0.1	-7.5223e-002
3761	23.01	1.	0.1	-4.714e-002
3762	22.813	1.	0.1	-3.5618e-002
3763	22.615	1.	0.1	-2.6124e-002
3764	22.417	1.	0.1	-1.9847e-002
3765	22.219	1.	0.1	-1.5161e-002
3766	22.021	1.	0.1	-1.1692e-002
3767	21.823	1.	0.1	-9.0459e-003
3768	21.625	1.	0.1	-7.0136e-003
3769	21.427	1.	0.1	-5.4274e-003
3770	21.229	1.	0.1	-4.1759e-003
3771	21.031	1.	0.1	-3.1715e-003
3772	20.833	1.	0.1	-2.3703e-003
3773	20.635	1.	0.1	-1.7279e-003
3774	20.438	1.	0.1	-1.2005e-003
3775	20.24	1.	0.1	-7.6077e-004
3776	20.042	1.	0.1	-4.0536e-004
3777	19.844	1.	0.1	-1.173e-004
3778	19.646	1.	0.1	1.2406e-004
3779	19.448	1.	0.1	3.3656e-004
3780	19.25	1.	0.1	5.0648e-004
3781	19.052	1.	0.1	6.4093e-004
3782	18.854	1.	0.1	7.6227e-004
3783	18.656	1.	0.1	8.7504e-004
3784	18.458	1.	0.1	9.6684e-004
3785	18.26	1.	0.1	1.0383e-003
3786	18.063	1.	0.1	1.1119e-003
3787	17.865	1.	0.1	1.1978e-003
3788	17.667	1.	0.1	1.2767e-003
3789	17.469	1.	0.1	1.3525e-003
3790	17.271	1.	0.1	1.4604e-003
3791	17.073	1.	0.1	1.6213e-003
3792	16.875	1.	0.1	1.8272e-003
3793	16.677	1.	0.1	2.122e-003
3794	16.479	1.	0.1	2.61e-003
3795	16.281	1.	0.1	3.472e-003
3796	16.083	1.	0.1	5.1246e-003
3797	15.885	1.	0.1	9.2255e-003
3798	15.688	1.	0.1	3.0064e-002
3799	15.49	1.	0.1	0.89341
3800	15.292	1.	0.1	2.6337
3801	15.094	1.	0.1	4.4744
3802	14.896	1.	0.1	6.4055
3803	14.698	1.	0.1	8.4281
3804	14.5	1.	0.1	10.542
3805	14.302	1.	0.1	12.745
3806	14.104	1.	0.1	15.031
3807	13.906	1.	0.1	17.392
3808	13.708	1.	0.1	19.813
3809	13.51	1.	0.1	22.275
3810	13.313	1.	0.1	24.749
3811	13.115	1.	0.1	27.199
3812	12.917	1.	0.1	29.578
3813	12.719	1.	0.1	31.827
3814	12.521	1.	0.1	33.871
3815	12.323	1.	0.1	35.621
3816	12.125	1.	0.1	36.969
3817	11.927	1.	0.1	37.788
3818	11.729	1.	0.1	37.931
3819	11.531	1.	0.1	37.232
3820	11.333	1.	0.1	35.504
3821	11.135	1.	0.1	32.546
3822	10.937	1.	0.1	28.153
3823	10.74	1.	0.1	22.144
3824	10.542	1.	0.1	14.531
3825	10.344	1.	0.1	6.679
3826	10.146	1.	0.1	2.9418
3827	9.9479	1.	0.1	2.0129
3828	9.75	1.	0.1	1.7416
3829	9.5521	1.	0.1	1.6831
3830	9.3542	1.	0.1	1.714
3831	9.1563	1.	0.1	1.8427
3832	8.9583	1.	0.1	1.8099
3833	8.7604	1.	0.1	2.5902
3834	8.5625	1.	0.1	0.17453
3835	8.3646	1.	0.1	9.8347
3836	23.802	1.2	0.1	-5.5865e-002
3837	23.604	1.2	0.1	-0.291
3838	23.406	1.2	0.1	-9.8492e-002
3839	23.208	1.2	0.1	-8.9292e-002
3840	23.01	1.2	0.1	-5.9676e-002
3841	22.813	1.2	0.1	-4.704e-002
3842	22.615	1.2	0.1	-3.6584e-002
3843	22.417	1.2	0.1	-2.9482e-002
3844	22.219	1.2	0.1	-2.4069e-002
3845	22.021	1.2	0.1	-1.9952e-002
3846	21.823	1.2	0.1	-1.6726e-002
3847	21.625	1.2	0.1	-1.4169e-002
3848	21.427	1.2	0.1	-1.211e-002
3849	21.229	1.2	0.1	-1.0428e-002
3850	21.031	1.2	0.1	-9.0366e-003
3851	20.833	1.2	0.1	-7.8795e-003
3852	20.635	1.2	0.1	-6.9142e-003
3853	20.438	1.2	0.1	-6.0899e-003
3854	20.24	1.2	0.1	-5.3752e-003
3855	20.042	1.2	0.1	-4.7677e-003
3856	19.844	1.2	0.1	-4.2478e-003
3857	19.646	1.2	0.1	-3.7862e-003
3858	19.448	1.2	0.1	-3.3699e-003
3859	19.25	1.2	0.1	-3.004e-003
3860	19.052	1.2	0.1	-2.6885e-003
3861	18.854	1.2	0.1	-2.3951e-003
3862	18.656	1.2	0.1	-2.1148e-003
3863	18.458	1.2	0.1	-1.862e-003
3864	18.26	1.2	0.1	-1.6348e-003
3865	18.063	1.2	0.1	-1.4029e-003
3866	17.865	1.2	0.1	-1.1595e-003
3867	17.667	1.2	0.1	-9.1685e-004
3868	17.469	1.2	0.1	-6.6495e-004
3869	17.271	1.2	0.1	-3.5901e-004
3870	17.073	1.2	0.1	3.534e-005
3871	16.875	1.2	0.1	5.3765e-004
3872	16.677	1.2	0.1	1.2547e-003
3873	16.479	1.2	0.1	2.4457e-003
3874	16.281	1.2	0.1	4.7686e-003
3875	16.083	1.2	0.1	1.0992e-002
3876	15.885	1.2	0.1	6.7555e-002
3877	15.688	1.2	0.1	1.4946
3878	15.49	1.2	0.1	3.4127
3879	15.292	1.2	0.1	5.4382
3880	15.094	1.2	0.1	7.5726
3881	14.896	1.2	0.1	9.8213
3882	14.698	1.2	0.1	12.19
3883	14.5	1.2	0.1	14.682
3884	14.302	1.2	0.1	17.3
3885	14.104	1.2	0.1	20.044
3886	13.906	1.2	0.1	22.909
3887	13.708	1.2	0.1	25.887
3888	13.51	1.2	0.1	28.965
3889	13.313	1.2	0.1	32.122
3890	13.115	1.2	0.1	35.332
3891	12.917	1.2	0.1	38.556
3892	12.719	1.2	0.1	41.746
3893	12.521	1.2	0.1	44.841
3894	12.323	1.2	0.1	47.763
3895	12.125	1.2	0.1	50.42
3896	11.927	1.2	0.1	52.7
3897	11.729	1.2	0.1	54.47
3898	11.531	1.2	0.1	55.576
3899	11.333	1.2	0.1	55.842
3900	11.135	1.2	0.1	55.063
3901	10.937	1.2	0.1	53.003
3902	10.74	1.2	0.1	49.385
3903	10.542	1.2	0.1	43.871
3904	10.344	1.2	0.1	36.05
3905	10.146	1.2	0.1	25.54
3906	9.9479	1.2	0.1	13.239
3907	9.75	1.2	0.1	5.578
3908	9.5521	1.2	0.1	3.3966
3909	9.3542	1.2	0.1	2.6716
3910	9.1563	1.2	0.1	2.404
3911	8.9583	1.2	0.1	2.2997
3912	8.7604	1.2	0.1	2.746
3913	8.5625	1.2	0.1	-2.6596e-002
3914	8.3646	1.2	0.1	8.3273
3915	23.802	1.4	0.1	-8.0385e-002
3916	23.604	1.4	0.1	-0.30653
3917	23.406	1.4	0.1	-0.1102
3918	23.208	1.4	0.1	-9.9805e-002
3919	23.01	1.4	0.1	-6.9149e-002
3920	22.813	1.4	0.1	-5.5762e-002
3921	22.615	1.4	0.1	-4.4664e-002
3922	22.417	1.4	0.1	-3.701e-002
3923	22.219	1.4	0.1	-3.1106e-002
3924	22.021	1.4	0.1	-2.6548e-002
3925	21.823	1.4	0.1	-2.292e-002
3926	21.625	1.4	0.1	-1.9997e-002
3927	21.427	1.4	0.1	-1.7607e-002
3928	21.229	1.4	0.1	-1.5621e-002
3929	21.031	1.4	0.1	-1.3948e-002
3930	20.833	1.4	0.1	-1.2533e-002
3931	20.635	1.4	0.1	-1.1326e-002
3932	20.438	1.4	0.1	-1.0281e-002
3933	20.24	1.4	0.1	-9.3622e-003
3934	20.042	1.4	0.1	-8.5632e-003
3935	19.844	1.4	0.1	-7.8629e-003
3936	19.646	1.4	0.1	-7.2339e-003
3937	19.448	1.4	0.1	-6.6599e-003
3938	19.25	1.4	0.1	-6.1509e-003
3939	19.052	1.4	0.1	-5.6933e-003
3940	18.854	1.4	0.1	-5.2662e-003
3941	18.656	1.4	0.1	-4.8567e-003
3942	18.458	1.4	0.1	-4.4824e-003
3943	18.26	1.4	0.1	-4.134e-003
3944	18.063	1.4	0.1	-3.7836e-003
3945	17.865	1.4	0.1	-3.4178e-003
3946	17.667	1.4	0.1	-3.0512e-003
3947	17.469	1.4	0.1	-2.6646e-003
3948	17.271	1.4	0.1	-2.2038e-003
3949	17.073	1.4	0.1	-1.6213e-003
3950	16.875	1.4	0.1	-8.5042e-004
3951	16.677	1.4	0.1	3.2049e-004
3952	16.479	1.4	0.1	2.4983e-003
3953	16.281	1.4	0.1	8.1663e-003
3954	16.083	1.4	0.1	5.7231e-002
3955	15.885	1.4	0.1	1.5568
3956	15.688	1.4	0.1	3.6051
3957	15.49	1.4	0.1	5.7705
3958	15.292	1.4	0.1	8.0576
3959	15.094	1.4	0.1	10.476
3960	14.896	1.4	0.1	13.036
3961	14.698	1.4	0.1	15.747
3962	14.5	1.4	0.1	18.618
3963	14.302	1.4	0.1	21.656
3964	14.104	1.4	0.1	24.866
3965	13.906	1.4	0.1	28.252
3966	13.708	1.4	0.1	31.814
3967	13.51	1.4	0.1	35.547
3968	13.313	1.4	0.1	39.442
3969	13.115	1.4	0.1	43.484
3970	12.917	1.4	0.1	47.649
3971	12.719	1.4	0.1	51.905
3972	12.521	1.4	0.1	56.207
3973	12.323	1.4	0.1	60.5
3974	12.125	1.4	0.1	64.712
3975	11.927	1.4	0.1	68.753
3976	11.729	1.4	0.1	72.517
3977	11.531	1.4	0.1	75.872
3978	11.333	1.4	0.1	78.66
3979	11.135	1.4	0.1	80.691
3980	10.937	1.4	0.1	81.728
3981	10.74	1.4	0.1	81.463
3982	10.542	1.4	0.1	79.478
3983	10.344	1.4	0.1	75.16
3984	10.146	1.4	0.1	67.568
3985	9.9479	1.4	0.1	55.236
3986	9.75	1.4	0.1	36.252
3987	9.5521	1.4	0.1	13.674
3988	9.3542	1.4	0.1	5.1998
3989	9.1563	1.4	0.1	3.5295
3990	8.9583	1.4	0.1	3.09
3991	8.7604	1.4	0.1	2.9955
3992	8.5625	1.4	0.1	0.55459
3993	8.3646	1.4	0.1	24.056
3994	23.802	1.6	0.1	-9.8763e-002
3995	23.604	1.6	0.1	-0.31764
3996	23.406	1.6	0.1	-0.11843
3997	23.208	1.6	0.1	-0.10723
3998	23.01	1.6	0.1	-7.5875e-002
3999	22.813	1.6	0.1	-6.1992e-002
4000	22.615	1.6	0.1	-5.0489e-002
4001	22.417	1.6	0.1	-4.2486e-002
4002	22.219	1.6	0.1	-3.6274e-002
4003	22.021	1.6	0.1	-3.144e-002
4004	21.823	1.6	0.1	-2.7555e-002
4005	21.625	1.6	0.1	-2.4402e-002
4006	21.427	1.6	0.1	-2.1793e-002
4007	21.229	1.6	0.1	-1.9608e-002
4008	21.031	1.6	0.1	-1.7748e-002
4009	20.833	1.6	0.1	-1.616e-002
4010	20.635	1.6	0.1	-1.4792e-002
4011	20.438	1.6	0.1	-1.3598e-002
4012	20.24	1.6	0.1	-1.2541e-002
4013	20.042	1.6	0.1	-1.1611e-002
4014	19.844	1.6	0.1	-1.0789e-002
4015	19.646	1.6	0.1	-1.0045e-002
4016	19.448	1.6	0.1	-9.3628e-003
4017	19.25	1.6	0.1	-8.7533e-003
4018	19.052	1.6	0.1	-8.201e-003
4019	18.854	1.6	0.1	-7.6839e-003
4020	18.656	1.6	0.1	-7.1878e-003
4021	18.458	1.6	0.1	-6.7324e-003
4022	18.26	1.6	0.1	-6.3043e-003
4023	18.063	1.6	0.1	-5.8771e-003
4024	17.865	1.6	0.1	-5.436e-003
4025	17.667	1.6	0.1	-4.9926e-003
4026	17.469	1.6	0.1	-4.5234e-003
4027	17.271	1.6	0.1	-3.9707e-003
4028	17.073	1.6	0.1	-3.261e-003
4029	16.875	1.6	0.1	-2.2867e-003
4030	16.677	1.6	0.1	-6.7511e-004
4031	16.479	1.6	0.1	2.9686e-003
4032	16.281	1.6	0.1	2.1311e-002
4033	16.083	1.6	0.1	1.1345
4034	15.885	1.6	0.1	3.2725
4035	15.688	1.6	0.1	5.5356
4036	15.49	1.6	0.1	7.9279
4037	15.292	1.6	0.1	10.462
4038	15.094	1.6	0.1	13.151
4039	14.896	1.6	0.1	16.01
4040	14.698	1.6	0.1	19.052
4041	14.5	1.6	0.1	22.291
4042	14.302	1.6	0.1	25.742
4043	14.104	1.6	0.1	29.415
4044	13.906	1.6	0.1	33.324
4045	13.708	1.6	0.1	37.476
4046	13.51	1.6	0.1	41.879
4047	13.313	1.6	0.1	46.537
4048	13.115	1.6	0.1	51.448
4049	12.917	1.6	0.1	56.607
4050	12.719	1.6	0.1	62.
4051	12.521	1.6	0.1	67.605
4052	12.323	1.6	0.1	73.391
4053	12.125	1.6	0.1	79.312
4054	11.927	1.6	0.1	85.309
4055	11.729	1.6	0.1	91.304
4056	11.531	1.6	0.1	97.196
4057	11.333	1.6	0.1	102.85
4058	11.135	1.6	0.1	108.11
4059	10.937	1.6	0.1	112.75
4060	10.74	1.6	0.1	116.45
4061	10.542	1.6	0.1	118.78
4062	10.344	1.6	0.1	119.06
4063	10.146	1.6	0.1	116.23
4064	9.9479	1.6	0.1	108.53
4065	9.75	1.6	0.1	93.022
4066	9.5521	1.6	0.1	65.1
4067	9.3542	1.6	0.1	23.456
4068	9.1563	1.6	0.1	6.6698
4069	8.9583	1.6	0.1	2.7635
4070	8.7604	1.6	0.1	10.887
4071	8.5625	1.6	0.1	-5.3545
4072	8.3646	1.6	0.1	-11.569
4073	23.802	1.8	0.1	-0.1131
4074	23.604	1.8	0.1	-0.32599
4075	23.406	1.8	0.1	-0.12457
4076	23.208	1.8	0.1	-0.11275
4077	23.01	1.8	0.1	-8.0876e-002
4078	22.813	1.8	0.1	-6.6645e-002
4079	22.615	1.8	0.1	-5.4852e-002
4080	22.417	1.8	0.1	-4.6614e-002
4081	22.219	1.8	0.1	-4.0194e-002
4082	22.021	1.8	0.1	-3.5171e-002
4083	21.823	1.8	0.1	-3.1122e-002
4084	21.625	1.8	0.1	-2.7807e-002
4085	21.427	1.8	0.1	-2.5056e-002
4086	21.229	1.8	0.1	-2.2731e-002
4087	21.031	1.8	0.1	-2.0744e-002
4088	20.833	1.8	0.1	-1.9037e-002
4089	20.635	1.8	0.1	-1.7559e-002
4090	20.438	1.8	0.1	-1.6258e-002
4091	20.24	1.8	0.1	-1.5103e-002
4092	20.042	1.8	0.1	-1.408e-002
4093	19.844	1.8	0.1	-1.3174e-002
4094	19.646	1.8	0.1	-1.2349e-002
4095	19.448	1.8	0.1	-1.1593e-002
4096	19.25	1.8	0.1	-1.0911e-002
4097	19.052	1.8	0.1	-1.0293e-002
4098	18.854	1.8	0.1	-9.7125e-003
4099	18.656	1.8	0.1	-9.1604e-003
4100	18.458	1.8	0.1	-8.6513e-003
4101	18.26	1.8	0.1	-8.1729e-003
4102	18.063	1.8	0.1	-7.6993e-003
4103	17.865	1.8	0.1	-7.2149e-003
4104	17.667	1.8	0.1	-6.7308e-003
4105	17.469	1.8	0.1	-6.2253e-003
4106	17.271	1.8	0.1	-5.6289e-003
4107	17.073	1.8	0.1	-4.866e-003
4108	16.875	1.8	0.1	-3.7743e-003
4109	16.677	1.8	0.1	-1.779e-003
4110	16.479	1.8	0.1	4.328e-003
4111	16.281	1.8	0.1	0.32206
4112	16.083	1.8	0.1	2.4813
4113	15.885	1.8	0.1	4.8052
4114	15.688	1.8	0.1	7.2599
4115	15.49	1.8	0.1	9.8599
4116	15.292	1.8	0.1	12.621
4117	15.094	1.8	0.1	15.562
4118	14.896	1.8	0.1	18.699
4119	14.698	1.8	0.1	22.053
4120	14.5	1.8	0.1	25.641
4121	14.302	1.8	0.1	29.484
4122	14.104	1.8	0.1	33.603
4123	13.906	1.8	0.1	38.016
4124	13.708	1.8	0.1	42.744
4125	13.51	1.8	0.1	47.806
4126	13.313	1.8	0.1	53.218
4127	13.115	1.8	0.1	58.997
4128	12.917	1.8	0.1	65.154
4129	12.719	1.8	0.1	71.698
4130	12.521	1.8	0.1	78.631
4131	12.323	1.8	0.1	85.948
4132	12.125	1.8	0.1	93.634
4133	11.927	1.8	0.1	101.66
4134	11.729	1.8	0.1	109.98
4135	11.531	1.8	0.1	118.53
4136	11.333	1.8	0.1	127.21
4137	11.135	1.8	0.1	135.88
4138	10.937	1.8	0.1	144.33
4139	10.74	1.8	0.1	152.27
4140	10.542	1.8	0.1	159.27
4141	10.344	1.8	0.1	164.64
4142	10.146	1.8	0.1	167.32
4143	9.9479	1.8	0.1	165.6
4144	9.75	1.8	0.1	156.61
4145	9.5521	1.8	0.1	135.64
4146	9.3542	1.8	0.1	94.926
4147	9.1563	1.8	0.1	30.015
4148	8.9583	1.8	0.1	6.1842
4149	8.7604	1.8	0.1	7.1534
4150	8.5625	1.8	0.1	-9.1283
4151	8.3646	1.8	0.1	139.09
4152	23.802	2.	0.1	-0.12422
4153	23.604	2.	0.1	-0.33225
4154	23.406	2.	0.1	-0.12912
4155	23.208	2.	0.1	-0.11684
4156	23.01	2.	0.1	-8.4578e-002
4157	22.813	2.	0.1	-7.0096e-002
4158	22.615	2.	0.1	-5.81e-002
4159	22.417	2.	0.1	-4.9697e-002
4160	22.219	2.	0.1	-4.3135e-002
4161	22.021	2.	0.1	-3.7989e-002
4162	21.823	2.	0.1	-3.3822e-002
4163	21.625	2.	0.1	-3.0404e-002
4164	21.427	2.	0.1	-2.7553e-002
4165	21.229	2.	0.1	-2.5137e-002
4166	21.031	2.	0.1	-2.3065e-002
4167	20.833	2.	0.1	-2.1275e-002
4168	20.635	2.	0.1	-1.9721e-002
4169	20.438	2.	0.1	-1.8349e-002
4170	20.24	2.	0.1	-1.7125e-002
4171	20.042	2.	0.1	-1.6038e-002
4172	19.844	2.	0.1	-1.5073e-002
4173	19.646	2.	0.1	-1.4191e-002
4174	19.448	2.	0.1	-1.3386e-002
4175	19.25	2.	0.1	-1.2654e-002
4176	19.052	2.	0.1	-1.1992e-002
4177	18.854	2.	0.1	-1.1372e-002
4178	18.656	2.	0.1	-1.0782e-002
4179	18.458	2.	0.1	-1.0239e-002
4180	18.26	2.	0.1	-9.7333e-003
4181	18.063	2.	0.1	-9.2347e-003
4182	17.865	2.	0.1	-8.7328e-003
4183	17.667	2.	0.1	-8.2371e-003
4184	17.469	2.	0.1	-7.7262e-003
4185	17.271	2.	0.1	-7.1375e-003
4186	17.073	2.	0.1	-6.3841e-003
4187	16.875	2.	0.1	-5.2857e-003
4188	16.677	2.	0.1	-3.0359e-003
4189	16.479	2.	0.1	8.4375e-003
4190	16.281	2.	0.1	1.3017
4191	16.083	2.	0.1	3.6529
4192	15.885	2.	0.1	6.1341
4193	15.688	2.	0.1	8.758
4194	15.49	2.	0.1	11.543
4195	15.292	2.	0.1	14.508
4196	15.094	2.	0.1	17.674
4197	14.896	2.	0.1	21.063
4198	14.698	2.	0.1	24.698
4199	14.5	2.	0.1	28.605
4200	14.302	2.	0.1	32.809
4201	14.104	2.	0.1	37.338
4202	13.906	2.	0.1	42.22
4203	13.708	2.	0.1	47.485
4204	13.51	2.	0.1	53.165
4205	13.313	2.	0.1	59.29
4206	13.115	2.	0.1	65.893
4207	12.917	2.	0.1	73.004
4208	12.719	2.	0.1	80.653
4209	12.521	2.	0.1	88.867
4210	12.323	2.	0.1	97.667
4211	12.125	2.	0.1	107.07
4212	11.927	2.	0.1	117.07
4213	11.729	2.	0.1	127.67
4214	11.531	2.	0.1	138.83
4215	11.333	2.	0.1	150.47
4216	11.135	2.	0.1	162.48
4217	10.937	2.	0.1	174.69
4218	10.74	2.	0.1	186.79
4219	10.542	2.	0.1	198.36
4220	10.344	2.	0.1	208.7
4221	10.146	2.	0.1	216.78
4222	9.9479	2.	0.1	220.95
4223	9.75	2.	0.1	218.62
4224	9.5521	2.	0.1	205.71
4225	9.3542	2.	0.1	175.53
4226	9.1563	2.	0.1	117.94
4227	8.9583	2.	0.1	24.71
4228	8.7604	2.	0.1	16.543
4229	8.5625	2.	0.1	-72.738
4230	8.3646	2.	0.1	530.3
4231	23.802	2.2	0.1	-0.13274
4232	23.604	2.2	0.1	-0.33693
4233	23.406	2.2	0.1	-0.13249
4234	23.208	2.2	0.1	-0.11986
4235	23.01	2.2	0.1	-8.7311e-002
4236	22.813	2.2	0.1	-7.2643e-002
4237	22.615	2.2	0.1	-6.05e-002
4238	22.417	2.2	0.1	-5.1981e-002
4239	22.219	2.2	0.1	-4.5321e-002
4240	22.021	2.2	0.1	-4.0088e-002
4241	21.823	2.2	0.1	-3.5845e-002
4242	21.625	2.2	0.1	-3.2357e-002
4243	21.427	2.2	0.1	-2.9438e-002
4244	21.229	2.2	0.1	-2.6962e-002
4245	21.031	2.2	0.1	-2.4829e-002
4246	20.833	2.2	0.1	-2.2985e-002
4247	20.635	2.2	0.1	-2.1377e-002
4248	20.438	2.2	0.1	-1.9957e-002
4249	20.24	2.2	0.1	-1.8686e-002
4250	20.042	2.2	0.1	-1.7557e-002
4251	19.844	2.2	0.1	-1.6549e-002
4252	19.646	2.2	0.1	-1.5632e-002
4253	19.448	2.2	0.1	-1.4789e-002
4254	19.25	2.2	0.1	-1.4026e-002
4255	19.052	2.2	0.1	-1.3334e-002
4256	18.854	2.2	0.1	-1.2689e-002
4257	18.656	2.2	0.1	-1.2076e-002
4258	18.458	2.2	0.1	-1.1514e-002
4259	18.26	2.2	0.1	-1.0993e-002
4260	18.063	2.2	0.1	-1.0486e-002
4261	17.865	2.2	0.1	-9.9811e-003
4262	17.667	2.2	0.1	-9.4922e-003
4263	17.469	2.2	0.1	-9.0014e-003
4264	17.271	2.2	0.1	-8.4497e-003
4265	17.073	2.2	0.1	-7.7625e-003
4266	16.875	2.2	0.1	-6.7642e-003
4267	16.677	2.2	0.1	-4.4959e-003
4268	16.479	2.2	0.1	3.3856e-002
4269	16.281	2.2	0.1	2.1522
4270	16.083	2.2	0.1	4.6303
4271	15.885	2.2	0.1	7.244
4272	15.688	2.2	0.1	10.012
4273	15.49	2.2	0.1	12.954
4274	15.292	2.2	0.1	16.093
4275	15.094	2.2	0.1	19.454
4276	14.896	2.2	0.1	23.06
4277	14.698	2.2	0.1	26.941
4278	14.5	2.2	0.1	31.125
4279	14.302	2.2	0.1	35.644
4280	14.104	2.2	0.1	40.534
4281	13.906	2.2	0.1	45.83
4282	13.708	2.2	0.1	51.572
4283	13.51	2.2	0.1	57.802
4284	13.313	2.2	0.1	64.565
4285	13.115	2.2	0.1	71.908
4286	12.917	2.2	0.1	79.879
4287	12.719	2.2	0.1	88.528
4288	12.521	2.2	0.1	97.904
4289	12.323	2.2	0.1	108.06
4290	12.125	2.2	0.1	119.02
4291	11.927	2.2	0.1	130.84
4292	11.729	2.2	0.1	143.52
4293	11.531	2.2	0.1	157.06
4294	11.333	2.2	0.1	171.42
4295	11.135	2.2	0.1	186.49
4296	10.937	2.2	0.1	202.11
4297	10.74	2.2	0.1	217.96
4298	10.542	2.2	0.1	233.59
4299	10.344	2.2	0.1	248.26
4300	10.146	2.2	0.1	260.83
4301	9.9479	2.2	0.1	269.61
4302	9.75	2.2	0.1	272.
4303	9.5521	2.2	0.1	264.08
4304	9.3542	2.2	0.1	239.79
4305	9.1563	2.2	0.1	190.36
4306	8.9583	2.2	0.1	100.04
4307	8.7604	2.2	0.1	8.4765
4308	8.5625	2.2	0.1	-29.531
4309	8.3646	2.2	0.1	11.265
4310	23.802	2.4	0.1	-0.13905
4311	23.604	2.4	0.1	-0.34032
4312	23.406	2.4	0.1	-0.13492
4313	23.208	2.4	0.1	-0.12203
4314	23.01	2.4	0.1	-8.9273e-002
4315	22.813	2.4	0.1	-7.4473e-002
4316	22.615	2.4	0.1	-6.2226e-002
4317	22.417	2.4	0.1	-5.3624e-002
4318	22.219	2.4	0.1	-4.6898e-002
4319	22.021	2.4	0.1	-4.1606e-002
4320	21.823	2.4	0.1	-3.7312e-002
4321	21.625	2.4	0.1	-3.3775e-002
4322	21.427	2.4	0.1	-3.0814e-002
4323	21.229	2.4	0.1	-2.8296e-002
4324	21.031	2.4	0.1	-2.6124e-002
4325	20.833	2.4	0.1	-2.4242e-002
4326	20.635	2.4	0.1	-2.2601e-002
4327	20.438	2.4	0.1	-2.1145e-002
4328	20.24	2.4	0.1	-1.9844e-002
4329	20.042	2.4	0.1	-1.8686e-002
4330	19.844	2.4	0.1	-1.7651e-002
4331	19.646	2.4	0.1	-1.6708e-002
4332	19.448	2.4	0.1	-1.5842e-002
4333	19.25	2.4	0.1	-1.5058e-002
4334	19.052	2.4	0.1	-1.4348e-002
4335	18.854	2.4	0.1	-1.3685e-002
4336	18.656	2.4	0.1	-1.306e-002
4337	18.458	2.4	0.1	-1.2488e-002
4338	18.26	2.4	0.1	-1.196e-002
4339	18.063	2.4	0.1	-1.1452e-002
4340	17.865	2.4	0.1	-1.0953e-002
4341	17.667	2.4	0.1	-1.048e-002
4342	17.469	2.4	0.1	-1.002e-002
4343	17.271	2.4	0.1	-9.5237e-003
4344	17.073	2.4	0.1	-8.9355e-003
4345	16.875	2.4	0.1	-8.1242e-003
4346	16.677	2.4	0.1	-6.1657e-003
4347	16.479	2.4	0.1	0.38254
4348	16.281	2.4	0.1	2.8251
4349	16.083	2.4	0.1	5.4021
4350	15.885	2.4	0.1	8.1218
4351	15.688	2.4	0.1	11.005
4352	15.49	2.4	0.1	14.074
4353	15.292	2.4	0.1	17.355
4354	15.094	2.4	0.1	20.872
4355	14.896	2.4	0.1	24.655
4356	14.698	2.4	0.1	28.735
4357	14.5	2.4	0.1	33.146
4358	14.302	2.4	0.1	37.924
4359	14.104	2.4	0.1	43.111
4360	13.906	2.4	0.1	48.749
4361	13.708	2.4	0.1	54.886
4362	13.51	2.4	0.1	61.574
4363	13.313	2.4	0.1	68.868
4364	13.115	2.4	0.1	76.83
4365	12.917	2.4	0.1	85.523
4366	12.719	2.4	0.1	95.013
4367	12.521	2.4	0.1	105.37
4368	12.323	2.4	0.1	116.66
4369	12.125	2.4	0.1	128.95
4370	11.927	2.4	0.1	142.3
4371	11.729	2.4	0.1	156.75
4372	11.531	2.4	0.1	172.31
4373	11.333	2.4	0.1	188.96
4374	11.135	2.4	0.1	206.61
4375	10.937	2.4	0.1	225.07
4376	10.74	2.4	0.1	244.02
4377	10.542	2.4	0.1	262.91
4378	10.344	2.4	0.1	280.9
4379	10.146	2.4	0.1	296.65
4380	9.9479	2.4	0.1	308.17
4381	9.75	2.4	0.1	312.41
4382	9.5521	2.4	0.1	304.83
4383	9.3542	2.4	0.1	278.54
4384	9.1563	2.4	0.1	223.18
4385	8.9583	2.4	0.1	122.81
4386	8.7604	2.4	0.1	-2.4689
4387	8.5625	2.4	0.1	13.783
4388	8.3646	2.4	0.1	15.076
4389	23.802	2.6	0.1	-0.1434
4390	23.604	2.6	0.1	-0.34262
4391	23.406	2.6	0.1	-0.13656
4392	23.208	2.6	0.1	-0.12349
4393	23.01	2.6	0.1	-9.0595e-002
4394	22.813	2.6	0.1	-7.5701e-002
4395	22.615	2.6	0.1	-6.3388e-002
4396	22.417	2.6	0.1	-5.4731e-002
4397	22.219	2.6	0.1	-4.796e-002
4398	22.021	2.6	0.1	-4.263e-002
4399	21.823	2.6	0.1	-3.8306e-002
4400	21.625	2.6	0.1	-3.4738e-002
4401	21.427	2.6	0.1	-3.1749e-002
4402	21.229	2.6	0.1	-2.9204e-002
4403	21.031	2.6	0.1	-2.7008e-002
4404	20.833	2.6	0.1	-2.5103e-002
4405	20.635	2.6	0.1	-2.3439e-002
4406	20.438	2.6	0.1	-2.1964e-002
4407	20.24	2.6	0.1	-2.0642e-002
4408	20.042	2.6	0.1	-1.9466e-002
4409	19.844	2.6	0.1	-1.8413e-002
4410	19.646	2.6	0.1	-1.7454e-002
4411	19.448	2.6	0.1	-1.6573e-002
4412	19.25	2.6	0.1	-1.5776e-002
4413	19.052	2.6	0.1	-1.5055e-002
4414	18.854	2.6	0.1	-1.4382e-002
4415	18.656	2.6	0.1	-1.375e-002
4416	18.458	2.6	0.1	-1.3172e-002
4417	18.26	2.6	0.1	-1.2645e-002
4418	18.063	2.6	0.1	-1.2139e-002
4419	17.865	2.6	0.1	-1.1648e-002
4420	17.667	2.6	0.1	-1.1193e-002
4421	17.469	2.6	0.1	-1.0763e-002
4422	17.271	2.6	0.1	-1.0322e-002
4423	17.073	2.6	0.1	-9.8368e-003
4424	16.875	2.6	0.1	-9.2448e-003
4425	16.677	2.6	0.1	-7.913e-003
4426	16.479	2.6	0.1	0.79141
4427	16.281	2.6	0.1	3.311
4428	16.083	2.6	0.1	5.9598
4429	15.885	2.6	0.1	8.7568
4430	15.688	2.6	0.1	11.724
4431	15.49	2.6	0.1	14.887
4432	15.292	2.6	0.1	18.271
4433	15.094	2.6	0.1	21.904
4434	14.896	2.6	0.1	25.817
4435	14.698	2.6	0.1	30.045
4436	14.5	2.6	0.1	34.624
4437	14.302	2.6	0.1	39.595
4438	14.104	2.6	0.1	45.002
4439	13.906	2.6	0.1	50.896
4440	13.708	2.6	0.1	57.329
4441	13.51	2.6	0.1	64.36
4442	13.313	2.6	0.1	72.055
4443	13.115	2.6	0.1	80.484
4444	12.917	2.6	0.1	89.721
4445	12.719	2.6	0.1	99.847
4446	12.521	2.6	0.1	110.95
4447	12.323	2.6	0.1	123.1
4448	12.125	2.6	0.1	136.4
4449	11.927	2.6	0.1	150.91
4450	11.729	2.6	0.1	166.7
4451	11.531	2.6	0.1	183.79
4452	11.333	2.6	0.1	202.18
4453	11.135	2.6	0.1	221.77
4454	10.937	2.6	0.1	242.36
4455	10.74	2.6	0.1	263.57
4456	10.542	2.6	0.1	284.79
4457	10.344	2.6	0.1	305.
4458	10.146	2.6	0.1	322.62
4459	9.9479	2.6	0.1	335.2
4460	9.75	2.6	0.1	339.02
4461	9.5521	2.6	0.1	328.41
4462	9.3542	2.6	0.1	294.9
4463	9.1563	2.6	0.1	225.9
4464	8.9583	2.6	0.1	103.54
4465	8.7604	2.6	0.1	1.4227
4466	8.5625	2.6	0.1	-0.41123
4467	8.3646	2.6	0.1	-5.5038
4468	23.802	2.8	0.1	-0.14595
4469	23.604	2.8	0.1	-0.34396
4470	23.406	2.8	0.1	-0.13751
4471	23.208	2.8	0.1	-0.12434
4472	23.01	2.8	0.1	-9.1357e-002
4473	22.813	2.8	0.1	-7.6414e-002
4474	22.615	2.8	0.1	-6.4058e-002
4475	22.417	2.8	0.1	-5.5371e-002
4476	22.219	2.8	0.1	-4.8575e-002
4477	22.021	2.8	0.1	-4.3225e-002
4478	21.823	2.8	0.1	-3.8879e-002
4479	21.625	2.8	0.1	-3.5296e-002
4480	21.427	2.8	0.1	-3.2293e-002
4481	21.229	2.8	0.1	-2.9734e-002
4482	21.031	2.8	0.1	-2.7523e-002
4483	20.833	2.8	0.1	-2.5607e-002
4484	20.635	2.8	0.1	-2.393e-002
4485	20.438	2.8	0.1	-2.2442e-002
4486	20.24	2.8	0.1	-2.111e-002
4487	20.042	2.8	0.1	-1.9921e-002
4488	19.844	2.8	0.1	-1.886e-002
4489	19.646	2.8	0.1	-1.7893e-002
4490	19.448	2.8	0.1	-1.7003e-002
4491	19.25	2.8	0.1	-1.6202e-002
4492	19.052	2.8	0.1	-1.5472e-002
4493	18.854	2.8	0.1	-1.4796e-002
4494	18.656	2.8	0.1	-1.4158e-002
4495	18.458	2.8	0.1	-1.358e-002
4496	18.26	2.8	0.1	-1.3052e-002
4497	18.063	2.8	0.1	-1.2548e-002
4498	17.865	2.8	0.1	-1.2066e-002
4499	17.667	2.8	0.1	-1.1622e-002
4500	17.469	2.8	0.1	-1.1215e-002
4501	17.271	2.8	0.1	-1.0814e-002
4502	17.073	2.8	0.1	-1.0405e-002
4503	16.875	2.8	0.1	-9.9912e-003
4504	16.677	2.8	0.1	-9.359e-003
4505	16.479	2.8	0.1	1.0427
4506	16.281	2.8	0.1	3.6047
4507	16.083	2.8	0.1	6.297
4508	15.885	2.8	0.1	9.1411
4509	15.688	2.8	0.1	12.16
4510	15.49	2.8	0.1	15.38
4511	15.292	2.8	0.1	18.827
4512	15.094	2.8	0.1	22.531
4513	14.896	2.8	0.1	26.524
4514	14.698	2.8	0.1	30.843
4515	14.5	2.8	0.1	35.525
4516	14.302	2.8	0.1	40.615
4517	14.104	2.8	0.1	46.159
4518	13.906	2.8	0.1	52.21
4519	13.708	2.8	0.1	58.826
4520	13.51	2.8	0.1	66.07
4521	13.313	2.8	0.1	74.013
4522	13.115	2.8	0.1	82.732
4523	12.917	2.8	0.1	92.308
4524	12.719	2.8	0.1	102.83
4525	12.521	2.8	0.1	114.39
4526	12.323	2.8	0.1	127.09
4527	12.125	2.8	0.1	141.01
4528	11.927	2.8	0.1	156.25
4529	11.729	2.8	0.1	172.88
4530	11.531	2.8	0.1	190.93
4531	11.333	2.8	0.1	210.39
4532	11.135	2.8	0.1	231.18
4533	10.937	2.8	0.1	253.08
4534	10.74	2.8	0.1	275.67
4535	10.542	2.8	0.1	298.26
4536	10.344	2.8	0.1	319.7
4537	10.146	2.8	0.1	338.19
4538	9.9479	2.8	0.1	350.89
4539	9.75	2.8	0.1	353.48
4540	9.5521	2.8	0.1	339.35
4541	9.3542	2.8	0.1	298.71
4542	9.1563	2.8	0.1	217.73
4543	8.9583	2.8	0.1	78.971
4544	8.7604	2.8	0.1	-0.46048
4545	8.5625	2.8	0.1	0.20496
4546	8.3646	2.8	0.1	1.9605
4547	23.802	3.	0.1	-0.14679
4548	23.604	3.	0.1	-0.34439
4549	23.406	3.	0.1	-0.13781
4550	23.208	3.	0.1	-0.12462
4551	23.01	3.	0.1	-9.1606e-002
4552	22.813	3.	0.1	-7.6647e-002
4553	22.615	3.	0.1	-6.4277e-002
4554	22.417	3.	0.1	-5.5581e-002
4555	22.219	3.	0.1	-4.8776e-002
4556	22.021	3.	0.1	-4.342e-002
4557	21.823	3.	0.1	-3.9068e-002
4558	21.625	3.	0.1	-3.5479e-002
4559	21.427	3.	0.1	-3.247e-002
4560	21.229	3.	0.1	-2.9907e-002
4561	21.031	3.	0.1	-2.7694e-002
4562	20.833	3.	0.1	-2.5771e-002
4563	20.635	3.	0.1	-2.409e-002
4564	20.438	3.	0.1	-2.2601e-002
4565	20.24	3.	0.1	-2.1264e-002
4566	20.042	3.	0.1	-2.0073e-002
4567	19.844	3.	0.1	-1.9008e-002
4568	19.646	3.	0.1	-1.8036e-002
4569	19.448	3.	0.1	-1.7146e-002
4570	19.25	3.	0.1	-1.634e-002
4571	19.052	3.	0.1	-1.5611e-002
4572	18.854	3.	0.1	-1.4933e-002
4573	18.656	3.	0.1	-1.4293e-002
4574	18.458	3.	0.1	-1.3716e-002
4575	18.26	3.	0.1	-1.3186e-002
4576	18.063	3.	0.1	-1.2685e-002
4577	17.865	3.	0.1	-1.2205e-002
4578	17.667	3.	0.1	-1.1766e-002
4579	17.469	3.	0.1	-1.1367e-002
4580	17.271	3.	0.1	-1.098e-002
4581	17.073	3.	0.1	-1.06e-002
4582	16.875	3.	0.1	-1.0254e-002
4583	16.677	3.	0.1	-9.9402e-003
4584	16.479	3.	0.1	1.127
4585	16.281	3.	0.1	3.703
4586	16.083	3.	0.1	6.4099
4587	15.885	3.	0.1	9.2698
4588	15.688	3.	0.1	12.306
4589	15.49	3.	0.1	15.545
4590	15.292	3.	0.1	19.013
4591	15.094	3.	0.1	22.741
4592	14.896	3.	0.1	26.761
4593	14.698	3.	0.1	31.111
4594	14.5	3.	0.1	35.828
4595	14.302	3.	0.1	40.957
4596	14.104	3.	0.1	46.548
4597	13.906	3.	0.1	52.652
4598	13.708	3.	0.1	59.33
4599	13.51	3.	0.1	66.647
4600	13.313	3.	0.1	74.674
4601	13.115	3.	0.1	83.491
4602	12.917	3.	0.1	93.182
4603	12.719	3.	0.1	103.84
4604	12.521	3.	0.1	115.56
4605	12.323	3.	0.1	128.44
4606	12.125	3.	0.1	142.58
4607	11.927	3.	0.1	158.06
4608	11.729	3.	0.1	174.97
4609	11.531	3.	0.1	193.35
4610	11.333	3.	0.1	213.18
4611	11.135	3.	0.1	234.37
4612	10.937	3.	0.1	256.71
4613	10.74	3.	0.1	279.76
4614	10.542	3.	0.1	302.8
4615	10.344	3.	0.1	324.63
4616	10.146	3.	0.1	343.35
4617	9.9479	3.	0.1	356.
4618	9.75	3.	0.1	357.98
4619	9.5521	3.	0.1	342.35
4620	9.3542	3.	0.1	298.86
4621	9.1563	3.	0.1	213.37
4622	8.9583	3.	0.1	69.147
4623	8.7604	3.	0.1	-0.75782
4624	8.5625	3.	0.1	-0.13932
4625	8.3646	3.	0.1	-1.3916
4626	23.802	3.2	0.1	-0.14595
4627	23.604	3.2	0.1	-0.34395
4628	23.406	3.2	0.1	-0.1375
4629	23.208	3.2	0.1	-0.12434
4630	23.01	3.2	0.1	-9.1357e-002
4631	22.813	3.2	0.1	-7.6414e-002
4632	22.615	3.2	0.1	-6.4057e-002
4633	22.417	3.2	0.1	-5.5371e-002
4634	22.219	3.2	0.1	-4.8574e-002
4635	22.021	3.2	0.1	-4.3224e-002
4636	21.823	3.2	0.1	-3.888e-002
4637	21.625	3.2	0.1	-3.5297e-002
4638	21.427	3.2	0.1	-3.2293e-002
4639	21.229	3.2	0.1	-2.9733e-002
4640	21.031	3.2	0.1	-2.7524e-002
4641	20.833	3.2	0.1	-2.5606e-002
4642	20.635	3.2	0.1	-2.393e-002
4643	20.438	3.2	0.1	-2.2441e-002
4644	20.24	3.2	0.1	-2.1109e-002
4645	20.042	3.2	0.1	-1.9922e-002
4646	19.844	3.2	0.1	-1.8859e-002
4647	19.646	3.2	0.1	-1.7893e-002
4648	19.448	3.2	0.1	-1.7003e-002
4649	19.25	3.2	0.1	-1.6201e-002
4650	19.052	3.2	0.1	-1.5471e-002
4651	18.854	3.2	0.1	-1.4795e-002
4652	18.656	3.2	0.1	-1.416e-002
4653	18.458	3.2	0.1	-1.3579e-002
4654	18.26	3.2	0.1	-1.3051e-002
4655	18.063	3.2	0.1	-1.2549e-002
4656	17.865	3.2	0.1	-1.2066e-002
4657	17.667	3.2	0.1	-1.1624e-002
4658	17.469	3.2	0.1	-1.1214e-002
4659	17.271	3.2	0.1	-1.0813e-002
4660	17.073	3.2	0.1	-1.0405e-002
4661	16.875	3.2	0.1	-9.9918e-003
4662	16.677	3.2	0.1	-9.3588e-003
4663	16.479	3.2	0.1	1.0427
4664	16.281	3.2	0.1	3.6047
4665	16.083	3.2	0.1	6.297
4666	15.885	3.2	0.1	9.1411
4667	15.688	3.2	0.1	12.16
4668	15.49	3.2	0.1	15.38
4669	15.292	3.2	0.1	18.827
4670	15.094	3.2	0.1	22.531
4671	14.896	3.2	0.1	26.524
4672	14.698	3.2	0.1	30.843
4673	14.5	3.2	0.1	35.525
4674	14.302	3.2	0.1	40.615
4675	14.104	3.2	0.1	46.159
4676	13.906	3.2	0.1	52.21
4677	13.708	3.2	0.1	58.826
4678	13.51	3.2	0.1	66.07
4679	13.313	3.2	0.1	74.013
4680	13.115	3.2	0.1	82.732
4681	12.917	3.2	0.1	92.308
4682	12.719	3.2	0.1	102.83
4683	12.521	3.2	0.1	114.39
4684	12.323	3.2	0.1	127.09
4685	12.125	3.2	0.1	141.01
4686	11.927	3.2	0.1	156.25
4687	11.729	3.2	0.1	172.88
4688	11.531	3.2	0.1	190.93
4689	11.333	3.2	0.1	210.39
4690	11.135	3.2	0.1	231.18
4691	10.937	3.2	0.1	253.08
4692	10.74	3.2	0.1	275.67
4693	10.542	3.2	0.1	298.26
4694	10.344	3.2	0.1	319.7
4695	10.146	3.2	0.1	338.19
4696	9.9479	3.2	0.1	350.89
4697	9.75	3.2	0.1	353.48
4698	9.5521	3.2	0.1	339.35
4699	9.3542	3.2	0.1	298.71
4700	9.1563	3.2	0.1	217.73
4701	8.9583	3.2	0.1	78.971
4702	8.7604	3.2	0.1	-0.46048
4703	8.5625	3.2	0.1	0.20496
4704	8.3646	3.2	0.1	1.9605
4705	23.802	3.4	0.1	-0.1434
4706	23.604	3.4	0.1	-0.34262
4707	23.406	3.4	0.1	-0.13656
4708	23.208	3.4	0.1	-0.12349
4709	23.01	3.4	0.1	-9.0593e-002
4710	22.813	3.4	0.1	-7.5704e-002
4711	22.615	3.4	0.1	-6.3387e-002
4712	22.417	3.4	0.1	-5.4731e-002
4713	22.219	3.4	0.1	-4.796e-002
4714	22.021	3.4	0.1	-4.2632e-002
4715	21.823	3.4	0.1	-3.8303e-002
4716	21.625	3.4	0.1	-3.4738e-002
4717	21.427	3.4	0.1	-3.1748e-002
4718	21.229	3.4	0.1	-2.9205e-002
4719	21.031	3.4	0.1	-2.7009e-002
4720	20.833	3.4	0.1	-2.5104e-002
4721	20.635	3.4	0.1	-2.3439e-002
4722	20.438	3.4	0.1	-2.1964e-002
4723	20.24	3.4	0.1	-2.0641e-002
4724	20.042	3.4	0.1	-1.9466e-002
4725	19.844	3.4	0.1	-1.8413e-002
4726	19.646	3.4	0.1	-1.7455e-002
4727	19.448	3.4	0.1	-1.6575e-002
4728	19.25	3.4	0.1	-1.5777e-002
4729	19.052	3.4	0.1	-1.5055e-002
4730	18.854	3.4	0.1	-1.4383e-002
4731	18.656	3.4	0.1	-1.3749e-002
4732	18.458	3.4	0.1	-1.3174e-002
4733	18.26	3.4	0.1	-1.2644e-002
4734	18.063	3.4	0.1	-1.2138e-002
4735	17.865	3.4	0.1	-1.1649e-002
4736	17.667	3.4	0.1	-1.1192e-002
4737	17.469	3.4	0.1	-1.0764e-002
4738	17.271	3.4	0.1	-1.0322e-002
4739	17.073	3.4	0.1	-9.8366e-003
4740	16.875	3.4	0.1	-9.2446e-003
4741	16.677	3.4	0.1	-7.9134e-003
4742	16.479	3.4	0.1	0.79139
4743	16.281	3.4	0.1	3.311
4744	16.083	3.4	0.1	5.9598
4745	15.885	3.4	0.1	8.7568
4746	15.688	3.4	0.1	11.724
4747	15.49	3.4	0.1	14.887
4748	15.292	3.4	0.1	18.271
4749	15.094	3.4	0.1	21.904
4750	14.896	3.4	0.1	25.817
4751	14.698	3.4	0.1	30.045
4752	14.5	3.4	0.1	34.624
4753	14.302	3.4	0.1	39.595
4754	14.104	3.4	0.1	45.002
4755	13.906	3.4	0.1	50.896
4756	13.708	3.4	0.1	57.329
4757	13.51	3.4	0.1	64.36
4758	13.313	3.4	0.1	72.055
4759	13.115	3.4	0.1	80.484
4760	12.917	3.4	0.1	89.721
4761	12.719	3.4	0.1	99.847
4762	12.521	3.4	0.1	110.95
4763	12.323	3.4	0.1	123.1
4764	12.125	3.4	0.1	136.4
4765	11.927	3.4	0.1	150.91
4766	11.729	3.4	0.1	166.7
4767	11.531	3.4	0.1	183.79
4768	11.333	3.4	0.1	202.18
4769	11.135	3.4	0.1	221.77
4770	10.937	3.4	0.1	242.36
4771	10.74	3.4	0.1	263.57
4772	10.542	3.4	0.1	284.79
4773	10.344	3.4	0.1	305.
4774	10.146	3.4	0.1	322.62
4775	9.9479	3.4	0.1	335.2
4776	9.75	3.4	0.1	339.02
4777	9.5521	3.4	0.1	328.41
4778	9.3542	3.4	0.1	294.9
4779	9.1563	3.4	0.1	225.9
4780	8.9583	3.4	0.1	103.54
4781	8.7604	3.4	0.1	1.4227
4782	8.5625	3.4	0.1	-0.41123
4783	8.3646	3.4	0.1	-5.5038
4784	23.802	3.6	0.1	-0.13905
4785	23.604	3.6	0.1	-0.34032
4786	23.406	3.6	0.1	-0.13492
4787	23.208	3.6	0.1	-0.12203
4788	23.01	3.6	0.1	-8.9272e-002
4789	22.813	3.6	0.1	-7.4472e-002
4790	22.615	3.6	0.1	-6.2225e-002
4791	22.417	3.6	0.1	-5.3624e-002
4792	22.219	3.6	0.1	-4.6896e-002
4793	22.021	3.6	0.1	-4.1606e-002
4794	21.823	3.6	0.1	-3.7312e-002
4795	21.625	3.6	0.1	-3.3775e-002
4796	21.427	3.6	0.1	-3.0813e-002
4797	21.229	3.6	0.1	-2.8296e-002
4798	21.031	3.6	0.1	-2.6123e-002
4799	20.833	3.6	0.1	-2.4242e-002
4800	20.635	3.6	0.1	-2.2601e-002
4801	20.438	3.6	0.1	-2.1145e-002
4802	20.24	3.6	0.1	-1.9844e-002
4803	20.042	3.6	0.1	-1.8685e-002
4804	19.844	3.6	0.1	-1.7651e-002
4805	19.646	3.6	0.1	-1.6707e-002
4806	19.448	3.6	0.1	-1.5842e-002
4807	19.25	3.6	0.1	-1.5058e-002
4808	19.052	3.6	0.1	-1.4348e-002
4809	18.854	3.6	0.1	-1.3684e-002
4810	18.656	3.6	0.1	-1.306e-002
4811	18.458	3.6	0.1	-1.2487e-002
4812	18.26	3.6	0.1	-1.196e-002
4813	18.063	3.6	0.1	-1.1453e-002
4814	17.865	3.6	0.1	-1.0954e-002
4815	17.667	3.6	0.1	-1.048e-002
4816	17.469	3.6	0.1	-1.002e-002
4817	17.271	3.6	0.1	-9.5239e-003
4818	17.073	3.6	0.1	-8.9354e-003
4819	16.875	3.6	0.1	-8.1243e-003
4820	16.677	3.6	0.1	-6.1663e-003
4821	16.479	3.6	0.1	0.38251
4822	16.281	3.6	0.1	2.825
4823	16.083	3.6	0.1	5.4021
4824	15.885	3.6	0.1	8.1218
4825	15.688	3.6	0.1	11.005
4826	15.49	3.6	0.1	14.074
4827	15.292	3.6	0.1	17.355
4828	15.094	3.6	0.1	20.872
4829	14.896	3.6	0.1	24.655
4830	14.698	3.6	0.1	28.735
4831	14.5	3.6	0.1	33.146
4832	14.302	3.6	0.1	37.924
4833	14.104	3.6	0.1	43.111
4834	13.906	3.6	0.1	48.748
4835	13.708	3.6	0.1	54.886
4836	13.51	3.6	0.1	61.574
4837	13.313	3.6	0.1	68.868
4838	13.115	3.6	0.1	76.83
4839	12.917	3.6	0.1	85.523
4840	12.719	3.6	0.1	95.013
4841	12.521	3.6	0.1	105.37
4842	12.323	3.6	0.1	116.66
4843	12.125	3.6	0.1	128.95
4844	11.927	3.6	0.1	142.3
4845	11.729	3.6	0.1	156.75
4846	11.531	3.6	0.1	172.31
4847	11.333	3.6	0.1	188.96
4848	11.135	3.6	0.1	206.61
4849	10.937	3.6	0.1	225.07
4850	10.74	3.6	0.1	244.02
4851	10.542	3.6	0.1	262.91
4852	10.344	3.6	0.1	280.9
4853	10.146	3.6	0.1	296.65
4854	9.9479	3.6	0.1	308.17
4855	9.75	3.6	0.1	312.41
4856	9.5521	3.6	0.1	304.83
4857	9.3542	3.6	0.1	278.54
4858	9.1563	3.6	0.1	223.18
4859	8.9583	3.6	0.1	122.81
4860	8.7604	3.6	0.1	-2.4689
4861	8.5625	3.6	0.1	13.783
4862	8.3646	3.6	0.1	15.076
4863	23.802	3.8	0.1	-0.13274
4864	23.604	3.8	0.1	-0.33693
4865	23.406	3.8	0.1	-0.13249
4866	23.208	3.8	0.1	-0.11986
4867	23.01	3.8	0.1	-8.7312e-002
4868	22.813	3.8	0.1	-7.2643e-002
4869	22.615	3.8	0.1	-6.0502e-002
4870	22.417	3.8	0.1	-5.198e-002
4871	22.219	3.8	0.1	-4.5321e-002
4872	22.021	3.8	0.1	-4.0088e-002
4873	21.823	3.8	0.1	-3.5846e-002
4874	21.625	3.8	0.1	-3.2356e-002
4875	21.427	3.8	0.1	-2.944e-002
4876	21.229	3.8	0.1	-2.6962e-002
4877	21.031	3.8	0.1	-2.4828e-002
4878	20.833	3.8	0.1	-2.2985e-002
4879	20.635	3.8	0.1	-2.1378e-002
4880	20.438	3.8	0.1	-1.9956e-002
4881	20.24	3.8	0.1	-1.8686e-002
4882	20.042	3.8	0.1	-1.7559e-002
4883	19.844	3.8	0.1	-1.6549e-002
4884	19.646	3.8	0.1	-1.5632e-002
4885	19.448	3.8	0.1	-1.4789e-002
4886	19.25	3.8	0.1	-1.4026e-002
4887	19.052	3.8	0.1	-1.3334e-002
4888	18.854	3.8	0.1	-1.2688e-002
4889	18.656	3.8	0.1	-1.2076e-002
4890	18.458	3.8	0.1	-1.1512e-002
4891	18.26	3.8	0.1	-1.0993e-002
4892	18.063	3.8	0.1	-1.0486e-002
4893	17.865	3.8	0.1	-9.9804e-003
4894	17.667	3.8	0.1	-9.492e-003
4895	17.469	3.8	0.1	-9.0009e-003
4896	17.271	3.8	0.1	-8.4497e-003
4897	17.073	3.8	0.1	-7.7628e-003
4898	16.875	3.8	0.1	-6.7645e-003
4899	16.677	3.8	0.1	-4.4968e-003
4900	16.479	3.8	0.1	3.3852e-002
4901	16.281	3.8	0.1	2.1522
4902	16.083	3.8	0.1	4.6302
4903	15.885	3.8	0.1	7.244
4904	15.688	3.8	0.1	10.012
4905	15.49	3.8	0.1	12.954
4906	15.292	3.8	0.1	16.093
4907	15.094	3.8	0.1	19.454
4908	14.896	3.8	0.1	23.06
4909	14.698	3.8	0.1	26.941
4910	14.5	3.8	0.1	31.125
4911	14.302	3.8	0.1	35.644
4912	14.104	3.8	0.1	40.534
4913	13.906	3.8	0.1	45.83
4914	13.708	3.8	0.1	51.572
4915	13.51	3.8	0.1	57.802
4916	13.313	3.8	0.1	64.565
4917	13.115	3.8	0.1	71.908
4918	12.917	3.8	0.1	79.879
4919	12.719	3.8	0.1	88.528
4920	12.521	3.8	0.1	97.904
4921	12.323	3.8	0.1	108.06
4922	12.125	3.8	0.1	119.02
4923	11.927	3.8	0.1	130.84
4924	11.729	3.8	0.1	143.52
4925	11.531	3.8	0.1	157.06
4926	11.333	3.8	0.1	171.42
4927	11.135	3.8	0.1	186.49
4928	10.937	3.8	0.1	202.11
4929	10.74	3.8	0.1	217.96
4930	10.542	3.8	0.1	233.59
4931	10.344	3.8	0.1	248.26
4932	10.146	3.8	0.1	260.83
4933	9.9479	3.8	0.1	269.61
4934	9.75	3.8	0.1	272.
4935	9.5521	3.8	0.1	264.08
4936	9.3542	3.8	0.1	239.79
4937	9.1563	3.8	0.1	190.36
4938	8.9583	3.8	0.1	100.04
4939	8.7604	3.8	0.1	8.4765
4940	8.5625	3.8	0.1	-29.531
4941	8.3646	3.8	0.1	11.265
4942	23.802	4.	0.1	-0.12422
4943	23.604	4.	0.1	-0.33225
4944	23.406	4.	0.1	-0.12912
4945	23.208	4.	0.1	-0.11684
4946	23.01	4.	0.1	-8.4578e-002
4947	22.813	4.	0.1	-7.0095e-002
4948	22.615	4.	0.1	-5.81e-002
4949	22.417	4.	0.1	-4.9696e-002
4950	22.219	4.	0.1	-4.3135e-002
4951	22.021	4.	0.1	-3.7988e-002
4952	21.823	4.	0.1	-3.3823e-002
4953	21.625	4.	0.1	-3.0404e-002
4954	21.427	4.	0.1	-2.7553e-002
4955	21.229	4.	0.1	-2.5137e-002
4956	21.031	4.	0.1	-2.3064e-002
4957	20.833	4.	0.1	-2.1276e-002
4958	20.635	4.	0.1	-1.972e-002
4959	20.438	4.	0.1	-1.8348e-002
4960	20.24	4.	0.1	-1.7123e-002
4961	20.042	4.	0.1	-1.6038e-002
4962	19.844	4.	0.1	-1.5073e-002
4963	19.646	4.	0.1	-1.4191e-002
4964	19.448	4.	0.1	-1.3385e-002
4965	19.25	4.	0.1	-1.2654e-002
4966	19.052	4.	0.1	-1.1992e-002
4967	18.854	4.	0.1	-1.1372e-002
4968	18.656	4.	0.1	-1.0782e-002
4969	18.458	4.	0.1	-1.0239e-002
4970	18.26	4.	0.1	-9.733e-003
4971	18.063	4.	0.1	-9.235e-003
4972	17.865	4.	0.1	-8.7341e-003
4973	17.667	4.	0.1	-8.2378e-003
4974	17.469	4.	0.1	-7.7266e-003
4975	17.271	4.	0.1	-7.1365e-003
4976	17.073	4.	0.1	-6.3848e-003
4977	16.875	4.	0.1	-5.2845e-003
4978	16.677	4.	0.1	-3.0371e-003
4979	16.479	4.	0.1	8.4371e-003
4980	16.281	4.	0.1	1.3017
4981	16.083	4.	0.1	3.6529
4982	15.885	4.	0.1	6.1341
4983	15.688	4.	0.1	8.758
4984	15.49	4.	0.1	11.543
4985	15.292	4.	0.1	14.508
4986	15.094	4.	0.1	17.674
4987	14.896	4.	0.1	21.063
4988	14.698	4.	0.1	24.698
4989	14.5	4.	0.1	28.605
4990	14.302	4.	0.1	32.809
4991	14.104	4.	0.1	37.338
4992	13.906	4.	0.1	42.22
4993	13.708	4.	0.1	47.485
4994	13.51	4.	0.1	53.165
4995	13.313	4.	0.1	59.29
4996	13.115	4.	0.1	65.893
4997	12.917	4.	0.1	73.004
4998	12.719	4.	0.1	80.653
4999	12.521	4.	0.1	88.867
5000	12.323	4.	0.1	97.667
5001	12.125	4.	0.1	107.07
5002	11.927	4.	0.1	117.07
5003	11.729	4.	0.1	127.67
5004	11.531	4.	0.1	138.83
5005	11.333	4.	0.1	150.47
5006	11.135	4.	0.1	162.48
5007	10.937	4.	0.1	174.69
5008	10.74	4.	0.1	186.79
5009	10.542	4.	0.1	198.36
5010	10.344	4.	0.1	208.7
5011	10.146	4.	0.1	216.78
5012	9.9479	4.	0.1	220.95
5013	9.75	4.	0.1	218.62
5014	9.5521	4.	0.1	205.71
5015	9.3542	4.	0.1	175.53
5016	9.1563	4.	0.1	117.94
5017	8.9583	4.	0.1	24.71
5018	8.7604	4.	0.1	16.544
5019	8.5625	4.	0.1	-72.738
5020	8.3646	4.	0.1	530.3
5021	23.802	4.2	0.1	-0.1131
5022	23.604	4.2	0.1	-0.32599
5023	23.406	4.2	0.1	-0.12457
5024	23.208	4.2	0.1	-0.11275
5025	23.01	4.2	0.1	-8.0875e-002
5026	22.813	4.2	0.1	-6.6645e-002
5027	22.615	4.2	0.1	-5.4853e-002
5028	22.417	4.2	0.1	-4.6614e-002
5029	22.219	4.2	0.1	-4.0193e-002
5030	22.021	4.2	0.1	-3.5173e-002
5031	21.823	4.2	0.1	-3.1121e-002
5032	21.625	4.2	0.1	-2.7807e-002
5033	21.427	4.2	0.1	-2.5055e-002
5034	21.229	4.2	0.1	-2.2732e-002
5035	21.031	4.2	0.1	-2.0743e-002
5036	20.833	4.2	0.1	-1.9037e-002
5037	20.635	4.2	0.1	-1.756e-002
5038	20.438	4.2	0.1	-1.6258e-002
5039	20.24	4.2	0.1	-1.5102e-002
5040	20.042	4.2	0.1	-1.4081e-002
5041	19.844	4.2	0.1	-1.3173e-002
5042	19.646	4.2	0.1	-1.235e-002
5043	19.448	4.2	0.1	-1.1591e-002
5044	19.25	4.2	0.1	-1.0911e-002
5045	19.052	4.2	0.1	-1.0293e-002
5046	18.854	4.2	0.1	-9.7136e-003
5047	18.656	4.2	0.1	-9.1611e-003
5048	18.458	4.2	0.1	-8.6507e-003
5049	18.26	4.2	0.1	-8.1732e-003
5050	18.063	4.2	0.1	-7.6993e-003
5051	17.865	4.2	0.1	-7.2148e-003
5052	17.667	4.2	0.1	-6.7316e-003
5053	17.469	4.2	0.1	-6.2243e-003
5054	17.271	4.2	0.1	-5.63e-003
5055	17.073	4.2	0.1	-4.8652e-003
5056	16.875	4.2	0.1	-3.7747e-003
5057	16.677	4.2	0.1	-1.7781e-003
5058	16.479	4.2	0.1	4.3279e-003
5059	16.281	4.2	0.1	0.32202
5060	16.083	4.2	0.1	2.4813
5061	15.885	4.2	0.1	4.8052
5062	15.688	4.2	0.1	7.2599
5063	15.49	4.2	0.1	9.8598
5064	15.292	4.2	0.1	12.621
5065	15.094	4.2	0.1	15.562
5066	14.896	4.2	0.1	18.699
5067	14.698	4.2	0.1	22.053
5068	14.5	4.2	0.1	25.641
5069	14.302	4.2	0.1	29.484
5070	14.104	4.2	0.1	33.603
5071	13.906	4.2	0.1	38.016
5072	13.708	4.2	0.1	42.744
5073	13.51	4.2	0.1	47.806
5074	13.313	4.2	0.1	53.218
5075	13.115	4.2	0.1	58.997
5076	12.917	4.2	0.1	65.154
5077	12.719	4.2	0.1	71.698
5078	12.521	4.2	0.1	78.631
5079	12.323	4.2	0.1	85.948
5080	12.125	4.2	0.1	93.634
5081	11.927	4.2	0.1	101.66
5082	11.729	4.2	0.1	109.98
5083	11.531	4.2	0.1	118.53
5084	11.333	4.2	0.1	127.21
5085	11.135	4.2	0.1	135.88
5086	10.937	4.2	0.1	144.33
5087	10.74	4.2	0.1	152.27
5088	10.542	4.2	0.1	159.27
5089	10.344	4.2	0.1	164.64
5090	10.146	4.2	0.1	167.32
5091	9.9479	4.2	0.1	165.6
5092	9.75	4.2	0.1	156.61
5093	9.5521	4.2	0.1	135.64
5094	9.3542	4.2	0.1	94.926
5095	9.1563	4.2	0.1	30.015
5096	8.9583	4.2	0.1	6.1842
5097	8.7604	4.2	0.1	7.1534
5098	8.5625	4.2	0.1	-9.1284
5099	8.3646	4.2	0.1	139.09
5100	23.802	4.4	0.1	-9.8764e-002
5101	23.604	4.4	0.1	-0.31764
5102	23.406	4.4	0.1	-0.11843
5103	23.208	4.4	0.1	-0.10723
5104	23.01	4.4	0.1	-7.5874e-002
5105	22.813	4.4	0.1	-6.1994e-002
5106	22.615	4.4	0.1	-5.0487e-002
5107	22.417	4.4	0.1	-4.2486e-002
5108	22.219	4.4	0.1	-3.6274e-002
5109	22.021	4.4	0.1	-3.1438e-002
5110	21.823	4.4	0.1	-2.7557e-002
5111	21.625	4.4	0.1	-2.4401e-002
5112	21.427	4.4	0.1	-2.1795e-002
5113	21.229	4.4	0.1	-1.9607e-002
5114	21.031	4.4	0.1	-1.7748e-002
5115	20.833	4.4	0.1	-1.6161e-002
5116	20.635	4.4	0.1	-1.4793e-002
5117	20.438	4.4	0.1	-1.3599e-002
5118	20.24	4.4	0.1	-1.2541e-002
5119	20.042	4.4	0.1	-1.1611e-002
5120	19.844	4.4	0.1	-1.0789e-002
5121	19.646	4.4	0.1	-1.0045e-002
5122	19.448	4.4	0.1	-9.3646e-003
5123	19.25	4.4	0.1	-8.7527e-003
5124	19.052	4.4	0.1	-8.2e-003
5125	18.854	4.4	0.1	-7.683e-003
5126	18.656	4.4	0.1	-7.1876e-003
5127	18.458	4.4	0.1	-6.7326e-003
5128	18.26	4.4	0.1	-6.3046e-003
5129	18.063	4.4	0.1	-5.8764e-003
5130	17.865	4.4	0.1	-5.4355e-003
5131	17.667	4.4	0.1	-4.9917e-003
5132	17.469	4.4	0.1	-4.5237e-003
5133	17.271	4.4	0.1	-3.9692e-003
5134	17.073	4.4	0.1	-3.2613e-003
5135	16.875	4.4	0.1	-2.2864e-003
5136	16.677	4.4	0.1	-6.7511e-004
5137	16.479	4.4	0.1	2.9684e-003
5138	16.281	4.4	0.1	2.131e-002
5139	16.083	4.4	0.1	1.1345
5140	15.885	4.4	0.1	3.2724
5141	15.688	4.4	0.1	5.5356
5142	15.49	4.4	0.1	7.9278
5143	15.292	4.4	0.1	10.462
5144	15.094	4.4	0.1	13.151
5145	14.896	4.4	0.1	16.01
5146	14.698	4.4	0.1	19.052
5147	14.5	4.4	0.1	22.291
5148	14.302	4.4	0.1	25.742
5149	14.104	4.4	0.1	29.415
5150	13.906	4.4	0.1	33.324
5151	13.708	4.4	0.1	37.476
5152	13.51	4.4	0.1	41.879
5153	13.313	4.4	0.1	46.537
5154	13.115	4.4	0.1	51.448
5155	12.917	4.4	0.1	56.607
5156	12.719	4.4	0.1	62.
5157	12.521	4.4	0.1	67.605
5158	12.323	4.4	0.1	73.391
5159	12.125	4.4	0.1	79.312
5160	11.927	4.4	0.1	85.309
5161	11.729	4.4	0.1	91.304
5162	11.531	4.4	0.1	97.196
5163	11.333	4.4	0.1	102.85
5164	11.135	4.4	0.1	108.11
5165	10.937	4.4	0.1	112.75
5166	10.74	4.4	0.1	116.45
5167	10.542	4.4	0.1	118.78
5168	10.344	4.4	0.1	119.06
5169	10.146	4.4	0.1	116.23
5170	9.9479	4.4	0.1	108.53
5171	9.75	4.4	0.1	93.022
5172	9.5521	4.4	0.1	65.1
5173	9.3542	4.4	0.1	23.456
5174	9.1563	4.4	0.1	6.6698
5175	8.9583	4.4	0.1	2.7635
5176	8.7604	4.4	0.1	10.887
5177	8.5625	4.4	0.1	-5.3545
5178	8.3646	4.4	0.1	-11.569
5179	23.802	4.6	0.1	-8.0385e-002
5180	23.604	4.6	0.1	-0.30653
5181	23.406	4.6	0.1	-0.1102
5182	23.208	4.6	0.1	-9.9805e-002
5183	23.01	4.6	0.1	-6.9149e-002
5184	22.813	4.6	0.1	-5.5761e-002
5185	22.615	4.6	0.1	-4.4664e-002
5186	22.417	4.6	0.1	-3.7009e-002
5187	22.219	4.6	0.1	-3.1106e-002
5188	22.021	4.6	0.1	-2.6546e-002
5189	21.823	4.6	0.1	-2.292e-002
5190	21.625	4.6	0.1	-1.9999e-002
5191	21.427	4.6	0.1	-1.7608e-002
5192	21.229	4.6	0.1	-1.5622e-002
5193	21.031	4.6	0.1	-1.3948e-002
5194	20.833	4.6	0.1	-1.2532e-002
5195	20.635	4.6	0.1	-1.1327e-002
5196	20.438	4.6	0.1	-1.0283e-002
5197	20.24	4.6	0.1	-9.3609e-003
5198	20.042	4.6	0.1	-8.5621e-003
5199	19.844	4.6	0.1	-7.8639e-003
5200	19.646	4.6	0.1	-7.2332e-003
5201	19.448	4.6	0.1	-6.66e-003
5202	19.25	4.6	0.1	-6.1497e-003
5203	19.052	4.6	0.1	-5.6935e-003
5204	18.854	4.6	0.1	-5.2669e-003
5205	18.656	4.6	0.1	-4.8567e-003
5206	18.458	4.6	0.1	-4.4828e-003
5207	18.26	4.6	0.1	-4.134e-003
5208	18.063	4.6	0.1	-3.7832e-003
5209	17.865	4.6	0.1	-3.418e-003
5210	17.667	4.6	0.1	-3.0512e-003
5211	17.469	4.6	0.1	-2.664e-003
5212	17.271	4.6	0.1	-2.2053e-003
5213	17.073	4.6	0.1	-1.6212e-003
5214	16.875	4.6	0.1	-8.4993e-004
5215	16.677	4.6	0.1	3.2053e-004
5216	16.479	4.6	0.1	2.4998e-003
5217	16.281	4.6	0.1	8.1668e-003
5218	16.083	4.6	0.1	5.7227e-002
5219	15.885	4.6	0.1	1.5567
5220	15.688	4.6	0.1	3.6051
5221	15.49	4.6	0.1	5.7704
5222	15.292	4.6	0.1	8.0575
5223	15.094	4.6	0.1	10.476
5224	14.896	4.6	0.1	13.036
5225	14.698	4.6	0.1	15.747
5226	14.5	4.6	0.1	18.618
5227	14.302	4.6	0.1	21.656
5228	14.104	4.6	0.1	24.866
5229	13.906	4.6	0.1	28.252
5230	13.708	4.6	0.1	31.814
5231	13.51	4.6	0.1	35.547
5232	13.313	4.6	0.1	39.442
5233	13.115	4.6	0.1	43.484
5234	12.917	4.6	0.1	47.649
5235	12.719	4.6	0.1	51.905
5236	12.521	4.6	0.1	56.207
5237	12.323	4.6	0.1	60.5
5238	12.125	4.6	0.1	64.712
5239	11.927	4.6	0.1	68.753
5240	11.729	4.6	0.1	72.517
5241	11.531	4.6	0.1	75.872
5242	11.333	4.6	0.1	78.66
5243	11.135	4.6	0.1	80.691
5244	10.937	4.6	0.1	81.728
5245	10.74	4.6	0.1	81.463
5246	10.542	4.6	0.1	79.477
5247	10.344	4.6	0.1	75.16
5248	10.146	4.6	0.1	67.568
5249	9.9479	4.6	0.1	55.236
5250	9.75	4.6	0.1	36.252
5251	9.5521	4.6	0.1	13.674
5252	9.3542	4.6	0.1	5.1998
5253	9.1563	4.6	0.1	3.5295
5254	8.9583	4.6	0.1	3.09
5255	8.7604	4.6	0.1	2.9955
5256	8.5625	4.6	0.1	0.55458
5257	8.3646	4.6	0.1	24.056
5258	23.802	4.8	0.1	-5.5865e-002
5259	23.604	4.8	0.1	-0.291
5260	23.406	4.8	0.1	-9.8494e-002
5261	23.208	4.8	0.1	-8.9289e-002
5262	23.01	4.8	0.1	-5.9674e-002
5263	22.813	4.8	0.1	-4.7038e-002
5264	22.615	4.8	0.1	-3.6585e-002
5265	22.417	4.8	0.1	-2.9483e-002
5266	22.219	4.8	0.1	-2.4069e-002
5267	22.021	4.8	0.1	-1.9953e-002
5268	21.823	4.8	0.1	-1.6725e-002
5269	21.625	4.8	0.1	-1.4166e-002
5270	21.427	4.8	0.1	-1.211e-002
5271	21.229	4.8	0.1	-1.0428e-002
5272	21.031	4.8	0.1	-9.0366e-003
5273	20.833	4.8	0.1	-7.8812e-003
5274	20.635	4.8	0.1	-6.9133e-003
5275	20.438	4.8	0.1	-6.0885e-003
5276	20.24	4.8	0.1	-5.3765e-003
5277	20.042	4.8	0.1	-4.7682e-003
5278	19.844	4.8	0.1	-4.2466e-003
5279	19.646	4.8	0.1	-3.7837e-003
5280	19.448	4.8	0.1	-3.3681e-003
5281	19.25	4.8	0.1	-3.0048e-003
5282	19.052	4.8	0.1	-2.6887e-003
5283	18.854	4.8	0.1	-2.3945e-003
5284	18.656	4.8	0.1	-2.1132e-003
5285	18.458	4.8	0.1	-1.8627e-003
5286	18.26	4.8	0.1	-1.6342e-003
5287	18.063	4.8	0.1	-1.4025e-003
5288	17.865	4.8	0.1	-1.1571e-003
5289	17.667	4.8	0.1	-9.1591e-004
5290	17.469	4.8	0.1	-6.6269e-004
5291	17.271	4.8	0.1	-3.5751e-004
5292	17.073	4.8	0.1	3.4371e-005
5293	16.875	4.8	0.1	5.3743e-004
5294	16.677	4.8	0.1	1.254e-003
5295	16.479	4.8	0.1	2.4453e-003
5296	16.281	4.8	0.1	4.7683e-003
5297	16.083	4.8	0.1	1.0991e-002
5298	15.885	4.8	0.1	6.7549e-002
5299	15.688	4.8	0.1	1.4946
5300	15.49	4.8	0.1	3.4126
5301	15.292	4.8	0.1	5.4382
5302	15.094	4.8	0.1	7.5726
5303	14.896	4.8	0.1	9.8213
5304	14.698	4.8	0.1	12.19
5305	14.5	4.8	0.1	14.682
5306	14.302	4.8	0.1	17.3
5307	14.104	4.8	0.1	20.044
5308	13.906	4.8	0.1	22.909
5309	13.708	4.8	0.1	25.887
5310	13.51	4.8	0.1	28.965
5311	13.313	4.8	0.1	32.122
5312	13.115	4.8	0.1	35.332
5313	12.917	4.8	0.1	38.556
5314	12.719	4.8	0.1	41.746
5315	12.521	4.8	0.1	44.841
5316	12.323	4.8	0.1	47.763
5317	12.125	4.8	0.1	50.42
5318	11.927	4.8	0.1	52.7
5319	11.729	4.8	0.1	54.47
5320	11.531	4.8	0.1	55.576
5321	11.333	4.8	0.1	55.842
5322	11.135	4.8	0.1	55.063
5323	10.937	4.8	0.1	53.003
5324	10.74	4.8	0.1	49.385
5325	10.542	4.8	0.1	43.871
5326	10.344	4.8	0.1	36.05
5327	10.146	4.8	0.1	25.54
5328	9.9479	4.8	0.1	13.239
5329	9.75	4.8	0.1	5.578
5330	9.5521	4.8	0.1	3.3966
5331	9.3542	4.8	0.1	2.6716
5332	9.1563	4.8	0.1	2.404
5333	8.9583	4.8	0.1	2.2997
5334	8.7604	4.8	0.1	2.746
5335	8.5625	4.8	0.1	-2.6597e-002
5336	8.3646	4.8	0.1	8.3273
5337	23.802	5.	0.1	-2.4543e-002
5338	23.604	5.	0.1	-0.27035
5339	23.406	5.	0.1	-8.2857e-002
5340	23.208	5.	0.1	-7.522e-002
5341	23.01	5.	0.1	-4.7139e-002
5342	22.813	5.	0.1	-3.5616e-002
5343	22.615	5.	0.1	-2.612e-002
5344	22.417	5.	0.1	-1.9844e-002
5345	22.219	5.	0.1	-1.516e-002
5346	22.021	5.	0.1	-1.169e-002
5347	21.823	5.	0.1	-9.0449e-003
5348	21.625	5.	0.1	-7.0097e-003
5349	21.427	5.	0.1	-5.4244e-003
5350	21.229	5.	0.1	-4.1734e-003
5351	21.031	5.	0.1	-3.1668e-003
5352	20.833	5.	0.1	-2.3676e-003
5353	20.635	5.	0.1	-1.7231e-003
5354	20.438	5.	0.1	-1.1978e-003
5355	20.24	5.	0.1	-7.5752e-004
5356	20.042	5.	0.1	-4.0264e-004
5357	19.844	5.	0.1	-1.1629e-004
5358	19.646	5.	0.1	1.2668e-004
5359	19.448	5.	0.1	3.3917e-004
5360	19.25	5.	0.1	5.0815e-004
5361	19.052	5.	0.1	6.4442e-004
5362	18.854	5.	0.1	7.644e-004
5363	18.656	5.	0.1	8.7896e-004
5364	18.458	5.	0.1	9.6919e-004
5365	18.26	5.	0.1	1.0397e-003
5366	18.063	5.	0.1	1.1138e-003
5367	17.865	5.	0.1	1.2002e-003
5368	17.667	5.	0.1	1.278e-003
5369	17.469	5.	0.1	1.3545e-003
5370	17.271	5.	0.1	1.4629e-003
5371	17.073	5.	0.1	1.6235e-003
5372	16.875	5.	0.1	1.8291e-003
5373	16.677	5.	0.1	2.1232e-003
5374	16.479	5.	0.1	2.6132e-003
5375	16.281	5.	0.1	3.4744e-003
5376	16.083	5.	0.1	5.1287e-003
5377	15.885	5.	0.1	9.2273e-003
5378	15.688	5.	0.1	3.0067e-002
5379	15.49	5.	0.1	0.89339
5380	15.292	5.	0.1	2.6337
5381	15.094	5.	0.1	4.4743
5382	14.896	5.	0.1	6.4055
5383	14.698	5.	0.1	8.4281
5384	14.5	5.	0.1	10.542
5385	14.302	5.	0.1	12.745
5386	14.104	5.	0.1	15.031
5387	13.906	5.	0.1	17.392
5388	13.708	5.	0.1	19.813
5389	13.51	5.	0.1	22.275
5390	13.313	5.	0.1	24.749
5391	13.115	5.	0.1	27.199
5392	12.917	5.	0.1	29.578
5393	12.719	5.	0.1	31.826
5394	12.521	5.	0.1	33.871
5395	12.323	5.	0.1	35.621
5396	12.125	5.	0.1	36.968
5397	11.927	5.	0.1	37.788
5398	11.729	5.	0.1	37.931
5399	11.531	5.	0.1	37.232
5400	11.333	5.	0.1	35.504
5401	11.135	5.	0.1	32.546
5402	10.937	5.	0.1	28.153
5403	10.74	5.	0.1	22.144
5404	10.542	5.	0.1	14.531
5405	10.344	5.	0.1	6.679
5406	10.146	5.	0.1	2.9418
5407	9.9479	5.	0.1	2.0129
5408	9.75	5.	0.1	1.7416
5409	9.5521	5.	0.1	1.6831
5410	9.3542	5.	0.1	1.714
5411	9.1563	5.	0.1	1.8427
5412	8.9583	5.	0.1	1.8099
5413	8.7604	5.	0.1	2.5902
5414	8.5625	5.	0.1	0.17453
5415	8.3646	5.	0.1	9.8347
5416	23.802	5.2	0.1	2.8365e-002
5417	23.604	5.2	0.1	-0.23301
5418	23.406	5.2	0.1	-5.4581e-002
5419	23.208	5.2	0.1	-5.0316e-002
5420	23.01	5.2	0.1	-2.5223e-002
5421	22.813	5.2	0.1	-1.6035e-002
5422	22.615	5.2	0.1	-8.485e-003
5423	22.417	5.2	0.1	-3.8623e-003
5424	22.219	5.2	0.1	-6.0887e-004
5425	22.021	5.2	0.1	1.6056e-003
5426	21.823	5.2	0.1	3.1501e-003
5427	21.625	5.2	0.1	4.212e-003
5428	21.427	5.2	0.1	4.9267e-003
5429	21.229	5.2	0.1	5.4043e-003
5430	21.031	5.2	0.1	5.7117e-003
5431	20.833	5.2	0.1	5.8824e-003
5432	20.635	5.2	0.1	5.954e-003
5433	20.438	5.2	0.1	5.9612e-003
5434	20.24	5.2	0.1	5.9252e-003
5435	20.042	5.2	0.1	5.8429e-003
5436	19.844	5.2	0.1	5.7266e-003
5437	19.646	5.2	0.1	5.5969e-003
5438	19.448	5.2	0.1	5.4598e-003
5439	19.25	5.2	0.1	5.3061e-003
5440	19.052	5.2	0.1	5.132e-003
5441	18.854	5.2	0.1	4.9631e-003
5442	18.656	5.2	0.1	4.7995e-003
5443	18.458	5.2	0.1	4.6201e-003
5444	18.26	5.2	0.1	4.431e-003
5445	18.063	5.2	0.1	4.2487e-003
5446	17.865	5.2	0.1	4.0765e-003
5447	17.667	5.2	0.1	3.894e-003
5448	17.469	5.2	0.1	3.7016e-003
5449	17.271	5.2	0.1	3.5227e-003
5450	17.073	5.2	0.1	3.3689e-003
5451	16.875	5.2	0.1	3.2137e-003
5452	16.677	5.2	0.1	3.0702e-003
5453	16.479	5.2	0.1	2.9859e-003
5454	16.281	5.2	0.1	2.9954e-003
5455	16.083	5.2	0.1	3.1408e-003
5456	15.885	5.2	0.1	3.5821e-003
5457	15.688	5.2	0.1	4.8077e-003
5458	15.49	5.2	0.1	8.7662e-003
5459	15.292	5.2	0.1	4.5885e-002
5460	15.094	5.2	0.1	1.2184
5461	14.896	5.2	0.1	2.826
5462	14.698	5.2	0.1	4.5048
5463	14.5	5.2	0.1	6.2474
5464	14.302	5.2	0.1	8.0483
5465	14.104	5.2	0.1	9.8991
5466	13.906	5.2	0.1	11.787
5467	13.708	5.2	0.1	13.695
5468	13.51	5.2	0.1	15.599
5469	13.313	5.2	0.1	17.467
5470	13.115	5.2	0.1	19.259
5471	12.917	5.2	0.1	20.924
5472	12.719	5.2	0.1	22.397
5473	12.521	5.2	0.1	23.6
5474	12.323	5.2	0.1	24.438
5475	12.125	5.2	0.1	24.799
5476	11.927	5.2	0.1	24.552
5477	11.729	5.2	0.1	23.546
5478	11.531	5.2	0.1	21.614
5479	11.333	5.2	0.1	18.582
5480	11.135	5.2	0.1	14.285
5481	10.937	5.2	0.1	8.698
5482	10.74	5.2	0.1	3.0764
5483	10.542	5.2	0.1	1.1837
5484	10.344	5.2	0.1	0.83401
5485	10.146	5.2	0.1	0.75542
5486	9.9479	5.2	0.1	0.77353
5487	9.75	5.2	0.1	0.85103
5488	9.5521	5.2	0.1	0.98353
5489	9.3542	5.2	0.1	1.1644
5490	9.1563	5.2	0.1	1.4431
5491	8.9583	5.2	0.1	1.6647
5492	8.7604	5.2	0.1	2.4251
5493	8.5625	5.2	0.1	0.93171
5494	8.3646	5.2	0.1	8.2719
5495	23.802	5.4	0.1	7.7513e-002
5496	23.604	5.4	0.1	-0.19766
5497	23.406	5.4	0.1	-2.5735e-002
5498	23.208	5.4	0.1	-2.7584e-002
5499	23.01	5.4	0.1	-6.2328e-003
5500	22.813	5.4	0.1	2.5713e-004
5501	22.615	5.4	0.1	5.5364e-003
5502	22.417	5.4	0.1	8.3253e-003
5503	22.219	5.4	0.1	1.0052e-002
5504	22.021	5.4	0.1	1.0995e-002
5505	21.823	5.4	0.1	1.1469e-002
5506	21.625	5.4	0.1	1.162e-002
5507	21.427	5.4	0.1	1.1565e-002
5508	21.229	5.4	0.1	1.1378e-002
5509	21.031	5.4	0.1	1.1111e-002
5510	20.833	5.4	0.1	1.0786e-002
5511	20.635	5.4	0.1	1.0424e-002
5512	20.438	5.4	0.1	1.005e-002
5513	20.24	5.4	0.1	9.6787e-003
5514	20.042	5.4	0.1	9.2986e-003
5515	19.844	5.4	0.1	8.9162e-003
5516	19.646	5.4	0.1	8.5478e-003
5517	19.448	5.4	0.1	8.1972e-003
5518	19.25	5.4	0.1	7.8458e-003
5519	19.052	5.4	0.1	7.4944e-003
5520	18.854	5.4	0.1	7.1598e-003
5521	18.656	5.4	0.1	6.8434e-003
5522	18.458	5.4	0.1	6.5202e-003
5523	18.26	5.4	0.1	6.1911e-003
5524	18.063	5.4	0.1	5.8774e-003
5525	17.865	5.4	0.1	5.5745e-003
5526	17.667	5.4	0.1	5.2601e-003
5527	17.469	5.4	0.1	4.9301e-003
5528	17.271	5.4	0.1	4.6094e-003
5529	17.073	5.4	0.1	4.2964e-003
5530	16.875	5.4	0.1	3.9631e-003
5531	16.677	5.4	0.1	3.606e-003
5532	16.479	5.4	0.1	3.2539e-003
5533	16.281	5.4	0.1	2.9091e-003
5534	16.083	5.4	0.1	2.5408e-003
5535	15.885	5.4	0.1	2.156e-003
5536	15.688	5.4	0.1	1.7984e-003
5537	15.49	5.4	0.1	1.5036e-003
5538	15.292	5.4	0.1	1.3264e-003
5539	15.094	5.4	0.1	1.5824e-003
5540	14.896	5.4	0.1	4.5335e-003
5541	14.698	5.4	0.1	0.45971
5542	14.5	5.4	0.1	1.838
5543	14.302	5.4	0.1	3.2577
5544	14.104	5.4	0.1	4.7024
5545	13.906	5.4	0.1	6.1586
5546	13.708	5.4	0.1	7.608
5547	13.51	5.4	0.1	9.0268
5548	13.313	5.4	0.1	10.384
5549	13.115	5.4	0.1	11.64
5550	12.917	5.4	0.1	12.746
5551	12.719	5.4	0.1	13.641
5552	12.521	5.4	0.1	14.25
5553	12.323	5.4	0.1	14.483
5554	12.125	5.4	0.1	14.236
5555	11.927	5.4	0.1	13.384
5556	11.729	5.4	0.1	11.792
5557	11.531	5.4	0.1	9.3129
5558	11.333	5.4	0.1	5.8386
5559	11.135	5.4	0.1	1.8506
5560	10.937	5.4	0.1	0.48846
5561	10.74	5.4	0.1	0.30321
5562	10.542	5.4	0.1	0.25747
5563	10.344	5.4	0.1	0.25453
5564	10.146	5.4	0.1	0.27714
5565	9.9479	5.4	0.1	0.32415
5566	9.75	5.4	0.1	0.40126
5567	9.5521	5.4	0.1	0.52563
5568	9.3542	5.4	0.1	0.7186
5569	9.1563	5.4	0.1	1.0688
5570	8.9583	5.4	0.1	1.5406
5571	8.7604	5.4	0.1	2.758
5572	8.5625	5.4	0.1	2.1094
5573	8.3646	5.4	0.1	9.1421
5574	23.802	5.6	0.1	0.35379
5575	23.604	5.6	0.1	2.0046e-003
5576	23.406	5.6	0.1	0.11415
5577	23.208	5.6	0.1	9.3869e-002
5578	23.01	5.6	0.1	9.6719e-002
5579	22.813	5.6	0.1	8.9909e-002
5580	22.615	5.6	0.1	8.4415e-002
5581	22.417	5.6	0.1	7.8419e-002
5582	22.219	5.6	0.1	7.2805e-002
5583	22.021	5.6	0.1	6.7526e-002
5584	21.823	5.6	0.1	6.2652e-002
5585	21.625	5.6	0.1	5.8156e-002
5586	21.427	5.6	0.1	5.4023e-002
5587	21.229	5.6	0.1	5.023e-002
5588	21.031	5.6	0.1	4.6749e-002
5589	20.833	5.6	0.1	4.3544e-002
5590	20.635	5.6	0.1	4.0584e-002
5591	20.438	5.6	0.1	3.7857e-002
5592	20.24	5.6	0.1	3.5338e-002
5593	20.042	5.6	0.1	3.2995e-002
5594	19.844	5.6	0.1	3.0808e-002
5595	19.646	5.6	0.1	2.8769e-002
5596	19.448	5.6	0.1	2.6867e-002
5597	19.25	5.6	0.1	2.5068e-002
5598	19.052	5.6	0.1	2.3358e-002
5599	18.854	5.6	0.1	2.1738e-002
5600	18.656	5.6	0.1	2.0198e-002
5601	18.458	5.6	0.1	1.871e-002
5602	18.26	5.6	0.1	1.7256e-002
5603	18.063	5.6	0.1	1.5847e-002
5604	17.865	5.6	0.1	1.4477e-002
5605	17.667	5.6	0.1	1.3111e-002
5606	17.469	5.6	0.1	1.1735e-002
5607	17.271	5.6	0.1	1.0368e-002
5608	17.073	5.6	0.1	9.0006e-003
5609	16.875	5.6	0.1	7.5964e-003
5610	16.677	5.6	0.1	6.1453e-003
5611	16.479	5.6	0.1	4.666e-003
5612	16.281	5.6	0.1	3.1525e-003
5613	16.083	5.6	0.1	1.567e-003
5614	15.885	5.6	0.1	-9.9727e-005
5615	15.688	5.6	0.1	-1.8249e-003
5616	15.49	5.6	0.1	-3.6057e-003
5617	15.292	5.6	0.1	-5.4809e-003
5618	15.094	5.6	0.1	-7.4455e-003
5619	14.896	5.6	0.1	-9.4511e-003
5620	14.698	5.6	0.1	-1.1452e-002
5621	14.5	5.6	0.1	-1.3375e-002
5622	14.302	5.6	0.1	-1.4797e-002
5623	14.104	5.6	0.1	-1.2122e-002
5624	13.906	5.6	0.1	0.49265
5625	13.708	5.6	0.1	1.5408
5626	13.51	5.6	0.1	2.5555
5627	13.313	5.6	0.1	3.507
5628	13.115	5.6	0.1	4.3623
5629	12.917	5.6	0.1	5.0806
5630	12.719	5.6	0.1	5.6124
5631	12.521	5.6	0.1	5.8969
5632	12.323	5.6	0.1	5.862
5633	12.125	5.6	0.1	5.4227
5634	11.927	5.6	0.1	4.4833
5635	11.729	5.6	0.1	2.9529
5636	11.531	5.6	0.1	0.96282
5637	11.333	5.6	0.1	0.20553
5638	11.135	5.6	0.1	0.12395
5639	10.937	5.6	0.1	0.11164
5640	10.74	5.6	0.1	0.11959
5641	10.542	5.6	0.1	0.13845
5642	10.344	5.6	0.1	0.16543
5643	10.146	5.6	0.1	0.19969
5644	9.9479	5.6	0.1	0.24181
5645	9.75	5.6	0.1	0.29447
5646	9.5521	5.6	0.1	0.37024
5647	9.3542	5.6	0.1	0.49367
5648	9.1563	5.6	0.1	0.78099
5649	8.9583	5.6	0.1	1.3264
5650	8.7604	5.6	0.1	3.1265
5651	8.5625	5.6	0.1	4.0702
5652	8.3646	5.6	0.1	11.206
5653	23.802	5.8	0.1	0.49265
5654	23.604	5.8	0.1	5.9223e-002
5655	23.406	5.8	0.1	8.8514e-002
5656	23.208	5.8	0.1	4.951e-002
5657	23.01	5.8	0.1	3.7974e-002
5658	22.813	5.8	0.1	2.5252e-002
5659	22.615	5.8	0.1	1.7037e-002
5660	22.417	5.8	0.1	1.0654e-002
5661	22.219	5.8	0.1	5.9619e-003
5662	22.021	5.8	0.1	2.4377e-003
5663	21.823	5.8	0.1	-1.8171e-004
5664	21.625	5.8	0.1	-2.1245e-003
5665	21.427	5.8	0.1	-3.5474e-003
5666	21.229	5.8	0.1	-4.5598e-003
5667	21.031	5.8	0.1	-5.2475e-003
5668	20.833	5.8	0.1	-5.6917e-003
5669	20.635	5.8	0.1	-5.9448e-003
5670	20.438	5.8	0.1	-6.0367e-003
5671	20.24	5.8	0.1	-5.9998e-003
5672	20.042	5.8	0.1	-5.8725e-003
5673	19.844	5.8	0.1	-5.6746e-003
5674	19.646	5.8	0.1	-5.4099e-003
5675	19.448	5.8	0.1	-5.0865e-003
5676	19.25	5.8	0.1	-4.7334e-003
5677	19.052	5.8	0.1	-4.354e-003
5678	18.854	5.8	0.1	-3.9406e-003
5679	18.656	5.8	0.1	-3.4925e-003
5680	18.458	5.8	0.1	-3.0333e-003
5681	18.26	5.8	0.1	-2.5653e-003
5682	18.063	5.8	0.1	-2.0638e-003
5683	17.865	5.8	0.1	-1.5319e-003
5684	17.667	5.8	0.1	-9.8776e-004
5685	17.469	5.8	0.1	-4.2982e-004
5686	17.271	5.8	0.1	1.6729e-004
5687	17.073	5.8	0.1	8.1387e-004
5688	16.875	5.8	0.1	1.484e-003
5689	16.677	5.8	0.1	2.1872e-003
5690	16.479	5.8	0.1	2.9552e-003
5691	16.281	5.8	0.1	3.8033e-003
5692	16.083	5.8	0.1	4.7108e-003
5693	15.885	5.8	0.1	5.6927e-003
5694	15.688	5.8	0.1	6.7974e-003
5695	15.49	5.8	0.1	8.0513e-003
5696	15.292	5.8	0.1	9.4473e-003
5697	15.094	5.8	0.1	1.1025e-002
5698	14.896	5.8	0.1	1.2868e-002
5699	14.698	5.8	0.1	1.5045e-002
5700	14.5	5.8	0.1	1.7607e-002
5701	14.302	5.8	0.1	2.0675e-002
5702	14.104	5.8	0.1	2.4452e-002
5703	13.906	5.8	0.1	2.9167e-002
5704	13.708	5.8	0.1	3.5084e-002
5705	13.51	5.8	0.1	4.2607e-002
5706	13.313	5.8	0.1	5.225e-002
5707	13.115	5.8	0.1	6.4442e-002
5708	12.917	5.8	0.1	7.9097e-002
5709	12.719	5.8	0.1	9.4797e-002
5710	12.521	5.8	0.1	0.10755
5711	12.323	5.8	0.1	0.11095
5712	12.125	5.8	0.1	0.10039
5713	11.927	5.8	0.1	7.8285e-002
5714	11.729	5.8	0.1	5.211e-002
5715	11.531	5.8	0.1	2.765e-002
5716	11.333	5.8	0.1	6.4918e-003
5717	11.135	5.8	0.1	-1.2306e-002
5718	10.937	5.8	0.1	-3.0578e-002
5719	10.74	5.8	0.1	-5.0495e-002
5720	10.542	5.8	0.1	-7.4458e-002
5721	10.344	5.8	0.1	-0.10489
5722	10.146	5.8	0.1	-0.14384
5723	9.9479	5.8	0.1	-0.19139
5724	9.75	5.8	0.1	-0.24288
5725	9.5521	5.8	0.1	-0.27716
5726	9.3542	5.8	0.1	-0.24934
5727	9.1563	5.8	0.1	-7.0443e-004
5728	8.9583	5.8	0.1	0.65641
5729	8.7604	5.8	0.1	3.0031
5730	8.5625	5.8	0.1	6.6526
5731	8.3646	5.8	0.1	22.879
5732	0.2	0.2	0.1	48.937
5733	0.2	0.4	0.1	893.08
5734	0.2	0.6	0.1	1316.2
5735	0.2	0.8	0.1	1553.6
5736	0.2	1.	0.1	1702.
5737	0.2	1.2	0.1	1803.5
5738	0.2	1.4	0.1	1876.3
5739	0.2	1.6	0.1	1930.2
5740	0.2	1.8	0.1	1970.6
5741	0.2	2.	0.1	2001.1
5742	0.2	2.2	0.1	2023.8
5743	0.2	2.4	0.1	2040.3
5744	0.2	2.6	0.1	2051.4
5745	0.2	2.8	0.1	2057.9
5746	0.2	3.	0.1	2060.
5747	0.2	3.2	0.1	2057.9
5748	0.2	3.4	0.1	2051.4
5749	0.2	3.6	0.1	2040.3
5750	0.2	3.8	0.1	2023.8
5751	0.2	4.	0.1	2001.1
5752	0.2	4.2	0.1	1970.6
5753	0.2	4.4	0.1	1930.2
5754	0.2	4.6	0.1	1876.3
5755	0.2	4.8	0.1	1803.5
5756	0.2	5.	0.1	1702.
5757	0.2	5.2	0.1	1553.6
5758	0.2	5.4	0.1	1316.2
5759	0.2	5.6	0.1	893.08
5760	0.2	5.8	0.1	48.937
5761	0.4	0.2	0.1	97.803
5762	0.4	0.4	0.1	739.31
5763	0.4	0.6	0.1	1298.6
5764	0.4	0.8	0.1	1661.9
5765	0.4	1.	0.1	1899.5
5766	0.4	1.2	0.1	2060.4
5767	0.4	1.4	0.1	2174.1
5768	0.4	1.6	0.1	2256.9
5769	0.4	1.8	0.1	2318.3
5770	0.4	2.	0.1	2364.1
5771	0.4	2.2	0.1	2398.
5772	0.4	2.4	0.1	2422.5
5773	0.4	2.6	0.1	2439.
5774	0.4	2.8	0.1	2448.5
5775	0.4	3.	0.1	2451.6
5776	0.4	3.2	0.1	2448.5
5777	0.4	3.4	0.1	2439.
5778	0.4	3.6	0.1	2422.5
5779	0.4	3.8	0.1	2398.
5780	0.4	4.	0.1	2364.1
5781	0.4	4.2	0.1	2318.3
5782	0.4	4.4	0.1	2256.9
5783	0.4	4.6	0.1	2174.1
5784	0.4	4.8	0.1	2060.4
5785	0.4	5.	0.1	1899.5
5786	0.4	5.2	0.1	1661.9
5787	0.4	5.4	0.1	1298.6
5788	0.4	5.6	0.1	739.31
5789	0.4	5.8	0.1	97.803
5790	0.6	0.2	0.1	10.669
5791	0.6	0.4	0.1	469.97
5792	0.6	0.6	0.1	924.51
5793	0.6	0.8	0.1	1284.5
5794	0.6	1.	0.1	1548.5
5795	0.6	1.2	0.1	1738.2
5796	0.6	1.4	0.1	1875.7
5797	0.6	1.6	0.1	1976.6
5798	0.6	1.8	0.1	2051.6
5799	0.6	2.	0.1	2107.4
5800	0.6	2.2	0.1	2148.7
5801	0.6	2.4	0.1	2178.3
5802	0.6	2.6	0.1	2198.3
5803	0.6	2.8	0.1	2209.8
5804	0.6	3.	0.1	2213.6
5805	0.6	3.2	0.1	2209.8
5806	0.6	3.4	0.1	2198.3
5807	0.6	3.6	0.1	2178.3
5808	0.6	3.8	0.1	2148.7
5809	0.6	4.	0.1	2107.4
5810	0.6	4.2	0.1	2051.6
5811	0.6	4.4	0.1	1976.6
5812	0.6	4.6	0.1	1875.7
5813	0.6	4.8	0.1	1738.2
5814	0.6	5.	0.1	1548.5
5815	0.6	5.2	0.1	1284.5
5816	0.6	5.4	0.1	924.51
5817	0.6	5.6	0.1	469.97
5818	0.6	5.8	0.1	10.669
5819	0.8	0.2	0.1	28.786
5820	0.8	0.4	0.1	386.97
5821	0.8	0.6	0.1	763.18
5822	0.8	0.8	0.1	1093.6
5823	0.8	1.	0.1	1360.8
5824	0.8	1.2	0.1	1567.5
5825	0.8	1.4	0.1	1724.5
5826	0.8	1.6	0.1	1843.2
5827	0.8	1.8	0.1	1932.8
5828	0.8	2.	0.1	2000.2
5829	0.8	2.2	0.1	2050.3
5830	0.8	2.4	0.1	2086.3
5831	0.8	2.6	0.1	2110.7
5832	0.8	2.8	0.1	2124.7
5833	0.8	3.	0.1	2129.3
5834	0.8	3.2	0.1	2124.7
5835	0.8	3.4	0.1	2110.7
5836	0.8	3.6	0.1	2086.3
5837	0.8	3.8	0.1	2050.3
5838	0.8	4.	0.1	2000.2
5839	0.8	4.2	0.1	1932.8
5840	0.8	4.4	0.1	1843.2
5841	0.8	4.6	0.1	1724.5
5842	0.8	4.8	0.1	1567.5
5843	0.8	5.	0.1	1360.8
5844	0.8	5.2	0.1	1093.6
5845	0.8	5.4	0.1	763.18
5846	0.8	5.6	0.1	386.97
5847	0.8	5.8	0.1	28.786
5848	1.	0.2	0.1	27.024
5849	1.	0.4	0.1	325.67
5850	1.	0.6	0.1	636.42
5851	1.	0.8	0.1	925.8
5852	1.	1.	0.1	1176.5
5853	1.	1.2	0.1	1382.8
5854	1.	1.4	0.1	1547.5
5855	1.	1.6	0.1	1676.7
5856	1.	1.8	0.1	1776.7
5857	1.	2.	0.1	1853.3
5858	1.	2.2	0.1	1910.9
5859	1.	2.4	0.1	1952.6
5860	1.	2.6	0.1	1981.
5861	1.	2.8	0.1	1997.4
5862	1.	3.	0.1	2002.8
5863	1.	3.2	0.1	1997.4
5864	1.	3.4	0.1	1981.
5865	1.	3.6	0.1	1952.6
5866	1.	3.8	0.1	1910.9
5867	1.	4.	0.1	1853.3
5868	1.	4.2	0.1	1776.7
5869	1.	4.4	0.1	1676.7
5870	1.	4.6	0.1	1547.5
5871	1.	4.8	0.1	1382.8
5872	1.	5.	0.1	1176.5
5873	1.	5.2	0.1	925.8
5874	1.	5.4	0.1	636.42
5875	1.	5.6	0.1	325.67
5876	1.	5.8	0.1	27.024
5877	1.2	0.2	0.1	32.95
5878	1.2	0.4	0.1	290.1
5879	1.2	0.6	0.1	553.58
5880	1.2	0.8	0.1	806.24
5881	1.2	1.	0.1	1035.
5882	1.2	1.2	0.1	1232.2
5883	1.2	1.4	0.1	1396.4
5884	1.2	1.6	0.1	1529.7
5885	1.2	1.8	0.1	1635.9
5886	1.2	2.	0.1	1718.9
5887	1.2	2.2	0.1	1782.2
5888	1.2	2.4	0.1	1828.7
5889	1.2	2.6	0.1	1860.4
5890	1.2	2.8	0.1	1878.9
5891	1.2	3.	0.1	1885.
5892	1.2	3.2	0.1	1878.9
5893	1.2	3.4	0.1	1860.4
5894	1.2	3.6	0.1	1828.7
5895	1.2	3.8	0.1	1782.2
5896	1.2	4.	0.1	1718.9
5897	1.2	4.2	0.1	1635.9
5898	1.2	4.4	0.1	1529.7
5899	1.2	4.6	0.1	1396.4
5900	1.2	4.8	0.1	1232.2
5901	1.2	5.	0.1	1035.
5902	1.2	5.2	0.1	806.24
5903	1.2	5.4	0.1	553.58
5904	1.2	5.6	0.1	290.1
5905	1.2	5.8	0.1	32.95
5906	1.4	0.2	0.1	38.712
5907	1.4	0.4	0.1	263.91
5908	1.4	0.6	0.1	491.1
5909	1.4	0.8	0.1	712.49
5910	1.4	1.	0.1	918.61
5911	1.4	1.2	0.1	1102.3
5912	1.4	1.4	0.1	1260.5
5913	1.4	1.6	0.1	1392.9
5914	1.4	1.8	0.1	1501.1
5915	1.4	2.	0.1	1587.4
5916	1.4	2.2	0.1	1654.3
5917	1.4	2.4	0.1	1704.1
5918	1.4	2.6	0.1	1738.3
5919	1.4	2.8	0.1	1758.4
5920	1.4	3.	0.1	1765.
5921	1.4	3.2	0.1	1758.4
5922	1.4	3.4	0.1	1738.3
5923	1.4	3.6	0.1	1704.1
5924	1.4	3.8	0.1	1654.3
5925	1.4	4.	0.1	1587.4
5926	1.4	4.2	0.1	1501.1
5927	1.4	4.4	0.1	1392.9
5928	1.4	4.6	0.1	1260.5
5929	1.4	4.8	0.1	1102.3
5930	1.4	5.	0.1	918.61
5931	1.4	5.2	0.1	712.49
5932	1.4	5.4	0.1	491.1
5933	1.4	5.6	0.1	263.91
5934	1.4	5.8	0.1	38.711
5935	1.6	0.2	0.1	44.696
5936	1.6	0.4	0.1	244.03
5937	1.6	0.6	0.1	442.9
5938	1.6	0.8	0.1	638.31
5939	1.6	1.	0.1	823.5
5940	1.6	1.2	0.1	992.48
5941	1.6	1.4	0.1	1141.7
5942	1.6	1.6	0.1	1269.6
5943	1.6	1.8	0.1	1376.6
5944	1.6	2.	0.1	1463.6
5945	1.6	2.2	0.1	1532.
5946	1.6	2.4	0.1	1583.5
5947	1.6	2.6	0.1	1619.4
5948	1.6	2.8	0.1	1640.4
5949	1.6	3.	0.1	1647.4
5950	1.6	3.2	0.1	1640.4
5951	1.6	3.4	0.1	1619.4
5952	1.6	3.6	0.1	1583.5
5953	1.6	3.8	0.1	1532.
5954	1.6	4.	0.1	1463.6
5955	1.6	4.2	0.1	1376.6
5956	1.6	4.4	0.1	1269.6
5957	1.6	4.6	0.1	1141.7
5958	1.6	4.8	0.1	992.48
5959	1.6	5.	0.1	823.5
5960	1.6	5.2	0.1	638.31
5961	1.6	5.4	0.1	442.9
5962	1.6	5.6	0.1	244.03
5963	1.6	5.8	0.1	44.696
5964	1.8	0.2	0.1	49.822
5965	1.8	0.4	0.1	227.57
5966	1.8	0.6	0.1	403.58
5967	1.8	0.8	0.1	577.26
5968	1.8	1.	0.1	743.74
5969	1.8	1.2	0.1	898.15
5970	1.8	1.4	0.1	1037.1
5971	1.8	1.6	0.1	1158.5
5972	1.8	1.8	0.1	1261.9
5973	1.8	2.	0.1	1347.4
5974	1.8	2.2	0.1	1415.7
5975	1.8	2.4	0.1	1467.6
5976	1.8	2.6	0.1	1504.
5977	1.8	2.8	0.1	1525.6
5978	1.8	3.	0.1	1532.7
5979	1.8	3.2	0.1	1525.6
5980	1.8	3.4	0.1	1504.
5981	1.8	3.6	0.1	1467.6
5982	1.8	3.8	0.1	1415.7
5983	1.8	4.	0.1	1347.4
5984	1.8	4.2	0.1	1261.9
5985	1.8	4.4	0.1	1158.5
5986	1.8	4.6	0.1	1037.1
5987	1.8	4.8	0.1	898.15
5988	1.8	5.	0.1	743.74
5989	1.8	5.2	0.1	577.26
5990	1.8	5.4	0.1	403.58
5991	1.8	5.6	0.1	227.57
5992	1.8	5.8	0.1	49.822
5993	2.	0.2	0.1	53.832
5994	2.	0.4	0.1	213.23
5995	2.	0.6	0.1	370.34
5996	2.	0.8	0.1	525.66
5997	2.	1.	0.1	675.63
5998	2.	1.2	0.1	816.31
5999	2.	1.4	0.1	944.65
6000	2.	1.6	0.1	1058.6
6001	2.	1.8	0.1	1157.
6002	2.	2.	0.1	1239.5
6003	2.	2.2	0.1	1306.2
6004	2.	2.4	0.1	1357.4
6005	2.	2.6	0.1	1393.5
6006	2.	2.8	0.1	1415.
6007	2.	3.	0.1	1422.2
6008	2.	3.2	0.1	1415.
6009	2.	3.4	0.1	1393.5
6010	2.	3.6	0.1	1357.4
6011	2.	3.8	0.1	1306.2
6012	2.	4.	0.1	1239.5
6013	2.	4.2	0.1	1157.
6014	2.	4.4	0.1	1058.6
6015	2.	4.6	0.1	944.65
6016	2.	4.8	0.1	816.31
6017	2.	5.	0.1	675.63
6018	2.	5.2	0.1	525.66
6019	2.	5.4	0.1	370.34
6020	2.	5.6	0.1	213.23
6021	2.	5.8	0.1	53.832
6022	2.2	0.2	0.1	56.631
6023	2.2	0.4	0.1	200.18
6024	2.2	0.6	0.1	341.29
6025	2.2	0.8	0.1	480.89
6026	2.2	1.	0.1	616.31
6027	2.2	1.2	0.1	744.36
6028	2.2	1.4	0.1	862.39
6029	2.2	1.6	0.1	968.39
6030	2.2	1.8	0.1	1061.
6031	2.2	2.	0.1	1139.6
6032	2.2	2.2	0.1	1203.6
6033	2.2	2.4	0.1	1253.3
6034	2.2	2.6	0.1	1288.5
6035	2.2	2.8	0.1	1309.6
6036	2.2	3.	0.1	1316.6
6037	2.2	3.2	0.1	1309.6
6038	2.2	3.4	0.1	1288.5
6039	2.2	3.6	0.1	1253.3
6040	2.2	3.8	0.1	1203.6
6041	2.2	4.	0.1	1139.5
6042	2.2	4.2	0.1	1061.
6043	2.2	4.4	0.1	968.39
6044	2.2	4.6	0.1	862.39
6045	2.2	4.8	0.1	744.36
6046	2.2	5.	0.1	616.31
6047	2.2	5.2	0.1	480.89
6048	2.2	5.4	0.1	341.29
6049	2.2	5.6	0.1	200.18
6050	2.2	5.8	0.1	56.631
6051	2.4	0.2	0.1	58.268
6052	2.4	0.4	0.1	187.94
6053	2.4	0.6	0.1	315.25
6054	2.4	0.8	0.1	441.21
6055	2.4	1.	0.1	563.77
6056	2.4	1.2	0.1	680.33
6057	2.4	1.4	0.1	788.6
6058	2.4	1.6	0.1	886.69
6059	2.4	1.8	0.1	973.21
6060	2.4	2.	0.1	1047.2
6061	2.4	2.2	0.1	1108.1
6062	2.4	2.4	0.1	1155.6
6063	2.4	2.6	0.1	1189.5
6064	2.4	2.8	0.1	1209.9
6065	2.4	3.	0.1	1216.7
6066	2.4	3.2	0.1	1209.9
6067	2.4	3.4	0.1	1189.5
6068	2.4	3.6	0.1	1155.6
6069	2.4	3.8	0.1	1108.1
6070	2.4	4.	0.1	1047.2
6071	2.4	4.2	0.1	973.21
6072	2.4	4.4	0.1	886.69
6073	2.4	4.6	0.1	788.6
6074	2.4	4.8	0.1	680.33
6075	2.4	5.	0.1	563.77
6076	2.4	5.2	0.1	441.21
6077	2.4	5.4	0.1	315.25
6078	2.4	5.6	0.1	187.94
6079	2.4	5.8	0.1	58.268
6080	2.6	0.2	0.1	58.839
6081	2.6	0.4	0.1	176.21
6082	2.6	0.6	0.1	291.41
6083	2.6	0.8	0.1	405.4
6084	2.6	1.	0.1	516.55
6085	2.6	1.2	0.1	622.71
6086	2.6	1.4	0.1	721.89
6087	2.6	1.6	0.1	812.37
6088	2.6	1.8	0.1	892.76
6089	2.6	2.	0.1	962.01
6090	2.6	2.2	0.1	1019.4
6091	2.6	2.4	0.1	1064.4
6092	2.6	2.6	0.1	1096.7
6093	2.6	2.8	0.1	1116.1
6094	2.6	3.	0.1	1122.6
6095	2.6	3.2	0.1	1116.1
6096	2.6	3.4	0.1	1096.7
6097	2.6	3.6	0.1	1064.4
6098	2.6	3.8	0.1	1019.4
6099	2.6	4.	0.1	962.01
6100	2.6	4.2	0.1	892.76
6101	2.6	4.4	0.1	812.37
6102	2.6	4.6	0.1	721.89
6103	2.6	4.8	0.1	622.71
6104	2.6	5.	0.1	516.55
6105	2.6	5.2	0.1	405.4
6106	2.6	5.4	0.1	291.41
6107	2.6	5.6	0.1	176.21
6108	2.6	5.8	0.1	58.839
6109	2.8	0.2	0.1	58.454
6110	2.8	0.4	0.1	164.78
6111	2.8	0.6	0.1	269.24
6112	2.8	0.8	0.1	372.61
6113	2.8	1.	0.1	473.58
6114	2.8	1.2	0.1	570.34
6115	2.8	1.4	0.1	661.17
6116	2.8	1.6	0.1	744.48
6117	2.8	1.8	0.1	818.94
6118	2.8	2.	0.1	883.47
6119	2.8	2.2	0.1	937.22
6120	2.8	2.4	0.1	979.57
6121	2.8	2.6	0.1	1010.1
6122	2.8	2.8	0.1	1028.5
6123	2.8	3.	0.1	1034.7
6124	2.8	3.2	0.1	1028.5
6125	2.8	3.4	0.1	1010.1
6126	2.8	3.6	0.1	979.57
6127	2.8	3.8	0.1	937.22
6128	2.8	4.	0.1	883.47
6129	2.8	4.2	0.1	818.94
6130	2.8	4.4	0.1	744.48
6131	2.8	4.6	0.1	661.17
6132	2.8	4.8	0.1	570.34
6133	2.8	5.	0.1	473.58
6134	2.8	5.2	0.1	372.61
6135	2.8	5.4	0.1	269.24
6136	2.8	5.6	0.1	164.78
6137	2.8	5.8	0.1	58.454
6138	3.	0.2	0.1	57.222
6139	3.	0.4	0.1	153.54
6140	3.	0.6	0.1	248.33
6141	3.	0.8	0.1	342.18
6142	3.	1.	0.1	434.03
6143	3.	1.2	0.1	522.32
6144	3.	1.4	0.1	605.52
6145	3.	1.6	0.1	682.21
6146	3.	1.8	0.1	751.09
6147	3.	2.	0.1	811.07
6148	3.	2.2	0.1	861.27
6149	3.	2.4	0.1	900.99
6150	3.	2.6	0.1	929.7
6151	3.	2.8	0.1	947.07
6152	3.	3.	0.1	952.88
6153	3.	3.2	0.1	947.07
6154	3.	3.4	0.1	929.7
6155	3.	3.6	0.1	900.99
6156	3.	3.8	0.1	861.27
6157	3.	4.	0.1	811.07
6158	3.	4.2	0.1	751.09
6159	3.	4.4	0.1	682.21
6160	3.	4.6	0.1	605.52
6161	3.	4.8	0.1	522.32
6162	3.	5.	0.1	434.03
6163	3.	5.2	0.1	342.18
6164	3.	5.4	0.1	248.33
6165	3.	5.6	0.1	153.54
6166	3.	5.8	0.1	57.222
6167	3.2	0.2	0.1	55.24
6168	3.2	0.4	0.1	142.39
6169	3.2	0.6	0.1	228.39
6170	3.2	0.8	0.1	313.65
6171	3.2	1.	0.1	397.29
6172	3.2	1.2	0.1	477.94
6173	3.2	1.4	0.1	554.23
6174	3.2	1.6	0.1	624.86
6175	3.2	1.8	0.1	688.59
6176	3.2	2.	0.1	744.34
6177	3.2	2.2	0.1	791.18
6178	3.2	2.4	0.1	828.38
6179	3.2	2.6	0.1	855.35
6180	3.2	2.8	0.1	871.69
6181	3.2	3.	0.1	877.16
6182	3.2	3.2	0.1	871.69
6183	3.2	3.4	0.1	855.35
6184	3.2	3.6	0.1	828.38
6185	3.2	3.8	0.1	791.18
6186	3.2	4.	0.1	744.34
6187	3.2	4.2	0.1	688.59
6188	3.2	4.4	0.1	624.86
6189	3.2	4.6	0.1	554.23
6190	3.2	4.8	0.1	477.94
6191	3.2	5.	0.1	397.29
6192	3.2	5.2	0.1	313.65
6193	3.2	5.4	0.1	228.39
6194	3.2	5.6	0.1	142.39
6195	3.2	5.8	0.1	55.24
6196	3.4	0.2	0.1	52.594
6197	3.4	0.4	0.1	131.25
6198	3.4	0.6	0.1	209.17
6199	3.4	0.8	0.1	286.62
6200	3.4	1.	0.1	362.83
6201	3.4	1.2	0.1	436.6
6202	3.4	1.4	0.1	506.68
6203	3.4	1.6	0.1	571.85
6204	3.4	1.8	0.1	630.92
6205	3.4	2.	0.1	682.81
6206	3.4	2.2	0.1	726.59
6207	3.4	2.4	0.1	761.47
6208	3.4	2.6	0.1	786.82
6209	3.4	2.8	0.1	802.21
6210	3.4	3.	0.1	807.37
6211	3.4	3.2	0.1	802.21
6212	3.4	3.4	0.1	786.82
6213	3.4	3.6	0.1	761.47
6214	3.4	3.8	0.1	726.59
6215	3.4	4.	0.1	682.81
6216	3.4	4.2	0.1	630.92
6217	3.4	4.4	0.1	571.85
6218	3.4	4.6	0.1	506.68
6219	3.4	4.8	0.1	436.6
6220	3.4	5.	0.1	362.83
6221	3.4	5.2	0.1	286.62
6222	3.4	5.4	0.1	209.17
6223	3.4	5.6	0.1	131.25
6224	3.4	5.8	0.1	52.594
6225	3.6	0.2	0.1	49.349
6226	3.6	0.4	0.1	120.06
6227	3.6	0.6	0.1	190.48
6228	3.6	0.8	0.1	260.77
6229	3.6	1.	0.1	330.24
6230	3.6	1.2	0.1	397.82
6231	3.6	1.4	0.1	462.34
6232	3.6	1.6	0.1	522.65
6233	3.6	1.8	0.1	577.58
6234	3.6	2.	0.1	626.05
6235	3.6	2.2	0.1	667.11
6236	3.6	2.4	0.1	699.94
6237	3.6	2.6	0.1	723.86
6238	3.6	2.8	0.1	738.42
6239	3.6	3.	0.1	743.3
6240	3.6	3.2	0.1	738.42
6241	3.6	3.4	0.1	723.86
6242	3.6	3.6	0.1	699.94
6243	3.6	3.8	0.1	667.11
6244	3.6	4.	0.1	626.05
6245	3.6	4.2	0.1	577.58
6246	3.6	4.4	0.1	522.65
6247	3.6	4.6	0.1	462.34
6248	3.6	4.8	0.1	397.81
6249	3.6	5.	0.1	330.24
6250	3.6	5.2	0.1	260.77
6251	3.6	5.4	0.1	190.48
6252	3.6	5.6	0.1	120.06
6253	3.6	5.8	0.1	49.349
6254	3.8	0.2	0.1	45.555
6255	3.8	0.4	0.1	108.73
6256	3.8	0.6	0.1	172.12
6257	3.8	0.8	0.1	235.79
6258	3.8	1.	0.1	299.13
6259	3.8	1.2	0.1	361.14
6260	3.8	1.4	0.1	420.74
6261	3.8	1.6	0.1	476.78
6262	3.8	1.8	0.1	528.11
6263	3.8	2.	0.1	573.65
6264	3.8	2.2	0.1	612.39
6265	3.8	2.4	0.1	643.47
6266	3.8	2.6	0.1	666.2
6267	3.8	2.8	0.1	680.04
6268	3.8	3.	0.1	684.69
6269	3.8	3.2	0.1	680.04
6270	3.8	3.4	0.1	666.2
6271	3.8	3.6	0.1	643.47
6272	3.8	3.8	0.1	612.39
6273	3.8	4.	0.1	573.65
6274	3.8	4.2	0.1	528.11
6275	3.8	4.4	0.1	476.78
6276	3.8	4.6	0.1	420.74
6277	3.8	4.8	0.1	361.14
6278	3.8	5.	0.1	299.13
6279	3.8	5.2	0.1	235.79
6280	3.8	5.4	0.1	172.12
6281	3.8	5.6	0.1	108.73
6282	3.8	5.8	0.1	45.555
6283	4.	0.2	0.1	41.244
6284	4.	0.4	0.1	97.175
6285	4.	0.6	0.1	153.9
6286	4.	0.8	0.1	211.41
6287	4.	1.	0.1	269.15
6288	4.	1.2	0.1	326.18
6289	4.	1.4	0.1	381.44
6290	4.	1.6	0.1	433.8
6291	4.	1.8	0.1	482.09
6292	4.	2.	0.1	525.19
6293	4.	2.2	0.1	562.05
6294	4.	2.4	0.1	591.75
6295	4.	2.6	0.1	613.52
6296	4.	2.8	0.1	626.82
6297	4.	3.	0.1	631.29
6298	4.	3.2	0.1	626.82
6299	4.	3.4	0.1	613.52
6300	4.	3.6	0.1	591.75
6301	4.	3.8	0.1	562.05
6302	4.	4.	0.1	525.19
6303	4.	4.2	0.1	482.09
6304	4.	4.4	0.1	433.8
6305	4.	4.6	0.1	381.44
6306	4.	4.8	0.1	326.18
6307	4.	5.	0.1	269.15
6308	4.	5.2	0.1	211.41
6309	4.	5.4	0.1	153.9
6310	4.	5.6	0.1	97.175
6311	4.	5.8	0.1	41.244
6312	4.2	0.2	0.1	36.428
6313	4.2	0.4	0.1	85.302
6314	4.2	0.6	0.1	135.62
6315	4.2	0.8	0.1	187.35
6316	4.2	1.	0.1	239.95
6317	4.2	1.2	0.1	292.53
6318	4.2	1.4	0.1	344.02
6319	4.2	1.6	0.1	393.29
6320	4.2	1.8	0.1	439.11
6321	4.2	2.	0.1	480.3
6322	4.2	2.2	0.1	515.74
6323	4.2	2.4	0.1	544.43
6324	4.2	2.6	0.1	565.54
6325	4.2	2.8	0.1	578.47
6326	4.2	3.	0.1	582.82
6327	4.2	3.2	0.1	578.47
6328	4.2	3.4	0.1	565.54
6329	4.2	3.6	0.1	544.43
6330	4.2	3.8	0.1	515.74
6331	4.2	4.	0.1	480.3
6332	4.2	4.2	0.1	439.11
6333	4.2	4.4	0.1	393.29
6334	4.2	4.6	0.1	344.02
6335	4.2	4.8	0.1	292.53
6336	4.2	5.	0.1	239.95
6337	4.2	5.2	0.1	187.35
6338	4.2	5.4	0.1	135.62
6339	4.2	5.6	0.1	85.302
6340	4.2	5.8	0.1	36.428
6341	4.4	0.2	0.1	31.1
6342	4.4	0.4	0.1	72.989
6343	4.4	0.6	0.1	117.08
6344	4.4	0.8	0.1	163.32
6345	4.4	1.	0.1	211.18
6346	4.4	1.2	0.1	259.79
6347	4.4	1.4	0.1	308.07
6348	4.4	1.6	0.1	354.81
6349	4.4	1.8	0.1	398.74
6350	4.4	2.	0.1	438.57
6351	4.4	2.2	0.1	473.08
6352	4.4	2.4	0.1	501.17
6353	4.4	2.6	0.1	521.94
6354	4.4	2.8	0.1	534.68
6355	4.4	3.	0.1	538.98
6356	4.4	3.2	0.1	534.68
6357	4.4	3.4	0.1	521.94
6358	4.4	3.6	0.1	501.17
6359	4.4	3.8	0.1	473.08
6360	4.4	4.	0.1	438.57
6361	4.4	4.2	0.1	398.74
6362	4.4	4.4	0.1	354.81
6363	4.4	4.6	0.1	308.07
6364	4.4	4.8	0.1	259.79
6365	4.4	5.	0.1	211.18
6366	4.4	5.2	0.1	163.32
6367	4.4	5.4	0.1	117.08
6368	4.4	5.6	0.1	72.989
6369	4.4	5.8	0.1	31.1
6370	4.6	0.2	0.1	25.239
6371	4.6	0.4	0.1	60.101
6372	4.6	0.6	0.1	98.046
6373	4.6	0.8	0.1	139.01
6374	4.6	1.	0.1	182.49
6375	4.6	1.2	0.1	227.57
6376	4.6	1.4	0.1	273.15
6377	4.6	1.6	0.1	317.94
6378	4.6	1.8	0.1	360.56
6379	4.6	2.	0.1	399.59
6380	4.6	2.2	0.1	433.69
6381	4.6	2.4	0.1	461.63
6382	4.6	2.6	0.1	482.38
6383	4.6	2.8	0.1	495.15
6384	4.6	3.	0.1	499.46
6385	4.6	3.2	0.1	495.15
6386	4.6	3.4	0.1	482.38
6387	4.6	3.6	0.1	461.63
6388	4.6	3.8	0.1	433.69
6389	4.6	4.	0.1	399.59
6390	4.6	4.2	0.1	360.56
6391	4.6	4.4	0.1	317.94
6392	4.6	4.6	0.1	273.15
6393	4.6	4.8	0.1	227.57
6394	4.6	5.	0.1	182.49
6395	4.6	5.2	0.1	139.01
6396	4.6	5.4	0.1	98.046
6397	4.6	5.6	0.1	60.101
6398	4.6	5.8	0.1	25.239
6399	4.8	0.2	0.1	18.806
6400	4.8	0.4	0.1	46.49
6401	4.8	0.6	0.1	78.282
6402	4.8	0.8	0.1	114.13
6403	4.8	1.	0.1	153.49
6404	4.8	1.2	0.1	195.45
6405	4.8	1.4	0.1	238.82
6406	4.8	1.6	0.1	282.21
6407	4.8	1.8	0.1	324.11
6408	4.8	2.	0.1	362.94
6409	4.8	2.2	0.1	397.18
6410	4.8	2.4	0.1	425.43
6411	4.8	2.6	0.1	446.51
6412	4.8	2.8	0.1	459.53
6413	4.8	3.	0.1	463.93
6414	4.8	3.2	0.1	459.53
6415	4.8	3.4	0.1	446.51
6416	4.8	3.6	0.1	425.43
6417	4.8	3.8	0.1	397.18
6418	4.8	4.	0.1	362.94
6419	4.8	4.2	0.1	324.11
6420	4.8	4.4	0.1	282.21
6421	4.8	4.6	0.1	238.82
6422	4.8	4.8	0.1	195.45
6423	4.8	5.	0.1	153.49
6424	4.8	5.2	0.1	114.13
6425	4.8	5.4	0.1	78.282
6426	4.8	5.6	0.1	46.49
6427	4.8	5.8	0.1	18.806
6428	5.	0.2	0.1	11.759
6429	5.	0.4	0.1	32.003
6430	5.	0.6	0.1	57.545
6431	5.	0.8	0.1	88.329
6432	5.	1.	0.1	123.79
6433	5.	1.2	0.1	162.96
6434	5.	1.4	0.1	204.57
6435	5.	1.6	0.1	247.12
6436	5.	1.8	0.1	288.9
6437	5.	2.	0.1	328.14
6438	5.	2.2	0.1	363.09
6439	5.	2.4	0.1	392.14
6440	5.	2.6	0.1	413.93
6441	5.	2.8	0.1	427.43
6442	5.	3.	0.1	432.
6443	5.	3.2	0.1	427.43
6444	5.	3.4	0.1	413.93
6445	5.	3.6	0.1	392.14
6446	5.	3.8	0.1	363.09
6447	5.	4.	0.1	328.14
6448	5.	4.2	0.1	288.9
6449	5.	4.4	0.1	247.12
6450	5.	4.6	0.1	204.57
6451	5.	4.8	0.1	162.96
6452	5.	5.	0.1	123.79
6453	5.	5.2	0.1	88.329
6454	5.	5.4	0.1	57.545
6455	5.	5.6	0.1	32.003
6456	5.	5.8	0.1	11.759
6457	5.2	0.2	0.1	4.1652
6458	5.2	0.4	0.1	16.531
6459	5.2	0.6	0.1	35.617
6460	5.2	0.8	0.1	61.302
6461	5.2	1.	0.1	92.971
6462	5.2	1.2	0.1	129.62
6463	5.2	1.4	0.1	169.88
6464	5.2	1.6	0.1	212.09
6465	5.2	1.8	0.1	254.36
6466	5.2	2.	0.1	294.63
6467	5.2	2.2	0.1	330.89
6468	5.2	2.4	0.1	361.26
6469	5.2	2.6	0.1	384.15
6470	5.2	2.8	0.1	398.38
6471	5.2	3.	0.1	403.21
6472	5.2	3.2	0.1	398.38
6473	5.2	3.4	0.1	384.15
6474	5.2	3.6	0.1	361.26
6475	5.2	3.8	0.1	330.89
6476	5.2	4.	0.1	294.63
6477	5.2	4.2	0.1	254.36
6478	5.2	4.4	0.1	212.09
6479	5.2	4.6	0.1	169.88
6480	5.2	4.8	0.1	129.62
6481	5.2	5.	0.1	92.971
6482	5.2	5.2	0.1	61.302
6483	5.2	5.4	0.1	35.617
6484	5.2	5.6	0.1	16.531
6485	5.2	5.8	0.1	4.1652
6486	5.4	0.2	0.1	8.5499e-002
6487	5.4	0.4	0.1	1.6977
6488	5.4	0.6	0.1	12.565
6489	5.4	0.8	0.1	32.816
6490	5.4	1.	0.1	60.633
6491	5.4	1.2	0.1	94.879
6492	5.4	1.4	0.1	134.1
6493	5.4	1.6	0.1	176.45
6494	5.4	1.8	0.1	219.79
6495	5.4	2.	0.1	261.75
6496	5.4	2.2	0.1	299.95
6497	5.4	2.4	0.1	332.17
6498	5.4	2.6	0.1	356.57
6499	5.4	2.8	0.1	371.77
6500	5.4	3.	0.1	376.94
6501	5.4	3.2	0.1	371.77
6502	5.4	3.4	0.1	356.57
6503	5.4	3.6	0.1	332.17
6504	5.4	3.8	0.1	299.95
6505	5.4	4.	0.1	261.75
6506	5.4	4.2	0.1	219.79
6507	5.4	4.4	0.1	176.45
6508	5.4	4.6	0.1	134.1
6509	5.4	4.8	0.1	94.879
6510	5.4	5.	0.1	60.633
6511	5.4	5.2	0.1	32.816
6512	5.4	5.4	0.1	12.565
6513	5.4	5.6	0.1	1.6977
6514	5.4	5.8	0.1	8.5501e-002
6515	5.6	0.2	0.1	-0.11516
6516	5.6	0.4	0.1	0.17931
6517	5.6	0.6	0.1	0.60159
6518	5.6	0.8	0.1	5.0352
6519	5.6	1.	0.1	26.632
6520	5.6	1.2	0.1	58.197
6521	5.6	1.4	0.1	96.48
6522	5.6	1.6	0.1	139.36
6523	5.6	1.8	0.1	184.34
6524	5.6	2.	0.1	228.66
6525	5.6	2.2	0.1	269.45
6526	5.6	2.4	0.1	304.09
6527	5.6	2.6	0.1	330.39
6528	5.6	2.8	0.1	346.8
6529	5.6	3.	0.1	352.37
6530	5.6	3.2	0.1	346.8
6531	5.6	3.4	0.1	330.39
6532	5.6	3.6	0.1	304.09
6533	5.6	3.8	0.1	269.45
6534	5.6	4.	0.1	228.66
6535	5.6	4.2	0.1	184.34
6536	5.6	4.4	0.1	139.36
6537	5.6	4.6	0.1	96.48
6538	5.6	4.8	0.1	58.197
6539	5.6	5.	0.1	26.632
6540	5.6	5.2	0.1	5.0352
6541	5.6	5.4	0.1	0.60159
6542	5.6	5.6	0.1	0.17931
6543	5.6	5.8	0.1	-0.11516
6544	5.8	0.2	0.1	-0.18471
6545	5.8	0.4	0.1	0.11295
6546	5.8	0.6	0.1	0.18973
6547	5.8	0.8	0.1	0.60391
6548	5.8	1.	0.1	2.2757
6549	5.8	1.2	0.1	19.851
6550	5.8	1.4	0.1	56.213
6551	5.8	1.6	0.1	99.723
6552	5.8	1.8	0.1	146.88
6553	5.8	2.	0.1	194.25
6554	5.8	2.2	0.1	238.34
6555	5.8	2.4	0.1	275.95
6556	5.8	2.6	0.1	304.52
6557	5.8	2.8	0.1	322.32
6558	5.8	3.	0.1	328.36
6559	5.8	3.2	0.1	322.32
6560	5.8	3.4	0.1	304.52
6561	5.8	3.6	0.1	275.95
6562	5.8	3.8	0.1	238.34
6563	5.8	4.	0.1	194.25
6564	5.8	4.2	0.1	146.88
6565	5.8	4.4	0.1	99.723
6566	5.8	4.6	0.1	56.213
6567	5.8	4.8	0.1	19.851
6568	5.8	5.	0.1	2.2757
6569	5.8	5.2	0.1	0.60391
6570	5.8	5.4	0.1	0.18973
6571	5.8	5.6	0.1	0.11295
6572	5.8	5.8	0.1	-0.18471
6573	6.	0.2	0.1	-0.25279
6574	6.	0.4	0.1	0.11093
6575	6.	0.6	0.1	0.10342
6576	6.	0.8	0.1	0.34675
6577	6.	1.	0.1	0.75413
6578	6.	1.2	0.1	2.0177
6579	6.	1.4	0.1	14.819
6580	6.	1.6	0.1	56.301
6581	6.	1.8	0.1	105.85
6582	6.	2.	0.1	157.01
6583	6.	2.2	0.1	205.16
6584	6.	2.4	0.1	246.3
6585	6.	2.6	0.1	277.44
6586	6.	2.8	0.1	296.71
6587	6.	3.	0.1	303.22
6588	6.	3.2	0.1	296.71
6589	6.	3.4	0.1	277.44
6590	6.	3.6	0.1	246.3
6591	6.	3.8	0.1	205.16
6592	6.	4.	0.1	157.01
6593	6.	4.2	0.1	105.85
6594	6.	4.4	0.1	56.301
6595	6.	4.6	0.1	14.819
6596	6.	4.8	0.1	2.0177
6597	6.	5.	0.1	0.75413
6598	6.	5.2	0.1	0.34676
6599	6.	5.4	0.1	0.10342
6600	6.	5.6	0.1	0.11093
6601	6.	5.8	0.1	-0.25279
6602	6.2	0.2	0.1	-0.34085
6603	6.2	0.4	0.1	0.1191
6604	6.2	0.6	0.1	7.0297e-002
6605	6.2	0.8	0.1	0.2836
6606	6.2	1.	0.1	0.54043
6607	6.2	1.2	0.1	1.0058
6608	6.2	1.4	0.1	2.2373
6609	6.2	1.6	0.1	12.64
6610	6.2	1.8	0.1	59.392
6611	6.2	2.	0.1	114.86
6612	6.2	2.2	0.1	167.93
6613	6.2	2.4	0.1	213.15
6614	6.2	2.6	0.1	246.95
6615	6.2	2.8	0.1	267.6
6616	6.2	3.	0.1	274.52
6617	6.2	3.2	0.1	267.6
6618	6.2	3.4	0.1	246.95
6619	6.2	3.6	0.1	213.15
6620	6.2	3.8	0.1	167.93
6621	6.2	4.	0.1	114.86
6622	6.2	4.2	0.1	59.393
6623	6.2	4.4	0.1	12.64
6624	6.2	4.6	0.1	2.2374
6625	6.2	4.8	0.1	1.0058
6626	6.2	5.	0.1	0.54044
6627	6.2	5.2	0.1	0.2836
6628	6.2	5.4	0.1	7.0299e-002
6629	6.2	5.6	0.1	0.11911
6630	6.2	5.8	0.1	-0.34085
6631	6.4	0.2	0.1	-0.45722
6632	6.4	0.4	0.1	0.12268
6633	6.4	0.6	0.1	5.83e-002
6634	6.4	0.8	0.1	0.27424
6635	6.4	1.	0.1	0.48837
6636	6.4	1.2	0.1	0.80219
6637	6.4	1.4	0.1	1.3293
6638	6.4	1.6	0.1	2.6496
6639	6.4	1.8	0.1	12.727
6640	6.4	2.	0.1	65.151
6641	6.4	2.2	0.1	123.89
6642	6.4	2.4	0.1	173.66
6643	6.4	2.6	0.1	209.94
6644	6.4	2.8	0.1	231.47
6645	6.4	3.	0.1	238.55
6646	6.4	3.2	0.1	231.47
6647	6.4	3.4	0.1	209.94
6648	6.4	3.6	0.1	173.66
6649	6.4	3.8	0.1	123.89
6650	6.4	4.	0.1	65.151
6651	6.4	4.2	0.1	12.727
6652	6.4	4.4	0.1	2.6496
6653	6.4	4.6	0.1	1.3293
6654	6.4	4.8	0.1	0.80219
6655	6.4	5.	0.1	0.48838
6656	6.4	5.2	0.1	0.27424
6657	6.4	5.4	0.1	5.8302e-002
6658	6.4	5.6	0.1	0.12268
6659	6.4	5.8	0.1	-0.45722
6660	6.6	0.2	0.1	-0.59415
6661	6.6	0.4	0.1	0.11907
6662	6.6	0.6	0.1	6.6116e-002
6663	6.6	0.8	0.1	0.29596
6664	6.6	1.	0.1	0.49682
6665	6.6	1.2	0.1	0.75956
6666	6.6	1.4	0.1	1.125
6667	6.6	1.6	0.1	1.7356
6668	6.6	1.8	0.1	3.1645
6669	6.6	2.	0.1	13.776
6670	6.6	2.2	0.1	69.523
6671	6.6	2.4	0.1	123.89
6672	6.6	2.6	0.1	161.82
6673	6.6	2.8	0.1	183.11
6674	6.6	3.	0.1	189.84
6675	6.6	3.2	0.1	183.11
6676	6.6	3.4	0.1	161.82
6677	6.6	3.6	0.1	123.89
6678	6.6	3.8	0.1	69.523
6679	6.6	4.	0.1	13.776
6680	6.6	4.2	0.1	3.1645
6681	6.6	4.4	0.1	1.7357
6682	6.6	4.6	0.1	1.125
6683	6.6	4.8	0.1	0.75956
6684	6.6	5.	0.1	0.49682
6685	6.6	5.2	0.1	0.29596
6686	6.6	5.4	0.1	6.6117e-002
6687	6.6	5.6	0.1	0.11907
6688	6.6	5.8	0.1	-0.59415
6689	6.8	0.2	0.1	-0.72487
6690	6.8	0.4	0.1	0.10821
6691	6.8	0.6	0.1	9.295e-002
6692	6.8	0.8	0.1	0.33073
6693	6.8	1.	0.1	0.52656
6694	6.8	1.2	0.1	0.77604
6695	6.8	1.4	0.1	1.0612
6696	6.8	1.6	0.1	1.4095
6697	6.8	1.8	0.1	2.0627
6698	6.8	2.	0.1	3.2645
6699	6.8	2.2	0.1	11.783
6700	6.8	2.4	0.1	58.649
6701	6.8	2.6	0.1	96.013
6702	6.8	2.8	0.1	114.85
6703	6.8	3.	0.1	120.32
6704	6.8	3.2	0.1	114.85
6705	6.8	3.4	0.1	96.013
6706	6.8	3.6	0.1	58.649
6707	6.8	3.8	0.1	11.783
6708	6.8	4.	0.1	3.2645
6709	6.8	4.2	0.1	2.0627
6710	6.8	4.4	0.1	1.4095
6711	6.8	4.6	0.1	1.0612
6712	6.8	4.8	0.1	0.77604
6713	6.8	5.	0.1	0.52656
6714	6.8	5.2	0.1	0.33073
6715	6.8	5.4	0.1	9.2952e-002
6716	6.8	5.6	0.1	0.10821
6717	6.8	5.8	0.1	-0.72487
6718	7.	0.2	0.1	-0.70259
6719	7.	0.4	0.1	0.17337
6720	7.	0.6	0.1	0.20852
6721	7.	0.8	0.1	0.43158
6722	7.	1.	0.1	0.62043
6723	7.	1.2	0.1	0.83219
6724	7.	1.4	0.1	1.2107
6725	7.	1.6	0.1	1.9236
6726	7.	1.8	0.1	1.9952
6727	7.	2.	0.1	2.6936
6728	7.	2.2	0.1	2.98
6729	7.	2.4	0.1	2.6397
6730	7.	2.6	0.1	6.4287
6731	7.	2.8	0.1	16.062
6732	7.	3.	0.1	18.848
6733	7.	3.2	0.1	16.063
6734	7.	3.4	0.1	6.4287
6735	7.	3.6	0.1	2.6398
6736	7.	3.8	0.1	2.98
6737	7.	4.	0.1	2.6936
6738	7.	4.2	0.1	1.9952
6739	7.	4.4	0.1	1.9236
6740	7.	4.6	0.1	1.2107
6741	7.	4.8	0.1	0.83219
6742	7.	5.	0.1	0.62043
6743	7.	5.2	0.1	0.43158
6744	7.	5.4	0.1	0.20852
6745	7.	5.6	0.1	0.17338
6746	7.	5.8	0.1	-0.70259
6747	7.2	0.2	0.1	-0.38708
6748	7.2	0.4	0.1	0.31056
6749	7.2	0.6	0.1	0.33123
6750	7.2	0.8	0.1	0.42147
6751	7.2	1.	0.1	0.48557
6752	7.2	1.2	0.1	0.83261
6753	7.2	1.4	0.1	1.307
6754	7.2	1.6	0.1	-6.9918e-002
6755	7.2	1.8	0.1	1.6936
6756	7.2	2.	0.1	-0.87165
6757	7.2	2.2	0.1	-2.35
6758	7.2	2.4	0.1	0.18715
6759	7.2	2.6	0.1	-0.59755
6760	7.2	2.8	0.1	-0.56074
6761	7.2	3.	0.1	-0.46198
6762	7.2	3.2	0.1	-0.56074
6763	7.2	3.4	0.1	-0.59755
6764	7.2	3.6	0.1	0.18715
6765	7.2	3.8	0.1	-2.35
6766	7.2	4.	0.1	-0.87165
6767	7.2	4.2	0.1	1.6936
6768	7.2	4.4	0.1	-6.9917e-002
6769	7.2	4.6	0.1	1.307
6770	7.2	4.8	0.1	0.83261
6771	7.2	5.	0.1	0.48557
6772	7.2	5.2	0.1	0.42147
6773	7.2	5.4	0.1	0.33123
6774	7.2	5.6	0.1	0.31056
6775	7.2	5.8	0.1	-0.38707
6776	7.4	0.2	0.1	1.6141
6777	7.4	0.4	0.1	1.5717
6778	7.4	0.6	0.1	1.2673
6779	7.4	0.8	0.1	1.0757
6780	7.4	1.	0.1	1.2629
6781	7.4	1.2	0.1	1.2419
6782	7.4	1.4	0.1	1.1651
6783	7.4	1.6	0.1	9.731
6784	7.4	1.8	0.1	4.7121
6785	7.4	2.	0.1	14.292
6786	7.4	2.2	0.1	9.5365
6787	7.4	2.4	0.1	-5.5067
6788	7.4	2.6	0.1	5.1802e-002
6789	7.4	2.8	0.1	-0.48379
6790	7.4	3.	0.1	-0.43981
6791	7.4	3.2	0.1	-0.48379
6792	7.4	3.4	0.1	5.1803e-002
6793	7.4	3.6	0.1	-5.5067
6794	7.4	3.8	0.1	9.5365
6795	7.4	4.	0.1	14.292
6796	7.4	4.2	0.1	4.7121
6797	7.4	4.4	0.1	9.731
6798	7.4	4.6	0.1	1.1651
6799	7.4	4.8	0.1	1.2419
6800	7.4	5.	0.1	1.2629
6801	7.4	5.2	0.1	1.0757
6802	7.4	5.4	0.1	1.2674
6803	7.4	5.6	0.1	1.5717
6804	7.4	5.8	0.1	1.6141
6805	7.6	0.2	0.1	4.5021
6806	7.6	0.4	0.1	1.6468
6807	7.6	0.6	0.1	0.17647
6808	7.6	0.8	0.1	-0.81965
6809	7.6	1.	0.1	-1.6813
6810	7.6	1.2	0.1	-2.02
6811	7.6	1.4	0.1	-2.1886
6812	7.6	1.6	0.1	-9.8373
6813	7.6	1.8	0.1	-15.467
6814	7.6	2.	0.1	-67.697
6815	7.6	2.2	0.1	-30.35
6816	7.6	2.4	0.1	10.208
6817	7.6	2.6	0.1	-1.365
6818	7.6	2.8	0.1	0.14058
6819	7.6	3.	0.1	-7.7286e-002
6820	7.6	3.2	0.1	0.14058
6821	7.6	3.4	0.1	-1.365
6822	7.6	3.6	0.1	10.208
6823	7.6	3.8	0.1	-30.35
6824	7.6	4.	0.1	-67.697
6825	7.6	4.2	0.1	-15.467
6826	7.6	4.4	0.1	-9.8373
6827	7.6	4.6	0.1	-2.1886
6828	7.6	4.8	0.1	-2.02
6829	7.6	5.	0.1	-1.6813
6830	7.6	5.2	0.1	-0.81965
6831	7.6	5.4	0.1	0.17648
6832	7.6	5.6	0.1	1.6468
6833	7.6	5.8	0.1	4.5021
6834	7.8	0.2	0.1	23.264
6835	7.8	0.4	0.1	10.972
6836	7.8	0.6	0.1	8.9777
6837	7.8	0.8	0.1	7.9774
6838	7.8	1.	0.1	9.4703
6839	7.8	1.2	0.1	7.0877
6840	7.8	1.4	0.1	23.756
6841	7.8	1.6	0.1	-19.041
6842	7.8	1.8	0.1	129.18
6843	7.8	2.	0.1	548.55
6844	7.8	2.2	0.1	-24.841
6845	7.8	2.4	0.1	12.916
6846	7.8	2.6	0.1	-5.8471
6847	7.8	2.8	0.1	2.1297
6848	7.8	3.	0.1	-1.0592
6849	7.8	3.2	0.1	2.1297
6850	7.8	3.4	0.1	-5.8471
6851	7.8	3.6	0.1	12.916
6852	7.8	3.8	0.1	-24.841
6853	7.8	4.	0.1	548.55
6854	7.8	4.2	0.1	129.18
6855	7.8	4.4	0.1	-19.041
6856	7.8	4.6	0.1	23.756
6857	7.8	4.8	0.1	7.0877
6858	7.8	5.	0.1	9.4703
6859	7.8	5.2	0.1	7.9774
6860	7.8	5.4	0.1	8.9777
6861	7.8	5.6	0.1	10.972
6862	7.8	5.8	0.1	23.264
6863	8.1667	3.8	0.1	-112.97
6864	8.1667	3.6	0.1	31.965
6865	8.1667	3.4	0.1	-3.6681
6866	8.1667	3.2	0.1	2.6057
6867	8.1667	3.	0.1	0.67796
6868	8.1667	2.8	0.1	2.6057
6869	8.1667	2.6	0.1	-3.6681
6870	8.1667	2.4	0.1	31.966
6871	8.1667	2.2	0.1	-112.97
6872	8.	3.8	0.1	-173.95
6873	8.	3.6	0.1	30.026
6874	8.	3.4	0.1	-3.7065
6875	8.	3.2	0.1	2.5747
6876	8.	3.	0.1	0.74864
6877	8.	2.8	0.1	2.5747
6878	8.	2.6	0.1	-3.7065
6879	8.	2.4	0.1	30.026
6880	8.	2.2	0.1	-173.95
6881	8.1667	5.8	0.1	-7.3304
6882	8.1667	5.6	0.1	-12.066
6883	8.1667	5.4	0.1	-12.078
6884	8.1667	5.2	0.1	-14.158
6885	8.1667	5.	0.1	-15.309
6886	8.1667	4.8	0.1	-23.468
6887	8.1667	4.6	0.1	-17.967
6888	8.1667	4.4	0.1	-89.133
6889	8.1667	4.2	0.1	93.731
6890	8.1667	4.	0.1	1134.8
6891	8.	4.	0.1	847.52
6892	8.	4.2	0.1	99.347
6893	8.	4.4	0.1	-92.112
6894	8.	4.6	0.1	-19.23
6895	8.	4.8	0.1	-25.912
6896	8.	5.	0.1	-17.21
6897	8.	5.2	0.1	-16.219
6898	8.	5.4	0.1	-14.077
6899	8.	5.6	0.1	-14.135
6900	8.	5.8	0.1	-9.2561
6901	8.1667	0.2	0.1	-7.3304
6902	8.1667	0.4	0.1	-12.066
6903	8.1667	0.6	0.1	-12.078
6904	8.1667	0.8	0.1	-14.158
6905	8.1667	1.	0.1	-15.309
6906	8.1667	1.2	0.1	-23.468
6907	8.1667	1.4	0.1	-17.967
6908	8.1667	1.6	0.1	-89.133
6909	8.1667	1.8	0.1	93.731
6910	8.1667	2.	0.1	1134.8
6911	8.	2.	0.1	847.52
6912	8.	1.8	0.1	99.347
6913	8.	1.6	0.1	-92.112
6914	8.	1.4	0.1	-19.23
6915	8.	1.2	0.1	-25.912
6916	8.	1.	0.1	-17.21
6917	8.	0.8	0.1	-16.219
6918	8.	0.6	0.1	-14.077
6919	8.	0.4	0.1	-14.135
6920	8.	0.2	0.1	-9.2561
6921	8.1667	6.	0.1	48.925
6922	8.3646	6.	0.1	5.8802
6923	8.5625	6.	0.1	-2.0595
6924	8.7604	6.	0.1	-0.19501
6925	8.9583	6.	0.1	2.178e-004
6926	9.1563	6.	0.1	0.46077
6927	9.3542	6.	0.1	0.64122
6928	9.5521	6.	0.1	0.7142
6929	9.75	6.	0.1	0.69014
6930	9.9479	6.	0.1	0.61511
6931	10.146	6.	0.1	0.51461
6932	10.344	6.	0.1	0.4074
6933	10.542	6.	0.1	0.30436
6934	10.74	6.	0.1	0.21149
6935	10.937	6.	0.1	0.13146
6936	11.135	6.	0.1	6.4973e-002
6937	11.333	6.	0.1	1.148e-002
6938	11.531	6.	0.1	-3.0246e-002
6939	11.729	6.	0.1	-6.1689e-002
6940	11.927	6.	0.1	-8.4355e-002
6941	12.125	6.	0.1	-9.9751e-002
6942	12.323	6.	0.1	-0.10928
6943	12.521	6.	0.1	-0.11415
6944	12.719	6.	0.1	-0.11533
6945	12.917	6.	0.1	-0.11368
6946	13.115	6.	0.1	-0.10993
6947	13.313	6.	0.1	-0.10465
6948	13.51	6.	0.1	-9.8242e-002
6949	13.708	6.	0.1	-9.1083e-002
6950	13.906	6.	0.1	-8.3484e-002
6951	14.104	6.	0.1	-7.5664e-002
6952	14.302	6.	0.1	-6.775e-002
6953	14.5	6.	0.1	-5.987e-002
6954	14.698	6.	0.1	-5.2141e-002
6955	14.896	6.	0.1	-4.4626e-002
6956	15.094	6.	0.1	-3.7332e-002
6957	15.292	6.	0.1	-3.0283e-002
6958	15.49	6.	0.1	-2.3517e-002
6959	15.688	6.	0.1	-1.7035e-002
6960	15.885	6.	0.1	-1.0793e-002
6961	16.083	6.	0.1	-4.7843e-003
6962	16.281	6.	0.1	9.9185e-004
6963	16.479	6.	0.1	6.5509e-003
6964	16.677	6.	0.1	1.1952e-002
6965	16.875	6.	0.1	1.7217e-002
6966	17.073	6.	0.1	2.2353e-002
6967	17.271	6.	0.1	2.7392e-002
6968	17.469	6.	0.1	3.2387e-002
6969	17.667	6.	0.1	3.737e-002
6970	17.865	6.	0.1	4.2352e-002
6971	18.063	6.	0.1	4.7368e-002
6972	18.26	6.	0.1	5.2475e-002
6973	18.458	6.	0.1	5.7705e-002
6974	18.656	6.	0.1	6.3078e-002
6975	18.854	6.	0.1	6.8635e-002
6976	19.052	6.	0.1	7.4433e-002
6977	19.25	6.	0.1	8.0513e-002
6978	19.448	6.	0.1	8.6907e-002
6979	19.646	6.	0.1	9.3661e-002
6980	19.844	6.	0.1	0.10085
6981	20.042	6.	0.1	0.10852
6982	20.24	6.	0.1	0.11672
6983	20.438	6.	0.1	0.12553
6984	20.635	6.	0.1	0.13504
6985	20.833	6.	0.1	0.14533
6986	21.031	6.	0.1	0.15649
6987	21.229	6.	0.1	0.16865
6988	21.427	6.	0.1	0.18195
6989	21.625	6.	0.1	0.19658
6990	21.823	6.	0.1	0.21272
6991	22.021	6.	0.1	0.23067
6992	22.219	6.	0.1	0.25078
6993	22.417	6.	0.1	0.27349
6994	22.615	6.	0.1	0.29953
6995	22.813	6.	0.1	0.3295
6996	23.01	6.	0.1	0.366
6997	23.208	6.	0.1	0.40572
6998	23.406	6.	0.1	0.47771
6999	23.604	6.	0.1	0.50511
7000	23.802	6.	0.1	0.88286
7001	24.	6.	0.1	-1.1858
7002	24.	5.8	0.1	-2.0271
7003	24.	5.6	0.1	-1.9556
7004	24.	5.4	0.1	-2.1643
7005	24.	5.2	0.1	-2.1917
7006	24.	5.	0.1	-2.2273
7007	24.	4.8	0.1	-2.2469
7008	24.	4.6	0.1	-2.2626
7009	24.	4.4	0.1	-2.2742
7010	24.	4.2	0.1	-2.2831
7011	24.	4.	0.1	-2.2899
7012	24.	3.8	0.1	-2.2951
7013	24.	3.6	0.1	-2.2988
7014	24.	3.4	0.1	-2.3014
7015	24.	3.2	0.1	-2.3029
7016	24.	3.	0.1	-2.3034
7017	24.	2.8	0.1	-2.3029
7018	24.	2.6	0.1	-2.3014
7019	24.	2.4	0.1	-2.2988
7020	24.	2.2	0.1	-2.2951
7021	24.	2.	0.1	-2.2899
7022	24.	1.8	0.1	-2.2831
7023	24.	1.6	0.1	-2.2742
7024	24.	1.4	0.1	-2.2626
7025	24.	1.2	0.1	-2.2469
7026	24.	1.	0.1	-2.2273
7027	24.	0.8	0.1	-2.1917
7028	24.	0.6	0.1	-2.1643
7029	24.	0.4	0.1	-1.9556
7030	24.	0.2	0.1	-2.0271
7031	1.7484e-015	0.2	0.1	1383.1
7032	3.4968e-015	0.4	0.1	2455.8
7033	5.2451e-015	0.6	0.1	2948.6
7034	6.9935e-015	0.8	0.1	3241.7
7035	8.7419e-015	1.	0.1	3437.2
7036	1.049e-014	1.2	0.1	3575.8
7037	1.2239e-014	1.4	0.1	3677.4
7038	1.3987e-014	1.6	0.1	3753.3
7039	1.5735e-014	1.8	0.1	3810.7
7040	1.7484e-014	2.	0.1	3854.
7041	1.9232e-014	2.2	0.1	3886.3
7042	2.0981e-014	2.4	0.1	3909.7
7043	2.2729e-014	2.6	0.1	3925.4
7044	2.4477e-014	2.8	0.1	3934.5
7045	2.6226e-014	3.	0.1	3937.4
7046	2.7974e-014	3.2	0.1	3934.5
7047	2.9723e-014	3.4	0.1	3925.4
7048	3.1471e-014	3.6	0.1	3909.7
7049	3.3219e-014	3.8	0.1	3886.3
7050	3.4968e-014	4.	0.1	3854.
7051	3.6716e-014	4.2	0.1	3810.7
7052	3.8464e-014	4.4	0.1	3753.3
7053	4.0213e-014	4.6	0.1	3677.4
7054	4.1961e-014	4.8	0.1	3575.8
7055	4.371e-014	5.	0.1	3437.2
7056	4.5458e-014	5.2	0.1	3241.7
7057	4.7206e-014	5.4	0.1	2948.6
7058	4.8955e-014	5.6	0.1	2455.8
7059	5.0703e-014	5.8	0.1	1383.1
7060	24.	0.	0.1	-1.1858
7061	23.802	0.	0.1	0.88286
7062	23.604	0.	0.1	0.50511
7063	23.406	0.	0.1	0.47771
7064	23.208	0.	0.1	0.40572
7065	23.01	0.	0.1	0.36601
7066	22.813	0.	0.1	0.3295
7067	22.615	0.	0.1	0.29953
7068	22.417	0.	0.1	0.27349
7069	22.219	0.	0.1	0.25079
7070	22.021	0.	0.1	0.23067
7071	21.823	0.	0.1	0.21272
7072	21.625	0.	0.1	0.19658
7073	21.427	0.	0.1	0.18196
7074	21.229	0.	0.1	0.16865
7075	21.031	0.	0.1	0.15649
7076	20.833	0.	0.1	0.14533
7077	20.635	0.	0.1	0.13504
7078	20.438	0.	0.1	0.12554
7079	20.24	0.	0.1	0.11672
7080	20.042	0.	0.1	0.10852
7081	19.844	0.	0.1	0.10085
7082	19.646	0.	0.1	9.3663e-002
7083	19.448	0.	0.1	8.6908e-002
7084	19.25	0.	0.1	8.0513e-002
7085	19.052	0.	0.1	7.4432e-002
7086	18.854	0.	0.1	6.8635e-002
7087	18.656	0.	0.1	6.3078e-002
7088	18.458	0.	0.1	5.7704e-002
7089	18.26	0.	0.1	5.2475e-002
7090	18.063	0.	0.1	4.7373e-002
7091	17.865	0.	0.1	4.2356e-002
7092	17.667	0.	0.1	3.7369e-002
7093	17.469	0.	0.1	3.2389e-002
7094	17.271	0.	0.1	2.7391e-002
7095	17.073	0.	0.1	2.2356e-002
7096	16.875	0.	0.1	1.7218e-002
7097	16.677	0.	0.1	1.1953e-002
7098	16.479	0.	0.1	6.5517e-003
7099	16.281	0.	0.1	9.9274e-004
7100	16.083	0.	0.1	-4.7846e-003
7101	15.885	0.	0.1	-1.0792e-002
7102	15.688	0.	0.1	-1.7034e-002
7103	15.49	0.	0.1	-2.3517e-002
7104	15.292	0.	0.1	-3.0284e-002
7105	15.094	0.	0.1	-3.7331e-002
7106	14.896	0.	0.1	-4.4627e-002
7107	14.698	0.	0.1	-5.214e-002
7108	14.5	0.	0.1	-5.9869e-002
7109	14.302	0.	0.1	-6.775e-002
7110	14.104	0.	0.1	-7.5664e-002
7111	13.906	0.	0.1	-8.3482e-002
7112	13.708	0.	0.1	-9.1083e-002
7113	13.51	0.	0.1	-9.8242e-002
7114	13.313	0.	0.1	-0.10465
7115	13.115	0.	0.1	-0.10993
7116	12.917	0.	0.1	-0.11368
7117	12.719	0.	0.1	-0.11533
7118	12.521	0.	0.1	-0.11415
7119	12.323	0.	0.1	-0.10928
7120	12.125	0.	0.1	-9.975e-002
7121	11.927	0.	0.1	-8.4355e-002
7122	11.729	0.	0.1	-6.1693e-002
7123	11.531	0.	0.1	-3.0241e-002
7124	11.333	0.	0.1	1.1462e-002
7125	11.135	0.	0.1	6.5048e-002
7126	10.937	0.	0.1	0.13147
7127	10.74	0.	0.1	0.21142
7128	10.542	0.	0.1	0.30436
7129	10.344	0.	0.1	0.40747
7130	10.146	0.	0.1	0.51463
7131	9.9479	0.	0.1	0.61505
7132	9.75	0.	0.1	0.69015
7133	9.5521	0.	0.1	0.71419
7134	9.3542	0.	0.1	0.64122
7135	9.1563	0.	0.1	0.46077
7136	8.9583	0.	0.1	2.163e-004
7137	8.7604	0.	0.1	-0.19501
7138	8.5625	0.	0.1	-2.0595
7139	8.3646	0.	0.1	5.8802
7140	8.1667	0.	0.1	48.925
7141	8.	0.	0.1	55.716
7142	7.8	1.1829e-030	0.1	7.1789
7143	7.6	1.1525e-030	0.1	-1.9056
7144	7.4	1.1222e-030	0.1	0.2436
7145	7.2	1.0919e-030	0.1	0.39798
7146	7.	1.0615e-030	0.1	0.88233
7147	6.8	1.0312e-030	0.1	1.0345
7148	6.6	1.0009e-030	0.1	1.0592
7149	6.4	9.7055e-031	0.1	0.96576
7150	6.2	9.4022e-031	0.1	0.80804
7151	6.	9.0989e-031	0.1	0.61591
7152	5.8	8.7956e-031	0.1	0.41213
7153	5.6	8.4923e-031	0.1	0.21188
7154	5.4	8.189e-031	0.1	3.2552e-002
7155	5.2	7.8857e-031	0.1	-5.8222e-004
7156	5.	7.5824e-031	0.1	0.69458
7157	4.8	7.2791e-031	0.1	1.4743
7158	4.6	6.9758e-031	0.1	2.1143
7159	4.4	6.6725e-031	0.1	2.5884
7160	4.2	6.3692e-031	0.1	2.8753
7161	4.	6.0659e-031	0.1	2.9486
7162	3.8	5.7626e-031	0.1	2.7761
7163	3.6	5.4593e-031	0.1	2.3197
7164	3.4	5.156e-031	0.1	1.5397
7165	3.2	4.8527e-031	0.1	0.41775
7166	3.	4.5494e-031	0.1	-0.89504
7167	2.8	4.2461e-031	0.1	-1.7585
7168	2.6	3.9428e-031	0.1	-2.1715
7169	2.4	3.6396e-031	0.1	-2.4801
7170	2.2	3.3363e-031	0.1	-2.7765
7171	2.	3.033e-031	0.1	-3.0875
7172	1.8	2.7297e-031	0.1	-3.4335
7173	1.6	2.4264e-031	0.1	-3.8136
7174	1.4	2.1231e-031	0.1	-4.3025
7175	1.2	1.8198e-031	0.1	-4.7325
7176	1.	1.5165e-031	0.1	-5.7932
7177	0.8	1.2132e-031	0.1	-5.5071
7178	0.6	9.0989e-032	0.1	-9.8049
7179	0.4	6.0659e-032	0.1	-11.245
7180	0.2	3.033e-032	0.1	40.949
7181	0.	0.	0.1	-309.29
7182	3.937e-014	6.	0.1	-309.29
7183	0.2	6.	0.1	40.949
7184	0.4	6.	0.1	-11.245
7185	0.6	6.	0.1	-9.8049
7186	0.8	6.	0.1	-5.5071
7187	1.	6.	0.1	-5.7932
7188	1.2	6.	0.1	-4.7325
7189	1.4	6.	0.1	-4.3025
7190	1.6	6.	0.1	-3.8136
7191	1.8	6.	0.1	-3.4335
7192	2.	6.	0.1	-3.0875
7193	2.2	6.	0.1	-2.7764
7194	2.4	6.	0.1	-2.4801
7195	2.6	6.	0.1	-2.1715
7196	2.8	6.	0.1	-1.7585
7197	3.	6.	0.1	-0.89505
7198	3.2	6.	0.1	0.41774
7199	3.4	6.	0.1	1.5397
7200	3.6	6.	0.1	2.3197
7201	3.8	6.	0.1	2.7761
7202	4.	6.	0.1	2.9486
7203	4.2	6.	0.1	2.8752
7204	4.4	6.	0.1	2.5884
7205	4.6	6.	0.1	2.1143
7206	4.8	6.	0.1	1.4743
7207	5.	6.	0.1	0.69458
7208	5.2	6.	0.1	-5.8151e-004
7209	5.4	6.	0.1	3.2553e-002
7210	5.6	6.	0.1	0.21188
7211	5.8	6.	0.1	0.41213
7212	6.	6.	0.1	0.61591
7213	6.2	6.	0.1	0.80804
7214	6.4	6.	0.1	0.96576
7215	6.6	6.	0.1	1.0592
7216	6.8	6.	0.1	1.0345
7217	7.	6.	0.1	0.88233
7218	7.2	6.	0.1	0.39798
7219	7.4	6.	0.1	0.2436
7220	7.6	6.	0.1	-1.9056
7221	7.8	6.	0.1	7.1789
7222	8.	6.	0.1	55.716
7223	7.8	6.	0.	-7.1789
7224	7.6	6.	0.	1.9056
7225	7.4	6.	0.	-0.2436
7226	7.2	6.	0.	-0.39798
7227	7.	6.	0.	-0.88233
7228	6.8	6.	0.	-1.0345
7229	6.6	6.	0.	-1.0592
7230	6.4	6.	0.	-0.96576
7231	6.2	6.	0.	-0.80804
7232	6.	6.	0.	-0.61591
7233	5.8	6.	0.	-0.41213
7234	5.6	6.	0.	-0.21188
7235	5.4	6.	0.	-3.2553e-002
7236	5.2	6.	0.	5.8157e-004
7237	5.	6.	0.	-0.69458
7238	4.8	6.	0.	-1.4743
7239	4.6	6.	0.	-2.1143
7240	4.4	6.	0.	-2.5884
7241	4.2	6.	0.	-2.8752
7242	4.	6.	0.	-2.9486
7243	3.8	6.	0.	-2.7761
7244	3.6	6.	0.	-2.3197
7245	3.4	6.	0.	-1.5397
7246	3.2	6.	0.	-0.41774
7247	3.	6.	0.	0.89505
7248	2.8	6.	0.	1.7585
7249	2.6	6.	0.	2.1715
7250	2.4	6.	0.	2.4801
7251	2.2	6.	0.	2.7764
7252	2.	6.	0.	3.0875
7253	1.8	6.	0.	3.4335
7254	1.6	6.	0.	3.8136
7255	1.4	6.	0.	4.3025
7256	1.2	6.	0.	4.7325
7257	1.	6.	0.	5.7932
7258	0.8	6.	0.	5.5071
7259	0.6	6.	0.	9.8049
7260	0.4	6.	0.	11.245
7261	0.2	6.	0.	-40.949
7262	8.	6.	0.	-55.716
7263	3.937e-014	6.	0.	309.29
7264	0.2	3.033e-032	0.	-40.949
7265	0.4	6.0659e-032	0.	11.245
7266	0.6	9.0989e-032	0.	9.8049
7267	0.8	1.2132e-031	0.	5.5071
7268	1.	1.5165e-031	0.	5.7932
7269	1.2	1.8198e-031	0.	4.7325
7270	1.4	2.1231e-031	0.	4.3025
7271	1.6	2.4264e-031	0.	3.8136
7272	1.8	2.7297e-031	0.	3.4335
7273	2.	3.033e-031	0.	3.0875
7274	2.2	3.3363e-031	0.	2.7765
7275	2.4	3.6396e-031	0.	2.4801
7276	2.6	3.9428e-031	0.	2.1715
7277	2.8	4.2461e-031	0.	1.7585
7278	3.	4.5494e-031	0.	0.89505
7279	3.2	4.8527e-031	0.	-0.41775
7280	3.4	5.156e-031	0.	-1.5397
7281	3.6	5.4593e-031	0.	-2.3197
7282	3.8	5.7626e-031	0.	-2.7761
7283	4.	6.0659e-031	0.	-2.9486
7284	4.2	6.3692e-031	0.	-2.8753
7285	4.4	6.6725e-031	0.	-2.5884
7286	4.6	6.9758e-031	0.	-2.1143
7287	4.8	7.2791e-031	0.	-1.4743
7288	5.	7.5824e-031	0.	-0.69458
7289	5.2	7.8857e-031	0.	5.8235e-004
7290	5.4	8.189e-031	0.	-3.2552e-002
7291	5.6	8.4923e-031	0.	-0.21188
7292	5.8	8.7956e-031	0.	-0.41213
7293	6.	9.0989e-031	0.	-0.61591
7294	6.2	9.4022e-031	0.	-0.80804
7295	6.4	9.7055e-031	0.	-0.96576
7296	6.6	1.0009e-030	0.	-1.0592
7297	6.8	1.0312e-030	0.	-1.0345
7298	7.	1.0615e-030	0.	-0.88233
7299	7.2	1.0919e-030	0.	-0.39798
7300	7.4	1.1222e-030	0.	-0.2436
7301	7.6	1.1525e-030	0.	1.9056
7302	7.8	1.1829e-030	0.	-7.1789
7303	8.	0.	0.	-55.716
7304	0.	0.	0.	309.29
7305	8.3646	0.	0.	-5.8802
7306	8.5625	0.	0.	2.0595
7307	8.7604	0.	0.	0.19501
7308	8.9583	0.	0.	-2.1569e-004
7309	9.1563	0.	0.	-0.46077
7310	9.3542	0.	0.	-0.64122
7311	9.5521	0.	0.	-0.71419
7312	9.75	0.	0.	-0.69016
7313	9.9479	0.	0.	-0.61502
7314	10.146	0.	0.	-0.51465
7315	10.344	0.	0.	-0.4075
7316	10.542	0.	0.	-0.30436
7317	10.74	0.	0.	-0.2114
7318	10.937	0.	0.	-0.13147
7319	11.135	0.	0.	-6.5078e-002
7320	11.333	0.	0.	-1.1447e-002
7321	11.531	0.	0.	3.0238e-002
7322	11.729	0.	0.	6.1694e-002
7323	11.927	0.	0.	8.4354e-002
7324	12.125	0.	0.	9.9751e-002
7325	12.323	0.	0.	0.10928
7326	12.521	0.	0.	0.11415
7327	12.719	0.	0.	0.11533
7328	12.917	0.	0.	0.11368
7329	13.115	0.	0.	0.10993
7330	13.313	0.	0.	0.10465
7331	13.51	0.	0.	9.8242e-002
7332	13.708	0.	0.	9.1084e-002
7333	13.906	0.	0.	8.3483e-002
7334	14.104	0.	0.	7.5665e-002
7335	14.302	0.	0.	6.775e-002
7336	14.5	0.	0.	5.987e-002
7337	14.698	0.	0.	5.2139e-002
7338	14.896	0.	0.	4.4626e-002
7339	15.094	0.	0.	3.7332e-002
7340	15.292	0.	0.	3.0284e-002
7341	15.49	0.	0.	2.3518e-002
7342	15.688	0.	0.	1.7035e-002
7343	15.885	0.	0.	1.0793e-002
7344	16.083	0.	0.	4.7842e-003
7345	16.281	0.	0.	-9.913e-004
7346	16.479	0.	0.	-6.5512e-003
7347	16.677	0.	0.	-1.1953e-002
7348	16.875	0.	0.	-1.7218e-002
7349	17.073	0.	0.	-2.2353e-002
7350	17.271	0.	0.	-2.7392e-002
7351	17.469	0.	0.	-3.239e-002
7352	17.667	0.	0.	-3.7366e-002
7353	17.865	0.	0.	-4.2355e-002
7354	18.063	0.	0.	-4.7373e-002
7355	18.26	0.	0.	-5.2476e-002
7356	18.458	0.	0.	-5.7703e-002
7357	18.656	0.	0.	-6.3078e-002
7358	18.854	0.	0.	-6.8634e-002
7359	19.052	0.	0.	-7.4432e-002
7360	19.25	0.	0.	-8.0513e-002
7361	19.448	0.	0.	-8.6906e-002
7362	19.646	0.	0.	-9.3663e-002
7363	19.844	0.	0.	-0.10085
7364	20.042	0.	0.	-0.10852
7365	20.24	0.	0.	-0.11672
7366	20.438	0.	0.	-0.12553
7367	20.635	0.	0.	-0.13504
7368	20.833	0.	0.	-0.14533
7369	21.031	0.	0.	-0.15648
7370	21.229	0.	0.	-0.16864
7371	21.427	0.	0.	-0.18196
7372	21.625	0.	0.	-0.19658
7373	21.823	0.	0.	-0.21273
7374	22.021	0.	0.	-0.23067
7375	22.219	0.	0.	-0.25077
7376	22.417	0.	0.	-0.27349
7377	22.615	0.	0.	-0.29953
7378	22.813	0.	0.	-0.3295
7379	23.01	0.	0.	-0.366
7380	23.208	0.	0.	-0.40572
7381	23.406	0.	0.	-0.47771
7382	23.604	0.	0.	-0.50511
7383	23.802	0.	0.	-0.88285
7384	8.1667	0.	0.	-48.925
7385	24.	0.	0.	1.1858
7386	5.0703e-014	5.8	0.	-1383.1
7387	4.8955e-014	5.6	0.	-2455.8
7388	4.7206e-014	5.4	0.	-2948.6
7389	4.5458e-014	5.2	0.	-3241.7
7390	4.371e-014	5.	0.	-3437.2
7391	4.1961e-014	4.8	0.	-3575.8
7392	4.0213e-014	4.6	0.	-3677.4
7393	3.8464e-014	4.4	0.	-3753.3
7394	3.6716e-014	4.2	0.	-3810.7
7395	3.4968e-014	4.	0.	-3854.
7396	3.3219e-014	3.8	0.	-3886.3
7397	3.1471e-014	3.6	0.	-3909.7
7398	2.9723e-014	3.4	0.	-3925.4
7399	2.7974e-014	3.2	0.	-3934.5
7400	2.6226e-014	3.	0.	-3937.4
7401	2.4477e-014	2.8	0.	-3934.5
7402	2.2729e-014	2.6	0.	-3925.4
7403	2.0981e-014	2.4	0.	-3909.7
7404	1.9232e-014	2.2	0.	-3886.3
7405	1.7484e-014	2.	0.	-3854.
7406	1.5735e-014	1.8	0.	-3810.7
7407	1.3987e-014	1.6	0.	-3753.3
7408	1.2239e-014	1.4	0.	-3677.4
7409	1.049e-014	1.2	0.	-3575.8
7410	8.7419e-015	1.	0.	-3437.2
7411	6.9935e-015	0.8	0.	-3241.7
7412	5.2451e-015	0.6	0.	-2948.6
7413	3.4968e-015	0.4	0.	-2455.8
7414	1.7484e-015	0.2	0.	-1383.1
7415	24.	0.2	0.	2.0271
7416	24.	0.4	0.	1.9556
7417	24.	0.6	0.	2.1643
7418	24.	0.8	0.	2.1917
7419	24.	1.	0.	2.2273
7420	24.	1.2	0.	2.2469
7421	24.	1.4	0.	2.2626
7422	24.	1.6	0.	2.2742
7423	24.	1.8	0.	2.2831
7424	24.	2.	0.	2.2899
7425	24.	2.2	0.	2.2951
7426	24.	2.4	0.	2.2988
7427	24.	2.6	0.	2.3014
7428	24.	2.8	0.	2.3029
7429	24.	3.	0.	2.3034
7430	24.	3.2	0.	2.3029
7431	24.	3.4	0.	2.3014
7432	24.	3.6	0.	2.2988
7433	24.	3.8	0.	2.2951
7434	24.	4.	0.	2.2899
7435	24.	4.2	0.	2.2831
7436	24.	4.4	0.	2.2742
7437	24.	4.6	0.	2.2626
7438	24.	4.8	0.	2.2469
7439	24.	5.	0.	2.2273
7440	24.	5.2	0.	2.1917
7441	24.	5.4	0.	2.1643
7442	24.	5.6	0.	1.9556
7443	24.	5.8	0.	2.0271
7444	24.	6.	0.	1.1858
7445	23.802	6.	0.	-0.88286
7446	23.604	6.	0.	-0.50511
7447	23.406	6.	0.	-0.47771
7448	23.208	6.	0.	-0.40572
7449	23.01	6.	0.	-0.366
7450	22.813	6.	0.	-0.3295
7451	22.615	6.	0.	-0.29953
7452	22.417	6.	0.	-0.27349
7453	22.219	6.	0.	-0.25078
7454	22.021	6.	0.	-0.23067
7455	21.823	6.	0.	-0.21272
7456	21.625	6.	0.	-0.19657
7457	21.427	6.	0.	-0.18195
7458	21.229	6.	0.	-0.16865
7459	21.031	6.	0.	-0.15649
7460	20.833	6.	0.	-0.14532
7461	20.635	6.	0.	-0.13504
7462	20.438	6.	0.	-0.12553
7463	20.24	6.	0.	-0.11672
7464	20.042	6.	0.	-0.10852
7465	19.844	6.	0.	-0.10085
7466	19.646	6.	0.	-9.366e-002
7467	19.448	6.	0.	-8.6905e-002
7468	19.25	6.	0.	-8.0512e-002
7469	19.052	6.	0.	-7.4431e-002
7470	18.854	6.	0.	-6.8635e-002
7471	18.656	6.	0.	-6.3077e-002
7472	18.458	6.	0.	-5.7703e-002
7473	18.26	6.	0.	-5.2474e-002
7474	18.063	6.	0.	-4.7368e-002
7475	17.865	6.	0.	-4.2351e-002
7476	17.667	6.	0.	-3.7368e-002
7477	17.469	6.	0.	-3.2388e-002
7478	17.271	6.	0.	-2.7391e-002
7479	17.073	6.	0.	-2.2353e-002
7480	16.875	6.	0.	-1.7215e-002
7481	16.677	6.	0.	-1.1951e-002
7482	16.479	6.	0.	-6.5494e-003
7483	16.281	6.	0.	-9.9068e-004
7484	16.083	6.	0.	4.7841e-003
7485	15.885	6.	0.	1.0795e-002
7486	15.688	6.	0.	1.7035e-002
7487	15.49	6.	0.	2.3518e-002
7488	15.292	6.	0.	3.0285e-002
7489	15.094	6.	0.	3.7333e-002
7490	14.896	6.	0.	4.4627e-002
7491	14.698	6.	0.	5.214e-002
7492	14.5	6.	0.	5.9871e-002
7493	14.302	6.	0.	6.775e-002
7494	14.104	6.	0.	7.5665e-002
7495	13.906	6.	0.	8.3484e-002
7496	13.708	6.	0.	9.1083e-002
7497	13.51	6.	0.	9.8242e-002
7498	13.313	6.	0.	0.10465
7499	13.115	6.	0.	0.10993
7500	12.917	6.	0.	0.11368
7501	12.719	6.	0.	0.11533
7502	12.521	6.	0.	0.11415
7503	12.323	6.	0.	0.10928
7504	12.125	6.	0.	9.9752e-002
7505	11.927	6.	0.	8.4356e-002
7506	11.729	6.	0.	6.1689e-002
7507	11.531	6.	0.	3.0246e-002
7508	11.333	6.	0.	-1.148e-002
7509	11.135	6.	0.	-6.4972e-002
7510	10.937	6.	0.	-0.13146
7511	10.74	6.	0.	-0.21149
7512	10.542	6.	0.	-0.30436
7513	10.344	6.	0.	-0.4074
7514	10.146	6.	0.	-0.51461
7515	9.9479	6.	0.	-0.61511
7516	9.75	6.	0.	-0.69014
7517	9.5521	6.	0.	-0.7142
7518	9.3542	6.	0.	-0.64122
7519	9.1563	6.	0.	-0.46077
7520	8.9583	6.	0.	-2.1613e-004
7521	8.7604	6.	0.	0.19501
7522	8.5625	6.	0.	2.0595
7523	8.3646	6.	0.	-5.8802
7524	8.1667	6.	0.	-48.925
7525	8.	1.8	0.	-99.347
7526	8.	1.6	0.	92.112
7527	8.	1.4	0.	19.23
7528	8.	1.2	0.	25.912
7529	8.	1.	0.	17.21
7530	8.	0.8	0.	16.219
7531	8.	0.6	0.	14.077
7532	8.	0.4	0.	14.135
7533	8.	0.2	0.	9.2561
7534	8.	2.	0.	-847.52
7535	8.1667	0.2	0.	7.3304
7536	8.1667	0.4	0.	12.066
7537	8.1667	0.6	0.	12.078
7538	8.1667	0.8	0.	14.158
7539	8.1667	1.	0.	15.309
7540	8.1667	1.2	0.	23.468
7541	8.1667	1.4	0.	17.967
7542	8.1667	1.6	0.	89.133
7543	8.1667	1.8	0.	-93.731
7544	8.1667	2.	0.	-1134.8
7545	8.	4.2	0.	-99.347
7546	8.	4.4	0.	92.112
7547	8.	4.6	0.	19.23
7548	8.	4.8	0.	25.912
7549	8.	5.	0.	17.21
7550	8.	5.2	0.	16.219
7551	8.	5.4	0.	14.077
7552	8.	5.6	0.	14.135
7553	8.	5.8	0.	9.2561
7554	8.	4.	0.	-847.52
7555	8.1667	5.8	0.	7.3304
7556	8.1667	5.6	0.	12.066
7557	8.1667	5.4	0.	12.078
7558	8.1667	5.2	0.	14.158
7559	8.1667	5.	0.	15.309
7560	8.1667	4.8	0.	23.468
7561	8.1667	4.6	0.	17.967
7562	8.1667	4.4	0.	89.133
7563	8.1667	4.2	0.	-93.731
7564	8.1667	4.	0.	-1134.8
7565	8.	2.3	0.	69.867
7566	8.0833	2.2	0.	140.18
7567	7.9	2.2	0.	100.22
7568	8.	2.2	5.e-002	6.1255e-004
7569	8.	2.1	0.	-353.83
7570	8.	2.5	0.	-12.944
7571	8.0833	2.4	0.	-30.945
7572	7.9	2.4	0.	-21.565
7573	8.	2.4	5.e-002	3.2113e-004
7574	8.	2.7	0.	0.56745
7575	8.0833	2.6	0.	3.6062
7576	7.9	2.6	0.	4.8075
7577	8.	2.6	5.e-002	2.5131e-004
7578	8.	2.9	0.	-1.6434
7579	8.0833	2.8	0.	-2.6161
7580	7.9	2.8	0.	-2.3761
7581	8.	2.8	5.e-002	1.1987e-004
7582	8.	3.1	0.	-1.6434
7583	8.0833	3.	0.	-0.73631
7584	7.9	3.	0.	0.13369
7585	8.	3.	5.e-002	3.0518e-005
7586	8.	3.3	0.	0.56746
7587	8.0833	3.2	0.	-2.6161
7588	7.9	3.2	0.	-2.3761
7589	8.	3.2	5.e-002	-7.8268e-005
7590	8.	3.5	0.	-12.944
7591	8.0833	3.4	0.	3.6062
7592	7.9	3.4	0.	4.8075
7593	8.	3.4	5.e-002	-1.3877e-004
7594	8.	3.7	0.	69.867
7595	8.0833	3.6	0.	-30.945
7596	7.9	3.6	0.	-21.565
7597	8.	3.6	5.e-002	-1.6086e-004
7598	8.0833	3.8	0.	140.18
7599	7.9	3.8	0.	100.22
7600	8.	3.8	5.e-002	-5.5854e-004
7601	8.	3.9	0.	-353.83
7602	8.1667	2.3	0.	41.929
7603	8.2656	2.2	0.	52.587
7604	8.1667	2.2	5.e-002	4.9408e-004
7605	8.1667	2.1	0.	-521.73
7606	8.1667	2.5	0.	-13.8
7607	8.2656	2.4	0.	-23.408
7608	8.1667	2.4	5.e-002	3.6168e-004
7609	8.1667	2.7	0.	0.54431
7610	8.2656	2.6	0.	4.7472
7611	8.1667	2.6	5.e-002	1.8625e-004
7612	8.1667	2.9	0.	-1.6169
7613	8.2656	2.8	0.	-2.3039
7614	8.1667	2.8	5.e-002	9.0034e-005
7615	8.1667	3.1	0.	-1.6169
7616	8.2656	3.	0.	0.33187
7617	8.1667	3.	5.e-002	3.0518e-005
7618	8.1667	3.3	0.	0.54432
7619	8.2656	3.2	0.	-2.3039
7620	8.1667	3.2	5.e-002	-4.7203e-005
7621	8.1667	3.5	0.	-13.8
7622	8.2656	3.4	0.	4.7472
7623	8.1667	3.4	5.e-002	-1.5009e-004
7624	8.1667	3.7	0.	41.929
7625	8.2656	3.6	0.	-23.408
7626	8.1667	3.6	5.e-002	-6.1206e-005
7627	8.2656	3.8	0.	52.587
7628	8.1667	3.8	5.e-002	-4.133e-004
7629	8.1667	3.9	0.	-521.73
7630	7.8	5.7	0.	-15.668
7631	7.7	5.8	0.	-14.917
7632	7.8	5.8	5.e-002	4.2379e-006
7633	7.8	5.9	0.	-16.115
7634	7.9	5.8	0.	-0.66616
7635	7.8	5.5	0.	-9.5068
7636	7.7	5.6	0.	-7.0777
7637	7.8	5.6	5.e-002	7.3553e-006
7638	7.9	5.6	0.	1.7452
7639	7.8	5.3	0.	-8.3507
7640	7.7	5.4	0.	-4.9064
7641	7.8	5.4	5.e-002	-6.0617e-006
7642	7.9	5.4	0.	0.11454
7643	7.8	5.1	0.	-8.6774
7644	7.7	5.2	0.	-3.7532
7645	7.8	5.2	5.e-002	-2.3521e-005
7646	7.9	5.2	0.	0.3315
7647	7.8	4.9	0.	-8.2669
7648	7.7	5.	0.	-3.989
7649	7.8	5.	5.e-002	-1.6938e-005
7650	7.9	5.	0.	-1.6715
7651	7.8	4.7	0.	-15.413
7652	7.7	4.8	0.	-2.5306
7653	7.8	4.8	5.e-002	-6.0559e-005
7654	7.9	4.8	0.	3.3424
7655	7.8	4.5	0.	-2.3327
7656	7.7	4.6	0.	-10.806
7657	7.8	4.6	5.e-002	-9.1349e-005
7658	7.9	4.6	0.	-19.801
7659	7.8	4.3	0.	-55.862
7660	7.7	4.4	0.	14.722
7661	7.8	4.4	5.e-002	-2.199e-004
7662	7.9	4.4	0.	60.8
7663	7.8	4.1	0.	-345.09
7664	7.7	4.2	0.	-57.567
7665	7.8	4.2	5.e-002	-4.7085e-004
7666	7.9	4.2	0.	-310.73
7667	7.8	3.9	0.	-238.06
7668	7.7	4.	0.	-241.82
7669	7.8	4.	5.e-002	-3.5229e-004
7670	7.9	4.	0.	-410.11
7671	7.8	3.7	0.	7.3376
7672	7.7	3.8	0.	30.97
7673	7.8	3.8	5.e-002	-1.0623e-004
7674	7.8	3.5	0.	-3.5268
7675	7.7	3.6	0.	-11.523
7676	7.8	3.6	5.e-002	-1.4225e-004
7677	7.8	3.3	0.	1.9336
7678	7.7	3.4	0.	3.6028
7679	7.8	3.4	5.e-002	-6.4415e-005
7680	7.8	3.1	0.	-0.51666
7681	7.7	3.2	0.	-1.1415
7682	7.8	3.2	5.e-002	-1.4722e-005
7683	7.8	2.9	0.	-0.51666
7684	7.7	3.	0.	0.55925
7685	7.8	3.	5.e-002	1.5259e-005
7686	7.8	2.7	0.	1.9336
7687	7.7	2.8	0.	-1.1415
7688	7.8	2.8	5.e-002	7.5972e-005
7689	7.8	2.5	0.	-3.5268
7690	7.7	2.6	0.	3.6028
7691	7.8	2.6	5.e-002	1.1329e-004
7692	7.8	2.3	0.	7.3376
7693	7.7	2.4	0.	-11.523
7694	7.8	2.4	5.e-002	1.9009e-004
7695	7.8	2.1	0.	-238.06
7696	7.7	2.2	0.	30.97
7697	7.8	2.2	5.e-002	1.517e-004
7698	7.8	1.9	0.	-345.09
7699	7.7	2.	0.	-241.82
7700	7.8	2.	5.e-002	5.9904e-004
7701	7.9	2.	0.	-410.11
7702	7.8	1.7	0.	-55.862
7703	7.7	1.8	0.	-57.567
7704	7.8	1.8	5.e-002	5.7596e-004
7705	7.9	1.8	0.	-310.73
7706	7.8	1.5	0.	-2.3327
7707	7.7	1.6	0.	14.722
7708	7.8	1.6	5.e-002	1.6637e-004
7709	7.9	1.6	0.	60.8
7710	7.8	1.3	0.	-15.413
7711	7.7	1.4	0.	-10.806
7712	7.8	1.4	5.e-002	1.2931e-004
7713	7.9	1.4	0.	-19.801
7714	7.8	1.1	0.	-8.2669
7715	7.7	1.2	0.	-2.5306
7716	7.8	1.2	5.e-002	6.3357e-005
7717	7.9	1.2	0.	3.3424
7718	7.8	0.9	0.	-8.6774
7719	7.7	1.	0.	-3.989
7720	7.8	1.	5.e-002	3.2307e-005
7721	7.9	1.	0.	-1.6715
7722	7.8	0.7	0.	-8.3507
7723	7.7	0.8	0.	-3.7532
7724	7.8	0.8	5.e-002	6.5295e-006
7725	7.9	0.8	0.	0.3315
7726	7.8	0.5	0.	-9.5068
7727	7.7	0.6	0.	-4.9064
7728	7.8	0.6	5.e-002	6.0617e-006
7729	7.9	0.6	0.	0.11454
7730	7.8	0.3	0.	-15.668
7731	7.7	0.4	0.	-7.0777
7732	7.8	0.4	5.e-002	-5.1169e-006
7733	7.9	0.4	0.	1.7452
7734	7.7	0.2	0.	-14.917
7735	7.8	0.2	5.e-002	-2.1591e-006
7736	7.8	0.1	0.	-16.115
7737	7.9	0.2	0.	-0.66616
7738	7.6	5.7	0.	-2.9584
7739	7.5	5.8	0.	-2.7454
7740	7.6	5.8	5.e-002	-1.3031e-014
7741	7.6	5.9	0.	-0.57796
7742	7.6	5.5	0.	-0.6691
7743	7.5	5.6	0.	-1.5727
7744	7.6	5.6	5.e-002	-5.604e-006
7745	7.6	5.3	0.	0.4101
7746	7.5	5.4	0.	-0.73396
7747	7.6	5.4	5.e-002	-1.1275e-005
7748	7.6	5.1	0.	1.2829
7749	7.5	5.2	0.	-0.13356
7750	7.6	5.2	5.e-002	-2.9665e-005
7751	7.6	4.9	0.	1.8666
7752	7.5	5.	0.	0.2103
7753	7.6	5.	5.e-002	-4.6633e-005
7754	7.6	4.7	0.	2.104
7755	7.5	4.8	0.	0.39003
7756	7.6	4.8	5.e-002	-7.0536e-005
7757	7.6	4.5	0.	5.9727
7758	7.5	4.6	0.	0.50647
7759	7.6	4.6	5.e-002	-1.2193e-004
7760	7.6	4.3	0.	12.995
7761	7.5	4.4	0.	5.189e-002
7762	7.6	4.4	5.e-002	-2.2986e-004
7763	7.6	4.1	0.	41.7
7764	7.5	4.2	0.	5.4638
7765	7.6	4.2	5.e-002	-3.9187e-004
7766	7.6	3.9	0.	49.19
7767	7.5	4.	0.	26.645
7768	7.6	4.	5.e-002	-1.6171e-004
7769	7.6	3.7	0.	10.235
7770	7.5	3.8	0.	10.466
7771	7.6	3.8	5.e-002	-5.4766e-005
7772	7.6	3.5	0.	-4.4266
7773	7.5	3.6	0.	-2.2665
7774	7.6	3.6	5.e-002	-3.634e-005
7775	7.6	3.3	0.	0.63273
7776	7.5	3.4	0.	0.67532
7777	7.6	3.4	5.e-002	-8.1267e-006
7778	7.6	3.1	0.	-7.2521e-003
7779	7.5	3.2	0.	0.17238
7780	7.6	3.2	5.e-002	1.5609e-005
7781	7.6	2.9	0.	-7.2525e-003
7782	7.5	3.	0.	0.25741
7783	7.6	3.	5.e-002	1.5259e-005
7784	7.6	2.7	0.	0.63273
7785	7.5	2.8	0.	0.17238
7786	7.6	2.8	5.e-002	3.4065e-005
7787	7.6	2.5	0.	-4.4266
7788	7.5	2.6	0.	0.67532
7789	7.6	2.6	5.e-002	5.4058e-005
7790	7.6	2.3	0.	10.235
7791	7.5	2.4	0.	-2.2665
7792	7.6	2.4	5.e-002	5.9227e-005
7793	7.6	2.1	0.	49.19
7794	7.5	2.2	0.	10.466
7795	7.6	2.2	5.e-002	6.5409e-005
7796	7.6	1.9	0.	41.7
7797	7.5	2.	0.	26.645
7798	7.6	2.	5.e-002	1.6666e-004
7799	7.6	1.7	0.	12.995
7800	7.5	1.8	0.	5.4638
7801	7.6	1.8	5.e-002	4.875e-004
7802	7.6	1.5	0.	5.9727
7803	7.5	1.6	0.	5.189e-002
7804	7.6	1.6	5.e-002	3.0444e-004
7805	7.6	1.3	0.	2.104
7806	7.5	1.4	0.	0.50648
7807	7.6	1.4	5.e-002	1.6188e-004
7808	7.6	1.1	0.	1.8666
7809	7.5	1.2	0.	0.39003
7810	7.6	1.2	5.e-002	9.1037e-005
7811	7.6	0.9	0.	1.2829
7812	7.5	1.	0.	0.2103
7813	7.6	1.	5.e-002	5.7781e-005
7814	7.6	0.7	0.	0.4101
7815	7.5	0.8	0.	-0.13356
7816	7.6	0.8	5.e-002	3.6521e-005
7817	7.6	0.5	0.	-0.6691
7818	7.5	0.6	0.	-0.73396
7819	7.6	0.6	5.e-002	1.9651e-005
7820	7.6	0.3	0.	-2.9584
7821	7.5	0.4	0.	-1.5727
7822	7.6	0.4	5.e-002	8.406e-006
7823	7.5	0.2	0.	-2.7454
7824	7.6	0.2	5.e-002	2.1057e-006
7825	7.6	0.1	0.	-0.57796
7826	7.4	5.7	0.	-1.6142
7827	7.3	5.8	0.	-0.48327
7828	7.4	5.8	5.e-002	-1.5435e-006
7829	7.4	5.9	0.	-0.49003
7830	7.4	5.5	0.	-1.3774
7831	7.3	5.6	0.	-0.87669
7832	7.4	5.6	5.e-002	-9.2768e-006
7833	7.4	5.3	0.	-1.1435
7834	7.3	5.4	0.	-0.7826
7835	7.4	5.4	5.e-002	-1.8996e-005
7836	7.4	5.1	0.	-1.156
7837	7.3	5.2	0.	-0.74555
7838	7.4	5.2	5.e-002	-3.1506e-005
7839	7.4	4.9	0.	-1.2512
7840	7.3	5.	0.	-0.8741
7841	7.4	5.	5.e-002	-5.1479e-005
7842	7.4	4.7	0.	-1.2087
7843	7.3	4.8	0.	-1.0371
7844	7.4	4.8	5.e-002	-7.9087e-005
7845	7.4	4.5	0.	-5.4492
7846	7.3	4.6	0.	-1.2316
7847	7.4	4.6	5.e-002	-1.3985e-004
7848	7.4	4.3	0.	-7.2501
7849	7.3	4.4	0.	-4.8187
7850	7.4	4.4	5.e-002	-2.2184e-004
7851	7.4	4.1	0.	-9.5043
7852	7.3	4.2	0.	-3.2111
7853	7.4	4.2	5.e-002	-3.2184e-004
7854	7.4	3.9	0.	-11.912
7855	7.3	4.	0.	-6.7304
7856	7.4	4.	5.e-002	-1.5027e-004
7857	7.4	3.7	0.	-1.7826
7858	7.3	3.8	0.	-3.5922
7859	7.4	3.8	5.e-002	-5.8707e-005
7860	7.4	3.5	0.	2.7403
7861	7.3	3.6	0.	2.8045
7862	7.4	3.6	5.e-002	-6.3685e-006
7863	7.4	3.3	0.	0.21592
7864	7.3	3.4	0.	0.31556
7865	7.4	3.4	5.e-002	5.3387e-006
7866	7.4	3.1	0.	0.46935
7867	7.3	3.2	0.	0.52748
7868	7.4	3.2	5.e-002	3.4114e-006
7869	7.4	2.9	0.	0.46935
7870	7.3	3.	0.	0.45071
7871	7.4	3.	5.e-002	1.1444e-005
7872	7.4	2.7	0.	0.21592
7873	7.3	2.8	0.	0.52748
7874	7.4	2.8	5.e-002	1.1998e-005
7875	7.4	2.5	0.	2.7403
7876	7.3	2.6	0.	0.31556
7877	7.4	2.6	5.e-002	1.7527e-005
7878	7.4	2.3	0.	-1.7826
7879	7.3	2.4	0.	2.8045
7880	7.4	2.4	5.e-002	2.4643e-005
7881	7.4	2.1	0.	-11.912
7882	7.3	2.2	0.	-3.5922
7883	7.4	2.2	5.e-002	9.9921e-005
7884	7.4	1.9	0.	-9.5043
7885	7.3	2.	0.	-6.7304
7886	7.4	2.	5.e-002	2.0394e-004
7887	7.4	1.7	0.	-7.2501
7888	7.3	1.8	0.	-3.2111
7889	7.4	1.8	5.e-002	3.2191e-004
7890	7.4	1.5	0.	-5.4492
7891	7.3	1.6	0.	-4.8187
7892	7.4	1.6	5.e-002	2.7061e-004
7893	7.4	1.3	0.	-1.2087
7894	7.3	1.4	0.	-1.2316
7895	7.4	1.4	5.e-002	1.5885e-004
7896	7.4	1.1	0.	-1.2512
7897	7.3	1.2	0.	-1.0371
7898	7.4	1.2	5.e-002	9.0188e-005
7899	7.4	0.9	0.	-1.156
7900	7.3	1.	0.	-0.87409
7901	7.4	1.	5.e-002	6.6873e-005
7902	7.4	0.7	0.	-1.1435
7903	7.3	0.8	0.	-0.74554
7904	7.4	0.8	5.e-002	4.2064e-005
7905	7.4	0.5	0.	-1.3774
7906	7.3	0.6	0.	-0.78259
7907	7.4	0.6	5.e-002	2.5032e-005
7908	7.4	0.3	0.	-1.6142
7909	7.3	0.4	0.	-0.87669
7910	7.4	0.4	5.e-002	1.2809e-005
7911	7.3	0.2	0.	-0.48327
7912	7.4	0.2	5.e-002	3.3279e-006
7913	7.4	0.1	0.	-0.49002
7914	7.2	5.7	0.	1.6265e-002
7915	7.1	5.8	0.	0.59263
7916	7.2	5.8	5.e-002	-1.4574e-006
7917	7.2	5.9	0.	0.35301
7918	7.2	5.5	0.	-0.32333
7919	7.1	5.6	0.	-0.21522
7920	7.2	5.6	5.e-002	-9.1633e-006
7921	7.2	5.3	0.	-0.37489
7922	7.1	5.4	0.	-0.25967
7923	7.2	5.4	5.e-002	-2.0333e-005
7924	7.2	5.1	0.	-0.45384
7925	7.1	5.2	0.	-0.42466
7926	7.2	5.2	5.e-002	-3.5161e-005
7927	7.2	4.9	0.	-0.66231
7928	7.1	5.	0.	-0.5531
7929	7.2	5.	5.e-002	-5.4103e-005
7930	7.2	4.7	0.	-1.0747
7931	7.1	4.8	0.	-0.8304
7932	7.2	4.8	5.e-002	-8.1643e-005
7933	7.2	4.5	0.	-0.619
7934	7.1	4.6	0.	-1.2532
7935	7.2	4.6	5.e-002	-1.2465e-004
7936	7.2	4.3	0.	-0.7986
7937	7.1	4.4	0.	-0.92065
7938	7.2	4.4	5.e-002	-2.8031e-004
7939	7.2	4.1	0.	-0.38542
7940	7.1	4.2	0.	-1.8338
7941	7.2	4.2	5.e-002	-3.1271e-004
7942	7.2	3.9	0.	1.6109
7943	7.1	4.	0.	-0.88249
7944	7.2	4.	5.e-002	-1.7075e-004
7945	7.2	3.7	0.	1.0951
7946	7.1	3.8	0.	-0.10934
7947	7.2	3.8	5.e-002	-3.6118e-005
7948	7.2	3.5	0.	0.25201
7949	7.1	3.6	0.	-0.62156
7950	7.2	3.6	5.e-002	-3.0107e-005
7951	7.2	3.3	0.	0.58783
7952	7.1	3.4	0.	0.33763
7953	7.2	3.4	5.e-002	-5.6452e-007
7954	7.2	3.1	0.	0.51138
7955	7.1	3.2	0.	0.46338
7956	7.2	3.2	5.e-002	8.0374e-006
7957	7.2	2.9	0.	0.51138
7958	7.1	3.	0.	0.44639
7959	7.2	3.	5.e-002	7.6294e-006
7960	7.2	2.7	0.	0.58783
7961	7.1	2.8	0.	0.46338
7962	7.2	2.8	5.e-002	6.0189e-006
7963	7.2	2.5	0.	0.25201
7964	7.1	2.6	0.	0.33763
7965	7.2	2.6	5.e-002	1.2754e-005
7966	7.2	2.3	0.	1.0951
7967	7.1	2.4	0.	-0.62156
7968	7.2	2.4	5.e-002	3.8522e-005
7969	7.2	2.1	0.	1.6109
7970	7.1	2.2	0.	-0.10934
7971	7.2	2.2	5.e-002	9.0105e-005
7972	7.2	1.9	0.	-0.38542
7973	7.1	2.	0.	-0.88249
7974	7.2	2.	5.e-002	1.7773e-004
7975	7.2	1.7	0.	-0.79859
7976	7.1	1.8	0.	-1.8338
7977	7.2	1.8	5.e-002	3.1272e-004
7978	7.2	1.5	0.	-0.619
7979	7.1	1.6	0.	-0.92065
7980	7.2	1.6	5.e-002	2.8567e-004
7981	7.2	1.3	0.	-1.0747
7982	7.1	1.4	0.	-1.2532
7983	7.2	1.4	5.e-002	1.7398e-004
7984	7.2	1.1	0.	-0.6623
7985	7.1	1.2	0.	-0.8304
7986	7.2	1.2	5.e-002	1.0201e-004
7987	7.2	0.9	0.	-0.45384
7988	7.1	1.	0.	-0.5531
7989	7.2	1.	5.e-002	7.2239e-005
7990	7.2	0.7	0.	-0.37489
7991	7.1	0.8	0.	-0.42466
7992	7.2	0.8	5.e-002	4.4952e-005
7993	7.2	0.5	0.	-0.32333
7994	7.1	0.6	0.	-0.25967
7995	7.2	0.6	5.e-002	2.696e-005
7996	7.2	0.3	0.	1.6267e-002
7997	7.1	0.4	0.	-0.21522
7998	7.2	0.4	5.e-002	1.2866e-005
7999	7.1	0.2	0.	0.59263
8000	7.2	0.2	5.e-002	3.8681e-006
8001	7.2	0.1	0.	0.35301
8002	7.	5.7	0.	0.25087
8003	6.9	5.8	0.	0.72823
8004	7.	5.8	5.e-002	5.1563e-007
8005	7.	5.9	0.	0.34078
8006	7.	5.5	0.	-0.19604
8007	6.9	5.6	0.	-0.13272
8008	7.	5.6	5.e-002	-6.5263e-006
8009	7.	5.3	0.	-0.32386
8010	6.9	5.4	0.	-0.14727
8011	7.	5.4	5.e-002	-1.8995e-005
8012	7.	5.1	0.	-0.52959
8013	6.9	5.2	0.	-0.38071
8014	7.	5.2	5.e-002	-3.077e-005
8015	7.	4.9	0.	-0.72989
8016	6.9	5.	0.	-0.57331
8017	7.	5.	5.e-002	-5.2759e-005
8018	7.	4.7	0.	-1.0229
8019	6.9	4.8	0.	-0.80156
8020	7.	4.8	5.e-002	-8.8357e-005
8021	7.	4.5	0.	-1.5598
8022	6.9	4.6	0.	-1.1285
8023	7.	4.6	5.e-002	-1.3201e-004
8024	7.	4.3	0.	-1.9328
8025	6.9	4.4	0.	-1.6508
8026	7.	4.4	5.e-002	-2.1227e-004
8027	7.	4.1	0.	-2.2901
8028	6.9	4.2	0.	-1.9865
8029	7.	4.2	5.e-002	-2.4531e-004
8030	7.	3.9	0.	-2.7405
8031	6.9	4.	0.	-2.7617
8032	7.	4.	5.e-002	-1.5557e-004
8033	7.	3.7	0.	-2.5985
8034	6.9	3.8	0.	-4.2763
8035	7.	3.8	5.e-002	-8.68e-005
8036	7.	3.5	0.	-3.1384
8037	6.9	3.6	0.	-18.087
8038	7.	3.6	5.e-002	-4.4989e-005
8039	7.	3.3	0.	-11.67
8040	6.9	3.4	0.	-49.885
8041	7.	3.4	5.e-002	-1.0122e-005
8042	7.	3.1	0.	-19.015
8043	6.9	3.2	0.	-65.458
8044	7.	3.2	5.e-002	-2.3388e-007
8045	7.	2.9	0.	-19.015
8046	6.9	3.	0.	-69.585
8047	7.	3.	5.e-002	3.0995e-006
8048	7.	2.7	0.	-11.67
8049	6.9	2.8	0.	-65.458
8050	7.	2.8	5.e-002	7.0107e-006
8051	7.	2.5	0.	-3.1384
8052	6.9	2.6	0.	-49.885
8053	7.	2.6	5.e-002	1.5927e-005
8054	7.	2.3	0.	-2.5985
8055	6.9	2.4	0.	-18.087
8056	7.	2.4	5.e-002	3.5051e-005
8057	7.	2.1	0.	-2.7405
8058	6.9	2.2	0.	-4.2763
8059	7.	2.2	5.e-002	9.9213e-005
8060	7.	1.9	0.	-2.2901
8061	6.9	2.	0.	-2.7617
8062	7.	2.	5.e-002	1.3126e-004
8063	7.	1.7	0.	-1.9328
8064	6.9	1.8	0.	-1.9865
8065	7.	1.8	5.e-002	2.4591e-004
8066	7.	1.5	0.	-1.5598
8067	6.9	1.6	0.	-1.6508
8068	7.	1.6	5.e-002	2.8708e-004
8069	7.	1.3	0.	-1.0228
8070	6.9	1.4	0.	-1.1285
8071	7.	1.4	5.e-002	1.4679e-004
8072	7.	1.1	0.	-0.72988
8073	6.9	1.2	0.	-0.80156
8074	7.	1.2	5.e-002	1.0154e-004
8075	7.	0.9	0.	-0.52959
8076	6.9	1.	0.	-0.57331
8077	7.	1.	5.e-002	6.8458e-005
8078	7.	0.7	0.	-0.32385
8079	6.9	0.8	0.	-0.38071
8080	7.	0.8	5.e-002	4.2746e-005
8081	7.	0.5	0.	-0.19604
8082	6.9	0.6	0.	-0.14727
8083	7.	0.6	5.e-002	2.2916e-005
8084	7.	0.3	0.	0.25087
8085	6.9	0.4	0.	-0.13272
8086	7.	0.4	5.e-002	9.8607e-006
8087	6.9	0.2	0.	0.72823
8088	7.	0.2	5.e-002	8.7391e-007
8089	7.	0.1	0.	0.34078
8090	6.8	5.7	0.	0.30638
8091	6.7	5.8	0.	0.66186
8092	6.8	5.8	5.e-002	1.8265e-006
8093	6.8	5.9	0.	0.36188
8094	6.8	5.5	0.	-0.10168
8095	6.7	5.6	0.	-0.11224
8096	6.8	5.6	5.e-002	-4.0319e-006
8097	6.8	5.3	0.	-0.21388
8098	6.7	5.4	0.	-7.9007e-002
8099	6.8	5.4	5.e-002	-1.3422e-005
8100	6.8	5.1	0.	-0.43066
8101	6.7	5.2	0.	-0.31335
8102	6.8	5.2	5.e-002	-2.9706e-005
8103	6.8	4.9	0.	-0.65198
8104	6.7	5.	0.	-0.51082
8105	6.8	5.	5.e-002	-4.5165e-005
8106	6.8	4.7	0.	-0.91451
8107	6.7	4.8	0.	-0.76364
8108	6.8	4.8	5.e-002	-8.0386e-005
8109	6.8	4.5	0.	-1.2179
8110	6.7	4.6	0.	-1.0807
8111	6.8	4.6	5.e-002	-1.1225e-004
8112	6.8	4.3	0.	-1.6801
8113	6.7	4.4	0.	-1.5327
8114	6.8	4.4	5.e-002	-1.9972e-004
8115	6.8	4.1	0.	-2.4427
8116	6.7	4.2	0.	-2.4132
8117	6.8	4.2	5.e-002	-2.4866e-004
8118	6.8	3.9	0.	-4.8341
8119	6.7	4.	0.	-5.2548
8120	6.8	4.	5.e-002	-1.8949e-004
8121	6.8	3.7	0.	-31.024
8122	6.7	3.8	0.	-36.403
8123	6.8	3.8	5.e-002	-1.2259e-004
8124	6.8	3.5	0.	-77.794
8125	6.7	3.6	0.	-91.48
8126	6.8	3.6	5.e-002	-2.0415e-005
8127	6.8	3.3	0.	-106.22
8128	6.7	3.4	0.	-129.1
8129	6.8	3.4	5.e-002	-2.473e-005
8130	6.8	3.1	0.	-118.48
8131	6.7	3.2	0.	-149.03
8132	6.8	3.2	5.e-002	-9.422e-006
8133	6.8	2.9	0.	-118.48
8134	6.7	3.	0.	-155.08
8135	6.8	3.	5.e-002	1.9074e-006
8136	6.8	2.7	0.	-106.22
8137	6.7	2.8	0.	-149.03
8138	6.8	2.8	5.e-002	1.0388e-005
8139	6.8	2.5	0.	-77.794
8140	6.7	2.6	0.	-129.1
8141	6.8	2.6	5.e-002	2.0251e-005
8142	6.8	2.3	0.	-31.024
8143	6.7	2.4	0.	-91.48
8144	6.8	2.4	5.e-002	6.1188e-005
8145	6.8	2.1	0.	-4.8341
8146	6.7	2.2	0.	-36.403
8147	6.8	2.2	5.e-002	9.9839e-005
8148	6.8	1.9	0.	-2.4427
8149	6.7	2.	0.	-5.2548
8150	6.8	2.	5.e-002	1.6841e-004
8151	6.8	1.7	0.	-1.6801
8152	6.7	1.8	0.	-2.4132
8153	6.8	1.8	5.e-002	2.509e-004
8154	6.8	1.5	0.	-1.2179
8155	6.7	1.6	0.	-1.5327
8156	6.8	1.6	5.e-002	2.6095e-004
8157	6.8	1.3	0.	-0.91451
8158	6.7	1.4	0.	-1.0807
8159	6.8	1.4	5.e-002	1.7126e-004
8160	6.8	1.1	0.	-0.65198
8161	6.7	1.2	0.	-0.76363
8162	6.8	1.2	5.e-002	1.0126e-004
8163	6.8	0.9	0.	-0.43066
8164	6.7	1.	0.	-0.51082
8165	6.8	1.	5.e-002	5.5359e-005
8166	6.8	0.7	0.	-0.21387
8167	6.7	0.8	0.	-0.31335
8168	6.8	0.8	5.e-002	3.5247e-005
8169	6.8	0.5	0.	-0.10167
8170	6.7	0.6	0.	-7.9006e-002
8171	6.8	0.6	5.e-002	2.0533e-005
8172	6.8	0.3	0.	0.30638
8173	6.7	0.4	0.	-0.11224
8174	6.8	0.4	5.e-002	6.903e-006
8175	6.7	0.2	0.	0.66186
8176	6.8	0.2	5.e-002	-4.0113e-007
8177	6.8	0.1	0.	0.36188
8178	6.6	5.7	0.	0.24634
8179	6.5	5.8	0.	0.52409
8180	6.6	5.8	5.e-002	1.9703e-006
8181	6.6	5.9	0.	0.3196
8182	6.6	5.5	0.	-8.9967e-002
8183	6.5	5.6	0.	-0.12146
8184	6.6	5.6	5.e-002	-1.6942e-006
8185	6.6	5.3	0.	-0.18014
8186	6.5	5.4	0.	-6.2489e-002
8187	6.6	5.4	5.e-002	-8.5478e-006
8188	6.6	5.1	0.	-0.39527
8189	6.5	5.2	0.	-0.28474
8190	6.6	5.2	5.e-002	-1.8367e-005
8191	6.6	4.9	0.	-0.62433
8192	6.5	5.	0.	-0.49004
8193	6.6	5.	5.e-002	-4.4092e-005
8194	6.6	4.7	0.	-0.92946
8195	6.5	4.8	0.	-0.77141
8196	6.6	4.8	5.e-002	-7.2579e-005
8197	6.6	4.5	0.	-1.3869
8198	6.5	4.6	0.	-1.1926
8199	6.6	4.6	5.e-002	-1.044e-004
8200	6.6	4.3	0.	-2.2437
8201	6.5	4.4	0.	-2.0085
8202	6.6	4.4	5.e-002	-8.0738e-005
8203	6.6	4.1	0.	-5.2954
8204	6.5	4.2	0.	-4.8982
8205	6.6	4.2	5.e-002	-1.2849e-004
8206	6.6	3.9	0.	-37.857
8207	6.5	4.	0.	-36.084
8208	6.6	4.	5.e-002	-1.0136e-004
8209	6.6	3.7	0.	-96.776
8210	6.5	3.8	0.	-96.893
8211	6.6	3.8	5.e-002	-7.3025e-005
8212	6.6	3.5	0.	-143.18
8213	6.5	3.6	0.	-148.98
8214	6.6	3.6	5.e-002	-5.3158e-005
8215	6.6	3.3	0.	-172.89
8216	6.5	3.4	0.	-185.99
8217	6.6	3.4	5.e-002	-2.7885e-005
8218	6.6	3.1	0.	-186.95
8219	6.5	3.2	0.	-207.32
8220	6.6	3.2	5.e-002	-1.1147e-005
8221	6.6	2.9	0.	-186.95
8222	6.5	3.	0.	-214.2
8223	6.6	3.	5.e-002	2.2387e-011
8224	6.6	2.7	0.	-172.89
8225	6.5	2.8	0.	-207.32
8226	6.6	2.8	5.e-002	8.0568e-006
8227	6.6	2.5	0.	-143.18
8228	6.5	2.6	0.	-185.99
8229	6.6	2.6	5.e-002	3.62e-005
8230	6.6	2.3	0.	-96.776
8231	6.5	2.4	0.	-148.98
8232	6.6	2.4	5.e-002	6.0863e-005
8233	6.6	2.1	0.	-37.857
8234	6.5	2.2	0.	-96.893
8235	6.6	2.2	5.e-002	1.4154e-004
8236	6.6	1.9	0.	-5.2954
8237	6.5	2.	0.	-36.084
8238	6.6	2.	5.e-002	2.0942e-004
8239	6.6	1.7	0.	-2.2437
8240	6.5	1.8	0.	-4.8982
8241	6.6	1.8	5.e-002	2.5244e-004
8242	6.6	1.5	0.	-1.3869
8243	6.5	1.6	0.	-2.0085
8244	6.6	1.6	5.e-002	1.9459e-004
8245	6.6	1.3	0.	-0.92946
8246	6.5	1.4	0.	-1.1926
8247	6.6	1.4	5.e-002	1.3084e-004
8248	6.6	1.1	0.	-0.62433
8249	6.5	1.2	0.	-0.7714
8250	6.6	1.2	5.e-002	8.7441e-005
8251	6.6	0.9	0.	-0.39527
8252	6.5	1.	0.	-0.49003
8253	6.6	1.	5.e-002	6.1675e-005
8254	6.6	0.7	0.	-0.18014
8255	6.5	0.8	0.	-0.28474
8256	6.6	0.8	5.e-002	3.2345e-005
8257	6.6	0.5	0.	-8.9967e-002
8258	6.5	0.6	0.	-6.2488e-002
8259	6.6	0.6	5.e-002	1.5627e-005
8260	6.6	0.3	0.	0.24635
8261	6.5	0.4	0.	-0.12146
8262	6.6	0.4	5.e-002	4.5548e-006
8263	6.5	0.2	0.	0.52409
8264	6.6	0.2	5.e-002	-6.0661e-007
8265	6.6	0.1	0.	0.3196
8266	6.4	5.7	0.	0.18312
8267	6.3	5.8	0.	0.39672
8268	6.4	5.8	5.e-002	3.6167e-006
8269	6.4	5.9	0.	0.27744
8270	6.4	5.5	0.	-8.5389e-002
8271	6.3	5.6	0.	-0.12171
8272	6.4	5.6	5.e-002	-1.579e-007
8273	6.4	5.3	0.	-0.1627
8274	6.3	5.4	0.	-6.4253e-002
8275	6.4	5.4	5.e-002	-4.2462e-006
8276	6.4	5.1	0.	-0.37637
8277	6.3	5.2	0.	-0.27698
8278	6.4	5.2	5.e-002	-1.7381e-005
8279	6.4	4.9	0.	-0.63393
8280	6.3	5.	0.	-0.50652
8281	6.4	5.	5.e-002	-4.1916e-005
8282	6.4	4.7	0.	-1.0302
8283	6.3	4.8	0.	-0.87252
8284	6.4	4.8	5.e-002	-3.9318e-005
8285	6.4	4.5	0.	-1.8123
8286	6.3	4.6	0.	-1.5977
8287	6.4	4.6	5.e-002	-9.8979e-005
8288	6.4	4.3	0.	-4.7891
8289	6.3	4.4	0.	-4.3591
8290	6.4	4.4	5.e-002	-1.6524e-004
8291	6.4	4.1	0.	-35.792
8292	6.3	4.2	0.	-33.183
8293	6.4	4.2	5.e-002	-6.8745e-005
8294	6.4	3.9	0.	-94.442
8295	6.3	4.	0.	-90.101
8296	6.4	4.	5.e-002	-1.1638e-004
8297	6.4	3.7	0.	-148.89
8298	6.3	3.8	0.	-146.09
8299	6.4	3.8	5.e-002	-4.7844e-005
8300	6.4	3.5	0.	-191.98
8301	6.3	3.6	0.	-193.53
8302	6.4	3.6	5.e-002	-9.9035e-005
8303	6.4	3.3	0.	-220.93
8304	6.3	3.4	0.	-228.51
8305	6.4	3.4	5.e-002	-3.4404e-005
8306	6.4	3.1	0.	-235.26
8307	6.3	3.2	0.	-249.55
8308	6.4	3.2	5.e-002	-1.6858e-005
8309	6.4	2.9	0.	-235.26
8310	6.3	3.	0.	-256.53
8311	6.4	3.	5.e-002	-1.9073e-006
8312	6.4	2.7	0.	-220.93
8313	6.3	2.8	0.	-249.55
8314	6.4	2.8	5.e-002	1.1364e-005
8315	6.4	2.5	0.	-191.98
8316	6.3	2.6	0.	-228.51
8317	6.4	2.6	5.e-002	3.5111e-005
8318	6.4	2.3	0.	-148.89
8319	6.3	2.4	0.	-193.53
8320	6.4	2.4	5.e-002	1.1205e-004
8321	6.4	2.1	0.	-94.442
8322	6.3	2.2	0.	-146.09
8323	6.4	2.2	5.e-002	1.2747e-004
8324	6.4	1.9	0.	-35.792
8325	6.3	2.	0.	-90.101
8326	6.4	2.	5.e-002	1.6972e-004
8327	6.4	1.7	0.	-4.7891
8328	6.3	1.8	0.	-33.183
8329	6.4	1.8	5.e-002	1.3331e-004
8330	6.4	1.5	0.	-1.8123
8331	6.3	1.6	0.	-4.3591
8332	6.4	1.6	5.e-002	1.7902e-004
8333	6.4	1.3	0.	-1.0302
8334	6.3	1.4	0.	-1.5977
8335	6.4	1.4	5.e-002	1.647e-004
8336	6.4	1.1	0.	-0.63393
8337	6.3	1.2	0.	-0.87251
8338	6.4	1.2	5.e-002	7.2762e-005
8339	6.4	0.9	0.	-0.37636
8340	6.3	1.	0.	-0.50651
8341	6.4	1.	5.e-002	5.6047e-005
8342	6.4	0.7	0.	-0.1627
8343	6.3	0.8	0.	-0.27698
8344	6.4	0.8	5.e-002	2.4714e-005
8345	6.4	0.5	0.	-8.5387e-002
8346	6.3	0.6	0.	-6.4251e-002
8347	6.4	0.6	5.e-002	1.0557e-005
8348	6.4	0.3	0.	0.18312
8349	6.3	0.4	0.	-0.12171
8350	6.4	0.4	5.e-002	1.6777e-006
8351	6.3	0.2	0.	0.39672
8352	6.4	0.2	5.e-002	-2.1152e-006
8353	6.4	0.1	0.	0.27744
8354	6.2	5.7	0.	0.12956
8355	6.1	5.8	0.	0.29501
8356	6.2	5.8	5.e-002	3.4439e-006
8357	6.2	5.9	0.	0.23387
8358	6.2	5.5	0.	-8.8039e-002
8359	6.1	5.6	0.	-0.11517
8360	6.2	5.6	5.e-002	1.2251e-006
8361	6.2	5.3	0.	-0.17062
8362	6.1	5.4	0.	-8.5039e-002
8363	6.2	5.4	5.e-002	-4.2274e-006
8364	6.2	5.1	0.	-0.40085
8365	6.1	5.2	0.	-0.30733
8366	6.2	5.2	5.e-002	-2.3294e-005
8367	6.2	4.9	0.	-0.74103
8368	6.1	5.	0.	-0.61373
8369	6.2	5.	5.e-002	-3.2678e-005
8370	6.2	4.7	0.	-1.4536
8371	6.1	4.8	0.	-1.2807
8372	6.2	4.8	5.e-002	-5.6067e-005
8373	6.2	4.5	0.	-4.4733
8374	6.1	4.6	0.	-4.2387
8375	6.2	4.6	5.e-002	-7.6868e-005
8376	6.2	4.3	0.	-33.981
8377	6.1	4.4	0.	-32.493
8378	6.2	4.4	5.e-002	-1.0754e-004
8379	6.2	4.1	0.	-87.024
8380	6.1	4.2	0.	-82.65
8381	6.2	4.2	5.e-002	-1.7514e-004
8382	6.2	3.9	0.	-141.43
8383	6.1	4.	0.	-136.05
8384	6.2	4.	5.e-002	-1.2204e-004
8385	6.2	3.7	0.	-190.62
8386	6.1	3.8	0.	-186.65
8387	6.2	3.8	5.e-002	-1.6755e-004
8388	6.2	3.5	0.	-230.15
8389	6.1	3.6	0.	-229.79
8390	6.2	3.6	5.e-002	-1.6247e-004
8391	6.2	3.3	0.	-257.4
8392	6.1	3.4	0.	-262.23
8393	6.2	3.4	5.e-002	-4.658e-005
8394	6.2	3.1	0.	-271.19
8395	6.1	3.2	0.	-282.17
8396	6.2	3.2	5.e-002	-1.7048e-005
8397	6.2	2.9	0.	-271.19
8398	6.1	3.	0.	-288.87
8399	6.2	3.	5.e-002	1.907e-011
8400	6.2	2.7	0.	-257.4
8401	6.1	2.8	0.	-282.17
8402	6.2	2.8	5.e-002	1.2968e-005
8403	6.2	2.5	0.	-230.15
8404	6.1	2.6	0.	-262.23
8405	6.2	2.6	5.e-002	4.7923e-005
8406	6.2	2.3	0.	-190.62
8407	6.1	2.4	0.	-229.79
8408	6.2	2.4	5.e-002	1.5185e-004
8409	6.2	2.1	0.	-141.43
8410	6.1	2.2	0.	-186.65
8411	6.2	2.2	5.e-002	2.1195e-004
8412	6.2	1.9	0.	-87.024
8413	6.1	2.	0.	-136.05
8414	6.2	2.	5.e-002	1.829e-004
8415	6.2	1.7	0.	-33.981
8416	6.1	1.8	0.	-82.65
8417	6.2	1.8	5.e-002	1.7934e-004
8418	6.2	1.5	0.	-4.4733
8419	6.1	1.6	0.	-32.493
8420	6.2	1.6	5.e-002	1.1788e-004
8421	6.2	1.3	0.	-1.4536
8422	6.1	1.4	0.	-4.2387
8423	6.2	1.4	5.e-002	1.2309e-004
8424	6.2	1.1	0.	-0.74103
8425	6.1	1.2	0.	-1.2807
8426	6.2	1.2	5.e-002	8.9954e-005
8427	6.2	0.9	0.	-0.40085
8428	6.1	1.	0.	-0.61372
8429	6.2	1.	5.e-002	3.1428e-005
8430	6.2	0.7	0.	-0.17062
8431	6.1	0.8	0.	-0.30733
8432	6.2	0.8	5.e-002	2.9467e-005
8433	6.2	0.5	0.	-8.8038e-002
8434	6.1	0.6	0.	-8.5037e-002
8435	6.2	0.6	5.e-002	8.4534e-006
8436	6.2	0.3	0.	0.12956
8437	6.1	0.4	0.	-0.11517
8438	6.2	0.4	5.e-002	7.6322e-007
8439	6.1	0.2	0.	0.29501
8440	6.2	0.2	5.e-002	-2.567e-006
8441	6.2	0.1	0.	0.23387
8442	6.	5.7	0.	8.9148e-002
8443	5.9	5.8	0.	0.21825
8444	6.	5.8	5.e-002	3.3231e-006
8445	6.	5.9	0.	0.19453
8446	6.	5.5	0.	-9.8979e-002
8447	5.9	5.6	0.	-0.10976
8448	6.	5.6	5.e-002	1.5344e-006
8449	6.	5.3	0.	-0.21362
8450	5.9	5.4	0.	-0.13693
8451	6.	5.4	5.e-002	-4.1183e-006
8452	6.	5.1	0.	-0.51866
8453	5.9	5.2	0.	-0.42951
8454	6.	5.2	5.e-002	-1.2282e-005
8455	6.	4.9	0.	-1.1929
8456	5.9	5.	0.	-1.0836
8457	6.	5.	5.e-002	-3.2477e-005
8458	6.	4.7	0.	-4.9049
8459	5.9	4.8	0.	-5.2807
8460	6.	4.8	5.e-002	-3.466e-005
8461	6.	4.5	0.	-34.635
8462	5.9	4.6	0.	-34.554
8463	6.	4.6	5.e-002	-7.2248e-005
8464	6.	4.3	0.	-81.004
8465	5.9	4.4	0.	-78.009
8466	6.	4.4	5.e-002	-1.2979e-004
8467	6.	4.1	0.	-131.44
8468	5.9	4.2	0.	-126.43
8469	6.	4.2	5.e-002	-5.5002e-005
8470	6.	3.9	0.	-181.12
8471	5.9	4.	0.	-175.69
8472	6.	4.	5.e-002	4.8845e-007
8473	6.	3.7	0.	-225.78
8474	5.9	3.8	0.	-221.8
8475	6.	3.8	5.e-002	-1.2334e-004
8476	6.	3.5	0.	-261.93
8477	5.9	3.6	0.	-261.15
8478	6.	3.6	5.e-002	-1.1365e-004
8479	6.	3.3	0.	-287.14
8480	5.9	3.4	0.	-290.99
8481	6.	3.4	5.e-002	-8.5296e-005
8482	6.	3.1	0.	-300.04
8483	5.9	3.2	0.	-309.52
8484	6.	3.2	5.e-002	-1.8843e-005
8485	6.	2.9	0.	-300.04
8486	5.9	3.	0.	-315.79
8487	6.	3.	5.e-002	-7.6294e-006
8488	6.	2.7	0.	-287.14
8489	5.9	2.8	0.	-309.52
8490	6.	2.8	5.e-002	2.4232e-005
8491	6.	2.5	0.	-261.93
8492	5.9	2.6	0.	-290.99
8493	6.	2.6	5.e-002	7.2428e-005
8494	6.	2.3	0.	-225.78
8495	5.9	2.4	0.	-261.15
8496	6.	2.4	5.e-002	1.0525e-004
8497	6.	2.1	0.	-181.12
8498	5.9	2.2	0.	-221.8
8499	6.	2.2	5.e-002	1.795e-004
8500	6.	1.9	0.	-131.44
8501	5.9	2.	0.	-175.69
8502	6.	2.	5.e-002	1.8147e-004
8503	6.	1.7	0.	-81.004
8504	5.9	1.8	0.	-126.43
8505	6.	1.8	5.e-002	1.1631e-004
8506	6.	1.5	0.	-34.634
8507	5.9	1.6	0.	-78.009
8508	6.	1.6	5.e-002	1.4389e-004
8509	6.	1.3	0.	-4.9049
8510	5.9	1.4	0.	-34.554
8511	6.	1.4	5.e-002	8.6888e-005
8512	6.	1.1	0.	-1.1929
8513	5.9	1.2	0.	-5.2807
8514	6.	1.2	5.e-002	6.5009e-005
8515	6.	0.9	0.	-0.51866
8516	5.9	1.	0.	-1.0836
8517	6.	1.	5.e-002	4.9991e-005
8518	6.	0.7	0.	-0.21362
8519	5.9	0.8	0.	-0.42951
8520	6.	0.8	5.e-002	2.4532e-005
8521	6.	0.5	0.	-9.8978e-002
8522	5.9	0.6	0.	-0.13693
8523	6.	0.6	5.e-002	8.8361e-006
8524	6.	0.3	0.	8.915e-002
8525	5.9	0.4	0.	-0.10975
8526	6.	0.4	5.e-002	5.3384e-007
8527	5.9	0.2	0.	0.21825
8528	6.	0.2	5.e-002	-2.038e-006
8529	6.	0.1	0.	0.19453
8530	5.8	5.7	0.	5.2109e-002
8531	5.7	5.8	0.	0.15343
8532	5.8	5.8	5.e-002	2.6382e-006
8533	5.8	5.9	0.	0.15888
8534	5.8	5.5	0.	-0.13874
8535	5.7	5.6	0.	-0.13043
8536	5.8	5.6	5.e-002	7.5992e-007
8537	5.8	5.3	0.	-0.3605
8538	5.7	5.4	0.	-0.29903
8539	5.8	5.4	5.e-002	-5.0556e-006
8540	5.8	5.1	0.	-1.1128
8541	5.7	5.2	0.	-1.1384
8542	5.8	5.2	5.e-002	-1.0687e-005
8543	5.8	4.9	0.	-7.8066
8544	5.7	5.	0.	-9.9583
8545	5.8	5.	5.e-002	-1.0534e-005
8546	5.8	4.7	0.	-37.743
8547	5.7	4.8	0.	-38.697
8548	5.8	4.8	5.e-002	-3.0812e-005
8549	5.8	4.5	0.	-77.93
8550	5.7	4.6	0.	-76.335
8551	5.8	4.6	5.e-002	-8.3564e-005
8552	5.8	4.3	0.	-123.3
8553	5.7	4.4	0.	-119.57
8554	5.8	4.4	5.e-002	-7.72e-005
8555	5.8	4.1	0.	-170.58
8556	5.7	4.2	0.	-165.64
8557	5.8	4.2	5.e-002	-9.1765e-005
8558	5.8	3.9	0.	-216.32
8559	5.7	4.	0.	-211.48
8560	5.8	4.	5.e-002	-5.1632e-005
8561	5.8	3.7	0.	-257.17
8562	5.7	3.8	0.	-253.92
8563	5.8	3.8	5.e-002	-5.6932e-005
8564	5.8	3.5	0.	-290.27
8565	5.7	3.6	0.	-290.03
8566	5.8	3.6	5.e-002	-5.1234e-006
8567	5.8	3.3	0.	-313.46
8568	5.7	3.4	0.	-317.47
8569	5.8	3.4	5.e-002	-1.1633e-004
8570	5.8	3.1	0.	-325.38
8571	5.7	3.2	0.	-334.56
8572	5.8	3.2	5.e-002	-2.7875e-005
8573	5.8	2.9	0.	-325.38
8574	5.7	3.	0.	-340.36
8575	5.8	3.	5.e-002	2.4269e-011
8576	5.8	2.7	0.	-313.46
8577	5.7	2.8	0.	-334.56
8578	5.8	2.8	5.e-002	3.9823e-005
8579	5.8	2.5	0.	-290.27
8580	5.7	2.6	0.	-317.47
8581	5.8	2.6	5.e-002	1.0907e-004
8582	5.8	2.3	0.	-257.17
8583	5.7	2.4	0.	-290.03
8584	5.8	2.4	5.e-002	6.2614e-005
8585	5.8	2.1	0.	-216.32
8586	5.7	2.2	0.	-253.92
8587	5.8	2.2	5.e-002	1.1923e-004
8588	5.8	1.9	0.	-170.58
8589	5.7	2.	0.	-211.48
8590	5.8	2.	5.e-002	1.6476e-004
8591	5.8	1.7	0.	-123.3
8592	5.7	1.8	0.	-165.64
8593	5.8	1.8	5.e-002	1.877e-004
8594	5.8	1.5	0.	-77.93
8595	5.7	1.6	0.	-119.57
8596	5.8	1.6	5.e-002	8.9195e-005
8597	5.8	1.3	0.	-37.743
8598	5.7	1.4	0.	-76.335
8599	5.8	1.4	5.e-002	7.4084e-005
8600	5.8	1.1	0.	-7.8066
8601	5.7	1.2	0.	-38.696
8602	5.8	1.2	5.e-002	5.7037e-005
8603	5.8	0.9	0.	-1.1128
8604	5.7	1.	0.	-9.9582
8605	5.8	1.	5.e-002	2.8776e-005
8606	5.8	0.7	0.	-0.3605
8607	5.7	0.8	0.	-1.1383
8608	5.8	0.8	5.e-002	1.7386e-005
8609	5.8	0.5	0.	-0.13874
8610	5.7	0.6	0.	-0.29903
8611	5.8	0.6	5.e-002	1.0365e-005
8612	5.8	0.3	0.	5.2111e-002
8613	5.7	0.4	0.	-0.13043
8614	5.8	0.4	5.e-002	6.0456e-007
8615	5.7	0.2	0.	0.15343
8616	5.8	0.2	5.e-002	-1.2104e-006
8617	5.8	0.1	0.	0.15889
8618	5.6	5.7	0.	-1.4168e-002
8619	5.5	5.8	0.	5.7751e-002
8620	5.6	5.8	5.e-002	1.2622e-006
8621	5.6	5.9	0.	0.12343
8622	5.6	5.5	0.	-0.33094
8623	5.5	5.6	0.	-0.34867
8624	5.6	5.6	5.e-002	-2.2133e-006
8625	5.6	5.3	0.	-1.6551
8626	5.5	5.4	0.	-2.6294
8627	5.6	5.4	5.e-002	-6.1205e-006
8628	5.6	5.1	0.	-15.074
8629	5.5	5.2	0.	-17.937
8630	5.6	5.2	5.e-002	-1.193e-005
8631	5.6	4.9	0.	-42.342
8632	5.5	5.	0.	-43.54
8633	5.6	5.	5.e-002	-2.7602e-005
8634	5.6	4.7	0.	-77.321
8635	5.5	4.8	0.	-76.528
8636	5.6	4.8	5.e-002	-4.0804e-005
8637	5.6	4.5	0.	-117.92
8638	5.5	4.6	0.	-115.3
8639	5.6	4.6	5.e-002	-1.1096e-005
8640	5.6	4.3	0.	-161.86
8641	5.5	4.4	0.	-157.92
8642	5.6	4.4	5.e-002	-8.7176e-006
8643	5.6	4.1	0.	-206.52
8644	5.5	4.2	0.	-202.08
8645	5.6	4.2	5.e-002	-7.5006e-005
8646	5.6	3.9	0.	-249.07
8647	5.5	4.	0.	-245.22
8648	5.6	4.	5.e-002	4.1125e-006
8649	5.6	3.7	0.	-286.79
8650	5.5	3.8	0.	-284.71
8651	5.6	3.8	5.e-002	9.0618e-006
8652	5.6	3.5	0.	-317.26
8653	5.5	3.6	0.	-318.14
8654	5.6	3.6	5.e-002	-4.8705e-005
8655	5.6	3.3	0.	-338.62
8656	5.5	3.4	0.	-343.49
8657	5.6	3.4	5.e-002	3.3324e-006
8658	5.6	3.1	0.	-349.61
8659	5.5	3.2	0.	-359.29
8660	5.6	3.2	5.e-002	-1.0183e-005
8661	5.6	2.9	0.	-349.61
8662	5.5	3.	0.	-364.65
8663	5.6	3.	5.e-002	-3.8146e-006
8664	5.6	2.7	0.	-338.62
8665	5.5	2.8	0.	-359.29
8666	5.6	2.8	5.e-002	8.4329e-006
8667	5.6	2.5	0.	-317.26
8668	5.5	2.6	0.	-343.49
8669	5.6	2.6	5.e-002	5.8101e-005
8670	5.6	2.3	0.	-286.79
8671	5.5	2.4	0.	-318.14
8672	5.6	2.4	5.e-002	2.2261e-004
8673	5.6	2.1	0.	-249.07
8674	5.5	2.2	0.	-284.71
8675	5.6	2.2	5.e-002	4.8609e-005
8676	5.6	1.9	0.	-206.52
8677	5.5	2.	0.	-245.22
8678	5.6	2.	5.e-002	4.9026e-005
8679	5.6	1.7	0.	-161.86
8680	5.5	1.8	0.	-202.08
8681	5.6	1.8	5.e-002	1.596e-004
8682	5.6	1.5	0.	-117.92
8683	5.5	1.6	0.	-157.92
8684	5.6	1.6	5.e-002	1.8123e-005
8685	5.6	1.3	0.	-77.321
8686	5.5	1.4	0.	-115.3
8687	5.6	1.4	5.e-002	2.1378e-005
8688	5.6	1.1	0.	-42.342
8689	5.5	1.2	0.	-76.528
8690	5.6	1.2	5.e-002	6.5378e-005
8691	5.6	0.9	0.	-15.074
8692	5.5	1.	0.	-43.54
8693	5.6	1.	5.e-002	3.6538e-005
8694	5.6	0.7	0.	-1.6551
8695	5.5	0.8	0.	-17.937
8696	5.6	0.8	5.e-002	1.6244e-005
8697	5.6	0.5	0.	-0.33094
8698	5.5	0.6	0.	-2.6294
8699	5.6	0.6	5.e-002	8.1348e-006
8700	5.6	0.3	0.	-1.4166e-002
8701	5.5	0.4	0.	-0.34867
8702	5.6	0.4	5.e-002	3.8805e-006
8703	5.5	0.2	0.	5.7753e-002
8704	5.6	0.2	5.e-002	-7.9021e-007
8705	5.6	0.1	0.	0.12343
8706	5.4	5.7	0.	-0.57802
8707	5.3	5.8	0.	-0.87112
8708	5.4	5.8	5.e-002	4.8713e-007
8709	5.4	5.9	0.	5.8602e-002
8710	5.4	5.5	0.	-6.5833
8711	5.3	5.6	0.	-8.3672
8712	5.4	5.6	5.e-002	-4.4347e-006
8713	5.4	5.3	0.	-22.63
8714	5.3	5.4	0.	-23.993
8715	5.4	5.4	5.e-002	-7.026e-006
8716	5.4	5.1	0.	-46.706
8717	5.3	5.2	0.	-47.032
8718	5.4	5.2	5.e-002	-1.9641e-005
8719	5.4	4.9	0.	-77.748
8720	5.3	5.	0.	-76.794
8721	5.4	5.	5.e-002	-3.725e-005
8722	5.4	4.7	0.	-114.49
8723	5.3	4.8	0.	-112.25
8724	5.4	4.8	5.e-002	-2.6575e-005
8725	5.4	4.5	0.	-155.28
8726	5.3	4.6	0.	-151.99
8727	5.4	4.6	5.e-002	-8.6646e-006
8728	5.4	4.3	0.	-198.13
8729	5.3	4.4	0.	-194.28
8730	5.4	4.4	5.e-002	-5.4439e-005
8731	5.4	4.1	0.	-240.78
8732	5.3	4.2	0.	-237.08
8733	5.4	4.2	5.e-002	-2.8897e-005
8734	5.4	3.9	0.	-280.86
8735	5.3	4.	0.	-278.19
8736	5.4	4.	5.e-002	-1.0154e-004
8737	5.4	3.7	0.	-316.08
8738	5.3	3.8	0.	-315.42
8739	5.4	3.8	5.e-002	1.0175e-005
8740	5.4	3.5	0.	-344.39
8741	5.3	3.6	0.	-346.72
8742	5.4	3.6	5.e-002	-2.744e-005
8743	5.4	3.3	0.	-364.19
8744	5.3	3.4	0.	-370.36
8745	5.4	3.4	5.e-002	1.6777e-005
8746	5.4	3.1	0.	-374.37
8747	5.3	3.2	0.	-385.08
8748	5.4	3.2	5.e-002	1.6597e-005
8749	5.4	2.9	0.	-374.37
8750	5.3	3.	0.	-390.07
8751	5.4	3.	5.e-002	-1.6022e-011
8752	5.4	2.7	0.	-364.19
8753	5.3	2.8	0.	-385.08
8754	5.4	2.8	5.e-002	4.8934e-006
8755	5.4	2.5	0.	-344.39
8756	5.3	2.6	0.	-370.36
8757	5.4	2.6	5.e-002	-1.5363e-005
8758	5.4	2.3	0.	-316.08
8759	5.3	2.4	0.	-346.72
8760	5.4	2.4	5.e-002	3.0398e-005
8761	5.4	2.1	0.	-280.86
8762	5.3	2.2	0.	-315.42
8763	5.4	2.2	5.e-002	-2.8321e-006
8764	5.4	1.9	0.	-240.78
8765	5.3	2.	0.	-278.19
8766	5.4	2.	5.e-002	1.0677e-004
8767	5.4	1.7	0.	-198.13
8768	5.3	1.8	0.	-237.08
8769	5.4	1.8	5.e-002	1.2949e-004
8770	5.4	1.5	0.	-155.28
8771	5.3	1.6	0.	-194.28
8772	5.4	1.6	5.e-002	9.0348e-005
8773	5.4	1.3	0.	-114.49
8774	5.3	1.4	0.	-151.99
8775	5.4	1.4	5.e-002	3.5911e-005
8776	5.4	1.1	0.	-77.748
8777	5.3	1.2	0.	-112.25
8778	5.4	1.2	5.e-002	5.9683e-005
8779	5.4	0.9	0.	-46.706
8780	5.3	1.	0.	-76.794
8781	5.4	1.	5.e-002	5.1502e-005
8782	5.4	0.7	0.	-22.63
8783	5.3	0.8	0.	-47.032
8784	5.4	0.8	5.e-002	2.5221e-005
8785	5.4	0.5	0.	-6.5833
8786	5.3	0.6	0.	-23.993
8787	5.4	0.6	5.e-002	9.4702e-006
8788	5.4	0.3	0.	-0.57802
8789	5.3	0.4	0.	-8.3672
8790	5.4	0.4	5.e-002	6.4907e-006
8791	5.3	0.2	0.	-0.87111
8792	5.4	0.2	5.e-002	7.5339e-007
8793	5.4	0.1	0.	5.8603e-002
8794	5.2	5.7	0.	-10.288
8795	5.1	5.8	0.	-7.9183
8796	5.2	5.8	5.e-002	-1.3298e-006
8797	5.2	5.9	0.	-1.9772
8798	5.2	5.5	0.	-26.066
8799	5.1	5.6	0.	-24.25
8800	5.2	5.6	5.e-002	-7.5913e-006
8801	5.2	5.3	0.	-48.455
8802	5.1	5.4	0.	-46.572
8803	5.2	5.4	5.e-002	-9.2221e-006
8804	5.2	5.1	0.	-77.133
8805	5.1	5.2	0.	-74.81
8806	5.2	5.2	5.e-002	-2.6776e-005
8807	5.2	4.9	0.	-111.29
8808	5.1	5.	0.	-108.38
8809	5.2	5.	5.e-002	-2.6532e-005
8810	5.2	4.7	0.	-149.75
8811	5.1	4.8	0.	-146.28
8812	5.2	4.8	5.e-002	-2.0916e-005
8813	5.2	4.5	0.	-190.99
8814	5.1	4.6	0.	-187.22
8815	5.2	4.6	5.e-002	-2.293e-005
8816	5.2	4.3	0.	-233.23
8817	5.1	4.4	0.	-229.61
8818	5.2	4.4	5.e-002	-4.4358e-005
8819	5.2	4.1	0.	-274.5
8820	5.1	4.2	0.	-271.63
8821	5.2	4.2	5.e-002	-5.103e-005
8822	5.2	3.9	0.	-312.77
8823	5.1	4.	0.	-311.39
8824	5.2	4.	5.e-002	-7.1565e-005
8825	5.2	3.7	0.	-346.09
8826	5.1	3.8	0.	-346.99
8827	5.2	3.8	5.e-002	7.3655e-006
8828	5.2	3.5	0.	-372.72
8829	5.1	3.6	0.	-376.7
8830	5.2	3.6	5.e-002	-1.5714e-005
8831	5.2	3.3	0.	-391.28
8832	5.1	3.4	0.	-399.04
8833	5.2	3.4	5.e-002	1.7425e-005
8834	5.2	3.1	0.	-400.81
8835	5.1	3.2	0.	-412.91
8836	5.2	3.2	5.e-002	9.6789e-006
8837	5.2	2.9	0.	-400.81
8838	5.1	3.	0.	-417.6
8839	5.2	3.	5.e-002	-7.6294e-006
8840	5.2	2.7	0.	-391.28
8841	5.1	2.8	0.	-412.91
8842	5.2	2.8	5.e-002	-1.1663e-005
8843	5.2	2.5	0.	-372.72
8844	5.1	2.6	0.	-399.04
8845	5.2	2.6	5.e-002	7.021e-006
8846	5.2	2.3	0.	-346.09
8847	5.1	2.4	0.	-376.7
8848	5.2	2.4	5.e-002	4.352e-005
8849	5.2	2.1	0.	-312.77
8850	5.1	2.2	0.	-346.99
8851	5.2	2.2	5.e-002	-8.0823e-006
8852	5.2	1.9	0.	-274.5
8853	5.1	2.	0.	-311.39
8854	5.2	2.	5.e-002	8.5298e-005
8855	5.2	1.7	0.	-233.23
8856	5.1	1.8	0.	-271.63
8857	5.2	1.8	5.e-002	8.0389e-005
8858	5.2	1.5	0.	-190.99
8859	5.1	1.6	0.	-229.61
8860	5.2	1.6	5.e-002	7.4399e-005
8861	5.2	1.3	0.	-149.75
8862	5.1	1.4	0.	-187.22
8863	5.2	1.4	5.e-002	6.7496e-005
8864	5.2	1.1	0.	-111.29
8865	5.1	1.2	0.	-146.28
8866	5.2	1.2	5.e-002	5.5472e-005
8867	5.2	0.9	0.	-77.133
8868	5.1	1.	0.	-108.38
8869	5.2	1.	5.e-002	4.1363e-005
8870	5.2	0.7	0.	-48.455
8871	5.1	0.8	0.	-74.81
8872	5.2	0.8	5.e-002	3.7399e-005
8873	5.2	0.5	0.	-26.066
8874	5.1	0.6	0.	-46.572
8875	5.2	0.6	5.e-002	1.1826e-005
8876	5.2	0.3	0.	-10.288
8877	5.1	0.4	0.	-24.25
8878	5.2	0.4	5.e-002	1.0361e-005
8879	5.1	0.2	0.	-7.9183
8880	5.2	0.2	5.e-002	2.4228e-006
8881	5.2	0.1	0.	-1.9772
8882	5.	5.7	0.	-21.854
8883	4.9	5.8	0.	-15.28
8884	5.	5.8	5.e-002	-5.011e-006
8885	5.	5.9	0.	-6.1873
8886	5.	5.5	0.	-44.772
8887	4.9	5.6	0.	-39.244
8888	5.	5.6	5.e-002	-4.1418e-006
8889	5.	5.3	0.	-72.935
8890	4.9	5.4	0.	-67.912
8891	5.	5.4	5.e-002	-1.4751e-005
8892	5.	5.1	0.	-106.06
8893	4.9	5.2	0.	-101.23
8894	5.	5.2	5.e-002	-2.3079e-005
8895	5.	4.9	0.	-143.37
8896	4.9	5.	0.	-138.64
8897	5.	5.	5.e-002	-7.8974e-006
8898	5.	4.7	0.	-183.77
8899	4.9	4.8	0.	-179.2
8900	5.	4.8	5.e-002	-3.6279e-005
8901	5.	4.5	0.	-225.85
8902	4.9	4.6	0.	-221.69
8903	5.	4.6	5.e-002	-3.8192e-005
8904	5.	4.3	0.	-268.02
8905	4.9	4.4	0.	-264.66
8906	5.	4.4	5.e-002	-2.079e-005
8907	5.	4.1	0.	-308.53
8908	4.9	4.2	0.	-306.5
8909	5.	4.2	5.e-002	-2.1128e-005
8910	5.	3.9	0.	-345.63
8911	4.9	4.	0.	-345.54
8912	5.	4.	5.e-002	-4.0076e-005
8913	5.	3.7	0.	-377.63
8914	4.9	3.8	0.	-380.14
8915	5.	3.8	5.e-002	-1.5871e-005
8916	5.	3.5	0.	-403.05
8917	4.9	3.6	0.	-408.78
8918	5.	3.6	5.e-002	5.5339e-006
8919	5.	3.3	0.	-420.69
8920	4.9	3.4	0.	-430.22
8921	5.	3.4	5.e-002	1.4604e-006
8922	5.	3.1	0.	-429.73
8923	4.9	3.2	0.	-443.48
8924	5.	3.2	5.e-002	1.8137e-006
8925	5.	2.9	0.	-429.73
8926	4.9	3.	0.	-447.97
8927	5.	3.	5.e-002	-7.6294e-006
8928	5.	2.7	0.	-420.69
8929	4.9	2.8	0.	-443.48
8930	5.	2.8	5.e-002	2.7348e-006
8931	5.	2.5	0.	-403.05
8932	4.9	2.6	0.	-430.22
8933	5.	2.6	5.e-002	-1.8852e-007
8934	5.	2.3	0.	-377.63
8935	4.9	2.4	0.	-408.78
8936	5.	2.4	5.e-002	-8.7266e-006
8937	5.	2.1	0.	-345.63
8938	4.9	2.2	0.	-380.14
8939	5.	2.2	5.e-002	3.4427e-005
8940	5.	1.9	0.	-308.53
8941	4.9	2.	0.	-345.54
8942	5.	2.	5.e-002	3.981e-005
8943	5.	1.7	0.	-268.02
8944	4.9	1.8	0.	-306.5
8945	5.	1.8	5.e-002	4.6133e-005
8946	5.	1.5	0.	-225.85
8947	4.9	1.6	0.	-264.66
8948	5.	1.6	5.e-002	2.6049e-005
8949	5.	1.3	0.	-183.77
8950	4.9	1.4	0.	-221.69
8951	5.	1.4	5.e-002	6.0643e-005
8952	5.	1.1	0.	-143.37
8953	4.9	1.2	0.	-179.2
8954	5.	1.2	5.e-002	3.964e-005
8955	5.	0.9	0.	-106.06
8956	4.9	1.	0.	-138.64
8957	5.	1.	5.e-002	2.2721e-005
8958	5.	0.7	0.	-72.935
8959	4.9	0.8	0.	-101.23
8960	5.	0.8	5.e-002	2.8185e-005
8961	5.	0.5	0.	-44.772
8962	4.9	0.6	0.	-67.912
8963	5.	0.6	5.e-002	2.9991e-005
8964	5.	0.3	0.	-21.854
8965	4.9	0.4	0.	-39.244
8966	5.	0.4	5.e-002	1.2435e-005
8967	4.9	0.2	0.	-15.28
8968	5.	0.2	5.e-002	7.7459e-006
8969	5.	0.1	0.	-6.1873
8970	4.8	5.7	0.	-32.616
8971	4.7	5.8	0.	-22.027
8972	4.8	5.8	5.e-002	-3.2008e-006
8973	4.8	5.9	0.	-10.04
8974	4.8	5.5	0.	-62.384
8975	4.7	5.6	0.	-53.299
8976	4.8	5.6	5.e-002	-1.3785e-005
8977	4.8	5.3	0.	-96.202
8978	4.7	5.4	0.	-88.167
8979	4.8	5.4	5.e-002	-3.4493e-005
8980	4.8	5.1	0.	-133.81
8981	4.7	5.2	0.	-126.57
8982	4.8	5.2	5.e-002	-1.5829e-005
8983	4.8	4.9	0.	-174.47
8984	4.7	5.	0.	-167.99
8985	4.8	5.	5.e-002	-3.1583e-005
8986	4.8	4.7	0.	-217.13
8987	4.7	4.8	0.	-211.51
8988	4.8	4.8	5.e-002	-2.0551e-005
8989	4.8	4.5	0.	-260.52
8990	4.7	4.6	0.	-255.99
8991	4.8	4.6	5.e-002	-3.6622e-005
8992	4.8	4.3	0.	-303.17
8993	4.7	4.4	0.	-300.08
8994	4.8	4.4	5.e-002	-1.9305e-005
8995	4.8	4.1	0.	-343.54
8996	4.7	4.2	0.	-342.33
8997	4.8	4.2	5.e-002	-1.8428e-005
8998	4.8	3.9	0.	-380.07
8999	4.7	4.	0.	-381.27
9000	4.8	4.	5.e-002	2.5305e-006
9001	4.8	3.7	0.	-411.32
9002	4.7	3.8	0.	-415.44
9003	4.8	3.8	5.e-002	-1.4937e-005
9004	4.8	3.5	0.	-435.98
9005	4.7	3.6	0.	-443.53
9006	4.8	3.6	5.e-002	3.2082e-006
9007	4.8	3.3	0.	-453.03
9008	4.7	3.4	0.	-464.44
9009	4.8	3.4	5.e-002	-4.8291e-006
9010	4.8	3.1	0.	-461.74
9011	4.7	3.2	0.	-477.34
9012	4.8	3.2	5.e-002	-3.4366e-007
9013	4.8	2.9	0.	-461.74
9014	4.7	3.	0.	-481.69
9015	4.8	3.	5.e-002	-1.5259e-005
9016	4.8	2.7	0.	-453.03
9017	4.7	2.8	0.	-477.34
9018	4.8	2.8	5.e-002	-1.1837e-005
9019	4.8	2.5	0.	-435.98
9020	4.7	2.6	0.	-464.44
9021	4.8	2.6	5.e-002	6.5628e-006
9022	4.8	2.3	0.	-411.32
9023	4.7	2.4	0.	-443.53
9024	4.8	2.4	5.e-002	-5.6706e-006
9025	4.8	2.1	0.	-380.07
9026	4.7	2.2	0.	-415.44
9027	4.8	2.2	5.e-002	8.3384e-006
9028	4.8	1.9	0.	-343.54
9029	4.7	2.	0.	-381.27
9030	4.8	2.	5.e-002	3.6229e-005
9031	4.8	1.7	0.	-303.17
9032	4.7	1.8	0.	-342.33
9033	4.8	1.8	5.e-002	2.3588e-005
9034	4.8	1.5	0.	-260.52
9035	4.7	1.6	0.	-300.08
9036	4.8	1.6	5.e-002	2.6966e-005
9037	4.8	1.3	0.	-217.13
9038	4.7	1.4	0.	-255.99
9039	4.8	1.4	5.e-002	5.8082e-005
9040	4.8	1.1	0.	-174.47
9041	4.7	1.2	0.	-211.51
9042	4.8	1.2	5.e-002	5.0991e-005
9043	4.8	0.9	0.	-133.81
9044	4.7	1.	0.	-167.99
9045	4.8	1.	5.e-002	3.3011e-005
9046	4.8	0.7	0.	-96.202
9047	4.7	0.8	0.	-126.57
9048	4.8	0.8	5.e-002	2.0481e-005
9049	4.8	0.5	0.	-62.384
9050	4.7	0.6	0.	-88.167
9051	4.8	0.6	5.e-002	3.6929e-005
9052	4.8	0.3	0.	-32.616
9053	4.7	0.4	0.	-53.299
9054	4.8	0.4	5.e-002	2.1296e-005
9055	4.7	0.2	0.	-22.027
9056	4.8	0.2	5.e-002	1.018e-005
9057	4.8	0.1	0.	-10.04
9058	4.6	5.7	0.	-42.631
9059	4.5	5.8	0.	-28.181
9060	4.6	5.8	5.e-002	-7.0184e-006
9061	4.6	5.9	0.	-13.526
9062	4.6	5.5	0.	-79.071
9063	4.5	5.6	0.	-66.554
9064	4.6	5.6	5.e-002	-1.2223e-005
9065	4.6	5.3	0.	-118.53
9066	4.5	5.4	0.	-107.57
9067	4.6	5.4	5.e-002	-3.7064e-005
9068	4.6	5.1	0.	-160.75
9069	4.5	5.2	0.	-151.17
9070	4.6	5.2	5.e-002	-2.8549e-005
9071	4.6	4.9	0.	-205.03
9072	4.5	5.	0.	-196.84
9073	4.6	5.	5.e-002	-4.5251e-005
9074	4.6	4.7	0.	-250.36
9075	4.5	4.8	0.	-243.69
9076	4.6	4.8	5.e-002	-6.274e-005
9077	4.6	4.5	0.	-295.55
9078	4.5	4.6	0.	-290.62
9079	4.6	4.6	5.e-002	-7.3915e-006
9080	4.6	4.3	0.	-339.26
9081	4.5	4.4	0.	-336.38
9082	4.6	4.4	5.e-002	-2.5956e-005
9083	4.6	4.1	0.	-380.09
9084	4.5	4.2	0.	-379.65
9085	4.6	4.2	5.e-002	-1.9064e-005
9086	4.6	3.9	0.	-416.66
9087	4.5	4.	0.	-419.08
9088	4.6	4.	5.e-002	-1.703e-005
9089	4.6	3.7	0.	-447.68
9090	4.5	3.8	0.	-453.39
9091	4.6	3.8	5.e-002	-2.1312e-006
9092	4.6	3.5	0.	-472.02
9093	4.5	3.6	0.	-481.4
9094	4.6	3.6	5.e-002	-1.6714e-006
9095	4.6	3.3	0.	-488.78
9096	4.5	3.4	0.	-502.16
9097	4.6	3.4	5.e-002	9.929e-007
9098	4.6	3.1	0.	-497.32
9099	4.5	3.2	0.	-514.91
9100	4.6	3.2	5.e-002	-1.4677e-006
9101	4.6	2.9	0.	-497.32
9102	4.5	3.	0.	-519.22
9103	4.6	3.	5.e-002	2.5627e-013
9104	4.6	2.7	0.	-488.78
9105	4.5	2.8	0.	-514.91
9106	4.6	2.8	5.e-002	-5.6446e-006
9107	4.6	2.5	0.	-472.02
9108	4.5	2.6	0.	-502.16
9109	4.6	2.6	5.e-002	1.6554e-006
9110	4.6	2.3	0.	-447.68
9111	4.5	2.4	0.	-481.4
9112	4.6	2.4	5.e-002	5.9242e-006
9113	4.6	2.1	0.	-416.66
9114	4.5	2.2	0.	-453.39
9115	4.6	2.2	5.e-002	9.2832e-006
9116	4.6	1.9	0.	-380.09
9117	4.5	2.	0.	-419.08
9118	4.6	2.	5.e-002	4.4913e-005
9119	4.6	1.7	0.	-339.26
9120	4.5	1.8	0.	-379.65
9121	4.6	1.8	5.e-002	3.6418e-005
9122	4.6	1.5	0.	-295.55
9123	4.5	1.6	0.	-336.38
9124	4.6	1.6	5.e-002	2.3234e-005
9125	4.6	1.3	0.	-250.36
9126	4.5	1.4	0.	-290.62
9127	4.6	1.4	5.e-002	1.273e-005
9128	4.6	1.1	0.	-205.03
9129	4.5	1.2	0.	-243.69
9130	4.6	1.2	5.e-002	6.7806e-005
9131	4.6	0.9	0.	-160.75
9132	4.5	1.	0.	-196.84
9133	4.6	1.	5.e-002	4.9891e-005
9134	4.6	0.7	0.	-118.53
9135	4.5	0.8	0.	-151.17
9136	4.6	0.8	5.e-002	3.2917e-005
9137	4.6	0.5	0.	-79.071
9138	4.5	0.6	0.	-107.57
9139	4.6	0.6	5.e-002	3.4625e-005
9140	4.6	0.3	0.	-42.631
9141	4.5	0.4	0.	-66.554
9142	4.6	0.4	5.e-002	2.2952e-005
9143	4.5	0.2	0.	-28.181
9144	4.6	0.2	5.e-002	7.2554e-006
9145	4.6	0.1	0.	-13.526
9146	4.4	5.7	0.	-51.995
9147	4.3	5.8	0.	-33.782
9148	4.4	5.8	5.e-002	-1.7546e-005
9149	4.4	5.9	0.	-16.662
9150	4.4	5.5	0.	-95.031
9151	4.3	5.6	0.	-79.161
9152	4.4	5.6	5.e-002	-2.2842e-005
9153	4.4	5.3	0.	-140.2
9154	4.3	5.4	0.	-126.37
9155	4.4	5.4	5.e-002	-3.2132e-005
9156	4.4	5.1	0.	-187.25
9157	4.3	5.2	0.	-175.35
9158	4.4	5.2	5.e-002	-1.8907e-005
9159	4.4	4.9	0.	-235.49
9160	4.3	5.	0.	-225.58
9161	4.4	5.	5.e-002	-8.3273e-006
9162	4.4	4.7	0.	-283.93
9163	4.3	4.8	0.	-276.17
9164	4.4	4.8	5.e-002	-5.5401e-005
9165	4.4	4.5	0.	-331.45
9166	4.3	4.6	0.	-326.06
9167	4.4	4.6	5.e-002	-2.6911e-005
9168	4.4	4.3	0.	-376.78
9169	4.3	4.4	0.	-374.06
9170	4.4	4.4	5.e-002	-3.9862e-005
9171	4.4	4.1	0.	-418.66
9172	4.3	4.2	0.	-418.93
9173	4.4	4.2	5.e-002	-2.4379e-005
9174	4.4	3.9	0.	-455.84
9175	4.3	4.	0.	-459.44
9176	4.4	4.	5.e-002	-1.5401e-005
9177	4.4	3.7	0.	-487.14
9178	4.3	3.8	0.	-494.41
9179	4.4	3.8	5.e-002	-2.0229e-006
9180	4.4	3.5	0.	-511.57
9181	4.3	3.6	0.	-522.8
9182	4.4	3.6	5.e-002	-5.9884e-006
9183	4.4	3.3	0.	-528.33
9184	4.3	3.4	0.	-543.74
9185	4.4	3.4	5.e-002	3.177e-006
9186	4.4	3.1	0.	-536.85
9187	4.3	3.2	0.	-556.57
9188	4.4	3.2	5.e-002	-1.1179e-006
9189	4.4	2.9	0.	-536.85
9190	4.3	3.	0.	-560.9
9191	4.4	3.	5.e-002	-4.713e-015
9192	4.4	2.7	0.	-528.33
9193	4.3	2.8	0.	-556.57
9194	4.4	2.8	5.e-002	-4.1199e-006
9195	4.4	2.5	0.	-511.57
9196	4.3	2.6	0.	-543.74
9197	4.4	2.6	5.e-002	-5.4916e-006
9198	4.4	2.3	0.	-487.14
9199	4.3	2.4	0.	-522.8
9200	4.4	2.4	5.e-002	1.0014e-006
9201	4.4	2.1	0.	-455.84
9202	4.3	2.2	0.	-494.41
9203	4.4	2.2	5.e-002	1.6308e-006
9204	4.4	1.9	0.	-418.66
9205	4.3	2.	0.	-459.44
9206	4.4	2.	5.e-002	2.6975e-005
9207	4.4	1.7	0.	-376.78
9208	4.3	1.8	0.	-418.93
9209	4.4	1.8	5.e-002	4.6947e-005
9210	4.4	1.5	0.	-331.45
9211	4.3	1.6	0.	-374.06
9212	4.4	1.6	5.e-002	3.7358e-005
9213	4.4	1.3	0.	-283.93
9214	4.3	1.4	0.	-326.06
9215	4.4	1.4	5.e-002	3.657e-005
9216	4.4	1.1	0.	-235.49
9217	4.3	1.2	0.	-276.17
9218	4.4	1.2	5.e-002	5.3207e-005
9219	4.4	0.9	0.	-187.25
9220	4.3	1.	0.	-225.58
9221	4.4	1.	5.e-002	2.7006e-005
9222	4.4	0.7	0.	-140.2
9223	4.3	0.8	0.	-175.35
9224	4.4	0.8	5.e-002	2.3543e-005
9225	4.4	0.5	0.	-95.031
9226	4.3	0.6	0.	-126.37
9227	4.4	0.6	5.e-002	4.4812e-005
9228	4.4	0.3	0.	-51.995
9229	4.3	0.4	0.	-79.161
9230	4.4	0.4	5.e-002	3.7255e-005
9231	4.3	0.2	0.	-33.782
9232	4.4	0.2	5.e-002	1.9054e-005
9233	4.4	0.1	0.	-16.662
9234	4.2	5.7	0.	-60.804
9235	4.1	5.8	0.	-38.862
9236	4.2	5.8	5.e-002	-2.1159e-005
9237	4.2	5.9	0.	-19.463
9238	4.2	5.5	0.	-110.46
9239	4.1	5.6	0.	-91.261
9240	4.2	5.6	5.e-002	-3.0383e-005
9241	4.2	5.3	0.	-161.48
9242	4.1	5.4	0.	-144.78
9243	4.2	5.4	5.e-002	-4.632e-005
9244	4.2	5.1	0.	-213.65
9245	4.1	5.2	0.	-199.4
9246	4.2	5.2	5.e-002	-3.6405e-005
9247	4.2	4.9	0.	-266.24
9248	4.1	5.	0.	-254.57
9249	4.2	5.	5.e-002	-5.6236e-005
9250	4.2	4.7	0.	-318.28
9251	4.1	4.8	0.	-309.37
9252	4.2	4.8	5.e-002	-2.3162e-005
9253	4.2	4.5	0.	-368.66
9254	4.1	4.6	0.	-362.75
9255	4.2	4.6	5.e-002	-4.1099e-005
9256	4.2	4.3	0.	-416.21
9257	4.1	4.4	0.	-413.56
9258	4.2	4.4	5.e-002	-2.021e-005
9259	4.2	4.1	0.	-459.72
9260	4.1	4.2	0.	-460.61
9261	4.2	4.2	5.e-002	-1.9086e-005
9262	4.2	3.9	0.	-498.04
9263	4.1	4.	0.	-502.75
9264	4.2	4.	5.e-002	-1.5394e-005
9265	4.2	3.7	0.	-530.1
9266	4.1	3.8	0.	-538.9
9267	4.2	3.8	5.e-002	-8.6597e-006
9268	4.2	3.5	0.	-555.01
9269	4.1	3.6	0.	-568.09
9270	4.2	3.6	5.e-002	2.2748e-007
9271	4.2	3.3	0.	-572.03
9272	4.1	3.4	0.	-589.53
9273	4.2	3.4	5.e-002	2.3922e-006
9274	4.2	3.1	0.	-580.67
9275	4.1	3.2	0.	-602.64
9276	4.2	3.2	5.e-002	-1.6355e-006
9277	4.2	2.9	0.	-580.67
9278	4.1	3.	0.	-607.05
9279	4.2	3.	5.e-002	-1.4524e-015
9280	4.2	2.7	0.	-572.03
9281	4.1	2.8	0.	-602.64
9282	4.2	2.8	5.e-002	3.4854e-006
9283	4.2	2.5	0.	-555.01
9284	4.1	2.6	0.	-589.53
9285	4.2	2.6	5.e-002	-3.2369e-006
9286	4.2	2.3	0.	-530.1
9287	4.1	2.4	0.	-568.09
9288	4.2	2.4	5.e-002	-5.4678e-006
9289	4.2	2.1	0.	-498.04
9290	4.1	2.2	0.	-538.9
9291	4.2	2.2	5.e-002	1.9337e-005
9292	4.2	1.9	0.	-459.72
9293	4.1	2.	0.	-502.75
9294	4.2	2.	5.e-002	3.6128e-005
9295	4.2	1.7	0.	-416.21
9296	4.1	1.8	0.	-460.61
9297	4.2	1.8	5.e-002	3.4079e-005
9298	4.2	1.5	0.	-368.66
9299	4.1	1.6	0.	-413.56
9300	4.2	1.6	5.e-002	2.5093e-005
9301	4.2	1.3	0.	-318.28
9302	4.1	1.4	0.	-362.75
9303	4.2	1.4	5.e-002	5.2855e-005
9304	4.2	1.1	0.	-266.24
9305	4.1	1.2	0.	-309.37
9306	4.2	1.2	5.e-002	4.2518e-005
9307	4.2	0.9	0.	-213.65
9308	4.1	1.	0.	-254.57
9309	4.2	1.	5.e-002	5.9765e-005
9310	4.2	0.7	0.	-161.48
9311	4.1	0.8	0.	-199.4
9312	4.2	0.8	5.e-002	4.1114e-005
9313	4.2	0.5	0.	-110.46
9314	4.1	0.6	0.	-144.78
9315	4.2	0.6	5.e-002	6.623e-005
9316	4.2	0.3	0.	-60.804
9317	4.1	0.4	0.	-91.261
9318	4.2	0.4	5.e-002	2.9619e-005
9319	4.1	0.2	0.	-38.862
9320	4.2	0.2	5.e-002	2.7672e-005
9321	4.2	0.1	0.	-19.463
9322	4.	5.7	0.	-69.134
9323	3.9	5.8	0.	-43.434
9324	4.	5.8	5.e-002	-1.7392e-005
9325	4.	5.9	0.	-21.929
9326	4.	5.5	0.	-125.53
9327	3.9	5.6	0.	-102.98
9328	4.	5.6	5.e-002	-2.1564e-005
9329	4.	5.3	0.	-182.65
9330	3.9	5.4	0.	-163.04
9331	4.	5.4	5.e-002	-6.8443e-005
9332	4.	5.1	0.	-240.28
9333	3.9	5.2	0.	-223.63
9334	4.	5.2	5.e-002	-2.5789e-005
9335	4.	4.9	0.	-297.67
9336	3.9	5.	0.	-284.17
9337	4.	5.	5.e-002	-4.1591e-005
9338	4.	4.7	0.	-353.82
9339	3.9	4.8	0.	-343.69
9340	4.	4.8	5.e-002	-6.1145e-005
9341	4.	4.5	0.	-407.63
9342	3.9	4.6	0.	-401.11
9343	4.	4.6	5.e-002	-4.269e-005
9344	4.	4.3	0.	-457.96
9345	3.9	4.4	0.	-455.31
9346	4.	4.4	5.e-002	-2.4984e-005
9347	4.	4.1	0.	-503.66
9348	3.9	4.2	0.	-505.12
9349	4.	4.2	5.e-002	-4.8423e-005
9350	4.	3.9	0.	-543.65
9351	3.9	4.	0.	-549.43
9352	4.	4.	5.e-002	-3.2322e-005
9353	4.	3.7	0.	-576.93
9354	3.9	3.8	0.	-587.23
9355	4.	3.8	5.e-002	-3.0363e-006
9356	4.	3.5	0.	-602.67
9357	3.9	3.6	0.	-617.61
9358	4.	3.6	5.e-002	-5.6019e-006
9359	4.	3.3	0.	-620.21
9360	3.9	3.4	0.	-639.86
9361	4.	3.4	5.e-002	-4.9584e-006
9362	4.	3.1	0.	-629.09
9363	3.9	3.2	0.	-653.43
9364	4.	3.2	5.e-002	-1.0149e-005
9365	4.	2.9	0.	-629.09
9366	3.9	3.	0.	-657.99
9367	4.	3.	5.e-002	-3.6272e-013
9368	4.	2.7	0.	-620.21
9369	3.9	2.8	0.	-653.43
9370	4.	2.8	5.e-002	-4.6889e-006
9371	4.	2.5	0.	-602.67
9372	3.9	2.6	0.	-639.86
9373	4.	2.6	5.e-002	6.1027e-006
9374	4.	2.3	0.	-576.93
9375	3.9	2.4	0.	-617.61
9376	4.	2.4	5.e-002	7.1936e-006
9377	4.	2.1	0.	-543.65
9378	3.9	2.2	0.	-587.23
9379	4.	2.2	5.e-002	1.373e-005
9380	4.	1.9	0.	-503.66
9381	3.9	2.	0.	-549.43
9382	4.	2.	5.e-002	3.409e-005
9383	4.	1.7	0.	-457.96
9384	3.9	1.8	0.	-505.12
9385	4.	1.8	5.e-002	6.6127e-005
9386	4.	1.5	0.	-407.63
9387	3.9	1.6	0.	-455.31
9388	4.	1.6	5.e-002	4.1795e-005
9389	4.	1.3	0.	-353.82
9390	3.9	1.4	0.	-401.11
9391	4.	1.4	5.e-002	7.644e-005
9392	4.	1.1	0.	-297.67
9393	3.9	1.2	0.	-343.69
9394	4.	1.2	5.e-002	6.2848e-005
9395	4.	0.9	0.	-240.28
9396	3.9	1.	0.	-284.17
9397	4.	1.	5.e-002	5.8262e-005
9398	4.	0.7	0.	-182.65
9399	3.9	0.8	0.	-223.63
9400	4.	0.8	5.e-002	6.4427e-005
9401	4.	0.5	0.	-125.53
9402	3.9	0.6	0.	-163.04
9403	4.	0.6	5.e-002	7.1829e-005
9404	4.	0.3	0.	-69.134
9405	3.9	0.4	0.	-102.98
9406	4.	0.4	5.e-002	3.656e-005
9407	3.9	0.2	0.	-43.434
9408	4.	0.2	5.e-002	2.7611e-005
9409	4.	0.1	0.	-21.929
9410	3.8	5.7	0.	-77.048
9411	3.7	5.8	0.	-47.496
9412	3.8	5.8	5.e-002	-2.959e-005
9413	3.8	5.9	0.	-24.052
9414	3.8	5.5	0.	-140.41
9415	3.7	5.6	0.	-114.43
9416	3.8	5.6	5.e-002	-4.2882e-005
9417	3.8	5.3	0.	-203.95
9418	3.7	5.4	0.	-181.34
9419	3.8	5.4	5.e-002	-2.5128e-005
9420	3.8	5.1	0.	-267.46
9421	3.7	5.2	0.	-248.32
9422	3.8	5.2	5.e-002	-4.6799e-005
9423	3.8	4.9	0.	-330.14
9424	3.7	5.	0.	-314.72
9425	3.8	5.	5.e-002	-4.7765e-005
9426	3.8	4.7	0.	-390.95
9427	3.7	4.8	0.	-379.51
9428	3.8	4.8	5.e-002	-7.9828e-005
9429	3.8	4.5	0.	-448.77
9430	3.7	4.6	0.	-441.57
9431	3.8	4.6	5.e-002	-2.8986e-005
9432	3.8	4.3	0.	-502.46
9433	3.7	4.4	0.	-499.74
9434	3.8	4.4	5.e-002	-3.8133e-005
9435	3.8	4.1	0.	-550.9
9436	3.7	4.2	0.	-552.86
9437	3.8	4.2	5.e-002	-3.7243e-005
9438	3.8	3.9	0.	-593.05
9439	3.7	4.	0.	-599.86
9440	3.8	4.	5.e-002	-5.2285e-006
9441	3.8	3.7	0.	-627.97
9442	3.7	3.8	0.	-639.76
9443	3.8	3.8	5.e-002	-8.867e-006
9444	3.8	3.5	0.	-654.88
9445	3.7	3.6	0.	-671.71
9446	3.8	3.6	5.e-002	-1.2584e-005
9447	3.8	3.3	0.	-673.16
9448	3.7	3.4	0.	-695.03
9449	3.8	3.4	5.e-002	-5.321e-006
9450	3.8	3.1	0.	-682.41
9451	3.7	3.2	0.	-709.23
9452	3.8	3.2	5.e-002	-1.0422e-005
9453	3.8	2.9	0.	-682.41
9454	3.7	3.	0.	-714.
9455	3.8	3.	5.e-002	-6.1707e-013
9456	3.8	2.7	0.	-673.16
9457	3.7	2.8	0.	-709.23
9458	3.8	2.8	5.e-002	-4.4421e-006
9459	3.8	2.5	0.	-654.88
9460	3.7	2.6	0.	-695.03
9461	3.8	2.6	5.e-002	8.5881e-006
9462	3.8	2.3	0.	-627.97
9463	3.7	2.4	0.	-671.71
9464	3.8	2.4	5.e-002	1.8463e-005
9465	3.8	2.1	0.	-593.05
9466	3.7	2.2	0.	-639.76
9467	3.8	2.2	5.e-002	2.6171e-005
9468	3.8	1.9	0.	-550.9
9469	3.7	2.	0.	-599.86
9470	3.8	2.	5.e-002	1.7221e-005
9471	3.8	1.7	0.	-502.46
9472	3.7	1.8	0.	-552.86
9473	3.8	1.8	5.e-002	2.8403e-005
9474	3.8	1.5	0.	-448.77
9475	3.7	1.6	0.	-499.74
9476	3.8	1.6	5.e-002	5.3443e-005
9477	3.8	1.3	0.	-390.95
9478	3.7	1.4	0.	-441.57
9479	3.8	1.4	5.e-002	3.4118e-005
9480	3.8	1.1	0.	-330.14
9481	3.7	1.2	0.	-379.51
9482	3.8	1.2	5.e-002	4.5915e-005
9483	3.8	0.9	0.	-267.46
9484	3.7	1.	0.	-314.72
9485	3.8	1.	5.e-002	5.2158e-005
9486	3.8	0.7	0.	-203.95
9487	3.7	0.8	0.	-248.32
9488	3.8	0.8	5.e-002	9.1703e-005
9489	3.8	0.5	0.	-140.41
9490	3.7	0.6	0.	-181.34
9491	3.8	0.6	5.e-002	4.4932e-005
9492	3.8	0.3	0.	-77.048
9493	3.7	0.4	0.	-114.43
9494	3.8	0.4	5.e-002	6.0173e-005
9495	3.7	0.2	0.	-47.496
9496	3.8	0.2	5.e-002	2.9033e-005
9497	3.8	0.1	0.	-24.052
9498	3.6	5.7	0.	-84.589
9499	3.5	5.8	0.	-51.025
9500	3.6	5.8	5.e-002	-2.033e-005
9501	3.6	5.9	0.	-25.809
9502	3.6	5.5	0.	-155.26
9503	3.5	5.6	0.	-125.7
9504	3.6	5.6	5.e-002	-4.3867e-005
9505	3.6	5.3	0.	-225.62
9506	3.5	5.4	0.	-199.87
9507	3.6	5.4	5.e-002	-1.0048e-004
9508	3.6	5.1	0.	-295.5
9509	3.5	5.2	0.	-273.74
9510	3.6	5.2	5.e-002	-5.1371e-005
9511	3.6	4.9	0.	-364.03
9512	3.5	5.	0.	-346.58
9513	3.6	5.	5.e-002	-2.7132e-005
9514	3.6	4.7	0.	-430.09
9515	3.5	4.8	0.	-417.24
9516	3.6	4.8	5.e-002	-7.2412e-005
9517	3.6	4.5	0.	-492.51
9518	3.5	4.6	0.	-484.55
9519	3.6	4.6	5.e-002	-6.3405e-005
9520	3.6	4.3	0.	-550.13
9521	3.5	4.4	0.	-547.28
9522	3.6	4.4	5.e-002	-7.834e-006
9523	3.6	4.1	0.	-601.84
9524	3.5	4.2	0.	-604.27
9525	3.6	4.2	5.e-002	-2.622e-005
9526	3.6	3.9	0.	-646.62
9527	3.5	4.	0.	-654.45
9528	3.6	4.	5.e-002	-2.2244e-005
9529	3.6	3.7	0.	-683.57
9530	3.5	3.8	0.	-696.86
9531	3.6	3.8	5.e-002	-1.0093e-005
9532	3.6	3.5	0.	-711.95
9533	3.5	3.6	0.	-730.71
9534	3.6	3.6	5.e-002	-8.1502e-006
9535	3.6	3.3	0.	-731.19
9536	3.5	3.4	0.	-755.35
9537	3.6	3.4	5.e-002	-5.7554e-006
9538	3.6	3.1	0.	-740.91
9539	3.5	3.2	0.	-770.32
9540	3.6	3.2	5.e-002	-3.0786e-006
9541	3.6	2.9	0.	-740.91
9542	3.5	3.	0.	-775.34
9543	3.6	3.	5.e-002	-7.6294e-006
9544	3.6	2.7	0.	-731.19
9545	3.5	2.8	0.	-770.32
9546	3.6	2.8	5.e-002	3.2186e-006
9547	3.6	2.5	0.	-711.95
9548	3.5	2.6	0.	-755.35
9549	3.6	2.6	5.e-002	6.4748e-006
9550	3.6	2.3	0.	-683.57
9551	3.5	2.4	0.	-730.71
9552	3.6	2.4	5.e-002	9.6784e-006
9553	3.6	2.1	0.	-646.62
9554	3.5	2.2	0.	-696.86
9555	3.6	2.2	5.e-002	4.6794e-006
9556	3.6	1.9	0.	-601.84
9557	3.5	2.	0.	-654.45
9558	3.6	2.	5.e-002	2.3204e-005
9559	3.6	1.7	0.	-550.13
9560	3.5	1.8	0.	-604.27
9561	3.6	1.8	5.e-002	4.1345e-005
9562	3.6	1.5	0.	-492.51
9563	3.5	1.6	0.	-547.28
9564	3.6	1.6	5.e-002	4.3408e-005
9565	3.6	1.3	0.	-430.09
9566	3.5	1.4	0.	-484.55
9567	3.6	1.4	5.e-002	6.9572e-005
9568	3.6	1.1	0.	-364.03
9569	3.5	1.2	0.	-417.24
9570	3.6	1.2	5.e-002	9.4163e-005
9571	3.6	0.9	0.	-295.5
9572	3.5	1.	0.	-346.58
9573	3.6	1.	5.e-002	5.4465e-005
9574	3.6	0.7	0.	-225.62
9575	3.5	0.8	0.	-273.74
9576	3.6	0.8	5.e-002	7.3392e-005
9577	3.6	0.5	0.	-155.26
9578	3.5	0.6	0.	-199.87
9579	3.6	0.6	5.e-002	7.8119e-005
9580	3.6	0.3	0.	-84.589
9581	3.5	0.4	0.	-125.7
9582	3.6	0.4	5.e-002	5.1118e-005
9583	3.5	0.2	0.	-51.025
9584	3.6	0.2	5.e-002	3.5014e-005
9585	3.6	0.1	0.	-25.809
9586	3.4	5.7	0.	-91.782
9587	3.3	5.8	0.	-53.982
9588	3.4	5.8	5.e-002	-2.4465e-005
9589	3.4	5.9	0.	-27.164
9590	3.4	5.5	0.	-170.2
9591	3.3	5.6	0.	-136.88
9592	3.4	5.6	5.e-002	-7.8864e-005
9593	3.4	5.3	0.	-247.89
9594	3.3	5.4	0.	-218.84
9595	3.4	5.4	5.e-002	-8.0421e-005
9596	3.4	5.1	0.	-324.73
9597	3.3	5.2	0.	-300.19
9598	3.4	5.2	5.e-002	-5.3469e-005
9599	3.4	4.9	0.	-399.72
9600	3.3	5.	0.	-380.11
9601	3.4	5.	5.e-002	-5.8398e-005
9602	3.4	4.7	0.	-471.65
9603	3.3	4.8	0.	-457.31
9604	3.4	4.8	5.e-002	-7.3068e-005
9605	3.4	4.5	0.	-539.29
9606	3.3	4.6	0.	-530.5
9607	3.4	4.6	5.e-002	-1.4276e-005
9608	3.4	4.3	0.	-601.41
9609	3.3	4.4	0.	-598.39
9610	3.4	4.4	5.e-002	-4.0791e-005
9611	3.4	4.1	0.	-656.9
9612	3.3	4.2	0.	-659.78
9613	3.4	4.2	5.e-002	-1.2886e-005
9614	3.4	3.9	0.	-704.75
9615	3.3	4.	0.	-713.59
9616	3.4	4.	5.e-002	-1.1718e-005
9617	3.4	3.7	0.	-744.08
9618	3.3	3.8	0.	-758.9
9619	3.4	3.8	5.e-002	-1.1213e-005
9620	3.4	3.5	0.	-774.21
9621	3.3	3.6	0.	-794.93
9622	3.4	3.6	5.e-002	-1.3361e-005
9623	3.4	3.3	0.	-794.58
9624	3.3	3.4	0.	-821.09
9625	3.4	3.4	5.e-002	-6.7895e-006
9626	3.4	3.1	0.	-804.86
9627	3.3	3.2	0.	-836.95
9628	3.4	3.2	5.e-002	-1.0696e-005
9629	3.4	2.9	0.	-804.86
9630	3.3	3.	0.	-842.27
9631	3.4	3.	5.e-002	-1.5259e-005
9632	3.4	2.7	0.	-794.58
9633	3.3	2.8	0.	-836.95
9634	3.4	2.8	5.e-002	-3.5648e-006
9635	3.4	2.5	0.	-774.21
9636	3.3	2.6	0.	-821.09
9637	3.4	2.6	5.e-002	8.2982e-006
9638	3.4	2.3	0.	-744.08
9639	3.3	2.4	0.	-794.93
9640	3.4	2.4	5.e-002	1.2047e-005
9641	3.4	2.1	0.	-704.75
9642	3.3	2.2	0.	-758.9
9643	3.4	2.2	5.e-002	1.1213e-005
9644	3.4	1.9	0.	-656.9
9645	3.3	2.	0.	-713.59
9646	3.4	2.	5.e-002	3.9836e-005
9647	3.4	1.7	0.	-601.41
9648	3.3	1.8	0.	-659.78
9649	3.4	1.8	5.e-002	4.4451e-005
9650	3.4	1.5	0.	-539.29
9651	3.3	1.6	0.	-598.39
9652	3.4	1.6	5.e-002	6.1358e-005
9653	3.4	1.3	0.	-471.65
9654	3.3	1.4	0.	-530.5
9655	3.4	1.4	5.e-002	1.348e-005
9656	3.4	1.1	0.	-399.72
9657	3.3	1.2	0.	-457.31
9658	3.4	1.2	5.e-002	8.0388e-005
9659	3.4	0.9	0.	-324.73
9660	3.3	1.	0.	-380.11
9661	3.4	1.	5.e-002	8.3401e-005
9662	3.4	0.7	0.	-247.89
9663	3.3	0.8	0.	-300.19
9664	3.4	0.8	5.e-002	9.8668e-005
9665	3.4	0.5	0.	-170.2
9666	3.3	0.6	0.	-218.84
9667	3.4	0.6	5.e-002	1.0863e-004
9668	3.4	0.3	0.	-91.782
9669	3.3	0.4	0.	-136.88
9670	3.4	0.4	5.e-002	5.5832e-005
9671	3.3	0.2	0.	-53.982
9672	3.4	0.2	5.e-002	4.2288e-005
9673	3.4	0.1	0.	-27.164
9674	3.2	5.7	0.	-98.638
9675	3.1	5.8	0.	-56.308
9676	3.2	5.8	5.e-002	-4.1969e-005
9677	3.2	5.9	0.	-28.065
9678	3.2	5.5	0.	-185.37
9679	3.1	5.6	0.	-148.04
9680	3.2	5.6	5.e-002	-3.5046e-005
9681	3.2	5.3	0.	-271.01
9682	3.1	5.4	0.	-238.43
9683	3.2	5.4	5.e-002	-9.0521e-005
9684	3.2	5.1	0.	-355.47
9685	3.1	5.2	0.	-327.98
9686	3.2	5.2	5.e-002	-8.747e-005
9687	3.2	4.9	0.	-437.62
9688	3.1	5.	0.	-415.72
9689	3.2	5.	5.e-002	-3.7577e-005
9690	3.2	4.7	0.	-516.1
9691	3.1	4.8	0.	-500.18
9692	3.2	4.8	5.e-002	-5.7041e-005
9693	3.2	4.5	0.	-589.57
9694	3.1	4.6	0.	-579.92
9695	3.2	4.6	5.e-002	-5.3793e-005
9696	3.2	4.3	0.	-656.76
9697	3.1	4.4	0.	-653.57
9698	3.2	4.4	5.e-002	-6.9086e-005
9699	3.2	4.1	0.	-716.51
9700	3.1	4.2	0.	-719.86
9701	3.2	4.2	5.e-002	-3.7323e-005
9702	3.2	3.9	0.	-767.82
9703	3.1	4.	0.	-777.72
9704	3.2	4.	5.e-002	-3.6246e-005
9705	3.2	3.7	0.	-809.85
9706	3.1	3.8	0.	-826.24
9707	3.2	3.8	5.e-002	-1.8203e-005
9708	3.2	3.5	0.	-841.94
9709	3.1	3.6	0.	-864.69
9710	3.2	3.6	5.e-002	-8.1962e-006
9711	3.2	3.3	0.	-863.6
9712	3.1	3.4	0.	-892.53
9713	3.2	3.4	5.e-002	-6.8025e-006
9714	3.2	3.1	0.	-874.51
9715	3.1	3.2	0.	-909.38
9716	3.2	3.2	5.e-002	-3.4107e-006
9717	3.2	2.9	0.	-874.51
9718	3.1	3.	0.	-915.02
9719	3.2	3.	5.e-002	-1.3938e-012
9720	3.2	2.7	0.	-863.6
9721	3.1	2.8	0.	-909.38
9722	3.2	2.8	5.e-002	4.0786e-006
9723	3.2	2.5	0.	-841.94
9724	3.1	2.6	0.	-892.53
9725	3.2	2.6	5.e-002	1.1625e-005
9726	3.2	2.3	0.	-809.85
9727	3.1	2.4	0.	-864.69
9728	3.2	2.4	5.e-002	-1.0852e-005
9729	3.2	2.1	0.	-767.82
9730	3.1	2.2	0.	-826.24
9731	3.2	2.2	5.e-002	2.3372e-005
9732	3.2	1.9	0.	-716.51
9733	3.1	2.	0.	-777.72
9734	3.2	2.	5.e-002	5.0649e-005
9735	3.2	1.7	0.	-656.76
9736	3.1	1.8	0.	-719.86
9737	3.2	1.8	5.e-002	6.1338e-005
9738	3.2	1.5	0.	-589.57
9739	3.1	1.6	0.	-653.57
9740	3.2	1.6	5.e-002	7.0836e-005
9741	3.2	1.3	0.	-516.1
9742	3.1	1.4	0.	-579.92
9743	3.2	1.4	5.e-002	8.2511e-005
9744	3.2	1.1	0.	-437.62
9745	3.1	1.2	0.	-500.18
9746	3.2	1.2	5.e-002	8.4851e-005
9747	3.2	0.9	0.	-355.47
9748	3.1	1.	0.	-415.72
9749	3.2	1.	5.e-002	3.5403e-005
9750	3.2	0.7	0.	-271.01
9751	3.1	0.8	0.	-327.98
9752	3.2	0.8	5.e-002	9.2999e-005
9753	3.2	0.5	0.	-185.37
9754	3.1	0.6	0.	-238.43
9755	3.2	0.6	5.e-002	1.2223e-004
9756	3.2	0.3	0.	-98.638
9757	3.1	0.4	0.	-148.04
9758	3.2	0.4	5.e-002	6.1452e-005
9759	3.1	0.2	0.	-56.308
9760	3.2	0.2	5.e-002	4.7881e-005
9761	3.2	0.1	0.	-28.065
9762	3.	5.7	0.	-105.16
9763	2.9	5.8	0.	-57.928
9764	3.	5.8	5.e-002	-1.5105e-005
9765	3.	5.9	0.	-28.448
9766	3.	5.5	0.	-200.92
9767	2.9	5.6	0.	-159.25
9768	3.	5.6	5.e-002	-1.2731e-004
9769	3.	5.3	0.	-295.25
9770	2.9	5.4	0.	-258.87
9771	3.	5.4	5.e-002	-3.6234e-005
9772	3.	5.1	0.	-388.11
9773	2.9	5.2	0.	-357.47
9774	3.	5.2	5.e-002	-3.8736e-005
9775	3.	4.9	0.	-478.18
9776	2.9	5.	0.	-453.87
9777	3.	5.	5.e-002	-4.0491e-005
9778	3.	4.7	0.	-563.94
9779	2.9	4.8	0.	-546.39
9780	3.	4.8	5.e-002	-6.799e-005
9781	3.	4.5	0.	-643.9
9782	2.9	4.6	0.	-633.39
9783	3.	4.6	5.e-002	-2.6947e-006
9784	3.	4.3	0.	-716.69
9785	2.9	4.4	0.	-713.38
9786	3.	4.4	5.e-002	-3.4004e-005
9787	3.	4.1	0.	-781.14
9788	2.9	4.2	0.	-785.04
9789	3.	4.2	5.e-002	-3.9531e-005
9790	3.	3.9	0.	-836.24
9791	2.9	4.	0.	-847.29
9792	3.	4.	5.e-002	-2.9924e-005
9793	3.	3.7	0.	-881.21
9794	2.9	3.8	0.	-899.26
9795	3.	3.8	5.e-002	-1.1714e-005
9796	3.	3.5	0.	-915.44
9797	2.9	3.6	0.	-940.29
9798	3.	3.6	5.e-002	-1.4714e-005
9799	3.	3.3	0.	-938.48
9800	2.9	3.4	0.	-969.9
9801	3.	3.4	5.e-002	-6.8441e-006
9802	3.	3.1	0.	-950.07
9803	2.9	3.2	0.	-987.79
9804	3.	3.2	5.e-002	-2.5403e-006
9805	3.	2.9	0.	-950.07
9806	2.9	3.	0.	-993.77
9807	3.	3.	5.e-002	-1.6399e-012
9808	3.	2.7	0.	-938.48
9809	2.9	2.8	0.	-987.79
9810	3.	2.8	5.e-002	5.4378e-006
9811	3.	2.5	0.	-915.44
9812	2.9	2.6	0.	-969.9
9813	3.	2.6	5.e-002	9.1048e-006
9814	3.	2.3	0.	-881.21
9815	2.9	2.4	0.	-940.29
9816	3.	2.4	5.e-002	1.7978e-005
9817	3.	2.1	0.	-836.24
9818	2.9	2.2	0.	-899.26
9819	3.	2.2	5.e-002	1.9924e-005
9820	3.	1.9	0.	-781.14
9821	2.9	2.	0.	-847.29
9822	3.	2.	5.e-002	3.8789e-005
9823	3.	1.7	0.	-716.69
9824	2.9	1.8	0.	-785.04
9825	3.	1.8	5.e-002	3.2631e-005
9826	3.	1.5	0.	-643.9
9827	2.9	1.6	0.	-713.38
9828	3.	1.6	5.e-002	5.214e-005
9829	3.	1.3	0.	-563.94
9830	2.9	1.4	0.	-633.39
9831	3.	1.4	5.e-002	6.1411e-005
9832	3.	1.1	0.	-478.18
9833	2.9	1.2	0.	-546.39
9834	3.	1.2	5.e-002	9.4424e-005
9835	3.	0.9	0.	-388.11
9836	2.9	1.	0.	-453.87
9837	3.	1.	5.e-002	9.8612e-005
9838	3.	0.7	0.	-295.25
9839	2.9	0.8	0.	-357.47
9840	3.	0.8	5.e-002	1.3587e-004
9841	3.	0.5	0.	-200.92
9842	2.9	0.6	0.	-258.87
9843	3.	0.6	5.e-002	1.3351e-004
9844	3.	0.3	0.	-105.16
9845	2.9	0.4	0.	-159.25
9846	3.	0.4	5.e-002	1.2731e-004
9847	2.9	0.2	0.	-57.928
9848	3.	0.2	5.e-002	5.4886e-005
9849	3.	0.1	0.	-28.448
9850	2.8	5.7	0.	-111.33
9851	2.7	5.8	0.	-58.751
9852	2.8	5.8	5.e-002	-2.7118e-005
9853	2.8	5.9	0.	-28.229
9854	2.8	5.5	0.	-216.99
9855	2.7	5.6	0.	-170.59
9856	2.8	5.6	5.e-002	-1.1017e-004
9857	2.8	5.3	0.	-320.92
9858	2.7	5.4	0.	-280.42
9859	2.8	5.4	5.e-002	-1.1432e-004
9860	2.8	5.1	0.	-423.09
9861	2.7	5.2	0.	-389.09
9862	2.8	5.2	5.e-002	-1.1865e-004
9863	2.8	4.9	0.	-521.97
9864	2.7	5.	0.	-495.14
9865	2.8	5.	5.e-002	-3.9669e-005
9866	2.8	4.7	0.	-615.78
9867	2.7	4.8	0.	-596.59
9868	2.8	4.8	5.e-002	-7.312e-005
9869	2.8	4.5	0.	-702.86
9870	2.7	4.6	0.	-691.58
9871	2.8	4.6	5.e-002	-6.1824e-005
9872	2.8	4.3	0.	-781.77
9873	2.7	4.4	0.	-778.46
9874	2.8	4.4	5.e-002	-1.4528e-005
9875	2.8	4.1	0.	-851.28
9876	2.7	4.2	0.	-855.88
9877	2.8	4.2	5.e-002	-3.0506e-005
9878	2.8	3.9	0.	-910.43
9879	2.7	4.	0.	-922.76
9880	2.8	4.	5.e-002	-1.5413e-005
9881	2.8	3.7	0.	-958.49
9882	2.7	3.8	0.	-978.31
9883	2.8	3.8	5.e-002	-1.1883e-005
9884	2.8	3.5	0.	-994.94
9885	2.7	3.6	0.	-1022.
9886	2.8	3.6	5.e-002	-1.6496e-005
9887	2.8	3.3	0.	-1019.4
9888	2.7	3.4	0.	-1053.4
9889	2.8	3.4	5.e-002	-6.8887e-006
9890	2.8	3.1	0.	-1031.7
9891	2.7	3.2	0.	-1072.3
9892	2.8	3.2	5.e-002	-3.7132e-006
9893	2.8	2.9	0.	-1031.7
9894	2.7	3.	0.	-1078.6
9895	2.8	3.	5.e-002	-1.7966e-012
9896	2.8	2.7	0.	-1019.4
9897	2.7	2.8	0.	-1072.3
9898	2.8	2.8	5.e-002	3.7132e-006
9899	2.8	2.5	0.	-994.94
9900	2.7	2.6	0.	-1053.4
9901	2.8	2.6	5.e-002	7.6138e-006
9902	2.8	2.3	0.	-958.49
9903	2.7	2.4	0.	-1022.
9904	2.8	2.4	5.e-002	1.5451e-005
9905	2.8	2.1	0.	-910.43
9906	2.7	2.2	0.	-978.31
9907	2.8	2.2	5.e-002	2.1697e-005
9908	2.8	1.9	0.	-851.28
9909	2.7	2.	0.	-922.76
9910	2.8	2.	5.e-002	2.7953e-005
9911	2.8	1.7	0.	-781.77
9912	2.7	1.8	0.	-855.88
9913	2.8	1.8	5.e-002	4.1844e-005
9914	2.8	1.5	0.	-702.86
9915	2.7	1.6	0.	-778.46
9916	2.8	1.6	5.e-002	5.6897e-005
9917	2.8	1.3	0.	-615.78
9918	2.7	1.4	0.	-691.58
9919	2.8	1.4	5.e-002	8.6387e-005
9920	2.8	1.1	0.	-521.97
9921	2.7	1.2	0.	-596.59
9922	2.8	1.2	5.e-002	1.2318e-004
9923	2.8	0.9	0.	-423.09
9924	2.7	1.	0.	-495.14
9925	2.8	1.	5.e-002	1.3962e-004
9926	2.8	0.7	0.	-320.92
9927	2.7	0.8	0.	-389.09
9928	2.8	0.8	5.e-002	8.0358e-005
9929	2.8	0.5	0.	-216.99
9930	2.7	0.6	0.	-280.42
9931	2.8	0.6	5.e-002	1.1588e-004
9932	2.8	0.3	0.	-111.33
9933	2.7	0.4	0.	-170.59
9934	2.8	0.4	5.e-002	1.3791e-004
9935	2.7	0.2	0.	-58.751
9936	2.8	0.2	5.e-002	5.4237e-005
9937	2.8	0.1	0.	-28.23
9938	2.6	5.7	0.	-117.14
9939	2.5	5.8	0.	-58.674
9940	2.6	5.8	5.e-002	-1.7674e-005
9941	2.6	5.9	0.	-27.307
9942	2.6	5.5	0.	-233.78
9943	2.5	5.6	0.	-182.19
9944	2.6	5.6	5.e-002	-4.1992e-005
9945	2.6	5.3	0.	-348.4
9946	2.5	5.4	0.	-303.44
9947	2.6	5.4	5.e-002	-4.7246e-005
9948	2.6	5.1	0.	-460.98
9949	2.5	5.2	0.	-423.4
9950	2.6	5.2	5.e-002	-1.2158e-004
9951	2.6	4.9	0.	-569.65
9952	2.5	5.	0.	-540.25
9953	2.6	5.	5.e-002	-1.4826e-004
9954	2.6	4.7	0.	-672.33
9955	2.5	4.8	0.	-651.59
9956	2.6	4.8	5.e-002	-4.6808e-005
9957	2.6	4.5	0.	-767.18
9958	2.5	4.6	0.	-755.3
9959	2.6	4.6	5.e-002	-6.6027e-005
9960	2.6	4.3	0.	-852.63
9961	2.5	4.4	0.	-849.57
9962	2.6	4.4	5.e-002	-3.7403e-005
9963	2.6	4.1	0.	-927.47
9964	2.5	4.2	0.	-933.01
9965	2.6	4.2	5.e-002	-1.3874e-005
9966	2.6	3.9	0.	-990.8
9967	2.5	4.	0.	-1004.6
9968	2.6	4.	5.e-002	-2.5596e-005
9969	2.6	3.7	0.	-1042.
9970	2.5	3.8	0.	-1063.8
9971	2.6	3.8	5.e-002	-1.2026e-005
9972	2.6	3.5	0.	-1080.7
9973	2.5	3.6	0.	-1110.
9974	2.6	3.6	5.e-002	-1.0536e-005
9975	2.6	3.3	0.	-1106.5
9976	2.5	3.4	0.	-1143.1
9977	2.6	3.4	5.e-002	-6.5492e-006
9978	2.6	3.1	0.	-1119.5
9979	2.5	3.2	0.	-1163.
9980	2.6	3.2	5.e-002	-3.7156e-006
9981	2.6	2.9	0.	-1119.5
9982	2.5	3.	0.	-1169.6
9983	2.6	3.	5.e-002	-1.9873e-012
9984	2.6	2.7	0.	-1106.5
9985	2.5	2.8	0.	-1163.
9986	2.6	2.8	5.e-002	4.3931e-006
9987	2.6	2.5	0.	-1080.7
9988	2.5	2.6	0.	-1143.1
9989	2.6	2.6	5.e-002	7.2769e-006
9990	2.6	2.3	0.	-1042.
9991	2.5	2.4	0.	-1110.
9992	2.6	2.4	5.e-002	1.0536e-005
9993	2.6	2.1	0.	-990.8
9994	2.5	2.2	0.	-1063.8
9995	2.6	2.2	5.e-002	1.4698e-005
9996	2.6	1.9	0.	-927.47
9997	2.5	2.	0.	-1004.6
9998	2.6	2.	5.e-002	4.1801e-005
9999	2.6	1.7	0.	-852.63
10000	2.5	1.8	0.	-933.01
10001	2.6	1.8	5.e-002	6.7313e-005
10002	2.6	1.5	0.	-767.18
10003	2.5	1.6	0.	-849.57
10004	2.6	1.6	5.e-002	8.2721e-005
10005	2.6	1.3	0.	-672.33
10006	2.5	1.4	0.	-755.3
10007	2.6	1.4	5.e-002	6.9821e-005
10008	2.6	1.1	0.	-569.65
10009	2.5	1.2	0.	-651.59
10010	2.6	1.2	5.e-002	7.8365e-005
10011	2.6	0.9	0.	-460.98
10012	2.5	1.	0.	-540.25
10013	2.6	1.	5.e-002	1.1685e-004
10014	2.6	0.7	0.	-348.4
10015	2.5	0.8	0.	-423.4
10016	2.6	0.8	5.e-002	8.7216e-005
10017	2.6	0.5	0.	-233.78
10018	2.5	0.6	0.	-303.44
10019	2.6	0.6	5.e-002	1.2361e-004
10020	2.6	0.3	0.	-117.14
10021	2.5	0.4	0.	-182.19
10022	2.6	0.4	5.e-002	1.569e-004
10023	2.5	0.2	0.	-58.674
10024	2.6	0.2	5.e-002	5.7729e-005
10025	2.6	0.1	0.	-27.307
10026	2.4	5.7	0.	-122.59
10027	2.3	5.8	0.	-57.586
10028	2.4	5.8	5.e-002	-1.8761e-005
10029	2.4	5.9	0.	-25.558
10030	2.4	5.5	0.	-251.56
10031	2.3	5.6	0.	-194.2
10032	2.4	5.6	5.e-002	-1.271e-004
10033	2.4	5.3	0.	-378.22
10034	2.3	5.4	0.	-328.39
10035	2.4	5.4	5.e-002	-9.4829e-005
10036	2.4	5.1	0.	-502.49
10037	2.3	5.2	0.	-461.15
10038	2.4	5.2	5.e-002	-1.705e-004
10039	2.4	4.9	0.	-622.07
10040	2.3	5.	0.	-590.13
10041	2.4	5.	5.e-002	-1.6835e-004
10042	2.4	4.7	0.	-734.5
10043	2.3	4.8	0.	-712.42
10044	2.4	4.8	5.e-002	-4.5584e-005
10045	2.4	4.5	0.	-837.7
10046	2.3	4.6	0.	-825.54
10047	2.4	4.6	5.e-002	-9.953e-005
10048	2.4	4.3	0.	-930.03
10049	2.3	4.4	0.	-927.57
10050	2.4	4.4	5.e-002	-6.3058e-005
10051	2.4	4.1	0.	-1010.3
10052	2.3	4.2	0.	-1017.1
10053	2.4	4.2	5.e-002	-5.1398e-005
10054	2.4	3.9	0.	-1077.8
10055	2.3	4.	0.	-1093.4
10056	2.4	4.	5.e-002	-1.2668e-005
10057	2.4	3.7	0.	-1132.
10058	2.3	3.8	0.	-1155.9
10059	2.4	3.8	5.e-002	-1.9669e-005
10060	2.4	3.5	0.	-1172.7
10061	2.3	3.6	0.	-1204.4
10062	2.4	3.6	5.e-002	-1.6722e-005
10063	2.4	3.3	0.	-1199.8
10064	2.3	3.4	0.	-1239.
10065	2.4	3.4	5.e-002	-7.2598e-006
10066	2.4	3.1	0.	-1213.4
10067	2.3	3.2	0.	-1259.8
10068	2.4	3.2	5.e-002	-3.6948e-006
10069	2.4	2.9	0.	-1213.4
10070	2.3	3.	0.	-1266.6
10071	2.4	3.	5.e-002	-2.1559e-012
10072	2.4	2.7	0.	-1199.8
10073	2.3	2.8	0.	-1259.8
10074	2.4	2.8	5.e-002	3.8796e-006
10075	2.4	2.5	0.	-1172.7
10076	2.3	2.6	0.	-1239.
10077	2.4	2.6	5.e-002	7.9858e-006
10078	2.4	2.3	0.	-1132.
10079	2.3	2.4	0.	-1204.4
10080	2.4	2.4	5.e-002	2.1828e-005
10081	2.4	2.1	0.	-1077.8
10082	2.3	2.2	0.	-1155.9
10083	2.4	2.2	5.e-002	2.2361e-005
10084	2.4	1.9	0.	-1010.3
10085	2.3	2.	0.	-1093.4
10086	2.4	2.	5.e-002	4.601e-005
10087	2.4	1.7	0.	-930.03
10088	2.3	1.8	0.	-1017.1
10089	2.4	1.8	5.e-002	5.4914e-005
10090	2.4	1.5	0.	-837.7
10091	2.3	1.6	0.	-927.57
10092	2.4	1.6	5.e-002	3.8094e-005
10093	2.4	1.3	0.	-734.5
10094	2.3	1.4	0.	-825.54
10095	2.4	1.4	5.e-002	7.3977e-005
10096	2.4	1.1	0.	-622.07
10097	2.3	1.2	0.	-712.42
10098	2.4	1.2	5.e-002	8.3595e-005
10099	2.4	0.9	0.	-502.49
10100	2.3	1.	0.	-590.13
10101	2.4	1.	5.e-002	5.3144e-005
10102	2.4	0.7	0.	-378.22
10103	2.3	0.8	0.	-461.15
10104	2.4	0.8	5.e-002	1.8114e-004
10105	2.4	0.5	0.	-251.56
10106	2.3	0.6	0.	-328.39
10107	2.4	0.6	5.e-002	1.8281e-004
10108	2.4	0.3	0.	-122.59
10109	2.3	0.4	0.	-194.2
10110	2.4	0.4	5.e-002	6.2875e-005
10111	2.3	0.2	0.	-57.586
10112	2.4	0.2	5.e-002	6.5093e-005
10113	2.4	0.1	0.	-25.558
10114	2.2	5.7	0.	-127.69
10115	2.1	5.8	0.	-55.384
10116	2.2	5.8	5.e-002	-3.3367e-005
10117	2.2	5.9	0.	-22.837
10118	2.2	5.5	0.	-270.7
10119	2.1	5.6	0.	-206.87
10120	2.2	5.6	5.e-002	-1.5286e-004
10121	2.2	5.3	0.	-411.08
10122	2.1	5.4	0.	-355.95
10123	2.2	5.4	5.e-002	-2.0463e-004
10124	2.2	5.1	0.	-548.6
10125	2.1	5.2	0.	-503.39
10126	2.2	5.2	5.e-002	-1.9511e-004
10127	2.2	4.9	0.	-680.36
10128	2.1	5.	0.	-646.06
10129	2.2	5.	5.e-002	-5.5854e-005
10130	2.2	4.7	0.	-803.43
10131	2.1	4.8	0.	-780.4
10132	2.2	4.8	5.e-002	-1.2177e-004
10133	2.2	4.5	0.	-915.47
10134	2.1	4.6	0.	-903.56
10135	2.2	4.6	5.e-002	-4.2746e-005
10136	2.2	4.3	0.	-1014.8
10137	2.1	4.4	0.	-1013.5
10138	2.2	4.4	5.e-002	-6.568e-005
10139	2.2	4.1	0.	-1100.4
10140	2.1	4.2	0.	-1109.
10141	2.2	4.2	5.e-002	-3.3529e-005
10142	2.2	3.9	0.	-1171.7
10143	2.1	4.	0.	-1189.5
10144	2.2	4.	5.e-002	-1.275e-005
10145	2.2	3.7	0.	-1228.6
10146	2.1	3.8	0.	-1254.9
10147	2.2	3.8	5.e-002	-2.1045e-005
10148	2.2	3.5	0.	-1271.1
10149	2.1	3.6	0.	-1305.3
10150	2.2	3.6	5.e-002	-9.454e-006
10151	2.2	3.3	0.	-1299.3
10152	2.1	3.4	0.	-1341.
10153	2.2	3.4	5.e-002	-7.1813e-006
10154	2.2	3.1	0.	-1313.3
10155	2.1	3.2	0.	-1362.3
10156	2.2	3.2	5.e-002	-3.6414e-006
10157	2.2	2.9	0.	-1313.3
10158	2.1	3.	0.	-1369.4
10159	2.2	3.	5.e-002	-2.2579e-012
10160	2.2	2.7	0.	-1299.3
10161	2.1	2.8	0.	-1362.3
10162	2.2	2.8	5.e-002	3.8235e-006
10163	2.2	2.5	0.	-1271.1
10164	2.1	2.6	0.	-1341.
10165	2.2	2.6	5.e-002	7.8994e-006
10166	2.2	2.3	0.	-1228.6
10167	2.1	2.4	0.	-1305.3
10168	2.2	2.4	5.e-002	2.0595e-005
10169	2.2	2.1	0.	-1171.7
10170	2.1	2.2	0.	-1254.9
10171	2.2	2.2	5.e-002	2.2393e-005
10172	2.2	1.9	0.	-1100.4
10173	2.1	2.	0.	-1189.5
10174	2.2	2.	5.e-002	2.6503e-005
10175	2.2	1.7	0.	-1014.8
10176	2.1	1.8	0.	-1109.
10177	2.2	1.8	5.e-002	3.3529e-005
10178	2.2	1.5	0.	-915.47
10179	2.1	1.6	0.	-1013.5
10180	2.2	1.6	5.e-002	7.3198e-005
10181	2.2	1.3	0.	-803.43
10182	2.1	1.4	0.	-903.56
10183	2.2	1.4	5.e-002	5.0372e-005
10184	2.2	1.1	0.	-680.36
10185	2.1	1.2	0.	-780.4
10186	2.2	1.2	5.e-002	1.255e-004
10187	2.2	0.9	0.	-548.6
10188	2.1	1.	0.	-646.06
10189	2.2	1.	5.e-002	1.046e-004
10190	2.2	0.7	0.	-411.08
10191	2.1	0.8	0.	-503.39
10192	2.2	0.8	5.e-002	5.2103e-005
10193	2.2	0.5	0.	-270.7
10194	2.1	0.6	0.	-355.95
10195	2.2	0.6	5.e-002	1.5035e-004
10196	2.2	0.3	0.	-127.69
10197	2.1	0.4	0.	-206.87
10198	2.2	0.4	5.e-002	1.4638e-004
10199	2.1	0.2	0.	-55.384
10200	2.2	0.2	5.e-002	6.6734e-005
10201	2.2	0.1	0.	-22.837
10202	2.	5.7	0.	-132.5
10203	1.9	5.8	0.	-51.99
10204	2.	5.8	5.e-002	-3.6553e-005
10205	2.	5.9	0.	-18.981
10206	2.	5.5	0.	-291.74
10207	1.9	5.6	0.	-220.59
10208	2.	5.6	5.e-002	-1.5295e-004
10209	2.	5.3	0.	-447.99
10210	1.9	5.4	0.	-387.12
10211	2.	5.4	5.e-002	-1.0935e-004
10212	2.	5.1	0.	-600.66
10213	1.9	5.2	0.	-551.59
10214	2.	5.2	5.e-002	-5.5133e-005
10215	2.	4.9	0.	-746.01
10216	1.9	5.	0.	-709.78
10217	2.	5.	5.e-002	-1.344e-004
10218	2.	4.7	0.	-880.55
10219	1.9	4.8	0.	-857.29
10220	2.	4.8	5.e-002	-1.0954e-005
10221	2.	4.5	0.	-1001.7
10222	1.9	4.6	0.	-990.89
10223	2.	4.6	5.e-002	-4.823e-005
10224	2.	4.3	0.	-1107.9
10225	1.9	4.4	0.	-1108.6
10226	2.	4.4	5.e-002	-1.5111e-005
10227	2.	4.1	0.	-1198.4
10228	1.9	4.2	0.	-1209.5
10229	2.	4.2	5.e-002	-7.3359e-005
10230	2.	3.9	0.	-1273.
10231	1.9	4.	0.	-1293.5
10232	2.	4.	5.e-002	-1.2748e-005
10233	2.	3.7	0.	-1332.
10234	1.9	3.8	0.	-1361.
10235	2.	3.8	5.e-002	-1.9451e-005
10236	2.	3.5	0.	-1375.6
10237	1.9	3.6	0.	-1412.5
10238	2.	3.6	5.e-002	-9.3093e-006
10239	2.	3.3	0.	-1404.5
10240	1.9	3.4	0.	-1448.8
10241	2.	3.4	5.e-002	-7.0264e-006
10242	2.	3.1	0.	-1418.8
10243	1.9	3.2	0.	-1470.3
10244	2.	3.2	5.e-002	-3.5482e-006
10245	2.	2.9	0.	-1418.8
10246	1.9	3.	0.	-1477.4
10247	2.	3.	5.e-002	-2.3189e-012
10248	2.	2.7	0.	-1404.5
10249	1.9	2.8	0.	-1470.3
10250	2.	2.8	5.e-002	4.7023e-006
10251	2.	2.5	0.	-1375.6
10252	1.9	2.6	0.	-1448.8
10253	2.	2.6	5.e-002	7.3778e-006
10254	2.	2.3	0.	-1332.
10255	1.9	2.4	0.	-1412.5
10256	2.	2.4	5.e-002	1.1378e-005
10257	2.	2.1	0.	-1273.
10258	1.9	2.2	0.	-1361.
10259	2.	2.2	5.e-002	2.9542e-005
10260	2.	1.9	0.	-1198.4
10261	1.9	2.	0.	-1293.5
10262	2.	2.	5.e-002	4.3425e-005
10263	2.	1.7	0.	-1107.9
10264	1.9	1.8	0.	-1209.5
10265	2.	1.8	5.e-002	3.3965e-005
10266	2.	1.5	0.	-1001.7
10267	1.9	1.6	0.	-1108.6
10268	2.	1.6	5.e-002	6.7682e-005
10269	2.	1.3	0.	-880.55
10270	1.9	1.4	0.	-990.89
10271	2.	1.4	5.e-002	4.823e-005
10272	2.	1.1	0.	-746.01
10273	1.9	1.2	0.	-857.29
10274	2.	1.2	5.e-002	1.2536e-004
10275	2.	0.9	0.	-600.66
10276	1.9	1.	0.	-709.78
10277	2.	1.	5.e-002	9.6342e-005
10278	2.	0.7	0.	-447.99
10279	1.9	0.8	0.	-551.59
10280	2.	0.8	5.e-002	1.9631e-004
10281	2.	0.5	0.	-291.74
10282	1.9	0.6	0.	-387.12
10283	2.	0.6	5.e-002	2.0785e-004
10284	2.	0.3	0.	-132.5
10285	1.9	0.4	0.	-220.59
10286	2.	0.4	5.e-002	1.5295e-004
10287	1.9	0.2	0.	-51.991
10288	2.	0.2	5.e-002	8.0094e-005
10289	2.	0.1	0.	-18.981
10290	1.8	5.7	0.	-137.16
10291	1.7	5.8	0.	-47.421
10292	1.8	5.8	5.e-002	-8.8861e-005
10293	1.8	5.9	0.	-13.843
10294	1.8	5.5	0.	-315.52
10295	1.7	5.6	0.	-236.02
10296	1.8	5.6	5.e-002	-2.2056e-004
10297	1.8	5.3	0.	-490.42
10298	1.7	5.4	0.	-423.43
10299	1.8	5.4	5.e-002	-1.1543e-004
10300	1.8	5.1	0.	-660.53
10301	1.7	5.2	0.	-607.92
10302	1.8	5.2	5.e-002	-5.2447e-005
10303	1.8	4.9	0.	-821.01
10304	1.7	5.	0.	-783.71
10305	1.8	5.	5.e-002	-1.972e-004
10306	1.8	4.7	0.	-967.71
10307	1.7	4.8	0.	-945.36
10308	1.8	4.8	5.e-002	-1.4226e-005
10309	1.8	4.5	0.	-1097.9
10310	1.7	4.6	0.	-1089.4
10311	1.8	4.6	5.e-002	-1.5138e-005
10312	1.8	4.3	0.	-1210.4
10313	1.7	4.4	0.	-1214.1
10314	1.8	4.4	5.e-002	-1.5146e-005
10315	1.8	4.1	0.	-1304.9
10316	1.7	4.2	0.	-1319.3
10317	1.8	4.2	5.e-002	-3.3907e-005
10318	1.8	3.9	0.	-1381.8
10319	1.7	4.	0.	-1405.5
10320	1.8	4.	5.e-002	-1.2636e-005
10321	1.8	3.7	0.	-1441.9
10322	1.7	3.8	0.	-1473.9
10323	1.8	3.8	5.e-002	-1.1812e-005
10324	1.8	3.5	0.	-1486.
10325	1.7	3.6	0.	-1525.6
10326	1.8	3.6	5.e-002	-1.0061e-005
10327	1.8	3.3	0.	-1515.
10328	1.7	3.4	0.	-1561.7
10329	1.8	3.4	5.e-002	-8.7823e-006
10330	1.8	3.1	0.	-1529.3
10331	1.7	3.2	0.	-1583.
10332	1.8	3.2	5.e-002	-3.2408e-006
10333	1.8	2.9	0.	-1529.3
10334	1.7	3.	0.	-1590.
10335	1.8	3.	5.e-002	-2.3468e-012
10336	1.8	2.7	0.	-1515.
10337	1.7	2.8	0.	-1583.
10338	1.8	2.8	5.e-002	3.9034e-006
10339	1.8	2.5	0.	-1486.
10340	1.7	2.6	0.	-1561.7
10341	1.8	2.6	5.e-002	1.0779e-005
10342	1.8	2.3	0.	-1441.9
10343	1.7	2.4	0.	-1525.6
10344	1.8	2.4	5.e-002	2.8763e-005
10345	1.8	2.1	0.	-1381.8
10346	1.7	2.2	0.	-1473.9
10347	1.8	2.2	5.e-002	2.1498e-005
10348	1.8	1.9	0.	-1304.9
10349	1.7	2.	0.	-1405.5
10350	1.8	2.	5.e-002	2.6047e-005
10351	1.8	1.7	0.	-1210.4
10352	1.7	1.8	0.	-1319.3
10353	1.8	1.8	5.e-002	7.6768e-005
10354	1.8	1.5	0.	-1097.9
10355	1.7	1.6	0.	-1214.1
10356	1.8	1.6	5.e-002	6.8769e-005
10357	1.8	1.3	0.	-967.71
10358	1.7	1.4	0.	-1089.4
10359	1.8	1.4	5.e-002	1.1821e-004
10360	1.8	1.1	0.	-821.01
10361	1.7	1.2	0.	-945.36
10362	1.8	1.2	5.e-002	1.8045e-004
10363	1.8	0.9	0.	-660.53
10364	1.7	1.	0.	-783.71
10365	1.8	1.	5.e-002	2.0351e-004
10366	1.8	0.7	0.	-490.42
10367	1.7	0.8	0.	-607.92
10368	1.8	0.8	5.e-002	1.6265e-004
10369	1.8	0.5	0.	-315.52
10370	1.7	0.6	0.	-423.43
10371	1.8	0.6	5.e-002	2.2718e-004
10372	1.8	0.3	0.	-137.16
10373	1.7	0.4	0.	-236.02
10374	1.8	0.4	5.e-002	2.2056e-004
10375	1.7	0.2	0.	-47.421
10376	1.8	0.2	5.e-002	9.606e-005
10377	1.8	0.1	0.	-13.843
10378	1.6	5.7	0.	-141.97
10379	1.5	5.8	0.	-41.841
10380	1.6	5.8	5.e-002	-7.7651e-005
10381	1.6	5.9	0.	-7.5997
10382	1.6	5.5	0.	-343.4
10383	1.5	5.6	0.	-254.24
10384	1.6	5.6	5.e-002	-1.7881e-004
10385	1.6	5.3	0.	-540.61
10386	1.5	5.4	0.	-467.21
10387	1.6	5.4	5.e-002	-5.8417e-005
10388	1.6	5.1	0.	-730.96
10389	1.5	5.2	0.	-675.54
10390	1.6	5.2	5.e-002	-5.9786e-005
10391	1.6	4.9	0.	-908.1
10392	1.5	5.	0.	-871.13
10393	1.6	5.	5.e-002	-1.5656e-004
10394	1.6	4.7	0.	-1067.2
10395	1.5	4.8	0.	-1047.4
10396	1.6	4.8	5.e-002	-1.0734e-004
10397	1.6	4.5	0.	-1205.8
10398	1.5	4.6	0.	-1201.1
10399	1.6	4.6	5.e-002	-4.6407e-005
10400	1.6	4.3	0.	-1323.3
10401	1.5	4.4	0.	-1331.3
10402	1.6	4.4	5.e-002	-4.1856e-005
10403	1.6	4.1	0.	-1420.3
10404	1.5	4.2	0.	-1438.8
10405	1.6	4.2	5.e-002	-1.768e-005
10406	1.6	3.9	0.	-1498.
10407	1.5	4.	0.	-1525.5
10408	1.6	4.	5.e-002	-2.4471e-005
10409	1.6	3.7	0.	-1558.
10410	1.5	3.8	0.	-1593.2
10411	1.6	3.8	5.e-002	-2.0472e-005
10412	1.6	3.5	0.	-1601.6
10413	1.5	3.6	0.	-1643.8
10414	1.6	3.6	5.e-002	-1.2866e-005
10415	1.6	3.3	0.	-1630.1
10416	1.5	3.4	0.	-1678.8
10417	1.6	3.4	5.e-002	-6.1319e-006
10418	1.6	3.1	0.	-1644.1
10419	1.5	3.2	0.	-1699.4
10420	1.6	3.2	5.e-002	-3.0686e-006
10421	1.6	2.9	0.	-1644.1
10422	1.5	3.	0.	-1706.2
10423	1.6	3.	5.e-002	-2.308e-012
10424	1.6	2.7	0.	-1630.1
10425	1.5	2.8	0.	-1699.4
10426	1.6	2.8	5.e-002	4.031e-006
10427	1.6	2.5	0.	-1601.6
10428	1.5	2.6	0.	-1678.8
10429	1.6	2.6	5.e-002	8.2551e-006
10430	1.6	2.3	0.	-1558.
10431	1.5	2.4	0.	-1643.8
10432	1.6	2.4	5.e-002	1.383e-005
10433	1.6	2.1	0.	-1498.
10434	1.5	2.2	0.	-1593.2
10435	1.6	2.2	5.e-002	4.0282e-005
10436	1.6	1.9	0.	-1420.3
10437	1.5	2.	0.	-1525.5
10438	1.6	2.	5.e-002	4.3971e-005
10439	1.6	1.7	0.	-1323.3
10440	1.5	1.8	0.	-1438.8
10441	1.6	1.8	5.e-002	5.2278e-005
10442	1.6	1.5	0.	-1205.8
10443	1.5	1.6	0.	-1331.3
10444	1.6	1.6	5.e-002	5.0435e-005
10445	1.6	1.3	0.	-1067.2
10446	1.5	1.4	0.	-1201.1
10447	1.6	1.4	5.e-002	8.5271e-005
10448	1.6	1.1	0.	-908.1
10449	1.5	1.2	0.	-1047.4
10450	1.6	1.2	5.e-002	9.3474e-005
10451	1.6	0.9	0.	-730.96
10452	1.5	1.	0.	-871.13
10453	1.6	1.	5.e-002	6.3236e-005
10454	1.6	0.7	0.	-540.61
10455	1.5	0.8	0.	-675.54
10456	1.6	0.8	5.e-002	1.7492e-004
10457	1.6	0.5	0.	-343.4
10458	1.5	0.6	0.	-467.21
10459	1.6	0.6	5.e-002	1.7834e-004
10460	1.6	0.3	0.	-141.97
10461	1.5	0.4	0.	-254.24
10462	1.6	0.4	5.e-002	1.1722e-004
10463	1.5	0.2	0.	-41.841
10464	1.6	0.2	5.e-002	9.3642e-005
10465	1.6	0.1	0.	-7.5997
10466	1.4	5.7	0.	-147.44
10467	1.3	5.8	0.	-35.902
10468	1.4	5.8	5.e-002	-8.3349e-005
10469	1.4	5.9	0.	-2.5697
10470	1.4	5.5	0.	-377.42
10471	1.3	5.6	0.	-277.33
10472	1.4	5.6	5.e-002	-1.2253e-004
10473	1.4	5.3	0.	-601.82
10474	1.3	5.4	0.	-522.56
10475	1.4	5.4	5.e-002	-6.1964e-005
10476	1.4	5.1	0.	-815.66
10477	1.3	5.2	0.	-759.48
10478	1.4	5.2	5.e-002	-1.1872e-004
10479	1.4	4.9	0.	-1010.7
10480	1.3	5.	0.	-976.84
10481	1.4	5.	5.e-002	-1.6726e-004
10482	1.4	4.7	0.	-1181.6
10483	1.3	4.8	0.	-1167.3
10484	1.4	4.8	5.e-002	-1.9061e-004
10485	1.4	4.5	0.	-1326.9
10486	1.3	4.6	0.	-1328.4
10487	1.4	4.6	5.e-002	-5.6581e-005
10488	1.4	4.3	0.	-1447.2
10489	1.3	4.4	0.	-1461.3
10490	1.4	4.4	5.e-002	-4.0888e-005
10491	1.4	4.1	0.	-1544.5
10492	1.3	4.2	0.	-1568.5
10493	1.4	4.2	5.e-002	-1.3886e-005
10494	1.4	3.9	0.	-1621.1
10495	1.3	4.	0.	-1653.2
10496	1.4	4.	5.e-002	-2.655e-005
10497	1.4	3.7	0.	-1679.4
10498	1.3	3.8	0.	-1718.3
10499	1.4	3.8	5.e-002	-3.1363e-005
10500	1.4	3.5	0.	-1721.4
10501	1.3	3.6	0.	-1766.4
10502	1.4	3.6	5.e-002	-8.1797e-006
10503	1.4	3.3	0.	-1748.5
10504	1.3	3.4	0.	-1799.4
10505	1.4	3.4	5.e-002	-5.7363e-006
10506	1.4	3.1	0.	-1761.8
10507	1.3	3.2	0.	-1818.7
10508	1.4	3.2	5.e-002	-2.7078e-006
10509	1.4	2.9	0.	-1761.8
10510	1.3	3.	0.	-1825.
10511	1.4	3.	5.e-002	-2.2113e-012
10512	1.4	2.7	0.	-1748.5
10513	1.3	2.8	0.	-1818.7
10514	1.4	2.8	5.e-002	2.7078e-006
10515	1.4	2.5	0.	-1721.4
10516	1.3	2.6	0.	-1799.4
10517	1.4	2.6	5.e-002	7.3059e-006
10518	1.4	2.3	0.	-1679.4
10519	1.3	2.4	0.	-1766.4
10520	1.4	2.4	5.e-002	9.0886e-006
10521	1.4	2.1	0.	-1621.1
10522	1.3	2.2	0.	-1718.3
10523	1.4	2.2	5.e-002	2.599e-005
10524	1.4	1.9	0.	-1544.5
10525	1.3	2.	0.	-1653.2
10526	1.4	2.	5.e-002	2.7323e-005
10527	1.4	1.7	0.	-1447.2
10528	1.3	1.8	0.	-1568.5
10529	1.4	1.8	5.e-002	7.8285e-005
10530	1.4	1.5	0.	-1326.9
10531	1.3	1.6	0.	-1461.3
10532	1.4	1.6	5.e-002	9.628e-005
10533	1.4	1.3	0.	-1181.6
10534	1.3	1.4	0.	-1328.4
10535	1.4	1.4	5.e-002	1.5875e-004
10536	1.4	1.1	0.	-1010.7
10537	1.3	1.2	0.	-1167.3
10538	1.4	1.2	5.e-002	6.8137e-006
10539	1.4	0.9	0.	-815.66
10540	1.3	1.	0.	-976.84
10541	1.4	1.	5.e-002	6.8299e-005
10542	1.4	0.7	0.	-601.82
10543	1.3	0.8	0.	-759.48
10544	1.4	0.8	5.e-002	1.7984e-004
10545	1.4	0.5	0.	-377.42
10546	1.3	0.6	0.	-522.56
10547	1.4	0.6	5.e-002	2.4288e-004
10548	1.4	0.3	0.	-147.44
10549	1.3	0.4	0.	-277.33
10550	1.4	0.4	5.e-002	2.4286e-004
10551	1.3	0.2	0.	-35.902
10552	1.4	0.2	5.e-002	1.1113e-004
10553	1.4	0.1	0.	-2.5698
10554	1.2	5.7	0.	-155.02
10555	1.1	5.8	0.	-30.063
10556	1.2	5.8	5.e-002	-6.0339e-015
10557	1.2	5.9	0.	-1.2611
10558	1.2	5.5	0.	-421.76
10559	1.1	5.6	0.	-308.27
10560	1.2	5.6	5.e-002	-1.2158e-004
10561	1.2	5.3	0.	-679.99
10562	1.1	5.4	0.	-595.21
10563	1.2	5.4	5.e-002	-2.4432e-004
10564	1.2	5.1	0.	-920.81
10565	1.1	5.2	0.	-866.1
10566	1.2	5.2	5.e-002	-1.2377e-004
10567	1.2	4.9	0.	-1133.9
10568	1.1	5.	0.	-1105.7
10569	1.2	5.	5.e-002	-1.1661e-004
10570	1.2	4.7	0.	-1314.6
10571	1.1	4.8	0.	-1307.5
10572	1.2	4.8	5.e-002	-7.565e-005
10573	1.2	4.5	0.	-1463.4
10574	1.1	4.6	0.	-1472.
10575	1.2	4.6	5.e-002	-1.5181e-005
10576	1.2	4.3	0.	-1583.1
10577	1.1	4.4	0.	-1603.2
10578	1.2	4.4	5.e-002	-1.4893e-005
10579	1.2	4.1	0.	-1677.7
10580	1.1	4.2	0.	-1706.4
10581	1.2	4.2	5.e-002	-4.5397e-005
10582	1.2	3.9	0.	-1750.8
10583	1.1	4.	0.	-1786.2
10584	1.2	4.	5.e-002	-3.1553e-005
10585	1.2	3.7	0.	-1805.6
10586	1.1	3.8	0.	-1846.6
10587	1.2	3.8	5.e-002	-1.4985e-005
10588	1.2	3.5	0.	-1844.7
10589	1.1	3.6	0.	-1890.7
10590	1.2	3.6	5.e-002	-6.7173e-006
10591	1.2	3.3	0.	-1869.8
10592	1.1	3.4	0.	-1920.7
10593	1.2	3.4	5.e-002	-4.7095e-006
10594	1.2	3.1	0.	-1882.1
10595	1.1	3.2	0.	-1938.2
10596	1.2	3.2	5.e-002	-2.2689e-006
10597	1.2	2.9	0.	-1882.1
10598	1.1	3.	0.	-1943.9
10599	1.2	3.	5.e-002	3.0518e-005
10600	1.2	2.7	0.	-1869.8
10601	1.1	2.8	0.	-1938.2
10602	1.2	2.8	5.e-002	3.2627e-005
10603	1.2	2.5	0.	-1844.7
10604	1.1	2.6	0.	-1920.7
10605	1.2	2.6	5.e-002	1.9639e-005
10606	1.2	2.3	0.	-1805.6
10607	1.1	2.4	0.	-1890.7
10608	1.2	2.4	5.e-002	9.8336e-006
10609	1.2	2.1	0.	-1750.8
10610	1.1	2.2	0.	-1846.6
10611	1.2	2.2	5.e-002	4.3663e-005
10612	1.2	1.9	0.	-1677.7
10613	1.1	2.	0.	-1786.2
10614	1.2	2.	5.e-002	1.1343e-005
10615	1.2	1.7	0.	-1583.1
10616	1.1	1.8	0.	-1706.4
10617	1.2	1.8	5.e-002	2.9408e-005
10618	1.2	1.5	0.	-1463.4
10619	1.1	1.6	0.	-1603.2
10620	1.2	1.6	5.e-002	7.1934e-005
10621	1.2	1.3	0.	-1314.6
10622	1.1	1.4	0.	-1472.
10623	1.2	1.4	5.e-002	1.1976e-004
10624	1.2	1.1	0.	-1133.9
10625	1.1	1.2	0.	-1307.5
10626	1.2	1.2	5.e-002	1.5008e-004
10627	1.2	0.9	0.	-920.81
10628	1.1	1.	0.	-1105.7
10629	1.2	1.	5.e-002	1.6982e-004
10630	1.2	0.7	0.	-679.99
10631	1.1	0.8	0.	-866.1
10632	1.2	0.8	5.e-002	1.8258e-004
10633	1.2	0.5	0.	-421.76
10634	1.1	0.6	0.	-595.21
10635	1.2	0.6	5.e-002	2.4455e-004
10636	1.2	0.3	0.	-155.02
10637	1.1	0.4	0.	-308.27
10638	1.2	0.4	5.e-002	2.4316e-004
10639	1.1	0.2	0.	-30.063
10640	1.2	0.2	5.e-002	1.375e-004
10641	1.2	0.1	0.	-1.2611
10642	1.	5.7	0.	-165.75
10643	0.9	5.8	0.	-27.902
10644	1.	5.8	5.e-002	-1.4634e-004
10645	1.	5.9	0.	7.8274e-002
10646	1.	5.5	0.	-481.01
10647	0.9	5.6	0.	-356.79
10648	1.	5.6	5.e-002	-2.3498e-004
10649	1.	5.3	0.	-781.33
10650	0.9	5.4	0.	-699.97
10651	1.	5.4	5.e-002	-1.7923e-004
10652	1.	5.1	0.	-1051.5
10653	0.9	5.2	0.	-1009.7
10654	1.	5.2	5.e-002	-1.2173e-004
10655	1.	4.9	0.	-1280.1
10656	0.9	5.	0.	-1268.7
10657	1.	5.	5.e-002	-2.1746e-004
10658	1.	4.7	0.	-1465.6
10659	0.9	4.8	0.	-1475.2
10660	1.	4.8	5.e-002	-1.9031e-004
10661	1.	4.5	0.	-1612.5
10662	0.9	4.6	0.	-1636.1
10663	1.	4.6	5.e-002	-4.2223e-005
10664	1.	4.3	0.	-1727.
10665	0.9	4.4	0.	-1760.1
10666	1.	4.4	5.e-002	-4.5484e-005
10667	1.	4.1	0.	-1815.3
10668	0.9	4.2	0.	-1854.9
10669	1.	4.2	5.e-002	-5.1779e-005
10670	1.	3.9	0.	-1882.3
10671	0.9	4.	0.	-1926.9
10672	1.	4.	5.e-002	-1.7626e-005
10673	1.	3.7	0.	-1931.9
10674	0.9	3.8	0.	-1980.6
10675	1.	3.8	5.e-002	-7.243e-006
10676	1.	3.5	0.	-1966.9
10677	0.9	3.6	0.	-2019.5
10678	1.	3.6	5.e-002	-6.0936e-006
10679	1.	3.3	0.	-1989.3
10680	0.9	3.4	0.	-2045.8
10681	1.	3.4	5.e-002	-3.4996e-006
10682	1.	3.1	0.	-2000.2
10683	0.9	3.2	0.	-2061.1
10684	1.	3.2	5.e-002	-1.598e-006
10685	1.	2.9	0.	-2000.2
10686	0.9	3.	0.	-2066.
10687	1.	3.	5.e-002	-1.8431e-012
10688	1.	2.7	0.	-1989.3
10689	0.9	2.8	0.	-2061.1
10690	1.	2.8	5.e-002	2.1757e-006
10691	1.	2.5	0.	-1966.9
10692	0.9	2.6	0.	-2045.8
10693	1.	2.6	5.e-002	3.9995e-006
10694	1.	2.3	0.	-1931.9
10695	0.9	2.4	0.	-2019.5
10696	1.	2.4	5.e-002	1.1172e-005
10697	1.	2.1	0.	-1882.3
10698	0.9	2.2	0.	-1980.6
10699	1.	2.2	5.e-002	3.2078e-005
10700	1.	1.9	0.	-1815.3
10701	0.9	2.	0.	-1926.9
10702	1.	2.	5.e-002	3.3411e-005
10703	1.	1.7	0.	-1727.
10704	0.9	1.8	0.	-1854.9
10705	1.	1.8	5.e-002	1.2703e-005
10706	1.	1.5	0.	-1612.5
10707	0.9	1.6	0.	-1760.1
10708	1.	1.6	5.e-002	9.1058e-005
10709	1.	1.3	0.	-1465.6
10710	0.9	1.4	0.	-1636.1
10711	1.	1.4	5.e-002	1.1141e-004
10712	1.	1.1	0.	-1280.1
10713	0.9	1.2	0.	-1475.2
10714	1.	1.2	5.e-002	1.3393e-004
10715	1.	0.9	0.	-1051.5
10716	0.9	1.	0.	-1268.7
10717	1.	1.	5.e-002	1.7664e-004
10718	1.	0.7	0.	-781.33
10719	0.9	0.8	0.	-1009.7
10720	1.	0.8	5.e-002	1.8662e-004
10721	1.	0.5	0.	-481.01
10722	0.9	0.6	0.	-699.97
10723	1.	0.6	5.e-002	1.813e-004
10724	1.	0.3	0.	-165.75
10725	0.9	0.4	0.	-356.79
10726	1.	0.4	5.e-002	1.7293e-004
10727	0.9	0.2	0.	-27.902
10728	1.	0.2	5.e-002	1.7694e-004
10729	1.	0.1	0.	7.8272e-002
10730	0.8	5.7	0.	-189.95
10731	0.7	5.8	0.	-20.224
10732	0.8	5.8	5.e-002	-1.6876e-004
10733	0.8	5.9	0.	-2.802
10734	0.8	5.5	0.	-575.21
10735	0.7	5.6	0.	-428.9
10736	0.8	5.6	5.e-002	-3.7295e-005
10737	0.8	5.3	0.	-928.97
10738	0.7	5.4	0.	-843.87
10739	0.8	5.4	5.e-002	-1.8098e-004
10740	0.8	5.1	0.	-1227.9
10741	0.7	5.2	0.	-1189.1
10742	0.8	5.2	5.e-002	-1.1895e-004
10743	0.8	4.9	0.	-1464.8
10744	0.7	5.	0.	-1454.9
10745	0.8	5.	5.e-002	-5.6252e-005
10746	0.8	4.7	0.	-1646.5
10747	0.7	4.8	0.	-1653.2
10748	0.8	4.8	5.e-002	-9.7501e-005
10749	0.8	4.5	0.	-1784.2
10750	0.7	4.6	0.	-1800.4
10751	0.8	4.6	5.e-002	-8.0473e-005
10752	0.8	4.3	0.	-1888.3
10753	0.7	4.4	0.	-1910.2
10754	0.8	4.4	5.e-002	-2.7054e-005
10755	0.8	4.1	0.	-1966.7
10756	0.7	4.2	0.	-1992.4
10757	0.8	4.2	5.e-002	-3.4814e-005
10758	0.8	3.9	0.	-2025.4
10759	0.7	4.	0.	-2054.
10760	0.8	4.	5.e-002	-1.3538e-005
10761	0.8	3.7	0.	-2068.4
10762	0.7	3.8	0.	-2099.6
10763	0.8	3.8	5.e-002	-5.3106e-005
10764	0.8	3.5	0.	-2098.6
10765	0.7	3.6	0.	-2132.4
10766	0.8	3.6	5.e-002	-4.3428e-006
10767	0.8	3.3	0.	-2117.8
10768	0.7	3.4	0.	-2154.5
10769	0.8	3.4	5.e-002	-2.6208e-006
10770	0.8	3.1	0.	-2127.1
10771	0.7	3.2	0.	-2167.3
10772	0.8	3.2	5.e-002	-1.4025e-006
10773	0.8	2.9	0.	-2127.1
10774	0.7	3.	0.	-2171.4
10775	0.8	3.	5.e-002	-1.535e-012
10776	0.8	2.7	0.	-2117.8
10777	0.7	2.8	0.	-2167.3
10778	0.8	2.8	5.e-002	1.8482e-006
10779	0.8	2.5	0.	-2098.6
10780	0.7	2.6	0.	-2154.5
10781	0.8	2.6	5.e-002	4.087e-006
10782	0.8	2.3	0.	-2068.4
10783	0.7	2.4	0.	-2132.4
10784	0.8	2.4	5.e-002	5.0109e-006
10785	0.8	2.1	0.	-2025.4
10786	0.7	2.2	0.	-2099.6
10787	0.8	2.2	5.e-002	6.3971e-006
10788	0.8	1.9	0.	-1966.7
10789	0.7	2.	0.	-2054.
10790	0.8	2.	5.e-002	2.3042e-005
10791	0.8	1.7	0.	-1888.3
10792	0.7	1.8	0.	-1992.4
10793	0.8	1.8	5.e-002	3.2852e-005
10794	0.8	1.5	0.	-1784.2
10795	0.7	1.6	0.	-1910.2
10796	0.8	1.6	5.e-002	5.0699e-005
10797	0.8	1.3	0.	-1646.5
10798	0.7	1.4	0.	-1800.4
10799	0.8	1.4	5.e-002	1.1378e-004
10800	0.8	1.1	0.	-1464.8
10801	0.7	1.2	0.	-1653.2
10802	0.8	1.2	5.e-002	1.7274e-004
10803	0.8	0.9	0.	-1227.9
10804	0.7	1.	0.	-1454.9
10805	0.8	1.	5.e-002	2.077e-004
10806	0.8	0.7	0.	-928.97
10807	0.7	0.8	0.	-1189.1
10808	0.8	0.8	5.e-002	1.8324e-004
10809	0.8	0.5	0.	-575.21
10810	0.7	0.6	0.	-843.87
10811	0.8	0.6	5.e-002	2.3822e-004
10812	0.8	0.3	0.	-189.95
10813	0.7	0.4	0.	-428.9
10814	0.8	0.4	5.e-002	2.0368e-004
10815	0.7	0.2	0.	-20.224
10816	0.8	0.2	5.e-002	2.2502e-004
10817	0.8	0.1	0.	-2.802
10818	0.6	5.7	0.	-220.26
10819	0.5	5.8	0.	-53.89
10820	0.6	5.8	5.e-002	-2.3423e-004
10821	0.6	5.9	0.	9.5436
10822	0.6	5.5	0.	-698.05
10823	0.5	5.6	0.	-604.87
10824	0.6	5.6	5.e-002	-1.0579e-004
10825	0.6	5.3	0.	-1105.8
10826	0.5	5.4	0.	-1111.7
10827	0.6	5.4	5.e-002	-1.7823e-004
10828	0.6	5.1	0.	-1417.6
10829	0.5	5.2	0.	-1473.9
10830	0.6	5.2	5.e-002	-1.1917e-004
10831	0.6	4.9	0.	-1644.2
10832	0.5	5.	0.	-1724.8
10833	0.6	5.	5.e-002	-1.5758e-004
10834	0.6	4.7	0.	-1807.5
10835	0.5	4.8	0.	-1900.1
10836	0.6	4.8	5.e-002	-1.8812e-005
10837	0.6	4.5	0.	-1926.5
10838	0.5	4.6	0.	-2025.5
10839	0.6	4.6	5.e-002	-6.2245e-005
10840	0.6	4.3	0.	-2014.3
10841	0.5	4.4	0.	-2117.2
10842	0.6	4.4	5.e-002	-3.5873e-005
10843	0.6	4.1	0.	-2079.6
10844	0.5	4.2	0.	-2185.2
10845	0.6	4.2	5.e-002	-4.5137e-005
10846	0.6	3.9	0.	-2128.1
10847	0.5	4.	0.	-2235.9
10848	0.6	4.	5.e-002	-1.0331e-005
10849	0.6	3.7	0.	-2163.5
10850	0.5	3.8	0.	-2273.5
10851	0.6	3.8	5.e-002	-4.0741e-006
10852	0.6	3.5	0.	-2188.3
10853	0.5	3.6	0.	-2300.4
10854	0.6	3.6	5.e-002	-3.568e-006
10855	0.6	3.3	0.	-2204.1
10856	0.5	3.4	0.	-2318.6
10857	0.6	3.4	5.e-002	-1.8457e-006
10858	0.6	3.1	0.	-2211.7
10859	0.5	3.2	0.	-2329.2
10860	0.6	3.2	5.e-002	-9.5958e-007
10861	0.6	2.9	0.	-2211.7
10862	0.5	3.	0.	-2332.6
10863	0.6	3.	5.e-002	-1.2503e-012
10864	0.6	2.7	0.	-2204.1
10865	0.5	2.8	0.	-2329.2
10866	0.6	2.8	5.e-002	1.0076e-006
10867	0.6	2.5	0.	-2188.3
10868	0.5	2.6	0.	-2318.6
10869	0.6	2.6	5.e-002	2.0399e-006
10870	0.6	2.3	0.	-2163.5
10871	0.5	2.4	0.	-2300.4
10872	0.6	2.4	5.e-002	6.6104e-006
10873	0.6	2.1	0.	-2128.1
10874	0.5	2.2	0.	-2273.5
10875	0.6	2.2	5.e-002	1.1553e-005
10876	0.6	1.9	0.	-2079.6
10877	0.5	2.	0.	-2235.9
10878	0.6	2.	5.e-002	4.1472e-005
10879	0.6	1.7	0.	-2014.3
10880	0.5	1.8	0.	-2185.2
10881	0.6	1.8	5.e-002	5.3445e-005
10882	0.6	1.5	0.	-1926.5
10883	0.5	1.6	0.	-2117.2
10884	0.6	1.6	5.e-002	5.097e-005
10885	0.6	1.3	0.	-1807.5
10886	0.5	1.4	0.	-2025.5
10887	0.6	1.4	5.e-002	7.5949e-005
10888	0.6	1.1	0.	-1644.2
10889	0.5	1.2	0.	-1900.1
10890	0.6	1.2	5.e-002	1.0426e-004
10891	0.6	0.9	0.	-1417.6
10892	0.5	1.	0.	-1724.8
10893	0.6	1.	5.e-002	1.6699e-004
10894	0.6	0.7	0.	-1105.8
10895	0.5	0.8	0.	-1473.9
10896	0.6	0.8	5.e-002	1.1917e-004
10897	0.6	0.5	0.	-698.05
10898	0.5	0.6	0.	-1111.7
10899	0.6	0.6	5.e-002	1.7686e-004
10900	0.6	0.3	0.	-220.26
10901	0.5	0.4	0.	-604.87
10902	0.6	0.4	5.e-002	2.081e-004
10903	0.5	0.2	0.	-53.891
10904	0.6	0.2	5.e-002	2.3769e-004
10905	0.6	0.1	0.	9.5436
10906	0.4	5.7	0.	-373.63
10907	0.3	5.8	0.	-41.833
10908	0.4	5.8	5.e-002	-1.2193e-004
10909	0.4	5.9	0.	-31.32
10910	0.4	5.5	0.	-1021.8
10911	0.3	5.6	0.	-818.75
10912	0.4	5.6	5.e-002	-1.5533e-004
10913	0.4	5.3	0.	-1482.7
10914	0.3	5.4	0.	-1313.3
10915	0.4	5.4	5.e-002	-1.8774e-004
10916	0.4	5.1	0.	-1782.
10917	0.3	5.2	0.	-1612.5
10918	0.4	5.2	5.e-002	-2.2116e-004
10919	0.4	4.9	0.	-1980.6
10920	0.3	5.	0.	-1803.8
10921	0.4	5.	5.e-002	-5.3569e-005
10922	0.4	4.7	0.	-2117.6
10923	0.3	4.8	0.	-1933.8
10924	0.4	4.8	5.e-002	-3.3437e-005
10925	0.4	4.5	0.	-2215.7
10926	0.3	4.6	0.	-2026.3
10927	0.4	4.6	5.e-002	-3.3201e-005
10928	0.4	4.3	0.	-2287.7
10929	0.3	4.4	0.	-2094.2
10930	0.4	4.4	5.e-002	-6.2266e-005
10931	0.4	4.1	0.	-2341.3
10932	0.3	4.2	0.	-2144.9
10933	0.4	4.2	5.e-002	-1.3531e-005
10934	0.4	3.9	0.	-2381.1
10935	0.3	4.	0.	-2182.8
10936	0.4	4.	5.e-002	-3.519e-005
10937	0.4	3.7	0.	-2410.3
10938	0.3	3.8	0.	-2211.1
10939	0.4	3.8	5.e-002	-3.3518e-005
10940	0.4	3.5	0.	-2430.8
10941	0.3	3.6	0.	-2231.4
10942	0.4	3.6	5.e-002	-3.1662e-005
10943	0.4	3.3	0.	-2443.8
10944	0.3	3.4	0.	-2245.2
10945	0.4	3.4	5.e-002	-1.316e-006
10946	0.4	3.1	0.	-2450.1
10947	0.3	3.2	0.	-2253.2
10948	0.4	3.2	5.e-002	-4.6991e-007
10949	0.4	2.9	0.	-2450.1
10950	0.3	3.	0.	-2255.8
10951	0.4	3.	5.e-002	-7.2938e-013
10952	0.4	2.7	0.	-2443.8
10953	0.3	2.8	0.	-2253.2
10954	0.4	2.8	5.e-002	5.0606e-007
10955	0.4	2.5	0.	-2430.8
10956	0.3	2.6	0.	-2245.2
10957	0.4	2.6	5.e-002	3.1872e-005
10958	0.4	2.3	0.	-2410.3
10959	0.3	2.4	0.	-2231.4
10960	0.4	2.4	5.e-002	3.6393e-006
10961	0.4	2.1	0.	-2381.1
10962	0.3	2.2	0.	-2211.1
10963	0.4	2.2	5.e-002	3.4139e-005
10964	0.4	1.9	0.	-2341.3
10965	0.3	2.	0.	-2182.8
10966	0.4	2.	5.e-002	3.6806e-005
10967	0.4	1.7	0.	-2287.7
10968	0.3	1.8	0.	-2144.9
10969	0.4	1.8	5.e-002	3.5292e-005
10970	0.4	1.5	0.	-2215.7
10971	0.3	1.6	0.	-2094.2
10972	0.4	1.6	5.e-002	5.9504e-005
10973	0.4	1.3	0.	-2117.6
10974	0.3	1.4	0.	-2026.3
10975	0.4	1.4	5.e-002	8.6746e-005
10976	0.4	1.1	0.	-1980.6
10977	0.3	1.2	0.	-1933.8
10978	0.4	1.2	5.e-002	7.1947e-005
10979	0.4	0.9	0.	-1782.
10980	0.3	1.	0.	-1803.8
10981	0.4	1.	5.e-002	1.3024e-004
10982	0.4	0.7	0.	-1482.7
10983	0.3	0.8	0.	-1612.5
10984	0.4	0.8	5.e-002	2.1477e-004
10985	0.4	0.5	0.	-1021.8
10986	0.3	0.6	0.	-1313.3
10987	0.4	0.6	5.e-002	2.4674e-004
10988	0.4	0.3	0.	-373.63
10989	0.3	0.4	0.	-818.75
10990	0.4	0.4	5.e-002	2.0393e-004
10991	0.3	0.2	0.	-41.833
10992	0.4	0.2	5.e-002	2.1946e-004
10993	0.4	0.1	0.	-31.32
10994	0.2	5.7	0.	-477.04
10995	0.2	5.8	5.e-002	-1.8957e-004
10996	0.2	5.9	0.	101.72
10997	0.1	5.8	0.	-694.
10998	0.2	5.5	0.	-1110.1
10999	0.2	5.6	5.e-002	-2.3944e-004
11000	0.1	5.6	0.	-1677.5
11001	0.2	5.3	0.	-1436.4
11002	0.2	5.4	5.e-002	-1.8385e-004
11003	0.1	5.4	0.	-2132.5
11004	0.2	5.1	0.	-1628.3
11005	0.2	5.2	5.e-002	-1.6559e-004
11006	0.1	5.2	0.	-2396.5
11007	0.2	4.9	0.	-1753.
11008	0.2	5.	5.e-002	-1.1684e-004
11009	0.1	5.	0.	-2568.2
11010	0.2	4.7	0.	-1840.
11011	0.2	4.8	5.e-002	-8.8501e-005
11012	0.1	4.8	0.	-2688.4
11013	0.2	4.5	0.	-1903.3
11014	0.2	4.6	5.e-002	-4.508e-005
11015	0.1	4.6	0.	-2775.8
11016	0.2	4.3	0.	-1950.4
11017	0.2	4.4	5.e-002	-3.0378e-005
11018	0.1	4.4	0.	-2840.9
11019	0.2	4.1	0.	-1985.9
11020	0.2	4.2	5.e-002	-2.3027e-005
11021	0.1	4.2	0.	-2889.9
11022	0.2	3.9	0.	-2012.5
11023	0.2	4.	5.e-002	-3.4904e-005
11024	0.1	4.	0.	-2927.
11025	0.2	3.7	0.	-2032.1
11026	0.2	3.8	5.e-002	-4.3285e-006
11027	0.1	3.8	0.	-2954.7
11028	0.2	3.5	0.	-2045.8
11029	0.2	3.6	5.e-002	-9.1268e-007
11030	0.1	3.6	0.	-2974.7
11031	0.2	3.3	0.	-2054.6
11032	0.2	3.4	5.e-002	-5.0656e-007
11033	0.1	3.4	0.	-2988.3
11034	0.2	3.1	0.	-2058.9
11035	0.2	3.2	5.e-002	-2.4681e-007
11036	0.1	3.2	0.	-2996.1
11037	0.2	2.9	0.	-2058.9
11038	0.2	3.	5.e-002	-5.2566e-013
11039	0.1	3.	0.	-2998.7
11040	0.2	2.7	0.	-2054.6
11041	0.2	2.8	5.e-002	1.5519e-005
11042	0.1	2.8	0.	-2996.1
11043	0.2	2.5	0.	-2045.8
11044	0.2	2.6	5.e-002	2.128e-006
11045	0.1	2.6	0.	-2988.3
11046	0.2	2.3	0.	-2032.1
11047	0.2	2.4	5.e-002	4.7544e-005
11048	0.1	2.4	0.	-2974.7
11049	0.2	2.1	0.	-2012.5
11050	0.2	2.2	5.e-002	8.2509e-006
11051	0.1	2.2	0.	-2954.7
11052	0.2	1.9	0.	-1985.9
11053	0.2	2.	5.e-002	2.6541e-005
11054	0.1	2.	0.	-2927.
11055	0.2	1.7	0.	-1950.4
11056	0.2	1.8	5.e-002	4.6665e-005
11057	0.1	1.8	0.	-2889.9
11058	0.2	1.5	0.	-1903.3
11059	0.2	1.6	5.e-002	4.4213e-005
11060	0.1	1.6	0.	-2840.9
11061	0.2	1.3	0.	-1840.
11062	0.2	1.4	5.e-002	9.0602e-005
11063	0.1	1.4	0.	-2775.8
11064	0.2	1.1	0.	-1753.
11065	0.2	1.2	5.e-002	1.1776e-004
11066	0.1	1.2	0.	-2688.4
11067	0.2	0.9	0.	-1628.3
11068	0.2	1.	5.e-002	1.5723e-004
11069	0.1	1.	0.	-2568.2
11070	0.2	0.7	0.	-1436.4
11071	0.2	0.8	5.e-002	1.5293e-004
11072	0.1	0.8	0.	-2396.5
11073	0.2	0.5	0.	-1110.1
11074	0.2	0.6	5.e-002	2.435e-004
11075	0.1	0.6	0.	-2132.5
11076	0.2	0.3	0.	-477.04
11077	0.2	0.4	5.e-002	2.3765e-004
11078	0.1	0.4	0.	-1677.5
11079	0.2	0.2	5.e-002	2.0339e-004
11080	0.2	0.1	0.	101.72
11081	0.1	0.2	0.	-694.
11082	8.4635	5.8	0.	-16.081
11083	8.3646	5.7	0.	-15.926
11084	8.3646	5.8	5.e-002	4.4913e-006
11085	8.3646	5.9	0.	-15.193
11086	8.2656	5.8	0.	-1.6128
11087	8.6615	5.8	0.	-4.5874
11088	8.5625	5.7	0.	-5.5398
11089	8.5625	5.8	5.e-002	2.8991e-006
11090	8.5625	5.9	0.	-1.0219
11091	8.8594	5.8	0.	-1.7088
11092	8.7604	5.7	0.	-3.1858
11093	8.7604	5.8	5.e-002	6.4583e-007
11094	8.7604	5.9	0.	-0.58172
11095	9.0573	5.8	0.	-0.27843
11096	8.9583	5.7	0.	-1.0389
11097	8.9583	5.8	5.e-002	-5.2993e-007
11098	8.9583	5.9	0.	0.19703
11099	9.2552	5.8	0.	0.14333
11100	9.1563	5.7	0.	-0.41009
11101	9.1563	5.8	5.e-002	3.4989e-007
11102	9.1563	5.9	0.	0.21739
11103	9.4531	5.8	0.	0.26926
11104	9.3542	5.7	0.	-0.12881
11105	9.3542	5.8	5.e-002	1.1475e-006
11106	9.3542	5.9	0.	0.25291
11107	9.651	5.8	0.	0.26127
11108	9.5521	5.7	0.	-4.4841e-002
11109	9.5521	5.8	5.e-002	2.5364e-006
11110	9.5521	5.9	0.	0.23215
11111	9.849	5.8	0.	0.21676
11112	9.75	5.7	0.	-1.8746e-002
11113	9.75	5.8	5.e-002	4.3163e-006
11114	9.75	5.9	0.	0.20942
11115	10.047	5.8	0.	0.16685
11116	9.9479	5.7	0.	-1.5202e-002
11117	9.9479	5.8	5.e-002	2.9658e-006
11118	9.9479	5.9	0.	0.18405
11119	10.245	5.8	0.	0.12367
11120	10.146	5.7	0.	-1.6778e-002
11121	10.146	5.8	5.e-002	3.5342e-006
11122	10.146	5.9	0.	0.16113
11123	10.443	5.8	0.	8.9209e-002
11124	10.344	5.7	0.	-1.9147e-002
11125	10.344	5.8	5.e-002	2.7941e-006
11126	10.344	5.9	0.	0.14108
11127	10.641	5.8	0.	6.2268e-002
11128	10.542	5.7	0.	-2.1405e-002
11129	10.542	5.8	5.e-002	3.0673e-006
11130	10.542	5.9	0.	0.1241
11131	10.839	5.8	0.	4.0598e-002
11132	10.74	5.7	0.	-2.4297e-002
11133	10.74	5.8	5.e-002	3.2559e-006
11134	10.74	5.9	0.	0.10983
11135	11.036	5.8	0.	2.1801e-002
11136	10.937	5.7	0.	-2.938e-002
11137	10.937	5.8	5.e-002	2.4438e-006
11138	10.937	5.9	0.	9.7536e-002
11139	11.234	5.8	0.	3.6179e-003
11140	11.135	5.7	0.	-3.949e-002
11141	11.135	5.8	5.e-002	2.511e-006
11142	11.135	5.9	0.	8.6224e-002
11143	11.432	5.8	0.	-1.5959e-002
11144	11.333	5.7	0.	-6.1183e-002
11145	11.333	5.8	5.e-002	-5.5752e-006
11146	11.333	5.9	0.	7.4723e-002
11147	11.63	5.8	0.	-3.8432e-002
11148	11.531	5.7	0.	-0.11765
11149	11.531	5.8	5.e-002	-7.5479e-005
11150	11.531	5.9	0.	6.1806e-002
11151	11.828	5.8	0.	-6.3774e-002
11152	11.729	5.7	0.	-0.34501
11153	11.729	5.8	5.e-002	-2.9986e-005
11154	11.729	5.9	0.	4.6536e-002
11155	12.026	5.8	0.	-8.8513e-002
11156	11.927	5.7	0.	-1.0578
11157	11.927	5.8	5.e-002	-9.2486e-006
11158	11.927	5.9	0.	2.9064e-002
11159	12.224	5.8	0.	-0.10557
11160	12.125	5.7	0.	-1.699
11161	12.125	5.8	5.e-002	-7.525e-006
11162	12.125	5.9	0.	1.1316e-002
11163	12.422	5.8	0.	-0.1093
11164	12.323	5.7	0.	-1.9948
11165	12.323	5.8	5.e-002	-1.0631e-005
11166	12.323	5.9	0.	-3.8402e-003
11167	12.62	5.8	0.	-0.1009
11168	12.521	5.7	0.	-1.9776
11169	12.521	5.8	5.e-002	-1.0743e-005
11170	12.521	5.9	0.	-1.4486e-002
11171	12.818	5.8	0.	-8.6405e-002
11172	12.719	5.7	0.	-1.7094
11173	12.719	5.8	5.e-002	-1.0573e-005
11174	12.719	5.9	0.	-2.0542e-002
11175	13.016	5.8	0.	-7.1188e-002
11176	12.917	5.7	0.	-1.2515
11177	12.917	5.8	5.e-002	-6.412e-006
11178	12.917	5.9	0.	-2.304e-002
11179	13.214	5.8	0.	-5.7857e-002
11180	13.115	5.7	0.	-0.6785
11181	13.115	5.8	5.e-002	-4.8511e-007
11182	13.115	5.9	0.	-2.3223e-002
11183	13.411	5.8	0.	-4.7059e-002
11184	13.313	5.7	0.	-0.20006
11185	13.313	5.8	5.e-002	-3.088e-006
11186	13.313	5.9	0.	-2.2105e-002
11187	13.609	5.8	0.	-3.858e-002
11188	13.51	5.7	0.	-5.8336e-002
11189	13.51	5.8	5.e-002	-4.6705e-006
11190	13.51	5.9	0.	-2.04e-002
11191	13.807	5.8	0.	-3.1937e-002
11192	13.708	5.7	0.	-2.4617e-002
11193	13.708	5.8	5.e-002	-1.8096e-006
11194	13.708	5.9	0.	-1.8492e-002
11195	14.005	5.8	0.	-2.6676e-002
11196	13.906	5.7	0.	-1.2198e-002
11197	13.906	5.8	5.e-002	4.1267e-006
11198	13.906	5.9	0.	-1.6554e-002
11199	14.203	5.8	0.	-2.2468e-002
11200	14.104	5.7	0.	-6.4908e-003
11201	14.104	5.8	5.e-002	-7.0345e-007
11202	14.104	5.9	0.	-1.4689e-002
11203	14.401	5.8	0.	-1.9073e-002
11204	14.302	5.7	0.	-3.6448e-003
11205	14.302	5.8	5.e-002	1.1361e-006
11206	14.302	5.9	0.	-1.2986e-002
11207	14.599	5.8	0.	-1.6277e-002
11208	14.5	5.7	0.	-2.2218e-003
11209	14.5	5.8	5.e-002	3.0128e-007
11210	14.5	5.9	0.	-1.1451e-002
11211	14.797	5.8	0.	-1.392e-002
11212	14.698	5.7	0.	-1.5475e-003
11213	14.698	5.8	5.e-002	6.1693e-007
11214	14.698	5.9	0.	-1.0052e-002
11215	14.995	5.8	0.	-1.1919e-002
11216	14.896	5.7	0.	-1.298e-003
11217	14.896	5.8	5.e-002	2.5513e-006
11218	14.896	5.9	0.	-8.7708e-003
11219	15.193	5.8	0.	-1.0215e-002
11220	15.094	5.7	0.	-1.3388e-003
11221	15.094	5.8	5.e-002	3.2609e-006
11222	15.094	5.9	0.	-7.6385e-003
11223	15.391	5.8	0.	-8.7327e-003
11224	15.292	5.7	0.	-1.5605e-003
11225	15.292	5.8	5.e-002	4.0982e-006
11226	15.292	5.9	0.	-6.6333e-003
11227	15.589	5.8	0.	-7.4119e-003
11228	15.49	5.7	0.	-1.8693e-003
11229	15.49	5.8	5.e-002	3.2835e-006
11230	15.49	5.9	0.	-5.7123e-003
11231	15.786	5.8	0.	-6.2356e-003
11232	15.688	5.7	0.	-2.2246e-003
11233	15.688	5.8	5.e-002	4.3257e-006
11234	15.688	5.9	0.	-4.8586e-003
11235	15.984	5.8	0.	-5.1942e-003
11236	15.885	5.7	0.	-2.6377e-003
11237	15.885	5.8	5.e-002	4.5036e-006
11238	15.885	5.9	0.	-4.0969e-003
11239	16.182	5.8	0.	-4.2509e-003
11240	16.083	5.7	0.	-3.0892e-003
11241	16.083	5.8	5.e-002	4.7977e-006
11242	16.083	5.9	0.	-3.4122e-003
11243	16.38	5.8	0.	-3.3745e-003
11244	16.281	5.7	0.	-3.5393e-003
11245	16.281	5.8	5.e-002	7.1805e-006
11246	16.281	5.9	0.	-2.767e-003
11247	16.578	5.8	0.	-2.5673e-003
11248	16.479	5.7	0.	-3.9823e-003
11249	16.479	5.8	5.e-002	5.5273e-006
11250	16.479	5.9	0.	-2.1501e-003
11251	16.776	5.8	0.	-1.8319e-003
11252	16.677	5.7	0.	-4.4471e-003
11253	16.677	5.8	5.e-002	4.8303e-006
11254	16.677	5.9	0.	-1.5869e-003
11255	16.974	5.8	0.	-1.1453e-003
11256	16.875	5.7	0.	-4.9292e-003
11257	16.875	5.8	5.e-002	6.6614e-006
11258	16.875	5.9	0.	-1.0648e-003
11259	17.172	5.8	0.	-4.875e-004
11260	17.073	5.7	0.	-5.4027e-003
11261	17.073	5.8	5.e-002	6.2627e-006
11262	17.073	5.9	0.	-5.5364e-004
11263	17.37	5.8	0.	1.3377e-004
11264	17.271	5.7	0.	-5.8698e-003
11265	17.271	5.8	5.e-002	5.5642e-006
11266	17.271	5.9	0.	-4.6775e-005
11267	17.568	5.8	0.	7.1163e-004
11268	17.469	5.7	0.	-6.3597e-003
11269	17.469	5.8	5.e-002	7.168e-006
11270	17.469	5.9	0.	4.3584e-004
11271	17.766	5.8	0.	1.2622e-003
11272	17.667	5.7	0.	-6.8741e-003
11273	17.667	5.8	5.e-002	6.5285e-006
11274	17.667	5.9	0.	9.0216e-004
11275	17.964	5.8	0.	1.8011e-003
11276	17.865	5.7	0.	-7.3923e-003
11277	17.865	5.8	5.e-002	7.472e-006
11278	17.865	5.9	0.	1.3771e-003
11279	18.161	5.8	0.	2.3172e-003
11280	18.063	5.7	0.	-7.9186e-003
11281	18.063	5.8	5.e-002	9.0694e-006
11282	18.063	5.9	0.	1.87e-003
11283	18.359	5.8	0.	2.8009e-003
11284	18.26	5.7	0.	-8.485e-003
11285	18.26	5.8	5.e-002	8.5152e-006
11286	18.26	5.9	0.	2.3587e-003
11287	18.557	5.8	0.	3.2653e-003
11288	18.458	5.7	0.	-9.0921e-003
11289	18.458	5.8	5.e-002	2.4847e-006
11290	18.458	5.9	0.	2.8538e-003
11291	18.755	5.8	0.	3.7186e-003
11292	18.656	5.7	0.	-9.7264e-003
11293	18.656	5.8	5.e-002	3.1443e-006
11294	18.656	5.9	0.	3.3786e-003
11295	18.953	5.8	0.	4.1503e-003
11296	18.854	5.7	0.	-1.0397e-002
11297	18.854	5.8	5.e-002	7.0114e-006
11298	18.854	5.9	0.	3.9393e-003
11299	19.151	5.8	0.	4.548e-003
11300	19.052	5.7	0.	-1.1131e-002
11301	19.052	5.8	5.e-002	7.9938e-006
11302	19.052	5.9	0.	4.5245e-003
11303	19.349	5.8	0.	4.914e-003
11304	19.25	5.7	0.	-1.1935e-002
11305	19.25	5.8	5.e-002	6.0192e-006
11306	19.25	5.9	0.	5.1392e-003
11307	19.547	5.8	0.	5.2522e-003
11308	19.448	5.7	0.	-1.2806e-002
11309	19.448	5.8	5.e-002	8.5676e-006
11310	19.448	5.9	0.	5.8098e-003
11311	19.745	5.8	0.	5.5476e-003
11312	19.646	5.7	0.	-1.3754e-002
11313	19.646	5.8	5.e-002	7.4551e-006
11314	19.646	5.9	0.	6.5461e-003
11315	19.943	5.8	0.	5.78e-003
11316	19.844	5.7	0.	-1.481e-002
11317	19.844	5.8	5.e-002	7.3273e-006
11318	19.844	5.9	0.	7.3393e-003
11319	20.141	5.8	0.	5.9435e-003
11320	20.042	5.7	0.	-1.5989e-002
11321	20.042	5.8	5.e-002	8.1513e-006
11322	20.042	5.9	0.	8.2039e-003
11323	20.339	5.8	0.	6.0275e-003
11324	20.24	5.7	0.	-1.7295e-002
11325	20.24	5.8	5.e-002	7.3061e-006
11326	20.24	5.9	0.	9.1694e-003
11327	20.536	5.8	0.	6.0018e-003
11328	20.438	5.7	0.	-1.8748e-002
11329	20.438	5.8	5.e-002	8.8934e-006
11330	20.438	5.9	0.	1.0252e-002
11331	20.734	5.8	0.	5.8323e-003
11332	20.635	5.7	0.	-2.0394e-002
11333	20.635	5.8	5.e-002	1.0579e-005
11334	20.635	5.9	0.	1.1458e-002
11335	20.932	5.8	0.	5.4882e-003
11336	20.833	5.7	0.	-2.2252e-002
11337	20.833	5.8	5.e-002	1.5924e-005
11338	20.833	5.9	0.	1.2822e-002
11339	21.13	5.8	0.	4.9259e-003
11340	21.031	5.7	0.	-2.4353e-002
11341	21.031	5.8	5.e-002	8.339e-006
11342	21.031	5.9	0.	1.438e-002
11343	21.328	5.8	0.	4.081e-003
11344	21.229	5.7	0.	-2.6739e-002
11345	21.229	5.8	5.e-002	7.0934e-006
11346	21.229	5.9	0.	1.6181e-002
11347	21.526	5.8	0.	2.8708e-003
11348	21.427	5.7	0.	-2.9468e-002
11349	21.427	5.8	5.e-002	1.3441e-005
11350	21.427	5.9	0.	1.8273e-002
11351	21.724	5.8	0.	1.1967e-003
11352	21.625	5.7	0.	-3.2603e-002
11353	21.625	5.8	5.e-002	1.3268e-005
11354	21.625	5.9	0.	2.0733e-002
11355	21.922	5.8	0.	-1.0717e-003
11356	21.823	5.7	0.	-3.6205e-002
11357	21.823	5.8	5.e-002	1.1983e-005
11358	21.823	5.9	0.	2.3678e-002
11359	22.12	5.8	0.	-4.1266e-003
11360	22.021	5.7	0.	-4.0362e-002
11361	22.021	5.8	5.e-002	1.4478e-005
11362	22.021	5.9	0.	2.7263e-002
11363	22.318	5.8	0.	-8.2116e-003
11364	22.219	5.7	0.	-4.5193e-002
11365	22.219	5.8	5.e-002	1.4041e-005
11366	22.219	5.9	0.	3.1694e-002
11367	22.516	5.8	0.	-1.3717e-002
11368	22.417	5.7	0.	-5.0777e-002
11369	22.417	5.8	5.e-002	1.6825e-005
11370	22.417	5.9	0.	3.7339e-002
11371	22.714	5.8	0.	-2.097e-002
11372	22.615	5.7	0.	-5.7369e-002
11373	22.615	5.8	5.e-002	1.5182e-005
11374	22.615	5.9	0.	4.4633e-002
11375	22.911	5.8	0.	-3.1375e-002
11376	22.813	5.7	0.	-6.4511e-002
11377	22.813	5.8	5.e-002	1.6091e-005
11378	22.813	5.9	0.	5.4891e-002
11379	23.109	5.8	0.	-4.3428e-002
11380	23.01	5.7	0.	-7.4291e-002
11381	23.01	5.8	5.e-002	8.6742e-006
11382	23.01	5.9	0.	6.8084e-002
11383	23.307	5.8	0.	-6.8691e-002
11384	23.208	5.7	0.	-7.7985e-002
11385	23.208	5.8	5.e-002	9.0505e-006
11386	23.208	5.9	0.	9.4003e-002
11387	23.505	5.8	0.	-7.4012e-002
11388	23.406	5.7	0.	-0.10548
11389	23.406	5.8	5.e-002	8.5236e-006
11390	23.406	5.9	0.	0.11213
11391	23.703	5.8	0.	-0.27897
11392	23.604	5.7	0.	-2.8771e-002
11393	23.604	5.8	5.e-002	1.6488e-005
11394	23.604	5.9	0.	0.23516
11395	23.802	5.7	0.	-0.40675
11396	23.802	5.8	5.e-002	1.7183e-005
11397	23.901	5.8	0.	-5.6273e-002
11398	23.802	5.9	0.	-9.3812e-003
11399	8.4635	5.6	0.	-8.6681
11400	8.3646	5.5	0.	-9.7206
11401	8.3646	5.6	5.e-002	1.2325e-005
11402	8.2656	5.6	0.	1.7614
11403	8.6615	5.6	0.	-3.7221
11404	8.5625	5.5	0.	-2.7991
11405	8.5625	5.6	5.e-002	-3.5869e-006
11406	8.8594	5.6	0.	-2.1786
11407	8.7604	5.5	0.	-2.9092
11408	8.7604	5.6	5.e-002	-4.1363e-006
11409	9.0573	5.6	0.	-1.0214
11410	8.9583	5.5	0.	-1.4498
11411	8.9583	5.6	5.e-002	-4.4907e-006
11412	9.2552	5.6	0.	-0.62414
11413	9.1563	5.5	0.	-0.93392
11414	9.1563	5.6	5.e-002	-5.8107e-006
11415	9.4531	5.6	0.	-0.42736
11416	9.3542	5.5	0.	-0.6049
11417	9.3542	5.6	5.e-002	-5.7388e-006
11418	9.651	5.6	0.	-0.33108
11419	9.5521	5.5	0.	-0.44008
11420	9.5521	5.6	5.e-002	-5.921e-006
11421	9.849	5.6	0.	-0.26802
11422	9.75	5.5	0.	-0.3362
11423	9.75	5.6	5.e-002	-2.7648e-006
11424	10.047	5.6	0.	-0.22094
11425	9.9479	5.5	0.	-0.26906
11426	9.9479	5.6	5.e-002	-2.735e-006
11427	10.245	5.6	0.	-0.18271
11428	10.146	5.5	0.	-0.22275
11429	10.146	5.6	5.e-002	-3.4236e-006
11430	10.443	5.6	0.	-0.15188
11431	10.344	5.5	0.	-0.19201
11432	10.344	5.6	5.e-002	-1.0671e-005
11433	10.641	5.6	0.	-0.12855
11434	10.542	5.5	0.	-0.17531
11435	10.542	5.6	5.e-002	-2.1196e-005
11436	10.839	5.6	0.	-0.11426
11437	10.74	5.5	0.	-0.17606
11438	10.74	5.6	5.e-002	-6.136e-005
11439	11.036	5.6	0.	-0.11374
11440	10.937	5.5	0.	-0.21116
11441	10.937	5.6	5.e-002	-7.0948e-006
11442	11.234	5.6	0.	-0.14537
11443	11.135	5.5	0.	-0.38513
11444	11.135	5.6	5.e-002	-5.195e-006
11445	11.432	5.6	0.	-0.35412
11446	11.333	5.5	0.	-1.9306
11447	11.333	5.6	5.e-002	-1.203e-006
11448	11.63	5.6	0.	-1.8749
11449	11.531	5.5	0.	-4.9976
11450	11.531	5.6	5.e-002	-4.2757e-006
11451	11.828	5.6	0.	-3.712
11452	11.729	5.5	0.	-7.3652
11453	11.729	5.6	5.e-002	3.3163e-006
11454	12.026	5.6	0.	-4.9523
11455	11.927	5.5	0.	-8.9404
11456	11.927	5.6	5.e-002	1.6111e-006
11457	12.224	5.6	0.	-5.6429
11458	12.125	5.5	0.	-9.8393
11459	12.125	5.6	5.e-002	1.1087e-006
11460	12.422	5.6	0.	-5.8807
11461	12.323	5.5	0.	-10.184
11462	12.323	5.6	5.e-002	7.8807e-007
11463	12.62	5.6	0.	-5.7563
11464	12.521	5.5	0.	-10.086
11465	12.521	5.6	5.e-002	7.9484e-007
11466	12.818	5.6	0.	-5.3484
11467	12.719	5.5	0.	-9.6398
11468	12.719	5.6	5.e-002	4.9574e-007
11469	13.016	5.6	0.	-4.7236
11470	12.917	5.5	0.	-8.927
11471	12.917	5.6	5.e-002	6.6529e-007
11472	13.214	5.6	0.	-3.9369
11473	13.115	5.5	0.	-8.0151
11474	13.115	5.6	5.e-002	1.8431e-006
11475	13.411	5.6	0.	-3.0336
11476	13.313	5.5	0.	-6.9594
11477	13.313	5.6	5.e-002	1.7704e-006
11478	13.609	5.6	0.	-2.0504
11479	13.51	5.5	0.	-5.8051
11480	13.51	5.6	5.e-002	1.5657e-006
11481	13.807	5.6	0.	-1.0176
11482	13.708	5.5	0.	-4.5881
11483	13.708	5.6	5.e-002	2.3978e-006
11484	14.005	5.6	0.	-3.4329e-002
11485	13.906	5.5	0.	-3.3365
11486	13.906	5.6	5.e-002	4.0955e-006
11487	14.203	5.6	0.	1.4706e-002
11488	14.104	5.5	0.	-2.0723
11489	14.104	5.6	5.e-002	3.7309e-006
11490	14.401	5.6	0.	1.4212e-002
11491	14.302	5.5	0.	-0.8124
11492	14.302	5.6	5.e-002	3.1315e-006
11493	14.599	5.6	0.	1.2447e-002
11494	14.5	5.5	0.	7.876e-003
11495	14.5	5.6	5.e-002	3.0943e-006
11496	14.797	5.6	0.	1.0464e-002
11497	14.698	5.5	0.	6.7187e-003
11498	14.698	5.6	5.e-002	2.9097e-006
11499	14.995	5.6	0.	8.4541e-003
11500	14.896	5.5	0.	5.3004e-003
11501	14.896	5.6	5.e-002	3.6894e-006
11502	15.193	5.6	0.	6.4661e-003
11503	15.094	5.5	0.	3.9135e-003
11504	15.094	5.6	5.e-002	4.3747e-006
11505	15.391	5.6	0.	4.5447e-003
11506	15.292	5.5	0.	2.5811e-003
11507	15.292	5.6	5.e-002	3.7218e-006
11508	15.589	5.6	0.	2.7163e-003
11509	15.49	5.5	0.	1.3372e-003
11510	15.49	5.6	5.e-002	3.9102e-006
11511	15.786	5.6	0.	9.6354e-004
11512	15.688	5.5	0.	1.7856e-004
11513	15.688	5.6	5.e-002	4.5246e-006
11514	15.984	5.6	0.	-7.326e-004
11515	15.885	5.5	0.	-9.3899e-004
11516	15.885	5.6	5.e-002	4.0948e-006
11517	16.182	5.6	0.	-2.3595e-003
11518	16.083	5.5	0.	-2.0154e-003
11519	16.083	5.6	5.e-002	5.3917e-006
11520	16.38	5.6	0.	-3.909e-003
11521	16.281	5.5	0.	-3.0283e-003
11522	16.281	5.6	5.e-002	5.3136e-006
11523	16.578	5.6	0.	-5.4049e-003
11524	16.479	5.5	0.	-3.9824e-003
11525	16.479	5.6	5.e-002	5.2368e-006
11526	16.776	5.6	0.	-6.8703e-003
11527	16.677	5.5	0.	-4.916e-003
11528	16.677	5.6	5.e-002	4.9294e-006
11529	16.974	5.6	0.	-8.2982e-003
11530	16.875	5.5	0.	-5.8333e-003
11531	16.875	5.6	5.e-002	5.5566e-006
11532	17.172	5.6	0.	-9.6842e-003
11533	17.073	5.5	0.	-6.712e-003
11534	17.073	5.6	5.e-002	6.3042e-006
11535	17.37	5.6	0.	-1.1051e-002
11536	17.271	5.5	0.	-7.5605e-003
11537	17.271	5.6	5.e-002	5.3352e-006
11538	17.568	5.6	0.	-1.2422e-002
11539	17.469	5.5	0.	-8.4102e-003
11540	17.469	5.6	5.e-002	5.4154e-006
11541	17.766	5.6	0.	-1.3793e-002
11542	17.667	5.5	0.	-9.2661e-003
11543	17.667	5.6	5.e-002	6.3751e-006
11544	17.964	5.6	0.	-1.5162e-002
11545	17.865	5.5	0.	-1.0109e-002
11546	17.865	5.6	5.e-002	6.2611e-006
11547	18.161	5.6	0.	-1.6551e-002
11548	18.063	5.5	0.	-1.0947e-002
11549	18.063	5.6	5.e-002	7.0312e-006
11550	18.359	5.6	0.	-1.7982e-002
11551	18.26	5.5	0.	-1.181e-002
11552	18.26	5.6	5.e-002	5.9755e-006
11553	18.557	5.6	0.	-1.9454e-002
11554	18.458	5.5	0.	-1.2701e-002
11555	18.458	5.6	5.e-002	4.5265e-006
11556	18.755	5.6	0.	-2.0968e-002
11557	18.656	5.5	0.	-1.3605e-002
11558	18.656	5.6	5.e-002	4.e-006
11559	18.953	5.6	0.	-2.2547e-002
11560	18.854	5.5	0.	-1.453e-002
11561	18.854	5.6	5.e-002	5.5061e-006
11562	19.151	5.6	0.	-2.4213e-002
11563	19.052	5.5	0.	-1.5505e-002
11564	19.052	5.6	5.e-002	7.258e-006
11565	19.349	5.6	0.	-2.5967e-002
11566	19.25	5.5	0.	-1.6531e-002
11567	19.25	5.6	5.e-002	6.2893e-006
11568	19.547	5.6	0.	-2.7817e-002
11569	19.448	5.5	0.	-1.76e-002
11570	19.448	5.6	5.e-002	6.5806e-006
11571	19.745	5.6	0.	-2.9787e-002
11572	19.646	5.5	0.	-1.8716e-002
11573	19.646	5.6	5.e-002	8.5243e-006
11574	19.943	5.6	0.	-3.19e-002
11575	19.844	5.5	0.	-1.991e-002
11576	19.844	5.6	5.e-002	8.8258e-006
11577	20.141	5.6	0.	-3.4167e-002
11578	20.042	5.5	0.	-2.1183e-002
11579	20.042	5.6	5.e-002	6.9108e-006
11580	20.339	5.6	0.	-3.6596e-002
11581	20.24	5.5	0.	-2.2528e-002
11582	20.24	5.6	5.e-002	6.8581e-006
11583	20.536	5.6	0.	-3.9219e-002
11584	20.438	5.5	0.	-2.3953e-002
11585	20.438	5.6	5.e-002	7.8918e-006
11586	20.734	5.6	0.	-4.2065e-002
11587	20.635	5.5	0.	-2.5478e-002
11588	20.635	5.6	5.e-002	8.9296e-006
11589	20.932	5.6	0.	-4.5147e-002
11590	20.833	5.5	0.	-2.7108e-002
11591	20.833	5.6	5.e-002	9.3102e-006
11592	21.13	5.6	0.	-4.8491e-002
11593	21.031	5.5	0.	-2.8834e-002
11594	21.031	5.6	5.e-002	9.5283e-006
11595	21.328	5.6	0.	-5.2129e-002
11596	21.229	5.5	0.	-3.0658e-002
11597	21.229	5.6	5.e-002	9.6647e-006
11598	21.526	5.6	0.	-5.6095e-002
11599	21.427	5.5	0.	-3.2585e-002
11600	21.427	5.6	5.e-002	1.1553e-005
11601	21.724	5.6	0.	-6.0414e-002
11602	21.625	5.5	0.	-3.4601e-002
11603	21.625	5.6	5.e-002	1.1243e-005
11604	21.922	5.6	0.	-6.5107e-002
11605	21.823	5.5	0.	-3.6671e-002
11606	21.823	5.6	5.e-002	1.0365e-005
11607	22.12	5.6	0.	-7.0196e-002
11608	22.021	5.5	0.	-3.8741e-002
11609	22.021	5.6	5.e-002	1.1286e-005
11610	22.318	5.6	0.	-7.5663e-002
11611	22.219	5.5	0.	-4.0736e-002
11612	22.219	5.6	5.e-002	1.1024e-005
11613	22.516	5.6	0.	-8.1509e-002
11614	22.417	5.5	0.	-4.245e-002
11615	22.417	5.6	5.e-002	1.4378e-005
11616	22.714	5.6	0.	-8.7331e-002
11617	22.615	5.5	0.	-4.3747e-002
11618	22.615	5.6	5.e-002	1.1417e-005
11619	22.911	5.6	0.	-9.3635e-002
11620	22.813	5.5	0.	-4.3429e-002
11621	22.813	5.6	5.e-002	1.0838e-005
11622	23.109	5.6	0.	-9.5967e-002
11623	23.01	5.5	0.	-4.2995e-002
11624	23.01	5.6	5.e-002	1.039e-005
11625	23.307	5.6	0.	-0.1056
11626	23.208	5.5	0.	-3.0064e-002
11627	23.208	5.6	5.e-002	7.1627e-006
11628	23.505	5.6	0.	-6.2847e-002
11629	23.406	5.5	0.	-3.9934e-002
11630	23.406	5.6	5.e-002	8.8632e-006
11631	23.703	5.6	0.	-0.20072
11632	23.604	5.5	0.	0.10367
11633	23.604	5.6	5.e-002	1.6393e-005
11634	23.802	5.5	0.	-0.20742
11635	23.802	5.6	5.e-002	1.5681e-005
11636	23.901	5.6	0.	2.7691e-002
11637	8.4635	5.4	0.	-6.1031
11638	8.3646	5.3	0.	-8.5864
11639	8.3646	5.4	5.e-002	2.6976e-006
11640	8.2656	5.4	0.	0.30933
11641	8.6615	5.4	0.	-2.5442
11642	8.5625	5.3	0.	-1.4073
11643	8.5625	5.4	5.e-002	-1.1252e-005
11644	8.8594	5.4	0.	-2.1701
11645	8.7604	5.3	0.	-2.553
11646	8.7604	5.4	5.e-002	-9.9825e-006
11647	9.0573	5.4	0.	-1.3029
11648	8.9583	5.3	0.	-1.6061
11649	8.9583	5.4	5.e-002	-1.295e-005
11650	9.2552	5.4	0.	-0.89084
11651	9.1563	5.3	0.	-1.2636
11652	9.1563	5.4	5.e-002	-2.5356e-005
11653	9.4531	5.4	0.	-0.62091
11654	9.3542	5.3	0.	-0.93952
11655	9.3542	5.4	5.e-002	-1.4795e-005
11656	9.651	5.4	0.	-0.46321
11657	9.5521	5.3	0.	-0.74157
11658	9.5521	5.4	5.e-002	-1.8185e-005
11659	9.849	5.4	0.	-0.36273
11660	9.75	5.3	0.	-0.60332
11661	9.75	5.4	5.e-002	-1.0389e-005
11662	10.047	5.4	0.	-0.30046
11663	9.9479	5.3	0.	-0.51595
11664	9.9479	5.4	5.e-002	-1.2755e-005
11665	10.245	5.4	0.	-0.26494
11666	10.146	5.3	0.	-0.46877
11667	10.146	5.4	5.e-002	-4.803e-005
11668	10.443	5.4	0.	-0.25334
11669	10.344	5.3	0.	-0.46518
11670	10.344	5.4	5.e-002	-2.6514e-005
11671	10.641	5.4	0.	-0.27223
11672	10.542	5.3	0.	-0.53363
11673	10.542	5.4	5.e-002	-3.1461e-005
11674	10.839	5.4	0.	-0.35862
11675	10.74	5.3	0.	-0.83145
11676	10.74	5.4	5.e-002	-1.0809e-004
11677	11.036	5.4	0.	-0.78584
11678	10.937	5.3	0.	-2.7599
11679	10.937	5.4	5.e-002	-8.6346e-006
11680	11.234	5.4	0.	-3.6355
11681	11.135	5.3	0.	-7.7417
11682	11.135	5.4	5.e-002	5.7081e-006
11683	11.432	5.4	0.	-7.5586
11684	11.333	5.3	0.	-12.188
11685	11.333	5.4	5.e-002	-9.7219e-006
11686	11.63	5.4	0.	-10.549
11687	11.531	5.3	0.	-15.468
11688	11.531	5.4	5.e-002	1.5281e-006
11689	11.828	5.4	0.	-12.587
11690	11.729	5.3	0.	-17.679
11691	11.729	5.4	5.e-002	-5.1873e-006
11692	12.026	5.4	0.	-13.81
11693	11.927	5.3	0.	-18.98
11694	11.927	5.4	5.e-002	2.0902e-006
11695	12.224	5.4	0.	-14.36
11696	12.125	5.3	0.	-19.53
11697	12.125	5.4	5.e-002	1.2065e-006
11698	12.422	5.4	0.	-14.368
11699	12.323	5.3	0.	-19.473
11700	12.323	5.4	5.e-002	2.5769e-006
11701	12.62	5.4	0.	-13.947
11702	12.521	5.3	0.	-18.938
11703	12.521	5.4	5.e-002	2.9409e-006
11704	12.818	5.4	0.	-13.195
11705	12.719	5.3	0.	-18.032
11706	12.719	5.4	5.e-002	2.4677e-006
11707	13.016	5.4	0.	-12.195
11708	12.917	5.3	0.	-16.848
11709	12.917	5.4	5.e-002	1.4671e-006
11710	13.214	5.4	0.	-11.014
11711	13.115	5.3	0.	-15.463
11712	13.115	5.4	5.e-002	2.0018e-006
11713	13.411	5.4	0.	-9.7075
11714	13.313	5.3	0.	-13.939
11715	13.313	5.4	5.e-002	3.0809e-006
11716	13.609	5.4	0.	-8.3195
11717	13.51	5.3	0.	-12.327
11718	13.51	5.4	5.e-002	2.065e-006
11719	13.807	5.4	0.	-6.8854
11720	13.708	5.3	0.	-10.666
11721	13.708	5.4	5.e-002	2.9379e-006
11722	14.005	5.4	0.	-5.4326
11723	13.906	5.3	0.	-8.9872
11724	13.906	5.4	5.e-002	4.1969e-006
11725	14.203	5.4	0.	-3.9821
11726	14.104	5.3	0.	-7.3154
11727	14.104	5.4	5.e-002	3.9606e-006
11728	14.401	5.4	0.	-2.5497
11729	14.302	5.3	0.	-5.668
11730	14.302	5.4	5.e-002	3.6979e-006
11731	14.599	5.4	0.	-1.1482
11732	14.5	5.3	0.	-4.0579
11733	14.5	5.4	5.e-002	3.9825e-006
11734	14.797	5.4	0.	-2.0804e-002
11735	14.698	5.3	0.	-2.4946
11736	14.698	5.4	5.e-002	4.2943e-006
11737	14.995	5.4	0.	-2.2899e-003
11738	14.896	5.3	0.	-0.98809
11739	14.896	5.4	5.e-002	4.3415e-006
11740	15.193	5.4	0.	-1.3498e-003
11741	15.094	5.3	0.	-2.3078e-002
11742	15.094	5.4	5.e-002	5.2079e-006
11743	15.391	5.4	0.	-1.3826e-003
11744	15.292	5.3	0.	-5.5779e-003
11745	15.292	5.4	5.e-002	4.8766e-006
11746	15.589	5.4	0.	-1.6365e-003
11747	15.49	5.3	0.	-3.3892e-003
11748	15.49	5.4	5.e-002	4.2951e-006
11749	15.786	5.4	0.	-1.9693e-003
11750	15.688	5.3	0.	-2.7886e-003
11751	15.688	5.4	5.e-002	5.7319e-006
11752	15.984	5.4	0.	-2.3438e-003
11753	15.885	5.3	0.	-2.6777e-003
11754	15.885	5.4	5.e-002	5.0357e-006
11755	16.182	5.4	0.	-2.7222e-003
11756	16.083	5.3	0.	-2.7714e-003
11757	16.083	5.4	5.e-002	6.3728e-006
11758	16.38	5.4	0.	-3.0806e-003
11759	16.281	5.3	0.	-2.9377e-003
11760	16.281	5.4	5.e-002	5.9618e-006
11761	16.578	5.4	0.	-3.4298e-003
11762	16.479	5.3	0.	-3.1312e-003
11763	16.479	5.4	5.e-002	6.0271e-006
11764	16.776	5.4	0.	-3.7839e-003
11765	16.677	5.3	0.	-3.3609e-003
11766	16.677	5.4	5.e-002	6.0895e-006
11767	16.974	5.4	0.	-4.1287e-003
11768	16.875	5.3	0.	-3.6157e-003
11769	16.875	5.4	5.e-002	6.7465e-006
11770	17.172	5.4	0.	-4.4525e-003
11771	17.073	5.3	0.	-3.8602e-003
11772	17.073	5.4	5.e-002	7.9576e-006
11773	17.37	5.4	0.	-4.7706e-003
11774	17.271	5.3	0.	-4.0924e-003
11775	17.271	5.4	5.e-002	6.4714e-006
11776	17.568	5.4	0.	-5.0956e-003
11777	17.469	5.3	0.	-4.3392e-003
11778	17.469	5.4	5.e-002	5.8304e-006
11779	17.766	5.4	0.	-5.4172e-003
11780	17.667	5.3	0.	-4.5945e-003
11781	17.667	5.4	5.e-002	7.8299e-006
11782	17.964	5.4	0.	-5.7256e-003
11783	17.865	5.3	0.	-4.8384e-003
11784	17.865	5.4	5.e-002	7.3349e-006
11785	18.161	5.4	0.	-6.0346e-003
11786	18.063	5.3	0.	-5.0681e-003
11787	18.063	5.4	5.e-002	8.0085e-006
11788	18.359	5.4	0.	-6.3569e-003
11789	18.26	5.3	0.	-5.3105e-003
11790	18.26	5.4	5.e-002	7.0256e-006
11791	18.557	5.4	0.	-6.6826e-003
11792	18.458	5.3	0.	-5.5617e-003
11793	18.458	5.4	5.e-002	6.0349e-006
11794	18.755	5.4	0.	-7.0015e-003
11795	18.656	5.3	0.	-5.8042e-003
11796	18.656	5.4	5.e-002	6.0491e-006
11797	18.953	5.4	0.	-7.3272e-003
11798	18.854	5.3	0.	-6.0343e-003
11799	18.854	5.4	5.e-002	7.645e-006
11800	19.151	5.4	0.	-7.6708e-003
11801	19.052	5.3	0.	-6.2763e-003
11802	19.052	5.4	5.e-002	8.871e-006
11803	19.349	5.4	0.	-8.0226e-003
11804	19.25	5.3	0.	-6.5274e-003
11805	19.25	5.4	5.e-002	9.4621e-006
11806	19.547	5.4	0.	-8.3735e-003
11807	19.448	5.3	0.	-6.768e-003
11808	19.448	5.4	5.e-002	8.2592e-006
11809	19.745	5.4	0.	-8.7335e-003
11810	19.646	5.3	0.	-6.9969e-003
11811	19.646	5.4	5.e-002	9.9956e-006
11812	19.943	5.4	0.	-9.1101e-003
11813	19.844	5.3	0.	-7.2299e-003
11814	19.844	5.4	5.e-002	9.9462e-006
11815	20.141	5.4	0.	-9.491e-003
11816	20.042	5.3	0.	-7.4613e-003
11817	20.042	5.4	5.e-002	8.7643e-006
11818	20.339	5.4	0.	-9.8689e-003
11819	20.24	5.3	0.	-7.671e-003
11820	20.24	5.4	5.e-002	8.7782e-006
11821	20.536	5.4	0.	-1.0243e-002
11822	20.438	5.3	0.	-7.8524e-003
11823	20.438	5.4	5.e-002	1.068e-005
11824	20.734	5.4	0.	-1.0612e-002
11825	20.635	5.3	0.	-8.0069e-003
11826	20.635	5.4	5.e-002	1.2118e-005
11827	20.932	5.4	0.	-1.0959e-002
11828	20.833	5.3	0.	-8.1206e-003
11829	20.833	5.4	5.e-002	1.1103e-005
11830	21.13	5.4	0.	-1.1258e-002
11831	21.031	5.3	0.	-8.1603e-003
11832	21.031	5.4	5.e-002	1.1746e-005
11833	21.328	5.4	0.	-1.149e-002
11834	21.229	5.3	0.	-8.0963e-003
11835	21.229	5.4	5.e-002	1.195e-005
11836	21.526	5.4	0.	-1.1618e-002
11837	21.427	5.3	0.	-7.8991e-003
11838	21.427	5.4	5.e-002	1.5217e-005
11839	21.724	5.4	0.	-1.158e-002
11840	21.625	5.3	0.	-7.5089e-003
11841	21.625	5.4	5.e-002	1.2741e-005
11842	21.922	5.4	0.	-1.1283e-002
11843	21.823	5.3	0.	-6.8287e-003
11844	21.823	5.4	5.e-002	1.3092e-005
11845	22.12	5.4	0.	-1.0598e-002
11846	22.021	5.3	0.	-5.7312e-003
11847	22.021	5.4	5.e-002	1.2758e-005
11848	22.318	5.4	0.	-9.2994e-003
11849	22.219	5.3	0.	-4.043e-003
11850	22.219	5.4	5.e-002	1.368e-005
11851	22.516	5.4	0.	-7.104e-003
11852	22.417	5.3	0.	-1.4201e-003
11853	22.417	5.4	5.e-002	1.6381e-005
11854	22.714	5.4	0.	-3.1818e-003
11855	22.615	5.3	0.	2.4488e-003
11856	22.615	5.4	5.e-002	1.3051e-005
11857	22.911	5.4	0.	2.4899e-003
11858	22.813	5.3	0.	9.067e-003
11859	22.813	5.4	5.e-002	1.4047e-005
11860	23.109	5.4	0.	1.5954e-002
11861	23.01	5.3	0.	1.7155e-002
11862	23.01	5.4	5.e-002	1.2161e-005
11863	23.307	5.4	0.	2.4542e-002
11864	23.208	5.3	0.	4.0676e-002
11865	23.208	5.4	5.e-002	7.4287e-006
11866	23.505	5.4	0.	0.10572
11867	23.406	5.3	0.	4.2222e-002
11868	23.406	5.4	5.e-002	1.062e-005
11869	23.703	5.4	0.	3.187e-002
11870	23.604	5.3	0.	0.21778
11871	23.604	5.4	5.e-002	1.7967e-005
11872	23.802	5.3	0.	-4.9802e-002
11873	23.802	5.4	5.e-002	1.5804e-005
11874	23.901	5.4	0.	0.23897
11875	8.4635	5.2	0.	-4.9101
11876	8.3646	5.1	0.	-9.0123
11877	8.3646	5.2	5.e-002	-1.3978e-014
11878	8.2656	5.2	0.	0.51973
11879	8.6615	5.2	0.	-1.7349
11880	8.5625	5.1	0.	-0.51483
11881	8.5625	5.2	5.e-002	-1.2549e-005
11882	8.8594	5.2	0.	-2.0696
11883	8.7604	5.1	0.	-2.4895
11884	8.7604	5.2	5.e-002	-2.6156e-005
11885	9.0573	5.2	0.	-1.5661
11886	8.9583	5.1	0.	-1.74
11887	8.9583	5.2	5.e-002	-3.2037e-005
11888	9.2552	5.2	0.	-1.3102
11889	9.1563	5.1	0.	-1.648
11890	9.1563	5.2	5.e-002	-2.9459e-005
11891	9.4531	5.2	0.	-1.0774
11892	9.3542	5.1	0.	-1.4299
11893	9.3542	5.2	5.e-002	-2.5775e-005
11894	9.651	5.2	0.	-0.91874
11895	9.5521	5.1	0.	-1.2962
11896	9.5521	5.2	5.e-002	-2.0832e-005
11897	9.849	5.2	0.	-0.81158
11898	9.75	5.1	0.	-1.2134
11899	9.75	5.2	5.e-002	-5.3973e-005
11900	10.047	5.2	0.	-0.75988
11901	9.9479	5.1	0.	-1.2161
11902	9.9479	5.2	5.e-002	-5.2274e-005
11903	10.245	5.2	0.	-0.77929
11904	10.146	5.1	0.	-1.3761
11905	10.146	5.2	5.e-002	-5.4855e-005
11906	10.443	5.2	0.	-0.94418
11907	10.344	5.1	0.	-2.0175
11908	10.344	5.2	5.e-002	-6.2262e-005
11909	10.641	5.2	0.	-1.6838
11910	10.542	5.1	0.	-5.0189
11911	10.542	5.2	5.e-002	-5.9392e-005
11912	10.839	5.2	0.	-5.475
11913	10.74	5.1	0.	-11.825
11914	10.74	5.2	5.e-002	-6.9232e-005
11915	11.036	5.2	0.	-11.448
11916	10.937	5.1	0.	-18.337
11917	10.937	5.2	5.e-002	-2.7109e-005
11918	11.234	5.2	0.	-16.425
11919	11.135	5.1	0.	-23.406
11920	11.135	5.2	5.e-002	-4.4801e-006
11921	11.432	5.2	0.	-20.095
11922	11.333	5.1	0.	-27.048
11923	11.333	5.2	5.e-002	-7.251e-006
11924	11.63	5.2	0.	-22.579
11925	11.531	5.1	0.	-29.433
11926	11.531	5.2	5.e-002	2.8219e-007
11927	11.828	5.2	0.	-24.048
11928	11.729	5.1	0.	-30.75
11929	11.729	5.2	5.e-002	-5.3946e-006
11930	12.026	5.2	0.	-24.675
11931	11.927	5.1	0.	-31.181
11932	11.927	5.2	5.e-002	-1.1168e-006
11933	12.224	5.2	0.	-24.619
11934	12.125	5.1	0.	-30.896
11935	12.125	5.2	5.e-002	-8.5823e-007
11936	12.422	5.2	0.	-24.02
11937	12.323	5.1	0.	-30.041
11938	12.323	5.2	5.e-002	-1.5165e-006
11939	12.62	5.2	0.	-23.
11940	12.521	5.1	0.	-28.747
11941	12.521	5.2	5.e-002	1.7361e-006
11942	12.818	5.2	0.	-21.662
11943	12.719	5.1	0.	-27.124
11944	12.719	5.2	5.e-002	1.0506e-006
11945	13.016	5.2	0.	-20.093
11946	12.917	5.1	0.	-25.263
11947	12.917	5.2	5.e-002	2.0107e-006
11948	13.214	5.2	0.	-18.365
11949	13.115	5.1	0.	-23.242
11950	13.115	5.2	5.e-002	2.3826e-006
11951	13.411	5.2	0.	-16.535
11952	13.313	5.1	0.	-21.121
11953	13.313	5.2	5.e-002	2.1543e-006
11954	13.609	5.2	0.	-14.649
11955	13.51	5.1	0.	-18.95
11956	13.51	5.2	5.e-002	2.0689e-006
11957	13.807	5.2	0.	-12.743
11958	13.708	5.1	0.	-16.767
11959	13.708	5.2	5.e-002	2.8629e-006
11960	14.005	5.2	0.	-10.845
11961	13.906	5.1	0.	-14.603
11962	13.906	5.2	5.e-002	4.2511e-006
11963	14.203	5.2	0.	-8.9755
11964	14.104	5.1	0.	-12.479
11965	14.104	5.2	5.e-002	4.4006e-006
11966	14.401	5.2	0.	-7.1497
11967	14.302	5.1	0.	-10.411
11968	14.302	5.2	5.e-002	4.3205e-006
11969	14.599	5.2	0.	-5.3778
11970	14.5	5.1	0.	-8.409
11971	14.5	5.2	5.e-002	4.6653e-006
11972	14.797	5.2	0.	-3.6668
11973	14.698	5.1	0.	-6.4812
11974	14.698	5.2	5.e-002	4.5842e-006
11975	14.995	5.2	0.	-2.0222
11976	14.896	5.1	0.	-4.6306
11977	14.896	5.2	5.e-002	4.6449e-006
11978	15.193	5.2	0.	-0.46898
11979	15.094	5.1	0.	-2.8595
11980	15.094	5.2	5.e-002	5.8043e-006
11981	15.391	5.2	0.	-1.5313e-002
11982	15.292	5.1	0.	-1.1738
11983	15.292	5.2	5.e-002	5.2453e-006
11984	15.589	5.2	0.	-6.1679e-003
11985	15.49	5.1	0.	-4.4589e-002
11986	15.49	5.2	5.e-002	4.7784e-006
11987	15.786	5.2	0.	-4.0466e-003
11988	15.688	5.1	0.	-1.0148e-002
11989	15.688	5.2	5.e-002	5.836e-006
11990	15.984	5.2	0.	-3.3043e-003
11991	15.885	5.1	0.	-5.5449e-003
11992	15.885	5.2	5.e-002	5.4731e-006
11993	16.182	5.2	0.	-3.041e-003
11994	16.083	5.1	0.	-3.9339e-003
11995	16.083	5.2	5.e-002	6.6729e-006
11996	16.38	5.2	0.	-2.9759e-003
11997	16.281	5.1	0.	-3.1924e-003
11998	16.281	5.2	5.e-002	6.4744e-006
11999	16.578	5.2	0.	-3.0189e-003
12000	16.479	5.1	0.	-2.8056e-003
12001	16.479	5.2	5.e-002	6.8433e-006
12002	16.776	5.2	0.	-3.1361e-003
12003	16.677	5.1	0.	-2.6189e-003
12004	16.677	5.2	5.e-002	6.7859e-006
12005	16.974	5.2	0.	-3.2874e-003
12006	16.875	5.1	0.	-2.5465e-003
12007	16.875	5.2	5.e-002	7.3639e-006
12008	17.172	5.2	0.	-3.443e-003
12009	17.073	5.1	0.	-2.5195e-003
12010	17.073	5.2	5.e-002	8.4379e-006
12011	17.37	5.2	0.	-3.6103e-003
12012	17.271	5.1	0.	-2.5116e-003
12013	17.271	5.2	5.e-002	7.045e-006
12014	17.568	5.2	0.	-3.7963e-003
12015	17.469	5.1	0.	-2.5407e-003
12016	17.469	5.2	5.e-002	6.6481e-006
12017	17.766	5.2	0.	-3.9846e-003
12018	17.667	5.1	0.	-2.5924e-003
12019	17.667	5.2	5.e-002	8.5009e-006
12020	17.964	5.2	0.	-4.162e-003
12021	17.865	5.1	0.	-2.6389e-003
12022	17.865	5.2	5.e-002	7.8918e-006
12023	18.161	5.2	0.	-4.3387e-003
12024	18.063	5.1	0.	-2.6738e-003
12025	18.063	5.2	5.e-002	8.4946e-006
12026	18.359	5.2	0.	-4.5251e-003
12027	18.26	5.1	0.	-2.7208e-003
12028	18.26	5.2	5.e-002	8.2048e-006
12029	18.557	5.2	0.	-4.7097e-003
12030	18.458	5.1	0.	-2.7728e-003
12031	18.458	5.2	5.e-002	6.9325e-006
12032	18.755	5.2	0.	-4.8815e-003
12033	18.656	5.1	0.	-2.8092e-003
12034	18.656	5.2	5.e-002	7.5421e-006
12035	18.953	5.2	0.	-5.0481e-003
12036	18.854	5.1	0.	-2.8248e-003
12037	18.854	5.2	5.e-002	9.0354e-006
12038	19.151	5.2	0.	-5.2199e-003
12039	19.052	5.1	0.	-2.8397e-003
12040	19.052	5.2	5.e-002	1.0623e-005
12041	19.349	5.2	0.	-5.3846e-003
12042	19.25	5.1	0.	-2.8496e-003
12043	19.25	5.2	5.e-002	1.0474e-005
12044	19.547	5.2	0.	-5.5311e-003
12045	19.448	5.1	0.	-2.8324e-003
12046	19.448	5.2	5.e-002	9.5909e-006
12047	19.745	5.2	0.	-5.6645e-003
12048	19.646	5.1	0.	-2.783e-003
12049	19.646	5.2	5.e-002	1.1053e-005
12050	19.943	5.2	0.	-5.7882e-003
12051	19.844	5.1	0.	-2.712e-003
12052	19.844	5.2	5.e-002	1.1828e-005
12053	20.141	5.2	0.	-5.8895e-003
12054	20.042	5.1	0.	-2.6136e-003
12055	20.042	5.2	5.e-002	9.9166e-006
12056	20.339	5.2	0.	-5.95e-003
12057	20.24	5.1	0.	-2.4615e-003
12058	20.24	5.2	5.e-002	1.0286e-005
12059	20.536	5.2	0.	-5.9669e-003
12060	20.438	5.1	0.	-2.2421e-003
12061	20.438	5.2	5.e-002	1.2517e-005
12062	20.734	5.2	0.	-5.9299e-003
12063	20.635	5.1	0.	-1.9559e-003
12064	20.635	5.2	5.e-002	1.3142e-005
12065	20.932	5.2	0.	-5.8114e-003
12066	20.833	5.1	0.	-1.5763e-003
12067	20.833	5.2	5.e-002	1.257e-005
12068	21.13	5.2	0.	-5.5771e-003
12069	21.031	5.1	0.	-1.0652e-003
12070	21.031	5.2	5.e-002	1.4037e-005
12071	21.328	5.2	0.	-5.1908e-003
12072	21.229	5.1	0.	-3.8013e-004
12073	21.229	5.2	5.e-002	1.3428e-005
12074	21.526	5.2	0.	-4.6038e-003
12075	21.427	5.1	0.	5.1792e-004
12076	21.427	5.2	5.e-002	1.6359e-005
12077	21.724	5.2	0.	-3.7289e-003
12078	21.625	5.1	0.	1.7059e-003
12079	21.625	5.2	5.e-002	1.5145e-005
12080	21.922	5.2	0.	-2.4448e-003
12081	21.823	5.1	0.	3.2971e-003
12082	21.823	5.2	5.e-002	1.4988e-005
12083	22.12	5.2	0.	-5.9299e-004
12084	22.021	5.1	0.	5.4435e-003
12085	22.021	5.2	5.e-002	1.3872e-005
12086	22.318	5.2	0.	2.0967e-003
12087	22.219	5.1	0.	8.3447e-003
12088	22.219	5.2	5.e-002	1.4199e-005
12089	22.516	5.2	0.	5.9611e-003
12090	22.417	5.1	0.	1.2383e-002
12091	22.417	5.2	5.e-002	1.7692e-005
12092	22.714	5.2	0.	1.1922e-002
12093	22.615	5.1	0.	1.7911e-002
12094	22.615	5.2	5.e-002	1.4531e-005
12095	22.911	5.2	0.	2.0053e-002
12096	22.813	5.1	0.	2.6526e-002
12097	22.813	5.2	5.e-002	1.5756e-005
12098	23.109	5.2	0.	3.6685e-002
12099	23.01	5.1	0.	3.6984e-002
12100	23.01	5.2	5.e-002	1.4316e-005
12101	23.307	5.2	0.	5.0075e-002
12102	23.208	5.1	0.	6.3679e-002
12103	23.208	5.2	5.e-002	8.2799e-006
12104	23.505	5.2	0.	0.13711
12105	23.406	5.1	0.	6.9738e-002
12106	23.406	5.2	5.e-002	1.1153e-005
12107	23.703	5.2	0.	7.0788e-002
12108	23.604	5.1	0.	0.25282
12109	23.604	5.2	5.e-002	1.8003e-005
12110	23.802	5.1	0.	-3.8208e-004
12111	23.802	5.2	5.e-002	1.5199e-005
12112	23.901	5.2	0.	0.24619
12113	8.4635	5.	0.	-5.2426
12114	8.3646	4.9	0.	-9.0729
12115	8.3646	5.	5.e-002	-4.8682e-006
12116	8.2656	5.	0.	-1.2433
12117	8.6615	5.	0.	-1.4113
12118	8.5625	4.9	0.	-5.8095e-002
12119	8.5625	5.	5.e-002	-2.7196e-005
12120	8.8594	5.	0.	-2.2098
12121	8.7604	4.9	0.	-2.6668
12122	8.7604	5.	5.e-002	-2.9646e-005
12123	9.0573	5.	0.	-1.8327
12124	8.9583	4.9	0.	-2.059
12125	8.9583	5.	5.e-002	-4.1294e-005
12126	9.2552	5.	0.	-1.7815
12127	9.1563	4.9	0.	-2.1197
12128	9.1563	5.	5.e-002	-4.9579e-005
12129	9.4531	5.	0.	-1.6972
12130	9.3542	4.9	0.	-2.147
12131	9.3542	5.	5.e-002	-4.9262e-005
12132	9.651	5.	0.	-1.7016
12133	9.5521	4.9	0.	-2.3525
12134	9.5521	5.	5.e-002	-5.8783e-005
12135	9.849	5.	0.	-1.8394
12136	9.75	4.9	0.	-2.8989
12137	9.75	5.	5.e-002	-5.8144e-005
12138	10.047	5.	0.	-2.3224
12139	9.9479	4.9	0.	-4.6148
12140	9.9479	5.	5.e-002	-6.7923e-005
12141	10.245	5.	0.	-4.1291
12142	10.146	4.9	0.	-10.586
12143	10.146	5.	5.e-002	-6.5431e-005
12144	10.443	5.	0.	-10.2
12145	10.344	4.9	0.	-20.325
12146	10.344	5.	5.e-002	-9.0427e-005
12147	10.641	5.	0.	-18.291
12148	10.542	4.9	0.	-29.02
12149	10.542	5.	5.e-002	-2.1894e-005
12150	10.839	5.	0.	-25.145
12151	10.74	4.9	0.	-35.726
12152	10.74	5.	5.e-002	7.5892e-006
12153	11.036	5.	0.	-30.35
12154	10.937	4.9	0.	-40.573
12155	10.937	5.	5.e-002	-2.5621e-005
12156	11.234	5.	0.	-34.025
12157	11.135	4.9	0.	-43.81
12158	11.135	5.	5.e-002	-1.6508e-005
12159	11.432	5.	0.	-36.367
12160	11.333	4.9	0.	-45.682
12161	11.333	5.	5.e-002	-1.7628e-005
12162	11.63	5.	0.	-37.581
12163	11.531	4.9	0.	-46.414
12164	11.531	5.	5.e-002	-1.1635e-005
12165	11.828	5.	0.	-37.859
12166	11.729	4.9	0.	-46.211
12167	11.729	5.	5.e-002	-8.3895e-006
12168	12.026	5.	0.	-37.378
12169	11.927	4.9	0.	-45.255
12170	11.927	5.	5.e-002	3.0048e-006
12171	12.224	5.	0.	-36.295
12172	12.125	4.9	0.	-43.705
12173	12.125	5.	5.e-002	-3.592e-006
12174	12.422	5.	0.	-34.746
12175	12.323	4.9	0.	-41.703
12176	12.323	5.	5.e-002	-3.4846e-007
12177	12.62	5.	0.	-32.85
12178	12.521	4.9	0.	-39.367
12179	12.521	5.	5.e-002	1.2491e-006
12180	12.818	5.	0.	-30.704
12181	12.719	4.9	0.	-36.797
12182	12.719	5.	5.e-002	3.8113e-007
12183	13.016	5.	0.	-28.39
12184	12.917	4.9	0.	-34.078
12185	12.917	5.	5.e-002	2.2736e-006
12186	13.214	5.	0.	-25.976
12187	13.115	4.9	0.	-31.277
12188	13.115	5.	5.e-002	2.9394e-006
12189	13.411	5.	0.	-23.514
12190	13.313	4.9	0.	-28.447
12191	13.313	5.	5.e-002	2.3887e-006
12192	13.609	5.	0.	-21.046
12193	13.51	4.9	0.	-25.632
12194	13.51	5.	5.e-002	1.2974e-006
12195	13.807	5.	0.	-18.604
12196	13.708	4.9	0.	-22.862
12197	13.708	5.	5.e-002	2.7322e-006
12198	14.005	5.	0.	-16.213
12199	13.906	4.9	0.	-20.163
12200	13.906	5.	5.e-002	4.2584e-006
12201	14.203	5.	0.	-13.889
12202	14.104	4.9	0.	-17.55
12203	14.104	5.	5.e-002	4.0006e-006
12204	14.401	5.	0.	-11.645
12205	14.302	4.9	0.	-15.036
12206	14.302	5.	5.e-002	4.0757e-006
12207	14.599	5.	0.	-9.4864
12208	14.5	4.9	0.	-12.626
12209	14.5	5.	5.e-002	4.2909e-006
12210	14.797	5.	0.	-7.4182
12211	14.698	4.9	0.	-10.323
12212	14.698	5.	5.e-002	4.7354e-006
12213	14.995	5.	0.	-5.4412
12214	14.896	4.9	0.	-8.1279
12215	14.896	5.	5.e-002	4.8186e-006
12216	15.193	5.	0.	-3.5549
12217	15.094	4.9	0.	-6.0382
12218	15.094	5.	5.e-002	5.5911e-006
12219	15.391	5.	0.	-1.76
12220	15.292	4.9	0.	-4.0506
12221	15.292	5.	5.e-002	5.0892e-006
12222	15.589	5.	0.	-0.17682
12223	15.49	4.9	0.	-2.1628
12224	15.49	5.	5.e-002	4.7846e-006
12225	15.786	5.	0.	-1.4602e-002
12226	15.688	4.9	0.	-0.41531
12227	15.688	5.	5.e-002	5.8817e-006
12228	15.984	5.	0.	-6.6557e-003
12229	15.885	4.9	0.	-1.8494e-002
12230	15.885	5.	5.e-002	5.191e-006
12231	16.182	5.	0.	-4.1534e-003
12232	16.083	4.9	0.	-7.1947e-003
12233	16.083	5.	5.e-002	6.985e-006
12234	16.38	5.	0.	-2.9827e-003
12235	16.281	4.9	0.	-4.0021e-003
12236	16.281	5.	5.e-002	6.7092e-006
12237	16.578	5.	0.	-2.3376e-003
12238	16.479	4.9	0.	-2.5285e-003
12239	16.479	5.	5.e-002	7.2093e-006
12240	16.776	5.	0.	-1.9587e-003
12241	16.677	4.9	0.	-1.7124e-003
12242	16.677	5.	5.e-002	6.9352e-006
12243	16.974	5.	0.	-1.7153e-003
12244	16.875	4.9	0.	-1.2082e-003
12245	16.875	5.	5.e-002	7.5727e-006
12246	17.172	5.	0.	-1.5363e-003
12247	17.073	4.9	0.	-8.4857e-004
12248	17.073	5.	5.e-002	8.5926e-006
12249	17.37	5.	0.	-1.4035e-003
12250	17.271	4.9	0.	-5.6644e-004
12251	17.271	5.	5.e-002	7.083e-006
12252	17.568	5.	0.	-1.3124e-003
12253	17.469	4.9	0.	-3.5209e-004
12254	17.469	5.	5.e-002	6.8375e-006
12255	17.766	5.	0.	-1.2368e-003
12256	17.667	4.9	0.	-1.8025e-004
12257	17.667	5.	5.e-002	8.4275e-006
12258	17.964	5.	0.	-1.1556e-003
12259	17.865	4.9	0.	-1.3134e-005
12260	17.865	5.	5.e-002	8.0771e-006
12261	18.161	5.	0.	-1.0761e-003
12262	18.063	4.9	0.	1.589e-004
12263	18.063	5.	5.e-002	8.5095e-006
12264	18.359	5.	0.	-1.0045e-003
12265	18.26	4.9	0.	3.1768e-004
12266	18.26	5.	5.e-002	8.3321e-006
12267	18.557	5.	0.	-9.2482e-004
12268	18.458	4.9	0.	4.7455e-004
12269	18.458	5.	5.e-002	7.1645e-006
12270	18.755	5.	0.	-8.2242e-004
12271	18.656	4.9	0.	6.5124e-004
12272	18.656	5.	5.e-002	7.8807e-006
12273	18.953	5.	0.	-7.048e-004
12274	18.854	4.9	0.	8.5776e-004
12275	18.854	5.	5.e-002	9.5034e-006
12276	19.151	5.	0.	-5.7768e-004
12277	19.052	4.9	0.	1.0718e-003
12278	19.052	5.	5.e-002	1.1077e-005
12279	19.349	5.	0.	-4.2732e-004
12280	19.25	4.9	0.	1.3055e-003
12281	19.25	5.	5.e-002	1.1111e-005
12282	19.547	5.	0.	-2.3768e-004
12283	19.448	4.9	0.	1.5793e-003
12284	19.448	5.	5.e-002	9.5266e-006
12285	19.745	5.	0.	-9.921e-006
12286	19.646	4.9	0.	1.9028e-003
12287	19.646	5.	5.e-002	1.0938e-005
12288	19.943	5.	0.	2.5413e-004
12289	19.844	4.9	0.	2.2657e-003
12290	19.844	5.	5.e-002	1.1627e-005
12291	20.141	5.	0.	5.7353e-004
12292	20.042	4.9	0.	2.6795e-003
12293	20.042	5.	5.e-002	1.0856e-005
12294	20.339	5.	0.	9.6897e-004
12295	20.24	4.9	0.	3.1727e-003
12296	20.24	5.	5.e-002	1.1117e-005
12297	20.536	5.	0.	1.4499e-003
12298	20.438	4.9	0.	3.7609e-003
12299	20.438	5.	5.e-002	1.3416e-005
12300	20.734	5.	0.	2.0312e-003
12301	20.635	4.9	0.	4.4505e-003
12302	20.635	5.	5.e-002	1.4681e-005
12303	20.932	5.	0.	2.7483e-003
12304	20.833	4.9	0.	5.2696e-003
12305	20.833	5.	5.e-002	1.2416e-005
12306	21.13	5.	0.	3.646e-003
12307	21.031	4.9	0.	6.2651e-003
12308	21.031	5.	5.e-002	1.4366e-005
12309	21.328	5.	0.	4.7673e-003
12310	21.229	4.9	0.	7.4811e-003
12311	21.229	5.	5.e-002	1.3528e-005
12312	21.526	5.	0.	6.1763e-003
12313	21.427	4.9	0.	8.9699e-003
12314	21.427	5.	5.e-002	1.6755e-005
12315	21.724	5.	0.	7.9716e-003
12316	21.625	4.9	0.	1.0814e-002
12317	21.625	5.	5.e-002	1.5243e-005
12318	21.922	5.	0.	1.0291e-002
12319	21.823	4.9	0.	1.3136e-002
12320	21.823	5.	5.e-002	1.4617e-005
12321	22.12	5.	0.	1.3317e-002
12322	22.021	4.9	0.	1.6102e-002
12323	22.021	5.	5.e-002	1.419e-005
12324	22.318	5.	0.	1.7346e-002
12325	22.219	4.9	0.	1.9927e-002
12326	22.219	5.	5.e-002	1.5569e-005
12327	22.516	5.	0.	2.2748e-002
12328	22.417	4.9	0.	2.5013e-002
12329	22.417	5.	5.e-002	1.7258e-005
12330	22.714	5.	0.	3.0498e-002
12331	22.615	4.9	0.	3.1742e-002
12332	22.615	5.	5.e-002	1.546e-005
12333	22.911	5.	0.	4.0752e-002
12334	22.813	4.9	0.	4.1759e-002
12335	22.813	5.	5.e-002	1.6053e-005
12336	23.109	5.	0.	6.0012e-002
12337	23.01	4.9	0.	5.3884e-002
12338	23.01	5.	5.e-002	1.5584e-005
12339	23.307	5.	0.	7.649e-002
12340	23.208	4.9	0.	8.2775e-002
12341	23.208	5.	5.e-002	8.4402e-006
12342	23.505	5.	0.	0.16946
12343	23.406	4.9	0.	9.1236e-002
12344	23.406	5.	5.e-002	1.1751e-005
12345	23.703	5.	0.	0.11332
12346	23.604	4.9	0.	0.2813
12347	23.604	5.	5.e-002	1.6946e-005
12348	23.802	4.9	0.	4.1102e-002
12349	23.802	5.	5.e-002	1.4621e-005
12350	23.901	5.	0.	0.26997
12351	8.4635	4.8	0.	-4.3281
12352	8.3646	4.7	0.	-16.19
12353	8.3646	4.8	5.e-002	-3.1518e-005
12354	8.2656	4.8	0.	3.207
12355	8.6615	4.8	0.	-1.3663
12356	8.5625	4.7	0.	-0.26422
12357	8.5625	4.8	5.e-002	-6.5244e-005
12358	8.8594	4.8	0.	-2.5159
12359	8.7604	4.7	0.	-2.8742
12360	8.7604	4.8	5.e-002	-6.6925e-005
12361	9.0573	4.8	0.	-2.3301
12362	8.9583	4.7	0.	-2.6895
12363	8.9583	4.8	5.e-002	-1.0114e-004
12364	9.2552	4.8	0.	-2.4981
12365	9.1563	4.7	0.	-2.919
12366	9.1563	4.8	5.e-002	-6.5378e-005
12367	9.4531	4.8	0.	-2.9344
12368	9.3542	4.7	0.	-3.6306
12369	9.3542	4.8	5.e-002	-1.0853e-004
12370	9.651	4.8	0.	-4.1144
12371	9.5521	4.7	0.	-6.1349
12372	9.5521	4.8	5.e-002	-4.6104e-005
12373	9.849	4.8	0.	-8.206
12374	9.75	4.7	0.	-16.198
12375	9.75	4.8	5.e-002	-9.7492e-005
12376	10.047	4.8	0.	-19.063
12377	9.9479	4.7	0.	-32.973
12378	9.9479	4.8	5.e-002	-3.3795e-005
12379	10.245	4.8	0.	-30.835
12380	10.146	4.7	0.	-46.295
12381	10.146	4.8	5.e-002	-2.781e-005
12382	10.443	4.8	0.	-40.009
12383	10.344	4.7	0.	-55.535
12384	10.344	4.8	5.e-002	-2.1613e-005
12385	10.641	4.8	0.	-46.656
12386	10.542	4.7	0.	-61.655
12387	10.542	4.8	5.e-002	-6.4077e-005
12388	10.839	4.8	0.	-51.207
12389	10.74	4.7	0.	-65.422
12390	10.74	4.8	5.e-002	-5.0583e-005
12391	11.036	4.8	0.	-54.038
12392	10.937	4.7	0.	-67.37
12393	10.937	4.8	5.e-002	-2.4283e-005
12394	11.234	4.8	0.	-55.454
12395	11.135	4.7	0.	-67.885
12396	11.135	4.8	5.e-002	-2.8907e-005
12397	11.432	4.8	0.	-55.709
12398	11.333	4.7	0.	-67.26
12399	11.333	4.8	5.e-002	-1.1856e-005
12400	11.63	4.8	0.	-55.022
12401	11.531	4.7	0.	-65.734
12402	11.531	4.8	5.e-002	-2.3141e-006
12403	11.828	4.8	0.	-53.584
12404	11.729	4.7	0.	-63.503
12405	11.729	4.8	5.e-002	-9.9885e-006
12406	12.026	4.8	0.	-51.56
12407	11.927	4.7	0.	-60.736
12408	11.927	4.8	5.e-002	-3.2475e-006
12409	12.224	4.8	0.	-49.092
12410	12.125	4.7	0.	-57.575
12411	12.125	4.8	5.e-002	-2.2878e-006
12412	12.422	4.8	0.	-46.303
12413	12.323	4.7	0.	-54.141
12414	12.323	4.8	5.e-002	-5.9341e-007
12415	12.62	4.8	0.	-43.295
12416	12.521	4.7	0.	-50.534
12417	12.521	4.8	5.e-002	-1.6123e-007
12418	12.818	4.8	0.	-40.152
12419	12.719	4.7	0.	-46.835
12420	12.719	4.8	5.e-002	-2.5478e-008
12421	13.016	4.8	0.	-36.945
12422	12.917	4.7	0.	-43.113
12423	12.917	4.8	5.e-002	1.4619e-006
12424	13.214	4.8	0.	-33.729
12425	13.115	4.7	0.	-39.418
12426	13.115	4.8	5.e-002	1.1465e-006
12427	13.411	4.8	0.	-30.545
12428	13.313	4.7	0.	-35.793
12429	13.313	4.8	5.e-002	1.4233e-006
12430	13.609	4.8	0.	-27.427
12431	13.51	4.7	0.	-32.267
12432	13.51	4.8	5.e-002	1.5735e-006
12433	13.807	4.8	0.	-24.399
12434	13.708	4.7	0.	-28.862
12435	13.708	4.8	5.e-002	1.6765e-006
12436	14.005	4.8	0.	-21.478
12437	13.906	4.7	0.	-25.592
12438	13.906	4.8	5.e-002	3.7738e-006
12439	14.203	4.8	0.	-18.674
12440	14.104	4.7	0.	-22.467
12441	14.104	4.8	5.e-002	3.3658e-006
12442	14.401	4.8	0.	-15.993
12443	14.302	4.7	0.	-19.491
12444	14.302	4.8	5.e-002	3.4944e-006
12445	14.599	4.8	0.	-13.437
12446	14.5	4.7	0.	-16.663
12447	14.5	4.8	5.e-002	4.155e-006
12448	14.797	4.8	0.	-11.007
12449	14.698	4.7	0.	-13.982
12450	14.698	4.8	5.e-002	4.4579e-006
12451	14.995	4.8	0.	-8.6981
12452	14.896	4.7	0.	-11.443
12453	14.896	4.8	5.e-002	4.183e-006
12454	15.193	4.8	0.	-6.5065
12455	15.094	4.7	0.	-9.0386
12456	15.094	4.8	5.e-002	5.3449e-006
12457	15.391	4.8	0.	-4.4262
12458	15.292	4.7	0.	-6.7625
12459	15.292	4.8	5.e-002	4.8189e-006
12460	15.589	4.8	0.	-2.4525
12461	15.49	4.7	0.	-4.6064
12462	15.49	4.8	5.e-002	3.9812e-006
12463	15.786	4.8	0.	-0.60643
12464	15.688	4.7	0.	-2.5631
12465	15.688	4.8	5.e-002	5.452e-006
12466	15.984	4.8	0.	-2.0826e-002
12467	15.885	4.7	0.	-0.64996
12468	15.885	4.8	5.e-002	5.0061e-006
12469	16.182	4.8	0.	-6.9881e-003
12470	16.083	4.7	0.	-1.9991e-002
12471	16.083	4.8	5.e-002	6.1683e-006
12472	16.38	4.8	0.	-3.3967e-003
12473	16.281	4.7	0.	-6.0629e-003
12474	16.281	4.8	5.e-002	6.3154e-006
12475	16.578	4.8	0.	-1.7704e-003
12476	16.479	4.7	0.	-2.4581e-003
12477	16.479	4.8	5.e-002	6.5904e-006
12478	16.776	4.8	0.	-8.5805e-004
12479	16.677	4.7	0.	-8.131e-004
12480	16.677	4.8	5.e-002	6.6439e-006
12481	16.974	4.8	0.	-2.6459e-004
12482	16.875	4.7	0.	1.3191e-004
12483	16.875	4.8	5.e-002	7.0882e-006
12484	17.172	4.8	0.	1.7464e-004
12485	17.073	4.7	0.	7.7773e-004
12486	17.073	4.8	5.e-002	8.3365e-006
12487	17.37	4.8	0.	5.1777e-004
12488	17.271	4.7	0.	1.2735e-003
12489	17.271	4.8	5.e-002	6.8184e-006
12490	17.568	4.8	0.	7.9441e-004
12491	17.469	4.7	0.	1.6635e-003
12492	17.469	4.8	5.e-002	6.2062e-006
12493	17.766	4.8	0.	1.0409e-003
12494	17.667	4.7	0.	1.9913e-003
12495	17.667	4.8	5.e-002	7.9464e-006
12496	17.964	4.8	0.	1.2831e-003
12497	17.865	4.7	0.	2.3019e-003
12498	17.865	4.8	5.e-002	7.855e-006
12499	18.161	4.8	0.	1.5192e-003
12500	18.063	4.7	0.	2.6136e-003
12501	18.063	4.8	5.e-002	8.3822e-006
12502	18.359	4.8	0.	1.7484e-003
12503	18.26	4.7	0.	2.9089e-003
12504	18.26	4.8	5.e-002	7.6727e-006
12505	18.557	4.8	0.	1.9873e-003
12506	18.458	4.7	0.	3.205e-003
12507	18.458	4.8	5.e-002	7.3948e-006
12508	18.755	4.8	0.	2.2529e-003
12509	18.656	4.7	0.	3.5218e-003
12510	18.656	4.8	5.e-002	7.5285e-006
12511	18.953	4.8	0.	2.54e-003
12512	18.854	4.7	0.	3.8741e-003
12513	18.854	4.8	5.e-002	9.392e-006
12514	19.151	4.8	0.	2.844e-003
12515	19.052	4.7	0.	4.2398e-003
12516	19.052	4.8	5.e-002	1.0946e-005
12517	19.349	4.8	0.	3.1837e-003
12518	19.25	4.7	0.	4.6321e-003
12519	19.25	4.8	5.e-002	1.1217e-005
12520	19.547	4.8	0.	3.5725e-003
12521	19.448	4.7	0.	5.075e-003
12522	19.448	4.8	5.e-002	9.6484e-006
12523	19.745	4.8	0.	4.0106e-003
12524	19.646	4.7	0.	5.5761e-003
12525	19.646	4.8	5.e-002	1.0455e-005
12526	19.943	4.8	0.	4.5008e-003
12527	19.844	4.7	0.	6.1294e-003
12528	19.844	4.8	5.e-002	1.1326e-005
12529	20.141	4.8	0.	5.0637e-003
12530	20.042	4.7	0.	6.7462e-003
12531	20.042	4.8	5.e-002	1.0187e-005
12532	20.339	4.8	0.	5.722e-003
12533	20.24	4.7	0.	7.4586e-003
12534	20.24	4.8	5.e-002	1.0718e-005
12535	20.536	4.8	0.	6.4878e-003
12536	20.438	4.7	0.	8.2831e-003
12537	20.438	4.8	5.e-002	1.3276e-005
12538	20.734	4.8	0.	7.38e-003
12539	20.635	4.7	0.	9.2276e-003
12540	20.635	4.8	5.e-002	1.447e-005
12541	20.932	4.8	0.	8.4372e-003
12542	20.833	4.7	0.	1.0323e-002
12543	20.833	4.8	5.e-002	1.2946e-005
12544	21.13	4.8	0.	9.7043e-003
12545	21.031	4.7	0.	1.162e-002
12546	21.031	4.8	5.e-002	1.4249e-005
12547	21.328	4.8	0.	1.1233e-002
12548	21.229	4.7	0.	1.3165e-002
12549	21.229	4.8	5.e-002	1.3742e-005
12550	21.526	4.8	0.	1.3091e-002
12551	21.427	4.7	0.	1.5013e-002
12552	21.427	4.8	5.e-002	1.6337e-005
12553	21.724	4.8	0.	1.5383e-002
12554	21.625	4.7	0.	1.7249e-002
12555	21.625	4.8	5.e-002	1.4275e-005
12556	21.922	4.8	0.	1.8254e-002
12557	21.823	4.7	0.	2.0006e-002
12558	21.823	4.8	5.e-002	1.4098e-005
12559	22.12	4.8	0.	2.1893e-002
12560	22.021	4.7	0.	2.345e-002
12561	22.021	4.8	5.e-002	1.3745e-005
12562	22.318	4.8	0.	2.6608e-002
12563	22.219	4.7	0.	2.7807e-002
12564	22.219	4.8	5.e-002	1.4734e-005
12565	22.516	4.8	0.	3.2785e-002
12566	22.417	4.7	0.	3.3484e-002
12567	22.417	4.8	5.e-002	1.6412e-005
12568	22.714	4.8	0.	4.1421e-002
12569	22.615	4.7	0.	4.0885e-002
12570	22.615	4.8	5.e-002	1.405e-005
12571	22.911	4.8	0.	5.2698e-002
12572	22.813	4.7	0.	5.1679e-002
12573	22.813	4.8	5.e-002	1.3967e-005
12574	23.109	4.8	0.	7.3252e-002
12575	23.01	4.7	0.	6.4714e-002
12576	23.01	4.8	5.e-002	1.2843e-005
12577	23.307	4.8	0.	9.1214e-002
12578	23.208	4.7	0.	9.4867e-002
12579	23.208	4.8	5.e-002	7.0418e-006
12580	23.505	4.8	0.	0.18726
12581	23.406	4.7	0.	0.10469
12582	23.406	4.8	5.e-002	1.1616e-005
12583	23.703	4.8	0.	0.13724
12584	23.604	4.7	0.	0.29915
12585	23.604	4.8	5.e-002	1.536e-005
12586	23.802	4.7	0.	6.8723e-002
12587	23.802	4.8	5.e-002	1.1594e-005
12588	23.901	4.8	0.	0.27911
12589	8.4635	4.6	0.	-12.519
12590	8.3646	4.5	0.	-6.1977
12591	8.3646	4.6	5.e-002	-5.6443e-005
12592	8.2656	4.6	0.	-17.53
12593	8.6615	4.6	0.	-1.7704
12594	8.5625	4.5	0.	2.3781
12595	8.5625	4.6	5.e-002	-1.1253e-004
12596	8.8594	4.6	0.	-2.9951
12597	8.7604	4.5	0.	-6.923
12598	8.7604	4.6	5.e-002	-1.3448e-004
12599	9.0573	4.6	0.	-3.2112
12600	8.9583	4.5	0.	-2.859
12601	8.9583	4.6	5.e-002	-1.3855e-004
12602	9.2552	4.6	0.	-4.0261
12603	9.1563	4.5	0.	-4.7262
12604	9.1563	4.6	5.e-002	-1.2226e-004
12605	9.4531	4.6	0.	-7.4682
12606	9.3542	4.5	0.	-9.78
12607	9.3542	4.6	5.e-002	-8.4719e-005
12608	9.651	4.6	0.	-23.593
12609	9.5521	4.5	0.	-35.953
12610	9.5521	4.6	5.e-002	-6.5e-005
12611	9.849	4.6	0.	-46.014
12612	9.75	4.5	0.	-64.171
12613	9.75	4.6	5.e-002	-5.6828e-005
12614	10.047	4.6	0.	-61.639
12615	9.9479	4.5	0.	-81.773
12616	9.9479	4.6	5.e-002	-1.0682e-004
12617	10.245	4.6	0.	-71.501
12618	10.146	4.5	0.	-91.867
12619	10.146	4.6	5.e-002	-4.3769e-005
12620	10.443	4.6	0.	-77.391
12621	10.344	4.5	0.	-97.103
12622	10.344	4.6	5.e-002	-4.031e-005
12623	10.641	4.6	0.	-80.506
12624	10.542	4.5	0.	-99.13
12625	10.542	4.6	5.e-002	-5.2569e-005
12626	10.839	4.6	0.	-81.611
12627	10.74	4.5	0.	-98.962
12628	10.74	4.6	5.e-002	-4.2298e-005
12629	11.036	4.6	0.	-81.216
12630	10.937	4.5	0.	-97.245
12631	10.937	4.6	5.e-002	-3.4731e-005
12632	11.234	4.6	0.	-79.678
12633	11.135	4.5	0.	-94.41
12634	11.135	4.6	5.e-002	-1.7439e-005
12635	11.432	4.6	0.	-77.266
12636	11.333	4.5	0.	-90.765
12637	11.333	4.6	5.e-002	-1.1851e-005
12638	11.63	4.6	0.	-74.194
12639	11.531	4.5	0.	-86.542
12640	11.531	4.6	5.e-002	2.0734e-006
12641	11.828	4.6	0.	-70.635
12642	11.729	4.5	0.	-81.918
12643	11.729	4.6	5.e-002	1.3185e-006
12644	12.026	4.6	0.	-66.733
12645	11.927	4.5	0.	-77.039
12646	11.927	4.6	5.e-002	-5.1049e-006
12647	12.224	4.6	0.	-62.606
12648	12.125	4.5	0.	-72.02
12649	12.125	4.6	5.e-002	-3.5959e-006
12650	12.422	4.6	0.	-58.354
12651	12.323	4.5	0.	-66.953
12652	12.323	4.6	5.e-002	-2.4095e-006
12653	12.62	4.6	0.	-54.057
12654	12.521	4.5	0.	-61.914
12655	12.521	4.6	5.e-002	-8.2884e-007
12656	12.818	4.6	0.	-49.778
12657	12.719	4.5	0.	-56.961
12658	12.719	4.6	5.e-002	-5.6469e-007
12659	13.016	4.6	0.	-45.568
12660	12.917	4.5	0.	-52.137
12661	12.917	4.6	5.e-002	2.4756e-007
12662	13.214	4.6	0.	-41.464
12663	13.115	4.5	0.	-47.475
12664	13.115	4.6	5.e-002	2.6115e-007
12665	13.411	4.6	0.	-37.496
12666	13.313	4.5	0.	-42.999
12667	13.313	4.6	5.e-002	-7.7452e-007
12668	13.609	4.6	0.	-33.682
12669	13.51	4.5	0.	-38.723
12670	13.51	4.6	5.e-002	1.0219e-006
12671	13.807	4.6	0.	-30.034
12672	13.708	4.5	0.	-34.655
12673	13.708	4.6	5.e-002	9.1869e-007
12674	14.005	4.6	0.	-26.56
12675	13.906	4.5	0.	-30.799
12676	13.906	4.6	5.e-002	2.1057e-006
12677	14.203	4.6	0.	-23.262
12678	14.104	4.5	0.	-27.152
12679	14.104	4.6	5.e-002	2.1374e-006
12680	14.401	4.6	0.	-20.138
12681	14.302	4.5	0.	-23.71
12682	14.302	4.6	5.e-002	1.7603e-006
12683	14.599	4.6	0.	-17.184
12684	14.5	4.5	0.	-20.467
12685	14.5	4.6	5.e-002	3.1264e-006
12686	14.797	4.6	0.	-14.393
12687	14.698	4.5	0.	-17.412
12688	14.698	4.6	5.e-002	2.9286e-006
12689	14.995	4.6	0.	-11.757
12690	14.896	4.5	0.	-14.536
12691	14.896	4.6	5.e-002	3.1002e-006
12692	15.193	4.6	0.	-9.2678
12693	15.094	4.5	0.	-11.827
12694	15.094	4.6	5.e-002	4.035e-006
12695	15.391	4.6	0.	-6.9148
12696	15.292	4.5	0.	-9.2738
12697	15.292	4.6	5.e-002	3.4279e-006
12698	15.589	4.6	0.	-4.6883
12699	15.49	4.5	0.	-6.8637
12700	15.49	4.6	5.e-002	2.6113e-006
12701	15.786	4.6	0.	-2.5797
12702	15.688	4.5	0.	-4.5852
12703	15.688	4.6	5.e-002	3.9749e-006
12704	15.984	4.6	0.	-0.60678
12705	15.885	4.5	0.	-2.4284
12706	15.885	4.6	5.e-002	3.3774e-006
12707	16.182	4.6	0.	-1.6872e-002
12708	16.083	4.5	0.	-0.42598
12709	16.083	4.6	5.e-002	4.8352e-006
12710	16.38	4.6	0.	-4.5446e-003
12711	16.281	4.5	0.	-1.2161e-002
12712	16.281	4.6	5.e-002	4.5797e-006
12713	16.578	4.6	0.	-1.2225e-003
12714	16.479	4.5	0.	-2.6858e-003
12715	16.479	4.6	5.e-002	4.9941e-006
12716	16.776	4.6	0.	3.3602e-004
12717	16.677	4.5	0.	1.4856e-004
12718	16.677	4.6	5.e-002	4.7408e-006
12719	16.974	4.6	0.	1.2697e-003
12720	16.875	4.5	0.	1.5464e-003
12721	16.875	4.6	5.e-002	5.3541e-006
12722	17.172	4.6	0.	1.9319e-003
12723	17.073	4.5	0.	2.4307e-003
12724	17.073	4.6	5.e-002	6.517e-006
12725	17.37	4.6	0.	2.4459e-003
12726	17.271	4.5	0.	3.0865e-003
12727	17.271	4.6	5.e-002	4.9661e-006
12728	17.568	4.6	0.	2.8649e-003
12729	17.469	4.5	0.	3.6008e-003
12730	17.469	4.6	5.e-002	4.4193e-006
12731	17.766	4.6	0.	3.2387e-003
12732	17.667	4.5	0.	4.0356e-003
12733	17.667	4.6	5.e-002	6.2696e-006
12734	17.964	4.6	0.	3.6032e-003
12735	17.865	4.5	0.	4.4459e-003
12736	17.865	4.6	5.e-002	5.4772e-006
12737	18.161	4.6	0.	3.9599e-003
12738	18.063	4.5	0.	4.855e-003
12739	18.063	4.6	5.e-002	6.5905e-006
12740	18.359	4.6	0.	4.3088e-003
12741	18.26	4.5	0.	5.2477e-003
12742	18.26	4.6	5.e-002	5.9875e-006
12743	18.557	4.6	0.	4.6698e-003
12744	18.458	4.5	0.	5.6418e-003
12745	18.458	4.6	5.e-002	5.6027e-006
12746	18.755	4.6	0.	5.0606e-003
12747	18.656	4.5	0.	6.0609e-003
12748	18.656	4.6	5.e-002	6.088e-006
12749	18.953	4.6	0.	5.4786e-003
12750	18.854	4.5	0.	6.5174e-003
12751	18.854	4.6	5.e-002	7.8682e-006
12752	19.151	4.6	0.	5.9193e-003
12753	19.052	4.5	0.	6.994e-003
12754	19.052	4.6	5.e-002	8.9863e-006
12755	19.349	4.6	0.	6.4009e-003
12756	19.25	4.5	0.	7.5022e-003
12757	19.25	4.6	5.e-002	8.9436e-006
12758	19.547	4.6	0.	6.9412e-003
12759	19.448	4.5	0.	8.068e-003
12760	19.448	4.6	5.e-002	7.8577e-006
12761	19.745	4.6	0.	7.5416e-003
12762	19.646	4.5	0.	8.699e-003
12763	19.646	4.6	5.e-002	8.3263e-006
12764	19.943	4.6	0.	8.2042e-003
12765	19.844	4.5	0.	9.3914e-003
12766	19.844	4.6	5.e-002	9.4304e-006
12767	20.141	4.6	0.	8.9517e-003
12768	20.042	4.5	0.	1.0155e-002
12769	20.042	4.6	5.e-002	8.1265e-006
12770	20.339	4.6	0.	9.8094e-003
12771	20.24	4.5	0.	1.1027e-002
12772	20.24	4.6	5.e-002	9.1889e-006
12773	20.536	4.6	0.	1.0789e-002
12774	20.438	4.5	0.	1.2022e-002
12775	20.438	4.6	5.e-002	1.142e-005
12776	20.734	4.6	0.	1.1911e-002
12777	20.635	4.5	0.	1.3148e-002
12778	20.635	4.6	5.e-002	1.217e-005
12779	20.932	4.6	0.	1.3216e-002
12780	20.833	4.5	0.	1.444e-002
12781	20.833	4.6	5.e-002	1.0043e-005
12782	21.13	4.6	0.	1.4755e-002
12783	21.031	4.5	0.	1.595e-002
12784	21.031	4.6	5.e-002	1.0842e-005
12785	21.328	4.6	0.	1.6577e-002
12786	21.229	4.5	0.	1.7725e-002
12787	21.229	4.6	5.e-002	1.0538e-005
12788	21.526	4.6	0.	1.8753e-002
12789	21.427	4.5	0.	1.982e-002
12790	21.427	4.6	5.e-002	1.3226e-005
12791	21.724	4.6	0.	2.1393e-002
12792	21.625	4.5	0.	2.2326e-002
12793	21.625	4.6	5.e-002	1.186e-005
12794	21.922	4.6	0.	2.4645e-002
12795	21.823	4.5	0.	2.5375e-002
12796	21.823	4.6	5.e-002	1.1716e-005
12797	22.12	4.6	0.	2.8705e-002
12798	22.021	4.5	0.	2.914e-002
12799	22.021	4.6	5.e-002	1.087e-005
12800	22.318	4.6	0.	3.3883e-002
12801	22.219	4.5	0.	3.3849e-002
12802	22.219	4.6	5.e-002	1.2047e-005
12803	22.516	4.6	0.	4.0577e-002
12804	22.417	4.5	0.	3.9916e-002
12805	22.417	4.6	5.e-002	1.3193e-005
12806	22.714	4.6	0.	4.9805e-002
12807	22.615	4.5	0.	4.7756e-002
12808	22.615	4.6	5.e-002	1.1551e-005
12809	22.911	4.6	0.	6.1769e-002
12810	22.813	4.5	0.	5.9068e-002
12811	22.813	4.6	5.e-002	1.2107e-005
12812	23.109	4.6	0.	8.3201e-002
12813	23.01	4.5	0.	7.2714e-002
12814	23.01	4.6	5.e-002	1.0028e-005
12815	23.307	4.6	0.	0.10223
12816	23.208	4.5	0.	0.10373
12817	23.208	4.6	5.e-002	4.2748e-006
12818	23.505	4.6	0.	0.20062
12819	23.406	4.5	0.	0.11454
12820	23.406	4.6	5.e-002	8.168e-006
12821	23.703	4.6	0.	0.15556
12822	23.604	4.5	0.	0.31234
12823	23.604	4.6	5.e-002	1.1622e-005
12824	23.802	4.5	0.	9.0009e-002
12825	23.802	4.6	5.e-002	9.6415e-006
12826	23.901	4.6	0.	0.28663
12827	8.4635	4.4	0.	8.4119
12828	8.3646	4.3	0.	-64.234
12829	8.3646	4.4	5.e-002	-1.3356e-004
12830	8.2656	4.4	0.	56.992
12831	8.6615	4.4	0.	-2.7593
12832	8.5625	4.3	0.	7.7323
12833	8.5625	4.4	5.e-002	-2.1237e-004
12834	8.8594	4.4	0.	-6.6694
12835	8.7604	4.3	0.	-8.9411
12836	8.7604	4.4	5.e-002	-1.9669e-004
12837	9.0573	4.4	0.	-4.2159
12838	8.9583	4.3	0.	-4.0788
12839	8.9583	4.4	5.e-002	-1.3974e-004
12840	9.2552	4.4	0.	-10.141
12841	9.1563	4.3	0.	-11.64
12842	9.1563	4.4	5.e-002	-1.5014e-004
12843	9.4531	4.4	0.	-43.244
12844	9.3542	4.3	0.	-56.139
12845	9.3542	4.4	5.e-002	-1.0396e-004
12846	9.651	4.4	0.	-79.765
12847	9.5521	4.3	0.	-100.13
12848	9.5521	4.4	5.e-002	-9.541e-005
12849	9.849	4.4	0.	-101.24
12850	9.75	4.3	0.	-124.78
12851	9.75	4.4	5.e-002	-9.1633e-005
12852	10.047	4.4	0.	-112.64
12853	9.9479	4.3	0.	-137.06
12854	9.9479	4.4	5.e-002	-5.8678e-005
12855	10.245	4.4	0.	-117.79
12856	10.146	4.3	0.	-141.78
12857	10.146	4.4	5.e-002	-5.7186e-005
12858	10.443	4.4	0.	-118.99
12859	10.344	4.3	0.	-141.86
12860	10.344	4.4	5.e-002	-4.7986e-005
12861	10.641	4.4	0.	-117.65
12862	10.542	4.3	0.	-139.03
12863	10.542	4.4	5.e-002	-4.4341e-005
12864	10.839	4.4	0.	-114.61
12865	10.74	4.3	0.	-134.37
12866	10.74	4.4	5.e-002	-1.0926e-005
12867	11.036	4.4	0.	-110.44
12868	10.937	4.3	0.	-128.54
12869	10.937	4.4	5.e-002	-1.0506e-005
12870	11.234	4.4	0.	-105.49
12871	11.135	4.3	0.	-122.
12872	11.135	4.4	5.e-002	-1.7348e-005
12873	11.432	4.4	0.	-100.03
12874	11.333	4.3	0.	-115.04
12875	11.333	4.4	5.e-002	-1.3117e-005
12876	11.63	4.4	0.	-94.249
12877	11.531	4.3	0.	-107.87
12878	11.531	4.4	5.e-002	-9.1823e-006
12879	11.828	4.4	0.	-88.306
12880	11.729	4.3	0.	-100.65
12881	11.729	4.4	5.e-002	-5.7638e-006
12882	12.026	4.4	0.	-82.311
12883	11.927	4.3	0.	-93.491
12884	11.927	4.4	5.e-002	-1.6203e-007
12885	12.224	4.4	0.	-76.352
12886	12.125	4.3	0.	-86.479
12887	12.125	4.4	5.e-002	-3.7906e-006
12888	12.422	4.4	0.	-70.499
12889	12.323	4.3	0.	-79.676
12890	12.323	4.4	5.e-002	9.4634e-007
12891	12.62	4.4	0.	-64.804
12892	12.521	4.3	0.	-73.125
12893	12.521	4.4	5.e-002	-4.9667e-007
12894	12.818	4.4	0.	-59.305
12895	12.719	4.3	0.	-66.856
12896	12.719	4.4	5.e-002	2.41e-007
12897	13.016	4.4	0.	-54.029
12898	12.917	4.3	0.	-60.888
12899	12.917	4.4	5.e-002	5.6761e-008
12900	13.214	4.4	0.	-48.994
12901	13.115	4.3	0.	-55.231
12902	13.115	4.4	5.e-002	-3.2003e-007
12903	13.411	4.4	0.	-44.209
12904	13.313	4.3	0.	-49.886
12905	13.313	4.4	5.e-002	-2.0658e-007
12906	13.609	4.4	0.	-39.679
12907	13.51	4.3	0.	-44.851
12908	13.51	4.4	5.e-002	3.1648e-009
12909	13.807	4.4	0.	-35.401
12910	13.708	4.3	0.	-40.12
12911	13.708	4.4	5.e-002	-5.4107e-007
12912	14.005	4.4	0.	-31.371
12913	13.906	4.3	0.	-35.68
12914	13.906	4.4	5.e-002	2.0036e-006
12915	14.203	4.4	0.	-27.58
12916	14.104	4.3	0.	-31.52
12917	14.104	4.4	5.e-002	1.9321e-006
12918	14.401	4.4	0.	-24.017
12919	14.302	4.3	0.	-27.624
12920	14.302	4.4	5.e-002	1.8635e-006
12921	14.599	4.4	0.	-20.672
12922	14.5	4.3	0.	-23.978
12923	14.5	4.4	5.e-002	2.0616e-006
12924	14.797	4.4	0.	-17.531
12925	14.698	4.3	0.	-20.564
12926	14.698	4.4	5.e-002	2.7406e-006
12927	14.995	4.4	0.	-14.581
12928	14.896	4.3	0.	-17.367
12929	14.896	4.4	5.e-002	2.3434e-006
12930	15.193	4.4	0.	-11.807
12931	15.094	4.3	0.	-14.369
12932	15.094	4.4	5.e-002	3.1143e-006
12933	15.391	4.4	0.	-9.1954
12934	15.292	4.3	0.	-11.555
12935	15.292	4.4	5.e-002	3.0717e-006
12936	15.589	4.4	0.	-6.7323
12937	15.49	4.3	0.	-8.908
12938	15.49	4.4	5.e-002	2.0024e-006
12939	15.786	4.4	0.	-4.4043
12940	15.688	4.3	0.	-6.4124
12941	15.688	4.4	5.e-002	3.7308e-006
12942	15.984	4.4	0.	-2.2005
12943	15.885	4.3	0.	-4.0537
12944	15.885	4.4	5.e-002	2.975e-006
12945	16.182	4.4	0.	-0.20831
12946	16.083	4.3	0.	-1.8209
12947	16.083	4.4	5.e-002	4.5072e-006
12948	16.38	4.4	0.	-7.5817e-003
12949	16.281	4.3	0.	-5.6198e-002
12950	16.281	4.4	5.e-002	4.4949e-006
12951	16.578	4.4	0.	-7.1276e-004
12952	16.479	4.3	0.	-3.4987e-003
12953	16.479	4.4	5.e-002	4.7791e-006
12954	16.776	4.4	0.	1.6011e-003
12955	16.677	4.3	0.	1.1945e-003
12956	16.677	4.4	5.e-002	4.5761e-006
12957	16.974	4.4	0.	2.8233e-003
12958	16.875	4.3	0.	3.0131e-003
12959	16.875	4.4	5.e-002	5.0983e-006
12960	17.172	4.4	0.	3.64e-003
12961	17.073	4.3	0.	4.0602e-003
12962	17.073	4.4	5.e-002	6.1851e-006
12963	17.37	4.4	0.	4.2599e-003
12964	17.271	4.3	0.	4.806e-003
12965	17.271	4.4	5.e-002	4.6378e-006
12966	17.568	4.4	0.	4.7656e-003
12967	17.469	4.3	0.	5.3874e-003
12968	17.469	4.4	5.e-002	3.9523e-006
12969	17.766	4.4	0.	5.2187e-003
12970	17.667	4.3	0.	5.8811e-003
12971	17.667	4.4	5.e-002	5.7361e-006
12972	17.964	4.4	0.	5.6589e-003
12973	17.865	4.3	0.	6.3487e-003
12974	17.865	4.4	5.e-002	5.5427e-006
12975	18.161	4.4	0.	6.0915e-003
12976	18.063	4.3	0.	6.816e-003
12977	18.063	4.4	5.e-002	5.8448e-006
12978	18.359	4.4	0.	6.518e-003
12979	18.26	4.3	0.	7.2697e-003
12980	18.26	4.4	5.e-002	5.4376e-006
12981	18.557	4.4	0.	6.9595e-003
12982	18.458	4.3	0.	7.7258e-003
12983	18.458	4.4	5.e-002	5.0093e-006
12984	18.755	4.4	0.	7.4341e-003
12985	18.656	4.3	0.	8.2124e-003
12986	18.656	4.4	5.e-002	5.833e-006
12987	18.953	4.4	0.	7.9388e-003
12988	18.854	4.3	0.	8.739e-003
12989	18.854	4.4	5.e-002	7.2375e-006
12990	19.151	4.4	0.	8.4724e-003
12991	19.052	4.3	0.	9.291e-003
12992	19.052	4.4	5.e-002	8.9909e-006
12993	19.349	4.4	0.	9.0539e-003
12994	19.25	4.3	0.	9.8795e-003
12995	19.25	4.4	5.e-002	8.9055e-006
12996	19.547	4.4	0.	9.6989e-003
12997	19.448	4.3	0.	1.0528e-002
12998	19.448	4.4	5.e-002	7.3281e-006
12999	19.745	4.4	0.	1.041e-002
13000	19.646	4.3	0.	1.1251e-002
13001	19.646	4.4	5.e-002	7.8829e-006
13002	19.943	4.4	0.	1.119e-002
13003	19.844	4.3	0.	1.2038e-002
13004	19.844	4.4	5.e-002	8.5765e-006
13005	20.141	4.4	0.	1.2063e-002
13006	20.042	4.3	0.	1.2907e-002
13007	20.042	4.4	5.e-002	7.4327e-006
13008	20.339	4.4	0.	1.3056e-002
13009	20.24	4.3	0.	1.3886e-002
13010	20.24	4.4	5.e-002	8.6957e-006
13011	20.536	4.4	0.	1.418e-002
13012	20.438	4.3	0.	1.4997e-002
13013	20.438	4.4	5.e-002	1.1389e-005
13014	20.734	4.4	0.	1.5456e-002
13015	20.635	4.3	0.	1.6249e-002
13016	20.635	4.4	5.e-002	1.1548e-005
13017	20.932	4.4	0.	1.6928e-002
13018	20.833	4.3	0.	1.7676e-002
13019	20.833	4.4	5.e-002	9.7954e-006
13020	21.13	4.4	0.	1.8645e-002
13021	21.031	4.3	0.	1.9328e-002
13022	21.031	4.4	5.e-002	9.8819e-006
13023	21.328	4.4	0.	2.066e-002
13024	21.229	4.3	0.	2.1257e-002
13025	21.229	4.4	5.e-002	1.0461e-005
13026	21.526	4.4	0.	2.3045e-002
13027	21.427	4.3	0.	2.3518e-002
13028	21.427	4.4	5.e-002	1.2643e-005
13029	21.724	4.4	0.	2.5909e-002
13030	21.625	4.3	0.	2.6202e-002
13031	21.625	4.4	5.e-002	1.1267e-005
13032	21.922	4.4	0.	2.9405e-002
13033	21.823	4.3	0.	2.9444e-002
13034	21.823	4.4	5.e-002	1.1053e-005
13035	22.12	4.4	0.	3.3729e-002
13036	22.021	4.3	0.	3.3416e-002
13037	22.021	4.4	5.e-002	9.8524e-006
13038	22.318	4.4	0.	3.9198e-002
13039	22.219	4.3	0.	3.8352e-002
13040	22.219	4.4	5.e-002	9.8247e-006
13041	22.516	4.4	0.	4.6217e-002
13042	22.417	4.3	0.	4.4673e-002
13043	22.417	4.4	5.e-002	1.0845e-005
13044	22.714	4.4	0.	5.582e-002
13045	22.615	4.3	0.	5.28e-002
13046	22.615	4.4	5.e-002	9.2167e-006
13047	22.911	4.4	0.	6.8228e-002
13048	22.813	4.3	0.	6.4457e-002
13049	22.813	4.4	5.e-002	1.0642e-005
13050	23.109	4.4	0.	9.0239e-002
13051	23.01	4.3	0.	7.8518e-002
13052	23.01	4.4	5.e-002	9.0466e-006
13053	23.307	4.4	0.	0.10998
13054	23.208	4.3	0.	0.11014
13055	23.208	4.4	5.e-002	3.3386e-006
13056	23.505	4.4	0.	0.21008
13057	23.406	4.3	0.	0.12166
13058	23.406	4.4	5.e-002	6.3132e-006
13059	23.703	4.4	0.	0.16889
13060	23.604	4.3	0.	0.322
13061	23.604	4.4	5.e-002	8.4588e-006
13062	23.802	4.3	0.	0.10627
13063	23.802	4.4	5.e-002	7.5162e-006
13064	23.901	4.4	0.	0.29152
13065	8.4635	4.2	0.	-65.256
13066	8.3646	4.1	0.	-340.22
13067	8.3646	4.2	5.e-002	-3.8844e-004
13068	8.2656	4.2	0.	-288.03
13069	8.6615	4.2	0.	0.86258
13070	8.5625	4.1	0.	41.227
13071	8.5625	4.2	5.e-002	-3.0592e-004
13072	8.8594	4.2	0.	-6.1687
13073	8.7604	4.1	0.	-11.766
13074	8.7604	4.2	5.e-002	-1.739e-004
13075	9.0573	4.2	0.	-10.423
13076	8.9583	4.1	0.	-7.9994
13077	8.9583	4.2	5.e-002	-1.5964e-004
13078	9.2552	4.2	0.	-61.227
13079	9.1563	4.1	0.	-70.473
13080	9.1563	4.2	5.e-002	-8.1685e-005
13081	9.4531	4.2	0.	-116.46
13082	9.3542	4.1	0.	-135.2
13083	9.3542	4.2	5.e-002	-6.2657e-005
13084	9.651	4.2	0.	-146.89
13085	9.5521	4.1	0.	-170.75
13086	9.5521	4.2	5.e-002	-6.2008e-005
13087	9.849	4.2	0.	-161.55
13088	9.75	4.1	0.	-187.67
13089	9.75	4.2	5.e-002	-6.482e-005
13090	10.047	4.2	0.	-166.71
13091	9.9479	4.1	0.	-193.31
13092	9.9479	4.2	5.e-002	-2.5204e-005
13093	10.245	4.2	0.	-166.11
13094	10.146	4.1	0.	-192.07
13095	10.146	4.2	5.e-002	-5.8219e-005
13096	10.443	4.2	0.	-162.02
13097	10.344	4.1	0.	-186.69
13098	10.344	4.2	5.e-002	-2.7852e-005
13099	10.641	4.2	0.	-155.8
13100	10.542	4.1	0.	-178.82
13101	10.542	4.2	5.e-002	-2.291e-005
13102	10.839	4.2	0.	-148.32
13103	10.74	4.1	0.	-169.54
13104	10.74	4.2	5.e-002	-2.1155e-005
13105	11.036	4.2	0.	-140.11
13106	10.937	4.1	0.	-159.51
13107	10.937	4.2	5.e-002	-1.4835e-006
13108	11.234	4.2	0.	-131.54
13109	11.135	4.1	0.	-149.18
13110	11.135	4.2	5.e-002	-1.0312e-005
13111	11.432	4.2	0.	-122.87
13112	11.333	4.1	0.	-138.84
13113	11.333	4.2	5.e-002	-1.7936e-006
13114	11.63	4.2	0.	-114.26
13115	11.531	4.1	0.	-128.68
13116	11.531	4.2	5.e-002	-5.9933e-006
13117	11.828	4.2	0.	-105.82
13118	11.729	4.1	0.	-118.83
13119	11.729	4.2	5.e-002	-2.5703e-006
13120	12.026	4.2	0.	-97.647
13121	11.927	4.1	0.	-109.37
13122	11.927	4.2	5.e-002	-1.663e-006
13123	12.224	4.2	0.	-89.792
13124	12.125	4.1	0.	-100.36
13125	12.125	4.2	5.e-002	-1.8028e-006
13126	12.422	4.2	0.	-82.29
13127	12.323	4.1	0.	-91.813
13128	12.323	4.2	5.e-002	-4.8119e-006
13129	12.62	4.2	0.	-75.166
13130	12.521	4.1	0.	-83.755
13131	12.521	4.2	5.e-002	-1.6954e-006
13132	12.818	4.2	0.	-68.427
13133	12.719	4.1	0.	-76.182
13134	12.719	4.2	5.e-002	-8.5676e-007
13135	13.016	4.2	0.	-62.076
13136	12.917	4.1	0.	-69.085
13137	12.917	4.2	5.e-002	-8.1878e-007
13138	13.214	4.2	0.	-56.108
13139	13.115	4.1	0.	-62.452
13140	13.115	4.2	5.e-002	-7.1466e-007
13141	13.411	4.2	0.	-50.513
13142	13.313	4.1	0.	-56.262
13143	13.313	4.2	5.e-002	8.6029e-007
13144	13.609	4.2	0.	-45.276
13145	13.51	4.1	0.	-50.493
13146	13.51	4.2	5.e-002	-6.3918e-007
13147	13.807	4.2	0.	-40.381
13148	13.708	4.1	0.	-45.123
13149	13.708	4.2	5.e-002	1.3591e-007
13150	14.005	4.2	0.	-35.81
13151	13.906	4.1	0.	-40.127
13152	13.906	4.2	5.e-002	1.5398e-006
13153	14.203	4.2	0.	-31.544
13154	14.104	4.1	0.	-35.48
13155	14.104	4.2	5.e-002	1.676e-006
13156	14.401	4.2	0.	-27.563
13157	14.302	4.1	0.	-31.157
13158	14.302	4.2	5.e-002	1.2266e-006
13159	14.599	4.2	0.	-23.847
13160	14.5	4.1	0.	-27.134
13161	14.5	4.2	5.e-002	1.6383e-006
13162	14.797	4.2	0.	-20.376
13163	14.698	4.1	0.	-23.387
13164	14.698	4.2	5.e-002	1.9298e-006
13165	14.995	4.2	0.	-17.131
13166	14.896	4.1	0.	-19.893
13167	14.896	4.2	5.e-002	2.3024e-006
13168	15.193	4.2	0.	-14.092
13169	15.094	4.1	0.	-16.63
13170	15.094	4.2	5.e-002	2.8995e-006
13171	15.391	4.2	0.	-11.241
13172	15.292	4.1	0.	-13.578
13173	15.292	4.2	5.e-002	2.351e-006
13174	15.589	4.2	0.	-8.5603
13175	15.49	4.1	0.	-10.715
13176	15.49	4.2	5.e-002	1.8327e-006
13177	15.786	4.2	0.	-6.0329
13178	15.688	4.1	0.	-8.0232
13179	15.688	4.2	5.e-002	2.9965e-006
13180	15.984	4.2	0.	-3.6431
13181	15.885	4.1	0.	-5.4843
13182	15.885	4.2	5.e-002	2.679e-006
13183	16.182	4.2	0.	-1.3808
13184	16.083	4.1	0.	-3.082
13185	16.083	4.2	5.e-002	4.0472e-006
13186	16.38	4.2	0.	-1.8942e-002
13187	16.281	4.1	0.	-0.81199
13188	16.281	4.2	5.e-002	3.8485e-006
13189	16.578	4.2	0.	-2.2876e-004
13190	16.479	4.1	0.	-5.7738e-003
13191	16.479	4.2	5.e-002	4.2119e-006
13192	16.776	4.2	0.	2.9609e-003
13193	16.677	4.1	0.	2.3727e-003
13194	16.677	4.2	5.e-002	4.0441e-006
13195	16.974	4.2	0.	4.3823e-003
13196	16.875	4.1	0.	4.519e-003
13197	16.875	4.2	5.e-002	4.5746e-006
13198	17.172	4.2	0.	5.275e-003
13199	17.073	4.1	0.	5.6303e-003
13200	17.073	4.2	5.e-002	5.4901e-006
13201	17.37	4.2	0.	5.9408e-003
13202	17.271	4.1	0.	6.3973e-003
13203	17.271	4.2	5.e-002	4.0587e-006
13204	17.568	4.2	0.	6.4855e-003
13205	17.469	4.1	0.	6.9951e-003
13206	17.469	4.2	5.e-002	3.5649e-006
13207	17.766	4.2	0.	6.9767e-003
13208	17.667	4.1	0.	7.5088e-003
13209	17.667	4.2	5.e-002	5.0542e-006
13210	17.964	4.2	0.	7.4586e-003
13211	17.865	4.1	0.	8.0008e-003
13212	17.865	4.2	5.e-002	4.5539e-006
13213	18.161	4.2	0.	7.9365e-003
13214	18.063	4.1	0.	8.4976e-003
13215	18.063	4.2	5.e-002	5.3175e-006
13216	18.359	4.2	0.	8.4106e-003
13217	18.26	4.1	0.	8.9851e-003
13218	18.26	4.2	5.e-002	5.1904e-006
13219	18.557	4.2	0.	8.9034e-003
13220	18.458	4.1	0.	9.4798e-003
13221	18.458	4.2	5.e-002	4.5341e-006
13222	18.755	4.2	0.	9.4338e-003
13223	18.656	4.1	0.	1.0008e-002
13224	18.656	4.2	5.e-002	5.3473e-006
13225	18.953	4.2	0.	9.9997e-003
13226	18.854	4.1	0.	1.0582e-002
13227	18.854	4.2	5.e-002	6.9191e-006
13228	19.151	4.2	0.	1.0598e-002
13229	19.052	4.1	0.	1.1185e-002
13230	19.052	4.2	5.e-002	8.6621e-006
13231	19.349	4.2	0.	1.1245e-002
13232	19.25	4.1	0.	1.1827e-002
13233	19.25	4.2	5.e-002	8.0834e-006
13234	19.547	4.2	0.	1.1963e-002
13235	19.448	4.1	0.	1.2533e-002
13236	19.448	4.2	5.e-002	6.2358e-006
13237	19.745	4.2	0.	1.2753e-002
13238	19.646	4.1	0.	1.3319e-002
13239	19.646	4.2	5.e-002	7.2831e-006
13240	19.943	4.2	0.	1.3618e-002
13241	19.844	4.1	0.	1.4173e-002
13242	19.844	4.2	5.e-002	8.0303e-006
13243	20.141	4.2	0.	1.4581e-002
13244	20.042	4.1	0.	1.5114e-002
13245	20.042	4.2	5.e-002	6.9448e-006
13246	20.339	4.2	0.	1.5665e-002
13247	20.24	4.1	0.	1.617e-002
13248	20.24	4.2	5.e-002	7.997e-006
13249	20.536	4.2	0.	1.689e-002
13250	20.438	4.1	0.	1.7361e-002
13251	20.438	4.2	5.e-002	9.6671e-006
13252	20.734	4.2	0.	1.8276e-002
13253	20.635	4.1	0.	1.8702e-002
13254	20.635	4.2	5.e-002	1.0333e-005
13255	20.932	4.2	0.	1.9863e-002
13256	20.833	4.1	0.	2.0221e-002
13257	20.833	4.2	5.e-002	9.4721e-006
13258	21.13	4.2	0.	2.1703e-002
13259	21.031	4.1	0.	2.1972e-002
13260	21.031	4.2	5.e-002	9.0567e-006
13261	21.328	4.2	0.	2.385e-002
13262	21.229	4.1	0.	2.4007e-002
13263	21.229	4.2	5.e-002	9.2096e-006
13264	21.526	4.2	0.	2.6376e-002
13265	21.427	4.1	0.	2.638e-002
13266	21.427	4.2	5.e-002	1.1077e-005
13267	21.724	4.2	0.	2.9392e-002
13268	21.625	4.1	0.	2.9184e-002
13269	21.625	4.2	5.e-002	9.9994e-006
13270	21.922	4.2	0.	3.3051e-002
13271	21.823	4.1	0.	3.2556e-002
13272	21.823	4.2	5.e-002	9.315e-006
13273	22.12	4.2	0.	3.7552e-002
13274	22.021	4.1	0.	3.6667e-002
13275	22.021	4.2	5.e-002	6.8086e-006
13276	22.318	4.2	0.	4.3217e-002
13277	22.219	4.1	0.	4.1755e-002
13278	22.219	4.2	5.e-002	8.5418e-006
13279	22.516	4.2	0.	5.0456e-002
13280	22.417	4.1	0.	4.825e-002
13281	22.417	4.2	5.e-002	1.0425e-005
13282	22.714	4.2	0.	6.0317e-002
13283	22.615	4.1	0.	5.6576e-002
13284	22.615	4.2	5.e-002	7.9996e-006
13285	22.911	4.2	0.	7.3037e-002
13286	22.813	4.1	0.	6.8473e-002
13287	22.813	4.2	5.e-002	1.0478e-005
13288	23.109	4.2	0.	9.5471e-002
13289	23.01	4.1	0.	8.2834e-002
13290	23.01	4.2	5.e-002	8.1421e-006
13291	23.307	4.2	0.	0.11575
13292	23.208	4.1	0.	0.11491
13293	23.208	4.2	5.e-002	2.6747e-006
13294	23.505	4.2	0.	0.21716
13295	23.406	4.1	0.	0.12696
13296	23.406	4.2	5.e-002	1.5504e-006
13297	23.703	4.2	0.	0.17906
13298	23.604	4.1	0.	0.32927
13299	23.604	4.2	5.e-002	8.2088e-006
13300	23.802	4.1	0.	0.11894
13301	23.802	4.2	5.e-002	3.4116e-006
13302	23.901	4.2	0.	0.29511
13303	8.4635	4.	0.	-232.43
13304	8.3646	3.9	0.	-226.02
13305	8.3646	4.	5.e-002	-4.4353e-004
13306	8.2656	4.	0.	-475.83
13307	8.6615	4.	0.	28.393
13308	8.5625	3.9	0.	52.584
13309	8.5625	4.	5.e-002	-5.2523e-005
13310	8.8594	4.	0.	-11.403
13311	8.7604	3.9	0.	-12.558
13312	8.7604	4.	5.e-002	-7.162e-005
13313	9.0573	4.	0.	-69.567
13314	8.9583	3.9	0.	-58.749
13315	8.9583	4.	5.e-002	-9.1498e-005
13316	9.2552	4.	0.	-148.39
13317	9.1563	3.9	0.	-154.67
13318	9.1563	4.	5.e-002	-7.2324e-005
13319	9.4531	4.	0.	-191.71
13320	9.3542	3.9	0.	-208.01
13321	9.3542	4.	5.e-002	-6.9428e-006
13322	9.651	4.	0.	-212.82
13323	9.5521	3.9	0.	-235.09
13324	9.5521	4.	5.e-002	-5.0185e-005
13325	9.849	4.	0.	-220.16
13326	9.75	3.9	0.	-245.42
13327	9.75	4.	5.e-002	-4.1606e-005
13328	10.047	4.	0.	-219.07
13329	9.9479	3.9	0.	-245.34
13330	9.9479	4.	5.e-002	-4.5146e-005
13331	10.245	4.	0.	-212.85
13332	10.146	3.9	0.	-238.84
13333	10.146	4.	5.e-002	-3.3055e-005
13334	10.443	4.	0.	-203.58
13335	10.344	3.9	0.	-228.5
13336	10.344	4.	5.e-002	-1.2043e-005
13337	10.641	4.	0.	-192.6
13338	10.542	3.9	0.	-215.99
13339	10.542	4.	5.e-002	-2.0981e-005
13340	10.839	4.	0.	-180.75
13341	10.74	3.9	0.	-202.39
13342	10.74	4.	5.e-002	-3.4668e-005
13343	11.036	4.	0.	-168.59
13344	10.937	3.9	0.	-188.4
13345	10.937	4.	5.e-002	-5.401e-006
13346	11.234	4.	0.	-156.48
13347	11.135	3.9	0.	-174.49
13348	11.135	4.	5.e-002	-1.5346e-005
13349	11.432	4.	0.	-144.65
13350	11.333	3.9	0.	-160.95
13351	11.333	4.	5.e-002	-7.5254e-006
13352	11.63	4.	0.	-133.25
13353	11.531	3.9	0.	-147.95
13354	11.531	4.	5.e-002	-7.1392e-006
13355	11.828	4.	0.	-122.37
13356	11.729	3.9	0.	-135.6
13357	11.729	4.	5.e-002	-5.8715e-006
13358	12.026	4.	0.	-112.07
13359	11.927	3.9	0.	-123.96
13360	11.927	4.	5.e-002	-2.9574e-006
13361	12.224	4.	0.	-102.37
13362	12.125	3.9	0.	-113.05
13363	12.125	4.	5.e-002	-1.9799e-006
13364	12.422	4.	0.	-93.268
13365	12.323	3.9	0.	-102.87
13366	12.323	4.	5.e-002	-8.0299e-007
13367	12.62	4.	0.	-84.761
13368	12.521	3.9	0.	-93.39
13369	12.521	4.	5.e-002	-7.1138e-007
13370	12.818	4.	0.	-76.829
13371	12.719	3.9	0.	-84.595
13372	12.719	4.	5.e-002	2.1588e-006
13373	13.016	4.	0.	-69.449
13374	12.917	3.9	0.	-76.447
13375	12.917	4.	5.e-002	-1.605e-007
13376	13.214	4.	0.	-62.592
13377	13.115	3.9	0.	-68.906
13378	13.115	4.	5.e-002	-9.0635e-007
13379	13.411	4.	0.	-56.228
13380	13.313	3.9	0.	-61.934
13381	13.313	4.	5.e-002	-4.4118e-007
13382	13.609	4.	0.	-50.326
13383	13.51	3.9	0.	-55.491
13384	13.51	4.	5.e-002	1.1762e-007
13385	13.807	4.	0.	-44.853
13386	13.708	3.9	0.	-49.536
13387	13.708	4.	5.e-002	2.0084e-007
13388	14.005	4.	0.	-39.78
13389	13.906	3.9	0.	-44.033
13390	13.906	4.	5.e-002	1.6909e-006
13391	14.203	4.	0.	-35.074
13392	14.104	3.9	0.	-38.945
13393	14.104	4.	5.e-002	1.7349e-006
13394	14.401	4.	0.	-30.708
13395	14.302	3.9	0.	-34.237
13396	14.302	4.	5.e-002	1.5459e-006
13397	14.599	4.	0.	-26.652
13398	14.5	3.9	0.	-29.875
13399	14.5	4.	5.e-002	2.0743e-006
13400	14.797	4.	0.	-22.881
13401	14.698	3.9	0.	-25.831
13402	14.698	4.	5.e-002	2.6636e-006
13403	14.995	4.	0.	-19.369
13404	14.896	3.9	0.	-22.073
13405	14.896	4.	5.e-002	2.3734e-006
13406	15.193	4.	0.	-16.091
13407	15.094	3.9	0.	-18.576
13408	15.094	4.	5.e-002	3.5559e-006
13409	15.391	4.	0.	-13.025
13410	15.292	3.9	0.	-15.313
13411	15.292	4.	5.e-002	3.0785e-006
13412	15.589	4.	0.	-10.151
13413	15.49	3.9	0.	-12.262
13414	15.49	4.	5.e-002	2.239e-006
13415	15.786	4.	0.	-7.4463
13416	15.688	3.9	0.	-9.3987
13417	15.688	4.	5.e-002	3.8995e-006
13418	15.984	4.	0.	-4.8936
13419	15.885	3.9	0.	-6.7034
13420	15.885	4.	5.e-002	3.2074e-006
13421	16.182	4.	0.	-2.4758
13422	16.083	3.9	0.	-4.1564
13423	16.083	4.	5.e-002	4.7994e-006
13424	16.38	4.	0.	-0.23044
13425	16.281	3.9	0.	-1.7415
13426	16.281	4.	5.e-002	4.6906e-006
13427	16.578	4.	0.	2.4996e-004
13428	16.479	3.9	0.	-1.425e-002
13429	16.479	4.	5.e-002	4.7797e-006
13430	16.776	4.	0.	4.4157e-003
13431	16.677	3.9	0.	3.7306e-003
13432	16.677	4.	5.e-002	5.0354e-006
13433	16.974	4.	0.	5.903e-003
13434	16.875	3.9	0.	6.0254e-003
13435	16.875	4.	5.e-002	5.1581e-006
13436	17.172	4.	0.	6.7878e-003
13437	17.073	3.9	0.	7.0895e-003
13438	17.073	4.	5.e-002	6.1206e-006
13439	17.37	4.	0.	7.4442e-003
13440	17.271	3.9	0.	7.8146e-003
13441	17.271	4.	5.e-002	4.6204e-006
13442	17.568	4.	0.	7.9884e-003
13443	17.469	3.9	0.	8.3889e-003
13444	17.469	4.	5.e-002	4.1364e-006
13445	17.766	4.	0.	8.4885e-003
13446	17.667	3.9	0.	8.8932e-003
13447	17.667	4.	5.e-002	5.5107e-006
13448	17.964	4.	0.	8.9851e-003
13449	17.865	3.9	0.	9.3867e-003
13450	17.865	4.	5.e-002	5.1116e-006
13451	18.161	4.	0.	9.4833e-003
13452	18.063	3.9	0.	9.8923e-003
13453	18.063	4.	5.e-002	6.0979e-006
13454	18.359	4.	0.	9.9844e-003
13455	18.26	3.9	0.	1.0396e-002
13456	18.26	4.	5.e-002	5.7087e-006
13457	18.557	4.	0.	1.0508e-002
13458	18.458	3.9	0.	1.0911e-002
13459	18.458	4.	5.e-002	5.2946e-006
13460	18.755	4.	0.	1.1074e-002
13461	18.656	3.9	0.	1.1466e-002
13462	18.656	4.	5.e-002	5.7905e-006
13463	18.953	4.	0.	1.1678e-002
13464	18.854	3.9	0.	1.2068e-002
13465	18.854	4.	5.e-002	7.983e-006
13466	19.151	4.	0.	1.2318e-002
13467	19.052	3.9	0.	1.2703e-002
13468	19.052	4.	5.e-002	9.0335e-006
13469	19.349	4.	0.	1.3013e-002
13470	19.25	3.9	0.	1.3381e-002
13471	19.25	4.	5.e-002	8.9139e-006
13472	19.547	4.	0.	1.3781e-002
13473	19.448	3.9	0.	1.4129e-002
13474	19.448	4.	5.e-002	7.03e-006
13475	19.745	4.	0.	1.4623e-002
13476	19.646	3.9	0.	1.4956e-002
13477	19.646	4.	5.e-002	9.015e-006
13478	19.943	4.	0.	1.5545e-002
13479	19.844	3.9	0.	1.5857e-002
13480	19.844	4.	5.e-002	8.544e-006
13481	20.141	4.	0.	1.6569e-002
13482	20.042	3.9	0.	1.6845e-002
13483	20.042	4.	5.e-002	7.2624e-006
13484	20.339	4.	0.	1.7721e-002
13485	20.24	3.9	0.	1.7955e-002
13486	20.24	4.	5.e-002	9.2471e-006
13487	20.536	4.	0.	1.9015e-002
13488	20.438	3.9	0.	1.9202e-002
13489	20.438	4.	5.e-002	9.8519e-006
13490	20.734	4.	0.	2.0476e-002
13491	20.635	3.9	0.	2.0604e-002
13492	20.635	4.	5.e-002	1.1388e-005
13493	20.932	4.	0.	2.2142e-002
13494	20.833	3.9	0.	2.2186e-002
13495	20.833	4.	5.e-002	9.1801e-006
13496	21.13	4.	0.	2.4066e-002
13497	21.031	3.9	0.	2.4004e-002
13498	21.031	4.	5.e-002	9.7007e-006
13499	21.328	4.	0.	2.6302e-002
13500	21.229	3.9	0.	2.611e-002
13501	21.229	4.	5.e-002	1.038e-005
13502	21.526	4.	0.	2.8923e-002
13503	21.427	3.9	0.	2.856e-002
13504	21.427	4.	5.e-002	1.2156e-005
13505	21.724	4.	0.	3.204e-002
13506	21.625	3.9	0.	3.1445e-002
13507	21.625	4.	5.e-002	1.0694e-005
13508	21.922	4.	0.	3.5808e-002
13509	21.823	3.9	0.	3.4903e-002
13510	21.823	4.	5.e-002	8.938e-006
13511	22.12	4.	0.	4.0426e-002
13512	22.021	3.9	0.	3.9109e-002
13513	22.021	4.	5.e-002	7.2872e-006
13514	22.318	4.	0.	4.6224e-002
13515	22.219	3.9	0.	4.4301e-002
13516	22.219	4.	5.e-002	9.1702e-006
13517	22.516	4.	0.	5.3618e-002
13518	22.417	3.9	0.	5.0915e-002
13519	22.417	4.	5.e-002	1.1053e-005
13520	22.714	4.	0.	6.3659e-002
13521	22.615	3.9	0.	5.938e-002
13522	22.615	4.	5.e-002	9.57e-006
13523	22.911	4.	0.	7.6601e-002
13524	22.813	3.9	0.	7.145e-002
13525	22.813	4.	5.e-002	8.3278e-006
13526	23.109	4.	0.	9.9346e-002
13527	23.01	3.9	0.	8.603e-002
13528	23.01	4.	5.e-002	8.0788e-006
13529	23.307	4.	0.	0.12003
13530	23.208	3.9	0.	0.11844
13531	23.208	4.	5.e-002	1.8689e-006
13532	23.505	4.	0.	0.22244
13533	23.406	3.9	0.	0.1309
13534	23.406	4.	5.e-002	7.2278e-006
13535	23.703	4.	0.	0.18679
13536	23.604	3.9	0.	0.33471
13537	23.604	4.	5.e-002	8.107e-006
13538	23.802	3.9	0.	0.12872
13539	23.802	4.	5.e-002	6.813e-006
13540	23.901	4.	0.	0.2977
13541	8.4635	3.8	0.	12.708
13542	8.3646	3.7	0.	-6.9344
13543	8.3646	3.8	5.e-002	-4.3592e-005
13544	8.6615	3.8	0.	11.47
13545	8.5625	3.7	0.	8.0039
13546	8.5625	3.8	5.e-002	7.5502e-006
13547	8.8594	3.8	0.	-29.505
13548	8.7604	3.7	0.	-0.69315
13549	8.7604	3.8	5.e-002	-1.502e-005
13550	9.0573	3.8	0.	-147.08
13551	8.9583	3.7	0.	-113.72
13552	8.9583	3.8	5.e-002	-8.9794e-006
13553	9.2552	3.8	0.	-216.4
13554	9.1563	3.7	0.	-207.96
13555	9.1563	3.8	5.e-002	-2.294e-005
13556	9.4531	3.8	0.	-252.77
13557	9.3542	3.7	0.	-259.78
13558	9.3542	3.8	5.e-002	-1.6591e-005
13559	9.651	3.8	0.	-268.54
13560	9.5521	3.7	0.	-284.78
13561	9.5521	3.8	5.e-002	-3.5853e-005
13562	9.849	3.8	0.	-271.1
13563	9.75	3.7	0.	-292.38
13564	9.75	3.8	5.e-002	-2.2563e-005
13565	10.047	3.8	0.	-265.38
13566	9.9479	3.7	0.	-288.98
13567	9.9479	3.8	5.e-002	-2.5975e-005
13568	10.245	3.8	0.	-254.63
13569	10.146	3.7	0.	-278.79
13570	10.146	3.8	5.e-002	-1.6611e-005
13571	10.443	3.8	0.	-240.97
13572	10.344	3.7	0.	-264.6
13573	10.344	3.8	5.e-002	-2.0446e-005
13574	10.641	3.8	0.	-225.8
13575	10.542	3.7	0.	-248.27
13576	10.542	3.8	5.e-002	-9.6131e-006
13577	10.839	3.8	0.	-210.04
13578	10.74	3.7	0.	-231.
13579	10.74	3.8	5.e-002	-1.304e-005
13580	11.036	3.8	0.	-194.3
13581	10.937	3.7	0.	-213.59
13582	10.937	3.8	5.e-002	-9.4105e-006
13583	11.234	3.8	0.	-178.96
13584	11.135	3.7	0.	-196.55
13585	11.135	3.8	5.e-002	-5.054e-006
13586	11.432	3.8	0.	-164.24
13587	11.333	3.7	0.	-180.19
13588	11.333	3.8	5.e-002	-8.2122e-006
13589	11.63	3.8	0.	-150.29
13590	11.531	3.7	0.	-164.69
13591	11.531	3.8	5.e-002	-1.724e-006
13592	11.828	3.8	0.	-137.18
13593	11.729	3.7	0.	-150.14
13594	11.729	3.8	5.e-002	-4.8867e-006
13595	12.026	3.8	0.	-124.93
13596	11.927	3.7	0.	-136.57
13597	11.927	3.8	5.e-002	-1.1296e-006
13598	12.224	3.8	0.	-113.54
13599	12.125	3.7	0.	-123.99
13600	12.125	3.8	5.e-002	-1.4543e-006
13601	12.422	3.8	0.	-102.98
13602	12.323	3.7	0.	-112.36
13603	12.323	3.8	5.e-002	-1.5804e-007
13604	12.62	3.8	0.	-93.217
13605	12.521	3.7	0.	-101.64
13606	12.521	3.8	5.e-002	-1.6985e-006
13607	12.818	3.8	0.	-84.204
13608	12.719	3.7	0.	-91.774
13609	12.719	3.8	5.e-002	1.6983e-006
13610	13.016	3.8	0.	-75.894
13611	12.917	3.7	0.	-82.705
13612	12.917	3.8	5.e-002	-8.6096e-007
13613	13.214	3.8	0.	-68.237
13614	13.115	3.7	0.	-74.374
13615	13.115	3.8	5.e-002	-3.5903e-008
13616	13.411	3.8	0.	-61.184
13617	13.313	3.7	0.	-66.722
13618	13.313	3.8	5.e-002	3.9304e-007
13619	13.609	3.8	0.	-54.687
13620	13.51	3.7	0.	-59.694
13621	13.51	3.8	5.e-002	-9.5539e-008
13622	13.807	3.8	0.	-48.701
13623	13.708	3.7	0.	-53.236
13624	13.708	3.8	5.e-002	2.5736e-007
13625	14.005	3.8	0.	-43.182
13626	13.906	3.7	0.	-47.297
13627	13.906	3.8	5.e-002	1.4793e-006
13628	14.203	3.8	0.	-38.089
13629	14.104	3.7	0.	-41.831
13630	14.104	3.8	5.e-002	1.5853e-006
13631	14.401	3.8	0.	-33.385
13632	14.302	3.7	0.	-36.794
13633	14.302	3.8	5.e-002	1.3546e-006
13634	14.599	3.8	0.	-29.033
13635	14.5	3.7	0.	-32.145
13636	14.5	3.8	5.e-002	2.6884e-006
13637	14.797	3.8	0.	-25.001
13638	14.698	3.7	0.	-27.848
13639	14.698	3.8	5.e-002	3.0787e-006
13640	14.995	3.8	0.	-21.257
13641	14.896	3.7	0.	-23.869
13642	14.896	3.8	5.e-002	2.7768e-006
13643	15.193	3.8	0.	-17.774
13644	15.094	3.7	0.	-20.175
13645	15.094	3.8	5.e-002	3.282e-006
13646	15.391	3.8	0.	-14.524
13647	15.292	3.7	0.	-16.736
13648	15.292	3.8	5.e-002	3.058e-006
13649	15.589	3.8	0.	-11.483
13650	15.49	3.7	0.	-13.527
13651	15.49	3.8	5.e-002	2.6372e-006
13652	15.786	3.8	0.	-8.628
13653	15.688	3.7	0.	-10.522
13654	15.688	3.8	5.e-002	3.8946e-006
13655	15.984	3.8	0.	-5.9372
13656	15.885	3.7	0.	-7.697
13657	15.885	3.8	5.e-002	3.299e-006
13658	16.182	3.8	0.	-3.3909
13659	16.083	3.7	0.	-5.0308
13660	16.083	3.8	5.e-002	4.7912e-006
13661	16.38	3.8	0.	-0.97549
13662	16.281	3.7	0.	-2.5036
13663	16.281	3.8	5.e-002	4.7318e-006
13664	16.578	3.8	0.	7.7116e-004
13665	16.479	3.7	0.	-0.14445
13666	16.479	3.8	5.e-002	4.9702e-006
13667	16.776	3.8	0.	5.9385e-003
13668	16.677	3.7	0.	5.3033e-003
13669	16.677	3.8	5.e-002	4.9146e-006
13670	16.974	3.8	0.	7.3295e-003
13671	16.875	3.7	0.	7.4612e-003
13672	16.875	3.8	5.e-002	5.3319e-006
13673	17.172	3.8	0.	8.129e-003
13674	17.073	3.7	0.	8.376e-003
13675	17.073	3.8	5.e-002	6.55e-006
13676	17.37	3.8	0.	8.7343e-003
13677	17.271	3.7	0.	9.0151e-003
13678	17.271	3.8	5.e-002	4.5422e-006
13679	17.568	3.8	0.	9.2506e-003
13680	17.469	3.7	0.	9.5406e-003
13681	17.469	3.8	5.e-002	4.2204e-006
13682	17.766	3.8	0.	9.7377e-003
13683	17.667	3.7	0.	1.0017e-002
13684	17.667	3.8	5.e-002	5.822e-006
13685	17.964	3.8	0.	1.0233e-002
13686	17.865	3.7	0.	1.0499e-002
13687	17.865	3.8	5.e-002	5.5183e-006
13688	18.161	3.8	0.	1.0738e-002
13689	18.063	3.7	0.	1.1002e-002
13690	18.063	3.8	5.e-002	5.9363e-006
13691	18.359	3.8	0.	1.1251e-002
13692	18.26	3.7	0.	1.151e-002
13693	18.26	3.8	5.e-002	5.9995e-006
13694	18.557	3.8	0.	1.1791e-002
13695	18.458	3.7	0.	1.2035e-002
13696	18.458	3.8	5.e-002	5.6787e-006
13697	18.755	3.8	0.	1.2378e-002
13698	18.656	3.7	0.	1.2603e-002
13699	18.656	3.8	5.e-002	6.4198e-006
13700	18.953	3.8	0.	1.3007e-002
13701	18.854	3.7	0.	1.3222e-002
13702	18.854	3.8	5.e-002	7.6571e-006
13703	19.151	3.8	0.	1.3675e-002
13704	19.052	3.7	0.	1.3879e-002
13705	19.052	3.8	5.e-002	9.3553e-006
13706	19.349	3.8	0.	1.4401e-002
13707	19.25	3.7	0.	1.4581e-002
13708	19.25	3.8	5.e-002	9.4399e-006
13709	19.547	3.8	0.	1.5202e-002
13710	19.448	3.7	0.	1.5355e-002
13711	19.448	3.8	5.e-002	6.9053e-006
13712	19.745	3.8	0.	1.6082e-002
13713	19.646	3.7	0.	1.621e-002
13714	19.646	3.8	5.e-002	8.2059e-006
13715	19.943	3.8	0.	1.7042e-002
13716	19.844	3.7	0.	1.7142e-002
13717	19.844	3.8	5.e-002	8.8218e-006
13718	20.141	3.8	0.	1.8108e-002
13719	20.042	3.7	0.	1.8164e-002
13720	20.042	3.8	5.e-002	7.6036e-006
13721	20.339	3.8	0.	1.9304e-002
13722	20.24	3.7	0.	1.9309e-002
13723	20.24	3.8	5.e-002	8.5572e-006
13724	20.536	3.8	0.	2.0648e-002
13725	20.438	3.7	0.	2.0597e-002
13726	20.438	3.8	5.e-002	9.6608e-006
13727	20.734	3.8	0.	2.2159e-002
13728	20.635	3.7	0.	2.2038e-002
13729	20.635	3.8	5.e-002	1.1155e-005
13730	20.932	3.8	0.	2.3877e-002
13731	20.833	3.7	0.	2.3663e-002
13732	20.833	3.8	5.e-002	9.4064e-006
13733	21.13	3.8	0.	2.5858e-002
13734	21.031	3.7	0.	2.5526e-002
13735	21.031	3.8	5.e-002	9.3944e-006
13736	21.328	3.8	0.	2.8155e-002
13737	21.229	3.7	0.	2.7681e-002
13738	21.229	3.8	5.e-002	1.0051e-005
13739	21.526	3.8	0.	3.084e-002
13740	21.427	3.7	0.	3.018e-002
13741	21.427	3.8	5.e-002	1.142e-005
13742	21.724	3.8	0.	3.4025e-002
13743	21.625	3.7	0.	3.3122e-002
13744	21.625	3.8	5.e-002	9.5309e-006
13745	21.922	3.8	0.	3.7867e-002
13746	21.823	3.7	0.	3.6636e-002
13747	21.823	3.8	5.e-002	9.6317e-006
13748	22.12	3.8	0.	4.2568e-002
13749	22.021	3.7	0.	4.0907e-002
13750	22.021	3.8	5.e-002	7.9534e-006
13751	22.318	3.8	0.	4.8457e-002
13752	22.219	3.7	0.	4.617e-002
13753	22.219	3.8	5.e-002	8.8996e-006
13754	22.516	3.8	0.	5.5955e-002
13755	22.417	3.7	0.	5.2866e-002
13756	22.417	3.8	5.e-002	1.1717e-005
13757	22.714	3.8	0.	6.6126e-002
13758	22.615	3.7	0.	6.1428e-002
13759	22.615	3.8	5.e-002	7.4845e-006
13760	22.911	3.8	0.	7.9231e-002
13761	22.813	3.7	0.	7.3624e-002
13762	22.813	3.8	5.e-002	1.0109e-005
13763	23.109	3.8	0.	0.10221
13764	23.01	3.7	0.	8.8363e-002
13765	23.01	3.8	5.e-002	1.009e-005
13766	23.307	3.8	0.	0.12319
13767	23.208	3.7	0.	0.12102
13768	23.208	3.8	5.e-002	4.9405e-006
13769	23.505	3.8	0.	0.22637
13770	23.406	3.7	0.	0.13378
13771	23.406	3.8	5.e-002	7.3307e-006
13772	23.703	3.8	0.	0.19262
13773	23.604	3.7	0.	0.33872
13774	23.604	3.8	5.e-002	1.1764e-005
13775	23.802	3.7	0.	0.13611
13776	23.802	3.8	5.e-002	4.7448e-006
13777	23.901	3.8	0.	0.29959
13778	8.4635	3.6	0.	-14.345
13779	8.3646	3.5	0.	-4.5656
13780	8.3646	3.6	5.e-002	-6.6188e-005
13781	8.6615	3.6	0.	-5.0162
13782	8.5625	3.5	0.	-6.5392
13783	8.5625	3.6	5.e-002	3.1287e-005
13784	8.8594	3.6	0.	-39.107
13785	8.7604	3.5	0.	0.73468
13786	8.7604	3.6	5.e-002	4.4294e-005
13787	9.0573	3.6	0.	-174.06
13788	8.9583	3.5	0.	-116.5
13789	8.9583	3.6	5.e-002	1.653e-005
13790	9.2552	3.6	0.	-251.68
13791	9.1563	3.5	0.	-226.29
13792	9.1563	3.6	5.e-002	9.8807e-006
13793	9.4531	3.6	0.	-292.23
13794	9.3542	3.5	0.	-287.64
13795	9.3542	3.6	5.e-002	-1.2381e-005
13796	9.651	3.6	0.	-308.96
13797	9.5521	3.5	0.	-317.1
13798	9.5521	3.6	5.e-002	-1.4237e-005
13799	9.849	3.6	0.	-310.48
13800	9.75	3.5	0.	-325.96
13801	9.75	3.6	5.e-002	-1.2898e-005
13802	10.047	3.6	0.	-302.52
13803	9.9479	3.5	0.	-321.81
13804	9.9479	3.6	5.e-002	-1.8703e-005
13805	10.245	3.6	0.	-288.83
13806	10.146	3.5	0.	-309.7
13807	10.146	3.6	5.e-002	-1.2389e-005
13808	10.443	3.6	0.	-271.93
13809	10.344	3.5	0.	-292.98
13810	10.344	3.6	5.e-002	-2.3125e-005
13811	10.641	3.6	0.	-253.48
13812	10.542	3.5	0.	-273.87
13813	10.542	3.6	5.e-002	-9.3382e-006
13814	10.839	3.6	0.	-234.55
13815	10.74	3.5	0.	-253.8
13816	10.74	3.6	5.e-002	-9.5874e-006
13817	11.036	3.6	0.	-215.84
13818	10.937	3.5	0.	-233.72
13819	10.937	3.6	5.e-002	-1.2499e-005
13820	11.234	3.6	0.	-197.78
13821	11.135	3.5	0.	-214.19
13822	11.135	3.6	5.e-002	-9.7156e-006
13823	11.432	3.6	0.	-180.64
13824	11.333	3.5	0.	-195.57
13825	11.333	3.6	5.e-002	-6.361e-006
13826	11.63	3.6	0.	-164.53
13827	11.531	3.5	0.	-178.05
13828	11.531	3.6	5.e-002	-3.5851e-006
13829	11.828	3.6	0.	-149.53
13830	11.729	3.5	0.	-161.73
13831	11.729	3.6	5.e-002	-1.4221e-006
13832	12.026	3.6	0.	-135.63
13833	11.927	3.5	0.	-146.61
13834	11.927	3.6	5.e-002	-1.6513e-006
13835	12.224	3.6	0.	-122.81
13836	12.125	3.5	0.	-132.68
13837	12.125	3.6	5.e-002	-1.0792e-006
13838	12.422	3.6	0.	-111.02
13839	12.323	3.5	0.	-119.88
13840	12.323	3.6	5.e-002	-1.0098e-006
13841	12.62	3.6	0.	-100.19
13842	12.521	3.5	0.	-108.16
13843	12.521	3.6	5.e-002	-1.4947e-007
13844	12.818	3.6	0.	-90.268
13845	12.719	3.5	0.	-97.433
13846	12.719	3.6	5.e-002	5.1203e-007
13847	13.016	3.6	0.	-81.177
13848	12.917	3.5	0.	-87.626
13849	12.917	3.6	5.e-002	8.7137e-008
13850	13.214	3.6	0.	-72.85
13851	13.115	3.5	0.	-78.662
13852	13.115	3.6	5.e-002	-4.1928e-007
13853	13.411	3.6	0.	-65.221
13854	13.313	3.5	0.	-70.467
13855	13.313	3.6	5.e-002	-7.4447e-008
13856	13.609	3.6	0.	-58.23
13857	13.51	3.5	0.	-62.973
13858	13.51	3.6	5.e-002	-6.5691e-007
13859	13.807	3.6	0.	-51.817
13860	13.708	3.5	0.	-56.114
13861	13.708	3.6	5.e-002	5.5659e-007
13862	14.005	3.6	0.	-45.93
13863	13.906	3.5	0.	-49.83
13864	13.906	3.6	5.e-002	1.2723e-006
13865	14.203	3.6	0.	-40.518
13866	14.104	3.5	0.	-44.065
13867	14.104	3.6	5.e-002	1.853e-006
13868	14.401	3.6	0.	-35.535
13869	14.302	3.5	0.	-38.769
13870	14.302	3.6	5.e-002	2.0058e-006
13871	14.599	3.6	0.	-30.941
13872	14.5	3.5	0.	-33.895
13873	14.5	3.6	5.e-002	2.8756e-006
13874	14.797	3.6	0.	-26.695
13875	14.698	3.5	0.	-29.4
13876	14.698	3.6	5.e-002	2.7371e-006
13877	14.995	3.6	0.	-22.764
13878	14.896	3.5	0.	-25.247
13879	14.896	3.6	5.e-002	2.8599e-006
13880	15.193	3.6	0.	-19.113
13881	15.094	3.5	0.	-21.399
13882	15.094	3.6	5.e-002	4.1173e-006
13883	15.391	3.6	0.	-15.715
13884	15.292	3.5	0.	-17.825
13885	15.292	3.6	5.e-002	3.1296e-006
13886	15.589	3.6	0.	-12.54
13887	15.49	3.5	0.	-14.494
13888	15.49	3.6	5.e-002	2.8286e-006
13889	15.786	3.6	0.	-9.5635
13890	15.688	3.5	0.	-11.378
13891	15.688	3.6	5.e-002	4.1953e-006
13892	15.984	3.6	0.	-6.762
13893	15.885	3.5	0.	-8.4532
13894	15.885	3.6	5.e-002	3.6455e-006
13895	16.182	3.6	0.	-4.1135
13896	16.083	3.5	0.	-5.6954
13897	16.083	3.6	5.e-002	5.0271e-006
13898	16.38	3.6	0.	-1.5987
13899	16.281	3.5	0.	-3.083
13900	16.281	3.6	5.e-002	5.0212e-006
13901	16.578	3.6	0.	1.465e-003
13902	16.479	3.5	0.	-0.59998
13903	16.479	3.6	5.e-002	5.2933e-006
13904	16.776	3.6	0.	7.4499e-003
13905	16.677	3.5	0.	7.045e-003
13906	16.677	3.6	5.e-002	5.2276e-006
13907	16.974	3.6	0.	8.58e-003
13908	16.875	3.5	0.	8.7202e-003
13909	16.875	3.6	5.e-002	5.6563e-006
13910	17.172	3.6	0.	9.2453e-003
13911	17.073	3.5	0.	9.4228e-003
13912	17.073	3.6	5.e-002	6.737e-006
13913	17.37	3.6	0.	9.7773e-003
13914	17.271	3.5	0.	9.9576e-003
13915	17.271	3.6	5.e-002	4.9831e-006
13916	17.568	3.6	0.	1.0251e-002
13917	17.469	3.5	0.	1.0425e-002
13918	17.469	3.6	5.e-002	4.4158e-006
13919	17.766	3.6	0.	1.0717e-002
13920	17.667	3.5	0.	1.0869e-002
13921	17.667	3.6	5.e-002	5.8939e-006
13922	17.964	3.6	0.	1.1202e-002
13923	17.865	3.5	0.	1.1335e-002
13924	17.865	3.6	5.e-002	5.6886e-006
13925	18.161	3.6	0.	1.1703e-002
13926	18.063	3.5	0.	1.1829e-002
13927	18.063	3.6	5.e-002	6.322e-006
13928	18.359	3.6	0.	1.222e-002
13929	18.26	3.5	0.	1.2335e-002
13930	18.26	3.6	5.e-002	6.4864e-006
13931	18.557	3.6	0.	1.277e-002
13932	18.458	3.5	0.	1.2864e-002
13933	18.458	3.6	5.e-002	6.0612e-006
13934	18.755	3.6	0.	1.3367e-002
13935	18.656	3.5	0.	1.3439e-002
13936	18.656	3.6	5.e-002	6.3063e-006
13937	18.953	3.6	0.	1.4011e-002
13938	18.854	3.5	0.	1.4068e-002
13939	18.854	3.6	5.e-002	8.0178e-006
13940	19.151	3.6	0.	1.4697e-002
13941	19.052	3.5	0.	1.4738e-002
13942	19.052	3.6	5.e-002	9.4942e-006
13943	19.349	3.6	0.	1.5442e-002
13944	19.25	3.5	0.	1.5454e-002
13945	19.25	3.6	5.e-002	8.8407e-006
13946	19.547	3.6	0.	1.6265e-002
13947	19.448	3.5	0.	1.6244e-002
13948	19.448	3.6	5.e-002	7.4589e-006
13949	19.745	3.6	0.	1.7168e-002
13950	19.646	3.5	0.	1.7119e-002
13951	19.646	3.6	5.e-002	7.2434e-006
13952	19.943	3.6	0.	1.8155e-002
13953	19.844	3.5	0.	1.8071e-002
13954	19.844	3.6	5.e-002	8.6804e-006
13955	20.141	3.6	0.	1.925e-002
13956	20.042	3.5	0.	1.9115e-002
13957	20.042	3.6	5.e-002	7.3382e-006
13958	20.339	3.6	0.	2.0478e-002
13959	20.24	3.5	0.	2.0283e-002
13960	20.24	3.6	5.e-002	8.3097e-006
13961	20.536	3.6	0.	2.1853e-002
13962	20.438	3.5	0.	2.1597e-002
13963	20.438	3.6	5.e-002	1.0389e-005
13964	20.734	3.6	0.	2.3397e-002
13965	20.635	3.5	0.	2.3063e-002
13966	20.635	3.6	5.e-002	1.1364e-005
13967	20.932	3.6	0.	2.5153e-002
13968	20.833	3.5	0.	2.4718e-002
13969	20.833	3.6	5.e-002	8.5782e-006
13970	21.13	3.6	0.	2.7173e-002
13971	21.031	3.5	0.	2.6612e-002
13972	21.031	3.6	5.e-002	9.5486e-006
13973	21.328	3.6	0.	2.9508e-002
13974	21.229	3.5	0.	2.8797e-002
13975	21.229	3.6	5.e-002	9.3634e-006
13976	21.526	3.6	0.	3.2235e-002
13977	21.427	3.5	0.	3.133e-002
13978	21.427	3.6	5.e-002	1.2153e-005
13979	21.724	3.6	0.	3.5467e-002
13980	21.625	3.5	0.	3.4306e-002
13981	21.625	3.6	5.e-002	1.0223e-005
13982	21.922	3.6	0.	3.9357e-002
13983	21.823	3.5	0.	3.7859e-002
13984	21.823	3.6	5.e-002	8.4403e-006
13985	22.12	3.6	0.	4.4112e-002
13986	22.021	3.5	0.	4.2171e-002
13987	22.021	3.6	5.e-002	7.6286e-006
13988	22.318	3.6	0.	5.0064e-002
13989	22.219	3.5	0.	4.7482e-002
13990	22.219	3.6	5.e-002	7.5689e-006
13991	22.516	3.6	0.	5.7635e-002
13992	22.417	3.5	0.	5.4233e-002
13993	22.417	3.6	5.e-002	9.5182e-006
13994	22.714	3.6	0.	6.7898e-002
13995	22.615	3.5	0.	6.2863e-002
13996	22.615	3.6	5.e-002	7.299e-006
13997	22.911	3.6	0.	8.1119e-002
13998	22.813	3.5	0.	7.5146e-002
13999	22.813	3.6	5.e-002	8.0311e-006
14000	23.109	3.6	0.	0.10426
14001	23.01	3.5	0.	8.9995e-002
14002	23.01	3.6	5.e-002	1.0182e-005
14003	23.307	3.6	0.	0.12546
14004	23.208	3.5	0.	0.12282
14005	23.208	3.6	5.e-002	3.2263e-006
14006	23.505	3.6	0.	0.2292
14007	23.406	3.5	0.	0.13581
14008	23.406	3.6	5.e-002	5.5292e-006
14009	23.703	3.6	0.	0.19689
14010	23.604	3.5	0.	0.34156
14011	23.604	3.6	5.e-002	7.8714e-006
14012	23.802	3.5	0.	0.14142
14013	23.802	3.6	5.e-002	8.2957e-006
14014	23.901	3.6	0.	0.30093
14015	8.4635	3.4	0.	2.9979
14016	8.3646	3.3	0.	1.9556
14017	8.3646	3.4	5.e-002	1.0603e-005
14018	8.6615	3.4	0.	-0.33182
14019	8.5625	3.3	0.	0.2451
14020	8.5625	3.4	5.e-002	4.6344e-005
14021	8.8594	3.4	0.	-10.229
14022	8.7604	3.3	0.	-0.33907
14023	8.7604	3.4	5.e-002	5.0309e-005
14024	9.0573	3.4	0.	-165.08
14025	8.9583	3.3	0.	-95.048
14026	8.9583	3.4	5.e-002	3.9451e-005
14027	9.2552	3.4	0.	-260.78
14028	9.1563	3.3	0.	-224.
14029	9.1563	3.4	5.e-002	2.3802e-005
14030	9.4531	3.4	0.	-311.92
14031	9.3542	3.3	0.	-297.99
14032	9.3542	3.4	5.e-002	4.381e-006
14033	9.651	3.4	0.	-333.88
14034	9.5521	3.3	0.	-334.5
14035	9.5521	3.4	5.e-002	-9.1013e-006
14036	9.849	3.4	0.	-337.21
14037	9.75	3.3	0.	-346.56
14038	9.75	3.4	5.e-002	-6.2824e-006
14039	10.047	3.4	0.	-328.97
14040	9.9479	3.3	0.	-343.2
14041	9.9479	3.4	5.e-002	-8.8384e-006
14042	10.245	3.4	0.	-313.84
14043	10.146	3.3	0.	-330.48
14044	10.146	3.4	5.e-002	-6.12e-006
14045	10.443	3.4	0.	-294.91
14046	10.344	3.3	0.	-312.39
14047	10.344	3.4	5.e-002	-4.8134e-006
14048	10.641	3.4	0.	-274.19
14049	10.542	3.3	0.	-291.54
14050	10.542	3.4	5.e-002	-9.394e-006
14051	10.839	3.4	0.	-252.97
14052	10.74	3.3	0.	-269.63
14053	10.74	3.4	5.e-002	-7.8223e-006
14054	11.036	3.4	0.	-232.06
14055	10.937	3.3	0.	-247.72
14056	10.937	3.4	5.e-002	-6.3212e-006
14057	11.234	3.4	0.	-211.97
14058	11.135	3.3	0.	-226.48
14059	11.135	3.4	5.e-002	-7.1016e-006
14060	11.432	3.4	0.	-192.99
14061	11.333	3.3	0.	-206.29
14062	11.333	3.4	5.e-002	-2.6784e-006
14063	11.63	3.4	0.	-175.25
14064	11.531	3.3	0.	-187.36
14065	11.531	3.4	5.e-002	-4.2897e-006
14066	11.828	3.4	0.	-158.81
14067	11.729	3.3	0.	-169.79
14068	11.729	3.4	5.e-002	-3.928e-007
14069	12.026	3.4	0.	-143.66
14070	11.927	3.3	0.	-153.58
14071	11.927	3.4	5.e-002	4.0092e-007
14072	12.224	3.4	0.	-129.75
14073	12.125	3.3	0.	-138.71
14074	12.125	3.4	5.e-002	1.4987e-006
14075	12.422	3.4	0.	-117.02
14076	12.323	3.3	0.	-125.1
14077	12.323	3.4	5.e-002	5.6273e-007
14078	12.62	3.4	0.	-105.4
14079	12.521	3.3	0.	-112.67
14080	12.521	3.4	5.e-002	9.8937e-007
14081	12.818	3.4	0.	-94.784
14082	12.719	3.3	0.	-101.34
14083	12.719	3.4	5.e-002	1.5029e-006
14084	13.016	3.4	0.	-85.102
14085	12.917	3.3	0.	-91.018
14086	12.917	3.4	5.e-002	-3.3622e-008
14087	13.214	3.4	0.	-76.269
14088	13.115	3.3	0.	-81.612
14089	13.115	3.4	5.e-002	2.2013e-006
14090	13.411	3.4	0.	-68.208
14091	13.313	3.3	0.	-73.039
14092	13.313	3.4	5.e-002	5.1779e-007
14093	13.609	3.4	0.	-60.844
14094	13.51	3.3	0.	-65.221
14095	13.51	3.4	5.e-002	3.0789e-007
14096	13.807	3.4	0.	-54.112
14097	13.708	3.3	0.	-58.083
14098	13.708	3.4	5.e-002	2.4256e-006
14099	14.005	3.4	0.	-47.949
14100	13.906	3.3	0.	-51.56
14101	13.906	3.4	5.e-002	2.5508e-006
14102	14.203	3.4	0.	-42.299
14103	14.104	3.3	0.	-45.588
14104	14.104	3.4	5.e-002	2.6482e-006
14105	14.401	3.4	0.	-37.11
14106	14.302	3.3	0.	-40.113
14107	14.302	3.4	5.e-002	3.2204e-006
14108	14.599	3.4	0.	-32.335
14109	14.5	3.3	0.	-35.084
14110	14.5	3.4	5.e-002	3.32e-006
14111	14.797	3.4	0.	-27.931
14112	14.698	3.3	0.	-30.454
14113	14.698	3.4	5.e-002	4.1267e-006
14114	14.995	3.4	0.	-23.861
14115	14.896	3.3	0.	-26.182
14116	14.896	3.4	5.e-002	3.7151e-006
14117	15.193	3.4	0.	-20.087
14118	15.094	3.3	0.	-22.229
14119	15.094	3.4	5.e-002	4.9654e-006
14120	15.391	3.4	0.	-16.579
14121	15.292	3.3	0.	-18.561
14122	15.292	3.4	5.e-002	4.3077e-006
14123	15.589	3.4	0.	-13.306
14124	15.49	3.3	0.	-15.146
14125	15.49	3.4	5.e-002	3.6272e-006
14126	15.786	3.4	0.	-10.241
14127	15.688	3.3	0.	-11.956
14128	15.688	3.4	5.e-002	5.0953e-006
14129	15.984	3.4	0.	-7.3583
14130	15.885	3.3	0.	-8.9628
14131	15.885	3.4	5.e-002	4.5334e-006
14132	16.182	3.4	0.	-4.6354
14133	16.083	3.3	0.	-6.1427
14134	16.083	3.4	5.e-002	5.9299e-006
14135	16.38	3.4	0.	-2.0504
14136	16.281	3.3	0.	-3.4727
14137	16.281	3.4	5.e-002	5.7584e-006
14138	16.578	3.4	0.	2.7133e-003
14139	16.479	3.3	0.	-0.93205
14140	16.479	3.4	5.e-002	6.129e-006
14141	16.776	3.4	0.	8.7938e-003
14142	16.677	3.3	0.	8.708e-003
14143	16.677	3.4	5.e-002	6.2747e-006
14144	16.974	3.4	0.	9.5682e-003
14145	16.875	3.3	0.	9.6723e-003
14146	16.875	3.4	5.e-002	6.5782e-006
14147	17.172	3.4	0.	1.0086e-002
14148	17.073	3.3	0.	1.0165e-002
14149	17.073	3.4	5.e-002	7.8501e-006
14150	17.37	3.4	0.	1.0544e-002
14151	17.271	3.3	0.	1.0607e-002
14152	17.271	3.4	5.e-002	6.0851e-006
14153	17.568	3.4	0.	1.0976e-002
14154	17.469	3.3	0.	1.1024e-002
14155	17.469	3.4	5.e-002	5.3294e-006
14156	17.766	3.4	0.	1.1418e-002
14157	17.667	3.3	0.	1.1443e-002
14158	17.667	3.4	5.e-002	6.9077e-006
14159	17.964	3.4	0.	1.1891e-002
14160	17.865	3.3	0.	1.1891e-002
14161	17.865	3.4	5.e-002	6.7001e-006
14162	18.161	3.4	0.	1.2388e-002
14163	18.063	3.3	0.	1.2378e-002
14164	18.063	3.4	5.e-002	7.3164e-006
14165	18.359	3.4	0.	1.2905e-002
14166	18.26	3.3	0.	1.2881e-002
14167	18.26	3.4	5.e-002	7.3523e-006
14168	18.557	3.4	0.	1.3457e-002
14169	18.458	3.3	0.	1.341e-002
14170	18.458	3.4	5.e-002	6.9022e-006
14171	18.755	3.4	0.	1.4061e-002
14172	18.656	3.3	0.	1.3988e-002
14173	18.656	3.4	5.e-002	7.3897e-006
14174	18.953	3.4	0.	1.4713e-002
14175	18.854	3.3	0.	1.4623e-002
14176	18.854	3.4	5.e-002	8.8483e-006
14177	19.151	3.4	0.	1.5409e-002
14178	19.052	3.3	0.	1.5299e-002
14179	19.052	3.4	5.e-002	1.0551e-005
14180	19.349	3.4	0.	1.6166e-002
14181	19.25	3.3	0.	1.6023e-002
14182	19.25	3.4	5.e-002	9.6415e-006
14183	19.547	3.4	0.	1.7004e-002
14184	19.448	3.3	0.	1.6822e-002
14185	19.448	3.4	5.e-002	7.7577e-006
14186	19.745	3.4	0.	1.7924e-002
14187	19.646	3.3	0.	1.771e-002
14188	19.646	3.4	5.e-002	9.4471e-006
14189	19.943	3.4	0.	1.8927e-002
14190	19.844	3.3	0.	1.8674e-002
14191	19.844	3.4	5.e-002	1.0394e-005
14192	20.141	3.4	0.	2.0039e-002
14193	20.042	3.3	0.	1.9732e-002
14194	20.042	3.4	5.e-002	8.5388e-006
14195	20.339	3.4	0.	2.1285e-002
14196	20.24	3.3	0.	2.0914e-002
14197	20.24	3.4	5.e-002	1.0025e-005
14198	20.536	3.4	0.	2.2681e-002
14199	20.438	3.3	0.	2.2242e-002
14200	20.438	3.4	5.e-002	1.1997e-005
14201	20.734	3.4	0.	2.4247e-002
14202	20.635	3.3	0.	2.3726e-002
14203	20.635	3.4	5.e-002	1.2501e-005
14204	20.932	3.4	0.	2.6026e-002
14205	20.833	3.3	0.	2.5396e-002
14206	20.833	3.4	5.e-002	1.0174e-005
14207	21.13	3.4	0.	2.8069e-002
14208	21.031	3.3	0.	2.7309e-002
14209	21.031	3.4	5.e-002	1.0658e-005
14210	21.328	3.4	0.	3.043e-002
14211	21.229	3.3	0.	2.9512e-002
14212	21.229	3.4	5.e-002	9.0981e-006
14213	21.526	3.4	0.	3.3185e-002
14214	21.427	3.3	0.	3.2067e-002
14215	21.427	3.4	5.e-002	1.3827e-005
14216	21.724	3.4	0.	3.6444e-002
14217	21.625	3.3	0.	3.5063e-002
14218	21.625	3.4	5.e-002	9.9896e-006
14219	21.922	3.4	0.	4.0366e-002
14220	21.823	3.3	0.	3.8639e-002
14221	21.823	3.4	5.e-002	1.1025e-005
14222	22.12	3.4	0.	4.5156e-002
14223	22.021	3.3	0.	4.2976e-002
14224	22.021	3.4	5.e-002	8.2695e-006
14225	22.318	3.4	0.	5.1148e-002
14226	22.219	3.3	0.	4.8317e-002
14227	22.219	3.4	5.e-002	9.2037e-006
14228	22.516	3.4	0.	5.8768e-002
14229	22.417	3.3	0.	5.5102e-002
14230	22.417	3.4	5.e-002	1.0137e-005
14231	22.714	3.4	0.	6.9092e-002
14232	22.615	3.3	0.	6.3774e-002
14233	22.615	3.4	5.e-002	9.0051e-006
14234	22.911	3.4	0.	8.2391e-002
14235	22.813	3.3	0.	7.6112e-002
14236	22.813	3.4	5.e-002	9.8084e-006
14237	23.109	3.4	0.	0.10564
14238	23.01	3.3	0.	9.1032e-002
14239	23.01	3.4	5.e-002	9.3508e-006
14240	23.307	3.4	0.	0.12699
14241	23.208	3.3	0.	0.12397
14242	23.208	3.4	5.e-002	3.4677e-006
14243	23.505	3.4	0.	0.23112
14244	23.406	3.3	0.	0.13709
14245	23.406	3.4	5.e-002	7.5079e-006
14246	23.703	3.4	0.	0.1998
14247	23.604	3.3	0.	0.34337
14248	23.604	3.4	5.e-002	7.8174e-006
14249	23.802	3.3	0.	0.14486
14250	23.802	3.4	5.e-002	1.0001e-005
14251	23.901	3.4	0.	0.30182
14252	8.4635	3.2	0.	-1.0709
14253	8.3646	3.1	0.	-0.23928
14254	8.3646	3.2	5.e-002	1.5237e-005
14255	8.6615	3.2	0.	0.16118
14256	8.5625	3.1	0.	5.6378e-002
14257	8.5625	3.2	5.e-002	3.9775e-005
14258	8.8594	3.2	0.	-0.13127
14259	8.7604	3.1	0.	0.71521
14260	8.7604	3.2	5.e-002	4.064e-005
14261	9.0573	3.2	0.	-148.4
14262	8.9583	3.1	0.	-77.925
14263	8.9583	3.2	5.e-002	2.91e-005
14264	9.2552	3.2	0.	-258.31
14265	9.1563	3.1	0.	-217.94
14266	9.1563	3.2	5.e-002	1.7726e-005
14267	9.4531	3.2	0.	-319.1
14268	9.3542	3.1	0.	-300.13
14269	9.3542	3.2	5.e-002	1.1086e-005
14270	9.651	3.2	0.	-346.46
14271	9.5521	3.1	0.	-341.55
14272	9.5521	3.2	5.e-002	4.9057e-006
14273	9.849	3.2	0.	-352.21
14274	9.75	3.1	0.	-356.09
14275	9.75	3.2	5.e-002	-5.9496e-006
14276	10.047	3.2	0.	-344.55
14277	9.9479	3.1	0.	-353.62
14278	9.9479	3.2	5.e-002	-7.9997e-006
14279	10.245	3.2	0.	-328.95
14280	10.146	3.1	0.	-340.85
14281	10.146	3.2	5.e-002	-9.4593e-006
14282	10.443	3.2	0.	-308.98
14283	10.344	3.1	0.	-322.2
14284	10.344	3.2	5.e-002	-3.1706e-006
14285	10.641	3.2	0.	-286.97
14286	10.542	3.1	0.	-300.55
14287	10.542	3.2	5.e-002	-4.7163e-006
14288	10.839	3.2	0.	-264.37
14289	10.74	3.1	0.	-277.72
14290	10.74	3.2	5.e-002	-6.3818e-006
14291	11.036	3.2	0.	-242.13
14292	10.937	3.1	0.	-254.9
14293	10.937	3.2	5.e-002	-6.44e-006
14294	11.234	3.2	0.	-220.79
14295	11.135	3.1	0.	-232.78
14296	11.135	3.2	5.e-002	-2.7431e-006
14297	11.432	3.2	0.	-200.66
14298	11.333	3.1	0.	-211.79
14299	11.333	3.2	5.e-002	-5.1691e-006
14300	11.63	3.2	0.	-181.9
14301	11.531	3.1	0.	-192.14
14302	11.531	3.2	5.e-002	-4.2128e-007
14303	11.828	3.2	0.	-164.57
14304	11.729	3.1	0.	-173.93
14305	11.729	3.2	5.e-002	5.3807e-007
14306	12.026	3.2	0.	-148.63
14307	11.927	3.1	0.	-157.16
14308	11.927	3.2	5.e-002	-2.5327e-006
14309	12.224	3.2	0.	-134.05
14310	12.125	3.1	0.	-141.8
14311	12.125	3.2	5.e-002	3.6268e-006
14312	12.422	3.2	0.	-120.74
14313	12.323	3.1	0.	-127.77
14314	12.323	3.2	5.e-002	1.1048e-006
14315	12.62	3.2	0.	-108.61
14316	12.521	3.1	0.	-114.98
14317	12.521	3.2	5.e-002	2.3706e-006
14318	12.818	3.2	0.	-97.569
14319	12.719	3.1	0.	-103.34
14320	12.719	3.2	5.e-002	1.6915e-006
14321	13.016	3.2	0.	-87.52
14322	12.917	3.1	0.	-92.749
14323	12.917	3.2	5.e-002	-2.9721e-008
14324	13.214	3.2	0.	-78.373
14325	13.115	3.1	0.	-83.116
14326	13.115	3.2	5.e-002	2.9864e-006
14327	13.411	3.2	0.	-70.042
14328	13.313	3.1	0.	-74.349
14329	13.313	3.2	5.e-002	2.7096e-007
14330	13.609	3.2	0.	-62.448
14331	13.51	3.1	0.	-66.364
14332	13.51	3.2	5.e-002	1.3529e-006
14333	13.807	3.2	0.	-55.518
14334	13.708	3.1	0.	-59.084
14335	13.708	3.2	5.e-002	1.4445e-006
14336	14.005	3.2	0.	-49.184
14337	13.906	3.1	0.	-52.438
14338	13.906	3.2	5.e-002	2.9416e-006
14339	14.203	3.2	0.	-43.387
14340	14.104	3.1	0.	-46.361
14341	14.104	3.2	5.e-002	3.4661e-006
14342	14.401	3.2	0.	-38.07
14343	14.302	3.1	0.	-40.795
14344	14.302	3.2	5.e-002	3.042e-006
14345	14.599	3.2	0.	-33.184
14346	14.5	3.1	0.	-35.686
14347	14.5	3.2	5.e-002	3.5703e-006
14348	14.797	3.2	0.	-28.684
14349	14.698	3.1	0.	-30.987
14350	14.698	3.2	5.e-002	4.329e-006
14351	14.995	3.2	0.	-24.528
14352	14.896	3.1	0.	-26.654
14353	14.896	3.2	5.e-002	4.126e-006
14354	15.193	3.2	0.	-20.679
14355	15.094	3.1	0.	-22.647
14356	15.094	3.2	5.e-002	5.1039e-006
14357	15.391	3.2	0.	-17.103
14358	15.292	3.1	0.	-18.932
14359	15.292	3.2	5.e-002	4.1762e-006
14360	15.589	3.2	0.	-13.77
14361	15.49	3.1	0.	-15.475
14362	15.49	3.2	5.e-002	4.0787e-006
14363	15.786	3.2	0.	-10.651
14364	15.688	3.1	0.	-12.246
14365	15.688	3.2	5.e-002	5.1685e-006
14366	15.984	3.2	0.	-7.7191
14367	15.885	3.1	0.	-9.2192
14368	15.885	3.2	5.e-002	4.5893e-006
14369	16.182	3.2	0.	-4.9509
14370	16.083	3.1	0.	-6.3677
14371	16.083	3.2	5.e-002	6.3621e-006
14372	16.38	3.2	0.	-2.3236
14373	16.281	3.1	0.	-3.6686
14374	16.281	3.2	5.e-002	5.8524e-006
14375	16.578	3.2	0.	5.6945e-003
14376	16.479	3.1	0.	-1.1
14377	16.479	3.2	5.e-002	6.5355e-006
14378	16.776	3.2	0.	9.7469e-003
14379	16.677	3.1	0.	9.7893e-003
14380	16.677	3.2	5.e-002	6.4897e-006
14381	16.974	3.2	0.	1.0205e-002
14382	16.875	3.1	0.	1.0188e-002
14383	16.875	3.2	5.e-002	6.9956e-006
14384	17.172	3.2	0.	1.061e-002
14385	17.073	3.1	0.	1.0551e-002
14386	17.073	3.2	5.e-002	7.9476e-006
14387	17.37	3.2	0.	1.1012e-002
14388	17.271	3.1	0.	1.0938e-002
14389	17.271	3.2	5.e-002	6.4694e-006
14390	17.568	3.2	0.	1.1416e-002
14391	17.469	3.1	0.	1.1328e-002
14392	17.469	3.2	5.e-002	5.4067e-006
14393	17.766	3.2	0.	1.1842e-002
14394	17.667	3.1	0.	1.1731e-002
14395	17.667	3.2	5.e-002	7.5679e-006
14396	17.964	3.2	0.	1.2304e-002
14397	17.865	3.1	0.	1.2169e-002
14398	17.865	3.2	5.e-002	6.8663e-006
14399	18.161	3.2	0.	1.2796e-002
14400	18.063	3.1	0.	1.2651e-002
14401	18.063	3.2	5.e-002	7.7123e-006
14402	18.359	3.2	0.	1.331e-002
14403	18.26	3.1	0.	1.3152e-002
14404	18.26	3.2	5.e-002	7.9674e-006
14405	18.557	3.2	0.	1.3864e-002
14406	18.458	3.1	0.	1.3681e-002
14407	18.458	3.2	5.e-002	6.7915e-006
14408	18.755	3.2	0.	1.4471e-002
14409	18.656	3.1	0.	1.426e-002
14410	18.656	3.2	5.e-002	7.2722e-006
14411	18.953	3.2	0.	1.5128e-002
14412	18.854	3.1	0.	1.4897e-002
14413	18.854	3.2	5.e-002	8.9516e-006
14414	19.151	3.2	0.	1.5829e-002
14415	19.052	3.1	0.	1.5576e-002
14416	19.052	3.2	5.e-002	1.0636e-005
14417	19.349	3.2	0.	1.6593e-002
14418	19.25	3.1	0.	1.6304e-002
14419	19.25	3.2	5.e-002	9.9434e-006
14420	19.547	3.2	0.	1.7438e-002
14421	19.448	3.1	0.	1.7109e-002
14422	19.448	3.2	5.e-002	7.5704e-006
14423	19.745	3.2	0.	1.8365e-002
14424	19.646	3.1	0.	1.8e-002
14425	19.646	3.2	5.e-002	8.7738e-006
14426	19.943	3.2	0.	1.9378e-002
14427	19.844	3.1	0.	1.897e-002
14428	19.844	3.2	5.e-002	1.0678e-005
14429	20.141	3.2	0.	2.0501e-002
14430	20.042	3.1	0.	2.0035e-002
14431	20.042	3.2	5.e-002	9.2769e-006
14432	20.339	3.2	0.	2.1758e-002
14433	20.24	3.1	0.	2.1225e-002
14434	20.24	3.2	5.e-002	9.2934e-006
14435	20.536	3.2	0.	2.3165e-002
14436	20.438	3.1	0.	2.256e-002
14437	20.438	3.2	5.e-002	1.1236e-005
14438	20.734	3.2	0.	2.4742e-002
14439	20.635	3.1	0.	2.405e-002
14440	20.635	3.2	5.e-002	1.1724e-005
14441	20.932	3.2	0.	2.6534e-002
14442	20.833	3.1	0.	2.5728e-002
14443	20.833	3.2	5.e-002	1.0324e-005
14444	21.13	3.2	0.	2.8591e-002
14445	21.031	3.1	0.	2.765e-002
14446	21.031	3.2	5.e-002	9.3683e-006
14447	21.328	3.2	0.	3.0967e-002
14448	21.229	3.1	0.	2.9862e-002
14449	21.229	3.2	5.e-002	9.7855e-006
14450	21.526	3.2	0.	3.3736e-002
14451	21.427	3.1	0.	3.2426e-002
14452	21.427	3.2	5.e-002	1.3578e-005
14453	21.724	3.2	0.	3.701e-002
14454	21.625	3.1	0.	3.5432e-002
14455	21.625	3.2	5.e-002	1.166e-005
14456	21.922	3.2	0.	4.0949e-002
14457	21.823	3.1	0.	3.9019e-002
14458	21.823	3.2	5.e-002	9.7869e-006
14459	22.12	3.2	0.	4.5759e-002
14460	22.021	3.1	0.	4.3368e-002
14461	22.021	3.2	5.e-002	8.8865e-006
14462	22.318	3.2	0.	5.1775e-002
14463	22.219	3.1	0.	4.8722e-002
14464	22.219	3.2	5.e-002	8.8783e-006
14465	22.516	3.2	0.	5.9422e-002
14466	22.417	3.1	0.	5.5525e-002
14467	22.417	3.2	5.e-002	1.078e-005
14468	22.714	3.2	0.	6.9781e-002
14469	22.615	3.1	0.	6.4217e-002
14470	22.615	3.2	5.e-002	6.8738e-006
14471	22.911	3.2	0.	8.3125e-002
14472	22.813	3.1	0.	7.6581e-002
14473	22.813	3.2	5.e-002	1.1566e-005
14474	23.109	3.2	0.	0.10644
14475	23.01	3.1	0.	9.1535e-002
14476	23.01	3.2	5.e-002	9.4317e-006
14477	23.307	3.2	0.	0.12788
14478	23.208	3.1	0.	0.12453
14479	23.208	3.2	5.e-002	7.4402e-006
14480	23.505	3.2	0.	0.23223
14481	23.406	3.1	0.	0.13772
14482	23.406	3.2	5.e-002	5.6535e-006
14483	23.703	3.2	0.	0.2015
14484	23.604	3.1	0.	0.34425
14485	23.604	3.2	5.e-002	9.5997e-006
14486	23.802	3.1	0.	0.14655
14487	23.802	3.2	5.e-002	9.737e-006
14488	23.901	3.2	0.	0.30234
14489	8.4635	3.	0.	0.75272
14490	8.3646	2.9	0.	-0.23928
14491	8.3646	3.	5.e-002	3.0518e-005
14492	8.6615	3.	0.	0.4453
14493	8.5625	2.9	0.	5.6378e-002
14494	8.5625	3.	5.e-002	1.5259e-005
14495	8.8594	3.	0.	0.7745
14496	8.7604	2.9	0.	0.71521
14497	8.7604	3.	5.e-002	1.4305e-005
14498	9.0573	3.	0.	-141.26
14499	8.9583	2.9	0.	-77.925
14500	8.9583	3.	5.e-002	7.6294e-006
14501	9.2552	3.	0.	-256.11
14502	9.1563	2.9	0.	-217.94
14503	9.1563	3.	5.e-002	1.9073e-006
14504	9.4531	3.	0.	-320.6
14505	9.3542	2.9	0.	-300.13
14506	9.3542	3.	5.e-002	-2.278e-011
14507	9.651	3.	0.	-350.16
14508	9.5521	2.9	0.	-341.55
14509	9.5521	3.	5.e-002	-1.9891e-011
14510	9.849	3.	0.	-356.99
14511	9.75	2.9	0.	-356.09
14512	9.75	3.	5.e-002	-1.7755e-011
14513	10.047	3.	0.	-349.67
14514	9.9479	2.9	0.	-353.62
14515	9.9479	3.	5.e-002	-3.8147e-006
14516	10.245	3.	0.	-333.99
14517	10.146	2.9	0.	-340.85
14518	10.146	3.	5.e-002	-1.4705e-011
14519	10.443	3.	0.	-313.71
14520	10.344	2.9	0.	-322.2
14521	10.344	3.	5.e-002	-3.8147e-006
14522	10.641	3.	0.	-291.28
14523	10.542	2.9	0.	-300.55
14524	10.542	3.	5.e-002	-9.6753e-012
14525	10.839	3.	0.	-268.23
14526	10.74	2.9	0.	-277.72
14527	10.74	3.	5.e-002	-1.0113e-011
14528	11.036	3.	0.	-245.54
14529	10.937	2.9	0.	-254.9
14530	10.937	3.	5.e-002	-1.9074e-006
14531	11.234	3.	0.	-223.78
14532	11.135	2.9	0.	-232.78
14533	11.135	3.	5.e-002	-3.8147e-006
14534	11.432	3.	0.	-203.26
14535	11.333	2.9	0.	-211.79
14536	11.333	3.	5.e-002	-3.8147e-006
14537	11.63	3.	0.	-184.16
14538	11.531	2.9	0.	-192.14
14539	11.531	3.	5.e-002	-5.7221e-006
14540	11.828	3.	0.	-166.52
14541	11.729	2.9	0.	-173.93
14542	11.729	3.	5.e-002	-1.9074e-006
14543	12.026	3.	0.	-150.32
14544	11.927	2.9	0.	-157.16
14545	11.927	3.	5.e-002	-6.3526e-012
14546	12.224	3.	0.	-135.51
14547	12.125	2.9	0.	-141.8
14548	12.125	3.	5.e-002	-1.5562e-012
14549	12.422	3.	0.	-122.
14550	12.323	2.9	0.	-127.77
14551	12.323	3.	5.e-002	9.5367e-007
14552	12.62	3.	0.	-109.7
14553	12.521	2.9	0.	-114.98
14554	12.521	3.	5.e-002	1.9073e-006
14555	12.818	3.	0.	-98.511
14556	12.719	2.9	0.	-103.34
14557	12.719	3.	5.e-002	1.9073e-006
14558	13.016	3.	0.	-88.337
14559	12.917	2.9	0.	-92.749
14560	12.917	3.	5.e-002	1.9073e-006
14561	13.214	3.	0.	-79.083
14562	13.115	2.9	0.	-83.116
14563	13.115	3.	5.e-002	9.5367e-007
14564	13.411	3.	0.	-70.66
14565	13.313	2.9	0.	-74.349
14566	13.313	3.	5.e-002	-1.7598e-012
14567	13.609	3.	0.	-62.988
14568	13.51	2.9	0.	-66.364
14569	13.51	3.	5.e-002	1.4305e-006
14570	13.807	3.	0.	-55.991
14571	13.708	2.9	0.	-59.084
14572	13.708	3.	5.e-002	-3.774e-012
14573	14.005	3.	0.	-49.6
14574	13.906	2.9	0.	-52.438
14575	13.906	3.	5.e-002	2.861e-006
14576	14.203	3.	0.	-43.752
14577	14.104	2.9	0.	-46.361
14578	14.104	3.	5.e-002	2.861e-006
14579	14.401	3.	0.	-38.393
14580	14.302	2.9	0.	-40.795
14581	14.302	3.	5.e-002	2.861e-006
14582	14.599	3.	0.	-33.469
14583	14.5	2.9	0.	-35.686
14584	14.5	3.	5.e-002	2.861e-006
14585	14.797	3.	0.	-28.936
14586	14.698	2.9	0.	-30.987
14587	14.698	3.	5.e-002	4.2915e-006
14588	14.995	3.	0.	-24.751
14589	14.896	2.9	0.	-26.654
14590	14.896	3.	5.e-002	3.5763e-006
14591	15.193	3.	0.	-20.877
14592	15.094	2.9	0.	-22.647
14593	15.094	3.	5.e-002	4.7684e-006
14594	15.391	3.	0.	-17.279
14595	15.292	2.9	0.	-18.932
14596	15.292	3.	5.e-002	4.0531e-006
14597	15.589	3.	0.	-13.926
14598	15.49	2.9	0.	-15.475
14599	15.49	3.	5.e-002	3.6955e-006
14600	15.786	3.	0.	-10.788
14601	15.688	2.9	0.	-12.246
14602	15.688	3.	5.e-002	4.8876e-006
14603	15.984	3.	0.	-7.8398
14604	15.885	2.9	0.	-9.2192
14605	15.885	3.	5.e-002	4.4107e-006
14606	16.182	3.	0.	-5.0564
14607	16.083	2.9	0.	-6.3677
14608	16.083	3.	5.e-002	6.1095e-006
14609	16.38	3.	0.	-2.415
14610	16.281	2.9	0.	-3.6686
14611	16.281	3.	5.e-002	5.8562e-006
14612	16.578	3.	0.	9.783e-003
14613	16.479	2.9	0.	-1.1
14614	16.479	3.	5.e-002	6.1691e-006
14615	16.776	3.	0.	1.0095e-002
14616	16.677	2.9	0.	9.7896e-003
14617	16.677	3.	5.e-002	6.1542e-006
14618	16.974	3.	0.	1.0425e-002
14619	16.875	2.9	0.	1.0189e-002
14620	16.875	3.	5.e-002	6.6534e-006
14621	17.172	3.	0.	1.0787e-002
14622	17.073	2.9	0.	1.0551e-002
14623	17.073	3.	5.e-002	7.6294e-006
14624	17.37	3.	0.	1.1171e-002
14625	17.271	2.9	0.	1.0938e-002
14626	17.271	3.	5.e-002	6.0201e-006
14627	17.568	3.	0.	1.1563e-002
14628	17.469	2.9	0.	1.1329e-002
14629	17.469	3.	5.e-002	5.126e-006
14630	17.766	3.	0.	1.1982e-002
14631	17.667	2.9	0.	1.173e-002
14632	17.667	3.	5.e-002	6.9141e-006
14633	17.964	3.	0.	1.2441e-002
14634	17.865	2.9	0.	1.2169e-002
14635	17.865	3.	5.e-002	6.3181e-006
14636	18.161	3.	0.	1.2932e-002
14637	18.063	2.9	0.	1.2651e-002
14638	18.063	3.	5.e-002	7.391e-006
14639	18.359	3.	0.	1.3447e-002
14640	18.26	2.9	0.	1.3152e-002
14641	18.26	3.	5.e-002	7.1526e-006
14642	18.557	3.	0.	1.4e-002
14643	18.458	2.9	0.	1.3681e-002
14644	18.458	3.	5.e-002	6.6757e-006
14645	18.755	3.	0.	1.4607e-002
14646	18.656	2.9	0.	1.426e-002
14647	18.656	3.	5.e-002	7.1526e-006
14648	18.953	3.	0.	1.5265e-002
14649	18.854	2.9	0.	1.4898e-002
14650	18.854	3.	5.e-002	8.8215e-006
14651	19.151	3.	0.	1.5968e-002
14652	19.052	2.9	0.	1.5576e-002
14653	19.052	3.	5.e-002	1.0014e-005
14654	19.349	3.	0.	1.6735e-002
14655	19.25	2.9	0.	1.6306e-002
14656	19.25	3.	5.e-002	9.7752e-006
14657	19.547	3.	0.	1.7582e-002
14658	19.448	2.9	0.	1.7109e-002
14659	19.448	3.	5.e-002	7.8678e-006
14660	19.745	3.	0.	1.8512e-002
14661	19.646	2.9	0.	1.8001e-002
14662	19.646	3.	5.e-002	8.1062e-006
14663	19.943	3.	0.	1.9529e-002
14664	19.844	2.9	0.	1.897e-002
14665	19.844	3.	5.e-002	9.5367e-006
14666	20.141	3.	0.	2.0654e-002
14667	20.042	2.9	0.	2.0035e-002
14668	20.042	3.	5.e-002	8.5831e-006
14669	20.339	3.	0.	2.1916e-002
14670	20.24	2.9	0.	2.1224e-002
14671	20.24	3.	5.e-002	8.5831e-006
14672	20.536	3.	0.	2.3326e-002
14673	20.438	2.9	0.	2.256e-002
14674	20.438	3.	5.e-002	1.0967e-005
14675	20.734	3.	0.	2.4906e-002
14676	20.635	2.9	0.	2.405e-002
14677	20.635	3.	5.e-002	1.1444e-005
14678	20.932	3.	0.	2.6702e-002
14679	20.833	2.9	0.	2.5728e-002
14680	20.833	3.	5.e-002	9.0599e-006
14681	21.13	3.	0.	2.8763e-002
14682	21.031	2.9	0.	2.765e-002
14683	21.031	3.	5.e-002	1.049e-005
14684	21.328	3.	0.	3.1142e-002
14685	21.229	2.9	0.	2.9862e-002
14686	21.229	3.	5.e-002	8.5831e-006
14687	21.526	3.	0.	3.3915e-002
14688	21.427	2.9	0.	3.2425e-002
14689	21.427	3.	5.e-002	1.1444e-005
14690	21.724	3.	0.	3.7196e-002
14691	21.625	2.9	0.	3.5432e-002
14692	21.625	3.	5.e-002	7.6294e-006
14693	21.922	3.	0.	4.1141e-002
14694	21.823	2.9	0.	3.9019e-002
14695	21.823	3.	5.e-002	9.5367e-006
14696	22.12	3.	0.	4.5956e-002
14697	22.021	2.9	0.	4.3368e-002
14698	22.021	3.	5.e-002	7.6294e-006
14699	22.318	3.	0.	5.1979e-002
14700	22.219	2.9	0.	4.8723e-002
14701	22.219	3.	5.e-002	7.6294e-006
14702	22.516	3.	0.	5.9636e-002
14703	22.417	2.9	0.	5.5524e-002
14704	22.417	3.	5.e-002	9.5367e-006
14705	22.714	3.	0.	7.0006e-002
14706	22.615	2.9	0.	6.4217e-002
14707	22.615	3.	5.e-002	6.6757e-006
14708	22.911	3.	0.	8.3364e-002
14709	22.813	2.9	0.	7.6582e-002
14710	22.813	3.	5.e-002	9.5367e-006
14711	23.109	3.	0.	0.1067
14712	23.01	2.9	0.	9.1535e-002
14713	23.01	3.	5.e-002	7.6294e-006
14714	23.307	3.	0.	0.12817
14715	23.208	2.9	0.	0.12453
14716	23.208	3.	5.e-002	7.6294e-006
14717	23.505	3.	0.	0.23259
14718	23.406	2.9	0.	0.13772
14719	23.406	3.	5.e-002	5.722e-006
14720	23.703	3.	0.	0.20206
14721	23.604	2.9	0.	0.34425
14722	23.604	3.	5.e-002	1.1444e-005
14723	23.802	2.9	0.	0.14655
14724	23.802	3.	5.e-002	5.722e-006
14725	23.901	3.	0.	0.3025
14726	8.4635	2.8	0.	-1.0709
14727	8.3646	2.7	0.	1.9556
14728	8.3646	2.8	5.e-002	3.639e-005
14729	8.6615	2.8	0.	0.16118
14730	8.5625	2.7	0.	0.2451
14731	8.5625	2.8	5.e-002	-5.9998e-006
14732	8.8594	2.8	0.	-0.13127
14733	8.7604	2.7	0.	-0.33907
14734	8.7604	2.8	5.e-002	-1.2463e-005
14735	9.0573	2.8	0.	-148.4
14736	8.9583	2.7	0.	-95.048
14737	8.9583	2.8	5.e-002	-1.1457e-005
14738	9.2552	2.8	0.	-258.31
14739	9.1563	2.7	0.	-224.
14740	9.1563	2.8	5.e-002	-1.0165e-005
14741	9.4531	2.8	0.	-319.1
14742	9.3542	2.7	0.	-297.99
14743	9.3542	2.8	5.e-002	5.5219e-007
14744	9.651	2.8	0.	-346.46
14745	9.5521	2.7	0.	-334.5
14746	9.5521	2.8	5.e-002	-1.8884e-006
14747	9.849	2.8	0.	-352.21
14748	9.75	2.7	0.	-346.56
14749	9.75	2.8	5.e-002	2.1676e-006
14750	10.047	2.8	0.	-344.55
14751	9.9479	2.7	0.	-343.2
14752	9.9479	2.8	5.e-002	-3.3811e-006
14753	10.245	2.8	0.	-328.95
14754	10.146	2.7	0.	-330.48
14755	10.146	2.8	5.e-002	-1.1406e-006
14756	10.443	2.8	0.	-308.98
14757	10.344	2.7	0.	-312.39
14758	10.344	2.8	5.e-002	-8.1549e-007
14759	10.641	2.8	0.	-286.97
14760	10.542	2.7	0.	-291.54
14761	10.542	2.8	5.e-002	4.3407e-007
14762	10.839	2.8	0.	-264.37
14763	10.74	2.7	0.	-269.63
14764	10.74	2.8	5.e-002	-5.1021e-006
14765	11.036	2.8	0.	-242.13
14766	10.937	2.7	0.	-247.72
14767	10.937	2.8	5.e-002	-9.8847e-007
14768	11.234	2.8	0.	-220.79
14769	11.135	2.7	0.	-226.48
14770	11.135	2.8	5.e-002	-6.875e-007
14771	11.432	2.8	0.	-200.66
14772	11.333	2.7	0.	-206.29
14773	11.333	2.8	5.e-002	-2.2992e-006
14774	11.63	2.8	0.	-181.9
14775	11.531	2.7	0.	-187.36
14776	11.531	2.8	5.e-002	-1.5297e-006
14777	11.828	2.8	0.	-164.57
14778	11.729	2.7	0.	-169.79
14779	11.729	2.8	5.e-002	-3.4404e-007
14780	12.026	2.8	0.	-148.63
14781	11.927	2.7	0.	-153.58
14782	11.927	2.8	5.e-002	-1.0125e-006
14783	12.224	2.8	0.	-134.05
14784	12.125	2.7	0.	-138.71
14785	12.125	2.8	5.e-002	-3.5126e-006
14786	12.422	2.8	0.	-120.74
14787	12.323	2.7	0.	-125.1
14788	12.323	2.8	5.e-002	-2.4017e-007
14789	12.62	2.8	0.	-108.61
14790	12.521	2.7	0.	-112.67
14791	12.521	2.8	5.e-002	1.4102e-006
14792	12.818	2.8	0.	-97.569
14793	12.719	2.7	0.	-101.34
14794	12.719	2.8	5.e-002	3.0899e-006
14795	13.016	2.8	0.	-87.52
14796	12.917	2.7	0.	-91.018
14797	12.917	2.8	5.e-002	9.4239e-007
14798	13.214	2.8	0.	-78.373
14799	13.115	2.7	0.	-81.612
14800	13.115	2.8	5.e-002	7.9702e-007
14801	13.411	2.8	0.	-70.042
14802	13.313	2.7	0.	-73.039
14803	13.313	2.8	5.e-002	6.8417e-007
14804	13.609	2.8	0.	-62.448
14805	13.51	2.7	0.	-65.221
14806	13.51	2.8	5.e-002	5.6089e-007
14807	13.807	2.8	0.	-55.518
14808	13.708	2.7	0.	-58.084
14809	13.708	2.8	5.e-002	1.8832e-006
14810	14.005	2.8	0.	-49.184
14811	13.906	2.7	0.	-51.56
14812	13.906	2.8	5.e-002	2.7825e-006
14813	14.203	2.8	0.	-43.387
14814	14.104	2.7	0.	-45.588
14815	14.104	2.8	5.e-002	2.7444e-006
14816	14.401	2.8	0.	-38.07
14817	14.302	2.7	0.	-40.113
14818	14.302	2.8	5.e-002	3.1624e-006
14819	14.599	2.8	0.	-33.184
14820	14.5	2.7	0.	-35.084
14821	14.5	2.8	5.e-002	3.5822e-006
14822	14.797	2.8	0.	-28.684
14823	14.698	2.7	0.	-30.454
14824	14.698	2.8	5.e-002	3.5433e-006
14825	14.995	2.8	0.	-24.528
14826	14.896	2.7	0.	-26.182
14827	14.896	2.8	5.e-002	3.2668e-006
14828	15.193	2.8	0.	-20.679
14829	15.094	2.7	0.	-22.229
14830	15.094	2.8	5.e-002	4.1933e-006
14831	15.391	2.8	0.	-17.103
14832	15.292	2.7	0.	-18.561
14833	15.292	2.8	5.e-002	3.5701e-006
14834	15.589	2.8	0.	-13.77
14835	15.49	2.7	0.	-15.146
14836	15.49	2.8	5.e-002	3.3113e-006
14837	15.786	2.8	0.	-10.651
14838	15.688	2.7	0.	-11.956
14839	15.688	2.8	5.e-002	4.6069e-006
14840	15.984	2.8	0.	-7.7191
14841	15.885	2.7	0.	-8.9628
14842	15.885	2.8	5.e-002	3.9937e-006
14843	16.182	2.8	0.	-4.9509
14844	16.083	2.7	0.	-6.1427
14845	16.083	2.8	5.e-002	5.6189e-006
14846	16.38	2.8	0.	-2.3236
14847	16.281	2.7	0.	-3.4727
14848	16.281	2.8	5.e-002	5.3979e-006
14849	16.578	2.8	0.	5.6945e-003
14850	16.479	2.7	0.	-0.93206
14851	16.479	2.8	5.e-002	5.803e-006
14852	16.776	2.8	0.	9.7474e-003
14853	16.677	2.7	0.	8.7078e-003
14854	16.677	2.8	5.e-002	5.7145e-006
14855	16.974	2.8	0.	1.0205e-002
14856	16.875	2.7	0.	9.6724e-003
14857	16.875	2.8	5.e-002	6.4749e-006
14858	17.172	2.8	0.	1.0609e-002
14859	17.073	2.7	0.	1.0165e-002
14860	17.073	2.8	5.e-002	7.1916e-006
14861	17.37	2.8	0.	1.1013e-002
14862	17.271	2.7	0.	1.0607e-002
14863	17.271	2.8	5.e-002	5.5098e-006
14864	17.568	2.8	0.	1.1416e-002
14865	17.469	2.7	0.	1.1026e-002
14866	17.469	2.8	5.e-002	4.9639e-006
14867	17.766	2.8	0.	1.1841e-002
14868	17.667	2.7	0.	1.1442e-002
14869	17.667	2.8	5.e-002	6.3797e-006
14870	17.964	2.8	0.	1.2304e-002
14871	17.865	2.7	0.	1.1892e-002
14872	17.865	2.8	5.e-002	5.8878e-006
14873	18.161	2.8	0.	1.2796e-002
14874	18.063	2.7	0.	1.2377e-002
14875	18.063	2.8	5.e-002	6.9487e-006
14876	18.359	2.8	0.	1.3311e-002
14877	18.26	2.7	0.	1.2882e-002
14878	18.26	2.8	5.e-002	6.0971e-006
14879	18.557	2.8	0.	1.3864e-002
14880	18.458	2.7	0.	1.3409e-002
14881	18.458	2.8	5.e-002	5.6061e-006
14882	18.755	2.8	0.	1.4472e-002
14883	18.656	2.7	0.	1.3988e-002
14884	18.656	2.8	5.e-002	6.317e-006
14885	18.953	2.8	0.	1.5128e-002
14886	18.854	2.7	0.	1.4624e-002
14887	18.854	2.8	5.e-002	7.9737e-006
14888	19.151	2.8	0.	1.583e-002
14889	19.052	2.7	0.	1.5298e-002
14890	19.052	2.8	5.e-002	9.1523e-006
14891	19.349	2.8	0.	1.6594e-002
14892	19.25	2.7	0.	1.6025e-002
14893	19.25	2.8	5.e-002	8.8953e-006
14894	19.547	2.8	0.	1.7438e-002
14895	19.448	2.7	0.	1.6822e-002
14896	19.448	2.8	5.e-002	6.2573e-006
14897	19.745	2.8	0.	1.8366e-002
14898	19.646	2.7	0.	1.771e-002
14899	19.646	2.8	5.e-002	7.4392e-006
14900	19.943	2.8	0.	1.9378e-002
14901	19.844	2.7	0.	1.8673e-002
14902	19.844	2.8	5.e-002	8.3945e-006
14903	20.141	2.8	0.	2.0501e-002
14904	20.042	2.7	0.	1.9732e-002
14905	20.042	2.8	5.e-002	7.8935e-006
14906	20.339	2.8	0.	2.1758e-002
14907	20.24	2.7	0.	2.0914e-002
14908	20.24	2.8	5.e-002	7.8765e-006
14909	20.536	2.8	0.	2.3165e-002
14910	20.438	2.7	0.	2.2242e-002
14911	20.438	2.8	5.e-002	9.2703e-006
14912	20.734	2.8	0.	2.4743e-002
14913	20.635	2.7	0.	2.3725e-002
14914	20.635	2.8	5.e-002	9.7392e-006
14915	20.932	2.8	0.	2.6534e-002
14916	20.833	2.7	0.	2.5396e-002
14917	20.833	2.8	5.e-002	7.8023e-006
14918	21.13	2.8	0.	2.8591e-002
14919	21.031	2.7	0.	2.7309e-002
14920	21.031	2.8	5.e-002	8.7488e-006
14921	21.328	2.8	0.	3.0966e-002
14922	21.229	2.7	0.	2.9512e-002
14923	21.229	2.8	5.e-002	8.3415e-006
14924	21.526	2.8	0.	3.3734e-002
14925	21.427	2.7	0.	3.2065e-002
14926	21.427	2.8	5.e-002	9.3156e-006
14927	21.724	2.8	0.	3.701e-002
14928	21.625	2.7	0.	3.5063e-002
14929	21.625	2.8	5.e-002	8.3714e-006
14930	21.922	2.8	0.	4.0949e-002
14931	21.823	2.7	0.	3.8639e-002
14932	21.823	2.8	5.e-002	7.3779e-006
14933	22.12	2.8	0.	4.576e-002
14934	22.021	2.7	0.	4.2976e-002
14935	22.021	2.8	5.e-002	5.4148e-006
14936	22.318	2.8	0.	5.1775e-002
14937	22.219	2.7	0.	4.8317e-002
14938	22.219	2.8	5.e-002	7.3242e-006
14939	22.516	2.8	0.	5.9422e-002
14940	22.417	2.7	0.	5.5101e-002
14941	22.417	2.8	5.e-002	7.3383e-006
14942	22.714	2.8	0.	6.9781e-002
14943	22.615	2.7	0.	6.3774e-002
14944	22.615	2.8	5.e-002	6.4731e-006
14945	22.911	2.8	0.	8.3126e-002
14946	22.813	2.7	0.	7.6112e-002
14947	22.813	2.8	5.e-002	7.4995e-006
14948	23.109	2.8	0.	0.10644
14949	23.01	2.7	0.	9.1032e-002
14950	23.01	2.8	5.e-002	1.1537e-005
14951	23.307	2.8	0.	0.12788
14952	23.208	2.7	0.	0.12397
14953	23.208	2.8	5.e-002	3.9826e-006
14954	23.505	2.8	0.	0.23223
14955	23.406	2.7	0.	0.1371
14956	23.406	2.8	5.e-002	5.7767e-006
14957	23.703	2.8	0.	0.2015
14958	23.604	2.7	0.	0.34337
14959	23.604	2.8	5.e-002	7.559e-006
14960	23.802	2.7	0.	0.14486
14961	23.802	2.8	5.e-002	5.5109e-006
14962	23.901	2.8	0.	0.30234
14963	8.4635	2.6	0.	2.9979
14964	8.3646	2.5	0.	-4.5656
14965	8.3646	2.6	5.e-002	2.3857e-005
14966	8.6615	2.6	0.	-0.33182
14967	8.5625	2.5	0.	-6.5392
14968	8.5625	2.6	5.e-002	-3.6254e-006
14969	8.8594	2.6	0.	-10.229
14970	8.7604	2.5	0.	0.73467
14971	8.7604	2.6	5.e-002	-2.9598e-005
14972	9.0573	2.6	0.	-165.08
14973	8.9583	2.5	0.	-116.5
14974	8.9583	2.6	5.e-002	-2.461e-005
14975	9.2552	2.6	0.	-260.78
14976	9.1563	2.5	0.	-226.29
14977	9.1563	2.6	5.e-002	-1.2412e-005
14978	9.4531	2.6	0.	-311.93
14979	9.3542	2.5	0.	-287.64
14980	9.3542	2.6	5.e-002	-8.778e-006
14981	9.651	2.6	0.	-333.88
14982	9.5521	2.5	0.	-317.1
14983	9.5521	2.6	5.e-002	-3.3206e-006
14984	9.849	2.6	0.	-337.21
14985	9.75	2.5	0.	-325.96
14986	9.75	2.6	5.e-002	1.1686e-006
14987	10.047	2.6	0.	-328.97
14988	9.9479	2.5	0.	-321.81
14989	9.9479	2.6	5.e-002	5.3325e-007
14990	10.245	2.6	0.	-313.84
14991	10.146	2.5	0.	-309.7
14992	10.146	2.6	5.e-002	3.4317e-006
14993	10.443	2.6	0.	-294.91
14994	10.344	2.5	0.	-292.98
14995	10.344	2.6	5.e-002	2.6726e-006
14996	10.641	2.6	0.	-274.19
14997	10.542	2.5	0.	-273.87
14998	10.542	2.6	5.e-002	-6.2399e-006
14999	10.839	2.6	0.	-252.97
15000	10.74	2.5	0.	-253.8
15001	10.74	2.6	5.e-002	1.1708e-006
15002	11.036	2.6	0.	-232.06
15003	10.937	2.5	0.	-233.72
15004	10.937	2.6	5.e-002	1.387e-006
15005	11.234	2.6	0.	-211.97
15006	11.135	2.5	0.	-214.19
15007	11.135	2.6	5.e-002	-1.6346e-006
15008	11.432	2.6	0.	-192.99
15009	11.333	2.5	0.	-195.57
15010	11.333	2.6	5.e-002	-3.5496e-006
15011	11.63	2.6	0.	-175.25
15012	11.531	2.5	0.	-178.05
15013	11.531	2.6	5.e-002	-9.5045e-007
15014	11.828	2.6	0.	-158.81
15015	11.729	2.5	0.	-161.73
15016	11.729	2.6	5.e-002	6.51e-007
15017	12.026	2.6	0.	-143.66
15018	11.927	2.5	0.	-146.61
15019	11.927	2.6	5.e-002	1.2928e-006
15020	12.224	2.6	0.	-129.75
15021	12.125	2.5	0.	-132.68
15022	12.125	2.6	5.e-002	-1.6258e-006
15023	12.422	2.6	0.	-117.02
15024	12.323	2.5	0.	-119.88
15025	12.323	2.6	5.e-002	6.9972e-007
15026	12.62	2.6	0.	-105.4
15027	12.521	2.5	0.	-108.16
15028	12.521	2.6	5.e-002	8.1054e-007
15029	12.818	2.6	0.	-94.784
15030	12.719	2.5	0.	-97.433
15031	12.719	2.6	5.e-002	2.208e-006
15032	13.016	2.6	0.	-85.102
15033	12.917	2.5	0.	-87.626
15034	12.917	2.6	5.e-002	1.7772e-006
15035	13.214	2.6	0.	-76.269
15036	13.115	2.5	0.	-78.662
15037	13.115	2.6	5.e-002	1.5833e-006
15038	13.411	2.6	0.	-68.208
15039	13.313	2.5	0.	-70.467
15040	13.313	2.6	5.e-002	1.392e-006
15041	13.609	2.6	0.	-60.844
15042	13.51	2.5	0.	-62.973
15043	13.51	2.6	5.e-002	1.0359e-006
15044	13.807	2.6	0.	-54.112
15045	13.708	2.5	0.	-56.114
15046	13.708	2.6	5.e-002	1.3919e-006
15047	14.005	2.6	0.	-47.949
15048	13.906	2.5	0.	-49.83
15049	13.906	2.6	5.e-002	3.1381e-006
15050	14.203	2.6	0.	-42.299
15051	14.104	2.5	0.	-44.065
15052	14.104	2.6	5.e-002	3.0868e-006
15053	14.401	2.6	0.	-37.11
15054	14.302	2.5	0.	-38.769
15055	14.302	2.6	5.e-002	2.49e-006
15056	14.599	2.6	0.	-32.335
15057	14.5	2.5	0.	-33.895
15058	14.5	2.6	5.e-002	3.1161e-006
15059	14.797	2.6	0.	-27.931
15060	14.698	2.5	0.	-29.4
15061	14.698	2.6	5.e-002	3.4942e-006
15062	14.995	2.6	0.	-23.861
15063	14.896	2.5	0.	-25.247
15064	14.896	2.6	5.e-002	3.4292e-006
15065	15.193	2.6	0.	-20.087
15066	15.094	2.5	0.	-21.399
15067	15.094	2.6	5.e-002	4.0935e-006
15068	15.391	2.6	0.	-16.579
15069	15.292	2.5	0.	-17.825
15070	15.292	2.6	5.e-002	3.79e-006
15071	15.589	2.6	0.	-13.306
15072	15.49	2.5	0.	-14.494
15073	15.49	2.6	5.e-002	3.1602e-006
15074	15.786	2.6	0.	-10.241
15075	15.688	2.5	0.	-11.378
15076	15.688	2.6	5.e-002	4.6778e-006
15077	15.984	2.6	0.	-7.3583
15078	15.885	2.5	0.	-8.4532
15079	15.885	2.6	5.e-002	4.4093e-006
15080	16.182	2.6	0.	-4.6354
15081	16.083	2.5	0.	-5.6954
15082	16.083	2.6	5.e-002	5.8091e-006
15083	16.38	2.6	0.	-2.0504
15084	16.281	2.5	0.	-3.083
15085	16.281	2.6	5.e-002	5.6217e-006
15086	16.578	2.6	0.	2.7128e-003
15087	16.479	2.5	0.	-0.59999
15088	16.479	2.6	5.e-002	6.1949e-006
15089	16.776	2.6	0.	8.793e-003
15090	16.677	2.5	0.	7.044e-003
15091	16.677	2.6	5.e-002	5.9593e-006
15092	16.974	2.6	0.	9.5681e-003
15093	16.875	2.5	0.	8.7202e-003
15094	16.875	2.6	5.e-002	6.3031e-006
15095	17.172	2.6	0.	1.0086e-002
15096	17.073	2.5	0.	9.4231e-003
15097	17.073	2.6	5.e-002	7.3783e-006
15098	17.37	2.6	0.	1.0544e-002
15099	17.271	2.5	0.	9.9573e-003
15100	17.271	2.6	5.e-002	5.7145e-006
15101	17.568	2.6	0.	1.0977e-002
15102	17.469	2.5	0.	1.0425e-002
15103	17.469	2.6	5.e-002	5.0395e-006
15104	17.766	2.6	0.	1.142e-002
15105	17.667	2.5	0.	1.087e-002
15106	17.667	2.6	5.e-002	6.4403e-006
15107	17.964	2.6	0.	1.1892e-002
15108	17.865	2.5	0.	1.1335e-002
15109	17.865	2.6	5.e-002	6.6491e-006
15110	18.161	2.6	0.	1.2388e-002
15111	18.063	2.5	0.	1.1829e-002
15112	18.063	2.6	5.e-002	6.6285e-006
15113	18.359	2.6	0.	1.2904e-002
15114	18.26	2.5	0.	1.2336e-002
15115	18.26	2.6	5.e-002	6.2402e-006
15116	18.557	2.6	0.	1.3456e-002
15117	18.458	2.5	0.	1.2864e-002
15118	18.458	2.6	5.e-002	5.4903e-006
15119	18.755	2.6	0.	1.4061e-002
15120	18.656	2.5	0.	1.3439e-002
15121	18.656	2.6	5.e-002	5.9672e-006
15122	18.953	2.6	0.	1.4713e-002
15123	18.854	2.5	0.	1.4069e-002
15124	18.854	2.6	5.e-002	7.3583e-006
15125	19.151	2.6	0.	1.5409e-002
15126	19.052	2.5	0.	1.4738e-002
15127	19.052	2.6	5.e-002	9.0123e-006
15128	19.349	2.6	0.	1.6167e-002
15129	19.25	2.5	0.	1.5454e-002
15130	19.25	2.6	5.e-002	8.9651e-006
15131	19.547	2.6	0.	1.7003e-002
15132	19.448	2.5	0.	1.6244e-002
15133	19.448	2.6	5.e-002	6.5606e-006
15134	19.745	2.6	0.	1.7922e-002
15135	19.646	2.5	0.	1.7118e-002
15136	19.646	2.6	5.e-002	7.2556e-006
15137	19.943	2.6	0.	1.8927e-002
15138	19.844	2.5	0.	1.807e-002
15139	19.844	2.6	5.e-002	8.6927e-006
15140	20.141	2.6	0.	2.0039e-002
15141	20.042	2.5	0.	1.9117e-002
15142	20.042	2.6	5.e-002	6.7318e-006
15143	20.339	2.6	0.	2.1285e-002
15144	20.24	2.5	0.	2.0283e-002
15145	20.24	2.6	5.e-002	7.172e-006
15146	20.536	2.6	0.	2.268e-002
15147	20.438	2.5	0.	2.1596e-002
15148	20.438	2.6	5.e-002	8.0636e-006
15149	20.734	2.6	0.	2.4247e-002
15150	20.635	2.5	0.	2.3063e-002
15151	20.635	2.6	5.e-002	9.4801e-006
15152	20.932	2.6	0.	2.6027e-002
15153	20.833	2.5	0.	2.4718e-002
15154	20.833	2.6	5.e-002	7.0336e-006
15155	21.13	2.6	0.	2.8069e-002
15156	21.031	2.5	0.	2.6612e-002
15157	21.031	2.6	5.e-002	8.4563e-006
15158	21.328	2.6	0.	3.0429e-002
15159	21.229	2.5	0.	2.8796e-002
15160	21.229	2.6	5.e-002	6.1859e-006
15161	21.526	2.6	0.	3.3184e-002
15162	21.427	2.5	0.	3.133e-002
15163	21.427	2.6	5.e-002	9.1073e-006
15164	21.724	2.6	0.	3.6445e-002
15165	21.625	2.5	0.	3.4307e-002
15166	21.625	2.6	5.e-002	7.2146e-006
15167	21.922	2.6	0.	4.0365e-002
15168	21.823	2.5	0.	3.786e-002
15169	21.823	2.6	5.e-002	7.1426e-006
15170	22.12	2.6	0.	4.5155e-002
15171	22.021	2.5	0.	4.217e-002
15172	22.021	2.6	5.e-002	4.1566e-006
15173	22.318	2.6	0.	5.1147e-002
15174	22.219	2.5	0.	4.7482e-002
15175	22.219	2.6	5.e-002	5.1099e-006
15176	22.516	2.6	0.	5.8767e-002
15177	22.417	2.5	0.	5.4232e-002
15178	22.417	2.6	5.e-002	7.0435e-006
15179	22.714	2.6	0.	6.9091e-002
15180	22.615	2.5	0.	6.2862e-002
15181	22.615	2.6	5.e-002	5.3032e-006
15182	22.911	2.6	0.	8.2391e-002
15183	22.813	2.5	0.	7.5146e-002
15184	22.813	2.6	5.e-002	8.3065e-006
15185	23.109	2.6	0.	0.10564
15186	23.01	2.5	0.	8.9996e-002
15187	23.01	2.6	5.e-002	7.8017e-006
15188	23.307	2.6	0.	0.12699
15189	23.208	2.5	0.	0.12282
15190	23.208	2.6	5.e-002	2.2135e-006
15191	23.505	2.6	0.	0.23112
15192	23.406	2.5	0.	0.13581
15193	23.406	2.6	5.e-002	3.8908e-006
15194	23.703	2.6	0.	0.1998
15195	23.604	2.5	0.	0.34156
15196	23.604	2.6	5.e-002	7.4703e-006
15197	23.802	2.5	0.	0.14142
15198	23.802	2.6	5.e-002	7.1633e-006
15199	23.901	2.6	0.	0.30182
15200	8.4635	2.4	0.	-14.345
15201	8.3646	2.3	0.	-6.9344
15202	8.3646	2.4	5.e-002	1.0374e-004
15203	8.6615	2.4	0.	-5.0162
15204	8.5625	2.3	0.	8.0039
15205	8.5625	2.4	5.e-002	-8.118e-007
15206	8.8594	2.4	0.	-39.107
15207	8.7604	2.3	0.	-0.69315
15208	8.7604	2.4	5.e-002	-2.6436e-005
15209	9.0573	2.4	0.	-174.06
15210	8.9583	2.3	0.	-113.72
15211	8.9583	2.4	5.e-002	-1.0392e-005
15212	9.2552	2.4	0.	-251.68
15213	9.1563	2.3	0.	-207.96
15214	9.1563	2.4	5.e-002	-1.0092e-005
15215	9.4531	2.4	0.	-292.23
15216	9.3542	2.3	0.	-259.78
15217	9.3542	2.4	5.e-002	8.9384e-006
15218	9.651	2.4	0.	-308.96
15219	9.5521	2.3	0.	-284.78
15220	9.5521	2.4	5.e-002	1.6804e-005
15221	9.849	2.4	0.	-310.48
15222	9.75	2.3	0.	-292.38
15223	9.75	2.4	5.e-002	1.3668e-005
15224	10.047	2.4	0.	-302.52
15225	9.9479	2.3	0.	-288.98
15226	9.9479	2.4	5.e-002	9.1871e-006
15227	10.245	2.4	0.	-288.83
15228	10.146	2.3	0.	-278.79
15229	10.146	2.4	5.e-002	8.939e-006
15230	10.443	2.4	0.	-271.93
15231	10.344	2.3	0.	-264.6
15232	10.344	2.4	5.e-002	1.1062e-005
15233	10.641	2.4	0.	-253.48
15234	10.542	2.3	0.	-248.27
15235	10.542	2.4	5.e-002	5.7825e-006
15236	10.839	2.4	0.	-234.55
15237	10.74	2.3	0.	-231.
15238	10.74	2.4	5.e-002	7.7225e-006
15239	11.036	2.4	0.	-215.84
15240	10.937	2.3	0.	-213.59
15241	10.937	2.4	5.e-002	5.7106e-006
15242	11.234	2.4	0.	-197.78
15243	11.135	2.3	0.	-196.55
15244	11.135	2.4	5.e-002	1.5943e-007
15245	11.432	2.4	0.	-180.64
15246	11.333	2.3	0.	-180.19
15247	11.333	2.4	5.e-002	3.6051e-006
15248	11.63	2.4	0.	-164.53
15249	11.531	2.3	0.	-164.69
15250	11.531	2.4	5.e-002	5.6336e-006
15251	11.828	2.4	0.	-149.53
15252	11.729	2.3	0.	-150.14
15253	11.729	2.4	5.e-002	-5.6988e-007
15254	12.026	2.4	0.	-135.63
15255	11.927	2.3	0.	-136.57
15256	11.927	2.4	5.e-002	-4.7392e-007
15257	12.224	2.4	0.	-122.81
15258	12.125	2.3	0.	-123.99
15259	12.125	2.4	5.e-002	2.4315e-007
15260	12.422	2.4	0.	-111.02
15261	12.323	2.3	0.	-112.36
15262	12.323	2.4	5.e-002	2.1794e-006
15263	12.62	2.4	0.	-100.19
15264	12.521	2.3	0.	-101.64
15265	12.521	2.4	5.e-002	2.2041e-006
15266	12.818	2.4	0.	-90.268
15267	12.719	2.3	0.	-91.774
15268	12.719	2.4	5.e-002	3.4006e-006
15269	13.016	2.4	0.	-81.177
15270	12.917	2.3	0.	-82.705
15271	12.917	2.4	5.e-002	6.7551e-007
15272	13.214	2.4	0.	-72.85
15273	13.115	2.3	0.	-74.374
15274	13.115	2.4	5.e-002	2.0857e-006
15275	13.411	2.4	0.	-65.221
15276	13.313	2.3	0.	-66.722
15277	13.313	2.4	5.e-002	1.8563e-006
15278	13.609	2.4	0.	-58.23
15279	13.51	2.3	0.	-59.694
15280	13.51	2.4	5.e-002	6.9795e-007
15281	13.807	2.4	0.	-51.817
15282	13.708	2.3	0.	-53.236
15283	13.708	2.4	5.e-002	1.7346e-006
15284	14.005	2.4	0.	-45.93
15285	13.906	2.3	0.	-47.297
15286	13.906	2.4	5.e-002	2.9759e-006
15287	14.203	2.4	0.	-40.518
15288	14.104	2.3	0.	-41.831
15289	14.104	2.4	5.e-002	2.8782e-006
15290	14.401	2.4	0.	-35.535
15291	14.302	2.3	0.	-36.794
15292	14.302	2.4	5.e-002	2.7036e-006
15293	14.599	2.4	0.	-30.941
15294	14.5	2.3	0.	-32.145
15295	14.5	2.4	5.e-002	3.5836e-006
15296	14.797	2.4	0.	-26.695
15297	14.698	2.3	0.	-27.849
15298	14.698	2.4	5.e-002	3.919e-006
15299	14.995	2.4	0.	-22.764
15300	14.896	2.3	0.	-23.869
15301	14.896	2.4	5.e-002	3.8064e-006
15302	15.193	2.4	0.	-19.113
15303	15.094	2.3	0.	-20.175
15304	15.094	2.4	5.e-002	4.2143e-006
15305	15.391	2.4	0.	-15.715
15306	15.292	2.3	0.	-16.736
15307	15.292	2.4	5.e-002	4.1363e-006
15308	15.589	2.4	0.	-12.54
15309	15.49	2.3	0.	-13.527
15310	15.49	2.4	5.e-002	3.3611e-006
15311	15.786	2.4	0.	-9.5635
15312	15.688	2.3	0.	-10.522
15313	15.688	2.4	5.e-002	4.9836e-006
15314	15.984	2.4	0.	-6.762
15315	15.885	2.3	0.	-7.697
15316	15.885	2.4	5.e-002	4.4611e-006
15317	16.182	2.4	0.	-4.1135
15318	16.083	2.3	0.	-5.0308
15319	16.083	2.4	5.e-002	5.9406e-006
15320	16.38	2.4	0.	-1.5987
15321	16.281	2.3	0.	-2.5036
15322	16.281	2.4	5.e-002	6.1737e-006
15323	16.578	2.4	0.	1.4644e-003
15324	16.479	2.3	0.	-0.14447
15325	16.479	2.4	5.e-002	6.3308e-006
15326	16.776	2.4	0.	7.4497e-003
15327	16.677	2.3	0.	5.3023e-003
15328	16.677	2.4	5.e-002	6.291e-006
15329	16.974	2.4	0.	8.5804e-003
15330	16.875	2.3	0.	7.4609e-003
15331	16.875	2.4	5.e-002	6.6219e-006
15332	17.172	2.4	0.	9.2452e-003
15333	17.073	2.3	0.	8.3753e-003
15334	17.073	2.4	5.e-002	7.7748e-006
15335	17.37	2.4	0.	9.7766e-003
15336	17.271	2.3	0.	9.0151e-003
15337	17.271	2.4	5.e-002	5.9219e-006
15338	17.568	2.4	0.	1.0251e-002
15339	17.469	2.3	0.	9.5397e-003
15340	17.469	2.4	5.e-002	5.2358e-006
15341	17.766	2.4	0.	1.0716e-002
15342	17.667	2.3	0.	1.0018e-002
15343	17.667	2.4	5.e-002	6.7435e-006
15344	17.964	2.4	0.	1.1201e-002
15345	17.865	2.3	0.	1.0499e-002
15346	17.865	2.4	5.e-002	6.4599e-006
15347	18.161	2.4	0.	1.1703e-002
15348	18.063	2.3	0.	1.1002e-002
15349	18.063	2.4	5.e-002	6.9045e-006
15350	18.359	2.4	0.	1.2221e-002
15351	18.26	2.3	0.	1.151e-002
15352	18.26	2.4	5.e-002	6.1376e-006
15353	18.557	2.4	0.	1.277e-002
15354	18.458	2.3	0.	1.2035e-002
15355	18.458	2.4	5.e-002	5.8567e-006
15356	18.755	2.4	0.	1.3368e-002
15357	18.656	2.3	0.	1.2603e-002
15358	18.656	2.4	5.e-002	6.3208e-006
15359	18.953	2.4	0.	1.4012e-002
15360	18.854	2.3	0.	1.3224e-002
15361	18.854	2.4	5.e-002	7.7162e-006
15362	19.151	2.4	0.	1.4698e-002
15363	19.052	2.3	0.	1.3879e-002
15364	19.052	2.4	5.e-002	8.6285e-006
15365	19.349	2.4	0.	1.5442e-002
15366	19.25	2.3	0.	1.4581e-002
15367	19.25	2.4	5.e-002	8.8191e-006
15368	19.547	2.4	0.	1.6266e-002
15369	19.448	2.3	0.	1.5353e-002
15370	19.448	2.4	5.e-002	6.3955e-006
15371	19.745	2.4	0.	1.7168e-002
15372	19.646	2.3	0.	1.6211e-002
15373	19.646	2.4	5.e-002	7.5514e-006
15374	19.943	2.4	0.	1.8156e-002
15375	19.844	2.3	0.	1.7141e-002
15376	19.844	2.4	5.e-002	7.5756e-006
15377	20.141	2.4	0.	1.9251e-002
15378	20.042	2.3	0.	1.8165e-002
15379	20.042	2.4	5.e-002	6.5179e-006
15380	20.339	2.4	0.	2.0478e-002
15381	20.24	2.3	0.	1.9309e-002
15382	20.24	2.4	5.e-002	6.4726e-006
15383	20.536	2.4	0.	2.1853e-002
15384	20.438	2.3	0.	2.0597e-002
15385	20.438	2.4	5.e-002	8.7876e-006
15386	20.734	2.4	0.	2.3397e-002
15387	20.635	2.3	0.	2.2037e-002
15388	20.635	2.4	5.e-002	9.2318e-006
15389	20.932	2.4	0.	2.5153e-002
15390	20.833	2.3	0.	2.3663e-002
15391	20.833	2.4	5.e-002	7.2373e-006
15392	21.13	2.4	0.	2.7172e-002
15393	21.031	2.3	0.	2.5526e-002
15394	21.031	2.4	5.e-002	7.2389e-006
15395	21.328	2.4	0.	2.9509e-002
15396	21.229	2.3	0.	2.7681e-002
15397	21.229	2.4	5.e-002	6.9652e-006
15398	21.526	2.4	0.	3.2236e-002
15399	21.427	2.3	0.	3.018e-002
15400	21.427	2.4	5.e-002	9.9058e-006
15401	21.724	2.4	0.	3.5468e-002
15402	21.625	2.3	0.	3.3122e-002
15403	21.625	2.4	5.e-002	7.0442e-006
15404	21.922	2.4	0.	3.9358e-002
15405	21.823	2.3	0.	3.6637e-002
15406	21.823	2.4	5.e-002	6.925e-006
15407	22.12	2.4	0.	4.4113e-002
15408	22.021	2.3	0.	4.0907e-002
15409	22.021	2.4	5.e-002	5.7694e-006
15410	22.318	2.4	0.	5.0064e-002
15411	22.219	2.3	0.	4.617e-002
15412	22.219	2.4	5.e-002	5.7663e-006
15413	22.516	2.4	0.	5.7635e-002
15414	22.417	2.3	0.	5.2866e-002
15415	22.417	2.4	5.e-002	6.7727e-006
15416	22.714	2.4	0.	6.7898e-002
15417	22.615	2.3	0.	6.1427e-002
15418	22.615	2.4	5.e-002	4.1303e-006
15419	22.911	2.4	0.	8.1119e-002
15420	22.813	2.3	0.	7.3625e-002
15421	22.813	2.4	5.e-002	8.1551e-006
15422	23.109	2.4	0.	0.10426
15423	23.01	2.3	0.	8.8363e-002
15424	23.01	2.4	5.e-002	6.9376e-006
15425	23.307	2.4	0.	0.12546
15426	23.208	2.3	0.	0.12102
15427	23.208	2.4	5.e-002	2.3857e-006
15428	23.505	2.4	0.	0.2292
15429	23.406	2.3	0.	0.13378
15430	23.406	2.4	5.e-002	5.8582e-006
15431	23.703	2.4	0.	0.19689
15432	23.604	2.3	0.	0.33872
15433	23.604	2.4	5.e-002	9.2882e-006
15434	23.802	2.3	0.	0.13611
15435	23.802	2.4	5.e-002	6.9097e-006
15436	23.901	2.4	0.	0.30093
15437	8.4635	2.2	0.	12.707
15438	8.3646	2.1	0.	-226.02
15439	8.3646	2.2	5.e-002	8.3481e-005
15440	8.6615	2.2	0.	11.47
15441	8.5625	2.1	0.	52.584
15442	8.5625	2.2	5.e-002	1.3914e-005
15443	8.8594	2.2	0.	-29.505
15444	8.7604	2.1	0.	-12.558
15445	8.7604	2.2	5.e-002	3.8146e-005
15446	9.0573	2.2	0.	-147.08
15447	8.9583	2.1	0.	-58.749
15448	8.9583	2.2	5.e-002	1.1055e-005
15449	9.2552	2.2	0.	-216.4
15450	9.1563	2.1	0.	-154.67
15451	9.1563	2.2	5.e-002	1.7062e-005
15452	9.4531	2.2	0.	-252.77
15453	9.3542	2.1	0.	-208.01
15454	9.3542	2.2	5.e-002	3.2313e-005
15455	9.651	2.2	0.	-268.54
15456	9.5521	2.1	0.	-235.09
15457	9.5521	2.2	5.e-002	4.279e-005
15458	9.849	2.2	0.	-271.1
15459	9.75	2.1	0.	-245.42
15460	9.75	2.2	5.e-002	3.2986e-005
15461	10.047	2.2	0.	-265.38
15462	9.9479	2.1	0.	-245.34
15463	9.9479	2.2	5.e-002	2.6679e-005
15464	10.245	2.2	0.	-254.63
15465	10.146	2.1	0.	-238.84
15466	10.146	2.2	5.e-002	2.0011e-005
15467	10.443	2.2	0.	-240.97
15468	10.344	2.1	0.	-228.5
15469	10.344	2.2	5.e-002	1.9892e-005
15470	10.641	2.2	0.	-225.8
15471	10.542	2.1	0.	-215.99
15472	10.542	2.2	5.e-002	6.907e-006
15473	10.839	2.2	0.	-210.04
15474	10.74	2.1	0.	-202.39
15475	10.74	2.2	5.e-002	4.598e-006
15476	11.036	2.2	0.	-194.3
15477	10.937	2.1	0.	-188.4
15478	10.937	2.2	5.e-002	1.1299e-006
15479	11.234	2.2	0.	-178.96
15480	11.135	2.1	0.	-174.49
15481	11.135	2.2	5.e-002	8.0636e-007
15482	11.432	2.2	0.	-164.24
15483	11.333	2.1	0.	-160.95
15484	11.333	2.2	5.e-002	3.408e-006
15485	11.63	2.2	0.	-150.29
15486	11.531	2.1	0.	-147.95
15487	11.531	2.2	5.e-002	3.357e-006
15488	11.828	2.2	0.	-137.18
15489	11.729	2.1	0.	-135.6
15490	11.729	2.2	5.e-002	6.7933e-007
15491	12.026	2.2	0.	-124.93
15492	11.927	2.1	0.	-123.96
15493	11.927	2.2	5.e-002	7.9935e-007
15494	12.224	2.2	0.	-113.54
15495	12.125	2.1	0.	-113.05
15496	12.125	2.2	5.e-002	2.7726e-006
15497	12.422	2.2	0.	-102.98
15498	12.323	2.1	0.	-102.87
15499	12.323	2.2	5.e-002	2.3539e-006
15500	12.62	2.2	0.	-93.217
15501	12.521	2.1	0.	-93.39
15502	12.521	2.2	5.e-002	2.5967e-006
15503	12.818	2.2	0.	-84.204
15504	12.719	2.1	0.	-84.595
15505	12.719	2.2	5.e-002	3.1342e-006
15506	13.016	2.2	0.	-75.894
15507	12.917	2.1	0.	-76.447
15508	12.917	2.2	5.e-002	2.2599e-006
15509	13.214	2.2	0.	-68.237
15510	13.115	2.1	0.	-68.906
15511	13.115	2.2	5.e-002	1.6626e-006
15512	13.411	2.2	0.	-61.184
15513	13.313	2.1	0.	-61.934
15514	13.313	2.2	5.e-002	2.3025e-006
15515	13.609	2.2	0.	-54.687
15516	13.51	2.1	0.	-55.491
15517	13.51	2.2	5.e-002	1.2981e-006
15518	13.807	2.2	0.	-48.701
15519	13.708	2.1	0.	-49.536
15520	13.708	2.2	5.e-002	2.5309e-006
15521	14.005	2.2	0.	-43.182
15522	13.906	2.1	0.	-44.033
15523	13.906	2.2	5.e-002	3.7055e-006
15524	14.203	2.2	0.	-38.089
15525	14.104	2.1	0.	-38.945
15526	14.104	2.2	5.e-002	3.0513e-006
15527	14.401	2.2	0.	-33.385
15528	14.302	2.1	0.	-34.237
15529	14.302	2.2	5.e-002	3.8834e-006
15530	14.599	2.2	0.	-29.033
15531	14.5	2.1	0.	-29.875
15532	14.5	2.2	5.e-002	3.5362e-006
15533	14.797	2.2	0.	-25.001
15534	14.698	2.1	0.	-25.831
15535	14.698	2.2	5.e-002	3.5888e-006
15536	14.995	2.2	0.	-21.257
15537	14.896	2.1	0.	-22.073
15538	14.896	2.2	5.e-002	3.8897e-006
15539	15.193	2.2	0.	-17.774
15540	15.094	2.1	0.	-18.576
15541	15.094	2.2	5.e-002	4.2806e-006
15542	15.391	2.2	0.	-14.524
15543	15.292	2.1	0.	-15.313
15544	15.292	2.2	5.e-002	4.4427e-006
15545	15.589	2.2	0.	-11.483
15546	15.49	2.1	0.	-12.262
15547	15.49	2.2	5.e-002	3.6459e-006
15548	15.786	2.2	0.	-8.628
15549	15.688	2.1	0.	-9.3987
15550	15.688	2.2	5.e-002	5.0852e-006
15551	15.984	2.2	0.	-5.9373
15552	15.885	2.1	0.	-6.7035
15553	15.885	2.2	5.e-002	4.6218e-006
15554	16.182	2.2	0.	-3.391
15555	16.083	2.1	0.	-4.1564
15556	16.083	2.2	5.e-002	6.2669e-006
15557	16.38	2.2	0.	-0.97552
15558	16.281	2.1	0.	-1.7415
15559	16.281	2.2	5.e-002	6.0896e-006
15560	16.578	2.2	0.	7.7062e-004
15561	16.479	2.1	0.	-1.425e-002
15562	16.479	2.2	5.e-002	6.5337e-006
15563	16.776	2.2	0.	5.9374e-003
15564	16.677	2.1	0.	3.7287e-003
15565	16.677	2.2	5.e-002	6.3513e-006
15566	16.974	2.2	0.	7.3282e-003
15567	16.875	2.1	0.	6.0257e-003
15568	16.875	2.2	5.e-002	6.753e-006
15569	17.172	2.2	0.	8.1285e-003
15570	17.073	2.1	0.	7.0884e-003
15571	17.073	2.2	5.e-002	7.6929e-006
15572	17.37	2.2	0.	8.7342e-003
15573	17.271	2.1	0.	7.8155e-003
15574	17.271	2.2	5.e-002	6.0089e-006
15575	17.568	2.2	0.	9.2504e-003
15576	17.469	2.1	0.	8.3891e-003
15577	17.469	2.2	5.e-002	5.1931e-006
15578	17.766	2.2	0.	9.7385e-003
15579	17.667	2.1	0.	8.8929e-003
15580	17.667	2.2	5.e-002	6.9223e-006
15581	17.964	2.2	0.	1.0234e-002
15582	17.865	2.1	0.	9.3868e-003
15583	17.865	2.2	5.e-002	6.5144e-006
15584	18.161	2.2	0.	1.0738e-002
15585	18.063	2.1	0.	9.893e-003
15586	18.063	2.2	5.e-002	6.8271e-006
15587	18.359	2.2	0.	1.125e-002
15588	18.26	2.1	0.	1.0397e-002
15589	18.26	2.2	5.e-002	6.3119e-006
15590	18.557	2.2	0.	1.1791e-002
15591	18.458	2.1	0.	1.0911e-002
15592	18.458	2.2	5.e-002	5.0404e-006
15593	18.755	2.2	0.	1.2378e-002
15594	18.656	2.1	0.	1.1465e-002
15595	18.656	2.2	5.e-002	5.7487e-006
15596	18.953	2.2	0.	1.3007e-002
15597	18.854	2.1	0.	1.2068e-002
15598	18.854	2.2	5.e-002	7.6451e-006
15599	19.151	2.2	0.	1.3675e-002
15600	19.052	2.1	0.	1.2703e-002
15601	19.052	2.2	5.e-002	8.5309e-006
15602	19.349	2.2	0.	1.44e-002
15603	19.25	2.1	0.	1.3381e-002
15604	19.25	2.2	5.e-002	8.4358e-006
15605	19.547	2.2	0.	1.5202e-002
15606	19.448	2.1	0.	1.4129e-002
15607	19.448	2.2	5.e-002	5.7934e-006
15608	19.745	2.2	0.	1.6082e-002
15609	19.646	2.1	0.	1.4956e-002
15610	19.646	2.2	5.e-002	7.6713e-006
15611	19.943	2.2	0.	1.7042e-002
15612	19.844	2.1	0.	1.5856e-002
15613	19.844	2.2	5.e-002	7.9275e-006
15614	20.141	2.2	0.	1.8108e-002
15615	20.042	2.1	0.	1.6845e-002
15616	20.042	2.2	5.e-002	5.896e-006
15617	20.339	2.2	0.	1.9305e-002
15618	20.24	2.1	0.	1.7954e-002
15619	20.24	2.2	5.e-002	7.2671e-006
15620	20.536	2.2	0.	2.0648e-002
15621	20.438	2.1	0.	1.9204e-002
15622	20.438	2.2	5.e-002	7.6372e-006
15623	20.734	2.2	0.	2.2158e-002
15624	20.635	2.1	0.	2.0603e-002
15625	20.635	2.2	5.e-002	9.5032e-006
15626	20.932	2.2	0.	2.3877e-002
15627	20.833	2.1	0.	2.2186e-002
15628	20.833	2.2	5.e-002	6.526e-006
15629	21.13	2.2	0.	2.5859e-002
15630	21.031	2.1	0.	2.4004e-002
15631	21.031	2.2	5.e-002	7.4936e-006
15632	21.328	2.2	0.	2.8155e-002
15633	21.229	2.1	0.	2.6111e-002
15634	21.229	2.2	5.e-002	7.3009e-006
15635	21.526	2.2	0.	3.084e-002
15636	21.427	2.1	0.	2.8558e-002
15637	21.427	2.2	5.e-002	9.701e-006
15638	21.724	2.2	0.	3.4026e-002
15639	21.625	2.1	0.	3.1446e-002
15640	21.625	2.2	5.e-002	6.8784e-006
15641	21.922	2.2	0.	3.7867e-002
15642	21.823	2.1	0.	3.4901e-002
15643	21.823	2.2	5.e-002	5.829e-006
15644	22.12	2.2	0.	4.2568e-002
15645	22.021	2.1	0.	3.9109e-002
15646	22.021	2.2	5.e-002	4.5722e-006
15647	22.318	2.2	0.	4.8457e-002
15648	22.219	2.1	0.	4.4301e-002
15649	22.219	2.2	5.e-002	4.6035e-006
15650	22.516	2.2	0.	5.5954e-002
15651	22.417	2.1	0.	5.0915e-002
15652	22.417	2.2	5.e-002	6.4932e-006
15653	22.714	2.2	0.	6.6126e-002
15654	22.615	2.1	0.	5.9378e-002
15655	22.615	2.2	5.e-002	4.933e-006
15656	22.911	2.2	0.	7.9232e-002
15657	22.813	2.1	0.	7.1451e-002
15658	22.813	2.2	5.e-002	7.0858e-006
15659	23.109	2.2	0.	0.1022
15660	23.01	2.1	0.	8.6029e-002
15661	23.01	2.2	5.e-002	7.9889e-006
15662	23.307	2.2	0.	0.12319
15663	23.208	2.1	0.	0.11844
15664	23.208	2.2	5.e-002	4.441e-006
15665	23.505	2.2	0.	0.22637
15666	23.406	2.1	0.	0.1309
15667	23.406	2.2	5.e-002	5.8775e-006
15668	23.703	2.2	0.	0.19262
15669	23.604	2.1	0.	0.33471
15670	23.604	2.2	5.e-002	7.3611e-006
15671	23.802	2.1	0.	0.12872
15672	23.802	2.2	5.e-002	6.6875e-006
15673	23.901	2.2	0.	0.29959
15674	8.4635	2.	0.	-232.43
15675	8.3646	1.9	0.	-340.22
15676	8.3646	2.	5.e-002	3.3521e-004
15677	8.2656	2.	0.	-475.83
15678	8.6615	2.	0.	28.393
15679	8.5625	1.9	0.	41.227
15680	8.5625	2.	5.e-002	5.1982e-005
15681	8.8594	2.	0.	-11.403
15682	8.7604	1.9	0.	-11.766
15683	8.7604	2.	5.e-002	1.0059e-004
15684	9.0573	2.	0.	-69.567
15685	8.9583	1.9	0.	-7.9994
15686	8.9583	2.	5.e-002	1.0903e-004
15687	9.2552	2.	0.	-148.39
15688	9.1563	1.9	0.	-70.473
15689	9.1563	2.	5.e-002	4.8362e-005
15690	9.4531	2.	0.	-191.71
15691	9.3542	1.9	0.	-135.2
15692	9.3542	2.	5.e-002	3.7118e-005
15693	9.651	2.	0.	-212.82
15694	9.5521	1.9	0.	-170.75
15695	9.5521	2.	5.e-002	3.4736e-005
15696	9.849	2.	0.	-220.16
15697	9.75	1.9	0.	-187.67
15698	9.75	2.	5.e-002	4.4384e-005
15699	10.047	2.	0.	-219.07
15700	9.9479	1.9	0.	-193.31
15701	9.9479	2.	5.e-002	3.9209e-005
15702	10.245	2.	0.	-212.85
15703	10.146	1.9	0.	-192.07
15704	10.146	2.	5.e-002	3.1778e-005
15705	10.443	2.	0.	-203.59
15706	10.344	1.9	0.	-186.69
15707	10.344	2.	5.e-002	2.7065e-005
15708	10.641	2.	0.	-192.6
15709	10.542	1.9	0.	-178.82
15710	10.542	2.	5.e-002	1.4528e-005
15711	10.839	2.	0.	-180.75
15712	10.74	1.9	0.	-169.54
15713	10.74	2.	5.e-002	2.0362e-005
15714	11.036	2.	0.	-168.59
15715	10.937	1.9	0.	-159.51
15716	10.937	2.	5.e-002	3.1177e-007
15717	11.234	2.	0.	-156.48
15718	11.135	1.9	0.	-149.18
15719	11.135	2.	5.e-002	4.5927e-006
15720	11.432	2.	0.	-144.65
15721	11.333	1.9	0.	-138.84
15722	11.333	2.	5.e-002	7.4587e-006
15723	11.63	2.	0.	-133.25
15724	11.531	1.9	0.	-128.68
15725	11.531	2.	5.e-002	2.7919e-006
15726	11.828	2.	0.	-122.37
15727	11.729	1.9	0.	-118.83
15728	11.729	2.	5.e-002	4.2551e-006
15729	12.026	2.	0.	-112.07
15730	11.927	1.9	0.	-109.37
15731	11.927	2.	5.e-002	2.8632e-006
15732	12.224	2.	0.	-102.37
15733	12.125	1.9	0.	-100.36
15734	12.125	2.	5.e-002	2.8128e-006
15735	12.422	2.	0.	-93.268
15736	12.323	1.9	0.	-91.813
15737	12.323	2.	5.e-002	4.0182e-006
15738	12.62	2.	0.	-84.761
15739	12.521	1.9	0.	-83.755
15740	12.521	2.	5.e-002	2.1201e-006
15741	12.818	2.	0.	-76.829
15742	12.719	1.9	0.	-76.182
15743	12.719	2.	5.e-002	4.2001e-006
15744	13.016	2.	0.	-69.449
15745	12.917	1.9	0.	-69.085
15746	12.917	2.	5.e-002	3.9015e-006
15747	13.214	2.	0.	-62.592
15748	13.115	1.9	0.	-62.452
15749	13.115	2.	5.e-002	1.8933e-006
15750	13.411	2.	0.	-56.228
15751	13.313	1.9	0.	-56.262
15752	13.313	2.	5.e-002	3.4854e-006
15753	13.609	2.	0.	-50.326
15754	13.51	1.9	0.	-50.493
15755	13.51	2.	5.e-002	2.0666e-006
15756	13.807	2.	0.	-44.853
15757	13.708	1.9	0.	-45.123
15758	13.708	2.	5.e-002	1.9119e-006
15759	14.005	2.	0.	-39.78
15760	13.906	1.9	0.	-40.127
15761	13.906	2.	5.e-002	4.056e-006
15762	14.203	2.	0.	-35.074
15763	14.104	1.9	0.	-35.48
15764	14.104	2.	5.e-002	3.8256e-006
15765	14.401	2.	0.	-30.708
15766	14.302	1.9	0.	-31.157
15767	14.302	2.	5.e-002	3.8179e-006
15768	14.599	2.	0.	-26.652
15769	14.5	1.9	0.	-27.134
15770	14.5	2.	5.e-002	3.4095e-006
15771	14.797	2.	0.	-22.881
15772	14.698	1.9	0.	-23.387
15773	14.698	2.	5.e-002	3.7387e-006
15774	14.995	2.	0.	-19.369
15775	14.896	1.9	0.	-19.893
15776	14.896	2.	5.e-002	4.1898e-006
15777	15.193	2.	0.	-16.091
15778	15.094	1.9	0.	-16.63
15779	15.094	2.	5.e-002	4.8609e-006
15780	15.391	2.	0.	-13.025
15781	15.292	1.9	0.	-13.578
15782	15.292	2.	5.e-002	4.722e-006
15783	15.589	2.	0.	-10.151
15784	15.49	1.9	0.	-10.715
15785	15.49	2.	5.e-002	3.8316e-006
15786	15.786	2.	0.	-7.4464
15787	15.688	1.9	0.	-8.0232
15788	15.688	2.	5.e-002	5.5531e-006
15789	15.984	2.	0.	-4.8937
15790	15.885	1.9	0.	-5.4844
15791	15.885	2.	5.e-002	5.0601e-006
15792	16.182	2.	0.	-2.4758
15793	16.083	1.9	0.	-3.082
15794	16.083	2.	5.e-002	6.8173e-006
15795	16.38	2.	0.	-0.23046
15796	16.281	1.9	0.	-0.81202
15797	16.281	2.	5.e-002	6.5348e-006
15798	16.578	2.	0.	2.4948e-004
15799	16.479	1.9	0.	-5.7732e-003
15800	16.479	2.	5.e-002	7.1117e-006
15801	16.776	2.	0.	4.4152e-003
15802	16.677	1.9	0.	2.372e-003
15803	16.677	2.	5.e-002	6.8254e-006
15804	16.974	2.	0.	5.9036e-003
15805	16.875	1.9	0.	4.5193e-003
15806	16.875	2.	5.e-002	7.1875e-006
15807	17.172	2.	0.	6.7882e-003
15808	17.073	1.9	0.	5.6304e-003
15809	17.073	2.	5.e-002	8.1515e-006
15810	17.37	2.	0.	7.4454e-003
15811	17.271	1.9	0.	6.3981e-003
15812	17.271	2.	5.e-002	6.4016e-006
15813	17.568	2.	0.	7.9886e-003
15814	17.469	1.9	0.	6.9959e-003
15815	17.469	2.	5.e-002	5.7527e-006
15816	17.766	2.	0.	8.4874e-003
15817	17.667	1.9	0.	7.5082e-003
15818	17.667	2.	5.e-002	7.1193e-006
15819	17.964	2.	0.	8.9848e-003
15820	17.865	1.9	0.	8.0006e-003
15821	17.865	2.	5.e-002	6.3374e-006
15822	18.161	2.	0.	9.4846e-003
15823	18.063	1.9	0.	8.498e-003
15824	18.063	2.	5.e-002	7.2465e-006
15825	18.359	2.	0.	9.985e-003
15826	18.26	1.9	0.	8.9856e-003
15827	18.26	2.	5.e-002	6.6863e-006
15828	18.557	2.	0.	1.0508e-002
15829	18.458	1.9	0.	9.4793e-003
15830	18.458	2.	5.e-002	5.672e-006
15831	18.755	2.	0.	1.1073e-002
15832	18.656	1.9	0.	1.0008e-002
15833	18.656	2.	5.e-002	6.1446e-006
15834	18.953	2.	0.	1.1678e-002
15835	18.854	1.9	0.	1.0581e-002
15836	18.854	2.	5.e-002	7.0375e-006
15837	19.151	2.	0.	1.2318e-002
15838	19.052	1.9	0.	1.1185e-002
15839	19.052	2.	5.e-002	8.6469e-006
15840	19.349	2.	0.	1.3013e-002
15841	19.25	1.9	0.	1.1826e-002
15842	19.25	2.	5.e-002	8.107e-006
15843	19.547	2.	0.	1.3781e-002
15844	19.448	1.9	0.	1.2535e-002
15845	19.448	2.	5.e-002	6.6262e-006
15846	19.745	2.	0.	1.4622e-002
15847	19.646	1.9	0.	1.3319e-002
15848	19.646	2.	5.e-002	7.5813e-006
15849	19.943	2.	0.	1.5544e-002
15850	19.844	1.9	0.	1.4174e-002
15851	19.844	2.	5.e-002	7.381e-006
15852	20.141	2.	0.	1.6568e-002
15853	20.042	1.9	0.	1.5113e-002
15854	20.042	2.	5.e-002	7.17e-006
15855	20.339	2.	0.	1.7721e-002
15856	20.24	1.9	0.	1.617e-002
15857	20.24	2.	5.e-002	6.724e-006
15858	20.536	2.	0.	1.9017e-002
15859	20.438	1.9	0.	1.7363e-002
15860	20.438	2.	5.e-002	8.5082e-006
15861	20.734	2.	0.	2.0475e-002
15862	20.635	1.9	0.	1.8702e-002
15863	20.635	2.	5.e-002	8.852e-006
15864	20.932	2.	0.	2.2142e-002
15865	20.833	1.9	0.	2.0222e-002
15866	20.833	2.	5.e-002	6.4354e-006
15867	21.13	2.	0.	2.4067e-002
15868	21.031	1.9	0.	2.1972e-002
15869	21.031	2.	5.e-002	7.2388e-006
15870	21.328	2.	0.	2.6302e-002
15871	21.229	1.9	0.	2.4007e-002
15872	21.229	2.	5.e-002	8.1319e-006
15873	21.526	2.	0.	2.8922e-002
15874	21.427	1.9	0.	2.638e-002
15875	21.427	2.	5.e-002	9.62e-006
15876	21.724	2.	0.	3.204e-002
15877	21.625	1.9	0.	2.9185e-002
15878	21.625	2.	5.e-002	8.7454e-006
15879	21.922	2.	0.	3.5807e-002
15880	21.823	1.9	0.	3.2555e-002
15881	21.823	2.	5.e-002	6.6018e-006
15882	22.12	2.	0.	4.0426e-002
15883	22.021	1.9	0.	3.6667e-002
15884	22.021	2.	5.e-002	4.3756e-006
15885	22.318	2.	0.	4.6225e-002
15886	22.219	1.9	0.	4.1755e-002
15887	22.219	2.	5.e-002	5.2864e-006
15888	22.516	2.	0.	5.3616e-002
15889	22.417	1.9	0.	4.8251e-002
15890	22.417	2.	5.e-002	6.2998e-006
15891	22.714	2.	0.	6.3658e-002
15892	22.615	1.9	0.	5.6575e-002
15893	22.615	2.	5.e-002	5.7383e-006
15894	22.911	2.	0.	7.6601e-002
15895	22.813	1.9	0.	6.8473e-002
15896	22.813	2.	5.e-002	7.942e-006
15897	23.109	2.	0.	9.9345e-002
15898	23.01	1.9	0.	8.2834e-002
15899	23.01	2.	5.e-002	7.1715e-006
15900	23.307	2.	0.	0.12003
15901	23.208	1.9	0.	0.11491
15902	23.208	2.	5.e-002	3.6331e-006
15903	23.505	2.	0.	0.22244
15904	23.406	1.9	0.	0.12696
15905	23.406	2.	5.e-002	2.1793e-006
15906	23.703	2.	0.	0.18679
15907	23.604	1.9	0.	0.32927
15908	23.604	2.	5.e-002	9.2259e-006
15909	23.802	1.9	0.	0.11894
15910	23.802	2.	5.e-002	6.4355e-006
15911	23.901	2.	0.	0.2977
15912	8.4635	1.8	0.	-65.256
15913	8.3646	1.7	0.	-64.234
15914	8.3646	1.8	5.e-002	5.0885e-004
15915	8.2656	1.8	0.	-288.03
15916	8.6615	1.8	0.	0.86258
15917	8.5625	1.7	0.	7.7323
15918	8.5625	1.8	5.e-002	3.8843e-004
15919	8.8594	1.8	0.	-6.1687
15920	8.7604	1.7	0.	-8.9411
15921	8.7604	1.8	5.e-002	2.1833e-004
15922	9.0573	1.8	0.	-10.423
15923	8.9583	1.7	0.	-4.0788
15924	8.9583	1.8	5.e-002	2.0479e-004
15925	9.2552	1.8	0.	-61.227
15926	9.1563	1.7	0.	-11.64
15927	9.1563	1.8	5.e-002	1.3766e-004
15928	9.4531	1.8	0.	-116.46
15929	9.3542	1.7	0.	-56.14
15930	9.3542	1.8	5.e-002	1.1798e-004
15931	9.651	1.8	0.	-146.89
15932	9.5521	1.7	0.	-100.13
15933	9.5521	1.8	5.e-002	8.6293e-005
15934	9.849	1.8	0.	-161.55
15935	9.75	1.7	0.	-124.78
15936	9.75	1.8	5.e-002	4.6255e-005
15937	10.047	1.8	0.	-166.71
15938	9.9479	1.7	0.	-137.06
15939	9.9479	1.8	5.e-002	6.1781e-005
15940	10.245	1.8	0.	-166.11
15941	10.146	1.7	0.	-141.78
15942	10.146	1.8	5.e-002	4.2007e-005
15943	10.443	1.8	0.	-162.02
15944	10.344	1.7	0.	-141.86
15945	10.344	1.8	5.e-002	3.926e-005
15946	10.641	1.8	0.	-155.8
15947	10.542	1.7	0.	-139.03
15948	10.542	1.8	5.e-002	3.388e-005
15949	10.839	1.8	0.	-148.32
15950	10.74	1.7	0.	-134.37
15951	10.74	1.8	5.e-002	3.0181e-005
15952	11.036	1.8	0.	-140.11
15953	10.937	1.7	0.	-128.55
15954	10.937	1.8	5.e-002	8.3483e-006
15955	11.234	1.8	0.	-131.54
15956	11.135	1.7	0.	-122.
15957	11.135	1.8	5.e-002	6.1337e-006
15958	11.432	1.8	0.	-122.87
15959	11.333	1.7	0.	-115.04
15960	11.333	1.8	5.e-002	9.4184e-006
15961	11.63	1.8	0.	-114.26
15962	11.531	1.7	0.	-107.87
15963	11.531	1.8	5.e-002	7.297e-006
15964	11.828	1.8	0.	-105.82
15965	11.729	1.7	0.	-100.65
15966	11.729	1.8	5.e-002	5.911e-006
15967	12.026	1.8	0.	-97.647
15968	11.927	1.7	0.	-93.491
15969	11.927	1.8	5.e-002	2.349e-006
15970	12.224	1.8	0.	-89.792
15971	12.125	1.7	0.	-86.479
15972	12.125	1.8	5.e-002	7.1936e-006
15973	12.422	1.8	0.	-82.291
15974	12.323	1.7	0.	-79.676
15975	12.323	1.8	5.e-002	4.328e-006
15976	12.62	1.8	0.	-75.166
15977	12.521	1.7	0.	-73.125
15978	12.521	1.8	5.e-002	5.5292e-006
15979	12.818	1.8	0.	-68.427
15980	12.719	1.7	0.	-66.856
15981	12.719	1.8	5.e-002	1.8421e-006
15982	13.016	1.8	0.	-62.076
15983	12.917	1.7	0.	-60.888
15984	12.917	1.8	5.e-002	3.0636e-006
15985	13.214	1.8	0.	-56.108
15986	13.115	1.7	0.	-55.231
15987	13.115	1.8	5.e-002	3.425e-006
15988	13.411	1.8	0.	-50.513
15989	13.313	1.7	0.	-49.886
15990	13.313	1.8	5.e-002	4.4842e-006
15991	13.609	1.8	0.	-45.276
15992	13.51	1.7	0.	-44.851
15993	13.51	1.8	5.e-002	2.4983e-006
15994	13.807	1.8	0.	-40.381
15995	13.708	1.7	0.	-40.12
15996	13.708	1.8	5.e-002	3.4331e-006
15997	14.005	1.8	0.	-35.81
15998	13.906	1.7	0.	-35.68
15999	13.906	1.8	5.e-002	3.9749e-006
16000	14.203	1.8	0.	-31.544
16001	14.104	1.7	0.	-31.52
16002	14.104	1.8	5.e-002	4.1773e-006
16003	14.401	1.8	0.	-27.563
16004	14.302	1.7	0.	-27.624
16005	14.302	1.8	5.e-002	3.6948e-006
16006	14.599	1.8	0.	-23.847
16007	14.5	1.7	0.	-23.978
16008	14.5	1.8	5.e-002	3.6279e-006
16009	14.797	1.8	0.	-20.376
16010	14.698	1.7	0.	-20.564
16011	14.698	1.8	5.e-002	4.1962e-006
16012	14.995	1.8	0.	-17.131
16013	14.896	1.7	0.	-17.367
16014	14.896	1.8	5.e-002	4.0077e-006
16015	15.193	1.8	0.	-14.092
16016	15.094	1.7	0.	-14.369
16017	15.094	1.8	5.e-002	5.25e-006
16018	15.391	1.8	0.	-11.241
16019	15.292	1.7	0.	-11.555
16020	15.292	1.8	5.e-002	4.9191e-006
16021	15.589	1.8	0.	-8.5604
16022	15.49	1.7	0.	-8.908
16023	15.49	1.8	5.e-002	4.1963e-006
16024	15.786	1.8	0.	-6.0329
16025	15.688	1.7	0.	-6.4124
16026	15.688	1.8	5.e-002	5.8571e-006
16027	15.984	1.8	0.	-3.6431
16028	15.885	1.7	0.	-4.0537
16029	15.885	1.8	5.e-002	5.7788e-006
16030	16.182	1.8	0.	-1.3809
16031	16.083	1.7	0.	-1.821
16032	16.083	1.8	5.e-002	7.0092e-006
16033	16.38	1.8	0.	-1.8943e-002
16034	16.281	1.7	0.	-5.6202e-002
16035	16.281	1.8	5.e-002	7.2285e-006
16036	16.578	1.8	0.	-2.2831e-004
16037	16.479	1.7	0.	-3.4991e-003
16038	16.479	1.8	5.e-002	7.4085e-006
16039	16.776	1.8	0.	2.961e-003
16040	16.677	1.7	0.	1.1954e-003
16041	16.677	1.8	5.e-002	7.2805e-006
16042	16.974	1.8	0.	4.3821e-003
16043	16.875	1.7	0.	3.0124e-003
16044	16.875	1.8	5.e-002	7.3742e-006
16045	17.172	1.8	0.	5.2755e-003
16046	17.073	1.7	0.	4.0609e-003
16047	17.073	1.8	5.e-002	8.2748e-006
16048	17.37	1.8	0.	5.9413e-003
16049	17.271	1.7	0.	4.8055e-003
16050	17.271	1.8	5.e-002	6.7255e-006
16051	17.568	1.8	0.	6.4855e-003
16052	17.469	1.7	0.	5.388e-003
16053	17.469	1.8	5.e-002	5.6785e-006
16054	17.766	1.8	0.	6.977e-003
16055	17.667	1.7	0.	5.8812e-003
16056	17.667	1.8	5.e-002	7.3186e-006
16057	17.964	1.8	0.	7.4591e-003
16058	17.865	1.7	0.	6.3494e-003
16059	17.865	1.8	5.e-002	6.5397e-006
16060	18.161	1.8	0.	7.9362e-003
16061	18.063	1.7	0.	6.8157e-003
16062	18.063	1.8	5.e-002	7.3035e-006
16063	18.359	1.8	0.	8.41e-003
16064	18.26	1.7	0.	7.2699e-003
16065	18.26	1.8	5.e-002	6.7487e-006
16066	18.557	1.8	0.	8.903e-003
16067	18.458	1.7	0.	7.7263e-003
16068	18.458	1.8	5.e-002	5.7131e-006
16069	18.755	1.8	0.	9.4334e-003
16070	18.656	1.7	0.	8.2112e-003
16071	18.656	1.8	5.e-002	6.3181e-006
16072	18.953	1.8	0.	9.9993e-003
16073	18.854	1.7	0.	8.7391e-003
16074	18.854	1.8	5.e-002	7.1597e-006
16075	19.151	1.8	0.	1.0598e-002
16076	19.052	1.7	0.	9.2915e-003
16077	19.052	1.8	5.e-002	8.3637e-006
16078	19.349	1.8	0.	1.1246e-002
16079	19.25	1.7	0.	9.8795e-003
16080	19.25	1.8	5.e-002	8.2494e-006
16081	19.547	1.8	0.	1.1963e-002
16082	19.448	1.7	0.	1.0528e-002
16083	19.448	1.8	5.e-002	6.523e-006
16084	19.745	1.8	0.	1.2753e-002
16085	19.646	1.7	0.	1.1251e-002
16086	19.646	1.8	5.e-002	6.9966e-006
16087	19.943	1.8	0.	1.3617e-002
16088	19.844	1.7	0.	1.2039e-002
16089	19.844	1.8	5.e-002	7.4379e-006
16090	20.141	1.8	0.	1.458e-002
16091	20.042	1.7	0.	1.2907e-002
16092	20.042	1.8	5.e-002	5.6958e-006
16093	20.339	1.8	0.	1.5666e-002
16094	20.24	1.7	0.	1.3886e-002
16095	20.24	1.8	5.e-002	7.0418e-006
16096	20.536	1.8	0.	1.6891e-002
16097	20.438	1.7	0.	1.4997e-002
16098	20.438	1.8	5.e-002	7.8532e-006
16099	20.734	1.8	0.	1.8277e-002
16100	20.635	1.7	0.	1.625e-002
16101	20.635	1.8	5.e-002	8.7644e-006
16102	20.932	1.8	0.	1.9864e-002
16103	20.833	1.7	0.	1.7677e-002
16104	20.833	1.8	5.e-002	6.672e-006
16105	21.13	1.8	0.	2.1704e-002
16106	21.031	1.7	0.	1.9329e-002
16107	21.031	1.8	5.e-002	7.207e-006
16108	21.328	1.8	0.	2.3851e-002
16109	21.229	1.7	0.	2.1257e-002
16110	21.229	1.8	5.e-002	8.1633e-006
16111	21.526	1.8	0.	2.6377e-002
16112	21.427	1.7	0.	2.3518e-002
16113	21.427	1.8	5.e-002	1.0023e-005
16114	21.724	1.8	0.	2.9392e-002
16115	21.625	1.7	0.	2.6204e-002
16116	21.625	1.8	5.e-002	7.8157e-006
16117	21.922	1.8	0.	3.3051e-002
16118	21.823	1.7	0.	2.9444e-002
16119	21.823	1.8	5.e-002	7.362e-006
16120	22.12	1.8	0.	3.7551e-002
16121	22.021	1.7	0.	3.3417e-002
16122	22.021	1.8	5.e-002	5.2097e-006
16123	22.318	1.8	0.	4.3217e-002
16124	22.219	1.7	0.	3.8352e-002
16125	22.219	1.8	5.e-002	5.2129e-006
16126	22.516	1.8	0.	5.0457e-002
16127	22.417	1.7	0.	4.4675e-002
16128	22.417	1.8	5.e-002	7.9893e-006
16129	22.714	1.8	0.	6.0318e-002
16130	22.615	1.7	0.	5.2801e-002
16131	22.615	1.8	5.e-002	4.5599e-006
16132	22.911	1.8	0.	7.3037e-002
16133	22.813	1.7	0.	6.4456e-002
16134	22.813	1.8	5.e-002	6.8474e-006
16135	23.109	1.8	0.	9.5471e-002
16136	23.01	1.7	0.	7.8517e-002
16137	23.01	1.8	5.e-002	8.3675e-006
16138	23.307	1.8	0.	0.11575
16139	23.208	1.7	0.	0.11014
16140	23.208	1.8	5.e-002	3.8905e-006
16141	23.505	1.8	0.	0.21717
16142	23.406	1.7	0.	0.12166
16143	23.406	1.8	5.e-002	7.9723e-006
16144	23.703	1.8	0.	0.17906
16145	23.604	1.7	0.	0.322
16146	23.604	1.8	5.e-002	9.2235e-006
16147	23.802	1.7	0.	0.10627
16148	23.802	1.8	5.e-002	6.4279e-006
16149	23.901	1.8	0.	0.29511
16150	8.4635	1.6	0.	8.4119
16151	8.3646	1.5	0.	-6.1977
16152	8.3646	1.6	5.e-002	1.6402e-004
16153	8.2656	1.6	0.	56.992
16154	8.6615	1.6	0.	-2.7593
16155	8.5625	1.5	0.	2.3781
16156	8.5625	1.6	5.e-002	2.4178e-004
16157	8.8594	1.6	0.	-6.6694
16158	8.7604	1.5	0.	-6.923
16159	8.7604	1.6	5.e-002	2.1822e-004
16160	9.0573	1.6	0.	-4.2159
16161	8.9583	1.5	0.	-2.859
16162	8.9583	1.6	5.e-002	2.101e-004
16163	9.2552	1.6	0.	-10.141
16164	9.1563	1.5	0.	-4.7262
16165	9.1563	1.6	5.e-002	2.1047e-004
16166	9.4531	1.6	0.	-43.244
16167	9.3542	1.5	0.	-9.78
16168	9.3542	1.6	5.e-002	1.2578e-004
16169	9.651	1.6	0.	-79.765
16170	9.5521	1.5	0.	-35.954
16171	9.5521	1.6	5.e-002	1.1299e-004
16172	9.849	1.6	0.	-101.24
16173	9.75	1.5	0.	-64.171
16174	9.75	1.6	5.e-002	1.3331e-004
16175	10.047	1.6	0.	-112.64
16176	9.9479	1.5	0.	-81.773
16177	9.9479	1.6	5.e-002	6.9895e-005
16178	10.245	1.6	0.	-117.79
16179	10.146	1.5	0.	-91.867
16180	10.146	1.6	5.e-002	6.0661e-005
16181	10.443	1.6	0.	-118.99
16182	10.344	1.5	0.	-97.103
16183	10.344	1.6	5.e-002	5.4214e-005
16184	10.641	1.6	0.	-117.65
16185	10.542	1.5	0.	-99.13
16186	10.542	1.6	5.e-002	4.6043e-005
16187	10.839	1.6	0.	-114.61
16188	10.74	1.5	0.	-98.962
16189	10.74	1.6	5.e-002	2.558e-005
16190	11.036	1.6	0.	-110.44
16191	10.937	1.5	0.	-97.245
16192	10.937	1.6	5.e-002	1.9045e-005
16193	11.234	1.6	0.	-105.49
16194	11.135	1.5	0.	-94.41
16195	11.135	1.6	5.e-002	1.5032e-005
16196	11.432	1.6	0.	-100.03
16197	11.333	1.5	0.	-90.766
16198	11.333	1.6	5.e-002	1.1409e-005
16199	11.63	1.6	0.	-94.25
16200	11.531	1.5	0.	-86.542
16201	11.531	1.6	5.e-002	7.6774e-006
16202	11.828	1.6	0.	-88.306
16203	11.729	1.5	0.	-81.918
16204	11.729	1.6	5.e-002	6.2574e-006
16205	12.026	1.6	0.	-82.311
16206	11.927	1.5	0.	-77.039
16207	11.927	1.6	5.e-002	-3.1827e-008
16208	12.224	1.6	0.	-76.352
16209	12.125	1.5	0.	-72.02
16210	12.125	1.6	5.e-002	3.6356e-006
16211	12.422	1.6	0.	-70.499
16212	12.323	1.5	0.	-66.954
16213	12.323	1.6	5.e-002	4.4055e-006
16214	12.62	1.6	0.	-64.804
16215	12.521	1.5	0.	-61.914
16216	12.521	1.6	5.e-002	2.9553e-006
16217	12.818	1.6	0.	-59.305
16218	12.719	1.5	0.	-56.961
16219	12.719	1.6	5.e-002	4.3312e-006
16220	13.016	1.6	0.	-54.029
16221	12.917	1.5	0.	-52.137
16222	12.917	1.6	5.e-002	2.9491e-006
16223	13.214	1.6	0.	-48.994
16224	13.115	1.5	0.	-47.475
16225	13.115	1.6	5.e-002	2.8949e-006
16226	13.411	1.6	0.	-44.209
16227	13.313	1.5	0.	-42.999
16228	13.313	1.6	5.e-002	2.3007e-006
16229	13.609	1.6	0.	-39.679
16230	13.51	1.5	0.	-38.723
16231	13.51	1.6	5.e-002	3.5109e-006
16232	13.807	1.6	0.	-35.401
16233	13.708	1.5	0.	-34.655
16234	13.708	1.6	5.e-002	4.018e-006
16235	14.005	1.6	0.	-31.371
16236	13.906	1.5	0.	-30.799
16237	13.906	1.6	5.e-002	4.3603e-006
16238	14.203	1.6	0.	-27.58
16239	14.104	1.5	0.	-27.152
16240	14.104	1.6	5.e-002	3.7085e-006
16241	14.401	1.6	0.	-24.017
16242	14.302	1.5	0.	-23.711
16243	14.302	1.6	5.e-002	3.209e-006
16244	14.599	1.6	0.	-20.672
16245	14.5	1.5	0.	-20.467
16246	14.5	1.6	5.e-002	3.3664e-006
16247	14.797	1.6	0.	-17.531
16248	14.698	1.5	0.	-17.412
16249	14.698	1.6	5.e-002	4.0569e-006
16250	14.995	1.6	0.	-14.581
16251	14.896	1.5	0.	-14.536
16252	14.896	1.6	5.e-002	3.4691e-006
16253	15.193	1.6	0.	-11.807
16254	15.094	1.5	0.	-11.827
16255	15.094	1.6	5.e-002	5.0741e-006
16256	15.391	1.6	0.	-9.1955
16257	15.292	1.5	0.	-9.2738
16258	15.292	1.6	5.e-002	4.7147e-006
16259	15.589	1.6	0.	-6.7323
16260	15.49	1.5	0.	-6.8638
16261	15.49	1.6	5.e-002	4.1351e-006
16262	15.786	1.6	0.	-4.4043
16263	15.688	1.5	0.	-4.5852
16264	15.688	1.6	5.e-002	5.8717e-006
16265	15.984	1.6	0.	-2.2006
16266	15.885	1.5	0.	-2.4284
16267	15.885	1.6	5.e-002	5.3462e-006
16268	16.182	1.6	0.	-0.20833
16269	16.083	1.5	0.	-0.426
16270	16.083	1.6	5.e-002	7.515e-006
16271	16.38	1.6	0.	-7.5818e-003
16272	16.281	1.5	0.	-1.2161e-002
16273	16.281	1.6	5.e-002	7.4157e-006
16274	16.578	1.6	0.	-7.127e-004
16275	16.479	1.5	0.	-2.6849e-003
16276	16.479	1.6	5.e-002	7.6078e-006
16277	16.776	1.6	0.	1.6011e-003
16278	16.677	1.5	0.	1.4915e-004
16279	16.677	1.6	5.e-002	7.2852e-006
16280	16.974	1.6	0.	2.8235e-003
16281	16.875	1.5	0.	1.5463e-003
16282	16.875	1.6	5.e-002	7.4599e-006
16283	17.172	1.6	0.	3.6397e-003
16284	17.073	1.5	0.	2.4311e-003
16285	17.073	1.6	5.e-002	8.4902e-006
16286	17.37	1.6	0.	4.2595e-003
16287	17.271	1.5	0.	3.0855e-003
16288	17.271	1.6	5.e-002	6.2724e-006
16289	17.568	1.6	0.	4.7662e-003
16290	17.469	1.5	0.	3.6015e-003
16291	17.469	1.6	5.e-002	6.0639e-006
16292	17.766	1.6	0.	5.2192e-003
16293	17.667	1.5	0.	4.035e-003
16294	17.667	1.6	5.e-002	7.2814e-006
16295	17.964	1.6	0.	5.6588e-003
16296	17.865	1.5	0.	4.4467e-003
16297	17.865	1.6	5.e-002	6.8687e-006
16298	18.161	1.6	0.	6.0917e-003
16299	18.063	1.5	0.	4.8543e-003
16300	18.063	1.6	5.e-002	6.8039e-006
16301	18.359	1.6	0.	6.5193e-003
16302	18.26	1.5	0.	5.2485e-003
16303	18.26	1.6	5.e-002	6.8075e-006
16304	18.557	1.6	0.	6.9592e-003
16305	18.458	1.5	0.	5.641e-003
16306	18.458	1.6	5.e-002	5.957e-006
16307	18.755	1.6	0.	7.4335e-003
16308	18.656	1.5	0.	6.0595e-003
16309	18.656	1.6	5.e-002	5.9541e-006
16310	18.953	1.6	0.	7.9399e-003
16311	18.854	1.5	0.	6.5182e-003
16312	18.854	1.6	5.e-002	7.1435e-006
16313	19.151	1.6	0.	8.4735e-003
16314	19.052	1.5	0.	6.9947e-003
16315	19.052	1.6	5.e-002	8.2938e-006
16316	19.349	1.6	0.	9.053e-003
16317	19.25	1.5	0.	7.5024e-003
16318	19.25	1.6	5.e-002	7.4555e-006
16319	19.547	1.6	0.	9.6981e-003
16320	19.448	1.5	0.	8.0668e-003
16321	19.448	1.6	5.e-002	5.7762e-006
16322	19.745	1.6	0.	1.041e-002
16323	19.646	1.5	0.	8.7005e-003
16324	19.646	1.6	5.e-002	6.9588e-006
16325	19.943	1.6	0.	1.1191e-002
16326	19.844	1.5	0.	9.3897e-003
16327	19.844	1.6	5.e-002	7.7557e-006
16328	20.141	1.6	0.	1.2065e-002
16329	20.042	1.5	0.	1.0158e-002
16330	20.042	1.6	5.e-002	5.7136e-006
16331	20.339	1.6	0.	1.3055e-002
16332	20.24	1.5	0.	1.1027e-002
16333	20.24	1.6	5.e-002	6.0554e-006
16334	20.536	1.6	0.	1.4179e-002
16335	20.438	1.5	0.	1.2021e-002
16336	20.438	1.6	5.e-002	8.343e-006
16337	20.734	1.6	0.	1.5456e-002
16338	20.635	1.5	0.	1.3149e-002
16339	20.635	1.6	5.e-002	9.3014e-006
16340	20.932	1.6	0.	1.6929e-002
16341	20.833	1.5	0.	1.4441e-002
16342	20.833	1.6	5.e-002	6.728e-006
16343	21.13	1.6	0.	1.8646e-002
16344	21.031	1.5	0.	1.595e-002
16345	21.031	1.6	5.e-002	7.0742e-006
16346	21.328	1.6	0.	2.066e-002
16347	21.229	1.5	0.	1.7723e-002
16348	21.229	1.6	5.e-002	7.5779e-006
16349	21.526	1.6	0.	2.3045e-002
16350	21.427	1.5	0.	1.9819e-002
16351	21.427	1.6	5.e-002	9.6741e-006
16352	21.724	1.6	0.	2.591e-002
16353	21.625	1.5	0.	2.2327e-002
16354	21.625	1.6	5.e-002	8.698e-006
16355	21.922	1.6	0.	2.9404e-002
16356	21.823	1.5	0.	2.5374e-002
16357	21.823	1.6	5.e-002	8.4437e-006
16358	22.12	1.6	0.	3.3728e-002
16359	22.021	1.5	0.	2.914e-002
16360	22.021	1.6	5.e-002	5.1499e-006
16361	22.318	1.6	0.	3.9199e-002
16362	22.219	1.5	0.	3.3847e-002
16363	22.219	1.6	5.e-002	6.9831e-006
16364	22.516	1.6	0.	4.6218e-002
16365	22.417	1.5	0.	3.9917e-002
16366	22.417	1.6	5.e-002	6.8805e-006
16367	22.714	1.6	0.	5.582e-002
16368	22.615	1.5	0.	4.7755e-002
16369	22.615	1.6	5.e-002	5.5964e-006
16370	22.911	1.6	0.	6.8227e-002
16371	22.813	1.5	0.	5.9068e-002
16372	22.813	1.6	5.e-002	6.9124e-006
16373	23.109	1.6	0.	9.024e-002
16374	23.01	1.5	0.	7.2713e-002
16375	23.01	1.6	5.e-002	7.5014e-006
16376	23.307	1.6	0.	0.10998
16377	23.208	1.5	0.	0.10373
16378	23.208	1.6	5.e-002	4.203e-006
16379	23.505	1.6	0.	0.21008
16380	23.406	1.5	0.	0.11454
16381	23.406	1.6	5.e-002	6.1677e-006
16382	23.703	1.6	0.	0.16889
16383	23.604	1.5	0.	0.31234
16384	23.604	1.6	5.e-002	7.4025e-006
16385	23.802	1.5	0.	9.0008e-002
16386	23.802	1.6	5.e-002	6.4419e-006
16387	23.901	1.6	0.	0.29152
16388	8.4635	1.4	0.	-12.519
16389	8.3646	1.3	0.	-16.19
16390	8.3646	1.4	5.e-002	1.0833e-004
16391	8.2656	1.4	0.	-17.53
16392	8.6615	1.4	0.	-1.7704
16393	8.5625	1.3	0.	-0.26422
16394	8.5625	1.4	5.e-002	1.2595e-004
16395	8.8594	1.4	0.	-2.9951
16396	8.7604	1.3	0.	-2.8742
16397	8.7604	1.4	5.e-002	1.7231e-004
16398	9.0573	1.4	0.	-3.2112
16399	8.9583	1.3	0.	-2.6895
16400	8.9583	1.4	5.e-002	1.6305e-004
16401	9.2552	1.4	0.	-4.0261
16402	9.1563	1.3	0.	-2.919
16403	9.1563	1.4	5.e-002	1.8628e-004
16404	9.4531	1.4	0.	-7.4682
16405	9.3542	1.3	0.	-3.6306
16406	9.3542	1.4	5.e-002	1.429e-004
16407	9.651	1.4	0.	-23.593
16408	9.5521	1.3	0.	-6.1349
16409	9.5521	1.4	5.e-002	1.2773e-004
16410	9.849	1.4	0.	-46.014
16411	9.75	1.3	0.	-16.199
16412	9.75	1.4	5.e-002	1.1322e-004
16413	10.047	1.4	0.	-61.639
16414	9.9479	1.3	0.	-32.973
16415	9.9479	1.4	5.e-002	1.0182e-004
16416	10.245	1.4	0.	-71.501
16417	10.146	1.3	0.	-46.295
16418	10.146	1.4	5.e-002	8.7866e-005
16419	10.443	1.4	0.	-77.391
16420	10.344	1.3	0.	-55.535
16421	10.344	1.4	5.e-002	7.3986e-005
16422	10.641	1.4	0.	-80.506
16423	10.542	1.3	0.	-61.655
16424	10.542	1.4	5.e-002	5.9412e-005
16425	10.839	1.4	0.	-81.611
16426	10.74	1.3	0.	-65.422
16427	10.74	1.4	5.e-002	4.7812e-005
16428	11.036	1.4	0.	-81.216
16429	10.937	1.3	0.	-67.371
16430	10.937	1.4	5.e-002	2.2162e-005
16431	11.234	1.4	0.	-79.678
16432	11.135	1.3	0.	-67.885
16433	11.135	1.4	5.e-002	7.7004e-006
16434	11.432	1.4	0.	-77.266
16435	11.333	1.3	0.	-67.26
16436	11.333	1.4	5.e-002	1.1938e-005
16437	11.63	1.4	0.	-74.194
16438	11.531	1.3	0.	-65.734
16439	11.531	1.4	5.e-002	3.0206e-006
16440	11.828	1.4	0.	-70.635
16441	11.729	1.3	0.	-63.503
16442	11.729	1.4	5.e-002	2.1261e-006
16443	12.026	1.4	0.	-66.733
16444	11.927	1.3	0.	-60.736
16445	11.927	1.4	5.e-002	6.1439e-006
16446	12.224	1.4	0.	-62.606
16447	12.125	1.3	0.	-57.575
16448	12.125	1.4	5.e-002	3.2144e-006
16449	12.422	1.4	0.	-58.354
16450	12.323	1.3	0.	-54.141
16451	12.323	1.4	5.e-002	3.5306e-006
16452	12.62	1.4	0.	-54.057
16453	12.521	1.3	0.	-50.534
16454	12.521	1.4	5.e-002	3.0927e-006
16455	12.818	1.4	0.	-49.778
16456	12.719	1.3	0.	-46.835
16457	12.719	1.4	5.e-002	4.1509e-006
16458	13.016	1.4	0.	-45.568
16459	12.917	1.3	0.	-43.113
16460	12.917	1.4	5.e-002	3.9693e-006
16461	13.214	1.4	0.	-41.465
16462	13.115	1.3	0.	-39.418
16463	13.115	1.4	5.e-002	4.175e-006
16464	13.411	1.4	0.	-37.496
16465	13.313	1.3	0.	-35.793
16466	13.313	1.4	5.e-002	3.9216e-006
16467	13.609	1.4	0.	-33.682
16468	13.51	1.3	0.	-32.267
16469	13.51	1.4	5.e-002	3.6247e-006
16470	13.807	1.4	0.	-30.034
16471	13.708	1.3	0.	-28.862
16472	13.708	1.4	5.e-002	4.4241e-006
16473	14.005	1.4	0.	-26.56
16474	13.906	1.3	0.	-25.592
16475	13.906	1.4	5.e-002	4.1816e-006
16476	14.203	1.4	0.	-23.262
16477	14.104	1.3	0.	-22.467
16478	14.104	1.4	5.e-002	3.5591e-006
16479	14.401	1.4	0.	-20.138
16480	14.302	1.3	0.	-19.491
16481	14.302	1.4	5.e-002	3.1908e-006
16482	14.599	1.4	0.	-17.184
16483	14.5	1.3	0.	-16.663
16484	14.5	1.4	5.e-002	3.0383e-006
16485	14.797	1.4	0.	-14.393
16486	14.698	1.3	0.	-13.982
16487	14.698	1.4	5.e-002	3.3274e-006
16488	14.995	1.4	0.	-11.757
16489	14.896	1.3	0.	-11.443
16490	14.896	1.4	5.e-002	3.1853e-006
16491	15.193	1.4	0.	-9.2678
16492	15.094	1.3	0.	-9.0386
16493	15.094	1.4	5.e-002	5.0146e-006
16494	15.391	1.4	0.	-6.9149
16495	15.292	1.3	0.	-6.7625
16496	15.292	1.4	5.e-002	4.8416e-006
16497	15.589	1.4	0.	-4.6884
16498	15.49	1.3	0.	-4.6064
16499	15.49	1.4	5.e-002	4.0516e-006
16500	15.786	1.4	0.	-2.5797
16501	15.688	1.3	0.	-2.5632
16502	15.688	1.4	5.e-002	5.625e-006
16503	15.984	1.4	0.	-0.60681
16504	15.885	1.3	0.	-0.64999
16505	15.885	1.4	5.e-002	5.8759e-006
16506	16.182	1.4	0.	-1.6872e-002
16507	16.083	1.3	0.	-1.9991e-002
16508	16.083	1.4	5.e-002	7.834e-006
16509	16.38	1.4	0.	-4.5435e-003
16510	16.281	1.3	0.	-6.0627e-003
16511	16.281	1.4	5.e-002	7.7007e-006
16512	16.578	1.4	0.	-1.2211e-003
16513	16.479	1.3	0.	-2.4576e-003
16514	16.479	1.4	5.e-002	8.114e-006
16515	16.776	1.4	0.	3.3654e-004
16516	16.677	1.3	0.	-8.1307e-004
16517	16.677	1.4	5.e-002	7.3899e-006
16518	16.974	1.4	0.	1.2699e-003
16519	16.875	1.3	0.	1.3226e-004
16520	16.875	1.4	5.e-002	7.5543e-006
16521	17.172	1.4	0.	1.9316e-003
16522	17.073	1.3	0.	7.7733e-004
16523	17.073	1.4	5.e-002	8.1745e-006
16524	17.37	1.4	0.	2.446e-003
16525	17.271	1.3	0.	1.2739e-003
16526	17.271	1.4	5.e-002	6.6371e-006
16527	17.568	1.4	0.	2.8644e-003
16528	17.469	1.3	0.	1.6652e-003
16529	17.469	1.4	5.e-002	6.2063e-006
16530	17.766	1.4	0.	3.2384e-003
16531	17.667	1.3	0.	1.9907e-003
16532	17.667	1.4	5.e-002	7.1192e-006
16533	17.964	1.4	0.	3.6034e-003
16534	17.865	1.3	0.	2.3025e-003
16535	17.865	1.4	5.e-002	6.6403e-006
16536	18.161	1.4	0.	3.9597e-003
16537	18.063	1.3	0.	2.6136e-003
16538	18.063	1.4	5.e-002	7.0225e-006
16539	18.359	1.4	0.	4.3074e-003
16540	18.26	1.3	0.	2.9099e-003
16541	18.26	1.4	5.e-002	6.6796e-006
16542	18.557	1.4	0.	4.668e-003
16543	18.458	1.3	0.	3.2033e-003
16544	18.458	1.4	5.e-002	5.7082e-006
16545	18.755	1.4	0.	5.0606e-003
16546	18.656	1.3	0.	3.5218e-003
16547	18.656	1.4	5.e-002	5.6292e-006
16548	18.953	1.4	0.	5.479e-003
16549	18.854	1.3	0.	3.8741e-003
16550	18.854	1.4	5.e-002	6.7111e-006
16551	19.151	1.4	0.	5.919e-003
16552	19.052	1.3	0.	4.2407e-003
16553	19.052	1.4	5.e-002	7.7473e-006
16554	19.349	1.4	0.	6.4007e-003
16555	19.25	1.3	0.	4.6318e-003
16556	19.25	1.4	5.e-002	7.671e-006
16557	19.547	1.4	0.	6.9423e-003
16558	19.448	1.3	0.	5.0748e-003
16559	19.448	1.4	5.e-002	5.8336e-006
16560	19.745	1.4	0.	7.5414e-003
16561	19.646	1.3	0.	5.5778e-003
16562	19.646	1.4	5.e-002	7.0904e-006
16563	19.943	1.4	0.	8.2036e-003
16564	19.844	1.3	0.	6.1286e-003
16565	19.844	1.4	5.e-002	6.8737e-006
16566	20.141	1.4	0.	8.9523e-003
16567	20.042	1.3	0.	6.7469e-003
16568	20.042	1.4	5.e-002	5.6051e-006
16569	20.339	1.4	0.	9.8087e-003
16570	20.24	1.3	0.	7.4589e-003
16571	20.24	1.4	5.e-002	5.2832e-006
16572	20.536	1.4	0.	1.0789e-002
16573	20.438	1.3	0.	8.2826e-003
16574	20.438	1.4	5.e-002	7.8031e-006
16575	20.734	1.4	0.	1.1912e-002
16576	20.635	1.3	0.	9.2287e-003
16577	20.635	1.4	5.e-002	9.2768e-006
16578	20.932	1.4	0.	1.3216e-002
16579	20.833	1.3	0.	1.0324e-002
16580	20.833	1.4	5.e-002	7.2375e-006
16581	21.13	1.4	0.	1.4754e-002
16582	21.031	1.3	0.	1.162e-002
16583	21.031	1.4	5.e-002	7.1987e-006
16584	21.328	1.4	0.	1.6575e-002
16585	21.229	1.3	0.	1.3165e-002
16586	21.229	1.4	5.e-002	6.553e-006
16587	21.526	1.4	0.	1.8752e-002
16588	21.427	1.3	0.	1.5012e-002
16589	21.427	1.4	5.e-002	9.8034e-006
16590	21.724	1.4	0.	2.1392e-002
16591	21.625	1.3	0.	1.7251e-002
16592	21.625	1.4	5.e-002	7.0116e-006
16593	21.922	1.4	0.	2.4644e-002
16594	21.823	1.3	0.	2.0006e-002
16595	21.823	1.4	5.e-002	7.1457e-006
16596	22.12	1.4	0.	2.8703e-002
16597	22.021	1.3	0.	2.345e-002
16598	22.021	1.4	5.e-002	5.4296e-006
16599	22.318	1.4	0.	3.3881e-002
16600	22.219	1.3	0.	2.7806e-002
16601	22.219	1.4	5.e-002	4.9767e-006
16602	22.516	1.4	0.	4.0575e-002
16603	22.417	1.3	0.	3.3484e-002
16604	22.417	1.4	5.e-002	7.2617e-006
16605	22.714	1.4	0.	4.9804e-002
16606	22.615	1.3	0.	4.0883e-002
16607	22.615	1.4	5.e-002	6.2469e-006
16608	22.911	1.4	0.	6.1769e-002
16609	22.813	1.3	0.	5.1681e-002
16610	22.813	1.4	5.e-002	6.7153e-006
16611	23.109	1.4	0.	8.32e-002
16612	23.01	1.3	0.	6.4713e-002
16613	23.01	1.4	5.e-002	9.6713e-006
16614	23.307	1.4	0.	0.10223
16615	23.208	1.3	0.	9.4868e-002
16616	23.208	1.4	5.e-002	4.2443e-006
16617	23.505	1.4	0.	0.20062
16618	23.406	1.3	0.	0.10469
16619	23.406	1.4	5.e-002	5.392e-006
16620	23.703	1.4	0.	0.15556
16621	23.604	1.3	0.	0.29915
16622	23.604	1.4	5.e-002	7.3823e-006
16623	23.802	1.3	0.	6.8723e-002
16624	23.802	1.4	5.e-002	5.9681e-006
16625	23.901	1.4	0.	0.28663
16626	8.4635	1.2	0.	-4.3281
16627	8.3646	1.1	0.	-9.0729
16628	8.3646	1.2	5.e-002	1.4372e-005
16629	8.2656	1.2	0.	3.207
16630	8.6615	1.2	0.	-1.3663
16631	8.5625	1.1	0.	-5.8094e-002
16632	8.5625	1.2	5.e-002	8.0561e-005
16633	8.8594	1.2	0.	-2.5159
16634	8.7604	1.1	0.	-2.6668
16635	8.7604	1.2	5.e-002	7.9029e-005
16636	9.0573	1.2	0.	-2.3301
16637	8.9583	1.1	0.	-2.059
16638	8.9583	1.2	5.e-002	1.1173e-004
16639	9.2552	1.2	0.	-2.4981
16640	9.1563	1.1	0.	-2.1197
16641	9.1563	1.2	5.e-002	1.2435e-004
16642	9.4531	1.2	0.	-2.9344
16643	9.3542	1.1	0.	-2.147
16644	9.3542	1.2	5.e-002	1.2067e-004
16645	9.651	1.2	0.	-4.1144
16646	9.5521	1.1	0.	-2.3525
16647	9.5521	1.2	5.e-002	1.372e-004
16648	9.849	1.2	0.	-8.2061
16649	9.75	1.1	0.	-2.8989
16650	9.75	1.2	5.e-002	1.3403e-004
16651	10.047	1.2	0.	-19.064
16652	9.9479	1.1	0.	-4.6148
16653	9.9479	1.2	5.e-002	1.2601e-004
16654	10.245	1.2	0.	-30.836
16655	10.146	1.1	0.	-10.586
16656	10.146	1.2	5.e-002	8.4803e-005
16657	10.443	1.2	0.	-40.009
16658	10.344	1.1	0.	-20.325
16659	10.344	1.2	5.e-002	6.9829e-005
16660	10.641	1.2	0.	-46.656
16661	10.542	1.1	0.	-29.02
16662	10.542	1.2	5.e-002	5.3929e-005
16663	10.839	1.2	0.	-51.207
16664	10.74	1.1	0.	-35.726
16665	10.74	1.2	5.e-002	3.9689e-005
16666	11.036	1.2	0.	-54.038
16667	10.937	1.1	0.	-40.573
16668	10.937	1.2	5.e-002	1.3099e-005
16669	11.234	1.2	0.	-55.454
16670	11.135	1.1	0.	-43.81
16671	11.135	1.2	5.e-002	1.8863e-005
16672	11.432	1.2	0.	-55.709
16673	11.333	1.1	0.	-45.682
16674	11.333	1.2	5.e-002	1.1142e-005
16675	11.63	1.2	0.	-55.023
16676	11.531	1.1	0.	-46.414
16677	11.531	1.2	5.e-002	-3.2054e-006
16678	11.828	1.2	0.	-53.584
16679	11.729	1.1	0.	-46.211
16680	11.729	1.2	5.e-002	9.8067e-006
16681	12.026	1.2	0.	-51.56
16682	11.927	1.1	0.	-45.255
16683	11.927	1.2	5.e-002	4.8545e-006
16684	12.224	1.2	0.	-49.092
16685	12.125	1.1	0.	-43.705
16686	12.125	1.2	5.e-002	3.6913e-006
16687	12.422	1.2	0.	-46.303
16688	12.323	1.1	0.	-41.703
16689	12.323	1.2	5.e-002	3.7135e-006
16690	12.62	1.2	0.	-43.295
16691	12.521	1.1	0.	-39.367
16692	12.521	1.2	5.e-002	5.0253e-006
16693	12.818	1.2	0.	-40.152
16694	12.719	1.1	0.	-36.798
16695	12.719	1.2	5.e-002	6.1157e-006
16696	13.016	1.2	0.	-36.945
16697	12.917	1.1	0.	-34.078
16698	12.917	1.2	5.e-002	4.1017e-006
16699	13.214	1.2	0.	-33.729
16700	13.115	1.1	0.	-31.277
16701	13.115	1.2	5.e-002	3.072e-006
16702	13.411	1.2	0.	-30.545
16703	13.313	1.1	0.	-28.447
16704	13.313	1.2	5.e-002	3.9887e-006
16705	13.609	1.2	0.	-27.427
16706	13.51	1.1	0.	-25.632
16707	13.51	1.2	5.e-002	4.4114e-006
16708	13.807	1.2	0.	-24.399
16709	13.708	1.1	0.	-22.862
16710	13.708	1.2	5.e-002	4.201e-006
16711	14.005	1.2	0.	-21.478
16712	13.906	1.1	0.	-20.163
16713	13.906	1.2	5.e-002	4.8059e-006
16714	14.203	1.2	0.	-18.674
16715	14.104	1.1	0.	-17.55
16716	14.104	1.2	5.e-002	3.8597e-006
16717	14.401	1.2	0.	-15.993
16718	14.302	1.1	0.	-15.036
16719	14.302	1.2	5.e-002	3.1261e-006
16720	14.599	1.2	0.	-13.437
16721	14.5	1.1	0.	-12.626
16722	14.5	1.2	5.e-002	2.7079e-006
16723	14.797	1.2	0.	-11.007
16724	14.698	1.1	0.	-10.323
16725	14.698	1.2	5.e-002	2.243e-006
16726	14.995	1.2	0.	-8.6981
16727	14.896	1.1	0.	-8.1279
16728	14.896	1.2	5.e-002	2.6171e-006
16729	15.193	1.2	0.	-6.5065
16730	15.094	1.1	0.	-6.0382
16731	15.094	1.2	5.e-002	4.8814e-006
16732	15.391	1.2	0.	-4.4262
16733	15.292	1.1	0.	-4.0507
16734	15.292	1.2	5.e-002	5.07e-006
16735	15.589	1.2	0.	-2.4525
16736	15.49	1.1	0.	-2.1628
16737	15.49	1.2	5.e-002	3.4699e-006
16738	15.786	1.2	0.	-0.60645
16739	15.688	1.1	0.	-0.41534
16740	15.688	1.2	5.e-002	5.4174e-006
16741	15.984	1.2	0.	-2.0827e-002
16742	15.885	1.1	0.	-1.8493e-002
16743	15.885	1.2	5.e-002	5.5755e-006
16744	16.182	1.2	0.	-6.9872e-003
16745	16.083	1.1	0.	-7.1923e-003
16746	16.083	1.2	5.e-002	8.5014e-006
16747	16.38	1.2	0.	-3.3971e-003
16748	16.281	1.1	0.	-4.0009e-003
16749	16.281	1.2	5.e-002	8.2954e-006
16750	16.578	1.2	0.	-1.7713e-003
16751	16.479	1.1	0.	-2.528e-003
16752	16.479	1.2	5.e-002	7.7361e-006
16753	16.776	1.2	0.	-8.5818e-004
16754	16.677	1.1	0.	-1.7114e-003
16755	16.677	1.2	5.e-002	7.4352e-006
16756	16.974	1.2	0.	-2.6477e-004
16757	16.875	1.1	0.	-1.2077e-003
16758	16.875	1.2	5.e-002	7.522e-006
16759	17.172	1.2	0.	1.7486e-004
16760	17.073	1.1	0.	-8.4802e-004
16761	17.073	1.2	5.e-002	8.028e-006
16762	17.37	1.2	0.	5.197e-004
16763	17.271	1.1	0.	-5.6501e-004
16764	17.271	1.2	5.e-002	5.846e-006
16765	17.568	1.2	0.	7.9618e-004
16766	17.469	1.1	0.	-3.5035e-004
16767	17.469	1.2	5.e-002	6.4885e-006
16768	17.766	1.2	0.	1.0413e-003
16769	17.667	1.1	0.	-1.7896e-004
16770	17.667	1.2	5.e-002	7.5908e-006
16771	17.964	1.2	0.	1.2834e-003
16772	17.865	1.1	0.	-1.2179e-005
16773	17.865	1.2	5.e-002	5.675e-006
16774	18.161	1.2	0.	1.5204e-003
16775	18.063	1.1	0.	1.6013e-004
16776	18.063	1.2	5.e-002	6.5758e-006
16777	18.359	1.2	0.	1.7491e-003
16778	18.26	1.1	0.	3.1919e-004
16779	18.26	1.2	5.e-002	7.1217e-006
16780	18.557	1.2	0.	1.9876e-003
16781	18.458	1.1	0.	4.7566e-004
16782	18.458	1.2	5.e-002	6.4051e-006
16783	18.755	1.2	0.	2.2529e-003
16784	18.656	1.1	0.	6.5381e-004
16785	18.656	1.2	5.e-002	4.9435e-006
16786	18.953	1.2	0.	2.5404e-003
16787	18.854	1.1	0.	8.5839e-004
16788	18.854	1.2	5.e-002	5.3699e-006
16789	19.151	1.2	0.	2.8449e-003
16790	19.052	1.1	0.	1.0736e-003
16791	19.052	1.2	5.e-002	7.2341e-006
16792	19.349	1.2	0.	3.1833e-003
16793	19.25	1.1	0.	1.3063e-003
16794	19.25	1.2	5.e-002	7.7287e-006
16795	19.547	1.2	0.	3.573e-003
16796	19.448	1.1	0.	1.5811e-003
16797	19.448	1.2	5.e-002	5.0986e-006
16798	19.745	1.2	0.	4.0118e-003
16799	19.646	1.1	0.	1.9044e-003
16800	19.646	1.2	5.e-002	5.8033e-006
16801	19.943	1.2	0.	4.5014e-003
16802	19.844	1.1	0.	2.2672e-003
16803	19.844	1.2	5.e-002	7.2517e-006
16804	20.141	1.2	0.	5.0641e-003
16805	20.042	1.1	0.	2.6806e-003
16806	20.042	1.2	5.e-002	5.0308e-006
16807	20.339	1.2	0.	5.7224e-003
16808	20.24	1.1	0.	3.1737e-003
16809	20.24	1.2	5.e-002	5.3164e-006
16810	20.536	1.2	0.	6.4884e-003
16811	20.438	1.1	0.	3.7625e-003
16812	20.438	1.2	5.e-002	6.5679e-006
16813	20.734	1.2	0.	7.3804e-003
16814	20.635	1.1	0.	4.4516e-003
16815	20.635	1.2	5.e-002	8.5481e-006
16816	20.932	1.2	0.	8.4364e-003
16817	20.833	1.1	0.	5.2716e-003
16818	20.833	1.2	5.e-002	7.5858e-006
16819	21.13	1.2	0.	9.705e-003
16820	21.031	1.1	0.	6.2654e-003
16821	21.031	1.2	5.e-002	7.6654e-006
16822	21.328	1.2	0.	1.1234e-002
16823	21.229	1.1	0.	7.4837e-003
16824	21.229	1.2	5.e-002	7.7151e-006
16825	21.526	1.2	0.	1.3093e-002
16826	21.427	1.1	0.	8.9711e-003
16827	21.427	1.2	5.e-002	7.9923e-006
16828	21.724	1.2	0.	1.5386e-002
16829	21.625	1.1	0.	1.0816e-002
16830	21.625	1.2	5.e-002	8.5581e-006
16831	21.922	1.2	0.	1.8255e-002
16832	21.823	1.1	0.	1.3138e-002
16833	21.823	1.2	5.e-002	9.9065e-006
16834	22.12	1.2	0.	2.1893e-002
16835	22.021	1.1	0.	1.6103e-002
16836	22.021	1.2	5.e-002	5.4885e-006
16837	22.318	1.2	0.	2.6609e-002
16838	22.219	1.1	0.	1.9928e-002
16839	22.219	1.2	5.e-002	4.4901e-006
16840	22.516	1.2	0.	3.2785e-002
16841	22.417	1.1	0.	2.5015e-002
16842	22.417	1.2	5.e-002	6.041e-006
16843	22.714	1.2	0.	4.1421e-002
16844	22.615	1.1	0.	3.1745e-002
16845	22.615	1.2	5.e-002	7.2325e-006
16846	22.911	1.2	0.	5.2698e-002
16847	22.813	1.1	0.	4.1761e-002
16848	22.813	1.2	5.e-002	1.0638e-005
16849	23.109	1.2	0.	7.3254e-002
16850	23.01	1.1	0.	5.3884e-002
16851	23.01	1.2	5.e-002	7.2045e-006
16852	23.307	1.2	0.	9.1216e-002
16853	23.208	1.1	0.	8.2777e-002
16854	23.208	1.2	5.e-002	4.9544e-006
16855	23.505	1.2	0.	0.18726
16856	23.406	1.1	0.	9.1238e-002
16857	23.406	1.2	5.e-002	5.6629e-006
16858	23.703	1.2	0.	0.13724
16859	23.604	1.1	0.	0.2813
16860	23.604	1.2	5.e-002	6.874e-006
16861	23.802	1.1	0.	4.1103e-002
16862	23.802	1.2	5.e-002	1.168e-006
16863	23.901	1.2	0.	0.27911
16864	8.4635	1.	0.	-5.2426
16865	8.3646	0.9	0.	-9.0123
16866	8.3646	1.	5.e-002	1.0064e-005
16867	8.2656	1.	0.	-1.2433
16868	8.6615	1.	0.	-1.4113
16869	8.5625	0.9	0.	-0.51483
16870	8.5625	1.	5.e-002	4.1437e-005
16871	8.8594	1.	0.	-2.2098
16872	8.7604	0.9	0.	-2.4895
16873	8.7604	1.	5.e-002	3.8806e-005
16874	9.0573	1.	0.	-1.8327
16875	8.9583	0.9	0.	-1.74
16876	8.9583	1.	5.e-002	6.1681e-005
16877	9.2552	1.	0.	-1.7815
16878	9.1563	0.9	0.	-1.648
16879	9.1563	1.	5.e-002	7.9291e-005
16880	9.4531	1.	0.	-1.6972
16881	9.3542	0.9	0.	-1.4299
16882	9.3542	1.	5.e-002	7.4253e-005
16883	9.651	1.	0.	-1.7016
16884	9.5521	0.9	0.	-1.2962
16885	9.5521	1.	5.e-002	9.3383e-005
16886	9.849	1.	0.	-1.8394
16887	9.75	0.9	0.	-1.2134
16888	9.75	1.	5.e-002	7.8375e-005
16889	10.047	1.	0.	-2.3224
16890	9.9479	0.9	0.	-1.2161
16891	9.9479	1.	5.e-002	9.9768e-005
16892	10.245	1.	0.	-4.1292
16893	10.146	0.9	0.	-1.3761
16894	10.146	1.	5.e-002	9.7868e-005
16895	10.443	1.	0.	-10.2
16896	10.344	0.9	0.	-2.0175
16897	10.344	1.	5.e-002	1.198e-004
16898	10.641	1.	0.	-18.291
16899	10.542	0.9	0.	-5.0189
16900	10.542	1.	5.e-002	7.2112e-005
16901	10.839	1.	0.	-25.145
16902	10.74	0.9	0.	-11.825
16903	10.74	1.	5.e-002	6.6367e-006
16904	11.036	1.	0.	-30.35
16905	10.937	0.9	0.	-18.337
16906	10.937	1.	5.e-002	3.2174e-005
16907	11.234	1.	0.	-34.025
16908	11.135	0.9	0.	-23.406
16909	11.135	1.	5.e-002	3.3148e-005
16910	11.432	1.	0.	-36.367
16911	11.333	0.9	0.	-27.048
16912	11.333	1.	5.e-002	2.0292e-005
16913	11.63	1.	0.	-37.581
16914	11.531	0.9	0.	-29.433
16915	11.531	1.	5.e-002	5.8637e-006
16916	11.828	1.	0.	-37.859
16917	11.729	0.9	0.	-30.75
16918	11.729	1.	5.e-002	7.3651e-006
16919	12.026	1.	0.	-37.378
16920	11.927	0.9	0.	-31.182
16921	11.927	1.	5.e-002	-2.4543e-006
16922	12.224	1.	0.	-36.295
16923	12.125	0.9	0.	-30.896
16924	12.125	1.	5.e-002	2.9782e-006
16925	12.422	1.	0.	-34.747
16926	12.323	0.9	0.	-30.041
16927	12.323	1.	5.e-002	1.9591e-006
16928	12.62	1.	0.	-32.85
16929	12.521	0.9	0.	-28.747
16930	12.521	1.	5.e-002	1.6927e-006
16931	12.818	1.	0.	-30.704
16932	12.719	0.9	0.	-27.124
16933	12.719	1.	5.e-002	4.2949e-006
16934	13.016	1.	0.	-28.39
16935	12.917	0.9	0.	-25.263
16936	12.917	1.	5.e-002	4.2933e-006
16937	13.214	1.	0.	-25.976
16938	13.115	0.9	0.	-23.242
16939	13.115	1.	5.e-002	5.103e-006
16940	13.411	1.	0.	-23.514
16941	13.313	0.9	0.	-21.121
16942	13.313	1.	5.e-002	4.3999e-006
16943	13.609	1.	0.	-21.046
16944	13.51	0.9	0.	-18.95
16945	13.51	1.	5.e-002	4.6202e-006
16946	13.807	1.	0.	-18.604
16947	13.708	0.9	0.	-16.767
16948	13.708	1.	5.e-002	4.9088e-006
16949	14.005	1.	0.	-16.213
16950	13.906	0.9	0.	-14.603
16951	13.906	1.	5.e-002	4.4209e-006
16952	14.203	1.	0.	-13.889
16953	14.104	0.9	0.	-12.479
16954	14.104	1.	5.e-002	3.5018e-006
16955	14.401	1.	0.	-11.645
16956	14.302	0.9	0.	-10.411
16957	14.302	1.	5.e-002	2.4365e-006
16958	14.599	1.	0.	-9.4865
16959	14.5	0.9	0.	-8.4091
16960	14.5	1.	5.e-002	1.7924e-006
16961	14.797	1.	0.	-7.4183
16962	14.698	0.9	0.	-6.4812
16963	14.698	1.	5.e-002	2.0201e-006
16964	14.995	1.	0.	-5.4413
16965	14.896	0.9	0.	-4.6306
16966	14.896	1.	5.e-002	2.2383e-006
16967	15.193	1.	0.	-3.5549
16968	15.094	0.9	0.	-2.8595
16969	15.094	1.	5.e-002	4.4989e-006
16970	15.391	1.	0.	-1.76
16971	15.292	0.9	0.	-1.1738
16972	15.292	1.	5.e-002	4.6005e-006
16973	15.589	1.	0.	-0.17683
16974	15.49	0.9	0.	-4.459e-002
16975	15.49	1.	5.e-002	4.8251e-006
16976	15.786	1.	0.	-1.4598e-002
16977	15.688	0.9	0.	-1.0145e-002
16978	15.688	1.	5.e-002	6.7797e-006
16979	15.984	1.	0.	-6.6526e-003
16980	15.885	0.9	0.	-5.5431e-003
16981	15.885	1.	5.e-002	6.2234e-006
16982	16.182	1.	0.	-4.1507e-003
16983	16.083	0.9	0.	-3.9319e-003
16984	16.083	1.	5.e-002	7.6272e-006
16985	16.38	1.	0.	-2.9805e-003
16986	16.281	0.9	0.	-3.1901e-003
16987	16.281	1.	5.e-002	7.5358e-006
16988	16.578	1.	0.	-2.3353e-003
16989	16.479	0.9	0.	-2.8038e-003
16990	16.479	1.	5.e-002	7.841e-006
16991	16.776	1.	0.	-1.9571e-003
16992	16.677	0.9	0.	-2.6166e-003
16993	16.677	1.	5.e-002	7.2656e-006
16994	16.974	1.	0.	-1.7141e-003
16995	16.875	0.9	0.	-2.5453e-003
16996	16.875	1.	5.e-002	6.8591e-006
16997	17.172	1.	0.	-1.5346e-003
16998	17.073	0.9	0.	-2.5171e-003
16999	17.073	1.	5.e-002	8.0346e-006
17000	17.37	1.	0.	-1.4023e-003
17001	17.271	0.9	0.	-2.5107e-003
17002	17.271	1.	5.e-002	7.1656e-006
17003	17.568	1.	0.	-1.3111e-003
17004	17.469	0.9	0.	-2.5384e-003
17005	17.469	1.	5.e-002	6.7646e-006
17006	17.766	1.	0.	-1.2349e-003
17007	17.667	0.9	0.	-2.5907e-003
17008	17.667	1.	5.e-002	7.8119e-006
17009	17.964	1.	0.	-1.1537e-003
17010	17.865	0.9	0.	-2.6372e-003
17011	17.865	1.	5.e-002	6.6318e-006
17012	18.161	1.	0.	-1.0745e-003
17013	18.063	0.9	0.	-2.6718e-003
17014	18.063	1.	5.e-002	7.1741e-006
17015	18.359	1.	0.	-1.0026e-003
17016	18.26	0.9	0.	-2.7191e-003
17017	18.26	1.	5.e-002	5.914e-006
17018	18.557	1.	0.	-9.2143e-004
17019	18.458	0.9	0.	-2.7706e-003
17020	18.458	1.	5.e-002	5.3606e-006
17021	18.755	1.	0.	-8.1926e-004
17022	18.656	0.9	0.	-2.806e-003
17023	18.656	1.	5.e-002	5.6378e-006
17024	18.953	1.	0.	-7.028e-004
17025	18.854	0.9	0.	-2.8232e-003
17026	18.854	1.	5.e-002	6.0122e-006
17027	19.151	1.	0.	-5.7585e-004
17028	19.052	0.9	0.	-2.8374e-003
17029	19.052	1.	5.e-002	7.9467e-006
17030	19.349	1.	0.	-4.2433e-004
17031	19.25	0.9	0.	-2.8472e-003
17032	19.25	1.	5.e-002	7.0621e-006
17033	19.547	1.	0.	-2.3476e-004
17034	19.448	0.9	0.	-2.831e-003
17035	19.448	1.	5.e-002	5.e-006
17036	19.745	1.	0.	-7.9669e-006
17037	19.646	0.9	0.	-2.7814e-003
17038	19.646	1.	5.e-002	5.8565e-006
17039	19.943	1.	0.	2.5618e-004
17040	19.844	0.9	0.	-2.7105e-003
17041	19.844	1.	5.e-002	5.8139e-006
17042	20.141	1.	0.	5.7518e-004
17043	20.042	0.9	0.	-2.6118e-003
17044	20.042	1.	5.e-002	1.7594e-006
17045	20.339	1.	0.	9.7114e-004
17046	20.24	0.9	0.	-2.4584e-003
17047	20.24	1.	5.e-002	4.0262e-006
17048	20.536	1.	0.	1.452e-003
17049	20.438	0.9	0.	-2.2394e-003
17050	20.438	1.	5.e-002	7.5114e-006
17051	20.734	1.	0.	2.0338e-003
17052	20.635	0.9	0.	-1.9525e-003
17053	20.635	1.	5.e-002	8.4201e-006
17054	20.932	1.	0.	2.7513e-003
17055	20.833	0.9	0.	-1.5731e-003
17056	20.833	1.	5.e-002	7.2715e-006
17057	21.13	1.	0.	3.6481e-003
17058	21.031	0.9	0.	-1.0634e-003
17059	21.031	1.	5.e-002	7.5068e-006
17060	21.328	1.	0.	4.7703e-003
17061	21.229	0.9	0.	-3.785e-004
17062	21.229	1.	5.e-002	5.6797e-006
17063	21.526	1.	0.	6.1785e-003
17064	21.427	0.9	0.	5.2074e-004
17065	21.427	1.	5.e-002	7.0141e-006
17066	21.724	1.	0.	7.9737e-003
17067	21.625	0.9	0.	1.7079e-003
17068	21.625	1.	5.e-002	8.1193e-006
17069	21.922	1.	0.	1.0293e-002
17070	21.823	0.9	0.	3.2987e-003
17071	21.823	1.	5.e-002	9.0954e-006
17072	22.12	1.	0.	1.3318e-002
17073	22.021	0.9	0.	5.4454e-003
17074	22.021	1.	5.e-002	4.3181e-006
17075	22.318	1.	0.	1.7347e-002
17076	22.219	0.9	0.	8.3473e-003
17077	22.219	1.	5.e-002	3.5923e-006
17078	22.516	1.	0.	2.2752e-002
17079	22.417	0.9	0.	1.2384e-002
17080	22.417	1.	5.e-002	6.4609e-006
17081	22.714	1.	0.	3.0502e-002
17082	22.615	0.9	0.	1.7914e-002
17083	22.615	1.	5.e-002	8.9548e-006
17084	22.911	1.	0.	4.0754e-002
17085	22.813	0.9	0.	2.6527e-002
17086	22.813	1.	5.e-002	1.1567e-005
17087	23.109	1.	0.	6.0013e-002
17088	23.01	0.9	0.	3.6985e-002
17089	23.01	1.	5.e-002	1.1444e-005
17090	23.307	1.	0.	7.6492e-002
17091	23.208	0.9	0.	6.3682e-002
17092	23.208	1.	5.e-002	6.5798e-006
17093	23.505	1.	0.	0.16946
17094	23.406	0.9	0.	6.9741e-002
17095	23.406	1.	5.e-002	2.842e-006
17096	23.703	1.	0.	0.11332
17097	23.604	0.9	0.	0.25282
17098	23.604	1.	5.e-002	8.0189e-006
17099	23.802	0.9	0.	-3.7945e-004
17100	23.802	1.	5.e-002	1.105e-006
17101	23.901	1.	0.	0.26996
17102	8.4635	0.8	0.	-4.9101
17103	8.3646	0.7	0.	-8.5864
17104	8.3646	0.8	5.e-002	-1.3978e-014
17105	8.2656	0.8	0.	0.51974
17106	8.6615	0.8	0.	-1.7349
17107	8.5625	0.7	0.	-1.4073
17108	8.5625	0.8	5.e-002	2.6097e-005
17109	8.8594	0.8	0.	-2.0696
17110	8.7604	0.7	0.	-2.553
17111	8.7604	0.8	5.e-002	3.7893e-005
17112	9.0573	0.8	0.	-1.5661
17113	8.9583	0.7	0.	-1.6061
17114	8.9583	0.8	5.e-002	4.3472e-005
17115	9.2552	0.8	0.	-1.3102
17116	9.1563	0.7	0.	-1.2637
17117	9.1563	0.8	5.e-002	5.117e-005
17118	9.4531	0.8	0.	-1.0774
17119	9.3542	0.7	0.	-0.93952
17120	9.3542	0.8	5.e-002	3.3327e-005
17121	9.651	0.8	0.	-0.91874
17122	9.5521	0.7	0.	-0.74157
17123	9.5521	0.8	5.e-002	4.8038e-005
17124	9.849	0.8	0.	-0.81158
17125	9.75	0.7	0.	-0.60332
17126	9.75	0.8	5.e-002	6.4957e-005
17127	10.047	0.8	0.	-0.75988
17128	9.9479	0.7	0.	-0.51596
17129	9.9479	0.8	5.e-002	5.105e-005
17130	10.245	0.8	0.	-0.7793
17131	10.146	0.7	0.	-0.46877
17132	10.146	0.8	5.e-002	8.9449e-005
17133	10.443	0.8	0.	-0.94419
17134	10.344	0.7	0.	-0.46518
17135	10.344	0.8	5.e-002	6.7732e-005
17136	10.641	0.8	0.	-1.6838
17137	10.542	0.7	0.	-0.53363
17138	10.542	0.8	5.e-002	1.1885e-004
17139	10.839	0.8	0.	-5.475
17140	10.74	0.7	0.	-0.83146
17141	10.74	0.8	5.e-002	8.7753e-005
17142	11.036	0.8	0.	-11.448
17143	10.937	0.7	0.	-2.7599
17144	10.937	0.8	5.e-002	1.8959e-005
17145	11.234	0.8	0.	-16.425
17146	11.135	0.7	0.	-7.7417
17147	11.135	0.8	5.e-002	1.9801e-005
17148	11.432	0.8	0.	-20.095
17149	11.333	0.7	0.	-12.188
17150	11.333	0.8	5.e-002	3.1562e-006
17151	11.63	0.8	0.	-22.579
17152	11.531	0.7	0.	-15.468
17153	11.531	0.8	5.e-002	5.511e-006
17154	11.828	0.8	0.	-24.048
17155	11.729	0.7	0.	-17.679
17156	11.729	0.8	5.e-002	6.9318e-006
17157	12.026	0.8	0.	-24.675
17158	11.927	0.7	0.	-18.98
17159	11.927	0.8	5.e-002	-2.3042e-007
17160	12.224	0.8	0.	-24.619
17161	12.125	0.7	0.	-19.53
17162	12.125	0.8	5.e-002	2.7335e-006
17163	12.422	0.8	0.	-24.02
17164	12.323	0.7	0.	-19.473
17165	12.323	0.8	5.e-002	3.9281e-006
17166	12.62	0.8	0.	-23.
17167	12.521	0.7	0.	-18.938
17168	12.521	0.8	5.e-002	3.3043e-006
17169	12.818	0.8	0.	-21.662
17170	12.719	0.7	0.	-18.032
17171	12.719	0.8	5.e-002	3.7001e-006
17172	13.016	0.8	0.	-20.093
17173	12.917	0.7	0.	-16.848
17174	12.917	0.8	5.e-002	6.6688e-006
17175	13.214	0.8	0.	-18.365
17176	13.115	0.7	0.	-15.463
17177	13.115	0.8	5.e-002	6.0716e-006
17178	13.411	0.8	0.	-16.535
17179	13.313	0.7	0.	-13.939
17180	13.313	0.8	5.e-002	5.6559e-006
17181	13.609	0.8	0.	-14.649
17182	13.51	0.7	0.	-12.327
17183	13.51	0.8	5.e-002	4.2272e-006
17184	13.807	0.8	0.	-12.743
17185	13.708	0.7	0.	-10.666
17186	13.708	0.8	5.e-002	4.1994e-006
17187	14.005	0.8	0.	-10.845
17188	13.906	0.7	0.	-8.9872
17189	13.906	0.8	5.e-002	5.1743e-006
17190	14.203	0.8	0.	-8.9755
17191	14.104	0.7	0.	-7.3154
17192	14.104	0.8	5.e-002	4.2732e-006
17193	14.401	0.8	0.	-7.1497
17194	14.302	0.7	0.	-5.668
17195	14.302	0.8	5.e-002	2.9121e-006
17196	14.599	0.8	0.	-5.3778
17197	14.5	0.7	0.	-4.0579
17198	14.5	0.8	5.e-002	1.9265e-006
17199	14.797	0.8	0.	-3.6669
17200	14.698	0.7	0.	-2.4946
17201	14.698	0.8	5.e-002	2.2826e-006
17202	14.995	0.8	0.	-2.0222
17203	14.896	0.7	0.	-0.98808
17204	14.896	0.8	5.e-002	2.2148e-006
17205	15.193	0.8	0.	-0.46898
17206	15.094	0.7	0.	-2.3078e-002
17207	15.094	0.8	5.e-002	3.4866e-006
17208	15.391	0.8	0.	-1.5312e-002
17209	15.292	0.7	0.	-5.5771e-003
17210	15.292	0.8	5.e-002	5.4152e-006
17211	15.589	0.8	0.	-6.1662e-003
17212	15.49	0.7	0.	-3.3891e-003
17213	15.49	0.8	5.e-002	6.3728e-006
17214	15.786	0.8	0.	-4.0452e-003
17215	15.688	0.7	0.	-2.7882e-003
17216	15.688	0.8	5.e-002	8.7133e-006
17217	15.984	0.8	0.	-3.3035e-003
17218	15.885	0.7	0.	-2.6778e-003
17219	15.885	0.8	5.e-002	7.3632e-006
17220	16.182	0.8	0.	-3.0393e-003
17221	16.083	0.7	0.	-2.7707e-003
17222	16.083	0.8	5.e-002	7.2577e-006
17223	16.38	0.8	0.	-2.9741e-003
17224	16.281	0.7	0.	-2.937e-003
17225	16.281	0.8	5.e-002	7.029e-006
17226	16.578	0.8	0.	-3.0171e-003
17227	16.479	0.7	0.	-3.1303e-003
17228	16.479	0.8	5.e-002	8.0566e-006
17229	16.776	0.8	0.	-3.1341e-003
17230	16.677	0.7	0.	-3.3591e-003
17231	16.677	0.8	5.e-002	8.4395e-006
17232	16.974	0.8	0.	-3.285e-003
17233	16.875	0.7	0.	-3.6143e-003
17234	16.875	0.8	5.e-002	8.7168e-006
17235	17.172	0.8	0.	-3.4414e-003
17236	17.073	0.7	0.	-3.8594e-003
17237	17.073	0.8	5.e-002	1.0656e-005
17238	17.37	0.8	0.	-3.6082e-003
17239	17.271	0.7	0.	-4.0928e-003
17240	17.271	0.8	5.e-002	7.3713e-006
17241	17.568	0.8	0.	-3.7936e-003
17242	17.469	0.7	0.	-4.3367e-003
17243	17.469	0.8	5.e-002	5.6228e-006
17244	17.766	0.8	0.	-3.9831e-003
17245	17.667	0.7	0.	-4.5957e-003
17246	17.667	0.8	5.e-002	7.5722e-006
17247	17.964	0.8	0.	-4.1603e-003
17248	17.865	0.7	0.	-4.8406e-003
17249	17.865	0.8	5.e-002	9.4724e-006
17250	18.161	0.8	0.	-4.3366e-003
17251	18.063	0.7	0.	-5.0666e-003
17252	18.063	0.8	5.e-002	8.8297e-006
17253	18.359	0.8	0.	-4.5231e-003
17254	18.26	0.7	0.	-5.3089e-003
17255	18.26	0.8	5.e-002	5.9949e-006
17256	18.557	0.8	0.	-4.7077e-003
17257	18.458	0.7	0.	-5.5607e-003
17258	18.458	0.8	5.e-002	5.1056e-006
17259	18.755	0.8	0.	-4.8798e-003
17260	18.656	0.7	0.	-5.8031e-003
17261	18.656	0.8	5.e-002	6.0033e-006
17262	18.953	0.8	0.	-5.0461e-003
17263	18.854	0.7	0.	-6.035e-003
17264	18.854	0.8	5.e-002	7.7492e-006
17265	19.151	0.8	0.	-5.217e-003
17266	19.052	0.7	0.	-6.2757e-003
17267	19.052	0.8	5.e-002	8.9079e-006
17268	19.349	0.8	0.	-5.3837e-003
17269	19.25	0.7	0.	-6.5258e-003
17270	19.25	0.8	5.e-002	7.1854e-006
17271	19.547	0.8	0.	-5.5311e-003
17272	19.448	0.7	0.	-6.7686e-003
17273	19.448	0.8	5.e-002	5.4382e-006
17274	19.745	0.8	0.	-5.6634e-003
17275	19.646	0.7	0.	-6.9983e-003
17276	19.646	0.8	5.e-002	5.5601e-006
17277	19.943	0.8	0.	-5.7869e-003
17278	19.844	0.7	0.	-7.2303e-003
17279	19.844	0.8	5.e-002	2.6987e-006
17280	20.141	0.8	0.	-5.8861e-003
17281	20.042	0.7	0.	-7.4603e-003
17282	20.042	0.8	5.e-002	1.3549e-006
17283	20.339	0.8	0.	-5.9463e-003
17284	20.24	0.7	0.	-7.6692e-003
17285	20.24	0.8	5.e-002	4.4699e-006
17286	20.536	0.8	0.	-5.9629e-003
17287	20.438	0.7	0.	-7.8515e-003
17288	20.438	0.8	5.e-002	7.606e-006
17289	20.734	0.8	0.	-5.926e-003
17290	20.635	0.7	0.	-8.0051e-003
17291	20.635	0.8	5.e-002	9.1104e-006
17292	20.932	0.8	0.	-5.8093e-003
17293	20.833	0.7	0.	-8.1196e-003
17294	20.833	0.8	5.e-002	7.8991e-006
17295	21.13	0.8	0.	-5.5757e-003
17296	21.031	0.7	0.	-8.1607e-003
17297	21.031	0.8	5.e-002	6.9752e-006
17298	21.328	0.8	0.	-5.1894e-003
17299	21.229	0.7	0.	-8.0964e-003
17300	21.229	0.8	5.e-002	6.893e-006
17301	21.526	0.8	0.	-4.6011e-003
17302	21.427	0.7	0.	-7.8984e-003
17303	21.427	0.8	5.e-002	1.231e-005
17304	21.724	0.8	0.	-3.7274e-003
17305	21.625	0.7	0.	-7.5093e-003
17306	21.625	0.8	5.e-002	9.3218e-006
17307	21.922	0.8	0.	-2.4438e-003
17308	21.823	0.7	0.	-6.8307e-003
17309	21.823	0.8	5.e-002	3.143e-006
17310	22.12	0.8	0.	-5.8979e-004
17311	22.021	0.7	0.	-5.7281e-003
17312	22.021	0.8	5.e-002	1.8055e-006
17313	22.318	0.8	0.	2.0993e-003
17314	22.219	0.7	0.	-4.039e-003
17315	22.219	0.8	5.e-002	3.1613e-006
17316	22.516	0.8	0.	5.9622e-003
17317	22.417	0.7	0.	-1.4207e-003
17318	22.417	0.8	5.e-002	8.5491e-006
17319	22.714	0.8	0.	1.1922e-002
17320	22.615	0.7	0.	2.4484e-003
17321	22.615	0.8	5.e-002	9.7786e-006
17322	22.911	0.8	0.	2.0054e-002
17323	22.813	0.7	0.	9.0658e-003
17324	22.813	0.8	5.e-002	1.0285e-005
17325	23.109	0.8	0.	3.6687e-002
17326	23.01	0.7	0.	1.7154e-002
17327	23.01	0.8	5.e-002	1.753e-005
17328	23.307	0.8	0.	5.0077e-002
17329	23.208	0.7	0.	4.0676e-002
17330	23.208	0.8	5.e-002	1.1188e-005
17331	23.505	0.8	0.	0.13711
17332	23.406	0.7	0.	4.2223e-002
17333	23.406	0.8	5.e-002	7.8267e-006
17334	23.703	0.8	0.	7.0792e-002
17335	23.604	0.7	0.	0.21778
17336	23.604	0.8	5.e-002	7.935e-006
17337	23.802	0.7	0.	-4.98e-002
17338	23.802	0.8	5.e-002	-5.6034e-007
17339	23.901	0.8	0.	0.24619
17340	8.4635	0.6	0.	-6.1031
17341	8.3646	0.5	0.	-9.7206
17342	8.3646	0.6	5.e-002	1.1171e-006
17343	8.2656	0.6	0.	0.30934
17344	8.6615	0.6	0.	-2.5442
17345	8.5625	0.5	0.	-2.7991
17346	8.5625	0.6	5.e-002	1.1215e-005
17347	8.8594	0.6	0.	-2.1702
17348	8.7604	0.5	0.	-2.9092
17349	8.7604	0.6	5.e-002	1.5427e-005
17350	9.0573	0.6	0.	-1.303
17351	8.9583	0.5	0.	-1.4498
17352	8.9583	0.6	5.e-002	2.7313e-005
17353	9.2552	0.6	0.	-0.89085
17354	9.1563	0.5	0.	-0.93392
17355	9.1563	0.6	5.e-002	2.886e-005
17356	9.4531	0.6	0.	-0.62091
17357	9.3542	0.5	0.	-0.6049
17358	9.3542	0.6	5.e-002	2.8691e-005
17359	9.651	0.6	0.	-0.46321
17360	9.5521	0.5	0.	-0.44008
17361	9.5521	0.6	5.e-002	2.5641e-005
17362	9.849	0.6	0.	-0.36274
17363	9.75	0.5	0.	-0.33621
17364	9.75	0.6	5.e-002	3.1023e-005
17365	10.047	0.6	0.	-0.30047
17366	9.9479	0.5	0.	-0.26904
17367	9.9479	0.6	5.e-002	2.9666e-005
17368	10.245	0.6	0.	-0.26493
17369	10.146	0.5	0.	-0.22274
17370	10.146	0.6	5.e-002	6.259e-005
17371	10.443	0.6	0.	-0.25334
17372	10.344	0.5	0.	-0.19203
17373	10.344	0.6	5.e-002	3.8345e-005
17374	10.641	0.6	0.	-0.27224
17375	10.542	0.5	0.	-0.17531
17376	10.542	0.6	5.e-002	6.508e-005
17377	10.839	0.6	0.	-0.35863
17378	10.74	0.5	0.	-0.17604
17379	10.74	0.6	5.e-002	7.6187e-005
17380	11.036	0.6	0.	-0.78585
17381	10.937	0.5	0.	-0.21115
17382	10.937	0.6	5.e-002	3.4045e-005
17383	11.234	0.6	0.	-3.6356
17384	11.135	0.5	0.	-0.38516
17385	11.135	0.6	5.e-002	9.1414e-006
17386	11.432	0.6	0.	-7.5586
17387	11.333	0.5	0.	-1.9306
17388	11.333	0.6	5.e-002	8.4925e-006
17389	11.63	0.6	0.	-10.549
17390	11.531	0.5	0.	-4.9976
17391	11.531	0.6	5.e-002	5.2121e-007
17392	11.828	0.6	0.	-12.587
17393	11.729	0.5	0.	-7.3652
17394	11.729	0.6	5.e-002	3.9812e-006
17395	12.026	0.6	0.	-13.81
17396	11.927	0.5	0.	-8.9405
17397	11.927	0.6	5.e-002	-2.1413e-007
17398	12.224	0.6	0.	-14.36
17399	12.125	0.5	0.	-9.8393
17400	12.125	0.6	5.e-002	6.991e-007
17401	12.422	0.6	0.	-14.368
17402	12.323	0.5	0.	-10.184
17403	12.323	0.6	5.e-002	7.4401e-007
17404	12.62	0.6	0.	-13.947
17405	12.521	0.5	0.	-10.086
17406	12.521	0.6	5.e-002	1.6813e-006
17407	12.818	0.6	0.	-13.195
17408	12.719	0.5	0.	-9.6398
17409	12.719	0.6	5.e-002	4.3218e-006
17410	13.016	0.6	0.	-12.195
17411	12.917	0.5	0.	-8.927
17412	12.917	0.6	5.e-002	6.4095e-006
17413	13.214	0.6	0.	-11.014
17414	13.115	0.5	0.	-8.0151
17415	13.115	0.6	5.e-002	7.8493e-006
17416	13.411	0.6	0.	-9.7075
17417	13.313	0.5	0.	-6.9594
17418	13.313	0.6	5.e-002	6.0174e-006
17419	13.609	0.6	0.	-8.3195
17420	13.51	0.5	0.	-5.8051
17421	13.51	0.6	5.e-002	3.7202e-006
17422	13.807	0.6	0.	-6.8854
17423	13.708	0.5	0.	-4.588
17424	13.708	0.6	5.e-002	3.9298e-006
17425	14.005	0.6	0.	-5.4326
17426	13.906	0.5	0.	-3.3365
17427	13.906	0.6	5.e-002	5.1914e-006
17428	14.203	0.6	0.	-3.9821
17429	14.104	0.5	0.	-2.0723
17430	14.104	0.6	5.e-002	3.8366e-006
17431	14.401	0.6	0.	-2.5497
17432	14.302	0.5	0.	-0.81238
17433	14.302	0.6	5.e-002	4.0636e-006
17434	14.599	0.6	0.	-1.1482
17435	14.5	0.5	0.	7.8756e-003
17436	14.5	0.6	5.e-002	1.4673e-006
17437	14.797	0.6	0.	-2.0803e-002
17438	14.698	0.5	0.	6.7174e-003
17439	14.698	0.6	5.e-002	-6.8201e-008
17440	14.995	0.6	0.	-2.2904e-003
17441	14.896	0.5	0.	5.2996e-003
17442	14.896	0.6	5.e-002	6.4426e-007
17443	15.193	0.6	0.	-1.3501e-003
17444	15.094	0.5	0.	3.9131e-003
17445	15.094	0.6	5.e-002	3.086e-006
17446	15.391	0.6	0.	-1.383e-003
17447	15.292	0.5	0.	2.58e-003
17448	15.292	0.6	5.e-002	4.4874e-006
17449	15.589	0.6	0.	-1.6377e-003
17450	15.49	0.5	0.	1.3364e-003
17451	15.49	0.6	5.e-002	4.9873e-006
17452	15.786	0.6	0.	-1.9704e-003
17453	15.688	0.5	0.	1.7697e-004
17454	15.688	0.6	5.e-002	8.341e-006
17455	15.984	0.6	0.	-2.3439e-003
17456	15.885	0.5	0.	-9.3956e-004
17457	15.885	0.6	5.e-002	7.8046e-006
17458	16.182	0.6	0.	-2.7225e-003
17459	16.083	0.5	0.	-2.0161e-003
17460	16.083	0.6	5.e-002	7.145e-006
17461	16.38	0.6	0.	-3.0808e-003
17462	16.281	0.5	0.	-3.029e-003
17463	16.281	0.6	5.e-002	7.7783e-006
17464	16.578	0.6	0.	-3.4289e-003
17465	16.479	0.5	0.	-3.9825e-003
17466	16.479	0.6	5.e-002	8.9039e-006
17467	16.776	0.6	0.	-3.7827e-003
17468	16.677	0.5	0.	-4.9157e-003
17469	16.677	0.6	5.e-002	7.4411e-006
17470	16.974	0.6	0.	-4.1289e-003
17471	16.875	0.5	0.	-5.8334e-003
17472	16.875	0.6	5.e-002	1.0619e-005
17473	17.172	0.6	0.	-4.4537e-003
17474	17.073	0.5	0.	-6.713e-003
17475	17.073	0.6	5.e-002	1.097e-005
17476	17.37	0.6	0.	-4.7706e-003
17477	17.271	0.5	0.	-7.562e-003
17478	17.271	0.6	5.e-002	6.0891e-006
17479	17.568	0.6	0.	-5.097e-003
17480	17.469	0.5	0.	-8.4103e-003
17481	17.469	0.6	5.e-002	3.3212e-006
17482	17.766	0.6	0.	-5.4222e-003
17483	17.667	0.5	0.	-9.2697e-003
17484	17.667	0.6	5.e-002	6.5684e-006
17485	17.964	0.6	0.	-5.728e-003
17486	17.865	0.5	0.	-1.0112e-002
17487	17.865	0.6	5.e-002	9.6877e-006
17488	18.161	0.6	0.	-6.0336e-003
17489	18.063	0.5	0.	-1.0946e-002
17490	18.063	0.6	5.e-002	9.277e-006
17491	18.359	0.6	0.	-6.3563e-003
17492	18.26	0.5	0.	-1.181e-002
17493	18.26	0.6	5.e-002	8.0657e-006
17494	18.557	0.6	0.	-6.6825e-003
17495	18.458	0.5	0.	-1.2701e-002
17496	18.458	0.6	5.e-002	5.3082e-006
17497	18.755	0.6	0.	-7.0028e-003
17498	18.656	0.5	0.	-1.3606e-002
17499	18.656	0.6	5.e-002	4.011e-006
17500	18.953	0.6	0.	-7.3291e-003
17501	18.854	0.5	0.	-1.4532e-002
17502	18.854	0.6	5.e-002	7.3113e-006
17503	19.151	0.6	0.	-7.6714e-003
17504	19.052	0.5	0.	-1.5506e-002
17505	19.052	0.6	5.e-002	8.5463e-006
17506	19.349	0.6	0.	-8.0225e-003
17507	19.25	0.5	0.	-1.653e-002
17508	19.25	0.6	5.e-002	8.4493e-006
17509	19.547	0.6	0.	-8.3756e-003
17510	19.448	0.5	0.	-1.76e-002
17511	19.448	0.6	5.e-002	8.4502e-006
17512	19.745	0.6	0.	-8.7365e-003
17513	19.646	0.5	0.	-1.872e-002
17514	19.646	0.6	5.e-002	3.4701e-006
17515	19.943	0.6	0.	-9.111e-003
17516	19.844	0.5	0.	-1.9913e-002
17517	19.844	0.6	5.e-002	-4.5989e-007
17518	20.141	0.6	0.	-9.4917e-003
17519	20.042	0.5	0.	-2.1183e-002
17520	20.042	0.6	5.e-002	1.8955e-006
17521	20.339	0.6	0.	-9.87e-003
17522	20.24	0.5	0.	-2.2529e-002
17523	20.24	0.6	5.e-002	4.1178e-006
17524	20.536	0.6	0.	-1.0244e-002
17525	20.438	0.5	0.	-2.3954e-002
17526	20.438	0.6	5.e-002	5.9246e-006
17527	20.734	0.6	0.	-1.0613e-002
17528	20.635	0.5	0.	-2.548e-002
17529	20.635	0.6	5.e-002	8.5799e-006
17530	20.932	0.6	0.	-1.096e-002
17531	20.833	0.5	0.	-2.7109e-002
17532	20.833	0.6	5.e-002	5.8842e-006
17533	21.13	0.6	0.	-1.126e-002
17534	21.031	0.5	0.	-2.8838e-002
17535	21.031	0.6	5.e-002	9.6221e-006
17536	21.328	0.6	0.	-1.1491e-002
17537	21.229	0.5	0.	-3.0659e-002
17538	21.229	0.6	5.e-002	1.0163e-005
17539	21.526	0.6	0.	-1.162e-002
17540	21.427	0.5	0.	-3.2585e-002
17541	21.427	0.6	5.e-002	1.4508e-005
17542	21.724	0.6	0.	-1.1584e-002
17543	21.625	0.5	0.	-3.4605e-002
17544	21.625	0.6	5.e-002	8.0462e-006
17545	21.922	0.6	0.	-1.1283e-002
17546	21.823	0.5	0.	-3.6673e-002
17547	21.823	0.6	5.e-002	4.0665e-007
17548	22.12	0.6	0.	-1.0594e-002
17549	22.021	0.5	0.	-3.874e-002
17550	22.021	0.6	5.e-002	-2.695e-007
17551	22.318	0.6	0.	-9.2986e-003
17552	22.219	0.5	0.	-4.0736e-002
17553	22.219	0.6	5.e-002	2.805e-006
17554	22.516	0.6	0.	-7.1061e-003
17555	22.417	0.5	0.	-4.2453e-002
17556	22.417	0.6	5.e-002	9.8938e-006
17557	22.714	0.6	0.	-3.184e-003
17558	22.615	0.5	0.	-4.3748e-002
17559	22.615	0.6	5.e-002	8.5471e-006
17560	22.911	0.6	0.	2.4861e-003
17561	22.813	0.5	0.	-4.3431e-002
17562	22.813	0.6	5.e-002	1.2031e-005
17563	23.109	0.6	0.	1.595e-002
17564	23.01	0.5	0.	-4.2998e-002
17565	23.01	0.6	5.e-002	1.9087e-005
17566	23.307	0.6	0.	2.4541e-002
17567	23.208	0.5	0.	-3.0065e-002
17568	23.208	0.6	5.e-002	1.1683e-005
17569	23.505	0.6	0.	0.10571
17570	23.406	0.5	0.	-3.9937e-002
17571	23.406	0.6	5.e-002	1.0579e-005
17572	23.703	0.6	0.	3.1868e-002
17573	23.604	0.5	0.	0.10367
17574	23.604	0.6	5.e-002	6.7279e-006
17575	23.802	0.5	0.	-0.20742
17576	23.802	0.6	5.e-002	-1.1822e-006
17577	23.901	0.6	0.	0.23897
17578	8.4635	0.4	0.	-8.6681
17579	8.3646	0.3	0.	-15.926
17580	8.3646	0.4	5.e-002	-2.8731e-006
17581	8.2656	0.4	0.	1.7614
17582	8.6615	0.4	0.	-3.7221
17583	8.5625	0.3	0.	-5.5398
17584	8.5625	0.4	5.e-002	-5.7828e-008
17585	8.8594	0.4	0.	-2.1786
17586	8.7604	0.3	0.	-3.1858
17587	8.7604	0.4	5.e-002	1.0662e-005
17588	9.0573	0.4	0.	-1.0214
17589	8.9583	0.3	0.	-1.0389
17590	8.9583	0.4	5.e-002	1.4057e-005
17591	9.2552	0.4	0.	-0.62414
17592	9.1563	0.3	0.	-0.41009
17593	9.1563	0.4	5.e-002	1.2786e-005
17594	9.4531	0.4	0.	-0.42736
17595	9.3542	0.3	0.	-0.12881
17596	9.3542	0.4	5.e-002	9.4748e-006
17597	9.651	0.4	0.	-0.33109
17598	9.5521	0.3	0.	-4.4832e-002
17599	9.5521	0.4	5.e-002	1.2143e-005
17600	9.849	0.4	0.	-0.268
17601	9.75	0.3	0.	-1.8786e-002
17602	9.75	0.4	5.e-002	9.943e-006
17603	10.047	0.4	0.	-0.2209
17604	9.9479	0.3	0.	-1.5076e-002
17605	9.9479	0.4	5.e-002	1.5637e-005
17606	10.245	0.4	0.	-0.18273
17607	10.146	0.3	0.	-1.6769e-002
17608	10.146	0.4	5.e-002	8.3809e-006
17609	10.443	0.4	0.	-0.1519
17610	10.344	0.3	0.	-1.9258e-002
17611	10.344	0.4	5.e-002	1.4169e-005
17612	10.641	0.4	0.	-0.12852
17613	10.542	0.3	0.	-2.1406e-002
17614	10.542	0.4	5.e-002	2.8425e-005
17615	10.839	0.4	0.	-0.11423
17616	10.74	0.3	0.	-2.4177e-002
17617	10.74	0.4	5.e-002	1.2452e-004
17618	11.036	0.4	0.	-0.11376
17619	10.937	0.3	0.	-2.9369e-002
17620	10.937	0.4	5.e-002	1.0021e-005
17621	11.234	0.4	0.	-0.14539
17622	11.135	0.3	0.	-3.9614e-002
17623	11.135	0.4	5.e-002	1.5315e-007
17624	11.432	0.4	0.	-0.35411
17625	11.333	0.3	0.	-6.1143e-002
17626	11.333	0.4	5.e-002	8.8908e-006
17627	11.63	0.4	0.	-1.8749
17628	11.531	0.3	0.	-0.11765
17629	11.531	0.4	5.e-002	4.1481e-006
17630	11.828	0.4	0.	-3.712
17631	11.729	0.3	0.	-0.34501
17632	11.729	0.4	5.e-002	2.9422e-006
17633	12.026	0.4	0.	-4.9523
17634	11.927	0.3	0.	-1.0578
17635	11.927	0.4	5.e-002	1.9014e-006
17636	12.224	0.4	0.	-5.6429
17637	12.125	0.3	0.	-1.699
17638	12.125	0.4	5.e-002	1.4551e-006
17639	12.422	0.4	0.	-5.8807
17640	12.323	0.3	0.	-1.9947
17641	12.323	0.4	5.e-002	2.3258e-006
17642	12.62	0.4	0.	-5.7562
17643	12.521	0.3	0.	-1.9776
17644	12.521	0.4	5.e-002	2.0454e-006
17645	12.818	0.4	0.	-5.3484
17646	12.719	0.3	0.	-1.7093
17647	12.719	0.4	5.e-002	4.5597e-006
17648	13.016	0.4	0.	-4.7235
17649	12.917	0.3	0.	-1.2515
17650	12.917	0.4	5.e-002	4.9608e-006
17651	13.214	0.4	0.	-3.9368
17652	13.115	0.3	0.	-0.67848
17653	13.115	0.4	5.e-002	5.2916e-006
17654	13.411	0.4	0.	-3.0335
17655	13.313	0.3	0.	-0.20005
17656	13.313	0.4	5.e-002	5.1856e-006
17657	13.609	0.4	0.	-2.0504
17658	13.51	0.3	0.	-5.8334e-002
17659	13.51	0.4	5.e-002	3.6079e-006
17660	13.807	0.4	0.	-1.0176
17661	13.708	0.3	0.	-2.4617e-002
17662	13.708	0.4	5.e-002	2.4163e-006
17663	14.005	0.4	0.	-3.4318e-002
17664	13.906	0.3	0.	-1.2197e-002
17665	13.906	0.4	5.e-002	4.2058e-006
17666	14.203	0.4	0.	1.4705e-002
17667	14.104	0.3	0.	-6.4909e-003
17668	14.104	0.4	5.e-002	2.7795e-006
17669	14.401	0.4	0.	1.4211e-002
17670	14.302	0.3	0.	-3.6455e-003
17671	14.302	0.4	5.e-002	2.5623e-006
17672	14.599	0.4	0.	1.2447e-002
17673	14.5	0.3	0.	-2.2221e-003
17674	14.5	0.4	5.e-002	4.0037e-006
17675	14.797	0.4	0.	1.0464e-002
17676	14.698	0.3	0.	-1.5462e-003
17677	14.698	0.4	5.e-002	3.929e-006
17678	14.995	0.4	0.	8.4535e-003
17679	14.896	0.3	0.	-1.2985e-003
17680	14.896	0.4	5.e-002	2.6342e-006
17681	15.193	0.4	0.	6.465e-003
17682	15.094	0.3	0.	-1.3387e-003
17683	15.094	0.4	5.e-002	3.1546e-006
17684	15.391	0.4	0.	4.5432e-003
17685	15.292	0.3	0.	-1.5616e-003
17686	15.292	0.4	5.e-002	2.6935e-006
17687	15.589	0.4	0.	2.715e-003
17688	15.49	0.3	0.	-1.8706e-003
17689	15.49	0.4	5.e-002	3.7327e-006
17690	15.786	0.4	0.	9.6248e-004
17691	15.688	0.3	0.	-2.2249e-003
17692	15.688	0.4	5.e-002	5.4559e-006
17693	15.984	0.4	0.	-7.3374e-004
17694	15.885	0.3	0.	-2.6378e-003
17695	15.885	0.4	5.e-002	5.3211e-006
17696	16.182	0.4	0.	-2.3607e-003
17697	16.083	0.3	0.	-3.0904e-003
17698	16.083	0.4	5.e-002	6.6775e-006
17699	16.38	0.4	0.	-3.9096e-003
17700	16.281	0.3	0.	-3.5398e-003
17701	16.281	0.4	5.e-002	7.0844e-006
17702	16.578	0.4	0.	-5.4055e-003
17703	16.479	0.3	0.	-3.9825e-003
17704	16.479	0.4	5.e-002	7.0645e-006
17705	16.776	0.4	0.	-6.8712e-003
17706	16.677	0.3	0.	-4.4478e-003
17707	16.677	0.4	5.e-002	6.4911e-006
17708	16.974	0.4	0.	-8.299e-003
17709	16.875	0.3	0.	-4.93e-003
17710	16.875	0.4	5.e-002	6.2631e-006
17711	17.172	0.4	0.	-9.6855e-003
17712	17.073	0.3	0.	-5.4033e-003
17713	17.073	0.4	5.e-002	6.9022e-006
17714	17.37	0.4	0.	-1.1053e-002
17715	17.271	0.3	0.	-5.8714e-003
17716	17.271	0.4	5.e-002	6.013e-006
17717	17.568	0.4	0.	-1.2425e-002
17718	17.469	0.3	0.	-6.3605e-003
17719	17.469	0.4	5.e-002	4.2589e-006
17720	17.766	0.4	0.	-1.3795e-002
17721	17.667	0.3	0.	-6.8741e-003
17722	17.667	0.4	5.e-002	7.1431e-006
17723	17.964	0.4	0.	-1.5161e-002
17724	17.865	0.3	0.	-7.3911e-003
17725	17.865	0.4	5.e-002	7.1699e-006
17726	18.161	0.4	0.	-1.6552e-002
17727	18.063	0.3	0.	-7.9196e-003
17728	18.063	0.4	5.e-002	9.6554e-006
17729	18.359	0.4	0.	-1.7983e-002
17730	18.26	0.3	0.	-8.4865e-003
17731	18.26	0.4	5.e-002	9.1963e-006
17732	18.557	0.4	0.	-1.9455e-002
17733	18.458	0.3	0.	-9.0933e-003
17734	18.458	0.4	5.e-002	4.9414e-006
17735	18.755	0.4	0.	-2.0969e-002
17736	18.656	0.3	0.	-9.7281e-003
17737	18.656	0.4	5.e-002	3.2184e-006
17738	18.953	0.4	0.	-2.2548e-002
17739	18.854	0.3	0.	-1.0397e-002
17740	18.854	0.4	5.e-002	5.3025e-006
17741	19.151	0.4	0.	-2.4213e-002
17742	19.052	0.3	0.	-1.1132e-002
17743	19.052	0.4	5.e-002	7.9595e-006
17744	19.349	0.4	0.	-2.5967e-002
17745	19.25	0.3	0.	-1.1937e-002
17746	19.25	0.4	5.e-002	9.186e-006
17747	19.547	0.4	0.	-2.7819e-002
17748	19.448	0.3	0.	-1.2806e-002
17749	19.448	0.4	5.e-002	7.2577e-006
17750	19.745	0.4	0.	-2.979e-002
17751	19.646	0.3	0.	-1.3753e-002
17752	19.646	0.4	5.e-002	2.4963e-006
17753	19.943	0.4	0.	-3.1902e-002
17754	19.844	0.3	0.	-1.481e-002
17755	19.844	0.4	5.e-002	4.4374e-006
17756	20.141	0.4	0.	-3.4168e-002
17757	20.042	0.3	0.	-1.5988e-002
17758	20.042	0.4	5.e-002	5.3388e-006
17759	20.339	0.4	0.	-3.6598e-002
17760	20.24	0.3	0.	-1.7297e-002
17761	20.24	0.4	5.e-002	3.0449e-006
17762	20.536	0.4	0.	-3.9222e-002
17763	20.438	0.3	0.	-1.8749e-002
17764	20.438	0.4	5.e-002	5.8655e-006
17765	20.734	0.4	0.	-4.2066e-002
17766	20.635	0.3	0.	-2.0394e-002
17767	20.635	0.4	5.e-002	8.8065e-006
17768	20.932	0.4	0.	-4.5151e-002
17769	20.833	0.3	0.	-2.2254e-002
17770	20.833	0.4	5.e-002	7.0387e-006
17771	21.13	0.4	0.	-4.8494e-002
17772	21.031	0.3	0.	-2.4357e-002
17773	21.031	0.4	5.e-002	9.9507e-006
17774	21.328	0.4	0.	-5.2129e-002
17775	21.229	0.3	0.	-2.6739e-002
17776	21.229	0.4	5.e-002	7.5774e-006
17777	21.526	0.4	0.	-5.6096e-002
17778	21.427	0.3	0.	-2.947e-002
17779	21.427	0.4	5.e-002	9.7952e-006
17780	21.724	0.4	0.	-6.0416e-002
17781	21.625	0.3	0.	-3.2601e-002
17782	21.625	0.4	5.e-002	3.1083e-006
17783	21.922	0.4	0.	-6.5108e-002
17784	21.823	0.3	0.	-3.6205e-002
17785	21.823	0.4	5.e-002	1.5526e-006
17786	22.12	0.4	0.	-7.02e-002
17787	22.021	0.3	0.	-4.0366e-002
17788	22.021	0.4	5.e-002	-5.5884e-007
17789	22.318	0.4	0.	-7.5668e-002
17790	22.219	0.3	0.	-4.5196e-002
17791	22.219	0.4	5.e-002	1.0217e-006
17792	22.516	0.4	0.	-8.1512e-002
17793	22.417	0.3	0.	-5.078e-002
17794	22.417	0.4	5.e-002	8.9796e-006
17795	22.714	0.4	0.	-8.7331e-002
17796	22.615	0.3	0.	-5.7368e-002
17797	22.615	0.4	5.e-002	5.9827e-006
17798	22.911	0.4	0.	-9.3637e-002
17799	22.813	0.3	0.	-6.4511e-002
17800	22.813	0.4	5.e-002	1.3997e-005
17801	23.109	0.4	0.	-9.5969e-002
17802	23.01	0.3	0.	-7.4292e-002
17803	23.01	0.4	5.e-002	1.5533e-005
17804	23.307	0.4	0.	-0.1056
17805	23.208	0.3	0.	-7.7987e-002
17806	23.208	0.4	5.e-002	1.1409e-005
17807	23.505	0.4	0.	-6.2851e-002
17808	23.406	0.3	0.	-0.10548
17809	23.406	0.4	5.e-002	7.3891e-006
17810	23.703	0.4	0.	-0.20072
17811	23.604	0.3	0.	-2.8774e-002
17812	23.604	0.4	5.e-002	6.2456e-006
17813	23.802	0.3	0.	-0.40675
17814	23.802	0.4	5.e-002	-1.6718e-006
17815	23.901	0.4	0.	2.7688e-002
17816	8.4635	0.2	0.	-16.081
17817	8.3646	0.2	5.e-002	-1.2225e-014
17818	8.3646	0.1	0.	-15.193
17819	8.2656	0.2	0.	-1.6128
17820	8.6615	0.2	0.	-4.5874
17821	8.5625	0.2	5.e-002	-2.6207e-006
17822	8.5625	0.1	0.	-1.0219
17823	8.8594	0.2	0.	-1.7088
17824	8.7604	0.2	5.e-002	1.3227e-006
17825	8.7604	0.1	0.	-0.58172
17826	9.0573	0.2	0.	-0.27843
17827	8.9583	0.2	5.e-002	3.6143e-006
17828	8.9583	0.1	0.	0.19703
17829	9.2552	0.2	0.	0.14333
17830	9.1563	0.2	5.e-002	3.7387e-006
17831	9.1563	0.1	0.	0.21739
17832	9.4531	0.2	0.	0.26926
17833	9.3542	0.2	5.e-002	1.644e-006
17834	9.3542	0.1	0.	0.25291
17835	9.651	0.2	0.	0.26125
17836	9.5521	0.2	5.e-002	1.9936e-006
17837	9.5521	0.1	0.	0.23216
17838	9.849	0.2	0.	0.21682
17839	9.75	0.2	5.e-002	-3.1269e-006
17840	9.75	0.1	0.	0.20937
17841	10.047	0.2	0.	0.16695
17842	9.9479	0.2	5.e-002	1.9478e-005
17843	9.9479	0.1	0.	0.18419
17844	10.245	0.2	0.	0.12359
17845	10.146	0.2	5.e-002	-1.6664e-006
17846	10.146	0.1	0.	0.16111
17847	10.443	0.2	0.	8.9121e-002
17848	10.344	0.2	5.e-002	-2.0351e-005
17849	10.344	0.1	0.	0.14094
17850	10.641	0.2	0.	6.2359e-002
17851	10.542	0.2	5.e-002	-9.9942e-007
17852	10.542	0.1	0.	0.12411
17853	10.839	0.2	0.	4.0694e-002
17854	10.74	0.2	5.e-002	2.0065e-005
17855	10.74	0.1	0.	0.10996
17856	11.036	0.2	0.	2.1708e-002
17857	10.937	0.2	5.e-002	4.1162e-007
17858	10.937	0.1	0.	9.753e-002
17859	11.234	0.2	0.	3.5523e-003
17860	11.135	0.2	5.e-002	-1.9351e-005
17861	11.135	0.1	0.	8.607e-002
17862	11.432	0.2	0.	-1.5935e-002
17863	11.333	0.2	5.e-002	1.3707e-005
17864	11.333	0.1	0.	7.4772e-002
17865	11.63	0.2	0.	-3.8438e-002
17866	11.531	0.2	5.e-002	1.0097e-004
17867	11.531	0.1	0.	6.1794e-002
17868	11.828	0.2	0.	-6.3772e-002
17869	11.729	0.2	5.e-002	3.2433e-005
17870	11.729	0.1	0.	4.6542e-002
17871	12.026	0.2	0.	-8.8512e-002
17872	11.927	0.2	5.e-002	2.5213e-005
17873	11.927	0.1	0.	2.9062e-002
17874	12.224	0.2	0.	-0.10557
17875	12.125	0.2	5.e-002	1.9199e-005
17876	12.125	0.1	0.	1.1316e-002
17877	12.422	0.2	0.	-0.1093
17878	12.323	0.2	5.e-002	1.4108e-005
17879	12.323	0.1	0.	-3.8397e-003
17880	12.62	0.2	0.	-0.1009
17881	12.521	0.2	5.e-002	1.3361e-005
17882	12.521	0.1	0.	-1.4485e-002
17883	12.818	0.2	0.	-8.6402e-002
17884	12.719	0.2	5.e-002	1.6122e-005
17885	12.719	0.1	0.	-2.054e-002
17886	13.016	0.2	0.	-7.1186e-002
17887	12.917	0.2	5.e-002	1.1321e-005
17888	12.917	0.1	0.	-2.3039e-002
17889	13.214	0.2	0.	-5.7856e-002
17890	13.115	0.2	5.e-002	4.4733e-006
17891	13.115	0.1	0.	-2.3223e-002
17892	13.411	0.2	0.	-4.7059e-002
17893	13.313	0.2	5.e-002	1.0624e-005
17894	13.313	0.1	0.	-2.2104e-002
17895	13.609	0.2	0.	-3.8579e-002
17896	13.51	0.2	5.e-002	1.233e-005
17897	13.51	0.1	0.	-2.04e-002
17898	13.807	0.2	0.	-3.1937e-002
17899	13.708	0.2	5.e-002	9.2178e-006
17900	13.708	0.1	0.	-1.8491e-002
17901	14.005	0.2	0.	-2.6675e-002
17902	13.906	0.2	5.e-002	1.1792e-005
17903	13.906	0.1	0.	-1.6554e-002
17904	14.203	0.2	0.	-2.2468e-002
17905	14.104	0.2	5.e-002	9.5879e-006
17906	14.104	0.1	0.	-1.4688e-002
17907	14.401	0.2	0.	-1.9073e-002
17908	14.302	0.2	5.e-002	8.9736e-006
17909	14.302	0.1	0.	-1.2986e-002
17910	14.599	0.2	0.	-1.6276e-002
17911	14.5	0.2	5.e-002	1.1169e-005
17912	14.5	0.1	0.	-1.1451e-002
17913	14.797	0.2	0.	-1.3919e-002
17914	14.698	0.2	5.e-002	8.011e-006
17915	14.698	0.1	0.	-1.005e-002
17916	14.995	0.2	0.	-1.1919e-002
17917	14.896	0.2	5.e-002	7.0955e-006
17918	14.896	0.1	0.	-8.7711e-003
17919	15.193	0.2	0.	-1.0215e-002
17920	15.094	0.2	5.e-002	4.2874e-006
17921	15.094	0.1	0.	-7.639e-003
17922	15.391	0.2	0.	-8.7336e-003
17923	15.292	0.2	5.e-002	4.5726e-006
17924	15.292	0.1	0.	-6.633e-003
17925	15.589	0.2	0.	-7.4122e-003
17926	15.49	0.2	5.e-002	4.3528e-006
17927	15.49	0.1	0.	-5.7122e-003
17928	15.786	0.2	0.	-6.2349e-003
17929	15.688	0.2	5.e-002	4.5661e-006
17930	15.688	0.1	0.	-4.8578e-003
17931	15.984	0.2	0.	-5.1942e-003
17932	15.885	0.2	5.e-002	3.8686e-006
17933	15.885	0.1	0.	-4.0969e-003
17934	16.182	0.2	0.	-4.2514e-003
17935	16.083	0.2	5.e-002	6.4717e-006
17936	16.083	0.1	0.	-3.4119e-003
17937	16.38	0.2	0.	-3.3746e-003
17938	16.281	0.2	5.e-002	5.278e-006
17939	16.281	0.1	0.	-2.7668e-003
17940	16.578	0.2	0.	-2.5676e-003
17941	16.479	0.2	5.e-002	4.8383e-006
17942	16.479	0.1	0.	-2.1503e-003
17943	16.776	0.2	0.	-1.8325e-003
17944	16.677	0.2	5.e-002	6.0592e-006
17945	16.677	0.1	0.	-1.5877e-003
17946	16.974	0.2	0.	-1.1458e-003
17947	16.875	0.2	5.e-002	3.8665e-006
17948	16.875	0.1	0.	-1.0653e-003
17949	17.172	0.2	0.	-4.8843e-004
17950	17.073	0.2	5.e-002	5.2213e-006
17951	17.073	0.1	0.	-5.5375e-004
17952	17.37	0.2	0.	1.3296e-004
17953	17.271	0.2	5.e-002	4.5899e-006
17954	17.271	0.1	0.	-4.6482e-005
17955	17.568	0.2	0.	7.1291e-004
17956	17.469	0.2	5.e-002	6.5381e-006
17957	17.469	0.1	0.	4.3469e-004
17958	17.766	0.2	0.	1.2649e-003
17959	17.667	0.2	5.e-002	1.0836e-005
17960	17.667	0.1	0.	9.0668e-004
17961	17.964	0.2	0.	1.801e-003
17962	17.865	0.2	5.e-002	4.6659e-006
17963	17.865	0.1	0.	1.3758e-003
17964	18.161	0.2	0.	2.3153e-003
17965	18.063	0.2	5.e-002	9.8571e-006
17966	18.063	0.1	0.	1.8667e-003
17967	18.359	0.2	0.	2.7994e-003
17968	18.26	0.2	5.e-002	7.1054e-006
17969	18.26	0.1	0.	2.3587e-003
17970	18.557	0.2	0.	3.263e-003
17971	18.458	0.2	5.e-002	4.5343e-006
17972	18.458	0.1	0.	2.8539e-003
17973	18.755	0.2	0.	3.7173e-003
17974	18.656	0.2	5.e-002	4.2767e-006
17975	18.656	0.1	0.	3.3782e-003
17976	18.953	0.2	0.	4.149e-003
17977	18.854	0.2	5.e-002	6.971e-006
17978	18.854	0.1	0.	3.9402e-003
17979	19.151	0.2	0.	4.544e-003
17980	19.052	0.2	5.e-002	1.3639e-005
17981	19.052	0.1	0.	4.5239e-003
17982	19.349	0.2	0.	4.9117e-003
17983	19.25	0.2	5.e-002	1.3012e-005
17984	19.25	0.1	0.	5.1379e-003
17985	19.547	0.2	0.	5.2546e-003
17986	19.448	0.2	5.e-002	4.4741e-006
17987	19.448	0.1	0.	5.8101e-003
17988	19.745	0.2	0.	5.5505e-003
17989	19.646	0.2	5.e-002	4.1072e-006
17990	19.646	0.1	0.	6.5469e-003
17991	19.943	0.2	0.	5.7816e-003
17992	19.844	0.2	5.e-002	1.2539e-005
17993	19.844	0.1	0.	7.3392e-003
17994	20.141	0.2	0.	5.9434e-003
17995	20.042	0.2	5.e-002	1.405e-005
17996	20.042	0.1	0.	8.2036e-003
17997	20.339	0.2	0.	6.0268e-003
17998	20.24	0.2	5.e-002	7.1865e-006
17999	20.24	0.1	0.	9.1681e-003
18000	20.536	0.2	0.	6.0019e-003
18001	20.438	0.2	5.e-002	1.1228e-005
18002	20.438	0.1	0.	1.0251e-002
18003	20.734	0.2	0.	5.8314e-003
18004	20.635	0.2	5.e-002	1.3832e-005
18005	20.635	0.1	0.	1.146e-002
18006	20.932	0.2	0.	5.4857e-003
18007	20.833	0.2	5.e-002	9.7817e-006
18008	20.833	0.1	0.	1.282e-002
18009	21.13	0.2	0.	4.9247e-003
18010	21.031	0.2	5.e-002	1.0683e-005
18011	21.031	0.1	0.	1.4382e-002
18012	21.328	0.2	0.	4.0799e-003
18013	21.229	0.2	5.e-002	6.9605e-006
18014	21.229	0.1	0.	1.6183e-002
18015	21.526	0.2	0.	2.8724e-003
18016	21.427	0.2	5.e-002	9.9997e-006
18017	21.427	0.1	0.	1.8267e-002
18018	21.724	0.2	0.	1.2003e-003
18019	21.625	0.2	5.e-002	7.8476e-006
18020	21.625	0.1	0.	2.0736e-002
18021	21.922	0.2	0.	-1.0745e-003
18022	21.823	0.2	5.e-002	6.0973e-007
18023	21.823	0.1	0.	2.3678e-002
18024	22.12	0.2	0.	-4.131e-003
18025	22.021	0.2	5.e-002	1.3247e-006
18026	22.021	0.1	0.	2.7261e-002
18027	22.318	0.2	0.	-8.2133e-003
18028	22.219	0.2	5.e-002	8.2926e-007
18029	22.219	0.1	0.	3.1695e-002
18030	22.516	0.2	0.	-1.3717e-002
18031	22.417	0.2	5.e-002	6.2958e-006
18032	22.417	0.1	0.	3.7338e-002
18033	22.714	0.2	0.	-2.0969e-002
18034	22.615	0.2	5.e-002	6.3548e-006
18035	22.615	0.1	0.	4.4635e-002
18036	22.911	0.2	0.	-3.1374e-002
18037	22.813	0.2	5.e-002	1.2244e-005
18038	22.813	0.1	0.	5.489e-002
18039	23.109	0.2	0.	-4.3428e-002
18040	23.01	0.2	5.e-002	1.7823e-005
18041	23.01	0.1	0.	6.8086e-002
18042	23.307	0.2	0.	-6.869e-002
18043	23.208	0.2	5.e-002	1.0793e-005
18044	23.208	0.1	0.	9.4e-002
18045	23.505	0.2	0.	-7.4012e-002
18046	23.406	0.2	5.e-002	9.976e-006
18047	23.406	0.1	0.	0.11214
18048	23.703	0.2	0.	-0.27897
18049	23.604	0.2	5.e-002	8.9558e-006
18050	23.604	0.1	0.	0.23516
18051	23.802	0.2	5.e-002	7.0254e-006
18052	23.802	0.1	0.	-9.3792e-003
18053	23.901	0.2	0.	-5.6275e-002
18054	23.703	0.2	0.1	0.27897
18055	23.802	0.3	0.1	0.40675
18056	23.901	0.2	0.1	5.6275e-002
18057	23.802	0.1	0.1	9.3824e-003
18058	23.505	0.2	0.1	7.4011e-002
18059	23.604	0.3	0.1	2.8773e-002
18060	23.604	0.1	0.1	-0.23516
18061	23.307	0.2	0.1	6.8691e-002
18062	23.406	0.3	0.1	0.10548
18063	23.406	0.1	0.1	-0.11213
18064	23.109	0.2	0.1	4.3428e-002
18065	23.208	0.3	0.1	7.7986e-002
18066	23.208	0.1	0.1	-9.4e-002
18067	22.911	0.2	0.1	3.1375e-002
18068	23.01	0.3	0.1	7.4293e-002
18069	23.01	0.1	0.1	-6.8082e-002
18070	22.714	0.2	0.1	2.0969e-002
18071	22.813	0.3	0.1	6.4512e-002
18072	22.813	0.1	0.1	-5.4891e-002
18073	22.516	0.2	0.1	1.3716e-002
18074	22.615	0.3	0.1	5.7367e-002
18075	22.615	0.1	0.1	-4.4635e-002
18076	22.318	0.2	0.1	8.2136e-003
18077	22.417	0.3	0.1	5.078e-002
18078	22.417	0.1	0.1	-3.734e-002
18079	22.12	0.2	0.1	4.1306e-003
18080	22.219	0.3	0.1	4.5196e-002
18081	22.219	0.1	0.1	-3.1686e-002
18082	21.922	0.2	0.1	1.0714e-003
18083	22.021	0.3	0.1	4.0365e-002
18084	22.021	0.1	0.1	-2.7261e-002
18085	21.724	0.2	0.1	-1.2018e-003
18086	21.823	0.3	0.1	3.6205e-002
18087	21.823	0.1	0.1	-2.3687e-002
18088	21.526	0.2	0.1	-2.8727e-003
18089	21.625	0.3	0.1	3.2601e-002
18090	21.625	0.1	0.1	-2.0731e-002
18091	21.328	0.2	0.1	-4.0806e-003
18092	21.427	0.3	0.1	2.9471e-002
18093	21.427	0.1	0.1	-1.8268e-002
18094	21.13	0.2	0.1	-4.9259e-003
18095	21.229	0.3	0.1	2.6739e-002
18096	21.229	0.1	0.1	-1.6182e-002
18097	20.932	0.2	0.1	-5.4864e-003
18098	21.031	0.3	0.1	2.4355e-002
18099	21.031	0.1	0.1	-1.4382e-002
18100	20.734	0.2	0.1	-5.8297e-003
18101	20.833	0.3	0.1	2.2254e-002
18102	20.833	0.1	0.1	-1.2819e-002
18103	20.536	0.2	0.1	-6.0006e-003
18104	20.635	0.3	0.1	2.0396e-002
18105	20.635	0.1	0.1	-1.1458e-002
18106	20.339	0.2	0.1	-6.027e-003
18107	20.438	0.3	0.1	1.875e-002
18108	20.438	0.1	0.1	-1.025e-002
18109	20.141	0.2	0.1	-5.9432e-003
18110	20.24	0.3	0.1	1.7297e-002
18111	20.24	0.1	0.1	-9.1689e-003
18112	19.943	0.2	0.1	-5.7807e-003
18113	20.042	0.3	0.1	1.5989e-002
18114	20.042	0.1	0.1	-8.2018e-003
18115	19.745	0.2	0.1	-5.5496e-003
18116	19.844	0.3	0.1	1.4811e-002
18117	19.844	0.1	0.1	-7.3373e-003
18118	19.547	0.2	0.1	-5.2547e-003
18119	19.646	0.3	0.1	1.3753e-002
18120	19.646	0.1	0.1	-6.5466e-003
18121	19.349	0.2	0.1	-4.9124e-003
18122	19.448	0.3	0.1	1.2807e-002
18123	19.448	0.1	0.1	-5.8095e-003
18124	19.151	0.2	0.1	-4.5447e-003
18125	19.25	0.3	0.1	1.1938e-002
18126	19.25	0.1	0.1	-5.1372e-003
18127	18.953	0.2	0.1	-4.1494e-003
18128	19.052	0.3	0.1	1.1133e-002
18129	19.052	0.1	0.1	-4.5236e-003
18130	18.755	0.2	0.1	-3.7179e-003
18131	18.854	0.3	0.1	1.0397e-002
18132	18.854	0.1	0.1	-3.9404e-003
18133	18.557	0.2	0.1	-3.2638e-003
18134	18.656	0.3	0.1	9.728e-003
18135	18.656	0.1	0.1	-3.3782e-003
18136	18.359	0.2	0.1	-2.8003e-003
18137	18.458	0.3	0.1	9.094e-003
18138	18.458	0.1	0.1	-2.8539e-003
18139	18.161	0.2	0.1	-2.3158e-003
18140	18.26	0.3	0.1	8.486e-003
18141	18.26	0.1	0.1	-2.3581e-003
18142	17.964	0.2	0.1	-1.8013e-003
18143	18.063	0.3	0.1	7.9204e-003
18144	18.063	0.1	0.1	-1.8658e-003
18145	17.766	0.2	0.1	-1.2659e-003
18146	17.865	0.3	0.1	7.3912e-003
18147	17.865	0.1	0.1	-1.3766e-003
18148	17.568	0.2	0.1	-7.1319e-004
18149	17.667	0.3	0.1	6.8736e-003
18150	17.667	0.1	0.1	-9.0527e-004
18151	17.37	0.2	0.1	-1.3269e-004
18152	17.469	0.3	0.1	6.3612e-003
18153	17.469	0.1	0.1	-4.3461e-004
18154	17.172	0.2	0.1	4.8837e-004
18155	17.271	0.3	0.1	5.8709e-003
18156	17.271	0.1	0.1	4.6127e-005
18157	16.974	0.2	0.1	1.1459e-003
18158	17.073	0.3	0.1	5.4038e-003
18159	17.073	0.1	0.1	5.5436e-004
18160	16.776	0.2	0.1	1.8326e-003
18161	16.875	0.3	0.1	4.9304e-003
18162	16.875	0.1	0.1	1.0658e-003
18163	16.578	0.2	0.1	2.5672e-003
18164	16.677	0.3	0.1	4.4478e-003
18165	16.677	0.1	0.1	1.5888e-003
18166	16.38	0.2	0.1	3.3737e-003
18167	16.479	0.3	0.1	3.9827e-003
18168	16.479	0.1	0.1	2.1502e-003
18169	16.182	0.2	0.1	4.2515e-003
18170	16.281	0.3	0.1	3.5393e-003
18171	16.281	0.1	0.1	2.7677e-003
18172	15.984	0.2	0.1	5.1948e-003
18173	16.083	0.3	0.1	3.091e-003
18174	16.083	0.1	0.1	3.4123e-003
18175	15.786	0.2	0.1	6.2348e-003
18176	15.885	0.3	0.1	2.6377e-003
18177	15.885	0.1	0.1	4.0977e-003
18178	15.589	0.2	0.1	7.4117e-003
18179	15.688	0.3	0.1	2.2253e-003
18180	15.688	0.1	0.1	4.8579e-003
18181	15.391	0.2	0.1	8.7334e-003
18182	15.49	0.3	0.1	1.87e-003
18183	15.49	0.1	0.1	5.7126e-003
18184	15.193	0.2	0.1	1.0216e-002
18185	15.292	0.3	0.1	1.5619e-003
18186	15.292	0.1	0.1	6.6333e-003
18187	14.995	0.2	0.1	1.1919e-002
18188	15.094	0.3	0.1	1.3387e-003
18189	15.094	0.1	0.1	7.6388e-003
18190	14.797	0.2	0.1	1.3919e-002
18191	14.896	0.3	0.1	1.2987e-003
18192	14.896	0.1	0.1	8.7713e-003
18193	14.599	0.2	0.1	1.6275e-002
18194	14.698	0.3	0.1	1.5465e-003
18195	14.698	0.1	0.1	1.0051e-002
18196	14.401	0.2	0.1	1.9073e-002
18197	14.5	0.3	0.1	2.2217e-003
18198	14.5	0.1	0.1	1.1452e-002
18199	14.203	0.2	0.1	2.2469e-002
18200	14.302	0.3	0.1	3.6459e-003
18201	14.302	0.1	0.1	1.2986e-002
18202	14.005	0.2	0.1	2.6675e-002
18203	14.104	0.3	0.1	6.4916e-003
18204	14.104	0.1	0.1	1.4689e-002
18205	13.807	0.2	0.1	3.1936e-002
18206	13.906	0.3	0.1	1.2197e-002
18207	13.906	0.1	0.1	1.6555e-002
18208	13.609	0.2	0.1	3.8579e-002
18209	13.708	0.3	0.1	2.4617e-002
18210	13.708	0.1	0.1	1.849e-002
18211	13.411	0.2	0.1	4.7059e-002
18212	13.51	0.3	0.1	5.8334e-002
18213	13.51	0.1	0.1	2.04e-002
18214	13.214	0.2	0.1	5.7856e-002
18215	13.313	0.3	0.1	0.20005
18216	13.313	0.1	0.1	2.2104e-002
18217	13.016	0.2	0.1	7.1186e-002
18218	13.115	0.3	0.1	0.67848
18219	13.115	0.1	0.1	2.3223e-002
18220	12.818	0.2	0.1	8.6402e-002
18221	12.917	0.3	0.1	1.2515
18222	12.917	0.1	0.1	2.3039e-002
18223	12.62	0.2	0.1	0.1009
18224	12.719	0.3	0.1	1.7093
18225	12.719	0.1	0.1	2.054e-002
18226	12.422	0.2	0.1	0.1093
18227	12.521	0.3	0.1	1.9776
18228	12.521	0.1	0.1	1.4485e-002
18229	12.224	0.2	0.1	0.10557
18230	12.323	0.3	0.1	1.9947
18231	12.323	0.1	0.1	3.84e-003
18232	12.026	0.2	0.1	8.8512e-002
18233	12.125	0.3	0.1	1.699
18234	12.125	0.1	0.1	-1.1316e-002
18235	11.828	0.2	0.1	6.3772e-002
18236	11.927	0.3	0.1	1.0578
18237	11.927	0.1	0.1	-2.9062e-002
18238	11.63	0.2	0.1	3.8436e-002
18239	11.729	0.3	0.1	0.34501
18240	11.729	0.1	0.1	-4.6541e-002
18241	11.432	0.2	0.1	1.5939e-002
18242	11.531	0.3	0.1	0.11765
18243	11.531	0.1	0.1	-6.1797e-002
18244	11.234	0.2	0.1	-3.5923e-003
18245	11.333	0.3	0.1	6.1152e-002
18246	11.333	0.1	0.1	-7.4758e-002
18247	11.036	0.2	0.1	-2.1754e-002
18248	11.135	0.3	0.1	3.9561e-002
18249	11.135	0.1	0.1	-8.6133e-002
18250	10.839	0.2	0.1	-4.0648e-002
18251	10.937	0.3	0.1	2.9373e-002
18252	10.937	0.1	0.1	-9.7534e-002
18253	10.641	0.2	0.1	-6.2315e-002
18254	10.74	0.3	0.1	2.4229e-002
18255	10.74	0.1	0.1	-0.10991
18256	10.443	0.2	0.1	-8.9165e-002
18257	10.542	0.3	0.1	2.1405e-002
18258	10.542	0.1	0.1	-0.1241
18259	10.245	0.2	0.1	-0.12363
18260	10.344	0.3	0.1	1.9208e-002
18261	10.344	0.1	0.1	-0.141
18262	10.047	0.2	0.1	-0.1669
18263	10.146	0.3	0.1	1.6774e-002
18264	10.146	0.1	0.1	-0.16112
18265	9.849	0.2	0.1	-0.21678
18266	9.9479	0.3	0.1	1.5129e-002
18267	9.9479	0.1	0.1	-0.18414
18268	9.651	0.2	0.1	-0.26125
18269	9.75	0.3	0.1	1.8777e-002
18270	9.75	0.1	0.1	-0.20938
18271	9.4531	0.2	0.1	-0.26926
18272	9.5521	0.3	0.1	4.4834e-002
18273	9.5521	0.1	0.1	-0.23216
18274	9.2552	0.2	0.1	-0.14333
18275	9.3542	0.3	0.1	0.12881
18276	9.3542	0.1	0.1	-0.25291
18277	9.0573	0.2	0.1	0.27843
18278	9.1563	0.3	0.1	0.41009
18279	9.1563	0.1	0.1	-0.21739
18280	8.8594	0.2	0.1	1.7088
18281	8.9583	0.3	0.1	1.0389
18282	8.9583	0.1	0.1	-0.19703
18283	8.6615	0.2	0.1	4.5874
18284	8.7604	0.3	0.1	3.1858
18285	8.7604	0.1	0.1	0.58172
18286	8.4635	0.2	0.1	16.081
18287	8.5625	0.3	0.1	5.5398
18288	8.5625	0.1	0.1	1.0219
18289	8.3646	0.3	0.1	15.926
18290	8.2656	0.2	0.1	1.6128
18291	8.3646	0.1	0.1	15.193
18292	23.703	0.4	0.1	0.20072
18293	23.802	0.5	0.1	0.20742
18294	23.901	0.4	0.1	-2.7687e-002
18295	23.505	0.4	0.1	6.2852e-002
18296	23.604	0.5	0.1	-0.10367
18297	23.307	0.4	0.1	0.1056
18298	23.406	0.5	0.1	3.9936e-002
18299	23.109	0.4	0.1	9.597e-002
18300	23.208	0.5	0.1	3.0065e-002
18301	22.911	0.4	0.1	9.3639e-002
18302	23.01	0.5	0.1	4.2999e-002
18303	22.714	0.4	0.1	8.7332e-002
18304	22.813	0.5	0.1	4.3431e-002
18305	22.516	0.4	0.1	8.1512e-002
18306	22.615	0.5	0.1	4.3748e-002
18307	22.318	0.4	0.1	7.5668e-002
18308	22.417	0.5	0.1	4.2454e-002
18309	22.12	0.4	0.1	7.0198e-002
18310	22.219	0.5	0.1	4.0735e-002
18311	21.922	0.4	0.1	6.511e-002
18312	22.021	0.5	0.1	3.8741e-002
18313	21.724	0.4	0.1	6.0417e-002
18314	21.823	0.5	0.1	3.6674e-002
18315	21.526	0.4	0.1	5.6098e-002
18316	21.625	0.5	0.1	3.4606e-002
18317	21.328	0.4	0.1	5.2132e-002
18318	21.427	0.5	0.1	3.2587e-002
18319	21.13	0.4	0.1	4.8493e-002
18320	21.229	0.5	0.1	3.0659e-002
18321	20.932	0.4	0.1	4.5149e-002
18322	21.031	0.5	0.1	2.8836e-002
18323	20.734	0.4	0.1	4.2066e-002
18324	20.833	0.5	0.1	2.7108e-002
18325	20.536	0.4	0.1	3.9222e-002
18326	20.635	0.5	0.1	2.548e-002
18327	20.339	0.4	0.1	3.6599e-002
18328	20.438	0.5	0.1	2.3954e-002
18329	20.141	0.4	0.1	3.4169e-002
18330	20.24	0.5	0.1	2.2529e-002
18331	19.943	0.4	0.1	3.1902e-002
18332	20.042	0.5	0.1	2.1184e-002
18333	19.745	0.4	0.1	2.9789e-002
18334	19.844	0.5	0.1	1.9912e-002
18335	19.547	0.4	0.1	2.7819e-002
18336	19.646	0.5	0.1	1.872e-002
18337	19.349	0.4	0.1	2.5968e-002
18338	19.448	0.5	0.1	1.7601e-002
18339	19.151	0.4	0.1	2.4214e-002
18340	19.25	0.5	0.1	1.6531e-002
18341	18.953	0.4	0.1	2.2549e-002
18342	19.052	0.5	0.1	1.5506e-002
18343	18.755	0.4	0.1	2.0969e-002
18344	18.854	0.5	0.1	1.4532e-002
18345	18.557	0.4	0.1	1.9456e-002
18346	18.656	0.5	0.1	1.3606e-002
18347	18.359	0.4	0.1	1.7984e-002
18348	18.458	0.5	0.1	1.2701e-002
18349	18.161	0.4	0.1	1.6552e-002
18350	18.26	0.5	0.1	1.1811e-002
18351	17.964	0.4	0.1	1.5163e-002
18352	18.063	0.5	0.1	1.0947e-002
18353	17.766	0.4	0.1	1.3796e-002
18354	17.865	0.5	0.1	1.0113e-002
18355	17.568	0.4	0.1	1.2425e-002
18356	17.667	0.5	0.1	9.2697e-003
18357	17.37	0.4	0.1	1.1053e-002
18358	17.469	0.5	0.1	8.4106e-003
18359	17.172	0.4	0.1	9.6856e-003
18360	17.271	0.5	0.1	7.5604e-003
18361	16.974	0.4	0.1	8.2999e-003
18362	17.073	0.5	0.1	6.7142e-003
18363	16.776	0.4	0.1	6.8714e-003
18364	16.875	0.5	0.1	5.8338e-003
18365	16.578	0.4	0.1	5.4061e-003
18366	16.677	0.5	0.1	4.9158e-003
18367	16.38	0.4	0.1	3.9103e-003
18368	16.479	0.5	0.1	3.9836e-003
18369	16.182	0.4	0.1	2.3608e-003
18370	16.281	0.5	0.1	3.0293e-003
18371	15.984	0.4	0.1	7.3386e-004
18372	16.083	0.5	0.1	2.0165e-003
18373	15.786	0.4	0.1	-9.6194e-004
18374	15.885	0.5	0.1	9.3986e-004
18375	15.589	0.4	0.1	-2.7147e-003
18376	15.688	0.5	0.1	-1.7614e-004
18377	15.391	0.4	0.1	-4.5433e-003
18378	15.49	0.5	0.1	-1.3369e-003
18379	15.193	0.4	0.1	-6.4648e-003
18380	15.292	0.5	0.1	-2.5797e-003
18381	14.995	0.4	0.1	-8.4532e-003
18382	15.094	0.5	0.1	-3.913e-003
18383	14.797	0.4	0.1	-1.0464e-002
18384	14.896	0.5	0.1	-5.2998e-003
18385	14.599	0.4	0.1	-1.2447e-002
18386	14.698	0.5	0.1	-6.7177e-003
18387	14.401	0.4	0.1	-1.4211e-002
18388	14.5	0.5	0.1	-7.8755e-003
18389	14.203	0.4	0.1	-1.4704e-002
18390	14.302	0.5	0.1	0.81238
18391	14.005	0.4	0.1	3.432e-002
18392	14.104	0.5	0.1	2.0723
18393	13.807	0.4	0.1	1.0176
18394	13.906	0.5	0.1	3.3365
18395	13.609	0.4	0.1	2.0504
18396	13.708	0.5	0.1	4.588
18397	13.411	0.4	0.1	3.0335
18398	13.51	0.5	0.1	5.8051
18399	13.214	0.4	0.1	3.9368
18400	13.313	0.5	0.1	6.9594
18401	13.016	0.4	0.1	4.7235
18402	13.115	0.5	0.1	8.0151
18403	12.818	0.4	0.1	5.3484
18404	12.917	0.5	0.1	8.927
18405	12.62	0.4	0.1	5.7562
18406	12.719	0.5	0.1	9.6398
18407	12.422	0.4	0.1	5.8807
18408	12.521	0.5	0.1	10.086
18409	12.224	0.4	0.1	5.6429
18410	12.323	0.5	0.1	10.184
18411	12.026	0.4	0.1	4.9523
18412	12.125	0.5	0.1	9.8393
18413	11.828	0.4	0.1	3.712
18414	11.927	0.5	0.1	8.9405
18415	11.63	0.4	0.1	1.8749
18416	11.729	0.5	0.1	7.3652
18417	11.432	0.4	0.1	0.35412
18418	11.531	0.5	0.1	4.9976
18419	11.234	0.4	0.1	0.14538
18420	11.333	0.5	0.1	1.9306
18421	11.036	0.4	0.1	0.11375
18422	11.135	0.5	0.1	0.38515
18423	10.839	0.4	0.1	0.11424
18424	10.937	0.5	0.1	0.21116
18425	10.641	0.4	0.1	0.12853
18426	10.74	0.5	0.1	0.17604
18427	10.443	0.4	0.1	0.1519
18428	10.542	0.5	0.1	0.17531
18429	10.245	0.4	0.1	0.18272
18430	10.344	0.5	0.1	0.19202
18431	10.047	0.4	0.1	0.22091
18432	10.146	0.5	0.1	0.22275
18433	9.849	0.4	0.1	0.268
18434	9.9479	0.5	0.1	0.26904
18435	9.651	0.4	0.1	0.33109
18436	9.75	0.5	0.1	0.33621
18437	9.4531	0.4	0.1	0.42736
18438	9.5521	0.5	0.1	0.44008
18439	9.2552	0.4	0.1	0.62414
18440	9.3542	0.5	0.1	0.6049
18441	9.0573	0.4	0.1	1.0214
18442	9.1563	0.5	0.1	0.93392
18443	8.8594	0.4	0.1	2.1786
18444	8.9583	0.5	0.1	1.4498
18445	8.6615	0.4	0.1	3.7221
18446	8.7604	0.5	0.1	2.9092
18447	8.4635	0.4	0.1	8.6681
18448	8.5625	0.5	0.1	2.7991
18449	8.3646	0.5	0.1	9.7206
18450	8.2656	0.4	0.1	-1.7614
18451	23.703	0.6	0.1	-3.1867e-002
18452	23.802	0.7	0.1	4.9801e-002
18453	23.901	0.6	0.1	-0.23897
18454	23.505	0.6	0.1	-0.10571
18455	23.604	0.7	0.1	-0.21778
18456	23.307	0.6	0.1	-2.4542e-002
18457	23.406	0.7	0.1	-4.2224e-002
18458	23.109	0.6	0.1	-1.5952e-002
18459	23.208	0.7	0.1	-4.0678e-002
18460	22.911	0.6	0.1	-2.4868e-003
18461	23.01	0.7	0.1	-1.7155e-002
18462	22.714	0.6	0.1	3.1839e-003
18463	22.813	0.7	0.1	-9.0661e-003
18464	22.516	0.6	0.1	7.106e-003
18465	22.615	0.7	0.1	-2.449e-003
18466	22.318	0.6	0.1	9.2989e-003
18467	22.417	0.7	0.1	1.4207e-003
18468	22.12	0.6	0.1	1.0595e-002
18469	22.219	0.7	0.1	4.0395e-003
18470	21.922	0.6	0.1	1.1282e-002
18471	22.021	0.7	0.1	5.7284e-003
18472	21.724	0.6	0.1	1.1585e-002
18473	21.823	0.7	0.1	6.8296e-003
18474	21.526	0.6	0.1	1.1622e-002
18475	21.625	0.7	0.1	7.5107e-003
18476	21.328	0.6	0.1	1.149e-002
18477	21.427	0.7	0.1	7.8993e-003
18478	21.13	0.6	0.1	1.126e-002
18479	21.229	0.7	0.1	8.0957e-003
18480	20.932	0.6	0.1	1.096e-002
18481	21.031	0.7	0.1	8.1607e-003
18482	20.734	0.6	0.1	1.0613e-002
18483	20.833	0.7	0.1	8.1196e-003
18484	20.536	0.6	0.1	1.0244e-002
18485	20.635	0.7	0.1	8.0059e-003
18486	20.339	0.6	0.1	9.8688e-003
18487	20.438	0.7	0.1	7.8513e-003
18488	20.141	0.6	0.1	9.4921e-003
18489	20.24	0.7	0.1	7.6689e-003
18490	19.943	0.6	0.1	9.111e-003
18491	20.042	0.7	0.1	7.4607e-003
18492	19.745	0.6	0.1	8.7354e-003
18493	19.844	0.7	0.1	7.2302e-003
18494	19.547	0.6	0.1	8.3754e-003
18495	19.646	0.7	0.1	6.9979e-003
18496	19.349	0.6	0.1	8.0228e-003
18497	19.448	0.7	0.1	6.7677e-003
18498	19.151	0.6	0.1	7.6713e-003
18499	19.25	0.7	0.1	6.5257e-003
18500	18.953	0.6	0.1	7.3288e-003
18501	19.052	0.7	0.1	6.2762e-003
18502	18.755	0.6	0.1	7.002e-003
18503	18.854	0.7	0.1	6.0345e-003
18504	18.557	0.6	0.1	6.6813e-003
18505	18.656	0.7	0.1	5.8029e-003
18506	18.359	0.6	0.1	6.3561e-003
18507	18.458	0.7	0.1	5.5605e-003
18508	18.161	0.6	0.1	6.0339e-003
18509	18.26	0.7	0.1	5.3092e-003
18510	17.964	0.6	0.1	5.7281e-003
18511	18.063	0.7	0.1	5.0663e-003
18512	17.766	0.6	0.1	5.4223e-003
18513	17.865	0.7	0.1	4.8404e-003
18514	17.568	0.6	0.1	5.0971e-003
18515	17.667	0.7	0.1	4.596e-003
18516	17.37	0.6	0.1	4.7694e-003
18517	17.469	0.7	0.1	4.3369e-003
18518	17.172	0.6	0.1	4.4531e-003
18519	17.271	0.7	0.1	4.0919e-003
18520	16.974	0.6	0.1	4.1297e-003
18521	17.073	0.7	0.1	3.8604e-003
18522	16.776	0.6	0.1	3.7831e-003
18523	16.875	0.7	0.1	3.6139e-003
18524	16.578	0.6	0.1	3.4296e-003
18525	16.677	0.7	0.1	3.3597e-003
18526	16.38	0.6	0.1	3.0816e-003
18527	16.479	0.7	0.1	3.1301e-003
18528	16.182	0.6	0.1	2.7231e-003
18529	16.281	0.7	0.1	2.9371e-003
18530	15.984	0.6	0.1	2.3446e-003
18531	16.083	0.7	0.1	2.7712e-003
18532	15.786	0.6	0.1	1.971e-003
18533	15.885	0.7	0.1	2.6776e-003
18534	15.589	0.6	0.1	1.6377e-003
18535	15.688	0.7	0.1	2.7886e-003
18536	15.391	0.6	0.1	1.3829e-003
18537	15.49	0.7	0.1	3.389e-003
18538	15.193	0.6	0.1	1.3504e-003
18539	15.292	0.7	0.1	5.5775e-003
18540	14.995	0.6	0.1	2.2901e-003
18541	15.094	0.7	0.1	2.3078e-002
18542	14.797	0.6	0.1	2.0803e-002
18543	14.896	0.7	0.1	0.98809
18544	14.599	0.6	0.1	1.1482
18545	14.698	0.7	0.1	2.4946
18546	14.401	0.6	0.1	2.5497
18547	14.5	0.7	0.1	4.0579
18548	14.203	0.6	0.1	3.9821
18549	14.302	0.7	0.1	5.668
18550	14.005	0.6	0.1	5.4326
18551	14.104	0.7	0.1	7.3154
18552	13.807	0.6	0.1	6.8854
18553	13.906	0.7	0.1	8.9872
18554	13.609	0.6	0.1	8.3195
18555	13.708	0.7	0.1	10.666
18556	13.411	0.6	0.1	9.7075
18557	13.51	0.7	0.1	12.327
18558	13.214	0.6	0.1	11.014
18559	13.313	0.7	0.1	13.939
18560	13.016	0.6	0.1	12.195
18561	13.115	0.7	0.1	15.463
18562	12.818	0.6	0.1	13.195
18563	12.917	0.7	0.1	16.848
18564	12.62	0.6	0.1	13.947
18565	12.719	0.7	0.1	18.032
18566	12.422	0.6	0.1	14.368
18567	12.521	0.7	0.1	18.938
18568	12.224	0.6	0.1	14.36
18569	12.323	0.7	0.1	19.473
18570	12.026	0.6	0.1	13.81
18571	12.125	0.7	0.1	19.53
18572	11.828	0.6	0.1	12.587
18573	11.927	0.7	0.1	18.98
18574	11.63	0.6	0.1	10.549
18575	11.729	0.7	0.1	17.679
18576	11.432	0.6	0.1	7.5586
18577	11.531	0.7	0.1	15.468
18578	11.234	0.6	0.1	3.6356
18579	11.333	0.7	0.1	12.188
18580	11.036	0.6	0.1	0.78585
18581	11.135	0.7	0.1	7.7417
18582	10.839	0.6	0.1	0.35863
18583	10.937	0.7	0.1	2.7599
18584	10.641	0.6	0.1	0.27223
18585	10.74	0.7	0.1	0.83146
18586	10.443	0.6	0.1	0.25334
18587	10.542	0.7	0.1	0.53363
18588	10.245	0.6	0.1	0.26494
18589	10.344	0.7	0.1	0.46518
18590	10.047	0.6	0.1	0.30046
18591	10.146	0.7	0.1	0.46877
18592	9.849	0.6	0.1	0.36273
18593	9.9479	0.7	0.1	0.51595
18594	9.651	0.6	0.1	0.46321
18595	9.75	0.7	0.1	0.60333
18596	9.4531	0.6	0.1	0.62091
18597	9.5521	0.7	0.1	0.74157
18598	9.2552	0.6	0.1	0.89085
18599	9.3542	0.7	0.1	0.93952
18600	9.0573	0.6	0.1	1.303
18601	9.1563	0.7	0.1	1.2637
18602	8.8594	0.6	0.1	2.1702
18603	8.9583	0.7	0.1	1.6061
18604	8.6615	0.6	0.1	2.5442
18605	8.7604	0.7	0.1	2.553
18606	8.4635	0.6	0.1	6.1031
18607	8.5625	0.7	0.1	1.4073
18608	8.3646	0.7	0.1	8.5864
18609	8.2656	0.6	0.1	-0.30934
18610	23.703	0.8	0.1	-7.0791e-002
18611	23.802	0.9	0.1	3.8059e-004
18612	23.901	0.8	0.1	-0.24619
18613	23.505	0.8	0.1	-0.13711
18614	23.604	0.9	0.1	-0.25282
18615	23.307	0.8	0.1	-5.0079e-002
18616	23.406	0.9	0.1	-6.9743e-002
18617	23.109	0.8	0.1	-3.6688e-002
18618	23.208	0.9	0.1	-6.3683e-002
18619	22.911	0.8	0.1	-2.0054e-002
18620	23.01	0.9	0.1	-3.6985e-002
18621	22.714	0.8	0.1	-1.1923e-002
18622	22.813	0.9	0.1	-2.6528e-002
18623	22.516	0.8	0.1	-5.9626e-003
18624	22.615	0.9	0.1	-1.7914e-002
18625	22.318	0.8	0.1	-2.099e-003
18626	22.417	0.9	0.1	-1.2384e-002
18627	22.12	0.8	0.1	5.8986e-004
18628	22.219	0.9	0.1	-8.3472e-003
18629	21.922	0.8	0.1	2.4437e-003
18630	22.021	0.9	0.1	-5.4453e-003
18631	21.724	0.8	0.1	3.7273e-003
18632	21.823	0.9	0.1	-3.2976e-003
18633	21.526	0.8	0.1	4.6021e-003
18634	21.625	0.9	0.1	-1.7088e-003
18635	21.328	0.8	0.1	5.1896e-003
18636	21.427	0.9	0.1	-5.1897e-004
18637	21.13	0.8	0.1	5.575e-003
18638	21.229	0.9	0.1	3.7747e-004
18639	20.932	0.8	0.1	5.8097e-003
18640	21.031	0.9	0.1	1.0625e-003
18641	20.734	0.8	0.1	5.9268e-003
18642	20.833	0.9	0.1	1.5736e-003
18643	20.536	0.8	0.1	5.9639e-003
18644	20.635	0.9	0.1	1.9522e-003
18645	20.339	0.8	0.1	5.9469e-003
18646	20.438	0.9	0.1	2.24e-003
18647	20.141	0.8	0.1	5.8857e-003
18648	20.24	0.9	0.1	2.4579e-003
18649	19.943	0.8	0.1	5.787e-003
18650	20.042	0.9	0.1	2.6112e-003
18651	19.745	0.8	0.1	5.664e-003
18652	19.844	0.9	0.1	2.7119e-003
18653	19.547	0.8	0.1	5.53e-003
18654	19.646	0.9	0.1	2.7806e-003
18655	19.349	0.8	0.1	5.3825e-003
18656	19.448	0.9	0.1	2.8298e-003
18657	19.151	0.8	0.1	5.2175e-003
18658	19.25	0.9	0.1	2.8471e-003
18659	18.953	0.8	0.1	5.0465e-003
18660	19.052	0.9	0.1	2.8379e-003
18661	18.755	0.8	0.1	4.88e-003
18662	18.854	0.9	0.1	2.8233e-003
18663	18.557	0.8	0.1	4.7085e-003
18664	18.656	0.9	0.1	2.8064e-003
18665	18.359	0.8	0.1	4.5234e-003
18666	18.458	0.9	0.1	2.771e-003
18667	18.161	0.8	0.1	4.3364e-003
18668	18.26	0.9	0.1	2.7189e-003
18669	17.964	0.8	0.1	4.1599e-003
18670	18.063	0.9	0.1	2.6717e-003
18671	17.766	0.8	0.1	3.9829e-003
18672	17.865	0.9	0.1	2.6367e-003
18673	17.568	0.8	0.1	3.7939e-003
18674	17.667	0.9	0.1	2.5913e-003
18675	17.37	0.8	0.1	3.6087e-003
18676	17.469	0.9	0.1	2.5385e-003
18677	17.172	0.8	0.1	3.4421e-003
18678	17.271	0.9	0.1	2.5105e-003
18679	16.974	0.8	0.1	3.2849e-003
18680	17.073	0.9	0.1	2.5174e-003
18681	16.776	0.8	0.1	3.1339e-003
18682	16.875	0.9	0.1	2.5444e-003
18683	16.578	0.8	0.1	3.0168e-003
18684	16.677	0.9	0.1	2.6175e-003
18685	16.38	0.8	0.1	2.9733e-003
18686	16.479	0.9	0.1	2.8031e-003
18687	16.182	0.8	0.1	3.0394e-003
18688	16.281	0.9	0.1	3.1902e-003
18689	15.984	0.8	0.1	3.3033e-003
18690	16.083	0.9	0.1	3.9321e-003
18691	15.786	0.8	0.1	4.0448e-003
18692	15.885	0.9	0.1	5.5427e-003
18693	15.589	0.8	0.1	6.1666e-003
18694	15.688	0.9	0.1	1.0145e-002
18695	15.391	0.8	0.1	1.5312e-002
18696	15.49	0.9	0.1	4.459e-002
18697	15.193	0.8	0.1	0.46899
18698	15.292	0.9	0.1	1.1738
18699	14.995	0.8	0.1	2.0222
18700	15.094	0.9	0.1	2.8596
18701	14.797	0.8	0.1	3.6669
18702	14.896	0.9	0.1	4.6306
18703	14.599	0.8	0.1	5.3778
18704	14.698	0.9	0.1	6.4812
18705	14.401	0.8	0.1	7.1497
18706	14.5	0.9	0.1	8.4091
18707	14.203	0.8	0.1	8.9756
18708	14.302	0.9	0.1	10.411
18709	14.005	0.8	0.1	10.845
18710	14.104	0.9	0.1	12.479
18711	13.807	0.8	0.1	12.743
18712	13.906	0.9	0.1	14.603
18713	13.609	0.8	0.1	14.649
18714	13.708	0.9	0.1	16.767
18715	13.411	0.8	0.1	16.535
18716	13.51	0.9	0.1	18.95
18717	13.214	0.8	0.1	18.365
18718	13.313	0.9	0.1	21.121
18719	13.016	0.8	0.1	20.093
18720	13.115	0.9	0.1	23.242
18721	12.818	0.8	0.1	21.662
18722	12.917	0.9	0.1	25.263
18723	12.62	0.8	0.1	23.
18724	12.719	0.9	0.1	27.124
18725	12.422	0.8	0.1	24.02
18726	12.521	0.9	0.1	28.747
18727	12.224	0.8	0.1	24.619
18728	12.323	0.9	0.1	30.041
18729	12.026	0.8	0.1	24.675
18730	12.125	0.9	0.1	30.896
18731	11.828	0.8	0.1	24.048
18732	11.927	0.9	0.1	31.181
18733	11.63	0.8	0.1	22.579
18734	11.729	0.9	0.1	30.75
18735	11.432	0.8	0.1	20.095
18736	11.531	0.9	0.1	29.433
18737	11.234	0.8	0.1	16.425
18738	11.333	0.9	0.1	27.048
18739	11.036	0.8	0.1	11.448
18740	11.135	0.9	0.1	23.406
18741	10.839	0.8	0.1	5.475
18742	10.937	0.9	0.1	18.337
18743	10.641	0.8	0.1	1.6838
18744	10.74	0.9	0.1	11.825
18745	10.443	0.8	0.1	0.94418
18746	10.542	0.9	0.1	5.0189
18747	10.245	0.8	0.1	0.7793
18748	10.344	0.9	0.1	2.0175
18749	10.047	0.8	0.1	0.75988
18750	10.146	0.9	0.1	1.3761
18751	9.849	0.8	0.1	0.81158
18752	9.9479	0.9	0.1	1.2161
18753	9.651	0.8	0.1	0.91874
18754	9.75	0.9	0.1	1.2134
18755	9.4531	0.8	0.1	1.0774
18756	9.5521	0.9	0.1	1.2962
18757	9.2552	0.8	0.1	1.3102
18758	9.3542	0.9	0.1	1.4299
18759	9.0573	0.8	0.1	1.5661
18760	9.1563	0.9	0.1	1.648
18761	8.8594	0.8	0.1	2.0696
18762	8.9583	0.9	0.1	1.74
18763	8.6615	0.8	0.1	1.7349
18764	8.7604	0.9	0.1	2.4895
18765	8.4635	0.8	0.1	4.9101
18766	8.5625	0.9	0.1	0.51483
18767	8.3646	0.9	0.1	9.0123
18768	8.2656	0.8	0.1	-0.51974
18769	23.703	1.	0.1	-0.11332
18770	23.802	1.1	0.1	-4.1102e-002
18771	23.901	1.	0.1	-0.26996
18772	23.505	1.	0.1	-0.16946
18773	23.604	1.1	0.1	-0.2813
18774	23.307	1.	0.1	-7.6493e-002
18775	23.406	1.1	0.1	-9.1238e-002
18776	23.109	1.	0.1	-6.0013e-002
18777	23.208	1.1	0.1	-8.2778e-002
18778	22.911	1.	0.1	-4.0754e-002
18779	23.01	1.1	0.1	-5.3885e-002
18780	22.714	1.	0.1	-3.0501e-002
18781	22.813	1.1	0.1	-4.1761e-002
18782	22.516	1.	0.1	-2.2751e-002
18783	22.615	1.1	0.1	-3.1743e-002
18784	22.318	1.	0.1	-1.7347e-002
18785	22.417	1.1	0.1	-2.5014e-002
18786	22.12	1.	0.1	-1.3318e-002
18787	22.219	1.1	0.1	-1.9928e-002
18788	21.922	1.	0.1	-1.0292e-002
18789	22.021	1.1	0.1	-1.6103e-002
18790	21.724	1.	0.1	-7.9733e-003
18791	21.823	1.1	0.1	-1.3137e-002
18792	21.526	1.	0.1	-6.1785e-003
18793	21.625	1.1	0.1	-1.0817e-002
18794	21.328	1.	0.1	-4.7699e-003
18795	21.427	1.1	0.1	-8.9708e-003
18796	21.13	1.	0.1	-3.6494e-003
18797	21.229	1.1	0.1	-7.4833e-003
18798	20.932	1.	0.1	-2.7521e-003
18799	21.031	1.1	0.1	-6.2667e-003
18800	20.734	1.	0.1	-2.0344e-003
18801	20.833	1.1	0.1	-5.2709e-003
18802	20.536	1.	0.1	-1.4526e-003
18803	20.635	1.1	0.1	-4.4521e-003
18804	20.339	1.	0.1	-9.715e-004
18805	20.438	1.1	0.1	-3.7627e-003
18806	20.141	1.	0.1	-5.7584e-004
18807	20.24	1.1	0.1	-3.1732e-003
18808	19.943	1.	0.1	-2.5561e-004
18809	20.042	1.1	0.1	-2.6804e-003
18810	19.745	1.	0.1	7.8924e-006
18811	19.844	1.1	0.1	-2.2662e-003
18812	19.547	1.	0.1	2.3383e-004
18813	19.646	1.1	0.1	-1.9052e-003
18814	19.349	1.	0.1	4.2422e-004
18815	19.448	1.1	0.1	-1.5819e-003
18816	19.151	1.	0.1	5.7572e-004
18817	19.25	1.1	0.1	-1.3058e-003
18818	18.953	1.	0.1	7.0301e-004
18819	19.052	1.1	0.1	-1.0731e-003
18820	18.755	1.	0.1	8.1953e-004
18821	18.854	1.1	0.1	-8.5827e-004
18822	18.557	1.	0.1	9.213e-004
18823	18.656	1.1	0.1	-6.5464e-004
18824	18.359	1.	0.1	1.0024e-003
18825	18.458	1.1	0.1	-4.7542e-004
18826	18.161	1.	0.1	1.0744e-003
18827	18.26	1.1	0.1	-3.1929e-004
18828	17.964	1.	0.1	1.1535e-003
18829	18.063	1.1	0.1	-1.5973e-004
18830	17.766	1.	0.1	1.2351e-003
18831	17.865	1.1	0.1	1.1681e-005
18832	17.568	1.	0.1	1.3114e-003
18833	17.667	1.1	0.1	1.7939e-004
18834	17.37	1.	0.1	1.4018e-003
18835	17.469	1.1	0.1	3.503e-004
18836	17.172	1.	0.1	1.5339e-003
18837	17.271	1.1	0.1	5.6429e-004
18838	16.974	1.	0.1	1.7136e-003
18839	17.073	1.1	0.1	8.4858e-004
18840	16.776	1.	0.1	1.9573e-003
18841	16.875	1.1	0.1	1.2074e-003
18842	16.578	1.	0.1	2.3357e-003
18843	16.677	1.1	0.1	1.7119e-003
18844	16.38	1.	0.1	2.9805e-003
18845	16.479	1.1	0.1	2.5275e-003
18846	16.182	1.	0.1	4.151e-003
18847	16.281	1.1	0.1	4.0014e-003
18848	15.984	1.	0.1	6.6528e-003
18849	16.083	1.1	0.1	7.1933e-003
18850	15.786	1.	0.1	1.4599e-002
18851	15.885	1.1	0.1	1.8493e-002
18852	15.589	1.	0.1	0.17683
18853	15.688	1.1	0.1	0.41535
18854	15.391	1.	0.1	1.76
18855	15.49	1.1	0.1	2.1628
18856	15.193	1.	0.1	3.5549
18857	15.292	1.1	0.1	4.0507
18858	14.995	1.	0.1	5.4413
18859	15.094	1.1	0.1	6.0382
18860	14.797	1.	0.1	7.4183
18861	14.896	1.1	0.1	8.1279
18862	14.599	1.	0.1	9.4865
18863	14.698	1.1	0.1	10.323
18864	14.401	1.	0.1	11.645
18865	14.5	1.1	0.1	12.626
18866	14.203	1.	0.1	13.889
18867	14.302	1.1	0.1	15.036
18868	14.005	1.	0.1	16.213
18869	14.104	1.1	0.1	17.55
18870	13.807	1.	0.1	18.604
18871	13.906	1.1	0.1	20.163
18872	13.609	1.	0.1	21.046
18873	13.708	1.1	0.1	22.862
18874	13.411	1.	0.1	23.514
18875	13.51	1.1	0.1	25.632
18876	13.214	1.	0.1	25.976
18877	13.313	1.1	0.1	28.447
18878	13.016	1.	0.1	28.39
18879	13.115	1.1	0.1	31.277
18880	12.818	1.	0.1	30.704
18881	12.917	1.1	0.1	34.078
18882	12.62	1.	0.1	32.85
18883	12.719	1.1	0.1	36.798
18884	12.422	1.	0.1	34.747
18885	12.521	1.1	0.1	39.367
18886	12.224	1.	0.1	36.295
18887	12.323	1.1	0.1	41.703
18888	12.026	1.	0.1	37.378
18889	12.125	1.1	0.1	43.705
18890	11.828	1.	0.1	37.859
18891	11.927	1.1	0.1	45.255
18892	11.63	1.	0.1	37.581
18893	11.729	1.1	0.1	46.211
18894	11.432	1.	0.1	36.367
18895	11.531	1.1	0.1	46.414
18896	11.234	1.	0.1	34.025
18897	11.333	1.1	0.1	45.682
18898	11.036	1.	0.1	30.35
18899	11.135	1.1	0.1	43.81
18900	10.839	1.	0.1	25.145
18901	10.937	1.1	0.1	40.573
18902	10.641	1.	0.1	18.291
18903	10.74	1.1	0.1	35.726
18904	10.443	1.	0.1	10.2
18905	10.542	1.1	0.1	29.02
18906	10.245	1.	0.1	4.1292
18907	10.344	1.1	0.1	20.325
18908	10.047	1.	0.1	2.3224
18909	10.146	1.1	0.1	10.586
18910	9.849	1.	0.1	1.8394
18911	9.9479	1.1	0.1	4.6148
18912	9.651	1.	0.1	1.7016
18913	9.75	1.1	0.1	2.8989
18914	9.4531	1.	0.1	1.6972
18915	9.5521	1.1	0.1	2.3525
18916	9.2552	1.	0.1	1.7815
18917	9.3542	1.1	0.1	2.147
18918	9.0573	1.	0.1	1.8327
18919	9.1563	1.1	0.1	2.1197
18920	8.8594	1.	0.1	2.2098
18921	8.9583	1.1	0.1	2.059
18922	8.6615	1.	0.1	1.4113
18923	8.7604	1.1	0.1	2.6668
18924	8.4635	1.	0.1	5.2426
18925	8.5625	1.1	0.1	5.8095e-002
18926	8.3646	1.1	0.1	9.0729
18927	8.2656	1.	0.1	1.2433
18928	23.703	1.2	0.1	-0.13724
18929	23.802	1.3	0.1	-6.8722e-002
18930	23.901	1.2	0.1	-0.27911
18931	23.505	1.2	0.1	-0.18726
18932	23.604	1.3	0.1	-0.29915
18933	23.307	1.2	0.1	-9.1215e-002
18934	23.406	1.3	0.1	-0.10469
18935	23.109	1.2	0.1	-7.3255e-002
18936	23.208	1.3	0.1	-9.4869e-002
18937	22.911	1.2	0.1	-5.2698e-002
18938	23.01	1.3	0.1	-6.4713e-002
18939	22.714	1.2	0.1	-4.142e-002
18940	22.813	1.3	0.1	-5.1681e-002
18941	22.516	1.2	0.1	-3.2783e-002
18942	22.615	1.3	0.1	-4.0883e-002
18943	22.318	1.2	0.1	-2.6608e-002
18944	22.417	1.3	0.1	-3.3484e-002
18945	22.12	1.2	0.1	-2.1894e-002
18946	22.219	1.3	0.1	-2.7806e-002
18947	21.922	1.2	0.1	-1.8255e-002
18948	22.021	1.3	0.1	-2.345e-002
18949	21.724	1.2	0.1	-1.5385e-002
18950	21.823	1.3	0.1	-2.0006e-002
18951	21.526	1.2	0.1	-1.3093e-002
18952	21.625	1.3	0.1	-1.7251e-002
18953	21.328	1.2	0.1	-1.1233e-002
18954	21.427	1.3	0.1	-1.5012e-002
18955	21.13	1.2	0.1	-9.7047e-003
18956	21.229	1.3	0.1	-1.3165e-002
18957	20.932	1.2	0.1	-8.4364e-003
18958	21.031	1.3	0.1	-1.162e-002
18959	20.734	1.2	0.1	-7.3797e-003
18960	20.833	1.3	0.1	-1.0323e-002
18961	20.536	1.2	0.1	-6.4885e-003
18962	20.635	1.3	0.1	-9.2274e-003
18963	20.339	1.2	0.1	-5.7217e-003
18964	20.438	1.3	0.1	-8.2836e-003
18965	20.141	1.2	0.1	-5.0628e-003
18966	20.24	1.3	0.1	-7.4581e-003
18967	19.943	1.2	0.1	-4.5008e-003
18968	20.042	1.3	0.1	-6.7469e-003
18969	19.745	1.2	0.1	-4.0115e-003
18970	19.844	1.3	0.1	-6.1294e-003
18971	19.547	1.2	0.1	-3.5737e-003
18972	19.646	1.3	0.1	-5.5772e-003
18973	19.349	1.2	0.1	-3.1835e-003
18974	19.448	1.3	0.1	-5.0756e-003
18975	19.151	1.2	0.1	-2.8437e-003
18976	19.25	1.3	0.1	-4.6319e-003
18977	18.953	1.2	0.1	-2.54e-003
18978	19.052	1.3	0.1	-4.2395e-003
18979	18.755	1.2	0.1	-2.2539e-003
18980	18.854	1.3	0.1	-3.8734e-003
18981	18.557	1.2	0.1	-1.988e-003
18982	18.656	1.3	0.1	-3.5229e-003
18983	18.359	1.2	0.1	-1.7487e-003
18984	18.458	1.3	0.1	-3.2037e-003
18985	18.161	1.2	0.1	-1.52e-003
18986	18.26	1.3	0.1	-2.9102e-003
18987	17.964	1.2	0.1	-1.2833e-003
18988	18.063	1.3	0.1	-2.6133e-003
18989	17.766	1.2	0.1	-1.0416e-003
18990	17.865	1.3	0.1	-2.3026e-003
18991	17.568	1.2	0.1	-7.9611e-004
18992	17.667	1.3	0.1	-1.9914e-003
18993	17.37	1.2	0.1	-5.1996e-004
18994	17.469	1.3	0.1	-1.665e-003
18995	17.172	1.2	0.1	-1.7441e-004
18996	17.271	1.3	0.1	-1.2737e-003
18997	16.974	1.2	0.1	2.6557e-004
18998	17.073	1.3	0.1	-7.768e-004
18999	16.776	1.2	0.1	8.5816e-004
19000	16.875	1.3	0.1	-1.3226e-004
19001	16.578	1.2	0.1	1.7708e-003
19002	16.677	1.3	0.1	8.1308e-004
19003	16.38	1.2	0.1	3.3972e-003
19004	16.479	1.3	0.1	2.4575e-003
19005	16.182	1.2	0.1	6.9884e-003
19006	16.281	1.3	0.1	6.0627e-003
19007	15.984	1.2	0.1	2.0828e-002
19008	16.083	1.3	0.1	1.9992e-002
19009	15.786	1.2	0.1	0.60646
19010	15.885	1.3	0.1	0.65
19011	15.589	1.2	0.1	2.4526
19012	15.688	1.3	0.1	2.5632
19013	15.391	1.2	0.1	4.4262
19014	15.49	1.3	0.1	4.6064
19015	15.193	1.2	0.1	6.5065
19016	15.292	1.3	0.1	6.7626
19017	14.995	1.2	0.1	8.6981
19018	15.094	1.3	0.1	9.0386
19019	14.797	1.2	0.1	11.007
19020	14.896	1.3	0.1	11.443
19021	14.599	1.2	0.1	13.437
19022	14.698	1.3	0.1	13.982
19023	14.401	1.2	0.1	15.993
19024	14.5	1.3	0.1	16.663
19025	14.203	1.2	0.1	18.674
19026	14.302	1.3	0.1	19.491
19027	14.005	1.2	0.1	21.478
19028	14.104	1.3	0.1	22.467
19029	13.807	1.2	0.1	24.399
19030	13.906	1.3	0.1	25.592
19031	13.609	1.2	0.1	27.427
19032	13.708	1.3	0.1	28.862
19033	13.411	1.2	0.1	30.545
19034	13.51	1.3	0.1	32.267
19035	13.214	1.2	0.1	33.729
19036	13.313	1.3	0.1	35.793
19037	13.016	1.2	0.1	36.945
19038	13.115	1.3	0.1	39.418
19039	12.818	1.2	0.1	40.152
19040	12.917	1.3	0.1	43.113
19041	12.62	1.2	0.1	43.295
19042	12.719	1.3	0.1	46.835
19043	12.422	1.2	0.1	46.303
19044	12.521	1.3	0.1	50.534
19045	12.224	1.2	0.1	49.092
19046	12.323	1.3	0.1	54.141
19047	12.026	1.2	0.1	51.56
19048	12.125	1.3	0.1	57.575
19049	11.828	1.2	0.1	53.584
19050	11.927	1.3	0.1	60.736
19051	11.63	1.2	0.1	55.023
19052	11.729	1.3	0.1	63.503
19053	11.432	1.2	0.1	55.709
19054	11.531	1.3	0.1	65.734
19055	11.234	1.2	0.1	55.454
19056	11.333	1.3	0.1	67.26
19057	11.036	1.2	0.1	54.038
19058	11.135	1.3	0.1	67.885
19059	10.839	1.2	0.1	51.207
19060	10.937	1.3	0.1	67.371
19061	10.641	1.2	0.1	46.656
19062	10.74	1.3	0.1	65.422
19063	10.443	1.2	0.1	40.009
19064	10.542	1.3	0.1	61.655
19065	10.245	1.2	0.1	30.836
19066	10.344	1.3	0.1	55.535
19067	10.047	1.2	0.1	19.064
19068	10.146	1.3	0.1	46.295
19069	9.849	1.2	0.1	8.2061
19070	9.9479	1.3	0.1	32.973
19071	9.651	1.2	0.1	4.1144
19072	9.75	1.3	0.1	16.198
19073	9.4531	1.2	0.1	2.9344
19074	9.5521	1.3	0.1	6.1349
19075	9.2552	1.2	0.1	2.4981
19076	9.3542	1.3	0.1	3.6306
19077	9.0573	1.2	0.1	2.3301
19078	9.1563	1.3	0.1	2.919
19079	8.8594	1.2	0.1	2.5159
19080	8.9583	1.3	0.1	2.6895
19081	8.6615	1.2	0.1	1.3663
19082	8.7604	1.3	0.1	2.8742
19083	8.4635	1.2	0.1	4.3281
19084	8.5625	1.3	0.1	0.26422
19085	8.3646	1.3	0.1	16.19
19086	8.2656	1.2	0.1	-3.207
19087	23.703	1.4	0.1	-0.15556
19088	23.802	1.5	0.1	-9.0008e-002
19089	23.901	1.4	0.1	-0.28663
19090	23.505	1.4	0.1	-0.20062
19091	23.604	1.5	0.1	-0.31234
19092	23.307	1.4	0.1	-0.10223
19093	23.406	1.5	0.1	-0.11454
19094	23.109	1.4	0.1	-8.32e-002
19095	23.208	1.5	0.1	-0.10373
19096	22.911	1.4	0.1	-6.1769e-002
19097	23.01	1.5	0.1	-7.2713e-002
19098	22.714	1.4	0.1	-4.9805e-002
19099	22.813	1.5	0.1	-5.9068e-002
19100	22.516	1.4	0.1	-4.0577e-002
19101	22.615	1.5	0.1	-4.7756e-002
19102	22.318	1.4	0.1	-3.3882e-002
19103	22.417	1.5	0.1	-3.9916e-002
19104	22.12	1.4	0.1	-2.8704e-002
19105	22.219	1.5	0.1	-3.3847e-002
19106	21.922	1.4	0.1	-2.4645e-002
19107	22.021	1.5	0.1	-2.9141e-002
19108	21.724	1.4	0.1	-2.1392e-002
19109	21.823	1.5	0.1	-2.5375e-002
19110	21.526	1.4	0.1	-1.8752e-002
19111	21.625	1.5	0.1	-2.2327e-002
19112	21.328	1.4	0.1	-1.6575e-002
19113	21.427	1.5	0.1	-1.9818e-002
19114	21.13	1.4	0.1	-1.4754e-002
19115	21.229	1.5	0.1	-1.7724e-002
19116	20.932	1.4	0.1	-1.3216e-002
19117	21.031	1.5	0.1	-1.595e-002
19118	20.734	1.4	0.1	-1.191e-002
19119	20.833	1.5	0.1	-1.4441e-002
19120	20.536	1.4	0.1	-1.0789e-002
19121	20.635	1.5	0.1	-1.3147e-002
19122	20.339	1.4	0.1	-9.8095e-003
19123	20.438	1.5	0.1	-1.2022e-002
19124	20.141	1.4	0.1	-8.9527e-003
19125	20.24	1.5	0.1	-1.1027e-002
19126	19.943	1.4	0.1	-8.205e-003
19127	20.042	1.5	0.1	-1.0157e-002
19128	19.745	1.4	0.1	-7.5419e-003
19129	19.844	1.5	0.1	-9.391e-003
19130	19.547	1.4	0.1	-6.9417e-003
19131	19.646	1.5	0.1	-8.6995e-003
19132	19.349	1.4	0.1	-6.4013e-003
19133	19.448	1.5	0.1	-8.0668e-003
19134	19.151	1.4	0.1	-5.919e-003
19135	19.25	1.5	0.1	-7.503e-003
19136	18.953	1.4	0.1	-5.4775e-003
19137	19.052	1.5	0.1	-6.9937e-003
19138	18.755	1.4	0.1	-5.06e-003
19139	18.854	1.5	0.1	-6.5173e-003
19140	18.557	1.4	0.1	-4.6689e-003
19141	18.656	1.5	0.1	-6.0603e-003
19142	18.359	1.4	0.1	-4.3085e-003
19143	18.458	1.5	0.1	-5.641e-003
19144	18.161	1.4	0.1	-3.9601e-003
19145	18.26	1.5	0.1	-5.2483e-003
19146	17.964	1.4	0.1	-3.6033e-003
19147	18.063	1.5	0.1	-4.8548e-003
19148	17.766	1.4	0.1	-3.2388e-003
19149	17.865	1.5	0.1	-4.4463e-003
19150	17.568	1.4	0.1	-2.8648e-003
19151	17.667	1.5	0.1	-4.0355e-003
19152	17.37	1.4	0.1	-2.4454e-003
19153	17.469	1.5	0.1	-3.601e-003
19154	17.172	1.4	0.1	-1.9313e-003
19155	17.271	1.5	0.1	-3.0863e-003
19156	16.974	1.4	0.1	-1.2701e-003
19157	17.073	1.5	0.1	-2.4304e-003
19158	16.776	1.4	0.1	-3.3651e-004
19159	16.875	1.5	0.1	-1.5465e-003
19160	16.578	1.4	0.1	1.2214e-003
19161	16.677	1.5	0.1	-1.4911e-004
19162	16.38	1.4	0.1	4.5433e-003
19163	16.479	1.5	0.1	2.6851e-003
19164	16.182	1.4	0.1	1.6872e-002
19165	16.281	1.5	0.1	1.2161e-002
19166	15.984	1.4	0.1	0.60682
19167	16.083	1.5	0.1	0.42602
19168	15.786	1.4	0.1	2.5797
19169	15.885	1.5	0.1	2.4284
19170	15.589	1.4	0.1	4.6884
19171	15.688	1.5	0.1	4.5852
19172	15.391	1.4	0.1	6.9149
19173	15.49	1.5	0.1	6.8638
19174	15.193	1.4	0.1	9.2678
19175	15.292	1.5	0.1	9.2738
19176	14.995	1.4	0.1	11.757
19177	15.094	1.5	0.1	11.827
19178	14.797	1.4	0.1	14.393
19179	14.896	1.5	0.1	14.536
19180	14.599	1.4	0.1	17.184
19181	14.698	1.5	0.1	17.412
19182	14.401	1.4	0.1	20.138
19183	14.5	1.5	0.1	20.467
19184	14.203	1.4	0.1	23.262
19185	14.302	1.5	0.1	23.711
19186	14.005	1.4	0.1	26.56
19187	14.104	1.5	0.1	27.152
19188	13.807	1.4	0.1	30.034
19189	13.906	1.5	0.1	30.799
19190	13.609	1.4	0.1	33.682
19191	13.708	1.5	0.1	34.655
19192	13.411	1.4	0.1	37.496
19193	13.51	1.5	0.1	38.723
19194	13.214	1.4	0.1	41.465
19195	13.313	1.5	0.1	42.999
19196	13.016	1.4	0.1	45.568
19197	13.115	1.5	0.1	47.475
19198	12.818	1.4	0.1	49.778
19199	12.917	1.5	0.1	52.137
19200	12.62	1.4	0.1	54.057
19201	12.719	1.5	0.1	56.961
19202	12.422	1.4	0.1	58.354
19203	12.521	1.5	0.1	61.914
19204	12.224	1.4	0.1	62.606
19205	12.323	1.5	0.1	66.954
19206	12.026	1.4	0.1	66.733
19207	12.125	1.5	0.1	72.02
19208	11.828	1.4	0.1	70.635
19209	11.927	1.5	0.1	77.039
19210	11.63	1.4	0.1	74.194
19211	11.729	1.5	0.1	81.918
19212	11.432	1.4	0.1	77.266
19213	11.531	1.5	0.1	86.542
19214	11.234	1.4	0.1	79.678
19215	11.333	1.5	0.1	90.765
19216	11.036	1.4	0.1	81.216
19217	11.135	1.5	0.1	94.41
19218	10.839	1.4	0.1	81.611
19219	10.937	1.5	0.1	97.245
19220	10.641	1.4	0.1	80.506
19221	10.74	1.5	0.1	98.962
19222	10.443	1.4	0.1	77.391
19223	10.542	1.5	0.1	99.13
19224	10.245	1.4	0.1	71.501
19225	10.344	1.5	0.1	97.103
19226	10.047	1.4	0.1	61.639
19227	10.146	1.5	0.1	91.867
19228	9.849	1.4	0.1	46.014
19229	9.9479	1.5	0.1	81.773
19230	9.651	1.4	0.1	23.593
19231	9.75	1.5	0.1	64.171
19232	9.4531	1.4	0.1	7.4682
19233	9.5521	1.5	0.1	35.954
19234	9.2552	1.4	0.1	4.0261
19235	9.3542	1.5	0.1	9.78
19236	9.0573	1.4	0.1	3.2112
19237	9.1563	1.5	0.1	4.7262
19238	8.8594	1.4	0.1	2.9951
19239	8.9583	1.5	0.1	2.859
19240	8.6615	1.4	0.1	1.7704
19241	8.7604	1.5	0.1	6.923
19242	8.4635	1.4	0.1	12.519
19243	8.5625	1.5	0.1	-2.3781
19244	8.3646	1.5	0.1	6.1977
19245	8.2656	1.4	0.1	17.53
19246	23.703	1.6	0.1	-0.16889
19247	23.802	1.7	0.1	-0.10627
19248	23.901	1.6	0.1	-0.29152
19249	23.505	1.6	0.1	-0.21008
19250	23.604	1.7	0.1	-0.322
19251	23.307	1.6	0.1	-0.10998
19252	23.406	1.7	0.1	-0.12166
19253	23.109	1.6	0.1	-9.024e-002
19254	23.208	1.7	0.1	-0.11014
19255	22.911	1.6	0.1	-6.8227e-002
19256	23.01	1.7	0.1	-7.8518e-002
19257	22.714	1.6	0.1	-5.582e-002
19258	22.813	1.7	0.1	-6.4455e-002
19259	22.516	1.6	0.1	-4.6218e-002
19260	22.615	1.7	0.1	-5.2801e-002
19261	22.318	1.6	0.1	-3.9198e-002
19262	22.417	1.7	0.1	-4.4674e-002
19263	22.12	1.6	0.1	-3.3729e-002
19264	22.219	1.7	0.1	-3.8352e-002
19265	21.922	1.6	0.1	-2.9405e-002
19266	22.021	1.7	0.1	-3.3417e-002
19267	21.724	1.6	0.1	-2.5909e-002
19268	21.823	1.7	0.1	-2.9444e-002
19269	21.526	1.6	0.1	-2.3045e-002
19270	21.625	1.7	0.1	-2.6203e-002
19271	21.328	1.6	0.1	-2.066e-002
19272	21.427	1.7	0.1	-2.3518e-002
19273	21.13	1.6	0.1	-1.8646e-002
19274	21.229	1.7	0.1	-2.1257e-002
19275	20.932	1.6	0.1	-1.6928e-002
19276	21.031	1.7	0.1	-1.9328e-002
19277	20.734	1.6	0.1	-1.5456e-002
19278	20.833	1.7	0.1	-1.7676e-002
19279	20.536	1.6	0.1	-1.4179e-002
19280	20.635	1.7	0.1	-1.6249e-002
19281	20.339	1.6	0.1	-1.3056e-002
19282	20.438	1.7	0.1	-1.4997e-002
19283	20.141	1.6	0.1	-1.2065e-002
19284	20.24	1.7	0.1	-1.3887e-002
19285	19.943	1.6	0.1	-1.1191e-002
19286	20.042	1.7	0.1	-1.2906e-002
19287	19.745	1.6	0.1	-1.0409e-002
19288	19.844	1.7	0.1	-1.2039e-002
19289	19.547	1.6	0.1	-9.6977e-003
19290	19.646	1.7	0.1	-1.1251e-002
19291	19.349	1.6	0.1	-9.0532e-003
19292	19.448	1.7	0.1	-1.0528e-002
19293	19.151	1.6	0.1	-8.4733e-003
19294	19.25	1.7	0.1	-9.8793e-003
19295	18.953	1.6	0.1	-7.9395e-003
19296	19.052	1.7	0.1	-9.291e-003
19297	18.755	1.6	0.1	-7.4339e-003
19298	18.854	1.7	0.1	-8.7391e-003
19299	18.557	1.6	0.1	-6.959e-003
19300	18.656	1.7	0.1	-8.2119e-003
19301	18.359	1.6	0.1	-6.5182e-003
19302	18.458	1.7	0.1	-7.7265e-003
19303	18.161	1.6	0.1	-6.0917e-003
19304	18.26	1.7	0.1	-7.2699e-003
19305	17.964	1.6	0.1	-5.6591e-003
19306	18.063	1.7	0.1	-6.816e-003
19307	17.766	1.6	0.1	-5.2189e-003
19308	17.865	1.7	0.1	-6.3493e-003
19309	17.568	1.6	0.1	-4.7658e-003
19310	17.667	1.7	0.1	-5.8809e-003
19311	17.37	1.6	0.1	-4.2604e-003
19312	17.469	1.7	0.1	-5.388e-003
19313	17.172	1.6	0.1	-3.6401e-003
19314	17.271	1.7	0.1	-4.8062e-003
19315	16.974	1.6	0.1	-2.8228e-003
19316	17.073	1.7	0.1	-4.0599e-003
19317	16.776	1.6	0.1	-1.6014e-003
19318	16.875	1.7	0.1	-3.0126e-003
19319	16.578	1.6	0.1	7.1262e-004
19320	16.677	1.7	0.1	-1.1953e-003
19321	16.38	1.6	0.1	7.5823e-003
19322	16.479	1.7	0.1	3.4991e-003
19323	16.182	1.6	0.1	0.20834
19324	16.281	1.7	0.1	5.6205e-002
19325	15.984	1.6	0.1	2.2006
19326	16.083	1.7	0.1	1.821
19327	15.786	1.6	0.1	4.4043
19328	15.885	1.7	0.1	4.0537
19329	15.589	1.6	0.1	6.7324
19330	15.688	1.7	0.1	6.4124
19331	15.391	1.6	0.1	9.1955
19332	15.49	1.7	0.1	8.908
19333	15.193	1.6	0.1	11.807
19334	15.292	1.7	0.1	11.555
19335	14.995	1.6	0.1	14.581
19336	15.094	1.7	0.1	14.369
19337	14.797	1.6	0.1	17.531
19338	14.896	1.7	0.1	17.367
19339	14.599	1.6	0.1	20.672
19340	14.698	1.7	0.1	20.564
19341	14.401	1.6	0.1	24.017
19342	14.5	1.7	0.1	23.978
19343	14.203	1.6	0.1	27.58
19344	14.302	1.7	0.1	27.624
19345	14.005	1.6	0.1	31.371
19346	14.104	1.7	0.1	31.52
19347	13.807	1.6	0.1	35.401
19348	13.906	1.7	0.1	35.68
19349	13.609	1.6	0.1	39.679
19350	13.708	1.7	0.1	40.12
19351	13.411	1.6	0.1	44.209
19352	13.51	1.7	0.1	44.851
19353	13.214	1.6	0.1	48.994
19354	13.313	1.7	0.1	49.886
19355	13.016	1.6	0.1	54.029
19356	13.115	1.7	0.1	55.231
19357	12.818	1.6	0.1	59.305
19358	12.917	1.7	0.1	60.888
19359	12.62	1.6	0.1	64.804
19360	12.719	1.7	0.1	66.856
19361	12.422	1.6	0.1	70.499
19362	12.521	1.7	0.1	73.125
19363	12.224	1.6	0.1	76.352
19364	12.323	1.7	0.1	79.676
19365	12.026	1.6	0.1	82.311
19366	12.125	1.7	0.1	86.479
19367	11.828	1.6	0.1	88.306
19368	11.927	1.7	0.1	93.491
19369	11.63	1.6	0.1	94.25
19370	11.729	1.7	0.1	100.65
19371	11.432	1.6	0.1	100.03
19372	11.531	1.7	0.1	107.87
19373	11.234	1.6	0.1	105.49
19374	11.333	1.7	0.1	115.04
19375	11.036	1.6	0.1	110.44
19376	11.135	1.7	0.1	122.
19377	10.839	1.6	0.1	114.61
19378	10.937	1.7	0.1	128.54
19379	10.641	1.6	0.1	117.65
19380	10.74	1.7	0.1	134.37
19381	10.443	1.6	0.1	118.99
19382	10.542	1.7	0.1	139.03
19383	10.245	1.6	0.1	117.79
19384	10.344	1.7	0.1	141.86
19385	10.047	1.6	0.1	112.64
19386	10.146	1.7	0.1	141.78
19387	9.849	1.6	0.1	101.24
19388	9.9479	1.7	0.1	137.06
19389	9.651	1.6	0.1	79.765
19390	9.75	1.7	0.1	124.78
19391	9.4531	1.6	0.1	43.244
19392	9.5521	1.7	0.1	100.13
19393	9.2552	1.6	0.1	10.141
19394	9.3542	1.7	0.1	56.14
19395	9.0573	1.6	0.1	4.2159
19396	9.1563	1.7	0.1	11.64
19397	8.8594	1.6	0.1	6.6694
19398	8.9583	1.7	0.1	4.0788
19399	8.6615	1.6	0.1	2.7593
19400	8.7604	1.7	0.1	8.9411
19401	8.4635	1.6	0.1	-8.4119
19402	8.5625	1.7	0.1	-7.7323
19403	8.3646	1.7	0.1	64.234
19404	8.2656	1.6	0.1	-56.992
19405	23.703	1.8	0.1	-0.17906
19406	23.802	1.9	0.1	-0.11894
19407	23.901	1.8	0.1	-0.29511
19408	23.505	1.8	0.1	-0.21716
19409	23.604	1.9	0.1	-0.32927
19410	23.307	1.8	0.1	-0.11575
19411	23.406	1.9	0.1	-0.12697
19412	23.109	1.8	0.1	-9.5471e-002
19413	23.208	1.9	0.1	-0.11491
19414	22.911	1.8	0.1	-7.3037e-002
19415	23.01	1.9	0.1	-8.2834e-002
19416	22.714	1.8	0.1	-6.0318e-002
19417	22.813	1.9	0.1	-6.8473e-002
19418	22.516	1.8	0.1	-5.0457e-002
19419	22.615	1.9	0.1	-5.6575e-002
19420	22.318	1.8	0.1	-4.3217e-002
19421	22.417	1.9	0.1	-4.825e-002
19422	22.12	1.8	0.1	-3.7551e-002
19423	22.219	1.9	0.1	-4.1756e-002
19424	21.922	1.8	0.1	-3.3051e-002
19425	22.021	1.9	0.1	-3.6667e-002
19426	21.724	1.8	0.1	-2.9393e-002
19427	21.823	1.9	0.1	-3.2555e-002
19428	21.526	1.8	0.1	-2.6376e-002
19429	21.625	1.9	0.1	-2.9185e-002
19430	21.328	1.8	0.1	-2.3851e-002
19431	21.427	1.9	0.1	-2.638e-002
19432	21.13	1.8	0.1	-2.1704e-002
19433	21.229	1.9	0.1	-2.4006e-002
19434	20.932	1.8	0.1	-1.9863e-002
19435	21.031	1.9	0.1	-2.1973e-002
19436	20.734	1.8	0.1	-1.8276e-002
19437	20.833	1.9	0.1	-2.0221e-002
19438	20.536	1.8	0.1	-1.6891e-002
19439	20.635	1.9	0.1	-1.8702e-002
19440	20.339	1.8	0.1	-1.5666e-002
19441	20.438	1.9	0.1	-1.7363e-002
19442	20.141	1.8	0.1	-1.458e-002
19443	20.24	1.9	0.1	-1.617e-002
19444	19.943	1.8	0.1	-1.3617e-002
19445	20.042	1.9	0.1	-1.5113e-002
19446	19.745	1.8	0.1	-1.2753e-002
19447	19.844	1.9	0.1	-1.4174e-002
19448	19.547	1.8	0.1	-1.1964e-002
19449	19.646	1.9	0.1	-1.3318e-002
19450	19.349	1.8	0.1	-1.1246e-002
19451	19.448	1.9	0.1	-1.2535e-002
19452	19.151	1.8	0.1	-1.0597e-002
19453	19.25	1.9	0.1	-1.1826e-002
19454	18.953	1.8	0.1	-9.9991e-003
19455	19.052	1.9	0.1	-1.1184e-002
19456	18.755	1.8	0.1	-9.4337e-003
19457	18.854	1.9	0.1	-1.0581e-002
19458	18.557	1.8	0.1	-8.9041e-003
19459	18.656	1.9	0.1	-1.0008e-002
19460	18.359	1.8	0.1	-8.4113e-003
19461	18.458	1.9	0.1	-9.48e-003
19462	18.161	1.8	0.1	-7.9365e-003
19463	18.26	1.9	0.1	-8.9857e-003
19464	17.964	1.8	0.1	-7.459e-003
19465	18.063	1.9	0.1	-8.4971e-003
19466	17.766	1.8	0.1	-6.9769e-003
19467	17.865	1.9	0.1	-8.0012e-003
19468	17.568	1.8	0.1	-6.4856e-003
19469	17.667	1.9	0.1	-7.508e-003
19470	17.37	1.8	0.1	-5.9411e-003
19471	17.469	1.9	0.1	-6.9957e-003
19472	17.172	1.8	0.1	-5.2748e-003
19473	17.271	1.9	0.1	-6.3973e-003
19474	16.974	1.8	0.1	-4.382e-003
19475	17.073	1.9	0.1	-5.6302e-003
19476	16.776	1.8	0.1	-2.9609e-003
19477	16.875	1.9	0.1	-4.5194e-003
19478	16.578	1.8	0.1	2.2852e-004
19479	16.677	1.9	0.1	-2.3719e-003
19480	16.38	1.8	0.1	1.8944e-002
19481	16.479	1.9	0.1	5.7738e-003
19482	16.182	1.8	0.1	1.3809
19483	16.281	1.9	0.1	0.81203
19484	15.984	1.8	0.1	3.6431
19485	16.083	1.9	0.1	3.082
19486	15.786	1.8	0.1	6.0329
19487	15.885	1.9	0.1	5.4844
19488	15.589	1.8	0.1	8.5604
19489	15.688	1.9	0.1	8.0232
19490	15.391	1.8	0.1	11.241
19491	15.49	1.9	0.1	10.715
19492	15.193	1.8	0.1	14.092
19493	15.292	1.9	0.1	13.578
19494	14.995	1.8	0.1	17.131
19495	15.094	1.9	0.1	16.63
19496	14.797	1.8	0.1	20.376
19497	14.896	1.9	0.1	19.893
19498	14.599	1.8	0.1	23.847
19499	14.698	1.9	0.1	23.387
19500	14.401	1.8	0.1	27.563
19501	14.5	1.9	0.1	27.134
19502	14.203	1.8	0.1	31.544
19503	14.302	1.9	0.1	31.157
19504	14.005	1.8	0.1	35.81
19505	14.104	1.9	0.1	35.48
19506	13.807	1.8	0.1	40.381
19507	13.906	1.9	0.1	40.127
19508	13.609	1.8	0.1	45.276
19509	13.708	1.9	0.1	45.123
19510	13.411	1.8	0.1	50.513
19511	13.51	1.9	0.1	50.493
19512	13.214	1.8	0.1	56.108
19513	13.313	1.9	0.1	56.262
19514	13.016	1.8	0.1	62.076
19515	13.115	1.9	0.1	62.452
19516	12.818	1.8	0.1	68.427
19517	12.917	1.9	0.1	69.085
19518	12.62	1.8	0.1	75.166
19519	12.719	1.9	0.1	76.182
19520	12.422	1.8	0.1	82.29
19521	12.521	1.9	0.1	83.755
19522	12.224	1.8	0.1	89.792
19523	12.323	1.9	0.1	91.813
19524	12.026	1.8	0.1	97.647
19525	12.125	1.9	0.1	100.36
19526	11.828	1.8	0.1	105.82
19527	11.927	1.9	0.1	109.37
19528	11.63	1.8	0.1	114.26
19529	11.729	1.9	0.1	118.83
19530	11.432	1.8	0.1	122.87
19531	11.531	1.9	0.1	128.68
19532	11.234	1.8	0.1	131.54
19533	11.333	1.9	0.1	138.84
19534	11.036	1.8	0.1	140.11
19535	11.135	1.9	0.1	149.18
19536	10.839	1.8	0.1	148.32
19537	10.937	1.9	0.1	159.51
19538	10.641	1.8	0.1	155.8
19539	10.74	1.9	0.1	169.54
19540	10.443	1.8	0.1	162.02
19541	10.542	1.9	0.1	178.82
19542	10.245	1.8	0.1	166.11
19543	10.344	1.9	0.1	186.69
19544	10.047	1.8	0.1	166.71
19545	10.146	1.9	0.1	192.07
19546	9.849	1.8	0.1	161.55
19547	9.9479	1.9	0.1	193.31
19548	9.651	1.8	0.1	146.89
19549	9.75	1.9	0.1	187.67
19550	9.4531	1.8	0.1	116.46
19551	9.5521	1.9	0.1	170.75
19552	9.2552	1.8	0.1	61.227
19553	9.3542	1.9	0.1	135.2
19554	9.0573	1.8	0.1	10.423
19555	9.1563	1.9	0.1	70.473
19556	8.8594	1.8	0.1	6.1687
19557	8.9583	1.9	0.1	7.9994
19558	8.6615	1.8	0.1	-0.86258
19559	8.7604	1.9	0.1	11.766
19560	8.4635	1.8	0.1	65.256
19561	8.5625	1.9	0.1	-41.227
19562	8.3646	1.9	0.1	340.22
19563	8.2656	1.8	0.1	288.03
19564	23.703	2.	0.1	-0.18679
19565	23.802	2.1	0.1	-0.12872
19566	23.901	2.	0.1	-0.2977
19567	23.505	2.	0.1	-0.22244
19568	23.604	2.1	0.1	-0.33471
19569	23.307	2.	0.1	-0.12003
19570	23.406	2.1	0.1	-0.1309
19571	23.109	2.	0.1	-9.9345e-002
19572	23.208	2.1	0.1	-0.11844
19573	22.911	2.	0.1	-7.6601e-002
19574	23.01	2.1	0.1	-8.6029e-002
19575	22.714	2.	0.1	-6.3658e-002
19576	22.813	2.1	0.1	-7.1451e-002
19577	22.516	2.	0.1	-5.3616e-002
19578	22.615	2.1	0.1	-5.9378e-002
19579	22.318	2.	0.1	-4.6225e-002
19580	22.417	2.1	0.1	-5.0915e-002
19581	22.12	2.	0.1	-4.0428e-002
19582	22.219	2.1	0.1	-4.4302e-002
19583	21.922	2.	0.1	-3.5808e-002
19584	22.021	2.1	0.1	-3.9109e-002
19585	21.724	2.	0.1	-3.204e-002
19586	21.823	2.1	0.1	-3.4902e-002
19587	21.526	2.	0.1	-2.8922e-002
19588	21.625	2.1	0.1	-3.1446e-002
19589	21.328	2.	0.1	-2.6301e-002
19590	21.427	2.1	0.1	-2.8559e-002
19591	21.13	2.	0.1	-2.4066e-002
19592	21.229	2.1	0.1	-2.611e-002
19593	20.932	2.	0.1	-2.2142e-002
19594	21.031	2.1	0.1	-2.4005e-002
19595	20.734	2.	0.1	-2.0475e-002
19596	20.833	2.1	0.1	-2.2186e-002
19597	20.536	2.	0.1	-1.9016e-002
19598	20.635	2.1	0.1	-2.0602e-002
19599	20.339	2.	0.1	-1.7721e-002
19600	20.438	2.1	0.1	-1.9204e-002
19601	20.141	2.	0.1	-1.6569e-002
19602	20.24	2.1	0.1	-1.7954e-002
19603	19.943	2.	0.1	-1.5545e-002
19604	20.042	2.1	0.1	-1.6845e-002
19605	19.745	2.	0.1	-1.4623e-002
19606	19.844	2.1	0.1	-1.5856e-002
19607	19.547	2.	0.1	-1.3781e-002
19608	19.646	2.1	0.1	-1.4956e-002
19609	19.349	2.	0.1	-1.3013e-002
19610	19.448	2.1	0.1	-1.4129e-002
19611	19.151	2.	0.1	-1.2317e-002
19612	19.25	2.1	0.1	-1.338e-002
19613	18.953	2.	0.1	-1.1677e-002
19614	19.052	2.1	0.1	-1.2702e-002
19615	18.755	2.	0.1	-1.1073e-002
19616	18.854	2.1	0.1	-1.2068e-002
19617	18.557	2.	0.1	-1.0508e-002
19618	18.656	2.1	0.1	-1.1465e-002
19619	18.359	2.	0.1	-9.9844e-003
19620	18.458	2.1	0.1	-1.0911e-002
19621	18.161	2.	0.1	-9.4835e-003
19622	18.26	2.1	0.1	-1.0397e-002
19623	17.964	2.	0.1	-8.9846e-003
19624	18.063	2.1	0.1	-9.892e-003
19625	17.766	2.	0.1	-8.4879e-003
19626	17.865	2.1	0.1	-9.387e-003
19627	17.568	2.	0.1	-7.988e-003
19628	17.667	2.1	0.1	-8.8927e-003
19629	17.37	2.	0.1	-7.4445e-003
19630	17.469	2.1	0.1	-8.3893e-003
19631	17.172	2.	0.1	-6.7878e-003
19632	17.271	2.1	0.1	-7.8154e-003
19633	16.974	2.	0.1	-5.9035e-003
19634	17.073	2.1	0.1	-7.0885e-003
19635	16.776	2.	0.1	-4.4153e-003
19636	16.875	2.1	0.1	-6.0257e-003
19637	16.578	2.	0.1	-2.4907e-004
19638	16.677	2.1	0.1	-3.7289e-003
19639	16.38	2.	0.1	0.23048
19640	16.479	2.1	0.1	1.4251e-002
19641	16.182	2.	0.1	2.4758
19642	16.281	2.1	0.1	1.7415
19643	15.984	2.	0.1	4.8937
19644	16.083	2.1	0.1	4.1565
19645	15.786	2.	0.1	7.4464
19646	15.885	2.1	0.1	6.7035
19647	15.589	2.	0.1	10.151
19648	15.688	2.1	0.1	9.3987
19649	15.391	2.	0.1	13.026
19650	15.49	2.1	0.1	12.262
19651	15.193	2.	0.1	16.091
19652	15.292	2.1	0.1	15.313
19653	14.995	2.	0.1	19.369
19654	15.094	2.1	0.1	18.576
19655	14.797	2.	0.1	22.881
19656	14.896	2.1	0.1	22.073
19657	14.599	2.	0.1	26.652
19658	14.698	2.1	0.1	25.831
19659	14.401	2.	0.1	30.708
19660	14.5	2.1	0.1	29.875
19661	14.203	2.	0.1	35.074
19662	14.302	2.1	0.1	34.237
19663	14.005	2.	0.1	39.78
19664	14.104	2.1	0.1	38.945
19665	13.807	2.	0.1	44.853
19666	13.906	2.1	0.1	44.033
19667	13.609	2.	0.1	50.326
19668	13.708	2.1	0.1	49.536
19669	13.411	2.	0.1	56.228
19670	13.51	2.1	0.1	55.491
19671	13.214	2.	0.1	62.592
19672	13.313	2.1	0.1	61.934
19673	13.016	2.	0.1	69.449
19674	13.115	2.1	0.1	68.906
19675	12.818	2.	0.1	76.829
19676	12.917	2.1	0.1	76.447
19677	12.62	2.	0.1	84.761
19678	12.719	2.1	0.1	84.595
19679	12.422	2.	0.1	93.268
19680	12.521	2.1	0.1	93.39
19681	12.224	2.	0.1	102.37
19682	12.323	2.1	0.1	102.87
19683	12.026	2.	0.1	112.07
19684	12.125	2.1	0.1	113.05
19685	11.828	2.	0.1	122.37
19686	11.927	2.1	0.1	123.96
19687	11.63	2.	0.1	133.25
19688	11.729	2.1	0.1	135.6
19689	11.432	2.	0.1	144.65
19690	11.531	2.1	0.1	147.95
19691	11.234	2.	0.1	156.48
19692	11.333	2.1	0.1	160.95
19693	11.036	2.	0.1	168.59
19694	11.135	2.1	0.1	174.49
19695	10.839	2.	0.1	180.75
19696	10.937	2.1	0.1	188.4
19697	10.641	2.	0.1	192.6
19698	10.74	2.1	0.1	202.39
19699	10.443	2.	0.1	203.59
19700	10.542	2.1	0.1	215.99
19701	10.245	2.	0.1	212.85
19702	10.344	2.1	0.1	228.5
19703	10.047	2.	0.1	219.07
19704	10.146	2.1	0.1	238.84
19705	9.849	2.	0.1	220.16
19706	9.9479	2.1	0.1	245.34
19707	9.651	2.	0.1	212.82
19708	9.75	2.1	0.1	245.42
19709	9.4531	2.	0.1	191.71
19710	9.5521	2.1	0.1	235.09
19711	9.2552	2.	0.1	148.39
19712	9.3542	2.1	0.1	208.01
19713	9.0573	2.	0.1	69.567
19714	9.1563	2.1	0.1	154.67
19715	8.8594	2.	0.1	11.403
19716	8.9583	2.1	0.1	58.749
19717	8.6615	2.	0.1	-28.393
19718	8.7604	2.1	0.1	12.558
19719	8.4635	2.	0.1	232.43
19720	8.5625	2.1	0.1	-52.584
19721	8.3646	2.1	0.1	226.02
19722	8.2656	2.	0.1	475.83
19723	23.703	2.2	0.1	-0.19262
19724	23.802	2.3	0.1	-0.13611
19725	23.901	2.2	0.1	-0.29959
19726	23.505	2.2	0.1	-0.22637
19727	23.604	2.3	0.1	-0.33872
19728	23.307	2.2	0.1	-0.12319
19729	23.406	2.3	0.1	-0.13378
19730	23.109	2.2	0.1	-0.1022
19731	23.208	2.3	0.1	-0.12102
19732	22.911	2.2	0.1	-7.9231e-002
19733	23.01	2.3	0.1	-8.8362e-002
19734	22.714	2.2	0.1	-6.6126e-002
19735	22.813	2.3	0.1	-7.3625e-002
19736	22.516	2.2	0.1	-5.5955e-002
19737	22.615	2.3	0.1	-6.1428e-002
19738	22.318	2.2	0.1	-4.8457e-002
19739	22.417	2.3	0.1	-5.2866e-002
19740	22.12	2.2	0.1	-4.2568e-002
19741	22.219	2.3	0.1	-4.6171e-002
19742	21.922	2.2	0.1	-3.7867e-002
19743	22.021	2.3	0.1	-4.0907e-002
19744	21.724	2.2	0.1	-3.4026e-002
19745	21.823	2.3	0.1	-3.6636e-002
19746	21.526	2.2	0.1	-3.084e-002
19747	21.625	2.3	0.1	-3.3122e-002
19748	21.328	2.2	0.1	-2.8155e-002
19749	21.427	2.3	0.1	-3.0181e-002
19750	21.13	2.2	0.1	-2.586e-002
19751	21.229	2.3	0.1	-2.7681e-002
19752	20.932	2.2	0.1	-2.3878e-002
19753	21.031	2.3	0.1	-2.5527e-002
19754	20.734	2.2	0.1	-2.2157e-002
19755	20.833	2.3	0.1	-2.3663e-002
19756	20.536	2.2	0.1	-2.0647e-002
19757	20.635	2.3	0.1	-2.2036e-002
19758	20.339	2.2	0.1	-1.9305e-002
19759	20.438	2.3	0.1	-2.0597e-002
19760	20.141	2.2	0.1	-1.8108e-002
19761	20.24	2.3	0.1	-1.9309e-002
19762	19.943	2.2	0.1	-1.7041e-002
19763	20.042	2.3	0.1	-1.8165e-002
19764	19.745	2.2	0.1	-1.6081e-002
19765	19.844	2.3	0.1	-1.7141e-002
19766	19.547	2.2	0.1	-1.5202e-002
19767	19.646	2.3	0.1	-1.621e-002
19768	19.349	2.2	0.1	-1.44e-002
19769	19.448	2.3	0.1	-1.5354e-002
19770	19.151	2.2	0.1	-1.3674e-002
19771	19.25	2.3	0.1	-1.458e-002
19772	18.953	2.2	0.1	-1.3007e-002
19773	19.052	2.3	0.1	-1.3878e-002
19774	18.755	2.2	0.1	-1.2378e-002
19775	18.854	2.3	0.1	-1.3223e-002
19776	18.557	2.2	0.1	-1.1792e-002
19777	18.656	2.3	0.1	-1.2603e-002
19778	18.359	2.2	0.1	-1.1251e-002
19779	18.458	2.3	0.1	-1.2035e-002
19780	18.161	2.2	0.1	-1.0738e-002
19781	18.26	2.3	0.1	-1.151e-002
19782	17.964	2.2	0.1	-1.0233e-002
19783	18.063	2.3	0.1	-1.1002e-002
19784	17.766	2.2	0.1	-9.738e-003
19785	17.865	2.3	0.1	-1.0499e-002
19786	17.568	2.2	0.1	-9.2509e-003
19787	17.667	2.3	0.1	-1.0017e-002
19788	17.37	2.2	0.1	-8.7352e-003
19789	17.469	2.3	0.1	-9.5408e-003
19790	17.172	2.2	0.1	-8.1289e-003
19791	17.271	2.3	0.1	-9.0156e-003
19792	16.974	2.2	0.1	-7.3284e-003
19793	17.073	2.3	0.1	-8.3749e-003
19794	16.776	2.2	0.1	-5.9377e-003
19795	16.875	2.3	0.1	-7.461e-003
19796	16.578	2.2	0.1	-7.7077e-004
19797	16.677	2.3	0.1	-5.3023e-003
19798	16.38	2.2	0.1	0.97553
19799	16.479	2.3	0.1	0.14448
19800	16.182	2.2	0.1	3.391
19801	16.281	2.3	0.1	2.5036
19802	15.984	2.2	0.1	5.9373
19803	16.083	2.3	0.1	5.0308
19804	15.786	2.2	0.1	8.628
19805	15.885	2.3	0.1	7.697
19806	15.589	2.2	0.1	11.483
19807	15.688	2.3	0.1	10.522
19808	15.391	2.2	0.1	14.524
19809	15.49	2.3	0.1	13.527
19810	15.193	2.2	0.1	17.774
19811	15.292	2.3	0.1	16.736
19812	14.995	2.2	0.1	21.257
19813	15.094	2.3	0.1	20.175
19814	14.797	2.2	0.1	25.001
19815	14.896	2.3	0.1	23.869
19816	14.599	2.2	0.1	29.033
19817	14.698	2.3	0.1	27.849
19818	14.401	2.2	0.1	33.385
19819	14.5	2.3	0.1	32.145
19820	14.203	2.2	0.1	38.089
19821	14.302	2.3	0.1	36.794
19822	14.005	2.2	0.1	43.182
19823	14.104	2.3	0.1	41.831
19824	13.807	2.2	0.1	48.701
19825	13.906	2.3	0.1	47.297
19826	13.609	2.2	0.1	54.687
19827	13.708	2.3	0.1	53.236
19828	13.411	2.2	0.1	61.184
19829	13.51	2.3	0.1	59.694
19830	13.214	2.2	0.1	68.237
19831	13.313	2.3	0.1	66.722
19832	13.016	2.2	0.1	75.894
19833	13.115	2.3	0.1	74.374
19834	12.818	2.2	0.1	84.204
19835	12.917	2.3	0.1	82.705
19836	12.62	2.2	0.1	93.217
19837	12.719	2.3	0.1	91.774
19838	12.422	2.2	0.1	102.98
19839	12.521	2.3	0.1	101.64
19840	12.224	2.2	0.1	113.54
19841	12.323	2.3	0.1	112.36
19842	12.026	2.2	0.1	124.93
19843	12.125	2.3	0.1	123.99
19844	11.828	2.2	0.1	137.18
19845	11.927	2.3	0.1	136.57
19846	11.63	2.2	0.1	150.29
19847	11.729	2.3	0.1	150.14
19848	11.432	2.2	0.1	164.24
19849	11.531	2.3	0.1	164.69
19850	11.234	2.2	0.1	178.96
19851	11.333	2.3	0.1	180.19
19852	11.036	2.2	0.1	194.3
19853	11.135	2.3	0.1	196.55
19854	10.839	2.2	0.1	210.04
19855	10.937	2.3	0.1	213.59
19856	10.641	2.2	0.1	225.8
19857	10.74	2.3	0.1	231.
19858	10.443	2.2	0.1	240.97
19859	10.542	2.3	0.1	248.27
19860	10.245	2.2	0.1	254.63
19861	10.344	2.3	0.1	264.6
19862	10.047	2.2	0.1	265.38
19863	10.146	2.3	0.1	278.79
19864	9.849	2.2	0.1	271.1
19865	9.9479	2.3	0.1	288.98
19866	9.651	2.2	0.1	268.54
19867	9.75	2.3	0.1	292.38
19868	9.4531	2.2	0.1	252.77
19869	9.5521	2.3	0.1	284.78
19870	9.2552	2.2	0.1	216.4
19871	9.3542	2.3	0.1	259.78
19872	9.0573	2.2	0.1	147.08
19873	9.1563	2.3	0.1	207.96
19874	8.8594	2.2	0.1	29.505
19875	8.9583	2.3	0.1	113.72
19876	8.6615	2.2	0.1	-11.47
19877	8.7604	2.3	0.1	0.69315
19878	8.4635	2.2	0.1	-12.707
19879	8.5625	2.3	0.1	-8.0039
19880	8.3646	2.3	0.1	6.9344
19881	8.2656	2.2	0.1	-52.587
19882	23.703	2.4	0.1	-0.19689
19883	23.802	2.5	0.1	-0.14142
19884	23.901	2.4	0.1	-0.30093
19885	23.505	2.4	0.1	-0.2292
19886	23.604	2.5	0.1	-0.34156
19887	23.307	2.4	0.1	-0.12546
19888	23.406	2.5	0.1	-0.13581
19889	23.109	2.4	0.1	-0.10426
19890	23.208	2.5	0.1	-0.12283
19891	22.911	2.4	0.1	-8.1119e-002
19892	23.01	2.5	0.1	-8.9995e-002
19893	22.714	2.4	0.1	-6.7899e-002
19894	22.813	2.5	0.1	-7.5145e-002
19895	22.516	2.4	0.1	-5.7636e-002
19896	22.615	2.5	0.1	-6.2864e-002
19897	22.318	2.4	0.1	-5.0065e-002
19898	22.417	2.5	0.1	-5.4233e-002
19899	22.12	2.4	0.1	-4.4113e-002
19900	22.219	2.5	0.1	-4.7483e-002
19901	21.922	2.4	0.1	-3.9357e-002
19902	22.021	2.5	0.1	-4.2171e-002
19903	21.724	2.4	0.1	-3.5467e-002
19904	21.823	2.5	0.1	-3.786e-002
19905	21.526	2.4	0.1	-3.2236e-002
19906	21.625	2.5	0.1	-3.4306e-002
19907	21.328	2.4	0.1	-2.9509e-002
19908	21.427	2.5	0.1	-3.133e-002
19909	21.13	2.4	0.1	-2.7173e-002
19910	21.229	2.5	0.1	-2.8797e-002
19911	20.932	2.4	0.1	-2.5153e-002
19912	21.031	2.5	0.1	-2.6612e-002
19913	20.734	2.4	0.1	-2.3397e-002
19914	20.833	2.5	0.1	-2.4717e-002
19915	20.536	2.4	0.1	-2.1853e-002
19916	20.635	2.5	0.1	-2.3063e-002
19917	20.339	2.4	0.1	-2.0478e-002
19918	20.438	2.5	0.1	-2.1596e-002
19919	20.141	2.4	0.1	-1.9251e-002
19920	20.24	2.5	0.1	-2.0283e-002
19921	19.943	2.4	0.1	-1.8157e-002
19922	20.042	2.5	0.1	-1.9116e-002
19923	19.745	2.4	0.1	-1.7169e-002
19924	19.844	2.5	0.1	-1.8071e-002
19925	19.547	2.4	0.1	-1.6266e-002
19926	19.646	2.5	0.1	-1.7119e-002
19927	19.349	2.4	0.1	-1.5442e-002
19928	19.448	2.5	0.1	-1.6244e-002
19929	19.151	2.4	0.1	-1.4697e-002
19930	19.25	2.5	0.1	-1.5454e-002
19931	18.953	2.4	0.1	-1.4011e-002
19932	19.052	2.5	0.1	-1.4737e-002
19933	18.755	2.4	0.1	-1.3368e-002
19934	18.854	2.5	0.1	-1.4069e-002
19935	18.557	2.4	0.1	-1.277e-002
19936	18.656	2.5	0.1	-1.3439e-002
19937	18.359	2.4	0.1	-1.222e-002
19938	18.458	2.5	0.1	-1.2864e-002
19939	18.161	2.4	0.1	-1.1704e-002
19940	18.26	2.5	0.1	-1.2336e-002
19941	17.964	2.4	0.1	-1.1201e-002
19942	18.063	2.5	0.1	-1.1829e-002
19943	17.766	2.4	0.1	-1.0716e-002
19944	17.865	2.5	0.1	-1.1334e-002
19945	17.568	2.4	0.1	-1.0251e-002
19946	17.667	2.5	0.1	-1.087e-002
19947	17.37	2.4	0.1	-9.7773e-003
19948	17.469	2.5	0.1	-1.0425e-002
19949	17.172	2.4	0.1	-9.2449e-003
19950	17.271	2.5	0.1	-9.9576e-003
19951	16.974	2.4	0.1	-8.5798e-003
19952	17.073	2.5	0.1	-9.4221e-003
19953	16.776	2.4	0.1	-7.4496e-003
19954	16.875	2.5	0.1	-8.7203e-003
19955	16.578	2.4	0.1	-1.4645e-003
19956	16.677	2.5	0.1	-7.044e-003
19957	16.38	2.4	0.1	1.5987
19958	16.479	2.5	0.1	0.60001
19959	16.182	2.4	0.1	4.1135
19960	16.281	2.5	0.1	3.083
19961	15.984	2.4	0.1	6.762
19962	16.083	2.5	0.1	5.6954
19963	15.786	2.4	0.1	9.5635
19964	15.885	2.5	0.1	8.4532
19965	15.589	2.4	0.1	12.54
19966	15.688	2.5	0.1	11.378
19967	15.391	2.4	0.1	15.715
19968	15.49	2.5	0.1	14.494
19969	15.193	2.4	0.1	19.113
19970	15.292	2.5	0.1	17.825
19971	14.995	2.4	0.1	22.764
19972	15.094	2.5	0.1	21.399
19973	14.797	2.4	0.1	26.695
19974	14.896	2.5	0.1	25.247
19975	14.599	2.4	0.1	30.941
19976	14.698	2.5	0.1	29.4
19977	14.401	2.4	0.1	35.535
19978	14.5	2.5	0.1	33.895
19979	14.203	2.4	0.1	40.518
19980	14.302	2.5	0.1	38.769
19981	14.005	2.4	0.1	45.93
19982	14.104	2.5	0.1	44.065
19983	13.807	2.4	0.1	51.817
19984	13.906	2.5	0.1	49.83
19985	13.609	2.4	0.1	58.23
19986	13.708	2.5	0.1	56.114
19987	13.411	2.4	0.1	65.221
19988	13.51	2.5	0.1	62.973
19989	13.214	2.4	0.1	72.85
19990	13.313	2.5	0.1	70.467
19991	13.016	2.4	0.1	81.177
19992	13.115	2.5	0.1	78.662
19993	12.818	2.4	0.1	90.268
19994	12.917	2.5	0.1	87.626
19995	12.62	2.4	0.1	100.19
19996	12.719	2.5	0.1	97.433
19997	12.422	2.4	0.1	111.02
19998	12.521	2.5	0.1	108.16
19999	12.224	2.4	0.1	122.81
20000	12.323	2.5	0.1	119.88
20001	12.026	2.4	0.1	135.63
20002	12.125	2.5	0.1	132.68
20003	11.828	2.4	0.1	149.53
20004	11.927	2.5	0.1	146.61
20005	11.63	2.4	0.1	164.53
20006	11.729	2.5	0.1	161.73
20007	11.432	2.4	0.1	180.64
20008	11.531	2.5	0.1	178.05
20009	11.234	2.4	0.1	197.78
20010	11.333	2.5	0.1	195.57
20011	11.036	2.4	0.1	215.84
20012	11.135	2.5	0.1	214.19
20013	10.839	2.4	0.1	234.55
20014	10.937	2.5	0.1	233.72
20015	10.641	2.4	0.1	253.48
20016	10.74	2.5	0.1	253.8
20017	10.443	2.4	0.1	271.93
20018	10.542	2.5	0.1	273.87
20019	10.245	2.4	0.1	288.83
20020	10.344	2.5	0.1	292.98
20021	10.047	2.4	0.1	302.52
20022	10.146	2.5	0.1	309.7
20023	9.849	2.4	0.1	310.48
20024	9.9479	2.5	0.1	321.81
20025	9.651	2.4	0.1	308.96
20026	9.75	2.5	0.1	325.96
20027	9.4531	2.4	0.1	292.23
20028	9.5521	2.5	0.1	317.1
20029	9.2552	2.4	0.1	251.68
20030	9.3542	2.5	0.1	287.64
20031	9.0573	2.4	0.1	174.06
20032	9.1563	2.5	0.1	226.29
20033	8.8594	2.4	0.1	39.107
20034	8.9583	2.5	0.1	116.5
20035	8.6615	2.4	0.1	5.0162
20036	8.7604	2.5	0.1	-0.73467
20037	8.4635	2.4	0.1	14.345
20038	8.5625	2.5	0.1	6.5392
20039	8.3646	2.5	0.1	4.5656
20040	8.2656	2.4	0.1	23.408
20041	23.703	2.6	0.1	-0.1998
20042	23.802	2.7	0.1	-0.14486
20043	23.901	2.6	0.1	-0.30182
20044	23.505	2.6	0.1	-0.23112
20045	23.604	2.7	0.1	-0.34337
20046	23.307	2.6	0.1	-0.12699
20047	23.406	2.7	0.1	-0.1371
20048	23.109	2.6	0.1	-0.10564
20049	23.208	2.7	0.1	-0.12397
20050	22.911	2.6	0.1	-8.239e-002
20051	23.01	2.7	0.1	-9.1031e-002
20052	22.714	2.6	0.1	-6.9091e-002
20053	22.813	2.7	0.1	-7.6111e-002
20054	22.516	2.6	0.1	-5.8768e-002
20055	22.615	2.7	0.1	-6.3775e-002
20056	22.318	2.6	0.1	-5.1148e-002
20057	22.417	2.7	0.1	-5.5101e-002
20058	22.12	2.6	0.1	-4.5155e-002
20059	22.219	2.7	0.1	-4.8316e-002
20060	21.922	2.6	0.1	-4.0366e-002
20061	22.021	2.7	0.1	-4.2976e-002
20062	21.724	2.6	0.1	-3.6445e-002
20063	21.823	2.7	0.1	-3.8639e-002
20064	21.526	2.6	0.1	-3.3184e-002
20065	21.625	2.7	0.1	-3.5063e-002
20066	21.328	2.6	0.1	-3.043e-002
20067	21.427	2.7	0.1	-3.2065e-002
20068	21.13	2.6	0.1	-2.8069e-002
20069	21.229	2.7	0.1	-2.9513e-002
20070	20.932	2.6	0.1	-2.6026e-002
20071	21.031	2.7	0.1	-2.7308e-002
20072	20.734	2.6	0.1	-2.4246e-002
20073	20.833	2.7	0.1	-2.5397e-002
20074	20.536	2.6	0.1	-2.2681e-002
20075	20.635	2.7	0.1	-2.3725e-002
20076	20.339	2.6	0.1	-2.1285e-002
20077	20.438	2.7	0.1	-2.2242e-002
20078	20.141	2.6	0.1	-2.0039e-002
20079	20.24	2.7	0.1	-2.0914e-002
20080	19.943	2.6	0.1	-1.8927e-002
20081	20.042	2.7	0.1	-1.9731e-002
20082	19.745	2.6	0.1	-1.7923e-002
20083	19.844	2.7	0.1	-1.8674e-002
20084	19.547	2.6	0.1	-1.7004e-002
20085	19.646	2.7	0.1	-1.771e-002
20086	19.349	2.6	0.1	-1.6167e-002
20087	19.448	2.7	0.1	-1.6824e-002
20088	19.151	2.6	0.1	-1.5408e-002
20089	19.25	2.7	0.1	-1.6024e-002
20090	18.953	2.6	0.1	-1.4712e-002
20091	19.052	2.7	0.1	-1.5298e-002
20092	18.755	2.6	0.1	-1.4061e-002
20093	18.854	2.7	0.1	-1.4623e-002
20094	18.557	2.6	0.1	-1.3457e-002
20095	18.656	2.7	0.1	-1.3988e-002
20096	18.359	2.6	0.1	-1.2904e-002
20097	18.458	2.7	0.1	-1.341e-002
20098	18.161	2.6	0.1	-1.2389e-002
20099	18.26	2.7	0.1	-1.2882e-002
20100	17.964	2.6	0.1	-1.1891e-002
20101	18.063	2.7	0.1	-1.2377e-002
20102	17.766	2.6	0.1	-1.1418e-002
20103	17.865	2.7	0.1	-1.1891e-002
20104	17.568	2.6	0.1	-1.0977e-002
20105	17.667	2.7	0.1	-1.1443e-002
20106	17.37	2.6	0.1	-1.0544e-002
20107	17.469	2.7	0.1	-1.1026e-002
20108	17.172	2.6	0.1	-1.0086e-002
20109	17.271	2.7	0.1	-1.0607e-002
20110	16.974	2.6	0.1	-9.568e-003
20111	17.073	2.7	0.1	-1.0165e-002
20112	16.776	2.6	0.1	-8.7933e-003
20113	16.875	2.7	0.1	-9.6719e-003
20114	16.578	2.6	0.1	-2.7122e-003
20115	16.677	2.7	0.1	-8.7078e-003
20116	16.38	2.6	0.1	2.0505
20117	16.479	2.7	0.1	0.93208
20118	16.182	2.6	0.1	4.6354
20119	16.281	2.7	0.1	3.4727
20120	15.984	2.6	0.1	7.3584
20121	16.083	2.7	0.1	6.1428
20122	15.786	2.6	0.1	10.241
20123	15.885	2.7	0.1	8.9628
20124	15.589	2.6	0.1	13.306
20125	15.688	2.7	0.1	11.956
20126	15.391	2.6	0.1	16.579
20127	15.49	2.7	0.1	15.146
20128	15.193	2.6	0.1	20.087
20129	15.292	2.7	0.1	18.561
20130	14.995	2.6	0.1	23.861
20131	15.094	2.7	0.1	22.229
20132	14.797	2.6	0.1	27.931
20133	14.896	2.7	0.1	26.182
20134	14.599	2.6	0.1	32.335
20135	14.698	2.7	0.1	30.454
20136	14.401	2.6	0.1	37.11
20137	14.5	2.7	0.1	35.084
20138	14.203	2.6	0.1	42.299
20139	14.302	2.7	0.1	40.113
20140	14.005	2.6	0.1	47.949
20141	14.104	2.7	0.1	45.588
20142	13.807	2.6	0.1	54.112
20143	13.906	2.7	0.1	51.56
20144	13.609	2.6	0.1	60.844
20145	13.708	2.7	0.1	58.084
20146	13.411	2.6	0.1	68.208
20147	13.51	2.7	0.1	65.221
20148	13.214	2.6	0.1	76.269
20149	13.313	2.7	0.1	73.039
20150	13.016	2.6	0.1	85.102
20151	13.115	2.7	0.1	81.612
20152	12.818	2.6	0.1	94.784
20153	12.917	2.7	0.1	91.018
20154	12.62	2.6	0.1	105.4
20155	12.719	2.7	0.1	101.34
20156	12.422	2.6	0.1	117.02
20157	12.521	2.7	0.1	112.67
20158	12.224	2.6	0.1	129.75
20159	12.323	2.7	0.1	125.1
20160	12.026	2.6	0.1	143.66
20161	12.125	2.7	0.1	138.71
20162	11.828	2.6	0.1	158.81
20163	11.927	2.7	0.1	153.58
20164	11.63	2.6	0.1	175.25
20165	11.729	2.7	0.1	169.79
20166	11.432	2.6	0.1	192.99
20167	11.531	2.7	0.1	187.36
20168	11.234	2.6	0.1	211.97
20169	11.333	2.7	0.1	206.29
20170	11.036	2.6	0.1	232.06
20171	11.135	2.7	0.1	226.48
20172	10.839	2.6	0.1	252.97
20173	10.937	2.7	0.1	247.72
20174	10.641	2.6	0.1	274.19
20175	10.74	2.7	0.1	269.63
20176	10.443	2.6	0.1	294.91
20177	10.542	2.7	0.1	291.54
20178	10.245	2.6	0.1	313.84
20179	10.344	2.7	0.1	312.39
20180	10.047	2.6	0.1	328.97
20181	10.146	2.7	0.1	330.48
20182	9.849	2.6	0.1	337.21
20183	9.9479	2.7	0.1	343.2
20184	9.651	2.6	0.1	333.88
20185	9.75	2.7	0.1	346.56
20186	9.4531	2.6	0.1	311.92
20187	9.5521	2.7	0.1	334.5
20188	9.2552	2.6	0.1	260.78
20189	9.3542	2.7	0.1	297.99
20190	9.0573	2.6	0.1	165.08
20191	9.1563	2.7	0.1	224.
20192	8.8594	2.6	0.1	10.229
20193	8.9583	2.7	0.1	95.048
20194	8.6615	2.6	0.1	0.33183
20195	8.7604	2.7	0.1	0.33907
20196	8.4635	2.6	0.1	-2.9979
20197	8.5625	2.7	0.1	-0.2451
20198	8.3646	2.7	0.1	-1.9556
20199	8.2656	2.6	0.1	-4.7472
20200	23.703	2.8	0.1	-0.2015
20201	23.802	2.9	0.1	-0.14655
20202	23.901	2.8	0.1	-0.30234
20203	23.505	2.8	0.1	-0.23223
20204	23.604	2.9	0.1	-0.34425
20205	23.307	2.8	0.1	-0.12788
20206	23.406	2.9	0.1	-0.13772
20207	23.109	2.8	0.1	-0.10644
20208	23.208	2.9	0.1	-0.12453
20209	22.911	2.8	0.1	-8.3124e-002
20210	23.01	2.9	0.1	-9.1535e-002
20211	22.714	2.8	0.1	-6.9781e-002
20212	22.813	2.9	0.1	-7.6581e-002
20213	22.516	2.8	0.1	-5.9422e-002
20214	22.615	2.9	0.1	-6.4217e-002
20215	22.318	2.8	0.1	-5.1774e-002
20216	22.417	2.9	0.1	-5.5524e-002
20217	22.12	2.8	0.1	-4.5759e-002
20218	22.219	2.9	0.1	-4.8723e-002
20219	21.922	2.8	0.1	-4.0949e-002
20220	22.021	2.9	0.1	-4.3369e-002
20221	21.724	2.8	0.1	-3.701e-002
20222	21.823	2.9	0.1	-3.9019e-002
20223	21.526	2.8	0.1	-3.3735e-002
20224	21.625	2.9	0.1	-3.5431e-002
20225	21.328	2.8	0.1	-3.0967e-002
20226	21.427	2.9	0.1	-3.2425e-002
20227	21.13	2.8	0.1	-2.8591e-002
20228	21.229	2.9	0.1	-2.9862e-002
20229	20.932	2.8	0.1	-2.6535e-002
20230	21.031	2.9	0.1	-2.765e-002
20231	20.734	2.8	0.1	-2.4743e-002
20232	20.833	2.9	0.1	-2.5729e-002
20233	20.536	2.8	0.1	-2.3165e-002
20234	20.635	2.9	0.1	-2.4049e-002
20235	20.339	2.8	0.1	-2.1759e-002
20236	20.438	2.9	0.1	-2.256e-002
20237	20.141	2.8	0.1	-2.0501e-002
20238	20.24	2.9	0.1	-2.1224e-002
20239	19.943	2.8	0.1	-1.9378e-002
20240	20.042	2.9	0.1	-2.0034e-002
20241	19.745	2.8	0.1	-1.8366e-002
20242	19.844	2.9	0.1	-1.897e-002
20243	19.547	2.8	0.1	-1.7439e-002
20244	19.646	2.9	0.1	-1.8e-002
20245	19.349	2.8	0.1	-1.6594e-002
20246	19.448	2.9	0.1	-1.7109e-002
20247	19.151	2.8	0.1	-1.583e-002
20248	19.25	2.9	0.1	-1.6305e-002
20249	18.953	2.8	0.1	-1.5128e-002
20250	19.052	2.9	0.1	-1.5575e-002
20251	18.755	2.8	0.1	-1.4472e-002
20252	18.854	2.9	0.1	-1.4898e-002
20253	18.557	2.8	0.1	-1.3864e-002
20254	18.656	2.9	0.1	-1.4259e-002
20255	18.359	2.8	0.1	-1.3311e-002
20256	18.458	2.9	0.1	-1.3681e-002
20257	18.161	2.8	0.1	-1.2796e-002
20258	18.26	2.9	0.1	-1.3153e-002
20259	17.964	2.8	0.1	-1.2304e-002
20260	18.063	2.9	0.1	-1.2651e-002
20261	17.766	2.8	0.1	-1.1841e-002
20262	17.865	2.9	0.1	-1.217e-002
20263	17.568	2.8	0.1	-1.1416e-002
20264	17.667	2.9	0.1	-1.173e-002
20265	17.37	2.8	0.1	-1.1013e-002
20266	17.469	2.9	0.1	-1.1329e-002
20267	17.172	2.8	0.1	-1.061e-002
20268	17.271	2.9	0.1	-1.0939e-002
20269	16.974	2.8	0.1	-1.0205e-002
20270	17.073	2.9	0.1	-1.0551e-002
20271	16.776	2.8	0.1	-9.7468e-003
20272	16.875	2.9	0.1	-1.0188e-002
20273	16.578	2.8	0.1	-5.6943e-003
20274	16.677	2.9	0.1	-9.7896e-003
20275	16.38	2.8	0.1	2.3236
20276	16.479	2.9	0.1	1.1
20277	16.182	2.8	0.1	4.9509
20278	16.281	2.9	0.1	3.6686
20279	15.984	2.8	0.1	7.7191
20280	16.083	2.9	0.1	6.3677
20281	15.786	2.8	0.1	10.651
20282	15.885	2.9	0.1	9.2192
20283	15.589	2.8	0.1	13.77
20284	15.688	2.9	0.1	12.246
20285	15.391	2.8	0.1	17.103
20286	15.49	2.9	0.1	15.475
20287	15.193	2.8	0.1	20.679
20288	15.292	2.9	0.1	18.932
20289	14.995	2.8	0.1	24.528
20290	15.094	2.9	0.1	22.647
20291	14.797	2.8	0.1	28.684
20292	14.896	2.9	0.1	26.654
20293	14.599	2.8	0.1	33.184
20294	14.698	2.9	0.1	30.987
20295	14.401	2.8	0.1	38.07
20296	14.5	2.9	0.1	35.686
20297	14.203	2.8	0.1	43.387
20298	14.302	2.9	0.1	40.795
20299	14.005	2.8	0.1	49.184
20300	14.104	2.9	0.1	46.361
20301	13.807	2.8	0.1	55.518
20302	13.906	2.9	0.1	52.438
20303	13.609	2.8	0.1	62.448
20304	13.708	2.9	0.1	59.084
20305	13.411	2.8	0.1	70.042
20306	13.51	2.9	0.1	66.364
20307	13.214	2.8	0.1	78.373
20308	13.313	2.9	0.1	74.349
20309	13.016	2.8	0.1	87.52
20310	13.115	2.9	0.1	83.116
20311	12.818	2.8	0.1	97.569
20312	12.917	2.9	0.1	92.749
20313	12.62	2.8	0.1	108.61
20314	12.719	2.9	0.1	103.34
20315	12.422	2.8	0.1	120.74
20316	12.521	2.9	0.1	114.98
20317	12.224	2.8	0.1	134.05
20318	12.323	2.9	0.1	127.77
20319	12.026	2.8	0.1	148.63
20320	12.125	2.9	0.1	141.8
20321	11.828	2.8	0.1	164.57
20322	11.927	2.9	0.1	157.16
20323	11.63	2.8	0.1	181.9
20324	11.729	2.9	0.1	173.93
20325	11.432	2.8	0.1	200.66
20326	11.531	2.9	0.1	192.14
20327	11.234	2.8	0.1	220.79
20328	11.333	2.9	0.1	211.79
20329	11.036	2.8	0.1	242.13
20330	11.135	2.9	0.1	232.78
20331	10.839	2.8	0.1	264.37
20332	10.937	2.9	0.1	254.9
20333	10.641	2.8	0.1	286.97
20334	10.74	2.9	0.1	277.72
20335	10.443	2.8	0.1	308.98
20336	10.542	2.9	0.1	300.55
20337	10.245	2.8	0.1	328.95
20338	10.344	2.9	0.1	322.2
20339	10.047	2.8	0.1	344.55
20340	10.146	2.9	0.1	340.85
20341	9.849	2.8	0.1	352.21
20342	9.9479	2.9	0.1	353.62
20343	9.651	2.8	0.1	346.46
20344	9.75	2.9	0.1	356.09
20345	9.4531	2.8	0.1	319.1
20346	9.5521	2.9	0.1	341.55
20347	9.2552	2.8	0.1	258.31
20348	9.3542	2.9	0.1	300.13
20349	9.0573	2.8	0.1	148.4
20350	9.1563	2.9	0.1	217.94
20351	8.8594	2.8	0.1	0.13127
20352	8.9583	2.9	0.1	77.925
20353	8.6615	2.8	0.1	-0.16118
20354	8.7604	2.9	0.1	-0.7152
20355	8.4635	2.8	0.1	1.0709
20356	8.5625	2.9	0.1	-5.6378e-002
20357	8.3646	2.9	0.1	0.23928
20358	8.2656	2.8	0.1	2.3039
20359	23.703	3.	0.1	-0.20206
20360	23.802	3.1	0.1	-0.14655
20361	23.901	3.	0.1	-0.3025
20362	23.505	3.	0.1	-0.23259
20363	23.604	3.1	0.1	-0.34425
20364	23.307	3.	0.1	-0.12817
20365	23.406	3.1	0.1	-0.13772
20366	23.109	3.	0.1	-0.1067
20367	23.208	3.1	0.1	-0.12453
20368	22.911	3.	0.1	-8.3364e-002
20369	23.01	3.1	0.1	-9.1534e-002
20370	22.714	3.	0.1	-7.0006e-002
20371	22.813	3.1	0.1	-7.6581e-002
20372	22.516	3.	0.1	-5.9636e-002
20373	22.615	3.1	0.1	-6.4217e-002
20374	22.318	3.	0.1	-5.198e-002
20375	22.417	3.1	0.1	-5.5524e-002
20376	22.12	3.	0.1	-4.5958e-002
20377	22.219	3.1	0.1	-4.8723e-002
20378	21.922	3.	0.1	-4.1141e-002
20379	22.021	3.1	0.1	-4.3368e-002
20380	21.724	3.	0.1	-3.7196e-002
20381	21.823	3.1	0.1	-3.9019e-002
20382	21.526	3.	0.1	-3.3915e-002
20383	21.625	3.1	0.1	-3.5432e-002
20384	21.328	3.	0.1	-3.1142e-002
20385	21.427	3.1	0.1	-3.2425e-002
20386	21.13	3.	0.1	-2.8763e-002
20387	21.229	3.1	0.1	-2.9862e-002
20388	20.932	3.	0.1	-2.6702e-002
20389	21.031	3.1	0.1	-2.765e-002
20390	20.734	3.	0.1	-2.4905e-002
20391	20.833	3.1	0.1	-2.5729e-002
20392	20.536	3.	0.1	-2.3324e-002
20393	20.635	3.1	0.1	-2.4049e-002
20394	20.339	3.	0.1	-2.1915e-002
20395	20.438	3.1	0.1	-2.2559e-002
20396	20.141	3.	0.1	-2.0654e-002
20397	20.24	3.1	0.1	-2.1223e-002
20398	19.943	3.	0.1	-1.9528e-002
20399	20.042	3.1	0.1	-2.0034e-002
20400	19.745	3.	0.1	-1.8511e-002
20401	19.844	3.1	0.1	-1.897e-002
20402	19.547	3.	0.1	-1.7582e-002
20403	19.646	3.1	0.1	-1.8e-002
20404	19.349	3.	0.1	-1.6734e-002
20405	19.448	3.1	0.1	-1.7109e-002
20406	19.151	3.	0.1	-1.5968e-002
20407	19.25	3.1	0.1	-1.6305e-002
20408	18.953	3.	0.1	-1.5265e-002
20409	19.052	3.1	0.1	-1.5575e-002
20410	18.755	3.	0.1	-1.4607e-002
20411	18.854	3.1	0.1	-1.4898e-002
20412	18.557	3.	0.1	-1.3999e-002
20413	18.656	3.1	0.1	-1.426e-002
20414	18.359	3.	0.1	-1.3446e-002
20415	18.458	3.1	0.1	-1.3681e-002
20416	18.161	3.	0.1	-1.2932e-002
20417	18.26	3.1	0.1	-1.3152e-002
20418	17.964	3.	0.1	-1.2441e-002
20419	18.063	3.1	0.1	-1.2651e-002
20420	17.766	3.	0.1	-1.1982e-002
20421	17.865	3.1	0.1	-1.217e-002
20422	17.568	3.	0.1	-1.1564e-002
20423	17.667	3.1	0.1	-1.1731e-002
20424	17.37	3.	0.1	-1.1171e-002
20425	17.469	3.1	0.1	-1.1329e-002
20426	17.172	3.	0.1	-1.0787e-002
20427	17.271	3.1	0.1	-1.0938e-002
20428	16.974	3.	0.1	-1.0425e-002
20429	17.073	3.1	0.1	-1.0551e-002
20430	16.776	3.	0.1	-1.0095e-002
20431	16.875	3.1	0.1	-1.0188e-002
20432	16.578	3.	0.1	-9.783e-003
20433	16.677	3.1	0.1	-9.7895e-003
20434	16.38	3.	0.1	2.415
20435	16.479	3.1	0.1	1.1
20436	16.182	3.	0.1	5.0564
20437	16.281	3.1	0.1	3.6686
20438	15.984	3.	0.1	7.8398
20439	16.083	3.1	0.1	6.3677
20440	15.786	3.	0.1	10.788
20441	15.885	3.1	0.1	9.2192
20442	15.589	3.	0.1	13.926
20443	15.688	3.1	0.1	12.246
20444	15.391	3.	0.1	17.279
20445	15.49	3.1	0.1	15.475
20446	15.193	3.	0.1	20.877
20447	15.292	3.1	0.1	18.932
20448	14.995	3.	0.1	24.751
20449	15.094	3.1	0.1	22.647
20450	14.797	3.	0.1	28.936
20451	14.896	3.1	0.1	26.654
20452	14.599	3.	0.1	33.469
20453	14.698	3.1	0.1	30.987
20454	14.401	3.	0.1	38.393
20455	14.5	3.1	0.1	35.686
20456	14.203	3.	0.1	43.752
20457	14.302	3.1	0.1	40.795
20458	14.005	3.	0.1	49.6
20459	14.104	3.1	0.1	46.361
20460	13.807	3.	0.1	55.991
20461	13.906	3.1	0.1	52.438
20462	13.609	3.	0.1	62.988
20463	13.708	3.1	0.1	59.084
20464	13.411	3.	0.1	70.66
20465	13.51	3.1	0.1	66.364
20466	13.214	3.	0.1	79.083
20467	13.313	3.1	0.1	74.349
20468	13.016	3.	0.1	88.337
20469	13.115	3.1	0.1	83.116
20470	12.818	3.	0.1	98.511
20471	12.917	3.1	0.1	92.749
20472	12.62	3.	0.1	109.7
20473	12.719	3.1	0.1	103.34
20474	12.422	3.	0.1	122.
20475	12.521	3.1	0.1	114.98
20476	12.224	3.	0.1	135.51
20477	12.323	3.1	0.1	127.77
20478	12.026	3.	0.1	150.32
20479	12.125	3.1	0.1	141.8
20480	11.828	3.	0.1	166.52
20481	11.927	3.1	0.1	157.16
20482	11.63	3.	0.1	184.16
20483	11.729	3.1	0.1	173.93
20484	11.432	3.	0.1	203.26
20485	11.531	3.1	0.1	192.14
20486	11.234	3.	0.1	223.78
20487	11.333	3.1	0.1	211.79
20488	11.036	3.	0.1	245.54
20489	11.135	3.1	0.1	232.78
20490	10.839	3.	0.1	268.23
20491	10.937	3.1	0.1	254.9
20492	10.641	3.	0.1	291.28
20493	10.74	3.1	0.1	277.72
20494	10.443	3.	0.1	313.71
20495	10.542	3.1	0.1	300.55
20496	10.245	3.	0.1	333.99
20497	10.344	3.1	0.1	322.2
20498	10.047	3.	0.1	349.67
20499	10.146	3.1	0.1	340.85
20500	9.849	3.	0.1	356.99
20501	9.9479	3.1	0.1	353.62
20502	9.651	3.	0.1	350.16
20503	9.75	3.1	0.1	356.09
20504	9.4531	3.	0.1	320.6
20505	9.5521	3.1	0.1	341.55
20506	9.2552	3.	0.1	256.11
20507	9.3542	3.1	0.1	300.13
20508	9.0573	3.	0.1	141.26
20509	9.1563	3.1	0.1	217.94
20510	8.8594	3.	0.1	-0.77449
20511	8.9583	3.1	0.1	77.925
20512	8.6615	3.	0.1	-0.4453
20513	8.7604	3.1	0.1	-0.71521
20514	8.4635	3.	0.1	-0.75272
20515	8.5625	3.1	0.1	-5.6378e-002
20516	8.3646	3.1	0.1	0.23928
20517	8.2656	3.	0.1	-0.33187
20518	23.703	3.2	0.1	-0.2015
20519	23.802	3.3	0.1	-0.14486
20520	23.901	3.2	0.1	-0.30234
20521	23.505	3.2	0.1	-0.23223
20522	23.604	3.3	0.1	-0.34337
20523	23.307	3.2	0.1	-0.12788
20524	23.406	3.3	0.1	-0.1371
20525	23.109	3.2	0.1	-0.10644
20526	23.208	3.3	0.1	-0.12397
20527	22.911	3.2	0.1	-8.3124e-002
20528	23.01	3.3	0.1	-9.103e-002
20529	22.714	3.2	0.1	-6.978e-002
20530	22.813	3.3	0.1	-7.6112e-002
20531	22.516	3.2	0.1	-5.9421e-002
20532	22.615	3.3	0.1	-6.3774e-002
20533	22.318	3.2	0.1	-5.1774e-002
20534	22.417	3.3	0.1	-5.5102e-002
20535	22.12	3.2	0.1	-4.5759e-002
20536	22.219	3.3	0.1	-4.8317e-002
20537	21.922	3.2	0.1	-4.0949e-002
20538	22.021	3.3	0.1	-4.2976e-002
20539	21.724	3.2	0.1	-3.7011e-002
20540	21.823	3.3	0.1	-3.8639e-002
20541	21.526	3.2	0.1	-3.3735e-002
20542	21.625	3.3	0.1	-3.5063e-002
20543	21.328	3.2	0.1	-3.0966e-002
20544	21.427	3.3	0.1	-3.2065e-002
20545	21.13	3.2	0.1	-2.8591e-002
20546	21.229	3.3	0.1	-2.9512e-002
20547	20.932	3.2	0.1	-2.6535e-002
20548	21.031	3.3	0.1	-2.7309e-002
20549	20.734	3.2	0.1	-2.4743e-002
20550	20.833	3.3	0.1	-2.5396e-002
20551	20.536	3.2	0.1	-2.3164e-002
20552	20.635	3.3	0.1	-2.3725e-002
20553	20.339	3.2	0.1	-2.1757e-002
20554	20.438	3.3	0.1	-2.2242e-002
20555	20.141	3.2	0.1	-2.05e-002
20556	20.24	3.3	0.1	-2.0913e-002
20557	19.943	3.2	0.1	-1.9378e-002
20558	20.042	3.3	0.1	-1.9732e-002
20559	19.745	3.2	0.1	-1.8365e-002
20560	19.844	3.3	0.1	-1.8673e-002
20561	19.547	3.2	0.1	-1.7438e-002
20562	19.646	3.3	0.1	-1.771e-002
20563	19.349	3.2	0.1	-1.6594e-002
20564	19.448	3.3	0.1	-1.6824e-002
20565	19.151	3.2	0.1	-1.5829e-002
20566	19.25	3.3	0.1	-1.6024e-002
20567	18.953	3.2	0.1	-1.5127e-002
20568	19.052	3.3	0.1	-1.5298e-002
20569	18.755	3.2	0.1	-1.4472e-002
20570	18.854	3.3	0.1	-1.4623e-002
20571	18.557	3.2	0.1	-1.3864e-002
20572	18.656	3.3	0.1	-1.3988e-002
20573	18.359	3.2	0.1	-1.331e-002
20574	18.458	3.3	0.1	-1.341e-002
20575	18.161	3.2	0.1	-1.2796e-002
20576	18.26	3.3	0.1	-1.2881e-002
20577	17.964	3.2	0.1	-1.2304e-002
20578	18.063	3.3	0.1	-1.2377e-002
20579	17.766	3.2	0.1	-1.1842e-002
20580	17.865	3.3	0.1	-1.1891e-002
20581	17.568	3.2	0.1	-1.1416e-002
20582	17.667	3.3	0.1	-1.1443e-002
20583	17.37	3.2	0.1	-1.1012e-002
20584	17.469	3.3	0.1	-1.1026e-002
20585	17.172	3.2	0.1	-1.0609e-002
20586	17.271	3.3	0.1	-1.0607e-002
20587	16.974	3.2	0.1	-1.0205e-002
20588	17.073	3.3	0.1	-1.0165e-002
20589	16.776	3.2	0.1	-9.747e-003
20590	16.875	3.3	0.1	-9.6721e-003
20591	16.578	3.2	0.1	-5.6947e-003
20592	16.677	3.3	0.1	-8.708e-003
20593	16.38	3.2	0.1	2.3236
20594	16.479	3.3	0.1	0.93206
20595	16.182	3.2	0.1	4.9509
20596	16.281	3.3	0.1	3.4727
20597	15.984	3.2	0.1	7.7191
20598	16.083	3.3	0.1	6.1427
20599	15.786	3.2	0.1	10.651
20600	15.885	3.3	0.1	8.9628
20601	15.589	3.2	0.1	13.77
20602	15.688	3.3	0.1	11.956
20603	15.391	3.2	0.1	17.103
20604	15.49	3.3	0.1	15.146
20605	15.193	3.2	0.1	20.679
20606	15.292	3.3	0.1	18.561
20607	14.995	3.2	0.1	24.528
20608	15.094	3.3	0.1	22.229
20609	14.797	3.2	0.1	28.684
20610	14.896	3.3	0.1	26.182
20611	14.599	3.2	0.1	33.184
20612	14.698	3.3	0.1	30.454
20613	14.401	3.2	0.1	38.07
20614	14.5	3.3	0.1	35.084
20615	14.203	3.2	0.1	43.387
20616	14.302	3.3	0.1	40.113
20617	14.005	3.2	0.1	49.184
20618	14.104	3.3	0.1	45.588
20619	13.807	3.2	0.1	55.518
20620	13.906	3.3	0.1	51.56
20621	13.609	3.2	0.1	62.448
20622	13.708	3.3	0.1	58.083
20623	13.411	3.2	0.1	70.042
20624	13.51	3.3	0.1	65.221
20625	13.214	3.2	0.1	78.373
20626	13.313	3.3	0.1	73.039
20627	13.016	3.2	0.1	87.52
20628	13.115	3.3	0.1	81.612
20629	12.818	3.2	0.1	97.569
20630	12.917	3.3	0.1	91.018
20631	12.62	3.2	0.1	108.61
20632	12.719	3.3	0.1	101.34
20633	12.422	3.2	0.1	120.74
20634	12.521	3.3	0.1	112.67
20635	12.224	3.2	0.1	134.05
20636	12.323	3.3	0.1	125.1
20637	12.026	3.2	0.1	148.63
20638	12.125	3.3	0.1	138.71
20639	11.828	3.2	0.1	164.57
20640	11.927	3.3	0.1	153.58
20641	11.63	3.2	0.1	181.9
20642	11.729	3.3	0.1	169.79
20643	11.432	3.2	0.1	200.66
20644	11.531	3.3	0.1	187.36
20645	11.234	3.2	0.1	220.79
20646	11.333	3.3	0.1	206.29
20647	11.036	3.2	0.1	242.13
20648	11.135	3.3	0.1	226.48
20649	10.839	3.2	0.1	264.37
20650	10.937	3.3	0.1	247.72
20651	10.641	3.2	0.1	286.97
20652	10.74	3.3	0.1	269.63
20653	10.443	3.2	0.1	308.98
20654	10.542	3.3	0.1	291.54
20655	10.245	3.2	0.1	328.95
20656	10.344	3.3	0.1	312.39
20657	10.047	3.2	0.1	344.55
20658	10.146	3.3	0.1	330.48
20659	9.849	3.2	0.1	352.21
20660	9.9479	3.3	0.1	343.2
20661	9.651	3.2	0.1	346.46
20662	9.75	3.3	0.1	346.56
20663	9.4531	3.2	0.1	319.1
20664	9.5521	3.3	0.1	334.5
20665	9.2552	3.2	0.1	258.31
20666	9.3542	3.3	0.1	297.99
20667	9.0573	3.2	0.1	148.4
20668	9.1563	3.3	0.1	224.
20669	8.8594	3.2	0.1	0.13127
20670	8.9583	3.3	0.1	95.048
20671	8.6615	3.2	0.1	-0.16118
20672	8.7604	3.3	0.1	0.33907
20673	8.4635	3.2	0.1	1.0709
20674	8.5625	3.3	0.1	-0.2451
20675	8.3646	3.3	0.1	-1.9556
20676	8.2656	3.2	0.1	2.3039
20677	23.703	3.4	0.1	-0.1998
20678	23.802	3.5	0.1	-0.14142
20679	23.901	3.4	0.1	-0.30182
20680	23.505	3.4	0.1	-0.23112
20681	23.604	3.5	0.1	-0.34156
20682	23.307	3.4	0.1	-0.12699
20683	23.406	3.5	0.1	-0.13581
20684	23.109	3.4	0.1	-0.10564
20685	23.208	3.5	0.1	-0.12283
20686	22.911	3.4	0.1	-8.239e-002
20687	23.01	3.5	0.1	-8.9993e-002
20688	22.714	3.4	0.1	-6.9092e-002
20689	22.813	3.5	0.1	-7.5147e-002
20690	22.516	3.4	0.1	-5.8768e-002
20691	22.615	3.5	0.1	-6.2863e-002
20692	22.318	3.4	0.1	-5.1148e-002
20693	22.417	3.5	0.1	-5.4233e-002
20694	22.12	3.4	0.1	-4.5156e-002
20695	22.219	3.5	0.1	-4.7482e-002
20696	21.922	3.4	0.1	-4.0366e-002
20697	22.021	3.5	0.1	-4.2172e-002
20698	21.724	3.4	0.1	-3.6444e-002
20699	21.823	3.5	0.1	-3.7859e-002
20700	21.526	3.4	0.1	-3.3184e-002
20701	21.625	3.5	0.1	-3.4306e-002
20702	21.328	3.4	0.1	-3.043e-002
20703	21.427	3.5	0.1	-3.1329e-002
20704	21.13	3.4	0.1	-2.807e-002
20705	21.229	3.5	0.1	-2.8797e-002
20706	20.932	3.4	0.1	-2.6026e-002
20707	21.031	3.5	0.1	-2.6612e-002
20708	20.734	3.4	0.1	-2.4247e-002
20709	20.833	3.5	0.1	-2.4717e-002
20710	20.536	3.4	0.1	-2.2681e-002
20711	20.635	3.5	0.1	-2.3063e-002
20712	20.339	3.4	0.1	-2.1285e-002
20713	20.438	3.5	0.1	-2.1596e-002
20714	20.141	3.4	0.1	-2.0039e-002
20715	20.24	3.5	0.1	-2.0283e-002
20716	19.943	3.4	0.1	-1.8927e-002
20717	20.042	3.5	0.1	-1.9116e-002
20718	19.745	3.4	0.1	-1.7923e-002
20719	19.844	3.5	0.1	-1.8071e-002
20720	19.547	3.4	0.1	-1.7005e-002
20721	19.646	3.5	0.1	-1.7119e-002
20722	19.349	3.4	0.1	-1.6168e-002
20723	19.448	3.5	0.1	-1.6245e-002
20724	19.151	3.4	0.1	-1.5409e-002
20725	19.25	3.5	0.1	-1.5454e-002
20726	18.953	3.4	0.1	-1.4713e-002
20727	19.052	3.5	0.1	-1.4737e-002
20728	18.755	3.4	0.1	-1.4061e-002
20729	18.854	3.5	0.1	-1.4069e-002
20730	18.557	3.4	0.1	-1.3457e-002
20731	18.656	3.5	0.1	-1.3439e-002
20732	18.359	3.4	0.1	-1.2905e-002
20733	18.458	3.5	0.1	-1.2864e-002
20734	18.161	3.4	0.1	-1.2388e-002
20735	18.26	3.5	0.1	-1.2335e-002
20736	17.964	3.4	0.1	-1.1891e-002
20737	18.063	3.5	0.1	-1.1829e-002
20738	17.766	3.4	0.1	-1.1418e-002
20739	17.865	3.5	0.1	-1.1334e-002
20740	17.568	3.4	0.1	-1.0977e-002
20741	17.667	3.5	0.1	-1.087e-002
20742	17.37	3.4	0.1	-1.0544e-002
20743	17.469	3.5	0.1	-1.0426e-002
20744	17.172	3.4	0.1	-1.0086e-002
20745	17.271	3.5	0.1	-9.9578e-003
20746	16.974	3.4	0.1	-9.5677e-003
20747	17.073	3.5	0.1	-9.422e-003
20748	16.776	3.4	0.1	-8.7933e-003
20749	16.875	3.5	0.1	-8.7202e-003
20750	16.578	3.4	0.1	-2.7131e-003
20751	16.677	3.5	0.1	-7.0445e-003
20752	16.38	3.4	0.1	2.0504
20753	16.479	3.5	0.1	0.59999
20754	16.182	3.4	0.1	4.6354
20755	16.281	3.5	0.1	3.083
20756	15.984	3.4	0.1	7.3583
20757	16.083	3.5	0.1	5.6954
20758	15.786	3.4	0.1	10.241
20759	15.885	3.5	0.1	8.4532
20760	15.589	3.4	0.1	13.306
20761	15.688	3.5	0.1	11.378
20762	15.391	3.4	0.1	16.579
20763	15.49	3.5	0.1	14.494
20764	15.193	3.4	0.1	20.087
20765	15.292	3.5	0.1	17.825
20766	14.995	3.4	0.1	23.861
20767	15.094	3.5	0.1	21.399
20768	14.797	3.4	0.1	27.931
20769	14.896	3.5	0.1	25.247
20770	14.599	3.4	0.1	32.335
20771	14.698	3.5	0.1	29.4
20772	14.401	3.4	0.1	37.11
20773	14.5	3.5	0.1	33.895
20774	14.203	3.4	0.1	42.299
20775	14.302	3.5	0.1	38.769
20776	14.005	3.4	0.1	47.949
20777	14.104	3.5	0.1	44.065
20778	13.807	3.4	0.1	54.112
20779	13.906	3.5	0.1	49.83
20780	13.609	3.4	0.1	60.844
20781	13.708	3.5	0.1	56.114
20782	13.411	3.4	0.1	68.208
20783	13.51	3.5	0.1	62.973
20784	13.214	3.4	0.1	76.269
20785	13.313	3.5	0.1	70.467
20786	13.016	3.4	0.1	85.102
20787	13.115	3.5	0.1	78.662
20788	12.818	3.4	0.1	94.784
20789	12.917	3.5	0.1	87.626
20790	12.62	3.4	0.1	105.4
20791	12.719	3.5	0.1	97.433
20792	12.422	3.4	0.1	117.02
20793	12.521	3.5	0.1	108.16
20794	12.224	3.4	0.1	129.75
20795	12.323	3.5	0.1	119.88
20796	12.026	3.4	0.1	143.66
20797	12.125	3.5	0.1	132.68
20798	11.828	3.4	0.1	158.81
20799	11.927	3.5	0.1	146.61
20800	11.63	3.4	0.1	175.25
20801	11.729	3.5	0.1	161.73
20802	11.432	3.4	0.1	192.99
20803	11.531	3.5	0.1	178.05
20804	11.234	3.4	0.1	211.97
20805	11.333	3.5	0.1	195.57
20806	11.036	3.4	0.1	232.06
20807	11.135	3.5	0.1	214.19
20808	10.839	3.4	0.1	252.97
20809	10.937	3.5	0.1	233.72
20810	10.641	3.4	0.1	274.19
20811	10.74	3.5	0.1	253.8
20812	10.443	3.4	0.1	294.91
20813	10.542	3.5	0.1	273.87
20814	10.245	3.4	0.1	313.84
20815	10.344	3.5	0.1	292.98
20816	10.047	3.4	0.1	328.97
20817	10.146	3.5	0.1	309.7
20818	9.849	3.4	0.1	337.21
20819	9.9479	3.5	0.1	321.81
20820	9.651	3.4	0.1	333.88
20821	9.75	3.5	0.1	325.96
20822	9.4531	3.4	0.1	311.92
20823	9.5521	3.5	0.1	317.1
20824	9.2552	3.4	0.1	260.78
20825	9.3542	3.5	0.1	287.64
20826	9.0573	3.4	0.1	165.08
20827	9.1563	3.5	0.1	226.29
20828	8.8594	3.4	0.1	10.229
20829	8.9583	3.5	0.1	116.5
20830	8.6615	3.4	0.1	0.33182
20831	8.7604	3.5	0.1	-0.73468
20832	8.4635	3.4	0.1	-2.9979
20833	8.5625	3.5	0.1	6.5392
20834	8.3646	3.5	0.1	4.5656
20835	8.2656	3.4	0.1	-4.7472
20836	23.703	3.6	0.1	-0.19689
20837	23.802	3.7	0.1	-0.13611
20838	23.901	3.6	0.1	-0.30093
20839	23.505	3.6	0.1	-0.2292
20840	23.604	3.7	0.1	-0.33872
20841	23.307	3.6	0.1	-0.12546
20842	23.406	3.7	0.1	-0.13379
20843	23.109	3.6	0.1	-0.10426
20844	23.208	3.7	0.1	-0.12102
20845	22.911	3.6	0.1	-8.1119e-002
20846	23.01	3.7	0.1	-8.8362e-002
20847	22.714	3.6	0.1	-6.7898e-002
20848	22.813	3.7	0.1	-7.3625e-002
20849	22.516	3.6	0.1	-5.7636e-002
20850	22.615	3.7	0.1	-6.1429e-002
20851	22.318	3.6	0.1	-5.0064e-002
20852	22.417	3.7	0.1	-5.2866e-002
20853	22.12	3.6	0.1	-4.4112e-002
20854	22.219	3.7	0.1	-4.617e-002
20855	21.922	3.6	0.1	-3.9358e-002
20856	22.021	3.7	0.1	-4.0907e-002
20857	21.724	3.6	0.1	-3.5467e-002
20858	21.823	3.7	0.1	-3.6637e-002
20859	21.526	3.6	0.1	-3.2236e-002
20860	21.625	3.7	0.1	-3.3121e-002
20861	21.328	3.6	0.1	-2.9509e-002
20862	21.427	3.7	0.1	-3.0181e-002
20863	21.13	3.6	0.1	-2.7173e-002
20864	21.229	3.7	0.1	-2.7681e-002
20865	20.932	3.6	0.1	-2.5153e-002
20866	21.031	3.7	0.1	-2.5526e-002
20867	20.734	3.6	0.1	-2.3397e-002
20868	20.833	3.7	0.1	-2.3663e-002
20869	20.536	3.6	0.1	-2.1853e-002
20870	20.635	3.7	0.1	-2.2037e-002
20871	20.339	3.6	0.1	-2.0478e-002
20872	20.438	3.7	0.1	-2.0596e-002
20873	20.141	3.6	0.1	-1.925e-002
20874	20.24	3.7	0.1	-1.9309e-002
20875	19.943	3.6	0.1	-1.8156e-002
20876	20.042	3.7	0.1	-1.8165e-002
20877	19.745	3.6	0.1	-1.7169e-002
20878	19.844	3.7	0.1	-1.7141e-002
20879	19.547	3.6	0.1	-1.6266e-002
20880	19.646	3.7	0.1	-1.621e-002
20881	19.349	3.6	0.1	-1.5442e-002
20882	19.448	3.7	0.1	-1.5355e-002
20883	19.151	3.6	0.1	-1.4696e-002
20884	19.25	3.7	0.1	-1.458e-002
20885	18.953	3.6	0.1	-1.401e-002
20886	19.052	3.7	0.1	-1.3878e-002
20887	18.755	3.6	0.1	-1.3367e-002
20888	18.854	3.7	0.1	-1.3222e-002
20889	18.557	3.6	0.1	-1.2769e-002
20890	18.656	3.7	0.1	-1.2603e-002
20891	18.359	3.6	0.1	-1.222e-002
20892	18.458	3.7	0.1	-1.2034e-002
20893	18.161	3.6	0.1	-1.1704e-002
20894	18.26	3.7	0.1	-1.151e-002
20895	17.964	3.6	0.1	-1.1202e-002
20896	18.063	3.7	0.1	-1.1002e-002
20897	17.766	3.6	0.1	-1.0717e-002
20898	17.865	3.7	0.1	-1.0499e-002
20899	17.568	3.6	0.1	-1.0252e-002
20900	17.667	3.7	0.1	-1.0017e-002
20901	17.37	3.6	0.1	-9.7773e-003
20902	17.469	3.7	0.1	-9.5405e-003
20903	17.172	3.6	0.1	-9.245e-003
20904	17.271	3.7	0.1	-9.0157e-003
20905	16.974	3.6	0.1	-8.5798e-003
20906	17.073	3.7	0.1	-8.375e-003
20907	16.776	3.6	0.1	-7.4499e-003
20908	16.875	3.7	0.1	-7.4611e-003
20909	16.578	3.6	0.1	-1.465e-003
20910	16.677	3.7	0.1	-5.3031e-003
20911	16.38	3.6	0.1	1.5987
20912	16.479	3.7	0.1	0.14446
20913	16.182	3.6	0.1	4.1135
20914	16.281	3.7	0.1	2.5036
20915	15.984	3.6	0.1	6.762
20916	16.083	3.7	0.1	5.0308
20917	15.786	3.6	0.1	9.5635
20918	15.885	3.7	0.1	7.697
20919	15.589	3.6	0.1	12.54
20920	15.688	3.7	0.1	10.522
20921	15.391	3.6	0.1	15.715
20922	15.49	3.7	0.1	13.527
20923	15.193	3.6	0.1	19.113
20924	15.292	3.7	0.1	16.736
20925	14.995	3.6	0.1	22.764
20926	15.094	3.7	0.1	20.175
20927	14.797	3.6	0.1	26.695
20928	14.896	3.7	0.1	23.869
20929	14.599	3.6	0.1	30.941
20930	14.698	3.7	0.1	27.849
20931	14.401	3.6	0.1	35.535
20932	14.5	3.7	0.1	32.145
20933	14.203	3.6	0.1	40.518
20934	14.302	3.7	0.1	36.794
20935	14.005	3.6	0.1	45.93
20936	14.104	3.7	0.1	41.831
20937	13.807	3.6	0.1	51.817
20938	13.906	3.7	0.1	47.297
20939	13.609	3.6	0.1	58.23
20940	13.708	3.7	0.1	53.236
20941	13.411	3.6	0.1	65.221
20942	13.51	3.7	0.1	59.694
20943	13.214	3.6	0.1	72.85
20944	13.313	3.7	0.1	66.722
20945	13.016	3.6	0.1	81.177
20946	13.115	3.7	0.1	74.374
20947	12.818	3.6	0.1	90.268
20948	12.917	3.7	0.1	82.705
20949	12.62	3.6	0.1	100.19
20950	12.719	3.7	0.1	91.774
20951	12.422	3.6	0.1	111.02
20952	12.521	3.7	0.1	101.64
20953	12.224	3.6	0.1	122.81
20954	12.323	3.7	0.1	112.36
20955	12.026	3.6	0.1	135.63
20956	12.125	3.7	0.1	123.99
20957	11.828	3.6	0.1	149.53
20958	11.927	3.7	0.1	136.57
20959	11.63	3.6	0.1	164.53
20960	11.729	3.7	0.1	150.14
20961	11.432	3.6	0.1	180.64
20962	11.531	3.7	0.1	164.69
20963	11.234	3.6	0.1	197.78
20964	11.333	3.7	0.1	180.19
20965	11.036	3.6	0.1	215.84
20966	11.135	3.7	0.1	196.55
20967	10.839	3.6	0.1	234.55
20968	10.937	3.7	0.1	213.59
20969	10.641	3.6	0.1	253.48
20970	10.74	3.7	0.1	231.
20971	10.443	3.6	0.1	271.93
20972	10.542	3.7	0.1	248.27
20973	10.245	3.6	0.1	288.83
20974	10.344	3.7	0.1	264.6
20975	10.047	3.6	0.1	302.52
20976	10.146	3.7	0.1	278.79
20977	9.849	3.6	0.1	310.48
20978	9.9479	3.7	0.1	288.98
20979	9.651	3.6	0.1	308.96
20980	9.75	3.7	0.1	292.38
20981	9.4531	3.6	0.1	292.23
20982	9.5521	3.7	0.1	284.78
20983	9.2552	3.6	0.1	251.68
20984	9.3542	3.7	0.1	259.78
20985	9.0573	3.6	0.1	174.06
20986	9.1563	3.7	0.1	207.96
20987	8.8594	3.6	0.1	39.107
20988	8.9583	3.7	0.1	113.72
20989	8.6615	3.6	0.1	5.0162
20990	8.7604	3.7	0.1	0.69315
20991	8.4635	3.6	0.1	14.345
20992	8.5625	3.7	0.1	-8.0039
20993	8.3646	3.7	0.1	6.9343
20994	8.2656	3.6	0.1	23.408
20995	23.703	3.8	0.1	-0.19262
20996	23.802	3.9	0.1	-0.12872
20997	23.901	3.8	0.1	-0.29959
20998	23.505	3.8	0.1	-0.22637
20999	23.604	3.9	0.1	-0.33471
21000	23.307	3.8	0.1	-0.12319
21001	23.406	3.9	0.1	-0.1309
21002	23.109	3.8	0.1	-0.1022
21003	23.208	3.9	0.1	-0.11844
21004	22.911	3.8	0.1	-7.9231e-002
21005	23.01	3.9	0.1	-8.6029e-002
21006	22.714	3.8	0.1	-6.6127e-002
21007	22.813	3.9	0.1	-7.145e-002
21008	22.516	3.8	0.1	-5.5955e-002
21009	22.615	3.9	0.1	-5.9379e-002
21010	22.318	3.8	0.1	-4.8457e-002
21011	22.417	3.9	0.1	-5.0914e-002
21012	22.12	3.8	0.1	-4.2568e-002
21013	22.219	3.9	0.1	-4.4302e-002
21014	21.922	3.8	0.1	-3.7867e-002
21015	22.021	3.9	0.1	-3.9109e-002
21016	21.724	3.8	0.1	-3.4026e-002
21017	21.823	3.9	0.1	-3.4903e-002
21018	21.526	3.8	0.1	-3.084e-002
21019	21.625	3.9	0.1	-3.1445e-002
21020	21.328	3.8	0.1	-2.8156e-002
21021	21.427	3.9	0.1	-2.8559e-002
21022	21.13	3.8	0.1	-2.5859e-002
21023	21.229	3.9	0.1	-2.611e-002
21024	20.932	3.8	0.1	-2.3878e-002
21025	21.031	3.9	0.1	-2.4004e-002
21026	20.734	3.8	0.1	-2.2158e-002
21027	20.833	3.9	0.1	-2.2186e-002
21028	20.536	3.8	0.1	-2.0647e-002
21029	20.635	3.9	0.1	-2.0602e-002
21030	20.339	3.8	0.1	-1.9304e-002
21031	20.438	3.9	0.1	-1.9203e-002
21032	20.141	3.8	0.1	-1.8109e-002
21033	20.24	3.9	0.1	-1.7954e-002
21034	19.943	3.8	0.1	-1.7043e-002
21035	20.042	3.9	0.1	-1.6846e-002
21036	19.745	3.8	0.1	-1.6081e-002
21037	19.844	3.9	0.1	-1.5857e-002
21038	19.547	3.8	0.1	-1.5202e-002
21039	19.646	3.9	0.1	-1.4956e-002
21040	19.349	3.8	0.1	-1.44e-002
21041	19.448	3.9	0.1	-1.4129e-002
21042	19.151	3.8	0.1	-1.3674e-002
21043	19.25	3.9	0.1	-1.3381e-002
21044	18.953	3.8	0.1	-1.3006e-002
21045	19.052	3.9	0.1	-1.2702e-002
21046	18.755	3.8	0.1	-1.2378e-002
21047	18.854	3.9	0.1	-1.2068e-002
21048	18.557	3.8	0.1	-1.1791e-002
21049	18.656	3.9	0.1	-1.1465e-002
21050	18.359	3.8	0.1	-1.125e-002
21051	18.458	3.9	0.1	-1.091e-002
21052	18.161	3.8	0.1	-1.0738e-002
21053	18.26	3.9	0.1	-1.0396e-002
21054	17.964	3.8	0.1	-1.0233e-002
21055	18.063	3.9	0.1	-9.892e-003
21056	17.766	3.8	0.1	-9.7375e-003
21057	17.865	3.9	0.1	-9.3873e-003
21058	17.568	3.8	0.1	-9.2506e-003
21059	17.667	3.9	0.1	-8.8929e-003
21060	17.37	3.8	0.1	-8.7349e-003
21061	17.469	3.9	0.1	-8.3893e-003
21062	17.172	3.8	0.1	-8.129e-003
21063	17.271	3.9	0.1	-7.8149e-003
21064	16.974	3.8	0.1	-7.3287e-003
21065	17.073	3.9	0.1	-7.089e-003
21066	16.776	3.8	0.1	-5.9382e-003
21067	16.875	3.9	0.1	-6.0253e-003
21068	16.578	3.8	0.1	-7.7113e-004
21069	16.677	3.9	0.1	-3.7299e-003
21070	16.38	3.8	0.1	0.9755
21071	16.479	3.9	0.1	1.425e-002
21072	16.182	3.8	0.1	3.3909
21073	16.281	3.9	0.1	1.7415
21074	15.984	3.8	0.1	5.9372
21075	16.083	3.9	0.1	4.1564
21076	15.786	3.8	0.1	8.628
21077	15.885	3.9	0.1	6.7034
21078	15.589	3.8	0.1	11.483
21079	15.688	3.9	0.1	9.3987
21080	15.391	3.8	0.1	14.524
21081	15.49	3.9	0.1	12.262
21082	15.193	3.8	0.1	17.774
21083	15.292	3.9	0.1	15.313
21084	14.995	3.8	0.1	21.257
21085	15.094	3.9	0.1	18.576
21086	14.797	3.8	0.1	25.001
21087	14.896	3.9	0.1	22.073
21088	14.599	3.8	0.1	29.033
21089	14.698	3.9	0.1	25.831
21090	14.401	3.8	0.1	33.385
21091	14.5	3.9	0.1	29.875
21092	14.203	3.8	0.1	38.089
21093	14.302	3.9	0.1	34.237
21094	14.005	3.8	0.1	43.182
21095	14.104	3.9	0.1	38.945
21096	13.807	3.8	0.1	48.701
21097	13.906	3.9	0.1	44.033
21098	13.609	3.8	0.1	54.687
21099	13.708	3.9	0.1	49.536
21100	13.411	3.8	0.1	61.184
21101	13.51	3.9	0.1	55.491
21102	13.214	3.8	0.1	68.237
21103	13.313	3.9	0.1	61.934
21104	13.016	3.8	0.1	75.894
21105	13.115	3.9	0.1	68.906
21106	12.818	3.8	0.1	84.204
21107	12.917	3.9	0.1	76.447
21108	12.62	3.8	0.1	93.217
21109	12.719	3.9	0.1	84.595
21110	12.422	3.8	0.1	102.98
21111	12.521	3.9	0.1	93.39
21112	12.224	3.8	0.1	113.54
21113	12.323	3.9	0.1	102.87
21114	12.026	3.8	0.1	124.93
21115	12.125	3.9	0.1	113.05
21116	11.828	3.8	0.1	137.18
21117	11.927	3.9	0.1	123.96
21118	11.63	3.8	0.1	150.29
21119	11.729	3.9	0.1	135.6
21120	11.432	3.8	0.1	164.24
21121	11.531	3.9	0.1	147.95
21122	11.234	3.8	0.1	178.96
21123	11.333	3.9	0.1	160.95
21124	11.036	3.8	0.1	194.3
21125	11.135	3.9	0.1	174.49
21126	10.839	3.8	0.1	210.04
21127	10.937	3.9	0.1	188.4
21128	10.641	3.8	0.1	225.8
21129	10.74	3.9	0.1	202.39
21130	10.443	3.8	0.1	240.97
21131	10.542	3.9	0.1	215.99
21132	10.245	3.8	0.1	254.63
21133	10.344	3.9	0.1	228.5
21134	10.047	3.8	0.1	265.38
21135	10.146	3.9	0.1	238.84
21136	9.849	3.8	0.1	271.1
21137	9.9479	3.9	0.1	245.34
21138	9.651	3.8	0.1	268.54
21139	9.75	3.9	0.1	245.42
21140	9.4531	3.8	0.1	252.77
21141	9.5521	3.9	0.1	235.09
21142	9.2552	3.8	0.1	216.4
21143	9.3542	3.9	0.1	208.01
21144	9.0573	3.8	0.1	147.08
21145	9.1563	3.9	0.1	154.67
21146	8.8594	3.8	0.1	29.505
21147	8.9583	3.9	0.1	58.749
21148	8.6615	3.8	0.1	-11.47
21149	8.7604	3.9	0.1	12.558
21150	8.4635	3.8	0.1	-12.708
21151	8.5625	3.9	0.1	-52.584
21152	8.3646	3.9	0.1	226.02
21153	8.2656	3.8	0.1	-52.587
21154	23.703	4.	0.1	-0.18679
21155	23.802	4.1	0.1	-0.11894
21156	23.901	4.	0.1	-0.2977
21157	23.505	4.	0.1	-0.22244
21158	23.604	4.1	0.1	-0.32927
21159	23.307	4.	0.1	-0.12003
21160	23.406	4.1	0.1	-0.12696
21161	23.109	4.	0.1	-9.9345e-002
21162	23.208	4.1	0.1	-0.11491
21163	22.911	4.	0.1	-7.66e-002
21164	23.01	4.1	0.1	-8.2833e-002
21165	22.714	4.	0.1	-6.3658e-002
21166	22.813	4.1	0.1	-6.8473e-002
21167	22.516	4.	0.1	-5.3616e-002
21168	22.615	4.1	0.1	-5.6575e-002
21169	22.318	4.	0.1	-4.6225e-002
21170	22.417	4.1	0.1	-4.825e-002
21171	22.12	4.	0.1	-4.0427e-002
21172	22.219	4.1	0.1	-4.1755e-002
21173	21.922	4.	0.1	-3.5808e-002
21174	22.021	4.1	0.1	-3.6668e-002
21175	21.724	4.	0.1	-3.204e-002
21176	21.823	4.1	0.1	-3.2555e-002
21177	21.526	4.	0.1	-2.8922e-002
21178	21.625	4.1	0.1	-2.9185e-002
21179	21.328	4.	0.1	-2.6301e-002
21180	21.427	4.1	0.1	-2.638e-002
21181	21.13	4.	0.1	-2.4065e-002
21182	21.229	4.1	0.1	-2.4006e-002
21183	20.932	4.	0.1	-2.2142e-002
21184	21.031	4.1	0.1	-2.1972e-002
21185	20.734	4.	0.1	-2.0475e-002
21186	20.833	4.1	0.1	-2.0221e-002
21187	20.536	4.	0.1	-1.9015e-002
21188	20.635	4.1	0.1	-1.8702e-002
21189	20.339	4.	0.1	-1.772e-002
21190	20.438	4.1	0.1	-1.7362e-002
21191	20.141	4.	0.1	-1.6568e-002
21192	20.24	4.1	0.1	-1.6169e-002
21193	19.943	4.	0.1	-1.5545e-002
21194	20.042	4.1	0.1	-1.5113e-002
21195	19.745	4.	0.1	-1.4623e-002
21196	19.844	4.1	0.1	-1.4174e-002
21197	19.547	4.	0.1	-1.378e-002
21198	19.646	4.1	0.1	-1.3319e-002
21199	19.349	4.	0.1	-1.3013e-002
21200	19.448	4.1	0.1	-1.2534e-002
21201	19.151	4.	0.1	-1.2318e-002
21202	19.25	4.1	0.1	-1.1826e-002
21203	18.953	4.	0.1	-1.1677e-002
21204	19.052	4.1	0.1	-1.1184e-002
21205	18.755	4.	0.1	-1.1073e-002
21206	18.854	4.1	0.1	-1.0582e-002
21207	18.557	4.	0.1	-1.0508e-002
21208	18.656	4.1	0.1	-1.0008e-002
21209	18.359	4.	0.1	-9.9844e-003
21210	18.458	4.1	0.1	-9.4797e-003
21211	18.161	4.	0.1	-9.4835e-003
21212	18.26	4.1	0.1	-8.9857e-003
21213	17.964	4.	0.1	-8.9854e-003
21214	18.063	4.1	0.1	-8.4973e-003
21215	17.766	4.	0.1	-8.4889e-003
21216	17.865	4.1	0.1	-8.0018e-003
21217	17.568	4.	0.1	-7.9885e-003
21218	17.667	4.1	0.1	-7.5087e-003
21219	17.37	4.	0.1	-7.4442e-003
21220	17.469	4.1	0.1	-6.9954e-003
21221	17.172	4.	0.1	-6.7877e-003
21222	17.271	4.1	0.1	-6.3973e-003
21223	16.974	4.	0.1	-5.9033e-003
21224	17.073	4.1	0.1	-5.6302e-003
21225	16.776	4.	0.1	-4.4152e-003
21226	16.875	4.1	0.1	-4.519e-003
21227	16.578	4.	0.1	-2.4964e-004
21228	16.677	4.1	0.1	-2.372e-003
21229	16.38	4.	0.1	0.23045
21230	16.479	4.1	0.1	5.7736e-003
21231	16.182	4.	0.1	2.4758
21232	16.281	4.1	0.1	0.812
21233	15.984	4.	0.1	4.8936
21234	16.083	4.1	0.1	3.082
21235	15.786	4.	0.1	7.4463
21236	15.885	4.1	0.1	5.4843
21237	15.589	4.	0.1	10.151
21238	15.688	4.1	0.1	8.0232
21239	15.391	4.	0.1	13.025
21240	15.49	4.1	0.1	10.715
21241	15.193	4.	0.1	16.091
21242	15.292	4.1	0.1	13.578
21243	14.995	4.	0.1	19.369
21244	15.094	4.1	0.1	16.63
21245	14.797	4.	0.1	22.881
21246	14.896	4.1	0.1	19.893
21247	14.599	4.	0.1	26.652
21248	14.698	4.1	0.1	23.387
21249	14.401	4.	0.1	30.708
21250	14.5	4.1	0.1	27.134
21251	14.203	4.	0.1	35.074
21252	14.302	4.1	0.1	31.157
21253	14.005	4.	0.1	39.78
21254	14.104	4.1	0.1	35.48
21255	13.807	4.	0.1	44.853
21256	13.906	4.1	0.1	40.127
21257	13.609	4.	0.1	50.326
21258	13.708	4.1	0.1	45.123
21259	13.411	4.	0.1	56.228
21260	13.51	4.1	0.1	50.493
21261	13.214	4.	0.1	62.592
21262	13.313	4.1	0.1	56.262
21263	13.016	4.	0.1	69.449
21264	13.115	4.1	0.1	62.452
21265	12.818	4.	0.1	76.829
21266	12.917	4.1	0.1	69.085
21267	12.62	4.	0.1	84.761
21268	12.719	4.1	0.1	76.182
21269	12.422	4.	0.1	93.268
21270	12.521	4.1	0.1	83.755
21271	12.224	4.	0.1	102.37
21272	12.323	4.1	0.1	91.813
21273	12.026	4.	0.1	112.07
21274	12.125	4.1	0.1	100.36
21275	11.828	4.	0.1	122.37
21276	11.927	4.1	0.1	109.37
21277	11.63	4.	0.1	133.25
21278	11.729	4.1	0.1	118.83
21279	11.432	4.	0.1	144.65
21280	11.531	4.1	0.1	128.68
21281	11.234	4.	0.1	156.48
21282	11.333	4.1	0.1	138.84
21283	11.036	4.	0.1	168.59
21284	11.135	4.1	0.1	149.18
21285	10.839	4.	0.1	180.75
21286	10.937	4.1	0.1	159.51
21287	10.641	4.	0.1	192.6
21288	10.74	4.1	0.1	169.54
21289	10.443	4.	0.1	203.59
21290	10.542	4.1	0.1	178.82
21291	10.245	4.	0.1	212.85
21292	10.344	4.1	0.1	186.69
21293	10.047	4.	0.1	219.07
21294	10.146	4.1	0.1	192.07
21295	9.849	4.	0.1	220.16
21296	9.9479	4.1	0.1	193.31
21297	9.651	4.	0.1	212.82
21298	9.75	4.1	0.1	187.67
21299	9.4531	4.	0.1	191.71
21300	9.5521	4.1	0.1	170.75
21301	9.2552	4.	0.1	148.39
21302	9.3542	4.1	0.1	135.2
21303	9.0573	4.	0.1	69.567
21304	9.1563	4.1	0.1	70.473
21305	8.8594	4.	0.1	11.403
21306	8.9583	4.1	0.1	7.9994
21307	8.6615	4.	0.1	-28.393
21308	8.7604	4.1	0.1	11.766
21309	8.4635	4.	0.1	232.43
21310	8.5625	4.1	0.1	-41.227
21311	8.3646	4.1	0.1	340.22
21312	8.2656	4.	0.1	475.83
21313	23.703	4.2	0.1	-0.17906
21314	23.802	4.3	0.1	-0.10627
21315	23.901	4.2	0.1	-0.29511
21316	23.505	4.2	0.1	-0.21716
21317	23.604	4.3	0.1	-0.322
21318	23.307	4.2	0.1	-0.11575
21319	23.406	4.3	0.1	-0.12166
21320	23.109	4.2	0.1	-9.5471e-002
21321	23.208	4.3	0.1	-0.11014
21322	22.911	4.2	0.1	-7.3037e-002
21323	23.01	4.3	0.1	-7.8517e-002
21324	22.714	4.2	0.1	-6.0318e-002
21325	22.813	4.3	0.1	-6.4456e-002
21326	22.516	4.2	0.1	-5.0457e-002
21327	22.615	4.3	0.1	-5.28e-002
21328	22.318	4.2	0.1	-4.3217e-002
21329	22.417	4.3	0.1	-4.4674e-002
21330	22.12	4.2	0.1	-3.7551e-002
21331	22.219	4.3	0.1	-3.8351e-002
21332	21.922	4.2	0.1	-3.3051e-002
21333	22.021	4.3	0.1	-3.3417e-002
21334	21.724	4.2	0.1	-2.9392e-002
21335	21.823	4.3	0.1	-2.9444e-002
21336	21.526	4.2	0.1	-2.6376e-002
21337	21.625	4.3	0.1	-2.6203e-002
21338	21.328	4.2	0.1	-2.3851e-002
21339	21.427	4.3	0.1	-2.3518e-002
21340	21.13	4.2	0.1	-2.1704e-002
21341	21.229	4.3	0.1	-2.1257e-002
21342	20.932	4.2	0.1	-1.9863e-002
21343	21.031	4.3	0.1	-1.9328e-002
21344	20.734	4.2	0.1	-1.8276e-002
21345	20.833	4.3	0.1	-1.7677e-002
21346	20.536	4.2	0.1	-1.6891e-002
21347	20.635	4.3	0.1	-1.6249e-002
21348	20.339	4.2	0.1	-1.5666e-002
21349	20.438	4.3	0.1	-1.4997e-002
21350	20.141	4.2	0.1	-1.458e-002
21351	20.24	4.3	0.1	-1.3886e-002
21352	19.943	4.2	0.1	-1.3617e-002
21353	20.042	4.3	0.1	-1.2907e-002
21354	19.745	4.2	0.1	-1.2753e-002
21355	19.844	4.3	0.1	-1.2038e-002
21356	19.547	4.2	0.1	-1.1964e-002
21357	19.646	4.3	0.1	-1.1251e-002
21358	19.349	4.2	0.1	-1.1245e-002
21359	19.448	4.3	0.1	-1.0528e-002
21360	19.151	4.2	0.1	-1.0597e-002
21361	19.25	4.3	0.1	-9.879e-003
21362	18.953	4.2	0.1	-9.9995e-003
21363	19.052	4.3	0.1	-9.2903e-003
21364	18.755	4.2	0.1	-9.4346e-003
21365	18.854	4.3	0.1	-8.7392e-003
21366	18.557	4.2	0.1	-8.9041e-003
21367	18.656	4.3	0.1	-8.2121e-003
21368	18.359	4.2	0.1	-8.4112e-003
21369	18.458	4.3	0.1	-7.7263e-003
21370	18.161	4.2	0.1	-7.9367e-003
21371	18.26	4.3	0.1	-7.2702e-003
21372	17.964	4.2	0.1	-7.4589e-003
21373	18.063	4.3	0.1	-6.8157e-003
21374	17.766	4.2	0.1	-6.9772e-003
21375	17.865	4.3	0.1	-6.3489e-003
21376	17.568	4.2	0.1	-6.4855e-003
21377	17.667	4.3	0.1	-5.8809e-003
21378	17.37	4.2	0.1	-5.9411e-003
21379	17.469	4.3	0.1	-5.3877e-003
21380	17.172	4.2	0.1	-5.275e-003
21381	17.271	4.3	0.1	-4.806e-003
21382	16.974	4.2	0.1	-4.3819e-003
21383	17.073	4.3	0.1	-4.0597e-003
21384	16.776	4.2	0.1	-2.9607e-003
21385	16.875	4.3	0.1	-3.0127e-003
21386	16.578	4.2	0.1	2.2894e-004
21387	16.677	4.3	0.1	-1.1948e-003
21388	16.38	4.2	0.1	1.8942e-002
21389	16.479	4.3	0.1	3.499e-003
21390	16.182	4.2	0.1	1.3808
21391	16.281	4.3	0.1	5.6198e-002
21392	15.984	4.2	0.1	3.6431
21393	16.083	4.3	0.1	1.8209
21394	15.786	4.2	0.1	6.0329
21395	15.885	4.3	0.1	4.0537
21396	15.589	4.2	0.1	8.5604
21397	15.688	4.3	0.1	6.4124
21398	15.391	4.2	0.1	11.241
21399	15.49	4.3	0.1	8.908
21400	15.193	4.2	0.1	14.092
21401	15.292	4.3	0.1	11.555
21402	14.995	4.2	0.1	17.131
21403	15.094	4.3	0.1	14.369
21404	14.797	4.2	0.1	20.376
21405	14.896	4.3	0.1	17.367
21406	14.599	4.2	0.1	23.847
21407	14.698	4.3	0.1	20.564
21408	14.401	4.2	0.1	27.563
21409	14.5	4.3	0.1	23.978
21410	14.203	4.2	0.1	31.544
21411	14.302	4.3	0.1	27.624
21412	14.005	4.2	0.1	35.81
21413	14.104	4.3	0.1	31.52
21414	13.807	4.2	0.1	40.381
21415	13.906	4.3	0.1	35.68
21416	13.609	4.2	0.1	45.276
21417	13.708	4.3	0.1	40.12
21418	13.411	4.2	0.1	50.513
21419	13.51	4.3	0.1	44.851
21420	13.214	4.2	0.1	56.108
21421	13.313	4.3	0.1	49.886
21422	13.016	4.2	0.1	62.076
21423	13.115	4.3	0.1	55.231
21424	12.818	4.2	0.1	68.427
21425	12.917	4.3	0.1	60.888
21426	12.62	4.2	0.1	75.166
21427	12.719	4.3	0.1	66.856
21428	12.422	4.2	0.1	82.29
21429	12.521	4.3	0.1	73.125
21430	12.224	4.2	0.1	89.792
21431	12.323	4.3	0.1	79.676
21432	12.026	4.2	0.1	97.647
21433	12.125	4.3	0.1	86.479
21434	11.828	4.2	0.1	105.82
21435	11.927	4.3	0.1	93.491
21436	11.63	4.2	0.1	114.26
21437	11.729	4.3	0.1	100.65
21438	11.432	4.2	0.1	122.87
21439	11.531	4.3	0.1	107.87
21440	11.234	4.2	0.1	131.54
21441	11.333	4.3	0.1	115.04
21442	11.036	4.2	0.1	140.11
21443	11.135	4.3	0.1	122.
21444	10.839	4.2	0.1	148.32
21445	10.937	4.3	0.1	128.54
21446	10.641	4.2	0.1	155.8
21447	10.74	4.3	0.1	134.37
21448	10.443	4.2	0.1	162.02
21449	10.542	4.3	0.1	139.03
21450	10.245	4.2	0.1	166.11
21451	10.344	4.3	0.1	141.86
21452	10.047	4.2	0.1	166.71
21453	10.146	4.3	0.1	141.78
21454	9.849	4.2	0.1	161.55
21455	9.9479	4.3	0.1	137.06
21456	9.651	4.2	0.1	146.89
21457	9.75	4.3	0.1	124.78
21458	9.4531	4.2	0.1	116.46
21459	9.5521	4.3	0.1	100.13
21460	9.2552	4.2	0.1	61.227
21461	9.3542	4.3	0.1	56.14
21462	9.0573	4.2	0.1	10.423
21463	9.1563	4.3	0.1	11.64
21464	8.8594	4.2	0.1	6.1687
21465	8.9583	4.3	0.1	4.0788
21466	8.6615	4.2	0.1	-0.86258
21467	8.7604	4.3	0.1	8.9411
21468	8.4635	4.2	0.1	65.256
21469	8.5625	4.3	0.1	-7.7323
21470	8.3646	4.3	0.1	64.234
21471	8.2656	4.2	0.1	288.03
21472	23.703	4.4	0.1	-0.16889
21473	23.802	4.5	0.1	-9.0008e-002
21474	23.901	4.4	0.1	-0.29151
21475	23.505	4.4	0.1	-0.21008
21476	23.604	4.5	0.1	-0.31234
21477	23.307	4.4	0.1	-0.10998
21478	23.406	4.5	0.1	-0.11454
21479	23.109	4.4	0.1	-9.0239e-002
21480	23.208	4.5	0.1	-0.10373
21481	22.911	4.4	0.1	-6.8227e-002
21482	23.01	4.5	0.1	-7.2713e-002
21483	22.714	4.4	0.1	-5.5819e-002
21484	22.813	4.5	0.1	-5.9068e-002
21485	22.516	4.4	0.1	-4.6217e-002
21486	22.615	4.5	0.1	-4.7755e-002
21487	22.318	4.4	0.1	-3.9198e-002
21488	22.417	4.5	0.1	-3.9916e-002
21489	22.12	4.4	0.1	-3.3728e-002
21490	22.219	4.5	0.1	-3.3848e-002
21491	21.922	4.4	0.1	-2.9405e-002
21492	22.021	4.5	0.1	-2.9139e-002
21493	21.724	4.4	0.1	-2.5909e-002
21494	21.823	4.5	0.1	-2.5375e-002
21495	21.526	4.4	0.1	-2.3045e-002
21496	21.625	4.5	0.1	-2.2327e-002
21497	21.328	4.4	0.1	-2.066e-002
21498	21.427	4.5	0.1	-1.982e-002
21499	21.13	4.4	0.1	-1.8646e-002
21500	21.229	4.5	0.1	-1.7725e-002
21501	20.932	4.4	0.1	-1.6929e-002
21502	21.031	4.5	0.1	-1.595e-002
21503	20.734	4.4	0.1	-1.5456e-002
21504	20.833	4.5	0.1	-1.4441e-002
21505	20.536	4.4	0.1	-1.4179e-002
21506	20.635	4.5	0.1	-1.3148e-002
21507	20.339	4.4	0.1	-1.3056e-002
21508	20.438	4.5	0.1	-1.2023e-002
21509	20.141	4.4	0.1	-1.2065e-002
21510	20.24	4.5	0.1	-1.1027e-002
21511	19.943	4.4	0.1	-1.1191e-002
21512	20.042	4.5	0.1	-1.0157e-002
21513	19.745	4.4	0.1	-1.0409e-002
21514	19.844	4.5	0.1	-9.3915e-003
21515	19.547	4.4	0.1	-9.6986e-003
21516	19.646	4.5	0.1	-8.6991e-003
21517	19.349	4.4	0.1	-9.0538e-003
21518	19.448	4.5	0.1	-8.0678e-003
21519	19.151	4.4	0.1	-8.4725e-003
21520	19.25	4.5	0.1	-7.5022e-003
21521	18.953	4.4	0.1	-7.9386e-003
21522	19.052	4.5	0.1	-6.9933e-003
21523	18.755	4.4	0.1	-7.4333e-003
21524	18.854	4.5	0.1	-6.5172e-003
21525	18.557	4.4	0.1	-6.959e-003
21526	18.656	4.5	0.1	-6.0601e-003
21527	18.359	4.4	0.1	-6.5185e-003
21528	18.458	4.5	0.1	-5.6414e-003
21529	18.161	4.4	0.1	-6.0915e-003
21530	18.26	4.5	0.1	-5.2485e-003
21531	17.964	4.4	0.1	-5.6585e-003
21532	18.063	4.5	0.1	-4.8543e-003
21533	17.766	4.4	0.1	-5.2181e-003
21534	17.865	4.5	0.1	-4.4461e-003
21535	17.568	4.4	0.1	-4.7655e-003
21536	17.667	4.5	0.1	-4.0351e-003
21537	17.37	4.4	0.1	-4.2598e-003
21538	17.469	4.5	0.1	-3.6008e-003
21539	17.172	4.4	0.1	-3.6395e-003
21540	17.271	4.5	0.1	-3.0863e-003
21541	16.974	4.4	0.1	-2.8229e-003
21542	17.073	4.5	0.1	-2.4306e-003
21543	16.776	4.4	0.1	-1.6012e-003
21544	16.875	4.5	0.1	-1.5462e-003
21545	16.578	4.4	0.1	7.1252e-004
21546	16.677	4.5	0.1	-1.4909e-004
21547	16.38	4.4	0.1	7.5821e-003
21548	16.479	4.5	0.1	2.6857e-003
21549	16.182	4.4	0.1	0.20832
21550	16.281	4.5	0.1	1.2161e-002
21551	15.984	4.4	0.1	2.2005
21552	16.083	4.5	0.1	0.42598
21553	15.786	4.4	0.1	4.4043
21554	15.885	4.5	0.1	2.4284
21555	15.589	4.4	0.1	6.7323
21556	15.688	4.5	0.1	4.5852
21557	15.391	4.4	0.1	9.1955
21558	15.49	4.5	0.1	6.8637
21559	15.193	4.4	0.1	11.807
21560	15.292	4.5	0.1	9.2738
21561	14.995	4.4	0.1	14.581
21562	15.094	4.5	0.1	11.827
21563	14.797	4.4	0.1	17.531
21564	14.896	4.5	0.1	14.536
21565	14.599	4.4	0.1	20.672
21566	14.698	4.5	0.1	17.412
21567	14.401	4.4	0.1	24.017
21568	14.5	4.5	0.1	20.467
21569	14.203	4.4	0.1	27.58
21570	14.302	4.5	0.1	23.71
21571	14.005	4.4	0.1	31.371
21572	14.104	4.5	0.1	27.152
21573	13.807	4.4	0.1	35.401
21574	13.906	4.5	0.1	30.799
21575	13.609	4.4	0.1	39.679
21576	13.708	4.5	0.1	34.655
21577	13.411	4.4	0.1	44.209
21578	13.51	4.5	0.1	38.723
21579	13.214	4.4	0.1	48.994
21580	13.313	4.5	0.1	42.999
21581	13.016	4.4	0.1	54.029
21582	13.115	4.5	0.1	47.475
21583	12.818	4.4	0.1	59.305
21584	12.917	4.5	0.1	52.137
21585	12.62	4.4	0.1	64.804
21586	12.719	4.5	0.1	56.961
21587	12.422	4.4	0.1	70.499
21588	12.521	4.5	0.1	61.914
21589	12.224	4.4	0.1	76.352
21590	12.323	4.5	0.1	66.953
21591	12.026	4.4	0.1	82.311
21592	12.125	4.5	0.1	72.02
21593	11.828	4.4	0.1	88.306
21594	11.927	4.5	0.1	77.039
21595	11.63	4.4	0.1	94.249
21596	11.729	4.5	0.1	81.918
21597	11.432	4.4	0.1	100.03
21598	11.531	4.5	0.1	86.542
21599	11.234	4.4	0.1	105.49
21600	11.333	4.5	0.1	90.765
21601	11.036	4.4	0.1	110.44
21602	11.135	4.5	0.1	94.41
21603	10.839	4.4	0.1	114.61
21604	10.937	4.5	0.1	97.245
21605	10.641	4.4	0.1	117.65
21606	10.74	4.5	0.1	98.962
21607	10.443	4.4	0.1	118.99
21608	10.542	4.5	0.1	99.13
21609	10.245	4.4	0.1	117.79
21610	10.344	4.5	0.1	97.103
21611	10.047	4.4	0.1	112.64
21612	10.146	4.5	0.1	91.867
21613	9.849	4.4	0.1	101.24
21614	9.9479	4.5	0.1	81.773
21615	9.651	4.4	0.1	79.765
21616	9.75	4.5	0.1	64.171
21617	9.4531	4.4	0.1	43.244
21618	9.5521	4.5	0.1	35.954
21619	9.2552	4.4	0.1	10.141
21620	9.3542	4.5	0.1	9.78
21621	9.0573	4.4	0.1	4.2159
21622	9.1563	4.5	0.1	4.7262
21623	8.8594	4.4	0.1	6.6694
21624	8.9583	4.5	0.1	2.859
21625	8.6615	4.4	0.1	2.7593
21626	8.7604	4.5	0.1	6.923
21627	8.4635	4.4	0.1	-8.4119
21628	8.5625	4.5	0.1	-2.3781
21629	8.3646	4.5	0.1	6.1977
21630	8.2656	4.4	0.1	-56.992
21631	23.703	4.6	0.1	-0.15556
21632	23.802	4.7	0.1	-6.8722e-002
21633	23.901	4.6	0.1	-0.28663
21634	23.505	4.6	0.1	-0.20062
21635	23.604	4.7	0.1	-0.29915
21636	23.307	4.6	0.1	-0.10223
21637	23.406	4.7	0.1	-0.10469
21638	23.109	4.6	0.1	-8.32e-002
21639	23.208	4.7	0.1	-9.4868e-002
21640	22.911	4.6	0.1	-6.1769e-002
21641	23.01	4.7	0.1	-6.4712e-002
21642	22.714	4.6	0.1	-4.9805e-002
21643	22.813	4.7	0.1	-5.168e-002
21644	22.516	4.6	0.1	-4.0576e-002
21645	22.615	4.7	0.1	-4.0884e-002
21646	22.318	4.6	0.1	-3.3882e-002
21647	22.417	4.7	0.1	-3.3484e-002
21648	22.12	4.6	0.1	-2.8703e-002
21649	22.219	4.7	0.1	-2.7806e-002
21650	21.922	4.6	0.1	-2.4644e-002
21651	22.021	4.7	0.1	-2.345e-002
21652	21.724	4.6	0.1	-2.1393e-002
21653	21.823	4.7	0.1	-2.0006e-002
21654	21.526	4.6	0.1	-1.8753e-002
21655	21.625	4.7	0.1	-1.725e-002
21656	21.328	4.6	0.1	-1.6577e-002
21657	21.427	4.7	0.1	-1.5012e-002
21658	21.13	4.6	0.1	-1.4755e-002
21659	21.229	4.7	0.1	-1.3165e-002
21660	20.932	4.6	0.1	-1.3216e-002
21661	21.031	4.7	0.1	-1.162e-002
21662	20.734	4.6	0.1	-1.191e-002
21663	20.833	4.7	0.1	-1.0324e-002
21664	20.536	4.6	0.1	-1.0789e-002
21665	20.635	4.7	0.1	-9.2271e-003
21666	20.339	4.6	0.1	-9.8095e-003
21667	20.438	4.7	0.1	-8.2835e-003
21668	20.141	4.6	0.1	-8.9515e-003
21669	20.24	4.7	0.1	-7.4581e-003
21670	19.943	4.6	0.1	-8.2049e-003
21671	20.042	4.7	0.1	-6.7466e-003
21672	19.745	4.6	0.1	-7.542e-003
21673	19.844	4.7	0.1	-6.1293e-003
21674	19.547	4.6	0.1	-6.9414e-003
21675	19.646	4.7	0.1	-5.5756e-003
21676	19.349	4.6	0.1	-6.4008e-003
21677	19.448	4.7	0.1	-5.0747e-003
21678	19.151	4.6	0.1	-5.9184e-003
21679	19.25	4.7	0.1	-4.6317e-003
21680	18.953	4.6	0.1	-5.4779e-003
21681	19.052	4.7	0.1	-4.2396e-003
21682	18.755	4.6	0.1	-5.0604e-003
21683	18.854	4.7	0.1	-3.8735e-003
21684	18.557	4.6	0.1	-4.6692e-003
21685	18.656	4.7	0.1	-3.5221e-003
21686	18.359	4.6	0.1	-4.3087e-003
21687	18.458	4.7	0.1	-3.2043e-003
21688	18.161	4.6	0.1	-3.9599e-003
21689	18.26	4.7	0.1	-2.9099e-003
21690	17.964	4.6	0.1	-3.6032e-003
21691	18.063	4.7	0.1	-2.6129e-003
21692	17.766	4.6	0.1	-3.2389e-003
21693	17.865	4.7	0.1	-2.3015e-003
21694	17.568	4.6	0.1	-2.8645e-003
21695	17.667	4.7	0.1	-1.9909e-003
21696	17.37	4.6	0.1	-2.4458e-003
21697	17.469	4.7	0.1	-1.6635e-003
21698	17.172	4.6	0.1	-1.9321e-003
21699	17.271	4.7	0.1	-1.2737e-003
21700	16.974	4.6	0.1	-1.2699e-003
21701	17.073	4.7	0.1	-7.7726e-004
21702	16.776	4.6	0.1	-3.3624e-004
21703	16.875	4.7	0.1	-1.3212e-004
21704	16.578	4.6	0.1	1.2221e-003
21705	16.677	4.7	0.1	8.1272e-004
21706	16.38	4.6	0.1	4.5443e-003
21707	16.479	4.7	0.1	2.458e-003
21708	16.182	4.6	0.1	1.6872e-002
21709	16.281	4.7	0.1	6.0628e-003
21710	15.984	4.6	0.1	0.60679
21711	16.083	4.7	0.1	1.9991e-002
21712	15.786	4.6	0.1	2.5797
21713	15.885	4.7	0.1	0.64997
21714	15.589	4.6	0.1	4.6883
21715	15.688	4.7	0.1	2.5632
21716	15.391	4.6	0.1	6.9148
21717	15.49	4.7	0.1	4.6064
21718	15.193	4.6	0.1	9.2678
21719	15.292	4.7	0.1	6.7625
21720	14.995	4.6	0.1	11.757
21721	15.094	4.7	0.1	9.0386
21722	14.797	4.6	0.1	14.393
21723	14.896	4.7	0.1	11.443
21724	14.599	4.6	0.1	17.184
21725	14.698	4.7	0.1	13.982
21726	14.401	4.6	0.1	20.138
21727	14.5	4.7	0.1	16.663
21728	14.203	4.6	0.1	23.262
21729	14.302	4.7	0.1	19.491
21730	14.005	4.6	0.1	26.56
21731	14.104	4.7	0.1	22.467
21732	13.807	4.6	0.1	30.034
21733	13.906	4.7	0.1	25.592
21734	13.609	4.6	0.1	33.682
21735	13.708	4.7	0.1	28.862
21736	13.411	4.6	0.1	37.496
21737	13.51	4.7	0.1	32.267
21738	13.214	4.6	0.1	41.464
21739	13.313	4.7	0.1	35.793
21740	13.016	4.6	0.1	45.568
21741	13.115	4.7	0.1	39.418
21742	12.818	4.6	0.1	49.778
21743	12.917	4.7	0.1	43.113
21744	12.62	4.6	0.1	54.057
21745	12.719	4.7	0.1	46.835
21746	12.422	4.6	0.1	58.354
21747	12.521	4.7	0.1	50.534
21748	12.224	4.6	0.1	62.606
21749	12.323	4.7	0.1	54.141
21750	12.026	4.6	0.1	66.733
21751	12.125	4.7	0.1	57.575
21752	11.828	4.6	0.1	70.635
21753	11.927	4.7	0.1	60.736
21754	11.63	4.6	0.1	74.194
21755	11.729	4.7	0.1	63.503
21756	11.432	4.6	0.1	77.266
21757	11.531	4.7	0.1	65.734
21758	11.234	4.6	0.1	79.678
21759	11.333	4.7	0.1	67.26
21760	11.036	4.6	0.1	81.216
21761	11.135	4.7	0.1	67.885
21762	10.839	4.6	0.1	81.611
21763	10.937	4.7	0.1	67.371
21764	10.641	4.6	0.1	80.506
21765	10.74	4.7	0.1	65.422
21766	10.443	4.6	0.1	77.391
21767	10.542	4.7	0.1	61.655
21768	10.245	4.6	0.1	71.501
21769	10.344	4.7	0.1	55.535
21770	10.047	4.6	0.1	61.639
21771	10.146	4.7	0.1	46.295
21772	9.849	4.6	0.1	46.014
21773	9.9479	4.7	0.1	32.973
21774	9.651	4.6	0.1	23.593
21775	9.75	4.7	0.1	16.198
21776	9.4531	4.6	0.1	7.4682
21777	9.5521	4.7	0.1	6.1349
21778	9.2552	4.6	0.1	4.0261
21779	9.3542	4.7	0.1	3.6306
21780	9.0573	4.6	0.1	3.2112
21781	9.1563	4.7	0.1	2.919
21782	8.8594	4.6	0.1	2.9951
21783	8.9583	4.7	0.1	2.6895
21784	8.6615	4.6	0.1	1.7704
21785	8.7604	4.7	0.1	2.8742
21786	8.4635	4.6	0.1	12.519
21787	8.5625	4.7	0.1	0.26422
21788	8.3646	4.7	0.1	16.19
21789	8.2656	4.6	0.1	17.53
21790	23.703	4.8	0.1	-0.13724
21791	23.802	4.9	0.1	-4.1102e-002
21792	23.901	4.8	0.1	-0.27911
21793	23.505	4.8	0.1	-0.18726
21794	23.604	4.9	0.1	-0.2813
21795	23.307	4.8	0.1	-9.1215e-002
21796	23.406	4.9	0.1	-9.1238e-002
21797	23.109	4.8	0.1	-7.3252e-002
21798	23.208	4.9	0.1	-8.2775e-002
21799	22.911	4.8	0.1	-5.2696e-002
21800	23.01	4.9	0.1	-5.3883e-002
21801	22.714	4.8	0.1	-4.142e-002
21802	22.813	4.9	0.1	-4.1759e-002
21803	22.516	4.8	0.1	-3.2785e-002
21804	22.615	4.9	0.1	-3.1742e-002
21805	22.318	4.8	0.1	-2.6608e-002
21806	22.417	4.9	0.1	-2.5013e-002
21807	22.12	4.8	0.1	-2.1894e-002
21808	22.219	4.9	0.1	-1.9928e-002
21809	21.922	4.8	0.1	-1.8255e-002
21810	22.021	4.9	0.1	-1.6102e-002
21811	21.724	4.8	0.1	-1.5384e-002
21812	21.823	4.9	0.1	-1.3136e-002
21813	21.526	4.8	0.1	-1.3091e-002
21814	21.625	4.9	0.1	-1.0813e-002
21815	21.328	4.8	0.1	-1.1233e-002
21816	21.427	4.9	0.1	-8.9692e-003
21817	21.13	4.8	0.1	-9.7046e-003
21818	21.229	4.9	0.1	-7.482e-003
21819	20.932	4.8	0.1	-8.4372e-003
21820	21.031	4.9	0.1	-6.2643e-003
21821	20.734	4.8	0.1	-7.3802e-003
21822	20.833	4.9	0.1	-5.2704e-003
21823	20.536	4.8	0.1	-6.4873e-003
21824	20.635	4.9	0.1	-4.4493e-003
21825	20.339	4.8	0.1	-5.7217e-003
21826	20.438	4.9	0.1	-3.7606e-003
21827	20.141	4.8	0.1	-5.0637e-003
21828	20.24	4.9	0.1	-3.1722e-003
21829	19.943	4.8	0.1	-4.5004e-003
21830	20.042	4.9	0.1	-2.6794e-003
21831	19.745	4.8	0.1	-4.0096e-003
21832	19.844	4.9	0.1	-2.2651e-003
21833	19.547	4.8	0.1	-3.5715e-003
21834	19.646	4.9	0.1	-1.9026e-003
21835	19.349	4.8	0.1	-3.1831e-003
21836	19.448	4.9	0.1	-1.5797e-003
21837	19.151	4.8	0.1	-2.8442e-003
21838	19.25	4.9	0.1	-1.3054e-003
21839	18.953	4.8	0.1	-2.5398e-003
21840	19.052	4.9	0.1	-1.0714e-003
21841	18.755	4.8	0.1	-2.2528e-003
21842	18.854	4.9	0.1	-8.5694e-004
21843	18.557	4.8	0.1	-1.9876e-003
21844	18.656	4.9	0.1	-6.5187e-004
21845	18.359	4.8	0.1	-1.7487e-003
21846	18.458	4.9	0.1	-4.7458e-004
21847	18.161	4.8	0.1	-1.5195e-003
21848	18.26	4.9	0.1	-3.1825e-004
21849	17.964	4.8	0.1	-1.2819e-003
21850	18.063	4.9	0.1	-1.5861e-004
21851	17.766	4.8	0.1	-1.0399e-003
21852	17.865	4.9	0.1	1.4134e-005
21853	17.568	4.8	0.1	-7.9451e-004
21854	17.667	4.9	0.1	1.8052e-004
21855	17.37	4.8	0.1	-5.1808e-004
21856	17.469	4.9	0.1	3.5243e-004
21857	17.172	4.8	0.1	-1.7414e-004
21858	17.271	4.9	0.1	5.6632e-004
21859	16.974	4.8	0.1	2.6498e-004
21860	17.073	4.9	0.1	8.4917e-004
21861	16.776	4.8	0.1	8.5768e-004
21862	16.875	4.9	0.1	1.2083e-003
21863	16.578	4.8	0.1	1.7702e-003
21864	16.677	4.9	0.1	1.7121e-003
21865	16.38	4.8	0.1	3.3968e-003
21866	16.479	4.9	0.1	2.5289e-003
21867	16.182	4.8	0.1	6.988e-003
21868	16.281	4.9	0.1	4.0025e-003
21869	15.984	4.8	0.1	2.0826e-002
21870	16.083	4.9	0.1	7.1951e-003
21871	15.786	4.8	0.1	0.60643
21872	15.885	4.9	0.1	1.8493e-002
21873	15.589	4.8	0.1	2.4525
21874	15.688	4.9	0.1	0.41532
21875	15.391	4.8	0.1	4.4262
21876	15.49	4.9	0.1	2.1628
21877	15.193	4.8	0.1	6.5065
21878	15.292	4.9	0.1	4.0506
21879	14.995	4.8	0.1	8.6981
21880	15.094	4.9	0.1	6.0382
21881	14.797	4.8	0.1	11.007
21882	14.896	4.9	0.1	8.1279
21883	14.599	4.8	0.1	13.437
21884	14.698	4.9	0.1	10.323
21885	14.401	4.8	0.1	15.993
21886	14.5	4.9	0.1	12.626
21887	14.203	4.8	0.1	18.674
21888	14.302	4.9	0.1	15.036
21889	14.005	4.8	0.1	21.478
21890	14.104	4.9	0.1	17.55
21891	13.807	4.8	0.1	24.399
21892	13.906	4.9	0.1	20.163
21893	13.609	4.8	0.1	27.427
21894	13.708	4.9	0.1	22.862
21895	13.411	4.8	0.1	30.545
21896	13.51	4.9	0.1	25.632
21897	13.214	4.8	0.1	33.729
21898	13.313	4.9	0.1	28.447
21899	13.016	4.8	0.1	36.945
21900	13.115	4.9	0.1	31.277
21901	12.818	4.8	0.1	40.152
21902	12.917	4.9	0.1	34.078
21903	12.62	4.8	0.1	43.295
21904	12.719	4.9	0.1	36.797
21905	12.422	4.8	0.1	46.303
21906	12.521	4.9	0.1	39.367
21907	12.224	4.8	0.1	49.092
21908	12.323	4.9	0.1	41.703
21909	12.026	4.8	0.1	51.56
21910	12.125	4.9	0.1	43.705
21911	11.828	4.8	0.1	53.584
21912	11.927	4.9	0.1	45.255
21913	11.63	4.8	0.1	55.022
21914	11.729	4.9	0.1	46.211
21915	11.432	4.8	0.1	55.709
21916	11.531	4.9	0.1	46.414
21917	11.234	4.8	0.1	55.454
21918	11.333	4.9	0.1	45.682
21919	11.036	4.8	0.1	54.038
21920	11.135	4.9	0.1	43.81
21921	10.839	4.8	0.1	51.207
21922	10.937	4.9	0.1	40.573
21923	10.641	4.8	0.1	46.656
21924	10.74	4.9	0.1	35.726
21925	10.443	4.8	0.1	40.009
21926	10.542	4.9	0.1	29.02
21927	10.245	4.8	0.1	30.836
21928	10.344	4.9	0.1	20.325
21929	10.047	4.8	0.1	19.063
21930	10.146	4.9	0.1	10.586
21931	9.849	4.8	0.1	8.206
21932	9.9479	4.9	0.1	4.6148
21933	9.651	4.8	0.1	4.1144
21934	9.75	4.9	0.1	2.8989
21935	9.4531	4.8	0.1	2.9344
21936	9.5521	4.9	0.1	2.3525
21937	9.2552	4.8	0.1	2.4981
21938	9.3542	4.9	0.1	2.147
21939	9.0573	4.8	0.1	2.3301
21940	9.1563	4.9	0.1	2.1197
21941	8.8594	4.8	0.1	2.5159
21942	8.9583	4.9	0.1	2.059
21943	8.6615	4.8	0.1	1.3663
21944	8.7604	4.9	0.1	2.6668
21945	8.4635	4.8	0.1	4.3281
21946	8.5625	4.9	0.1	5.8095e-002
21947	8.3646	4.9	0.1	9.0729
21948	8.2656	4.8	0.1	-3.207
21949	23.703	5.	0.1	-0.11332
21950	23.802	5.1	0.1	3.8158e-004
21951	23.901	5.	0.1	-0.26996
21952	23.505	5.	0.1	-0.16946
21953	23.604	5.1	0.1	-0.25282
21954	23.307	5.	0.1	-7.649e-002
21955	23.406	5.1	0.1	-6.9739e-002
21956	23.109	5.	0.1	-6.0011e-002
21957	23.208	5.1	0.1	-6.3679e-002
21958	22.911	5.	0.1	-4.0752e-002
21959	23.01	5.1	0.1	-3.6983e-002
21960	22.714	5.	0.1	-3.0498e-002
21961	22.813	5.1	0.1	-2.6526e-002
21962	22.516	5.	0.1	-2.2748e-002
21963	22.615	5.1	0.1	-1.7911e-002
21964	22.318	5.	0.1	-1.7346e-002
21965	22.417	5.1	0.1	-1.2382e-002
21966	22.12	5.	0.1	-1.3316e-002
21967	22.219	5.1	0.1	-8.3443e-003
21968	21.922	5.	0.1	-1.029e-002
21969	22.021	5.1	0.1	-5.4428e-003
21970	21.724	5.	0.1	-7.9708e-003
21971	21.823	5.1	0.1	-3.2972e-003
21972	21.526	5.	0.1	-6.175e-003
21973	21.625	5.1	0.1	-1.7049e-003
21974	21.328	5.	0.1	-4.7671e-003
21975	21.427	5.1	0.1	-5.1697e-004
21976	21.13	5.	0.1	-3.6458e-003
21977	21.229	5.1	0.1	3.8027e-004
21978	20.932	5.	0.1	-2.7483e-003
21979	21.031	5.1	0.1	1.066e-003
21980	20.734	5.	0.1	-2.0307e-003
21981	20.833	5.1	0.1	1.5761e-003
21982	20.536	5.	0.1	-1.4489e-003
21983	20.635	5.1	0.1	1.9564e-003
21984	20.339	5.	0.1	-9.6852e-004
21985	20.438	5.1	0.1	2.2423e-003
21986	20.141	5.	0.1	-5.7285e-004
21987	20.24	5.1	0.1	2.4619e-003
21988	19.943	5.	0.1	-2.5374e-004
21989	20.042	5.1	0.1	2.6139e-003
21990	19.745	5.	0.1	9.7081e-006
21991	19.844	5.1	0.1	2.713e-003
21992	19.547	5.	0.1	2.3645e-004
21993	19.646	5.1	0.1	2.7823e-003
21994	19.349	5.	0.1	4.2636e-004
21995	19.448	5.1	0.1	2.8316e-003
21996	19.151	5.	0.1	5.783e-004
21997	19.25	5.1	0.1	2.8499e-003
21998	18.953	5.	0.1	7.0582e-004
21999	19.052	5.1	0.1	2.8407e-003
22000	18.755	5.	0.1	8.2255e-004
22001	18.854	5.1	0.1	2.8254e-003
22002	18.557	5.	0.1	9.2443e-004
22003	18.656	5.1	0.1	2.8094e-003
22004	18.359	5.	0.1	1.0043e-003
22005	18.458	5.1	0.1	2.7729e-003
22006	18.161	5.	0.1	1.076e-003
22007	18.26	5.1	0.1	2.7212e-003
22008	17.964	5.	0.1	1.1557e-003
22009	18.063	5.1	0.1	2.6744e-003
22010	17.766	5.	0.1	1.237e-003
22011	17.865	5.1	0.1	2.6385e-003
22012	17.568	5.	0.1	1.3131e-003
22013	17.667	5.1	0.1	2.5929e-003
22014	17.37	5.	0.1	1.4041e-003
22015	17.469	5.1	0.1	2.5412e-003
22016	17.172	5.	0.1	1.5363e-003
22017	17.271	5.1	0.1	2.5117e-003
22018	16.974	5.	0.1	1.7157e-003
22019	17.073	5.1	0.1	2.5195e-003
22020	16.776	5.	0.1	1.9589e-003
22021	16.875	5.1	0.1	2.5468e-003
22022	16.578	5.	0.1	2.3378e-003
22023	16.677	5.1	0.1	2.6189e-003
22024	16.38	5.	0.1	2.9833e-003
22025	16.479	5.1	0.1	2.806e-003
22026	16.182	5.	0.1	4.1542e-003
22027	16.281	5.1	0.1	3.1924e-003
22028	15.984	5.	0.1	6.6557e-003
22029	16.083	5.1	0.1	3.9349e-003
22030	15.786	5.	0.1	1.4601e-002
22031	15.885	5.1	0.1	5.5447e-003
22032	15.589	5.	0.1	0.17682
22033	15.688	5.1	0.1	1.0148e-002
22034	15.391	5.	0.1	1.76
22035	15.49	5.1	0.1	4.4591e-002
22036	15.193	5.	0.1	3.5549
22037	15.292	5.1	0.1	1.1738
22038	14.995	5.	0.1	5.4413
22039	15.094	5.1	0.1	2.8595
22040	14.797	5.	0.1	7.4183
22041	14.896	5.1	0.1	4.6306
22042	14.599	5.	0.1	9.4864
22043	14.698	5.1	0.1	6.4812
22044	14.401	5.	0.1	11.645
22045	14.5	5.1	0.1	8.409
22046	14.203	5.	0.1	13.889
22047	14.302	5.1	0.1	10.411
22048	14.005	5.	0.1	16.213
22049	14.104	5.1	0.1	12.479
22050	13.807	5.	0.1	18.604
22051	13.906	5.1	0.1	14.603
22052	13.609	5.	0.1	21.046
22053	13.708	5.1	0.1	16.767
22054	13.411	5.	0.1	23.514
22055	13.51	5.1	0.1	18.95
22056	13.214	5.	0.1	25.976
22057	13.313	5.1	0.1	21.121
22058	13.016	5.	0.1	28.39
22059	13.115	5.1	0.1	23.242
22060	12.818	5.	0.1	30.704
22061	12.917	5.1	0.1	25.263
22062	12.62	5.	0.1	32.85
22063	12.719	5.1	0.1	27.124
22064	12.422	5.	0.1	34.746
22065	12.521	5.1	0.1	28.747
22066	12.224	5.	0.1	36.295
22067	12.323	5.1	0.1	30.041
22068	12.026	5.	0.1	37.378
22069	12.125	5.1	0.1	30.896
22070	11.828	5.	0.1	37.859
22071	11.927	5.1	0.1	31.181
22072	11.63	5.	0.1	37.581
22073	11.729	5.1	0.1	30.75
22074	11.432	5.	0.1	36.367
22075	11.531	5.1	0.1	29.433
22076	11.234	5.	0.1	34.025
22077	11.333	5.1	0.1	27.048
22078	11.036	5.	0.1	30.35
22079	11.135	5.1	0.1	23.406
22080	10.839	5.	0.1	25.145
22081	10.937	5.1	0.1	18.337
22082	10.641	5.	0.1	18.291
22083	10.74	5.1	0.1	11.825
22084	10.443	5.	0.1	10.2
22085	10.542	5.1	0.1	5.0189
22086	10.245	5.	0.1	4.1291
22087	10.344	5.1	0.1	2.0175
22088	10.047	5.	0.1	2.3224
22089	10.146	5.1	0.1	1.3761
22090	9.849	5.	0.1	1.8394
22091	9.9479	5.1	0.1	1.2161
22092	9.651	5.	0.1	1.7016
22093	9.75	5.1	0.1	1.2134
22094	9.4531	5.	0.1	1.6972
22095	9.5521	5.1	0.1	1.2962
22096	9.2552	5.	0.1	1.7815
22097	9.3542	5.1	0.1	1.4299
22098	9.0573	5.	0.1	1.8327
22099	9.1563	5.1	0.1	1.648
22100	8.8594	5.	0.1	2.2098
22101	8.9583	5.1	0.1	1.74
22102	8.6615	5.	0.1	1.4113
22103	8.7604	5.1	0.1	2.4895
22104	8.4635	5.	0.1	5.2426
22105	8.5625	5.1	0.1	0.51483
22106	8.3646	5.1	0.1	9.0123
22107	8.2656	5.	0.1	1.2433
22108	23.703	5.2	0.1	-7.0787e-002
22109	23.802	5.3	0.1	4.9802e-002
22110	23.901	5.2	0.1	-0.24619
22111	23.505	5.2	0.1	-0.13711
22112	23.604	5.3	0.1	-0.21778
22113	23.307	5.2	0.1	-5.0075e-002
22114	23.406	5.3	0.1	-4.2223e-002
22115	23.109	5.2	0.1	-3.6685e-002
22116	23.208	5.3	0.1	-4.0676e-002
22117	22.911	5.2	0.1	-2.0052e-002
22118	23.01	5.3	0.1	-1.7155e-002
22119	22.714	5.2	0.1	-1.1921e-002
22120	22.813	5.3	0.1	-9.0664e-003
22121	22.516	5.2	0.1	-5.9613e-003
22122	22.615	5.3	0.1	-2.449e-003
22123	22.318	5.2	0.1	-2.0959e-003
22124	22.417	5.3	0.1	1.4206e-003
22125	22.12	5.2	0.1	5.9371e-004
22126	22.219	5.3	0.1	4.0432e-003
22127	21.922	5.2	0.1	2.4448e-003
22128	22.021	5.3	0.1	5.7304e-003
22129	21.724	5.2	0.1	3.7292e-003
22130	21.823	5.3	0.1	6.8284e-003
22131	21.526	5.2	0.1	4.6046e-003
22132	21.625	5.3	0.1	7.5083e-003
22133	21.328	5.2	0.1	5.1917e-003
22134	21.427	5.3	0.1	7.8993e-003
22135	21.13	5.2	0.1	5.5778e-003
22136	21.229	5.3	0.1	8.0966e-003
22137	20.932	5.2	0.1	5.8121e-003
22138	21.031	5.3	0.1	8.1604e-003
22139	20.734	5.2	0.1	5.9298e-003
22140	20.833	5.3	0.1	8.1206e-003
22141	20.536	5.2	0.1	5.9666e-003
22142	20.635	5.3	0.1	8.0073e-003
22143	20.339	5.2	0.1	5.9502e-003
22144	20.438	5.3	0.1	7.8513e-003
22145	20.141	5.2	0.1	5.8895e-003
22146	20.24	5.3	0.1	7.6717e-003
22147	19.943	5.2	0.1	5.7891e-003
22148	20.042	5.3	0.1	7.4613e-003
22149	19.745	5.2	0.1	5.6651e-003
22150	19.844	5.3	0.1	7.2303e-003
22151	19.547	5.2	0.1	5.531e-003
22152	19.646	5.3	0.1	6.9973e-003
22153	19.349	5.2	0.1	5.385e-003
22154	19.448	5.3	0.1	6.7678e-003
22155	19.151	5.2	0.1	5.2206e-003
22156	19.25	5.3	0.1	6.5279e-003
22157	18.953	5.2	0.1	5.0487e-003
22158	19.052	5.3	0.1	6.2766e-003
22159	18.755	5.2	0.1	4.8821e-003
22160	18.854	5.3	0.1	6.0352e-003
22161	18.557	5.2	0.1	4.7103e-003
22162	18.656	5.3	0.1	5.8044e-003
22163	18.359	5.2	0.1	4.5257e-003
22164	18.458	5.3	0.1	5.5616e-003
22165	18.161	5.2	0.1	4.3397e-003
22166	18.26	5.3	0.1	5.3101e-003
22167	17.964	5.2	0.1	4.1621e-003
22168	18.063	5.3	0.1	5.0691e-003
22169	17.766	5.2	0.1	3.9844e-003
22170	17.865	5.3	0.1	4.8378e-003
22171	17.568	5.2	0.1	3.7965e-003
22172	17.667	5.3	0.1	4.5949e-003
22173	17.37	5.2	0.1	3.6103e-003
22174	17.469	5.3	0.1	4.3384e-003
22175	17.172	5.2	0.1	3.4431e-003
22176	17.271	5.3	0.1	4.0921e-003
22177	16.974	5.2	0.1	3.2874e-003
22178	17.073	5.3	0.1	3.8606e-003
22179	16.776	5.2	0.1	3.1362e-003
22180	16.875	5.3	0.1	3.6157e-003
22181	16.578	5.2	0.1	3.019e-003
22182	16.677	5.3	0.1	3.3607e-003
22183	16.38	5.2	0.1	2.9757e-003
22184	16.479	5.3	0.1	3.1305e-003
22185	16.182	5.2	0.1	3.0411e-003
22186	16.281	5.3	0.1	2.9374e-003
22187	15.984	5.2	0.1	3.305e-003
22188	16.083	5.3	0.1	2.7719e-003
22189	15.786	5.2	0.1	4.0467e-003
22190	15.885	5.3	0.1	2.6784e-003
22191	15.589	5.2	0.1	6.1676e-003
22192	15.688	5.3	0.1	2.7887e-003
22193	15.391	5.2	0.1	1.5313e-002
22194	15.49	5.3	0.1	3.3892e-003
22195	15.193	5.2	0.1	0.46899
22196	15.292	5.3	0.1	5.5778e-003
22197	14.995	5.2	0.1	2.0222
22198	15.094	5.3	0.1	2.308e-002
22199	14.797	5.2	0.1	3.6669
22200	14.896	5.3	0.1	0.9881
22201	14.599	5.2	0.1	5.3778
22202	14.698	5.3	0.1	2.4946
22203	14.401	5.2	0.1	7.1497
22204	14.5	5.3	0.1	4.0579
22205	14.203	5.2	0.1	8.9755
22206	14.302	5.3	0.1	5.668
22207	14.005	5.2	0.1	10.845
22208	14.104	5.3	0.1	7.3154
22209	13.807	5.2	0.1	12.743
22210	13.906	5.3	0.1	8.9872
22211	13.609	5.2	0.1	14.649
22212	13.708	5.3	0.1	10.666
22213	13.411	5.2	0.1	16.535
22214	13.51	5.3	0.1	12.327
22215	13.214	5.2	0.1	18.365
22216	13.313	5.3	0.1	13.939
22217	13.016	5.2	0.1	20.093
22218	13.115	5.3	0.1	15.463
22219	12.818	5.2	0.1	21.662
22220	12.917	5.3	0.1	16.848
22221	12.62	5.2	0.1	23.
22222	12.719	5.3	0.1	18.032
22223	12.422	5.2	0.1	24.02
22224	12.521	5.3	0.1	18.938
22225	12.224	5.2	0.1	24.619
22226	12.323	5.3	0.1	19.473
22227	12.026	5.2	0.1	24.675
22228	12.125	5.3	0.1	19.53
22229	11.828	5.2	0.1	24.048
22230	11.927	5.3	0.1	18.98
22231	11.63	5.2	0.1	22.579
22232	11.729	5.3	0.1	17.679
22233	11.432	5.2	0.1	20.095
22234	11.531	5.3	0.1	15.468
22235	11.234	5.2	0.1	16.425
22236	11.333	5.3	0.1	12.188
22237	11.036	5.2	0.1	11.448
22238	11.135	5.3	0.1	7.7417
22239	10.839	5.2	0.1	5.475
22240	10.937	5.3	0.1	2.7599
22241	10.641	5.2	0.1	1.6838
22242	10.74	5.3	0.1	0.83145
22243	10.443	5.2	0.1	0.94418
22244	10.542	5.3	0.1	0.53363
22245	10.245	5.2	0.1	0.7793
22246	10.344	5.3	0.1	0.46518
22247	10.047	5.2	0.1	0.75988
22248	10.146	5.3	0.1	0.46877
22249	9.849	5.2	0.1	0.81158
22250	9.9479	5.3	0.1	0.51595
22251	9.651	5.2	0.1	0.91874
22252	9.75	5.3	0.1	0.60332
22253	9.4531	5.2	0.1	1.0774
22254	9.5521	5.3	0.1	0.74157
22255	9.2552	5.2	0.1	1.3102
22256	9.3542	5.3	0.1	0.93952
22257	9.0573	5.2	0.1	1.5661
22258	9.1563	5.3	0.1	1.2636
22259	8.8594	5.2	0.1	2.0696
22260	8.9583	5.3	0.1	1.6061
22261	8.6615	5.2	0.1	1.7349
22262	8.7604	5.3	0.1	2.553
22263	8.4635	5.2	0.1	4.9101
22264	8.5625	5.3	0.1	1.4073
22265	8.3646	5.3	0.1	8.5864
22266	8.2656	5.2	0.1	-0.51973
22267	23.703	5.4	0.1	-3.1869e-002
22268	23.802	5.5	0.1	0.20742
22269	23.901	5.4	0.1	-0.23897
22270	23.505	5.4	0.1	-0.10572
22271	23.604	5.5	0.1	-0.10367
22272	23.307	5.4	0.1	-2.4543e-002
22273	23.406	5.5	0.1	3.9933e-002
22274	23.109	5.4	0.1	-1.5953e-002
22275	23.208	5.5	0.1	3.0063e-002
22276	22.911	5.4	0.1	-2.4894e-003
22277	23.01	5.5	0.1	4.2997e-002
22278	22.714	5.4	0.1	3.182e-003
22279	22.813	5.5	0.1	4.3429e-002
22280	22.516	5.4	0.1	7.1045e-003
22281	22.615	5.5	0.1	4.3746e-002
22282	22.318	5.4	0.1	9.2993e-003
22283	22.417	5.5	0.1	4.2451e-002
22284	22.12	5.4	0.1	1.0597e-002
22285	22.219	5.5	0.1	4.0736e-002
22286	21.922	5.4	0.1	1.1282e-002
22287	22.021	5.5	0.1	3.874e-002
22288	21.724	5.4	0.1	1.1579e-002
22289	21.823	5.5	0.1	3.6671e-002
22290	21.526	5.4	0.1	1.1617e-002
22291	21.625	5.5	0.1	3.46e-002
22292	21.328	5.4	0.1	1.1489e-002
22293	21.427	5.5	0.1	3.2585e-002
22294	21.13	5.4	0.1	1.1258e-002
22295	21.229	5.5	0.1	3.0658e-002
22296	20.932	5.4	0.1	1.0958e-002
22297	21.031	5.5	0.1	2.8833e-002
22298	20.734	5.4	0.1	1.0612e-002
22299	20.833	5.5	0.1	2.7108e-002
22300	20.536	5.4	0.1	1.0242e-002
22301	20.635	5.5	0.1	2.5479e-002
22302	20.339	5.4	0.1	9.8684e-003
22303	20.438	5.5	0.1	2.3953e-002
22304	20.141	5.4	0.1	9.4918e-003
22305	20.24	5.5	0.1	2.2528e-002
22306	19.943	5.4	0.1	9.1098e-003
22307	20.042	5.5	0.1	2.1183e-002
22308	19.745	5.4	0.1	8.7338e-003
22309	19.844	5.5	0.1	1.9911e-002
22310	19.547	5.4	0.1	8.3739e-003
22311	19.646	5.5	0.1	1.8718e-002
22312	19.349	5.4	0.1	8.0226e-003
22313	19.448	5.5	0.1	1.7599e-002
22314	19.151	5.4	0.1	7.6709e-003
22315	19.25	5.5	0.1	1.653e-002
22316	18.953	5.4	0.1	7.3277e-003
22317	19.052	5.5	0.1	1.5505e-002
22318	18.755	5.4	0.1	7.0021e-003
22319	18.854	5.5	0.1	1.4531e-002
22320	18.557	5.4	0.1	6.6821e-003
22321	18.656	5.5	0.1	1.3605e-002
22322	18.359	5.4	0.1	6.3559e-003
22323	18.458	5.5	0.1	1.27e-002
22324	18.161	5.4	0.1	6.0344e-003
22325	18.26	5.5	0.1	1.1809e-002
22326	17.964	5.4	0.1	5.726e-003
22327	18.063	5.5	0.1	1.0948e-002
22328	17.766	5.4	0.1	5.4172e-003
22329	17.865	5.5	0.1	1.011e-002
22330	17.568	5.4	0.1	5.0949e-003
22331	17.667	5.5	0.1	9.2662e-003
22332	17.37	5.4	0.1	4.7695e-003
22333	17.469	5.5	0.1	8.4095e-003
22334	17.172	5.4	0.1	4.4525e-003
22335	17.271	5.5	0.1	7.5601e-003
22336	16.974	5.4	0.1	4.1292e-003
22337	17.073	5.5	0.1	6.7124e-003
22338	16.776	5.4	0.1	3.7837e-003
22339	16.875	5.5	0.1	5.8336e-003
22340	16.578	5.4	0.1	3.4287e-003
22341	16.677	5.5	0.1	4.916e-003
22342	16.38	5.4	0.1	3.0798e-003
22343	16.479	5.5	0.1	3.982e-003
22344	16.182	5.4	0.1	2.7223e-003
22345	16.281	5.5	0.1	3.0279e-003
22346	15.984	5.4	0.1	2.3442e-003
22347	16.083	5.5	0.1	2.0159e-003
22348	15.786	5.4	0.1	1.97e-003
22349	15.885	5.5	0.1	9.3958e-004
22350	15.589	5.4	0.1	1.6369e-003
22351	15.688	5.5	0.1	-1.7778e-004
22352	15.391	5.4	0.1	1.3824e-003
22353	15.49	5.5	0.1	-1.3375e-003
22354	15.193	5.4	0.1	1.3497e-003
22355	15.292	5.5	0.1	-2.5811e-003
22356	14.995	5.4	0.1	2.2901e-003
22357	15.094	5.5	0.1	-3.9134e-003
22358	14.797	5.4	0.1	2.0805e-002
22359	14.896	5.5	0.1	-5.3e-003
22360	14.599	5.4	0.1	1.1482
22361	14.698	5.5	0.1	-6.7184e-003
22362	14.401	5.4	0.1	2.5497
22363	14.5	5.5	0.1	-7.8759e-003
22364	14.203	5.4	0.1	3.9821
22365	14.302	5.5	0.1	0.8124
22366	14.005	5.4	0.1	5.4326
22367	14.104	5.5	0.1	2.0723
22368	13.807	5.4	0.1	6.8854
22369	13.906	5.5	0.1	3.3365
22370	13.609	5.4	0.1	8.3195
22371	13.708	5.5	0.1	4.5881
22372	13.411	5.4	0.1	9.7075
22373	13.51	5.5	0.1	5.8051
22374	13.214	5.4	0.1	11.014
22375	13.313	5.5	0.1	6.9594
22376	13.016	5.4	0.1	12.195
22377	13.115	5.5	0.1	8.0151
22378	12.818	5.4	0.1	13.195
22379	12.917	5.5	0.1	8.927
22380	12.62	5.4	0.1	13.947
22381	12.719	5.5	0.1	9.6398
22382	12.422	5.4	0.1	14.368
22383	12.521	5.5	0.1	10.086
22384	12.224	5.4	0.1	14.36
22385	12.323	5.5	0.1	10.184
22386	12.026	5.4	0.1	13.81
22387	12.125	5.5	0.1	9.8393
22388	11.828	5.4	0.1	12.587
22389	11.927	5.5	0.1	8.9405
22390	11.63	5.4	0.1	10.549
22391	11.729	5.5	0.1	7.3652
22392	11.432	5.4	0.1	7.5586
22393	11.531	5.5	0.1	4.9976
22394	11.234	5.4	0.1	3.6356
22395	11.333	5.5	0.1	1.9306
22396	11.036	5.4	0.1	0.78584
22397	11.135	5.5	0.1	0.38513
22398	10.839	5.4	0.1	0.35862
22399	10.937	5.5	0.1	0.21116
22400	10.641	5.4	0.1	0.27223
22401	10.74	5.5	0.1	0.17606
22402	10.443	5.4	0.1	0.25334
22403	10.542	5.5	0.1	0.17531
22404	10.245	5.4	0.1	0.26494
22405	10.344	5.5	0.1	0.19201
22406	10.047	5.4	0.1	0.30046
22407	10.146	5.5	0.1	0.22275
22408	9.849	5.4	0.1	0.36273
22409	9.9479	5.5	0.1	0.26906
22410	9.651	5.4	0.1	0.46321
22411	9.75	5.5	0.1	0.3362
22412	9.4531	5.4	0.1	0.62091
22413	9.5521	5.5	0.1	0.44008
22414	9.2552	5.4	0.1	0.89084
22415	9.3542	5.5	0.1	0.6049
22416	9.0573	5.4	0.1	1.3029
22417	9.1563	5.5	0.1	0.93392
22418	8.8594	5.4	0.1	2.1701
22419	8.9583	5.5	0.1	1.4498
22420	8.6615	5.4	0.1	2.5442
22421	8.7604	5.5	0.1	2.9092
22422	8.4635	5.4	0.1	6.1031
22423	8.5625	5.5	0.1	2.7991
22424	8.3646	5.5	0.1	9.7206
22425	8.2656	5.4	0.1	-0.30933
22426	23.703	5.6	0.1	0.20072
22427	23.802	5.7	0.1	0.40675
22428	23.901	5.6	0.1	-2.7691e-002
22429	23.505	5.6	0.1	6.2847e-002
22430	23.604	5.7	0.1	2.8771e-002
22431	23.307	5.6	0.1	0.1056
22432	23.406	5.7	0.1	0.10548
22433	23.109	5.6	0.1	9.5967e-002
22434	23.208	5.7	0.1	7.7984e-002
22435	22.911	5.6	0.1	9.3637e-002
22436	23.01	5.7	0.1	7.4292e-002
22437	22.714	5.6	0.1	8.733e-002
22438	22.813	5.7	0.1	6.4512e-002
22439	22.516	5.6	0.1	8.1509e-002
22440	22.615	5.7	0.1	5.7367e-002
22441	22.318	5.6	0.1	7.5665e-002
22442	22.417	5.7	0.1	5.0778e-002
22443	22.12	5.6	0.1	7.0196e-002
22444	22.219	5.7	0.1	4.5193e-002
22445	21.922	5.6	0.1	6.5107e-002
22446	22.021	5.7	0.1	4.0362e-002
22447	21.724	5.6	0.1	6.0415e-002
22448	21.823	5.7	0.1	3.6206e-002
22449	21.526	5.6	0.1	5.6096e-002
22450	21.625	5.7	0.1	3.2603e-002
22451	21.328	5.6	0.1	5.213e-002
22452	21.427	5.7	0.1	2.9469e-002
22453	21.13	5.6	0.1	4.8491e-002
22454	21.229	5.7	0.1	2.6739e-002
22455	20.932	5.6	0.1	4.5147e-002
22456	21.031	5.7	0.1	2.4354e-002
22457	20.734	5.6	0.1	4.2064e-002
22458	20.833	5.7	0.1	2.2253e-002
22459	20.536	5.6	0.1	3.922e-002
22460	20.635	5.7	0.1	2.0393e-002
22461	20.339	5.6	0.1	3.6597e-002
22462	20.438	5.7	0.1	1.8749e-002
22463	20.141	5.6	0.1	3.4166e-002
22464	20.24	5.7	0.1	1.7294e-002
22465	19.943	5.6	0.1	3.1901e-002
22466	20.042	5.7	0.1	1.5988e-002
22467	19.745	5.6	0.1	2.9788e-002
22468	19.844	5.7	0.1	1.481e-002
22469	19.547	5.6	0.1	2.7818e-002
22470	19.646	5.7	0.1	1.3754e-002
22471	19.349	5.6	0.1	2.5967e-002
22472	19.448	5.7	0.1	1.2806e-002
22473	19.151	5.6	0.1	2.4212e-002
22474	19.25	5.7	0.1	1.1935e-002
22475	18.953	5.6	0.1	2.2547e-002
22476	19.052	5.7	0.1	1.1131e-002
22477	18.755	5.6	0.1	2.0968e-002
22478	18.854	5.7	0.1	1.0396e-002
22479	18.557	5.6	0.1	1.9454e-002
22480	18.656	5.7	0.1	9.7258e-003
22481	18.359	5.6	0.1	1.7982e-002
22482	18.458	5.7	0.1	9.092e-003
22483	18.161	5.6	0.1	1.6551e-002
22484	18.26	5.7	0.1	8.4843e-003
22485	17.964	5.6	0.1	1.5162e-002
22486	18.063	5.7	0.1	7.9198e-003
22487	17.766	5.6	0.1	1.3794e-002
22488	17.865	5.7	0.1	7.3924e-003
22489	17.568	5.6	0.1	1.2423e-002
22490	17.667	5.7	0.1	6.8744e-003
22491	17.37	5.6	0.1	1.1051e-002
22492	17.469	5.7	0.1	6.3599e-003
22493	17.172	5.6	0.1	9.6842e-003
22494	17.271	5.7	0.1	5.8695e-003
22495	16.974	5.6	0.1	8.2984e-003
22496	17.073	5.7	0.1	5.4032e-003
22497	16.776	5.6	0.1	6.8707e-003
22498	16.875	5.7	0.1	4.9294e-003
22499	16.578	5.6	0.1	5.4055e-003
22500	16.677	5.7	0.1	4.4473e-003
22501	16.38	5.6	0.1	3.9091e-003
22502	16.479	5.7	0.1	3.9822e-003
22503	16.182	5.6	0.1	2.3595e-003
22504	16.281	5.7	0.1	3.539e-003
22505	15.984	5.6	0.1	7.3332e-004
22506	16.083	5.7	0.1	3.0894e-003
22507	15.786	5.6	0.1	-9.6281e-004
22508	15.885	5.7	0.1	2.6381e-003
22509	15.589	5.6	0.1	-2.7161e-003
22510	15.688	5.7	0.1	2.2246e-003
22511	15.391	5.6	0.1	-4.5448e-003
22512	15.49	5.7	0.1	1.8695e-003
22513	15.193	5.6	0.1	-6.4659e-003
22514	15.292	5.7	0.1	1.5608e-003
22515	14.995	5.6	0.1	-8.4538e-003
22516	15.094	5.7	0.1	1.3386e-003
22517	14.797	5.6	0.1	-1.0464e-002
22518	14.896	5.7	0.1	1.2982e-003
22519	14.599	5.6	0.1	-1.2447e-002
22520	14.698	5.7	0.1	1.5474e-003
22521	14.401	5.6	0.1	-1.4212e-002
22522	14.5	5.7	0.1	2.2219e-003
22523	14.203	5.6	0.1	-1.4705e-002
22524	14.302	5.7	0.1	3.6447e-003
22525	14.005	5.6	0.1	3.4333e-002
22526	14.104	5.7	0.1	6.4912e-003
22527	13.807	5.6	0.1	1.0176
22528	13.906	5.7	0.1	1.2198e-002
22529	13.609	5.6	0.1	2.0504
22530	13.708	5.7	0.1	2.4617e-002
22531	13.411	5.6	0.1	3.0336
22532	13.51	5.7	0.1	5.8335e-002
22533	13.214	5.6	0.1	3.9369
22534	13.313	5.7	0.1	0.20006
22535	13.016	5.6	0.1	4.7236
22536	13.115	5.7	0.1	0.6785
22537	12.818	5.6	0.1	5.3484
22538	12.917	5.7	0.1	1.2515
22539	12.62	5.6	0.1	5.7563
22540	12.719	5.7	0.1	1.7094
22541	12.422	5.6	0.1	5.8807
22542	12.521	5.7	0.1	1.9776
22543	12.224	5.6	0.1	5.6429
22544	12.323	5.7	0.1	1.9948
22545	12.026	5.6	0.1	4.9523
22546	12.125	5.7	0.1	1.699
22547	11.828	5.6	0.1	3.712
22548	11.927	5.7	0.1	1.0578
22549	11.63	5.6	0.1	1.8749
22550	11.729	5.7	0.1	0.34501
22551	11.432	5.6	0.1	0.35412
22552	11.531	5.7	0.1	0.11765
22553	11.234	5.6	0.1	0.14537
22554	11.333	5.7	0.1	6.1182e-002
22555	11.036	5.6	0.1	0.11374
22556	11.135	5.7	0.1	3.949e-002
22557	10.839	5.6	0.1	0.11426
22558	10.937	5.7	0.1	2.938e-002
22559	10.641	5.6	0.1	0.12855
22560	10.74	5.7	0.1	2.4297e-002
22561	10.443	5.6	0.1	0.15188
22562	10.542	5.7	0.1	2.1404e-002
22563	10.245	5.6	0.1	0.18271
22564	10.344	5.7	0.1	1.9147e-002
22565	10.047	5.6	0.1	0.22094
22566	10.146	5.7	0.1	1.6778e-002
22567	9.849	5.6	0.1	0.26802
22568	9.9479	5.7	0.1	1.5202e-002
22569	9.651	5.6	0.1	0.33108
22570	9.75	5.7	0.1	1.8747e-002
22571	9.4531	5.6	0.1	0.42736
22572	9.5521	5.7	0.1	4.4841e-002
22573	9.2552	5.6	0.1	0.62414
22574	9.3542	5.7	0.1	0.12881
22575	9.0573	5.6	0.1	1.0214
22576	9.1563	5.7	0.1	0.41009
22577	8.8594	5.6	0.1	2.1786
22578	8.9583	5.7	0.1	1.0389
22579	8.6615	5.6	0.1	3.7221
22580	8.7604	5.7	0.1	3.1858
22581	8.4635	5.6	0.1	8.6681
22582	8.5625	5.7	0.1	5.5398
22583	8.3646	5.7	0.1	15.926
22584	8.2656	5.6	0.1	-1.7614
22585	23.703	5.8	0.1	0.27897
22586	23.802	5.9	0.1	9.3835e-003
22587	23.901	5.8	0.1	5.6274e-002
22588	23.505	5.8	0.1	7.4013e-002
22589	23.604	5.9	0.1	-0.23516
22590	23.307	5.8	0.1	6.8691e-002
22591	23.406	5.9	0.1	-0.11213
22592	23.109	5.8	0.1	4.3427e-002
22593	23.208	5.9	0.1	-9.4001e-002
22594	22.911	5.8	0.1	3.1375e-002
22595	23.01	5.9	0.1	-6.8084e-002
22596	22.714	5.8	0.1	2.097e-002
22597	22.813	5.9	0.1	-5.4889e-002
22598	22.516	5.8	0.1	1.3717e-002
22599	22.615	5.9	0.1	-4.4631e-002
22600	22.318	5.8	0.1	8.2123e-003
22601	22.417	5.9	0.1	-3.7337e-002
22602	22.12	5.8	0.1	4.1273e-003
22603	22.219	5.9	0.1	-3.1693e-002
22604	21.922	5.8	0.1	1.0723e-003
22605	22.021	5.9	0.1	-2.7262e-002
22606	21.724	5.8	0.1	-1.1965e-003
22607	21.823	5.9	0.1	-2.3679e-002
22608	21.526	5.8	0.1	-2.8701e-003
22609	21.625	5.9	0.1	-2.0732e-002
22610	21.328	5.8	0.1	-4.0808e-003
22611	21.427	5.9	0.1	-1.8271e-002
22612	21.13	5.8	0.1	-4.9254e-003
22613	21.229	5.9	0.1	-1.6181e-002
22614	20.932	5.8	0.1	-5.4872e-003
22615	21.031	5.9	0.1	-1.4379e-002
22616	20.734	5.8	0.1	-5.8327e-003
22617	20.833	5.9	0.1	-1.282e-002
22618	20.536	5.8	0.1	-6.0026e-003
22619	20.635	5.9	0.1	-1.1458e-002
22620	20.339	5.8	0.1	-6.0281e-003
22621	20.438	5.9	0.1	-1.0252e-002
22622	20.141	5.8	0.1	-5.9444e-003
22623	20.24	5.9	0.1	-9.168e-003
22624	19.943	5.8	0.1	-5.7804e-003
22625	20.042	5.9	0.1	-8.2037e-003
22626	19.745	5.8	0.1	-5.5481e-003
22627	19.844	5.9	0.1	-7.3378e-003
22628	19.547	5.8	0.1	-5.2532e-003
22629	19.646	5.9	0.1	-6.5452e-003
22630	19.349	5.8	0.1	-4.9143e-003
22631	19.448	5.9	0.1	-5.8087e-003
22632	19.151	5.8	0.1	-4.5475e-003
22633	19.25	5.9	0.1	-5.1393e-003
22634	18.953	5.8	0.1	-4.1507e-003
22635	19.052	5.9	0.1	-4.5234e-003
22636	18.755	5.8	0.1	-3.7196e-003
22637	18.854	5.9	0.1	-3.9392e-003
22638	18.557	5.8	0.1	-3.2657e-003
22639	18.656	5.9	0.1	-3.3787e-003
22640	18.359	5.8	0.1	-2.8019e-003
22641	18.458	5.9	0.1	-2.853e-003
22642	18.161	5.8	0.1	-2.317e-003
22643	18.26	5.9	0.1	-2.3586e-003
22644	17.964	5.8	0.1	-1.8003e-003
22645	18.063	5.9	0.1	-1.8685e-003
22646	17.766	5.8	0.1	-1.2623e-003
22647	17.865	5.9	0.1	-1.3768e-003
22648	17.568	5.8	0.1	-7.1135e-004
22649	17.667	5.9	0.1	-9.0037e-004
22650	17.37	5.8	0.1	-1.3398e-004
22651	17.469	5.9	0.1	-4.3544e-004
22652	17.172	5.8	0.1	4.8763e-004
22653	17.271	5.9	0.1	4.6722e-005
22654	16.974	5.8	0.1	1.1456e-003
22655	17.073	5.9	0.1	5.5441e-004
22656	16.776	5.8	0.1	1.8318e-003
22657	16.875	5.9	0.1	1.066e-003
22658	16.578	5.8	0.1	2.5668e-003
22659	16.677	5.9	0.1	1.5875e-003
22660	16.38	5.8	0.1	3.374e-003
22661	16.479	5.9	0.1	2.1506e-003
22662	16.182	5.8	0.1	4.2507e-003
22663	16.281	5.9	0.1	2.7673e-003
22664	15.984	5.8	0.1	5.1939e-003
22665	16.083	5.9	0.1	3.4127e-003
22666	15.786	5.8	0.1	6.2352e-003
22667	15.885	5.9	0.1	4.0976e-003
22668	15.589	5.8	0.1	7.4119e-003
22669	15.688	5.9	0.1	4.8593e-003
22670	15.391	5.8	0.1	8.7332e-003
22671	15.49	5.9	0.1	5.7127e-003
22672	15.193	5.8	0.1	1.0215e-002
22673	15.292	5.9	0.1	6.6346e-003
22674	14.995	5.8	0.1	1.1919e-002
22675	15.094	5.9	0.1	7.6391e-003
22676	14.797	5.8	0.1	1.392e-002
22677	14.896	5.9	0.1	8.7714e-003
22678	14.599	5.8	0.1	1.6276e-002
22679	14.698	5.9	0.1	1.0052e-002
22680	14.401	5.8	0.1	1.9072e-002
22681	14.5	5.9	0.1	1.1451e-002
22682	14.203	5.8	0.1	2.2468e-002
22683	14.302	5.9	0.1	1.2986e-002
22684	14.005	5.8	0.1	2.6676e-002
22685	14.104	5.9	0.1	1.4689e-002
22686	13.807	5.8	0.1	3.1937e-002
22687	13.906	5.9	0.1	1.6554e-002
22688	13.609	5.8	0.1	3.8579e-002
22689	13.708	5.9	0.1	1.8492e-002
22690	13.411	5.8	0.1	4.7059e-002
22691	13.51	5.9	0.1	2.04e-002
22692	13.214	5.8	0.1	5.7857e-002
22693	13.313	5.9	0.1	2.2105e-002
22694	13.016	5.8	0.1	7.1188e-002
22695	13.115	5.9	0.1	2.3224e-002
22696	12.818	5.8	0.1	8.6405e-002
22697	12.917	5.9	0.1	2.3041e-002
22698	12.62	5.8	0.1	0.1009
22699	12.719	5.9	0.1	2.0542e-002
22700	12.422	5.8	0.1	0.1093
22701	12.521	5.9	0.1	1.4486e-002
22702	12.224	5.8	0.1	0.10557
22703	12.323	5.9	0.1	3.8407e-003
22704	12.026	5.8	0.1	8.8513e-002
22705	12.125	5.9	0.1	-1.1315e-002
22706	11.828	5.8	0.1	6.3774e-002
22707	11.927	5.9	0.1	-2.9063e-002
22708	11.63	5.8	0.1	3.8432e-002
22709	11.729	5.9	0.1	-4.6536e-002
22710	11.432	5.8	0.1	1.5958e-002
22711	11.531	5.9	0.1	-6.1806e-002
22712	11.234	5.8	0.1	-3.6187e-003
22713	11.333	5.9	0.1	-7.4722e-002
22714	11.036	5.8	0.1	-2.1801e-002
22715	11.135	5.9	0.1	-8.6224e-002
22716	10.839	5.8	0.1	-4.0598e-002
22717	10.937	5.9	0.1	-9.7535e-002
22718	10.641	5.8	0.1	-6.2268e-002
22719	10.74	5.9	0.1	-0.10983
22720	10.443	5.8	0.1	-8.9209e-002
22721	10.542	5.9	0.1	-0.1241
22722	10.245	5.8	0.1	-0.12367
22723	10.344	5.9	0.1	-0.14108
22724	10.047	5.8	0.1	-0.16685
22725	10.146	5.9	0.1	-0.16113
22726	9.849	5.8	0.1	-0.21676
22727	9.9479	5.9	0.1	-0.18405
22728	9.651	5.8	0.1	-0.26127
22729	9.75	5.9	0.1	-0.20942
22730	9.4531	5.8	0.1	-0.26926
22731	9.5521	5.9	0.1	-0.23215
22732	9.2552	5.8	0.1	-0.14333
22733	9.3542	5.9	0.1	-0.25291
22734	9.0573	5.8	0.1	0.27843
22735	9.1563	5.9	0.1	-0.21739
22736	8.8594	5.8	0.1	1.7088
22737	8.9583	5.9	0.1	-0.19703
22738	8.6615	5.8	0.1	4.5874
22739	8.7604	5.9	0.1	0.58172
22740	8.4635	5.8	0.1	16.081
22741	8.5625	5.9	0.1	1.0219
22742	8.2656	5.8	0.1	1.6128
22743	8.3646	5.9	0.1	15.193
22744	0.2	0.3	0.1	477.04
22745	0.3	0.2	0.1	41.833
22746	0.1	0.2	0.1	694.
22747	0.2	0.1	0.1	-101.72
22748	0.2	0.5	0.1	1110.1
22749	0.3	0.4	0.1	818.75
22750	0.1	0.4	0.1	1677.5
22751	0.2	0.7	0.1	1436.4
22752	0.3	0.6	0.1	1313.3
22753	0.1	0.6	0.1	2132.5
22754	0.2	0.9	0.1	1628.3
22755	0.3	0.8	0.1	1612.5
22756	0.1	0.8	0.1	2396.5
22757	0.2	1.1	0.1	1753.
22758	0.3	1.	0.1	1803.8
22759	0.1	1.	0.1	2568.2
22760	0.2	1.3	0.1	1840.
22761	0.3	1.2	0.1	1933.8
22762	0.1	1.2	0.1	2688.4
22763	0.2	1.5	0.1	1903.3
22764	0.3	1.4	0.1	2026.3
22765	0.1	1.4	0.1	2775.8
22766	0.2	1.7	0.1	1950.4
22767	0.3	1.6	0.1	2094.2
22768	0.1	1.6	0.1	2840.9
22769	0.2	1.9	0.1	1985.9
22770	0.3	1.8	0.1	2144.9
22771	0.1	1.8	0.1	2889.9
22772	0.2	2.1	0.1	2012.5
22773	0.3	2.	0.1	2182.8
22774	0.1	2.	0.1	2927.
22775	0.2	2.3	0.1	2032.1
22776	0.3	2.2	0.1	2211.1
22777	0.1	2.2	0.1	2954.7
22778	0.2	2.5	0.1	2045.8
22779	0.3	2.4	0.1	2231.4
22780	0.1	2.4	0.1	2974.7
22781	0.2	2.7	0.1	2054.6
22782	0.3	2.6	0.1	2245.2
22783	0.1	2.6	0.1	2988.3
22784	0.2	2.9	0.1	2058.9
22785	0.3	2.8	0.1	2253.2
22786	0.1	2.8	0.1	2996.1
22787	0.2	3.1	0.1	2058.9
22788	0.3	3.	0.1	2255.8
22789	0.1	3.	0.1	2998.7
22790	0.2	3.3	0.1	2054.6
22791	0.3	3.2	0.1	2253.2
22792	0.1	3.2	0.1	2996.1
22793	0.2	3.5	0.1	2045.8
22794	0.3	3.4	0.1	2245.2
22795	0.1	3.4	0.1	2988.3
22796	0.2	3.7	0.1	2032.1
22797	0.3	3.6	0.1	2231.4
22798	0.1	3.6	0.1	2974.7
22799	0.2	3.9	0.1	2012.5
22800	0.3	3.8	0.1	2211.1
22801	0.1	3.8	0.1	2954.7
22802	0.2	4.1	0.1	1985.9
22803	0.3	4.	0.1	2182.8
22804	0.1	4.	0.1	2927.
22805	0.2	4.3	0.1	1950.4
22806	0.3	4.2	0.1	2144.9
22807	0.1	4.2	0.1	2889.9
22808	0.2	4.5	0.1	1903.3
22809	0.3	4.4	0.1	2094.2
22810	0.1	4.4	0.1	2840.9
22811	0.2	4.7	0.1	1840.
22812	0.3	4.6	0.1	2026.3
22813	0.1	4.6	0.1	2775.8
22814	0.2	4.9	0.1	1753.
22815	0.3	4.8	0.1	1933.8
22816	0.1	4.8	0.1	2688.4
22817	0.2	5.1	0.1	1628.3
22818	0.3	5.	0.1	1803.8
22819	0.1	5.	0.1	2568.2
22820	0.2	5.3	0.1	1436.4
22821	0.3	5.2	0.1	1612.5
22822	0.1	5.2	0.1	2396.5
22823	0.2	5.5	0.1	1110.1
22824	0.3	5.4	0.1	1313.3
22825	0.1	5.4	0.1	2132.5
22826	0.2	5.7	0.1	477.04
22827	0.3	5.6	0.1	818.75
22828	0.1	5.6	0.1	1677.5
22829	0.3	5.8	0.1	41.833
22830	0.1	5.8	0.1	694.
22831	0.2	5.9	0.1	-101.72
22832	0.4	0.3	0.1	373.63
22833	0.5	0.2	0.1	53.891
22834	0.4	0.1	0.1	31.32
22835	0.4	0.5	0.1	1021.8
22836	0.5	0.4	0.1	604.87
22837	0.4	0.7	0.1	1482.7
22838	0.5	0.6	0.1	1111.7
22839	0.4	0.9	0.1	1782.
22840	0.5	0.8	0.1	1473.9
22841	0.4	1.1	0.1	1980.6
22842	0.5	1.	0.1	1724.8
22843	0.4	1.3	0.1	2117.6
22844	0.5	1.2	0.1	1900.1
22845	0.4	1.5	0.1	2215.7
22846	0.5	1.4	0.1	2025.5
22847	0.4	1.7	0.1	2287.7
22848	0.5	1.6	0.1	2117.2
22849	0.4	1.9	0.1	2341.3
22850	0.5	1.8	0.1	2185.2
22851	0.4	2.1	0.1	2381.1
22852	0.5	2.	0.1	2235.9
22853	0.4	2.3	0.1	2410.3
22854	0.5	2.2	0.1	2273.5
22855	0.4	2.5	0.1	2430.8
22856	0.5	2.4	0.1	2300.4
22857	0.4	2.7	0.1	2443.8
22858	0.5	2.6	0.1	2318.6
22859	0.4	2.9	0.1	2450.1
22860	0.5	2.8	0.1	2329.2
22861	0.4	3.1	0.1	2450.1
22862	0.5	3.	0.1	2332.6
22863	0.4	3.3	0.1	2443.8
22864	0.5	3.2	0.1	2329.2
22865	0.4	3.5	0.1	2430.8
22866	0.5	3.4	0.1	2318.6
22867	0.4	3.7	0.1	2410.3
22868	0.5	3.6	0.1	2300.4
22869	0.4	3.9	0.1	2381.1
22870	0.5	3.8	0.1	2273.5
22871	0.4	4.1	0.1	2341.3
22872	0.5	4.	0.1	2235.9
22873	0.4	4.3	0.1	2287.7
22874	0.5	4.2	0.1	2185.2
22875	0.4	4.5	0.1	2215.7
22876	0.5	4.4	0.1	2117.2
22877	0.4	4.7	0.1	2117.6
22878	0.5	4.6	0.1	2025.5
22879	0.4	4.9	0.1	1980.6
22880	0.5	4.8	0.1	1900.1
22881	0.4	5.1	0.1	1782.
22882	0.5	5.	0.1	1724.8
22883	0.4	5.3	0.1	1482.7
22884	0.5	5.2	0.1	1473.9
22885	0.4	5.5	0.1	1021.8
22886	0.5	5.4	0.1	1111.7
22887	0.4	5.7	0.1	373.63
22888	0.5	5.6	0.1	604.87
22889	0.5	5.8	0.1	53.89
22890	0.4	5.9	0.1	31.32
22891	0.6	0.3	0.1	220.26
22892	0.7	0.2	0.1	20.224
22893	0.6	0.1	0.1	-9.5436
22894	0.6	0.5	0.1	698.05
22895	0.7	0.4	0.1	428.9
22896	0.6	0.7	0.1	1105.8
22897	0.7	0.6	0.1	843.87
22898	0.6	0.9	0.1	1417.6
22899	0.7	0.8	0.1	1189.1
22900	0.6	1.1	0.1	1644.2
22901	0.7	1.	0.1	1454.9
22902	0.6	1.3	0.1	1807.5
22903	0.7	1.2	0.1	1653.2
22904	0.6	1.5	0.1	1926.5
22905	0.7	1.4	0.1	1800.4
22906	0.6	1.7	0.1	2014.3
22907	0.7	1.6	0.1	1910.2
22908	0.6	1.9	0.1	2079.6
22909	0.7	1.8	0.1	1992.4
22910	0.6	2.1	0.1	2128.1
22911	0.7	2.	0.1	2054.
22912	0.6	2.3	0.1	2163.5
22913	0.7	2.2	0.1	2099.6
22914	0.6	2.5	0.1	2188.3
22915	0.7	2.4	0.1	2132.4
22916	0.6	2.7	0.1	2204.1
22917	0.7	2.6	0.1	2154.5
22918	0.6	2.9	0.1	2211.7
22919	0.7	2.8	0.1	2167.3
22920	0.6	3.1	0.1	2211.7
22921	0.7	3.	0.1	2171.4
22922	0.6	3.3	0.1	2204.1
22923	0.7	3.2	0.1	2167.3
22924	0.6	3.5	0.1	2188.3
22925	0.7	3.4	0.1	2154.5
22926	0.6	3.7	0.1	2163.5
22927	0.7	3.6	0.1	2132.4
22928	0.6	3.9	0.1	2128.1
22929	0.7	3.8	0.1	2099.6
22930	0.6	4.1	0.1	2079.6
22931	0.7	4.	0.1	2054.
22932	0.6	4.3	0.1	2014.3
22933	0.7	4.2	0.1	1992.4
22934	0.6	4.5	0.1	1926.5
22935	0.7	4.4	0.1	1910.2
22936	0.6	4.7	0.1	1807.5
22937	0.7	4.6	0.1	1800.4
22938	0.6	4.9	0.1	1644.2
22939	0.7	4.8	0.1	1653.2
22940	0.6	5.1	0.1	1417.6
22941	0.7	5.	0.1	1454.9
22942	0.6	5.3	0.1	1105.8
22943	0.7	5.2	0.1	1189.1
22944	0.6	5.5	0.1	698.05
22945	0.7	5.4	0.1	843.87
22946	0.6	5.7	0.1	220.26
22947	0.7	5.6	0.1	428.9
22948	0.7	5.8	0.1	20.224
22949	0.6	5.9	0.1	-9.5436
22950	0.8	0.3	0.1	189.95
22951	0.9	0.2	0.1	27.902
22952	0.8	0.1	0.1	2.802
22953	0.8	0.5	0.1	575.21
22954	0.9	0.4	0.1	356.79
22955	0.8	0.7	0.1	928.97
22956	0.9	0.6	0.1	699.97
22957	0.8	0.9	0.1	1227.9
22958	0.9	0.8	0.1	1009.7
22959	0.8	1.1	0.1	1464.8
22960	0.9	1.	0.1	1268.7
22961	0.8	1.3	0.1	1646.5
22962	0.9	1.2	0.1	1475.2
22963	0.8	1.5	0.1	1784.2
22964	0.9	1.4	0.1	1636.1
22965	0.8	1.7	0.1	1888.3
22966	0.9	1.6	0.1	1760.1
22967	0.8	1.9	0.1	1966.7
22968	0.9	1.8	0.1	1854.9
22969	0.8	2.1	0.1	2025.4
22970	0.9	2.	0.1	1926.9
22971	0.8	2.3	0.1	2068.4
22972	0.9	2.2	0.1	1980.6
22973	0.8	2.5	0.1	2098.6
22974	0.9	2.4	0.1	2019.5
22975	0.8	2.7	0.1	2117.8
22976	0.9	2.6	0.1	2045.8
22977	0.8	2.9	0.1	2127.1
22978	0.9	2.8	0.1	2061.1
22979	0.8	3.1	0.1	2127.1
22980	0.9	3.	0.1	2066.
22981	0.8	3.3	0.1	2117.8
22982	0.9	3.2	0.1	2061.1
22983	0.8	3.5	0.1	2098.6
22984	0.9	3.4	0.1	2045.8
22985	0.8	3.7	0.1	2068.4
22986	0.9	3.6	0.1	2019.5
22987	0.8	3.9	0.1	2025.4
22988	0.9	3.8	0.1	1980.6
22989	0.8	4.1	0.1	1966.7
22990	0.9	4.	0.1	1926.9
22991	0.8	4.3	0.1	1888.3
22992	0.9	4.2	0.1	1854.9
22993	0.8	4.5	0.1	1784.2
22994	0.9	4.4	0.1	1760.1
22995	0.8	4.7	0.1	1646.5
22996	0.9	4.6	0.1	1636.1
22997	0.8	4.9	0.1	1464.8
22998	0.9	4.8	0.1	1475.2
22999	0.8	5.1	0.1	1227.9
23000	0.9	5.	0.1	1268.7
23001	0.8	5.3	0.1	928.97
23002	0.9	5.2	0.1	1009.7
23003	0.8	5.5	0.1	575.21
23004	0.9	5.4	0.1	699.97
23005	0.8	5.7	0.1	189.95
23006	0.9	5.6	0.1	356.79
23007	0.9	5.8	0.1	27.902
23008	0.8	5.9	0.1	2.802
23009	1.	0.3	0.1	165.75
23010	1.1	0.2	0.1	30.063
23011	1.	0.1	0.1	-7.8271e-002
23012	1.	0.5	0.1	481.01
23013	1.1	0.4	0.1	308.27
23014	1.	0.7	0.1	781.33
23015	1.1	0.6	0.1	595.21
23016	1.	0.9	0.1	1051.5
23017	1.1	0.8	0.1	866.1
23018	1.	1.1	0.1	1280.1
23019	1.1	1.	0.1	1105.7
23020	1.	1.3	0.1	1465.6
23021	1.1	1.2	0.1	1307.5
23022	1.	1.5	0.1	1612.5
23023	1.1	1.4	0.1	1472.
23024	1.	1.7	0.1	1727.
23025	1.1	1.6	0.1	1603.2
23026	1.	1.9	0.1	1815.3
23027	1.1	1.8	0.1	1706.4
23028	1.	2.1	0.1	1882.3
23029	1.1	2.	0.1	1786.2
23030	1.	2.3	0.1	1931.9
23031	1.1	2.2	0.1	1846.6
23032	1.	2.5	0.1	1966.9
23033	1.1	2.4	0.1	1890.7
23034	1.	2.7	0.1	1989.3
23035	1.1	2.6	0.1	1920.7
23036	1.	2.9	0.1	2000.2
23037	1.1	2.8	0.1	1938.2
23038	1.	3.1	0.1	2000.2
23039	1.1	3.	0.1	1943.9
23040	1.	3.3	0.1	1989.3
23041	1.1	3.2	0.1	1938.2
23042	1.	3.5	0.1	1966.9
23043	1.1	3.4	0.1	1920.7
23044	1.	3.7	0.1	1931.9
23045	1.1	3.6	0.1	1890.7
23046	1.	3.9	0.1	1882.3
23047	1.1	3.8	0.1	1846.6
23048	1.	4.1	0.1	1815.3
23049	1.1	4.	0.1	1786.2
23050	1.	4.3	0.1	1727.
23051	1.1	4.2	0.1	1706.4
23052	1.	4.5	0.1	1612.5
23053	1.1	4.4	0.1	1603.2
23054	1.	4.7	0.1	1465.6
23055	1.1	4.6	0.1	1472.
23056	1.	4.9	0.1	1280.1
23057	1.1	4.8	0.1	1307.5
23058	1.	5.1	0.1	1051.5
23059	1.1	5.	0.1	1105.7
23060	1.	5.3	0.1	781.33
23061	1.1	5.2	0.1	866.1
23062	1.	5.5	0.1	481.01
23063	1.1	5.4	0.1	595.21
23064	1.	5.7	0.1	165.75
23065	1.1	5.6	0.1	308.27
23066	1.1	5.8	0.1	30.063
23067	1.	5.9	0.1	-7.8274e-002
23068	1.2	0.3	0.1	155.02
23069	1.3	0.2	0.1	35.902
23070	1.2	0.1	0.1	1.2611
23071	1.2	0.5	0.1	421.76
23072	1.3	0.4	0.1	277.33
23073	1.2	0.7	0.1	679.99
23074	1.3	0.6	0.1	522.56
23075	1.2	0.9	0.1	920.81
23076	1.3	0.8	0.1	759.48
23077	1.2	1.1	0.1	1133.9
23078	1.3	1.	0.1	976.84
23079	1.2	1.3	0.1	1314.6
23080	1.3	1.2	0.1	1167.3
23081	1.2	1.5	0.1	1463.4
23082	1.3	1.4	0.1	1328.4
23083	1.2	1.7	0.1	1583.1
23084	1.3	1.6	0.1	1461.3
23085	1.2	1.9	0.1	1677.7
23086	1.3	1.8	0.1	1568.5
23087	1.2	2.1	0.1	1750.8
23088	1.3	2.	0.1	1653.2
23089	1.2	2.3	0.1	1805.6
23090	1.3	2.2	0.1	1718.3
23091	1.2	2.5	0.1	1844.7
23092	1.3	2.4	0.1	1766.4
23093	1.2	2.7	0.1	1869.8
23094	1.3	2.6	0.1	1799.4
23095	1.2	2.9	0.1	1882.1
23096	1.3	2.8	0.1	1818.7
23097	1.2	3.1	0.1	1882.1
23098	1.3	3.	0.1	1825.
23099	1.2	3.3	0.1	1869.8
23100	1.3	3.2	0.1	1818.7
23101	1.2	3.5	0.1	1844.7
23102	1.3	3.4	0.1	1799.4
23103	1.2	3.7	0.1	1805.6
23104	1.3	3.6	0.1	1766.4
23105	1.2	3.9	0.1	1750.8
23106	1.3	3.8	0.1	1718.3
23107	1.2	4.1	0.1	1677.7
23108	1.3	4.	0.1	1653.2
23109	1.2	4.3	0.1	1583.1
23110	1.3	4.2	0.1	1568.5
23111	1.2	4.5	0.1	1463.4
23112	1.3	4.4	0.1	1461.3
23113	1.2	4.7	0.1	1314.6
23114	1.3	4.6	0.1	1328.4
23115	1.2	4.9	0.1	1133.9
23116	1.3	4.8	0.1	1167.3
23117	1.2	5.1	0.1	920.81
23118	1.3	5.	0.1	976.84
23119	1.2	5.3	0.1	679.99
23120	1.3	5.2	0.1	759.48
23121	1.2	5.5	0.1	421.76
23122	1.3	5.4	0.1	522.56
23123	1.2	5.7	0.1	155.02
23124	1.3	5.6	0.1	277.33
23125	1.3	5.8	0.1	35.902
23126	1.2	5.9	0.1	1.2611
23127	1.4	0.3	0.1	147.44
23128	1.5	0.2	0.1	41.841
23129	1.4	0.1	0.1	2.5698
23130	1.4	0.5	0.1	377.42
23131	1.5	0.4	0.1	254.24
23132	1.4	0.7	0.1	601.82
23133	1.5	0.6	0.1	467.21
23134	1.4	0.9	0.1	815.66
23135	1.5	0.8	0.1	675.54
23136	1.4	1.1	0.1	1010.7
23137	1.5	1.	0.1	871.13
23138	1.4	1.3	0.1	1181.6
23139	1.5	1.2	0.1	1047.4
23140	1.4	1.5	0.1	1326.9
23141	1.5	1.4	0.1	1201.1
23142	1.4	1.7	0.1	1447.2
23143	1.5	1.6	0.1	1331.3
23144	1.4	1.9	0.1	1544.5
23145	1.5	1.8	0.1	1438.8
23146	1.4	2.1	0.1	1621.1
23147	1.5	2.	0.1	1525.5
23148	1.4	2.3	0.1	1679.4
23149	1.5	2.2	0.1	1593.2
23150	1.4	2.5	0.1	1721.4
23151	1.5	2.4	0.1	1643.8
23152	1.4	2.7	0.1	1748.5
23153	1.5	2.6	0.1	1678.8
23154	1.4	2.9	0.1	1761.8
23155	1.5	2.8	0.1	1699.4
23156	1.4	3.1	0.1	1761.8
23157	1.5	3.	0.1	1706.2
23158	1.4	3.3	0.1	1748.5
23159	1.5	3.2	0.1	1699.4
23160	1.4	3.5	0.1	1721.4
23161	1.5	3.4	0.1	1678.8
23162	1.4	3.7	0.1	1679.4
23163	1.5	3.6	0.1	1643.8
23164	1.4	3.9	0.1	1621.1
23165	1.5	3.8	0.1	1593.2
23166	1.4	4.1	0.1	1544.5
23167	1.5	4.	0.1	1525.5
23168	1.4	4.3	0.1	1447.2
23169	1.5	4.2	0.1	1438.8
23170	1.4	4.5	0.1	1326.9
23171	1.5	4.4	0.1	1331.3
23172	1.4	4.7	0.1	1181.6
23173	1.5	4.6	0.1	1201.1
23174	1.4	4.9	0.1	1010.7
23175	1.5	4.8	0.1	1047.4
23176	1.4	5.1	0.1	815.66
23177	1.5	5.	0.1	871.13
23178	1.4	5.3	0.1	601.82
23179	1.5	5.2	0.1	675.54
23180	1.4	5.5	0.1	377.42
23181	1.5	5.4	0.1	467.21
23182	1.4	5.7	0.1	147.44
23183	1.5	5.6	0.1	254.24
23184	1.5	5.8	0.1	41.841
23185	1.4	5.9	0.1	2.5697
23186	1.6	0.3	0.1	141.97
23187	1.7	0.2	0.1	47.421
23188	1.6	0.1	0.1	7.5997
23189	1.6	0.5	0.1	343.4
23190	1.7	0.4	0.1	236.02
23191	1.6	0.7	0.1	540.61
23192	1.7	0.6	0.1	423.43
23193	1.6	0.9	0.1	730.96
23194	1.7	0.8	0.1	607.92
23195	1.6	1.1	0.1	908.1
23196	1.7	1.	0.1	783.71
23197	1.6	1.3	0.1	1067.2
23198	1.7	1.2	0.1	945.36
23199	1.6	1.5	0.1	1205.8
23200	1.7	1.4	0.1	1089.4
23201	1.6	1.7	0.1	1323.3
23202	1.7	1.6	0.1	1214.1
23203	1.6	1.9	0.1	1420.3
23204	1.7	1.8	0.1	1319.3
23205	1.6	2.1	0.1	1498.
23206	1.7	2.	0.1	1405.5
23207	1.6	2.3	0.1	1558.
23208	1.7	2.2	0.1	1473.9
23209	1.6	2.5	0.1	1601.6
23210	1.7	2.4	0.1	1525.6
23211	1.6	2.7	0.1	1630.1
23212	1.7	2.6	0.1	1561.7
23213	1.6	2.9	0.1	1644.1
23214	1.7	2.8	0.1	1583.
23215	1.6	3.1	0.1	1644.1
23216	1.7	3.	0.1	1590.
23217	1.6	3.3	0.1	1630.1
23218	1.7	3.2	0.1	1583.
23219	1.6	3.5	0.1	1601.6
23220	1.7	3.4	0.1	1561.7
23221	1.6	3.7	0.1	1558.
23222	1.7	3.6	0.1	1525.6
23223	1.6	3.9	0.1	1498.
23224	1.7	3.8	0.1	1473.9
23225	1.6	4.1	0.1	1420.3
23226	1.7	4.	0.1	1405.5
23227	1.6	4.3	0.1	1323.3
23228	1.7	4.2	0.1	1319.3
23229	1.6	4.5	0.1	1205.8
23230	1.7	4.4	0.1	1214.1
23231	1.6	4.7	0.1	1067.2
23232	1.7	4.6	0.1	1089.4
23233	1.6	4.9	0.1	908.1
23234	1.7	4.8	0.1	945.36
23235	1.6	5.1	0.1	730.96
23236	1.7	5.	0.1	783.71
23237	1.6	5.3	0.1	540.61
23238	1.7	5.2	0.1	607.92
23239	1.6	5.5	0.1	343.4
23240	1.7	5.4	0.1	423.43
23241	1.6	5.7	0.1	141.97
23242	1.7	5.6	0.1	236.02
23243	1.7	5.8	0.1	47.421
23244	1.6	5.9	0.1	7.5997
23245	1.8	0.3	0.1	137.16
23246	1.9	0.2	0.1	51.991
23247	1.8	0.1	0.1	13.843
23248	1.8	0.5	0.1	315.52
23249	1.9	0.4	0.1	220.59
23250	1.8	0.7	0.1	490.42
23251	1.9	0.6	0.1	387.12
23252	1.8	0.9	0.1	660.53
23253	1.9	0.8	0.1	551.59
23254	1.8	1.1	0.1	821.01
23255	1.9	1.	0.1	709.78
23256	1.8	1.3	0.1	967.71
23257	1.9	1.2	0.1	857.29
23258	1.8	1.5	0.1	1097.9
23259	1.9	1.4	0.1	990.89
23260	1.8	1.7	0.1	1210.4
23261	1.9	1.6	0.1	1108.6
23262	1.8	1.9	0.1	1304.9
23263	1.9	1.8	0.1	1209.5
23264	1.8	2.1	0.1	1381.8
23265	1.9	2.	0.1	1293.5
23266	1.8	2.3	0.1	1441.9
23267	1.9	2.2	0.1	1361.
23268	1.8	2.5	0.1	1486.
23269	1.9	2.4	0.1	1412.5
23270	1.8	2.7	0.1	1515.
23271	1.9	2.6	0.1	1448.8
23272	1.8	2.9	0.1	1529.3
23273	1.9	2.8	0.1	1470.3
23274	1.8	3.1	0.1	1529.3
23275	1.9	3.	0.1	1477.4
23276	1.8	3.3	0.1	1515.
23277	1.9	3.2	0.1	1470.3
23278	1.8	3.5	0.1	1486.
23279	1.9	3.4	0.1	1448.8
23280	1.8	3.7	0.1	1441.9
23281	1.9	3.6	0.1	1412.5
23282	1.8	3.9	0.1	1381.8
23283	1.9	3.8	0.1	1361.
23284	1.8	4.1	0.1	1304.9
23285	1.9	4.	0.1	1293.5
23286	1.8	4.3	0.1	1210.4
23287	1.9	4.2	0.1	1209.5
23288	1.8	4.5	0.1	1097.9
23289	1.9	4.4	0.1	1108.6
23290	1.8	4.7	0.1	967.71
23291	1.9	4.6	0.1	990.89
23292	1.8	4.9	0.1	821.01
23293	1.9	4.8	0.1	857.29
23294	1.8	5.1	0.1	660.53
23295	1.9	5.	0.1	709.78
23296	1.8	5.3	0.1	490.42
23297	1.9	5.2	0.1	551.59
23298	1.8	5.5	0.1	315.52
23299	1.9	5.4	0.1	387.12
23300	1.8	5.7	0.1	137.16
23301	1.9	5.6	0.1	220.59
23302	1.9	5.8	0.1	51.99
23303	1.8	5.9	0.1	13.843
23304	2.	0.3	0.1	132.5
23305	2.1	0.2	0.1	55.384
23306	2.	0.1	0.1	18.981
23307	2.	0.5	0.1	291.74
23308	2.1	0.4	0.1	206.87
23309	2.	0.7	0.1	447.99
23310	2.1	0.6	0.1	355.95
23311	2.	0.9	0.1	600.66
23312	2.1	0.8	0.1	503.39
23313	2.	1.1	0.1	746.01
23314	2.1	1.	0.1	646.06
23315	2.	1.3	0.1	880.55
23316	2.1	1.2	0.1	780.4
23317	2.	1.5	0.1	1001.7
23318	2.1	1.4	0.1	903.56
23319	2.	1.7	0.1	1107.9
23320	2.1	1.6	0.1	1013.5
23321	2.	1.9	0.1	1198.4
23322	2.1	1.8	0.1	1109.
23323	2.	2.1	0.1	1273.
23324	2.1	2.	0.1	1189.5
23325	2.	2.3	0.1	1332.
23326	2.1	2.2	0.1	1254.9
23327	2.	2.5	0.1	1375.6
23328	2.1	2.4	0.1	1305.3
23329	2.	2.7	0.1	1404.5
23330	2.1	2.6	0.1	1341.
23331	2.	2.9	0.1	1418.8
23332	2.1	2.8	0.1	1362.3
23333	2.	3.1	0.1	1418.8
23334	2.1	3.	0.1	1369.4
23335	2.	3.3	0.1	1404.5
23336	2.1	3.2	0.1	1362.3
23337	2.	3.5	0.1	1375.6
23338	2.1	3.4	0.1	1341.
23339	2.	3.7	0.1	1332.
23340	2.1	3.6	0.1	1305.3
23341	2.	3.9	0.1	1273.
23342	2.1	3.8	0.1	1254.9
23343	2.	4.1	0.1	1198.4
23344	2.1	4.	0.1	1189.5
23345	2.	4.3	0.1	1107.9
23346	2.1	4.2	0.1	1109.
23347	2.	4.5	0.1	1001.7
23348	2.1	4.4	0.1	1013.5
23349	2.	4.7	0.1	880.55
23350	2.1	4.6	0.1	903.56
23351	2.	4.9	0.1	746.01
23352	2.1	4.8	0.1	780.4
23353	2.	5.1	0.1	600.66
23354	2.1	5.	0.1	646.06
23355	2.	5.3	0.1	447.99
23356	2.1	5.2	0.1	503.39
23357	2.	5.5	0.1	291.74
23358	2.1	5.4	0.1	355.95
23359	2.	5.7	0.1	132.5
23360	2.1	5.6	0.1	206.87
23361	2.1	5.8	0.1	55.384
23362	2.	5.9	0.1	18.981
23363	2.2	0.3	0.1	127.69
23364	2.3	0.2	0.1	57.586
23365	2.2	0.1	0.1	22.837
23366	2.2	0.5	0.1	270.7
23367	2.3	0.4	0.1	194.2
23368	2.2	0.7	0.1	411.08
23369	2.3	0.6	0.1	328.39
23370	2.2	0.9	0.1	548.6
23371	2.3	0.8	0.1	461.15
23372	2.2	1.1	0.1	680.36
23373	2.3	1.	0.1	590.13
23374	2.2	1.3	0.1	803.43
23375	2.3	1.2	0.1	712.42
23376	2.2	1.5	0.1	915.47
23377	2.3	1.4	0.1	825.54
23378	2.2	1.7	0.1	1014.8
23379	2.3	1.6	0.1	927.57
23380	2.2	1.9	0.1	1100.4
23381	2.3	1.8	0.1	1017.1
23382	2.2	2.1	0.1	1171.7
23383	2.3	2.	0.1	1093.4
23384	2.2	2.3	0.1	1228.6
23385	2.3	2.2	0.1	1155.9
23386	2.2	2.5	0.1	1271.1
23387	2.3	2.4	0.1	1204.4
23388	2.2	2.7	0.1	1299.3
23389	2.3	2.6	0.1	1239.
23390	2.2	2.9	0.1	1313.3
23391	2.3	2.8	0.1	1259.8
23392	2.2	3.1	0.1	1313.3
23393	2.3	3.	0.1	1266.6
23394	2.2	3.3	0.1	1299.3
23395	2.3	3.2	0.1	1259.8
23396	2.2	3.5	0.1	1271.1
23397	2.3	3.4	0.1	1239.
23398	2.2	3.7	0.1	1228.6
23399	2.3	3.6	0.1	1204.4
23400	2.2	3.9	0.1	1171.7
23401	2.3	3.8	0.1	1155.9
23402	2.2	4.1	0.1	1100.4
23403	2.3	4.	0.1	1093.4
23404	2.2	4.3	0.1	1014.8
23405	2.3	4.2	0.1	1017.1
23406	2.2	4.5	0.1	915.47
23407	2.3	4.4	0.1	927.57
23408	2.2	4.7	0.1	803.43
23409	2.3	4.6	0.1	825.54
23410	2.2	4.9	0.1	680.36
23411	2.3	4.8	0.1	712.42
23412	2.2	5.1	0.1	548.6
23413	2.3	5.	0.1	590.13
23414	2.2	5.3	0.1	411.08
23415	2.3	5.2	0.1	461.15
23416	2.2	5.5	0.1	270.7
23417	2.3	5.4	0.1	328.39
23418	2.2	5.7	0.1	127.69
23419	2.3	5.6	0.1	194.2
23420	2.3	5.8	0.1	57.586
23421	2.2	5.9	0.1	22.837
23422	2.4	0.3	0.1	122.59
23423	2.5	0.2	0.1	58.674
23424	2.4	0.1	0.1	25.558
23425	2.4	0.5	0.1	251.56
23426	2.5	0.4	0.1	182.19
23427	2.4	0.7	0.1	378.22
23428	2.5	0.6	0.1	303.44
23429	2.4	0.9	0.1	502.49
23430	2.5	0.8	0.1	423.4
23431	2.4	1.1	0.1	622.07
23432	2.5	1.	0.1	540.25
23433	2.4	1.3	0.1	734.5
23434	2.5	1.2	0.1	651.59
23435	2.4	1.5	0.1	837.7
23436	2.5	1.4	0.1	755.3
23437	2.4	1.7	0.1	930.03
23438	2.5	1.6	0.1	849.57
23439	2.4	1.9	0.1	1010.3
23440	2.5	1.8	0.1	933.01
23441	2.4	2.1	0.1	1077.8
23442	2.5	2.	0.1	1004.6
23443	2.4	2.3	0.1	1132.
23444	2.5	2.2	0.1	1063.8
23445	2.4	2.5	0.1	1172.7
23446	2.5	2.4	0.1	1110.
23447	2.4	2.7	0.1	1199.8
23448	2.5	2.6	0.1	1143.1
23449	2.4	2.9	0.1	1213.4
23450	2.5	2.8	0.1	1163.
23451	2.4	3.1	0.1	1213.4
23452	2.5	3.	0.1	1169.6
23453	2.4	3.3	0.1	1199.8
23454	2.5	3.2	0.1	1163.
23455	2.4	3.5	0.1	1172.7
23456	2.5	3.4	0.1	1143.1
23457	2.4	3.7	0.1	1132.
23458	2.5	3.6	0.1	1110.
23459	2.4	3.9	0.1	1077.8
23460	2.5	3.8	0.1	1063.8
23461	2.4	4.1	0.1	1010.3
23462	2.5	4.	0.1	1004.6
23463	2.4	4.3	0.1	930.03
23464	2.5	4.2	0.1	933.01
23465	2.4	4.5	0.1	837.7
23466	2.5	4.4	0.1	849.57
23467	2.4	4.7	0.1	734.5
23468	2.5	4.6	0.1	755.3
23469	2.4	4.9	0.1	622.07
23470	2.5	4.8	0.1	651.59
23471	2.4	5.1	0.1	502.49
23472	2.5	5.	0.1	540.25
23473	2.4	5.3	0.1	378.22
23474	2.5	5.2	0.1	423.4
23475	2.4	5.5	0.1	251.56
23476	2.5	5.4	0.1	303.44
23477	2.4	5.7	0.1	122.59
23478	2.5	5.6	0.1	182.19
23479	2.5	5.8	0.1	58.674
23480	2.4	5.9	0.1	25.558
23481	2.6	0.3	0.1	117.14
23482	2.7	0.2	0.1	58.751
23483	2.6	0.1	0.1	27.307
23484	2.6	0.5	0.1	233.78
23485	2.7	0.4	0.1	170.59
23486	2.6	0.7	0.1	348.4
23487	2.7	0.6	0.1	280.42
23488	2.6	0.9	0.1	460.98
23489	2.7	0.8	0.1	389.09
23490	2.6	1.1	0.1	569.65
23491	2.7	1.	0.1	495.14
23492	2.6	1.3	0.1	672.33
23493	2.7	1.2	0.1	596.59
23494	2.6	1.5	0.1	767.18
23495	2.7	1.4	0.1	691.58
23496	2.6	1.7	0.1	852.63
23497	2.7	1.6	0.1	778.46
23498	2.6	1.9	0.1	927.47
23499	2.7	1.8	0.1	855.88
23500	2.6	2.1	0.1	990.8
23501	2.7	2.	0.1	922.76
23502	2.6	2.3	0.1	1042.
23503	2.7	2.2	0.1	978.31
23504	2.6	2.5	0.1	1080.7
23505	2.7	2.4	0.1	1022.
23506	2.6	2.7	0.1	1106.5
23507	2.7	2.6	0.1	1053.4
23508	2.6	2.9	0.1	1119.5
23509	2.7	2.8	0.1	1072.3
23510	2.6	3.1	0.1	1119.5
23511	2.7	3.	0.1	1078.6
23512	2.6	3.3	0.1	1106.5
23513	2.7	3.2	0.1	1072.3
23514	2.6	3.5	0.1	1080.7
23515	2.7	3.4	0.1	1053.4
23516	2.6	3.7	0.1	1042.
23517	2.7	3.6	0.1	1022.
23518	2.6	3.9	0.1	990.8
23519	2.7	3.8	0.1	978.31
23520	2.6	4.1	0.1	927.47
23521	2.7	4.	0.1	922.76
23522	2.6	4.3	0.1	852.63
23523	2.7	4.2	0.1	855.88
23524	2.6	4.5	0.1	767.18
23525	2.7	4.4	0.1	778.46
23526	2.6	4.7	0.1	672.33
23527	2.7	4.6	0.1	691.58
23528	2.6	4.9	0.1	569.65
23529	2.7	4.8	0.1	596.59
23530	2.6	5.1	0.1	460.98
23531	2.7	5.	0.1	495.14
23532	2.6	5.3	0.1	348.4
23533	2.7	5.2	0.1	389.09
23534	2.6	5.5	0.1	233.78
23535	2.7	5.4	0.1	280.42
23536	2.6	5.7	0.1	117.14
23537	2.7	5.6	0.1	170.59
23538	2.7	5.8	0.1	58.751
23539	2.6	5.9	0.1	27.307
23540	2.8	0.3	0.1	111.33
23541	2.9	0.2	0.1	57.928
23542	2.8	0.1	0.1	28.23
23543	2.8	0.5	0.1	216.99
23544	2.9	0.4	0.1	159.25
23545	2.8	0.7	0.1	320.92
23546	2.9	0.6	0.1	258.87
23547	2.8	0.9	0.1	423.09
23548	2.9	0.8	0.1	357.47
23549	2.8	1.1	0.1	521.97
23550	2.9	1.	0.1	453.87
23551	2.8	1.3	0.1	615.78
23552	2.9	1.2	0.1	546.39
23553	2.8	1.5	0.1	702.86
23554	2.9	1.4	0.1	633.39
23555	2.8	1.7	0.1	781.77
23556	2.9	1.6	0.1	713.38
23557	2.8	1.9	0.1	851.28
23558	2.9	1.8	0.1	785.04
23559	2.8	2.1	0.1	910.43
23560	2.9	2.	0.1	847.29
23561	2.8	2.3	0.1	958.49
23562	2.9	2.2	0.1	899.26
23563	2.8	2.5	0.1	994.94
23564	2.9	2.4	0.1	940.29
23565	2.8	2.7	0.1	1019.4
23566	2.9	2.6	0.1	969.9
23567	2.8	2.9	0.1	1031.7
23568	2.9	2.8	0.1	987.79
23569	2.8	3.1	0.1	1031.7
23570	2.9	3.	0.1	993.77
23571	2.8	3.3	0.1	1019.4
23572	2.9	3.2	0.1	987.79
23573	2.8	3.5	0.1	994.94
23574	2.9	3.4	0.1	969.9
23575	2.8	3.7	0.1	958.49
23576	2.9	3.6	0.1	940.29
23577	2.8	3.9	0.1	910.43
23578	2.9	3.8	0.1	899.26
23579	2.8	4.1	0.1	851.28
23580	2.9	4.	0.1	847.29
23581	2.8	4.3	0.1	781.77
23582	2.9	4.2	0.1	785.04
23583	2.8	4.5	0.1	702.86
23584	2.9	4.4	0.1	713.38
23585	2.8	4.7	0.1	615.78
23586	2.9	4.6	0.1	633.39
23587	2.8	4.9	0.1	521.97
23588	2.9	4.8	0.1	546.39
23589	2.8	5.1	0.1	423.09
23590	2.9	5.	0.1	453.87
23591	2.8	5.3	0.1	320.92
23592	2.9	5.2	0.1	357.47
23593	2.8	5.5	0.1	216.99
23594	2.9	5.4	0.1	258.87
23595	2.8	5.7	0.1	111.33
23596	2.9	5.6	0.1	159.25
23597	2.9	5.8	0.1	57.928
23598	2.8	5.9	0.1	28.229
23599	3.	0.3	0.1	105.16
23600	3.1	0.2	0.1	56.308
23601	3.	0.1	0.1	28.448
23602	3.	0.5	0.1	200.92
23603	3.1	0.4	0.1	148.04
23604	3.	0.7	0.1	295.25
23605	3.1	0.6	0.1	238.43
23606	3.	0.9	0.1	388.11
23607	3.1	0.8	0.1	327.98
23608	3.	1.1	0.1	478.18
23609	3.1	1.	0.1	415.72
23610	3.	1.3	0.1	563.94
23611	3.1	1.2	0.1	500.18
23612	3.	1.5	0.1	643.9
23613	3.1	1.4	0.1	579.92
23614	3.	1.7	0.1	716.69
23615	3.1	1.6	0.1	653.57
23616	3.	1.9	0.1	781.14
23617	3.1	1.8	0.1	719.86
23618	3.	2.1	0.1	836.24
23619	3.1	2.	0.1	777.72
23620	3.	2.3	0.1	881.21
23621	3.1	2.2	0.1	826.24
23622	3.	2.5	0.1	915.44
23623	3.1	2.4	0.1	864.69
23624	3.	2.7	0.1	938.48
23625	3.1	2.6	0.1	892.53
23626	3.	2.9	0.1	950.07
23627	3.1	2.8	0.1	909.38
23628	3.	3.1	0.1	950.07
23629	3.1	3.	0.1	915.02
23630	3.	3.3	0.1	938.48
23631	3.1	3.2	0.1	909.38
23632	3.	3.5	0.1	915.44
23633	3.1	3.4	0.1	892.53
23634	3.	3.7	0.1	881.21
23635	3.1	3.6	0.1	864.69
23636	3.	3.9	0.1	836.24
23637	3.1	3.8	0.1	826.24
23638	3.	4.1	0.1	781.14
23639	3.1	4.	0.1	777.72
23640	3.	4.3	0.1	716.69
23641	3.1	4.2	0.1	719.86
23642	3.	4.5	0.1	643.9
23643	3.1	4.4	0.1	653.57
23644	3.	4.7	0.1	563.94
23645	3.1	4.6	0.1	579.92
23646	3.	4.9	0.1	478.18
23647	3.1	4.8	0.1	500.18
23648	3.	5.1	0.1	388.11
23649	3.1	5.	0.1	415.72
23650	3.	5.3	0.1	295.25
23651	3.1	5.2	0.1	327.98
23652	3.	5.5	0.1	200.92
23653	3.1	5.4	0.1	238.43
23654	3.	5.7	0.1	105.16
23655	3.1	5.6	0.1	148.04
23656	3.1	5.8	0.1	56.308
23657	3.	5.9	0.1	28.448
23658	3.2	0.3	0.1	98.638
23659	3.3	0.2	0.1	53.982
23660	3.2	0.1	0.1	28.065
23661	3.2	0.5	0.1	185.37
23662	3.3	0.4	0.1	136.88
23663	3.2	0.7	0.1	271.01
23664	3.3	0.6	0.1	218.84
23665	3.2	0.9	0.1	355.47
23666	3.3	0.8	0.1	300.19
23667	3.2	1.1	0.1	437.62
23668	3.3	1.	0.1	380.11
23669	3.2	1.3	0.1	516.1
23670	3.3	1.2	0.1	457.31
23671	3.2	1.5	0.1	589.57
23672	3.3	1.4	0.1	530.5
23673	3.2	1.7	0.1	656.76
23674	3.3	1.6	0.1	598.39
23675	3.2	1.9	0.1	716.51
23676	3.3	1.8	0.1	659.78
23677	3.2	2.1	0.1	767.82
23678	3.3	2.	0.1	713.59
23679	3.2	2.3	0.1	809.85
23680	3.3	2.2	0.1	758.9
23681	3.2	2.5	0.1	841.94
23682	3.3	2.4	0.1	794.93
23683	3.2	2.7	0.1	863.6
23684	3.3	2.6	0.1	821.09
23685	3.2	2.9	0.1	874.51
23686	3.3	2.8	0.1	836.95
23687	3.2	3.1	0.1	874.51
23688	3.3	3.	0.1	842.27
23689	3.2	3.3	0.1	863.6
23690	3.3	3.2	0.1	836.95
23691	3.2	3.5	0.1	841.94
23692	3.3	3.4	0.1	821.09
23693	3.2	3.7	0.1	809.85
23694	3.3	3.6	0.1	794.93
23695	3.2	3.9	0.1	767.82
23696	3.3	3.8	0.1	758.9
23697	3.2	4.1	0.1	716.51
23698	3.3	4.	0.1	713.59
23699	3.2	4.3	0.1	656.76
23700	3.3	4.2	0.1	659.78
23701	3.2	4.5	0.1	589.57
23702	3.3	4.4	0.1	598.39
23703	3.2	4.7	0.1	516.1
23704	3.3	4.6	0.1	530.5
23705	3.2	4.9	0.1	437.62
23706	3.3	4.8	0.1	457.31
23707	3.2	5.1	0.1	355.47
23708	3.3	5.	0.1	380.11
23709	3.2	5.3	0.1	271.01
23710	3.3	5.2	0.1	300.19
23711	3.2	5.5	0.1	185.37
23712	3.3	5.4	0.1	218.84
23713	3.2	5.7	0.1	98.638
23714	3.3	5.6	0.1	136.88
23715	3.3	5.8	0.1	53.982
23716	3.2	5.9	0.1	28.065
23717	3.4	0.3	0.1	91.782
23718	3.5	0.2	0.1	51.025
23719	3.4	0.1	0.1	27.164
23720	3.4	0.5	0.1	170.2
23721	3.5	0.4	0.1	125.7
23722	3.4	0.7	0.1	247.89
23723	3.5	0.6	0.1	199.87
23724	3.4	0.9	0.1	324.73
23725	3.5	0.8	0.1	273.74
23726	3.4	1.1	0.1	399.72
23727	3.5	1.	0.1	346.58
23728	3.4	1.3	0.1	471.65
23729	3.5	1.2	0.1	417.24
23730	3.4	1.5	0.1	539.29
23731	3.5	1.4	0.1	484.55
23732	3.4	1.7	0.1	601.41
23733	3.5	1.6	0.1	547.28
23734	3.4	1.9	0.1	656.9
23735	3.5	1.8	0.1	604.27
23736	3.4	2.1	0.1	704.75
23737	3.5	2.	0.1	654.45
23738	3.4	2.3	0.1	744.08
23739	3.5	2.2	0.1	696.86
23740	3.4	2.5	0.1	774.21
23741	3.5	2.4	0.1	730.71
23742	3.4	2.7	0.1	794.58
23743	3.5	2.6	0.1	755.35
23744	3.4	2.9	0.1	804.86
23745	3.5	2.8	0.1	770.32
23746	3.4	3.1	0.1	804.86
23747	3.5	3.	0.1	775.34
23748	3.4	3.3	0.1	794.58
23749	3.5	3.2	0.1	770.32
23750	3.4	3.5	0.1	774.21
23751	3.5	3.4	0.1	755.35
23752	3.4	3.7	0.1	744.08
23753	3.5	3.6	0.1	730.71
23754	3.4	3.9	0.1	704.75
23755	3.5	3.8	0.1	696.86
23756	3.4	4.1	0.1	656.9
23757	3.5	4.	0.1	654.45
23758	3.4	4.3	0.1	601.41
23759	3.5	4.2	0.1	604.27
23760	3.4	4.5	0.1	539.29
23761	3.5	4.4	0.1	547.28
23762	3.4	4.7	0.1	471.65
23763	3.5	4.6	0.1	484.55
23764	3.4	4.9	0.1	399.72
23765	3.5	4.8	0.1	417.24
23766	3.4	5.1	0.1	324.73
23767	3.5	5.	0.1	346.58
23768	3.4	5.3	0.1	247.89
23769	3.5	5.2	0.1	273.74
23770	3.4	5.5	0.1	170.2
23771	3.5	5.4	0.1	199.87
23772	3.4	5.7	0.1	91.782
23773	3.5	5.6	0.1	125.7
23774	3.5	5.8	0.1	51.025
23775	3.4	5.9	0.1	27.164
23776	3.6	0.3	0.1	84.589
23777	3.7	0.2	0.1	47.496
23778	3.6	0.1	0.1	25.809
23779	3.6	0.5	0.1	155.26
23780	3.7	0.4	0.1	114.43
23781	3.6	0.7	0.1	225.62
23782	3.7	0.6	0.1	181.34
23783	3.6	0.9	0.1	295.5
23784	3.7	0.8	0.1	248.32
23785	3.6	1.1	0.1	364.03
23786	3.7	1.	0.1	314.72
23787	3.6	1.3	0.1	430.09
23788	3.7	1.2	0.1	379.51
23789	3.6	1.5	0.1	492.51
23790	3.7	1.4	0.1	441.57
23791	3.6	1.7	0.1	550.13
23792	3.7	1.6	0.1	499.74
23793	3.6	1.9	0.1	601.84
23794	3.7	1.8	0.1	552.86
23795	3.6	2.1	0.1	646.62
23796	3.7	2.	0.1	599.86
23797	3.6	2.3	0.1	683.57
23798	3.7	2.2	0.1	639.76
23799	3.6	2.5	0.1	711.95
23800	3.7	2.4	0.1	671.71
23801	3.6	2.7	0.1	731.19
23802	3.7	2.6	0.1	695.03
23803	3.6	2.9	0.1	740.91
23804	3.7	2.8	0.1	709.23
23805	3.6	3.1	0.1	740.91
23806	3.7	3.	0.1	714.
23807	3.6	3.3	0.1	731.19
23808	3.7	3.2	0.1	709.23
23809	3.6	3.5	0.1	711.95
23810	3.7	3.4	0.1	695.03
23811	3.6	3.7	0.1	683.57
23812	3.7	3.6	0.1	671.71
23813	3.6	3.9	0.1	646.62
23814	3.7	3.8	0.1	639.76
23815	3.6	4.1	0.1	601.84
23816	3.7	4.	0.1	599.86
23817	3.6	4.3	0.1	550.13
23818	3.7	4.2	0.1	552.86
23819	3.6	4.5	0.1	492.51
23820	3.7	4.4	0.1	499.74
23821	3.6	4.7	0.1	430.09
23822	3.7	4.6	0.1	441.57
23823	3.6	4.9	0.1	364.03
23824	3.7	4.8	0.1	379.51
23825	3.6	5.1	0.1	295.5
23826	3.7	5.	0.1	314.72
23827	3.6	5.3	0.1	225.62
23828	3.7	5.2	0.1	248.32
23829	3.6	5.5	0.1	155.26
23830	3.7	5.4	0.1	181.34
23831	3.6	5.7	0.1	84.589
23832	3.7	5.6	0.1	114.43
23833	3.7	5.8	0.1	47.496
23834	3.6	5.9	0.1	25.809
23835	3.8	0.3	0.1	77.048
23836	3.9	0.2	0.1	43.434
23837	3.8	0.1	0.1	24.052
23838	3.8	0.5	0.1	140.41
23839	3.9	0.4	0.1	102.98
23840	3.8	0.7	0.1	203.95
23841	3.9	0.6	0.1	163.04
23842	3.8	0.9	0.1	267.46
23843	3.9	0.8	0.1	223.63
23844	3.8	1.1	0.1	330.14
23845	3.9	1.	0.1	284.17
23846	3.8	1.3	0.1	390.95
23847	3.9	1.2	0.1	343.69
23848	3.8	1.5	0.1	448.77
23849	3.9	1.4	0.1	401.11
23850	3.8	1.7	0.1	502.46
23851	3.9	1.6	0.1	455.31
23852	3.8	1.9	0.1	550.9
23853	3.9	1.8	0.1	505.12
23854	3.8	2.1	0.1	593.05
23855	3.9	2.	0.1	549.43
23856	3.8	2.3	0.1	627.97
23857	3.9	2.2	0.1	587.23
23858	3.8	2.5	0.1	654.88
23859	3.9	2.4	0.1	617.61
23860	3.8	2.7	0.1	673.16
23861	3.9	2.6	0.1	639.86
23862	3.8	2.9	0.1	682.41
23863	3.9	2.8	0.1	653.43
23864	3.8	3.1	0.1	682.41
23865	3.9	3.	0.1	657.99
23866	3.8	3.3	0.1	673.16
23867	3.9	3.2	0.1	653.43
23868	3.8	3.5	0.1	654.88
23869	3.9	3.4	0.1	639.86
23870	3.8	3.7	0.1	627.97
23871	3.9	3.6	0.1	617.61
23872	3.8	3.9	0.1	593.05
23873	3.9	3.8	0.1	587.23
23874	3.8	4.1	0.1	550.9
23875	3.9	4.	0.1	549.43
23876	3.8	4.3	0.1	502.46
23877	3.9	4.2	0.1	505.12
23878	3.8	4.5	0.1	448.77
23879	3.9	4.4	0.1	455.31
23880	3.8	4.7	0.1	390.95
23881	3.9	4.6	0.1	401.11
23882	3.8	4.9	0.1	330.14
23883	3.9	4.8	0.1	343.69
23884	3.8	5.1	0.1	267.46
23885	3.9	5.	0.1	284.17
23886	3.8	5.3	0.1	203.95
23887	3.9	5.2	0.1	223.63
23888	3.8	5.5	0.1	140.41
23889	3.9	5.4	0.1	163.04
23890	3.8	5.7	0.1	77.048
23891	3.9	5.6	0.1	102.98
23892	3.9	5.8	0.1	43.434
23893	3.8	5.9	0.1	24.052
23894	4.	0.3	0.1	69.134
23895	4.1	0.2	0.1	38.862
23896	4.	0.1	0.1	21.929
23897	4.	0.5	0.1	125.53
23898	4.1	0.4	0.1	91.261
23899	4.	0.7	0.1	182.65
23900	4.1	0.6	0.1	144.78
23901	4.	0.9	0.1	240.28
23902	4.1	0.8	0.1	199.4
23903	4.	1.1	0.1	297.67
23904	4.1	1.	0.1	254.57
23905	4.	1.3	0.1	353.82
23906	4.1	1.2	0.1	309.37
23907	4.	1.5	0.1	407.63
23908	4.1	1.4	0.1	362.75
23909	4.	1.7	0.1	457.96
23910	4.1	1.6	0.1	413.56
23911	4.	1.9	0.1	503.66
23912	4.1	1.8	0.1	460.61
23913	4.	2.1	0.1	543.65
23914	4.1	2.	0.1	502.75
23915	4.	2.3	0.1	576.93
23916	4.1	2.2	0.1	538.9
23917	4.	2.5	0.1	602.67
23918	4.1	2.4	0.1	568.09
23919	4.	2.7	0.1	620.21
23920	4.1	2.6	0.1	589.53
23921	4.	2.9	0.1	629.09
23922	4.1	2.8	0.1	602.64
23923	4.	3.1	0.1	629.09
23924	4.1	3.	0.1	607.05
23925	4.	3.3	0.1	620.21
23926	4.1	3.2	0.1	602.64
23927	4.	3.5	0.1	602.67
23928	4.1	3.4	0.1	589.53
23929	4.	3.7	0.1	576.93
23930	4.1	3.6	0.1	568.09
23931	4.	3.9	0.1	543.65
23932	4.1	3.8	0.1	538.9
23933	4.	4.1	0.1	503.66
23934	4.1	4.	0.1	502.75
23935	4.	4.3	0.1	457.96
23936	4.1	4.2	0.1	460.61
23937	4.	4.5	0.1	407.63
23938	4.1	4.4	0.1	413.56
23939	4.	4.7	0.1	353.82
23940	4.1	4.6	0.1	362.75
23941	4.	4.9	0.1	297.67
23942	4.1	4.8	0.1	309.37
23943	4.	5.1	0.1	240.28
23944	4.1	5.	0.1	254.57
23945	4.	5.3	0.1	182.65
23946	4.1	5.2	0.1	199.4
23947	4.	5.5	0.1	125.53
23948	4.1	5.4	0.1	144.78
23949	4.	5.7	0.1	69.134
23950	4.1	5.6	0.1	91.261
23951	4.1	5.8	0.1	38.862
23952	4.	5.9	0.1	21.929
23953	4.2	0.3	0.1	60.804
23954	4.3	0.2	0.1	33.782
23955	4.2	0.1	0.1	19.463
23956	4.2	0.5	0.1	110.46
23957	4.3	0.4	0.1	79.161
23958	4.2	0.7	0.1	161.48
23959	4.3	0.6	0.1	126.37
23960	4.2	0.9	0.1	213.65
23961	4.3	0.8	0.1	175.35
23962	4.2	1.1	0.1	266.24
23963	4.3	1.	0.1	225.58
23964	4.2	1.3	0.1	318.28
23965	4.3	1.2	0.1	276.17
23966	4.2	1.5	0.1	368.66
23967	4.3	1.4	0.1	326.06
23968	4.2	1.7	0.1	416.21
23969	4.3	1.6	0.1	374.06
23970	4.2	1.9	0.1	459.72
23971	4.3	1.8	0.1	418.93
23972	4.2	2.1	0.1	498.04
23973	4.3	2.	0.1	459.44
23974	4.2	2.3	0.1	530.1
23975	4.3	2.2	0.1	494.41
23976	4.2	2.5	0.1	555.01
23977	4.3	2.4	0.1	522.8
23978	4.2	2.7	0.1	572.03
23979	4.3	2.6	0.1	543.74
23980	4.2	2.9	0.1	580.67
23981	4.3	2.8	0.1	556.57
23982	4.2	3.1	0.1	580.67
23983	4.3	3.	0.1	560.9
23984	4.2	3.3	0.1	572.03
23985	4.3	3.2	0.1	556.57
23986	4.2	3.5	0.1	555.01
23987	4.3	3.4	0.1	543.74
23988	4.2	3.7	0.1	530.1
23989	4.3	3.6	0.1	522.8
23990	4.2	3.9	0.1	498.04
23991	4.3	3.8	0.1	494.41
23992	4.2	4.1	0.1	459.72
23993	4.3	4.	0.1	459.44
23994	4.2	4.3	0.1	416.21
23995	4.3	4.2	0.1	418.93
23996	4.2	4.5	0.1	368.66
23997	4.3	4.4	0.1	374.06
23998	4.2	4.7	0.1	318.28
23999	4.3	4.6	0.1	326.06
24000	4.2	4.9	0.1	266.24
24001	4.3	4.8	0.1	276.17
24002	4.2	5.1	0.1	213.65
24003	4.3	5.	0.1	225.58
24004	4.2	5.3	0.1	161.48
24005	4.3	5.2	0.1	175.35
24006	4.2	5.5	0.1	110.46
24007	4.3	5.4	0.1	126.37
24008	4.2	5.7	0.1	60.804
24009	4.3	5.6	0.1	79.161
24010	4.3	5.8	0.1	33.782
24011	4.2	5.9	0.1	19.463
24012	4.4	0.3	0.1	51.995
24013	4.5	0.2	0.1	28.181
24014	4.4	0.1	0.1	16.662
24015	4.4	0.5	0.1	95.031
24016	4.5	0.4	0.1	66.554
24017	4.4	0.7	0.1	140.2
24018	4.5	0.6	0.1	107.57
24019	4.4	0.9	0.1	187.25
24020	4.5	0.8	0.1	151.17
24021	4.4	1.1	0.1	235.49
24022	4.5	1.	0.1	196.84
24023	4.4	1.3	0.1	283.93
24024	4.5	1.2	0.1	243.69
24025	4.4	1.5	0.1	331.45
24026	4.5	1.4	0.1	290.62
24027	4.4	1.7	0.1	376.78
24028	4.5	1.6	0.1	336.38
24029	4.4	1.9	0.1	418.66
24030	4.5	1.8	0.1	379.65
24031	4.4	2.1	0.1	455.84
24032	4.5	2.	0.1	419.08
24033	4.4	2.3	0.1	487.14
24034	4.5	2.2	0.1	453.39
24035	4.4	2.5	0.1	511.57
24036	4.5	2.4	0.1	481.4
24037	4.4	2.7	0.1	528.33
24038	4.5	2.6	0.1	502.16
24039	4.4	2.9	0.1	536.85
24040	4.5	2.8	0.1	514.91
24041	4.4	3.1	0.1	536.85
24042	4.5	3.	0.1	519.22
24043	4.4	3.3	0.1	528.33
24044	4.5	3.2	0.1	514.91
24045	4.4	3.5	0.1	511.57
24046	4.5	3.4	0.1	502.16
24047	4.4	3.7	0.1	487.14
24048	4.5	3.6	0.1	481.4
24049	4.4	3.9	0.1	455.84
24050	4.5	3.8	0.1	453.39
24051	4.4	4.1	0.1	418.66
24052	4.5	4.	0.1	419.08
24053	4.4	4.3	0.1	376.78
24054	4.5	4.2	0.1	379.65
24055	4.4	4.5	0.1	331.45
24056	4.5	4.4	0.1	336.38
24057	4.4	4.7	0.1	283.93
24058	4.5	4.6	0.1	290.62
24059	4.4	4.9	0.1	235.49
24060	4.5	4.8	0.1	243.69
24061	4.4	5.1	0.1	187.25
24062	4.5	5.	0.1	196.84
24063	4.4	5.3	0.1	140.2
24064	4.5	5.2	0.1	151.17
24065	4.4	5.5	0.1	95.031
24066	4.5	5.4	0.1	107.57
24067	4.4	5.7	0.1	51.995
24068	4.5	5.6	0.1	66.554
24069	4.5	5.8	0.1	28.181
24070	4.4	5.9	0.1	16.662
24071	4.6	0.3	0.1	42.631
24072	4.7	0.2	0.1	22.027
24073	4.6	0.1	0.1	13.526
24074	4.6	0.5	0.1	79.071
24075	4.7	0.4	0.1	53.299
24076	4.6	0.7	0.1	118.53
24077	4.7	0.6	0.1	88.167
24078	4.6	0.9	0.1	160.75
24079	4.7	0.8	0.1	126.57
24080	4.6	1.1	0.1	205.03
24081	4.7	1.	0.1	167.99
24082	4.6	1.3	0.1	250.36
24083	4.7	1.2	0.1	211.51
24084	4.6	1.5	0.1	295.55
24085	4.7	1.4	0.1	255.99
24086	4.6	1.7	0.1	339.26
24087	4.7	1.6	0.1	300.08
24088	4.6	1.9	0.1	380.08
24089	4.7	1.8	0.1	342.33
24090	4.6	2.1	0.1	416.66
24091	4.7	2.	0.1	381.27
24092	4.6	2.3	0.1	447.68
24093	4.7	2.2	0.1	415.44
24094	4.6	2.5	0.1	472.02
24095	4.7	2.4	0.1	443.53
24096	4.6	2.7	0.1	488.78
24097	4.7	2.6	0.1	464.44
24098	4.6	2.9	0.1	497.32
24099	4.7	2.8	0.1	477.34
24100	4.6	3.1	0.1	497.32
24101	4.7	3.	0.1	481.69
24102	4.6	3.3	0.1	488.78
24103	4.7	3.2	0.1	477.34
24104	4.6	3.5	0.1	472.02
24105	4.7	3.4	0.1	464.44
24106	4.6	3.7	0.1	447.68
24107	4.7	3.6	0.1	443.53
24108	4.6	3.9	0.1	416.66
24109	4.7	3.8	0.1	415.44
24110	4.6	4.1	0.1	380.09
24111	4.7	4.	0.1	381.27
24112	4.6	4.3	0.1	339.26
24113	4.7	4.2	0.1	342.33
24114	4.6	4.5	0.1	295.55
24115	4.7	4.4	0.1	300.08
24116	4.6	4.7	0.1	250.36
24117	4.7	4.6	0.1	255.99
24118	4.6	4.9	0.1	205.03
24119	4.7	4.8	0.1	211.51
24120	4.6	5.1	0.1	160.75
24121	4.7	5.	0.1	167.99
24122	4.6	5.3	0.1	118.53
24123	4.7	5.2	0.1	126.57
24124	4.6	5.5	0.1	79.071
24125	4.7	5.4	0.1	88.167
24126	4.6	5.7	0.1	42.631
24127	4.7	5.6	0.1	53.299
24128	4.7	5.8	0.1	22.027
24129	4.6	5.9	0.1	13.526
24130	4.8	0.3	0.1	32.616
24131	4.9	0.2	0.1	15.28
24132	4.8	0.1	0.1	10.04
24133	4.8	0.5	0.1	62.384
24134	4.9	0.4	0.1	39.244
24135	4.8	0.7	0.1	96.202
24136	4.9	0.6	0.1	67.912
24137	4.8	0.9	0.1	133.81
24138	4.9	0.8	0.1	101.23
24139	4.8	1.1	0.1	174.47
24140	4.9	1.	0.1	138.64
24141	4.8	1.3	0.1	217.13
24142	4.9	1.2	0.1	179.2
24143	4.8	1.5	0.1	260.52
24144	4.9	1.4	0.1	221.69
24145	4.8	1.7	0.1	303.17
24146	4.9	1.6	0.1	264.66
24147	4.8	1.9	0.1	343.54
24148	4.9	1.8	0.1	306.5
24149	4.8	2.1	0.1	380.07
24150	4.9	2.	0.1	345.54
24151	4.8	2.3	0.1	411.32
24152	4.9	2.2	0.1	380.14
24153	4.8	2.5	0.1	435.98
24154	4.9	2.4	0.1	408.78
24155	4.8	2.7	0.1	453.03
24156	4.9	2.6	0.1	430.22
24157	4.8	2.9	0.1	461.74
24158	4.9	2.8	0.1	443.48
24159	4.8	3.1	0.1	461.74
24160	4.9	3.	0.1	447.97
24161	4.8	3.3	0.1	453.03
24162	4.9	3.2	0.1	443.48
24163	4.8	3.5	0.1	435.98
24164	4.9	3.4	0.1	430.22
24165	4.8	3.7	0.1	411.32
24166	4.9	3.6	0.1	408.78
24167	4.8	3.9	0.1	380.07
24168	4.9	3.8	0.1	380.14
24169	4.8	4.1	0.1	343.54
24170	4.9	4.	0.1	345.54
24171	4.8	4.3	0.1	303.17
24172	4.9	4.2	0.1	306.5
24173	4.8	4.5	0.1	260.52
24174	4.9	4.4	0.1	264.66
24175	4.8	4.7	0.1	217.13
24176	4.9	4.6	0.1	221.69
24177	4.8	4.9	0.1	174.47
24178	4.9	4.8	0.1	179.2
24179	4.8	5.1	0.1	133.81
24180	4.9	5.	0.1	138.64
24181	4.8	5.3	0.1	96.202
24182	4.9	5.2	0.1	101.23
24183	4.8	5.5	0.1	62.384
24184	4.9	5.4	0.1	67.912
24185	4.8	5.7	0.1	32.616
24186	4.9	5.6	0.1	39.244
24187	4.9	5.8	0.1	15.28
24188	4.8	5.9	0.1	10.04
24189	5.	0.3	0.1	21.854
24190	5.1	0.2	0.1	7.9183
24191	5.	0.1	0.1	6.1873
24192	5.	0.5	0.1	44.772
24193	5.1	0.4	0.1	24.25
24194	5.	0.7	0.1	72.935
24195	5.1	0.6	0.1	46.572
24196	5.	0.9	0.1	106.06
24197	5.1	0.8	0.1	74.81
24198	5.	1.1	0.1	143.37
24199	5.1	1.	0.1	108.38
24200	5.	1.3	0.1	183.77
24201	5.1	1.2	0.1	146.28
24202	5.	1.5	0.1	225.85
24203	5.1	1.4	0.1	187.22
24204	5.	1.7	0.1	268.02
24205	5.1	1.6	0.1	229.61
24206	5.	1.9	0.1	308.53
24207	5.1	1.8	0.1	271.63
24208	5.	2.1	0.1	345.63
24209	5.1	2.	0.1	311.39
24210	5.	2.3	0.1	377.63
24211	5.1	2.2	0.1	346.99
24212	5.	2.5	0.1	403.05
24213	5.1	2.4	0.1	376.7
24214	5.	2.7	0.1	420.69
24215	5.1	2.6	0.1	399.04
24216	5.	2.9	0.1	429.73
24217	5.1	2.8	0.1	412.91
24218	5.	3.1	0.1	429.73
24219	5.1	3.	0.1	417.6
24220	5.	3.3	0.1	420.69
24221	5.1	3.2	0.1	412.91
24222	5.	3.5	0.1	403.05
24223	5.1	3.4	0.1	399.04
24224	5.	3.7	0.1	377.63
24225	5.1	3.6	0.1	376.7
24226	5.	3.9	0.1	345.63
24227	5.1	3.8	0.1	346.99
24228	5.	4.1	0.1	308.53
24229	5.1	4.	0.1	311.39
24230	5.	4.3	0.1	268.02
24231	5.1	4.2	0.1	271.63
24232	5.	4.5	0.1	225.85
24233	5.1	4.4	0.1	229.61
24234	5.	4.7	0.1	183.77
24235	5.1	4.6	0.1	187.22
24236	5.	4.9	0.1	143.37
24237	5.1	4.8	0.1	146.28
24238	5.	5.1	0.1	106.06
24239	5.1	5.	0.1	108.38
24240	5.	5.3	0.1	72.935
24241	5.1	5.2	0.1	74.81
24242	5.	5.5	0.1	44.772
24243	5.1	5.4	0.1	46.572
24244	5.	5.7	0.1	21.854
24245	5.1	5.6	0.1	24.25
24246	5.1	5.8	0.1	7.9183
24247	5.	5.9	0.1	6.1873
24248	5.2	0.3	0.1	10.288
24249	5.3	0.2	0.1	0.87111
24250	5.2	0.1	0.1	1.9772
24251	5.2	0.5	0.1	26.066
24252	5.3	0.4	0.1	8.3672
24253	5.2	0.7	0.1	48.455
24254	5.3	0.6	0.1	23.993
24255	5.2	0.9	0.1	77.133
24256	5.3	0.8	0.1	47.032
24257	5.2	1.1	0.1	111.29
24258	5.3	1.	0.1	76.794
24259	5.2	1.3	0.1	149.75
24260	5.3	1.2	0.1	112.25
24261	5.2	1.5	0.1	190.99
24262	5.3	1.4	0.1	151.99
24263	5.2	1.7	0.1	233.23
24264	5.3	1.6	0.1	194.28
24265	5.2	1.9	0.1	274.5
24266	5.3	1.8	0.1	237.08
24267	5.2	2.1	0.1	312.77
24268	5.3	2.	0.1	278.19
24269	5.2	2.3	0.1	346.09
24270	5.3	2.2	0.1	315.42
24271	5.2	2.5	0.1	372.72
24272	5.3	2.4	0.1	346.72
24273	5.2	2.7	0.1	391.28
24274	5.3	2.6	0.1	370.36
24275	5.2	2.9	0.1	400.81
24276	5.3	2.8	0.1	385.08
24277	5.2	3.1	0.1	400.81
24278	5.3	3.	0.1	390.07
24279	5.2	3.3	0.1	391.28
24280	5.3	3.2	0.1	385.08
24281	5.2	3.5	0.1	372.72
24282	5.3	3.4	0.1	370.36
24283	5.2	3.7	0.1	346.09
24284	5.3	3.6	0.1	346.72
24285	5.2	3.9	0.1	312.77
24286	5.3	3.8	0.1	315.42
24287	5.2	4.1	0.1	274.5
24288	5.3	4.	0.1	278.19
24289	5.2	4.3	0.1	233.23
24290	5.3	4.2	0.1	237.08
24291	5.2	4.5	0.1	190.99
24292	5.3	4.4	0.1	194.28
24293	5.2	4.7	0.1	149.75
24294	5.3	4.6	0.1	151.99
24295	5.2	4.9	0.1	111.29
24296	5.3	4.8	0.1	112.25
24297	5.2	5.1	0.1	77.133
24298	5.3	5.	0.1	76.794
24299	5.2	5.3	0.1	48.455
24300	5.3	5.2	0.1	47.032
24301	5.2	5.5	0.1	26.066
24302	5.3	5.4	0.1	23.993
24303	5.2	5.7	0.1	10.288
24304	5.3	5.6	0.1	8.3672
24305	5.3	5.8	0.1	0.87112
24306	5.2	5.9	0.1	1.9772
24307	5.4	0.3	0.1	0.57802
24308	5.5	0.2	0.1	-5.7753e-002
24309	5.4	0.1	0.1	-5.8603e-002
24310	5.4	0.5	0.1	6.5833
24311	5.5	0.4	0.1	0.34866
24312	5.4	0.7	0.1	22.63
24313	5.5	0.6	0.1	2.6294
24314	5.4	0.9	0.1	46.706
24315	5.5	0.8	0.1	17.937
24316	5.4	1.1	0.1	77.748
24317	5.5	1.	0.1	43.54
24318	5.4	1.3	0.1	114.49
24319	5.5	1.2	0.1	76.528
24320	5.4	1.5	0.1	155.28
24321	5.5	1.4	0.1	115.3
24322	5.4	1.7	0.1	198.13
24323	5.5	1.6	0.1	157.92
24324	5.4	1.9	0.1	240.78
24325	5.5	1.8	0.1	202.08
24326	5.4	2.1	0.1	280.86
24327	5.5	2.	0.1	245.22
24328	5.4	2.3	0.1	316.08
24329	5.5	2.2	0.1	284.71
24330	5.4	2.5	0.1	344.39
24331	5.5	2.4	0.1	318.14
24332	5.4	2.7	0.1	364.19
24333	5.5	2.6	0.1	343.49
24334	5.4	2.9	0.1	374.37
24335	5.5	2.8	0.1	359.29
24336	5.4	3.1	0.1	374.37
24337	5.5	3.	0.1	364.65
24338	5.4	3.3	0.1	364.19
24339	5.5	3.2	0.1	359.29
24340	5.4	3.5	0.1	344.39
24341	5.5	3.4	0.1	343.49
24342	5.4	3.7	0.1	316.08
24343	5.5	3.6	0.1	318.14
24344	5.4	3.9	0.1	280.86
24345	5.5	3.8	0.1	284.71
24346	5.4	4.1	0.1	240.78
24347	5.5	4.	0.1	245.22
24348	5.4	4.3	0.1	198.13
24349	5.5	4.2	0.1	202.08
24350	5.4	4.5	0.1	155.28
24351	5.5	4.4	0.1	157.92
24352	5.4	4.7	0.1	114.49
24353	5.5	4.6	0.1	115.3
24354	5.4	4.9	0.1	77.748
24355	5.5	4.8	0.1	76.528
24356	5.4	5.1	0.1	46.706
24357	5.5	5.	0.1	43.54
24358	5.4	5.3	0.1	22.63
24359	5.5	5.2	0.1	17.937
24360	5.4	5.5	0.1	6.5833
24361	5.5	5.4	0.1	2.6294
24362	5.4	5.7	0.1	0.57802
24363	5.5	5.6	0.1	0.34867
24364	5.5	5.8	0.1	-5.7752e-002
24365	5.4	5.9	0.1	-5.8602e-002
24366	5.6	0.3	0.1	1.4166e-002
24367	5.7	0.2	0.1	-0.15344
24368	5.6	0.1	0.1	-0.12343
24369	5.6	0.5	0.1	0.33093
24370	5.7	0.4	0.1	0.13043
24371	5.6	0.7	0.1	1.6551
24372	5.7	0.6	0.1	0.29903
24373	5.6	0.9	0.1	15.074
24374	5.7	0.8	0.1	1.1383
24375	5.6	1.1	0.1	42.342
24376	5.7	1.	0.1	9.9582
24377	5.6	1.3	0.1	77.321
24378	5.7	1.2	0.1	38.696
24379	5.6	1.5	0.1	117.92
24380	5.7	1.4	0.1	76.335
24381	5.6	1.7	0.1	161.86
24382	5.7	1.6	0.1	119.57
24383	5.6	1.9	0.1	206.52
24384	5.7	1.8	0.1	165.64
24385	5.6	2.1	0.1	249.07
24386	5.7	2.	0.1	211.48
24387	5.6	2.3	0.1	286.79
24388	5.7	2.2	0.1	253.92
24389	5.6	2.5	0.1	317.26
24390	5.7	2.4	0.1	290.03
24391	5.6	2.7	0.1	338.62
24392	5.7	2.6	0.1	317.47
24393	5.6	2.9	0.1	349.61
24394	5.7	2.8	0.1	334.56
24395	5.6	3.1	0.1	349.61
24396	5.7	3.	0.1	340.36
24397	5.6	3.3	0.1	338.62
24398	5.7	3.2	0.1	334.56
24399	5.6	3.5	0.1	317.26
24400	5.7	3.4	0.1	317.47
24401	5.6	3.7	0.1	286.79
24402	5.7	3.6	0.1	290.03
24403	5.6	3.9	0.1	249.07
24404	5.7	3.8	0.1	253.92
24405	5.6	4.1	0.1	206.52
24406	5.7	4.	0.1	211.48
24407	5.6	4.3	0.1	161.86
24408	5.7	4.2	0.1	165.64
24409	5.6	4.5	0.1	117.92
24410	5.7	4.4	0.1	119.57
24411	5.6	4.7	0.1	77.321
24412	5.7	4.6	0.1	76.335
24413	5.6	4.9	0.1	42.342
24414	5.7	4.8	0.1	38.697
24415	5.6	5.1	0.1	15.074
24416	5.7	5.	0.1	9.9583
24417	5.6	5.3	0.1	1.6551
24418	5.7	5.2	0.1	1.1384
24419	5.6	5.5	0.1	0.33094
24420	5.7	5.4	0.1	0.29903
24421	5.6	5.7	0.1	1.4168e-002
24422	5.7	5.6	0.1	0.13043
24423	5.7	5.8	0.1	-0.15343
24424	5.6	5.9	0.1	-0.12343
24425	5.8	0.3	0.1	-5.2111e-002
24426	5.9	0.2	0.1	-0.21825
24427	5.8	0.1	0.1	-0.15889
24428	5.8	0.5	0.1	0.13874
24429	5.9	0.4	0.1	0.10975
24430	5.8	0.7	0.1	0.3605
24431	5.9	0.6	0.1	0.13693
24432	5.8	0.9	0.1	1.1128
24433	5.9	0.8	0.1	0.42951
24434	5.8	1.1	0.1	7.8066
24435	5.9	1.	0.1	1.0836
24436	5.8	1.3	0.1	37.743
24437	5.9	1.2	0.1	5.2807
24438	5.8	1.5	0.1	77.929
24439	5.9	1.4	0.1	34.553
24440	5.8	1.7	0.1	123.3
24441	5.9	1.6	0.1	78.009
24442	5.8	1.9	0.1	170.58
24443	5.9	1.8	0.1	126.43
24444	5.8	2.1	0.1	216.32
24445	5.9	2.	0.1	175.69
24446	5.8	2.3	0.1	257.17
24447	5.9	2.2	0.1	221.8
24448	5.8	2.5	0.1	290.27
24449	5.9	2.4	0.1	261.15
24450	5.8	2.7	0.1	313.46
24451	5.9	2.6	0.1	290.99
24452	5.8	2.9	0.1	325.38
24453	5.9	2.8	0.1	309.52
24454	5.8	3.1	0.1	325.38
24455	5.9	3.	0.1	315.79
24456	5.8	3.3	0.1	313.46
24457	5.9	3.2	0.1	309.52
24458	5.8	3.5	0.1	290.27
24459	5.9	3.4	0.1	290.99
24460	5.8	3.7	0.1	257.17
24461	5.9	3.6	0.1	261.15
24462	5.8	3.9	0.1	216.32
24463	5.9	3.8	0.1	221.8
24464	5.8	4.1	0.1	170.58
24465	5.9	4.	0.1	175.69
24466	5.8	4.3	0.1	123.3
24467	5.9	4.2	0.1	126.43
24468	5.8	4.5	0.1	77.93
24469	5.9	4.4	0.1	78.009
24470	5.8	4.7	0.1	37.743
24471	5.9	4.6	0.1	34.554
24472	5.8	4.9	0.1	7.8066
24473	5.9	4.8	0.1	5.2807
24474	5.8	5.1	0.1	1.1128
24475	5.9	5.	0.1	1.0836
24476	5.8	5.3	0.1	0.3605
24477	5.9	5.2	0.1	0.42951
24478	5.8	5.5	0.1	0.13874
24479	5.9	5.4	0.1	0.13693
24480	5.8	5.7	0.1	-5.2109e-002
24481	5.9	5.6	0.1	0.10976
24482	5.9	5.8	0.1	-0.21825
24483	5.8	5.9	0.1	-0.15888
24484	6.	0.3	0.1	-8.9149e-002
24485	6.1	0.2	0.1	-0.29501
24486	6.	0.1	0.1	-0.19453
24487	6.	0.5	0.1	9.8978e-002
24488	6.1	0.4	0.1	0.11517
24489	6.	0.7	0.1	0.21362
24490	6.1	0.6	0.1	8.5037e-002
24491	6.	0.9	0.1	0.51866
24492	6.1	0.8	0.1	0.30733
24493	6.	1.1	0.1	1.1929
24494	6.1	1.	0.1	0.61372
24495	6.	1.3	0.1	4.9049
24496	6.1	1.2	0.1	1.2807
24497	6.	1.5	0.1	34.634
24498	6.1	1.4	0.1	4.2387
24499	6.	1.7	0.1	81.004
24500	6.1	1.6	0.1	32.493
24501	6.	1.9	0.1	131.44
24502	6.1	1.8	0.1	82.65
24503	6.	2.1	0.1	181.12
24504	6.1	2.	0.1	136.05
24505	6.	2.3	0.1	225.78
24506	6.1	2.2	0.1	186.65
24507	6.	2.5	0.1	261.93
24508	6.1	2.4	0.1	229.79
24509	6.	2.7	0.1	287.14
24510	6.1	2.6	0.1	262.23
24511	6.	2.9	0.1	300.04
24512	6.1	2.8	0.1	282.17
24513	6.	3.1	0.1	300.04
24514	6.1	3.	0.1	288.87
24515	6.	3.3	0.1	287.14
24516	6.1	3.2	0.1	282.17
24517	6.	3.5	0.1	261.93
24518	6.1	3.4	0.1	262.23
24519	6.	3.7	0.1	225.78
24520	6.1	3.6	0.1	229.79
24521	6.	3.9	0.1	181.12
24522	6.1	3.8	0.1	186.65
24523	6.	4.1	0.1	131.44
24524	6.1	4.	0.1	136.05
24525	6.	4.3	0.1	81.004
24526	6.1	4.2	0.1	82.65
24527	6.	4.5	0.1	34.635
24528	6.1	4.4	0.1	32.493
24529	6.	4.7	0.1	4.9049
24530	6.1	4.6	0.1	4.2388
24531	6.	4.9	0.1	1.1929
24532	6.1	4.8	0.1	1.2807
24533	6.	5.1	0.1	0.51866
24534	6.1	5.	0.1	0.61373
24535	6.	5.3	0.1	0.21362
24536	6.1	5.2	0.1	0.30733
24537	6.	5.5	0.1	9.8979e-002
24538	6.1	5.4	0.1	8.5039e-002
24539	6.	5.7	0.1	-8.9148e-002
24540	6.1	5.6	0.1	0.11517
24541	6.1	5.8	0.1	-0.29501
24542	6.	5.9	0.1	-0.19453
24543	6.2	0.3	0.1	-0.12956
24544	6.3	0.2	0.1	-0.39672
24545	6.2	0.1	0.1	-0.23387
24546	6.2	0.5	0.1	8.8038e-002
24547	6.3	0.4	0.1	0.12171
24548	6.2	0.7	0.1	0.17062
24549	6.3	0.6	0.1	6.4251e-002
24550	6.2	0.9	0.1	0.40085
24551	6.3	0.8	0.1	0.27698
24552	6.2	1.1	0.1	0.74103
24553	6.3	1.	0.1	0.50651
24554	6.2	1.3	0.1	1.4536
24555	6.3	1.2	0.1	0.87251
24556	6.2	1.5	0.1	4.4733
24557	6.3	1.4	0.1	1.5977
24558	6.2	1.7	0.1	33.981
24559	6.3	1.6	0.1	4.3591
24560	6.2	1.9	0.1	87.024
24561	6.3	1.8	0.1	33.183
24562	6.2	2.1	0.1	141.43
24563	6.3	2.	0.1	90.101
24564	6.2	2.3	0.1	190.62
24565	6.3	2.2	0.1	146.09
24566	6.2	2.5	0.1	230.15
24567	6.3	2.4	0.1	193.53
24568	6.2	2.7	0.1	257.4
24569	6.3	2.6	0.1	228.51
24570	6.2	2.9	0.1	271.19
24571	6.3	2.8	0.1	249.55
24572	6.2	3.1	0.1	271.19
24573	6.3	3.	0.1	256.53
24574	6.2	3.3	0.1	257.4
24575	6.3	3.2	0.1	249.55
24576	6.2	3.5	0.1	230.15
24577	6.3	3.4	0.1	228.51
24578	6.2	3.7	0.1	190.62
24579	6.3	3.6	0.1	193.53
24580	6.2	3.9	0.1	141.43
24581	6.3	3.8	0.1	146.09
24582	6.2	4.1	0.1	87.024
24583	6.3	4.	0.1	90.101
24584	6.2	4.3	0.1	33.981
24585	6.3	4.2	0.1	33.183
24586	6.2	4.5	0.1	4.4733
24587	6.3	4.4	0.1	4.3591
24588	6.2	4.7	0.1	1.4536
24589	6.3	4.6	0.1	1.5977
24590	6.2	4.9	0.1	0.74104
24591	6.3	4.8	0.1	0.87252
24592	6.2	5.1	0.1	0.40085
24593	6.3	5.	0.1	0.50652
24594	6.2	5.3	0.1	0.17062
24595	6.3	5.2	0.1	0.27698
24596	6.2	5.5	0.1	8.8039e-002
24597	6.3	5.4	0.1	6.4253e-002
24598	6.2	5.7	0.1	-0.12956
24599	6.3	5.6	0.1	0.12171
24600	6.3	5.8	0.1	-0.39672
24601	6.2	5.9	0.1	-0.23387
24602	6.4	0.3	0.1	-0.18312
24603	6.5	0.2	0.1	-0.52409
24604	6.4	0.1	0.1	-0.27744
24605	6.4	0.5	0.1	8.5388e-002
24606	6.5	0.4	0.1	0.12146
24607	6.4	0.7	0.1	0.1627
24608	6.5	0.6	0.1	6.2488e-002
24609	6.4	0.9	0.1	0.37636
24610	6.5	0.8	0.1	0.28474
24611	6.4	1.1	0.1	0.63393
24612	6.5	1.	0.1	0.49003
24613	6.4	1.3	0.1	1.0302
24614	6.5	1.2	0.1	0.7714
24615	6.4	1.5	0.1	1.8123
24616	6.5	1.4	0.1	1.1926
24617	6.4	1.7	0.1	4.7891
24618	6.5	1.6	0.1	2.0085
24619	6.4	1.9	0.1	35.792
24620	6.5	1.8	0.1	4.8982
24621	6.4	2.1	0.1	94.442
24622	6.5	2.	0.1	36.084
24623	6.4	2.3	0.1	148.89
24624	6.5	2.2	0.1	96.893
24625	6.4	2.5	0.1	191.98
24626	6.5	2.4	0.1	148.98
24627	6.4	2.7	0.1	220.93
24628	6.5	2.6	0.1	185.99
24629	6.4	2.9	0.1	235.26
24630	6.5	2.8	0.1	207.32
24631	6.4	3.1	0.1	235.26
24632	6.5	3.	0.1	214.2
24633	6.4	3.3	0.1	220.93
24634	6.5	3.2	0.1	207.32
24635	6.4	3.5	0.1	191.98
24636	6.5	3.4	0.1	185.99
24637	6.4	3.7	0.1	148.89
24638	6.5	3.6	0.1	148.98
24639	6.4	3.9	0.1	94.442
24640	6.5	3.8	0.1	96.894
24641	6.4	4.1	0.1	35.792
24642	6.5	4.	0.1	36.084
24643	6.4	4.3	0.1	4.7891
24644	6.5	4.2	0.1	4.8982
24645	6.4	4.5	0.1	1.8123
24646	6.5	4.4	0.1	2.0085
24647	6.4	4.7	0.1	1.0302
24648	6.5	4.6	0.1	1.1926
24649	6.4	4.9	0.1	0.63393
24650	6.5	4.8	0.1	0.77141
24651	6.4	5.1	0.1	0.37637
24652	6.5	5.	0.1	0.49003
24653	6.4	5.3	0.1	0.1627
24654	6.5	5.2	0.1	0.28474
24655	6.4	5.5	0.1	8.5389e-002
24656	6.5	5.4	0.1	6.2489e-002
24657	6.4	5.7	0.1	-0.18312
24658	6.5	5.6	0.1	0.12146
24659	6.5	5.8	0.1	-0.52409
24660	6.4	5.9	0.1	-0.27744
24661	6.6	0.3	0.1	-0.24635
24662	6.7	0.2	0.1	-0.66186
24663	6.6	0.1	0.1	-0.3196
24664	6.6	0.5	0.1	8.9967e-002
24665	6.7	0.4	0.1	0.11224
24666	6.6	0.7	0.1	0.18014
24667	6.7	0.6	0.1	7.9006e-002
24668	6.6	0.9	0.1	0.39527
24669	6.7	0.8	0.1	0.31335
24670	6.6	1.1	0.1	0.62433
24671	6.7	1.	0.1	0.51082
24672	6.6	1.3	0.1	0.92946
24673	6.7	1.2	0.1	0.76363
24674	6.6	1.5	0.1	1.3869
24675	6.7	1.4	0.1	1.0807
24676	6.6	1.7	0.1	2.2437
24677	6.7	1.6	0.1	1.5327
24678	6.6	1.9	0.1	5.2954
24679	6.7	1.8	0.1	2.4132
24680	6.6	2.1	0.1	37.856
24681	6.7	2.	0.1	5.2548
24682	6.6	2.3	0.1	96.776
24683	6.7	2.2	0.1	36.403
24684	6.6	2.5	0.1	143.18
24685	6.7	2.4	0.1	91.48
24686	6.6	2.7	0.1	172.89
24687	6.7	2.6	0.1	129.1
24688	6.6	2.9	0.1	186.95
24689	6.7	2.8	0.1	149.03
24690	6.6	3.1	0.1	186.95
24691	6.7	3.	0.1	155.08
24692	6.6	3.3	0.1	172.89
24693	6.7	3.2	0.1	149.03
24694	6.6	3.5	0.1	143.18
24695	6.7	3.4	0.1	129.1
24696	6.6	3.7	0.1	96.776
24697	6.7	3.6	0.1	91.48
24698	6.6	3.9	0.1	37.857
24699	6.7	3.8	0.1	36.404
24700	6.6	4.1	0.1	5.2954
24701	6.7	4.	0.1	5.2548
24702	6.6	4.3	0.1	2.2437
24703	6.7	4.2	0.1	2.4132
24704	6.6	4.5	0.1	1.3869
24705	6.7	4.4	0.1	1.5327
24706	6.6	4.7	0.1	0.92946
24707	6.7	4.6	0.1	1.0807
24708	6.6	4.9	0.1	0.62433
24709	6.7	4.8	0.1	0.76364
24710	6.6	5.1	0.1	0.39527
24711	6.7	5.	0.1	0.51082
24712	6.6	5.3	0.1	0.18014
24713	6.7	5.2	0.1	0.31335
24714	6.6	5.5	0.1	8.9967e-002
24715	6.7	5.4	0.1	7.9007e-002
24716	6.6	5.7	0.1	-0.24634
24717	6.7	5.6	0.1	0.11224
24718	6.7	5.8	0.1	-0.66186
24719	6.6	5.9	0.1	-0.3196
24720	6.8	0.3	0.1	-0.30638
24721	6.9	0.2	0.1	-0.72823
24722	6.8	0.1	0.1	-0.36188
24723	6.8	0.5	0.1	0.10167
24724	6.9	0.4	0.1	0.13272
24725	6.8	0.7	0.1	0.21387
24726	6.9	0.6	0.1	0.14727
24727	6.8	0.9	0.1	0.43066
24728	6.9	0.8	0.1	0.38071
24729	6.8	1.1	0.1	0.65198
24730	6.9	1.	0.1	0.57331
24731	6.8	1.3	0.1	0.91451
24732	6.9	1.2	0.1	0.80156
24733	6.8	1.5	0.1	1.2179
24734	6.9	1.4	0.1	1.1285
24735	6.8	1.7	0.1	1.6801
24736	6.9	1.6	0.1	1.6508
24737	6.8	1.9	0.1	2.4427
24738	6.9	1.8	0.1	1.9865
24739	6.8	2.1	0.1	4.834
24740	6.9	2.	0.1	2.7617
24741	6.8	2.3	0.1	31.024
24742	6.9	2.2	0.1	4.2763
24743	6.8	2.5	0.1	77.794
24744	6.9	2.4	0.1	18.087
24745	6.8	2.7	0.1	106.22
24746	6.9	2.6	0.1	49.885
24747	6.8	2.9	0.1	118.48
24748	6.9	2.8	0.1	65.458
24749	6.8	3.1	0.1	118.48
24750	6.9	3.	0.1	69.585
24751	6.8	3.3	0.1	106.22
24752	6.9	3.2	0.1	65.458
24753	6.8	3.5	0.1	77.794
24754	6.9	3.4	0.1	49.885
24755	6.8	3.7	0.1	31.025
24756	6.9	3.6	0.1	18.087
24757	6.8	3.9	0.1	4.8341
24758	6.9	3.8	0.1	4.2764
24759	6.8	4.1	0.1	2.4427
24760	6.9	4.	0.1	2.7617
24761	6.8	4.3	0.1	1.6801
24762	6.9	4.2	0.1	1.9865
24763	6.8	4.5	0.1	1.2179
24764	6.9	4.4	0.1	1.6508
24765	6.8	4.7	0.1	0.91451
24766	6.9	4.6	0.1	1.1285
24767	6.8	4.9	0.1	0.65198
24768	6.9	4.8	0.1	0.80156
24769	6.8	5.1	0.1	0.43066
24770	6.9	5.	0.1	0.57331
24771	6.8	5.3	0.1	0.21388
24772	6.9	5.2	0.1	0.38071
24773	6.8	5.5	0.1	0.10168
24774	6.9	5.4	0.1	0.14727
24775	6.8	5.7	0.1	-0.30638
24776	6.9	5.6	0.1	0.13272
24777	6.9	5.8	0.1	-0.72823
24778	6.8	5.9	0.1	-0.36188
24779	7.	0.3	0.1	-0.25087
24780	7.1	0.2	0.1	-0.59263
24781	7.	0.1	0.1	-0.34078
24782	7.	0.5	0.1	0.19604
24783	7.1	0.4	0.1	0.21522
24784	7.	0.7	0.1	0.32385
24785	7.1	0.6	0.1	0.25967
24786	7.	0.9	0.1	0.52959
24787	7.1	0.8	0.1	0.42466
24788	7.	1.1	0.1	0.72988
24789	7.1	1.	0.1	0.5531
24790	7.	1.3	0.1	1.0228
24791	7.1	1.2	0.1	0.8304
24792	7.	1.5	0.1	1.5598
24793	7.1	1.4	0.1	1.2532
24794	7.	1.7	0.1	1.9328
24795	7.1	1.6	0.1	0.92065
24796	7.	1.9	0.1	2.2901
24797	7.1	1.8	0.1	1.8338
24798	7.	2.1	0.1	2.7405
24799	7.1	2.	0.1	0.88249
24800	7.	2.3	0.1	2.5985
24801	7.1	2.2	0.1	0.10933
24802	7.	2.5	0.1	3.1384
24803	7.1	2.4	0.1	0.62156
24804	7.	2.7	0.1	11.67
24805	7.1	2.6	0.1	-0.33763
24806	7.	2.9	0.1	19.015
24807	7.1	2.8	0.1	-0.46338
24808	7.	3.1	0.1	19.015
24809	7.1	3.	0.1	-0.44639
24810	7.	3.3	0.1	11.67
24811	7.1	3.2	0.1	-0.46338
24812	7.	3.5	0.1	3.1384
24813	7.1	3.4	0.1	-0.33763
24814	7.	3.7	0.1	2.5985
24815	7.1	3.6	0.1	0.62156
24816	7.	3.9	0.1	2.7405
24817	7.1	3.8	0.1	0.10934
24818	7.	4.1	0.1	2.2901
24819	7.1	4.	0.1	0.88249
24820	7.	4.3	0.1	1.9328
24821	7.1	4.2	0.1	1.8338
24822	7.	4.5	0.1	1.5598
24823	7.1	4.4	0.1	0.92065
24824	7.	4.7	0.1	1.0229
24825	7.1	4.6	0.1	1.2532
24826	7.	4.9	0.1	0.72989
24827	7.1	4.8	0.1	0.8304
24828	7.	5.1	0.1	0.52959
24829	7.1	5.	0.1	0.5531
24830	7.	5.3	0.1	0.32386
24831	7.1	5.2	0.1	0.42466
24832	7.	5.5	0.1	0.19604
24833	7.1	5.4	0.1	0.25967
24834	7.	5.7	0.1	-0.25087
24835	7.1	5.6	0.1	0.21522
24836	7.1	5.8	0.1	-0.59263
24837	7.	5.9	0.1	-0.34078
24838	7.2	0.3	0.1	-1.6267e-002
24839	7.3	0.2	0.1	0.48327
24840	7.2	0.1	0.1	-0.35301
24841	7.2	0.5	0.1	0.32333
24842	7.3	0.4	0.1	0.87669
24843	7.2	0.7	0.1	0.37489
24844	7.3	0.6	0.1	0.78259
24845	7.2	0.9	0.1	0.45384
24846	7.3	0.8	0.1	0.74554
24847	7.2	1.1	0.1	0.6623
24848	7.3	1.	0.1	0.87409
24849	7.2	1.3	0.1	1.0747
24850	7.3	1.2	0.1	1.0371
24851	7.2	1.5	0.1	0.619
24852	7.3	1.4	0.1	1.2316
24853	7.2	1.7	0.1	0.7986
24854	7.3	1.6	0.1	4.8187
24855	7.2	1.9	0.1	0.38542
24856	7.3	1.8	0.1	3.2111
24857	7.2	2.1	0.1	-1.6109
24858	7.3	2.	0.1	6.7304
24859	7.2	2.3	0.1	-1.0951
24860	7.3	2.2	0.1	3.5922
24861	7.2	2.5	0.1	-0.25201
24862	7.3	2.4	0.1	-2.8045
24863	7.2	2.7	0.1	-0.58783
24864	7.3	2.6	0.1	-0.31556
24865	7.2	2.9	0.1	-0.51138
24866	7.3	2.8	0.1	-0.52748
24867	7.2	3.1	0.1	-0.51138
24868	7.3	3.	0.1	-0.45071
24869	7.2	3.3	0.1	-0.58783
24870	7.3	3.2	0.1	-0.52748
24871	7.2	3.5	0.1	-0.25201
24872	7.3	3.4	0.1	-0.31556
24873	7.2	3.7	0.1	-1.0951
24874	7.3	3.6	0.1	-2.8045
24875	7.2	3.9	0.1	-1.6109
24876	7.3	3.8	0.1	3.5922
24877	7.2	4.1	0.1	0.38542
24878	7.3	4.	0.1	6.7304
24879	7.2	4.3	0.1	0.7986
24880	7.3	4.2	0.1	3.2111
24881	7.2	4.5	0.1	0.619
24882	7.3	4.4	0.1	4.8187
24883	7.2	4.7	0.1	1.0747
24884	7.3	4.6	0.1	1.2316
24885	7.2	4.9	0.1	0.66231
24886	7.3	4.8	0.1	1.0371
24887	7.2	5.1	0.1	0.45384
24888	7.3	5.	0.1	0.8741
24889	7.2	5.3	0.1	0.37489
24890	7.3	5.2	0.1	0.74555
24891	7.2	5.5	0.1	0.32333
24892	7.3	5.4	0.1	0.7826
24893	7.2	5.7	0.1	-1.6264e-002
24894	7.3	5.6	0.1	0.87669
24895	7.3	5.8	0.1	0.48327
24896	7.2	5.9	0.1	-0.35301
24897	7.4	0.3	0.1	1.6142
24898	7.5	0.2	0.1	2.7454
24899	7.4	0.1	0.1	0.49003
24900	7.4	0.5	0.1	1.3774
24901	7.5	0.4	0.1	1.5727
24902	7.4	0.7	0.1	1.1435
24903	7.5	0.6	0.1	0.73396
24904	7.4	0.9	0.1	1.156
24905	7.5	0.8	0.1	0.13356
24906	7.4	1.1	0.1	1.2512
24907	7.5	1.	0.1	-0.2103
24908	7.4	1.3	0.1	1.2087
24909	7.5	1.2	0.1	-0.39003
24910	7.4	1.5	0.1	5.4492
24911	7.5	1.4	0.1	-0.50648
24912	7.4	1.7	0.1	7.2501
24913	7.5	1.6	0.1	-5.1894e-002
24914	7.4	1.9	0.1	9.5043
24915	7.5	1.8	0.1	-5.4638
24916	7.4	2.1	0.1	11.912
24917	7.5	2.	0.1	-26.645
24918	7.4	2.3	0.1	1.7826
24919	7.5	2.2	0.1	-10.466
24920	7.4	2.5	0.1	-2.7403
24921	7.5	2.4	0.1	2.2665
24922	7.4	2.7	0.1	-0.21592
24923	7.5	2.6	0.1	-0.67532
24924	7.4	2.9	0.1	-0.46935
24925	7.5	2.8	0.1	-0.17238
24926	7.4	3.1	0.1	-0.46935
24927	7.5	3.	0.1	-0.25741
24928	7.4	3.3	0.1	-0.21592
24929	7.5	3.2	0.1	-0.17238
24930	7.4	3.5	0.1	-2.7403
24931	7.5	3.4	0.1	-0.67532
24932	7.4	3.7	0.1	1.7826
24933	7.5	3.6	0.1	2.2665
24934	7.4	3.9	0.1	11.912
24935	7.5	3.8	0.1	-10.466
24936	7.4	4.1	0.1	9.5043
24937	7.5	4.	0.1	-26.645
24938	7.4	4.3	0.1	7.2501
24939	7.5	4.2	0.1	-5.4638
24940	7.4	4.5	0.1	5.4492
24941	7.5	4.4	0.1	-5.1888e-002
24942	7.4	4.7	0.1	1.2087
24943	7.5	4.6	0.1	-0.50647
24944	7.4	4.9	0.1	1.2512
24945	7.5	4.8	0.1	-0.39003
24946	7.4	5.1	0.1	1.156
24947	7.5	5.	0.1	-0.2103
24948	7.4	5.3	0.1	1.1435
24949	7.5	5.2	0.1	0.13356
24950	7.4	5.5	0.1	1.3774
24951	7.5	5.4	0.1	0.73396
24952	7.4	5.7	0.1	1.6142
24953	7.5	5.6	0.1	1.5727
24954	7.5	5.8	0.1	2.7454
24955	7.4	5.9	0.1	0.49003
24956	7.6	0.3	0.1	2.9584
24957	7.7	0.2	0.1	14.917
24958	7.6	0.1	0.1	0.57796
24959	7.6	0.5	0.1	0.6691
24960	7.7	0.4	0.1	7.0777
24961	7.6	0.7	0.1	-0.4101
24962	7.7	0.6	0.1	4.9064
24963	7.6	0.9	0.1	-1.2829
24964	7.7	0.8	0.1	3.7532
24965	7.6	1.1	0.1	-1.8666
24966	7.7	1.	0.1	3.989
24967	7.6	1.3	0.1	-2.104
24968	7.7	1.2	0.1	2.5306
24969	7.6	1.5	0.1	-5.9727
24970	7.7	1.4	0.1	10.806
24971	7.6	1.7	0.1	-12.995
24972	7.7	1.6	0.1	-14.722
24973	7.6	1.9	0.1	-41.7
24974	7.7	1.8	0.1	57.567
24975	7.6	2.1	0.1	-49.19
24976	7.7	2.	0.1	241.82
24977	7.6	2.3	0.1	-10.235
24978	7.7	2.2	0.1	-30.97
24979	7.6	2.5	0.1	4.4266
24980	7.7	2.4	0.1	11.523
24981	7.6	2.7	0.1	-0.63273
24982	7.7	2.6	0.1	-3.6028
24983	7.6	2.9	0.1	7.2515e-003
24984	7.7	2.8	0.1	1.1415
24985	7.6	3.1	0.1	7.2521e-003
24986	7.7	3.	0.1	-0.55925
24987	7.6	3.3	0.1	-0.63273
24988	7.7	3.2	0.1	1.1415
24989	7.6	3.5	0.1	4.4266
24990	7.7	3.4	0.1	-3.6028
24991	7.6	3.7	0.1	-10.235
24992	7.7	3.6	0.1	11.523
24993	7.6	3.9	0.1	-49.19
24994	7.7	3.8	0.1	-30.97
24995	7.6	4.1	0.1	-41.7
24996	7.7	4.	0.1	241.82
24997	7.6	4.3	0.1	-12.995
24998	7.7	4.2	0.1	57.567
24999	7.6	4.5	0.1	-5.9727
25000	7.7	4.4	0.1	-14.722
25001	7.6	4.7	0.1	-2.104
25002	7.7	4.6	0.1	10.806
25003	7.6	4.9	0.1	-1.8666
25004	7.7	4.8	0.1	2.5306
25005	7.6	5.1	0.1	-1.2829
25006	7.7	5.	0.1	3.989
25007	7.6	5.3	0.1	-0.4101
25008	7.7	5.2	0.1	3.7532
25009	7.6	5.5	0.1	0.6691
25010	7.7	5.4	0.1	4.9064
25011	7.6	5.7	0.1	2.9584
25012	7.7	5.6	0.1	7.0777
25013	7.7	5.8	0.1	14.917
25014	7.6	5.9	0.1	0.57796
25015	7.8	0.3	0.1	15.668
25016	7.9	0.2	0.1	0.66616
25017	7.8	0.1	0.1	16.115
25018	7.8	0.5	0.1	9.5068
25019	7.9	0.4	0.1	-1.7452
25020	7.8	0.7	0.1	8.3507
25021	7.9	0.6	0.1	-0.11454
25022	7.8	0.9	0.1	8.6774
25023	7.9	0.8	0.1	-0.3315
25024	7.8	1.1	0.1	8.2669
25025	7.9	1.	0.1	1.6715
25026	7.8	1.3	0.1	15.413
25027	7.9	1.2	0.1	-3.3424
25028	7.8	1.5	0.1	2.3327
25029	7.9	1.4	0.1	19.801
25030	7.8	1.7	0.1	55.862
25031	7.9	1.6	0.1	-60.8
25032	7.8	1.9	0.1	345.09
25033	7.9	1.8	0.1	310.73
25034	7.8	2.1	0.1	238.06
25035	7.9	2.	0.1	410.11
25036	7.8	2.3	0.1	-7.3376
25037	7.9	2.2	0.1	-100.22
25038	7.8	2.5	0.1	3.5268
25039	7.9	2.4	0.1	21.565
25040	7.8	2.7	0.1	-1.9336
25041	7.9	2.6	0.1	-4.8075
25042	7.8	2.9	0.1	0.51667
25043	7.9	2.8	0.1	2.3761
25044	7.8	3.1	0.1	0.51667
25045	7.9	3.	0.1	-0.13369
25046	7.8	3.3	0.1	-1.9336
25047	7.9	3.2	0.1	2.3761
25048	7.8	3.5	0.1	3.5268
25049	7.9	3.4	0.1	-4.8075
25050	7.8	3.7	0.1	-7.3376
25051	7.9	3.6	0.1	21.565
25052	7.8	3.9	0.1	238.06
25053	7.9	3.8	0.1	-100.22
25054	7.8	4.1	0.1	345.09
25055	7.9	4.	0.1	410.11
25056	7.8	4.3	0.1	55.862
25057	7.9	4.2	0.1	310.73
25058	7.8	4.5	0.1	2.3327
25059	7.9	4.4	0.1	-60.8
25060	7.8	4.7	0.1	15.413
25061	7.9	4.6	0.1	19.801
25062	7.8	4.9	0.1	8.2669
25063	7.9	4.8	0.1	-3.3424
25064	7.8	5.1	0.1	8.6774
25065	7.9	5.	0.1	1.6715
25066	7.8	5.3	0.1	8.3507
25067	7.9	5.2	0.1	-0.3315
25068	7.8	5.5	0.1	9.5068
25069	7.9	5.4	0.1	-0.11454
25070	7.8	5.7	0.1	15.668
25071	7.9	5.6	0.1	-1.7452
25072	7.9	5.8	0.1	0.66616
25073	7.8	5.9	0.1	16.115
25074	8.1667	3.7	0.1	-41.929
25075	8.0833	3.8	0.1	-140.18
25076	8.1667	3.9	0.1	521.73
25077	8.1667	3.5	0.1	13.8
25078	8.0833	3.6	0.1	30.945
25079	8.1667	3.3	0.1	-0.54432
25080	8.0833	3.4	0.1	-3.6062
25081	8.1667	3.1	0.1	1.6169
25082	8.0833	3.2	0.1	2.6161
25083	8.1667	2.9	0.1	1.6169
25084	8.0833	3.	0.1	0.73631
25085	8.1667	2.7	0.1	-0.54432
25086	8.0833	2.8	0.1	2.6161
25087	8.1667	2.5	0.1	13.8
25088	8.0833	2.6	0.1	-3.6062
25089	8.1667	2.3	0.1	-41.929
25090	8.0833	2.4	0.1	30.945
25091	8.0833	2.2	0.1	-140.18
25092	8.1667	2.1	0.1	521.73
25093	8.	3.7	0.1	-69.867
25094	8.	3.9	0.1	353.83
25095	8.	3.5	0.1	12.944
25096	8.	3.3	0.1	-0.56745
25097	8.	3.1	0.1	1.6434
25098	8.	2.9	0.1	1.6434
25099	8.	2.7	0.1	-0.56746
25100	8.	2.5	0.1	12.944
25101	8.	2.3	0.1	-69.867
25102	8.	2.1	0.1	353.83
25103	8.1667	5.7	0.1	-10.208
25104	8.1667	5.9	0.1	2.9187
25105	8.1667	5.8	5.e-002	-1.9043e-014
25106	8.1667	5.5	0.1	-12.096
25107	8.1667	5.6	5.e-002	1.8493e-007
25108	8.1667	5.3	0.1	-13.124
25109	8.1667	5.4	5.e-002	1.8358e-007
25110	8.1667	5.1	0.1	-14.733
25111	8.1667	5.2	5.e-002	1.2444e-007
25112	8.1667	4.9	0.1	-19.397
25113	8.1667	5.	5.e-002	2.0644e-007
25114	8.1667	4.7	0.1	-20.813
25115	8.1667	4.8	5.e-002	1.914e-007
25116	8.1667	4.5	0.1	-56.235
25117	8.1667	4.6	5.e-002	1.7151e-005
25118	8.1667	4.3	0.1	-12.266
25119	8.1667	4.4	5.e-002	-2.9311e-005
25120	8.1667	4.1	0.1	1167.1
25121	8.1667	4.2	5.e-002	1.8535e-004
25122	8.0833	4.	0.1	1853.5
25123	8.1667	4.	5.e-002	-1.4646e-003
25124	8.	4.1	0.1	1042.8
25125	8.	4.	5.e-002	-1.1309e-003
25126	8.	4.3	0.1	-6.9122
25127	8.	4.2	5.e-002	2.4106e-004
25128	8.	4.5	0.1	-57.982
25129	8.	4.4	5.e-002	-3.5892e-005
25130	8.	4.7	0.1	-22.639
25131	8.	4.6	5.e-002	1.1837e-005
25132	8.	4.9	0.1	-21.569
25133	8.	4.8	5.e-002	-1.7458e-013
25134	8.	5.1	0.1	-16.715
25135	8.	5.	5.e-002	9.8447e-008
25136	8.	5.3	0.1	-15.154
25137	8.	5.2	5.e-002	-1.0269e-013
25138	8.	5.5	0.1	-14.129
25139	8.	5.4	5.e-002	1.837e-007
25140	8.	5.7	0.1	-12.201
25141	8.	5.6	5.e-002	3.7443e-007
25142	8.	5.9	0.1	1.1767
25143	8.	5.8	5.e-002	2.026e-006
25144	8.1667	0.3	0.1	-10.208
25145	8.1667	0.1	0.1	2.9187
25146	8.1667	0.2	5.e-002	1.0127e-006
25147	8.1667	0.5	0.1	-12.096
25148	8.1667	0.4	5.e-002	1.6762e-006
25149	8.1667	0.7	0.1	-13.124
25150	8.1667	0.6	5.e-002	-1.8358e-007
25151	8.1667	0.9	0.1	-14.733
25152	8.1667	0.8	5.e-002	-2.4888e-007
25153	8.1667	1.1	0.1	-19.397
25154	8.1667	1.	5.e-002	-2.0645e-007
25155	8.1667	1.3	0.1	-20.813
25156	8.1667	1.2	5.e-002	-1.914e-007
25157	8.1667	1.5	0.1	-56.235
25158	8.1667	1.4	5.e-002	-1.5499e-005
25159	8.1667	1.7	0.1	-12.266
25160	8.1667	1.6	5.e-002	2.2141e-005
25161	8.1667	1.9	0.1	1167.1
25162	8.1667	1.8	5.e-002	-2.0471e-004
25163	8.0833	2.	0.1	1853.5
25164	8.1667	2.	5.e-002	1.9529e-003
25165	8.	1.9	0.1	1042.8
25166	8.	2.	5.e-002	1.8866e-003
25167	8.	1.7	0.1	-6.9123
25168	8.	1.8	5.e-002	-2.1986e-004
25169	8.	1.5	0.1	-57.982
25170	8.	1.6	5.e-002	3.5892e-005
25171	8.	1.3	0.1	-22.639
25172	8.	1.4	5.e-002	-1.8934e-005
25173	8.	1.1	0.1	-21.569
25174	8.	1.2	5.e-002	-8.8356e-008
25175	8.	0.9	0.1	-16.715
25176	8.	1.	5.e-002	-9.8447e-008
25177	8.	0.7	0.1	-15.154
25178	8.	0.8	5.e-002	-1.0269e-013
25179	8.	0.5	0.1	-14.129
25180	8.	0.6	5.e-002	-3.674e-007
25181	8.	0.3	0.1	-12.201
25182	8.	0.4	5.e-002	-3.7443e-007
25183	8.	0.1	0.1	1.1767
25184	8.	0.2	5.e-002	-7.3292e-007
25185	8.2656	6.	0.1	23.286
25186	8.1667	6.	5.e-002	-1.0816e-006
25187	8.4635	6.	0.1	1.1884
25188	8.3646	6.	5.e-002	-1.805e-007
25189	8.6615	6.	0.1	-1.2496
25190	8.5625	6.	5.e-002	1.4131e-006
25191	8.8594	6.	0.1	-0.12283
25192	8.7604	6.	5.e-002	1.4697e-006
25193	9.0573	6.	0.1	0.2246
25194	8.9583	6.	5.e-002	1.9656e-006
25195	9.2552	6.	0.1	0.54923
25196	9.1563	6.	5.e-002	1.9062e-006
25197	9.4531	6.	0.1	0.67744
25198	9.3542	6.	5.e-002	1.667e-006
25199	9.651	6.	0.1	0.70233
25200	9.5521	6.	5.e-002	1.58e-006
25201	9.849	6.	0.1	0.65289
25202	9.75	6.	5.e-002	1.6665e-006
25203	10.047	6.	0.1	0.56511
25204	9.9479	6.	5.e-002	1.334e-006
25205	10.245	6.	0.1	0.4612
25206	10.146	6.	5.e-002	1.4717e-006
25207	10.443	6.	0.1	0.35602
25208	10.344	6.	5.e-002	1.8855e-006
25209	10.641	6.	0.1	0.25801
25210	10.542	6.	5.e-002	1.8543e-006
25211	10.839	6.	0.1	0.17152
25212	10.74	6.	5.e-002	2.1473e-006
25213	11.036	6.	0.1	9.824e-002
25214	10.937	6.	5.e-002	1.6013e-006
25215	11.234	6.	0.1	3.8231e-002
25216	11.135	6.	5.e-002	2.2649e-006
25217	11.432	6.	0.1	-9.3904e-003
25218	11.333	6.	5.e-002	2.2351e-006
25219	11.63	6.	0.1	-4.5981e-002
25220	11.531	6.	5.e-002	1.7583e-006
25221	11.828	6.	0.1	-7.3036e-002
25222	11.729	6.	5.e-002	2.5628e-006
25223	12.026	6.	0.1	-9.2065e-002
25224	11.927	6.	5.e-002	2.1457e-006
25225	12.224	6.	0.1	-0.10453
25226	12.125	6.	5.e-002	6.6151e-006
25227	12.422	6.	0.1	-0.11172
25228	12.323	6.	5.e-002	2.9193e-006
25229	12.62	6.	0.1	-0.11475
25230	12.521	6.	5.e-002	-1.1165e-006
25231	12.818	6.	0.1	-0.11451
25232	12.719	6.	5.e-002	3.2364e-006
25233	13.016	6.	0.1	-0.11181
25234	12.917	6.	5.e-002	2.7402e-006
25235	13.214	6.	0.1	-0.10729
25236	13.115	6.	5.e-002	3.3959e-006
25237	13.411	6.	0.1	-0.10144
25238	13.313	6.	5.e-002	3.0968e-006
25239	13.609	6.	0.1	-9.4662e-002
25240	13.51	6.	5.e-002	2.5618e-006
25241	13.807	6.	0.1	-8.7283e-002
25242	13.708	6.	5.e-002	3.6935e-006
25243	14.005	6.	0.1	-7.9573e-002
25244	13.906	6.	5.e-002	3.2186e-006
25245	14.203	6.	0.1	-7.1707e-002
25246	14.104	6.	5.e-002	3.8014e-006
25247	14.401	6.	0.1	-6.381e-002
25248	14.302	6.	5.e-002	3.4458e-006
25249	14.599	6.	0.1	-5.6005e-002
25250	14.5	6.	5.e-002	3.6955e-006
25251	14.797	6.	0.1	-4.8383e-002
25252	14.698	6.	5.e-002	3.2183e-006
25253	14.995	6.	0.1	-4.0979e-002
25254	14.896	6.	5.e-002	4.2319e-006
25255	15.193	6.	0.1	-3.3808e-002
25256	15.094	6.	5.e-002	4.5833e-006
25257	15.391	6.	0.1	-2.69e-002
25258	15.292	6.	5.e-002	3.8742e-006
25259	15.589	6.	0.1	-2.0276e-002
25260	15.49	6.	5.e-002	4.5895e-006
25261	15.786	6.	0.1	-1.3914e-002
25262	15.688	6.	5.e-002	3.8743e-006
25263	15.984	6.	0.1	-7.7885e-003
25264	15.885	6.	5.e-002	4.9491e-006
25265	16.182	6.	0.1	-1.8962e-003
25266	16.083	6.	5.e-002	3.9339e-006
25267	16.38	6.	0.1	3.7714e-003
25268	16.281	6.	5.e-002	5.6624e-006
25269	16.578	6.	0.1	9.2516e-003
25270	16.479	6.	5.e-002	3.9943e-006
25271	16.776	6.	0.1	1.4585e-002
25272	16.677	6.	5.e-002	4.7667e-006
25273	16.974	6.	0.1	1.9785e-002
25274	16.875	6.	5.e-002	5.2427e-006
25275	17.172	6.	0.1	2.4873e-002
25276	17.073	6.	5.e-002	4.467e-006
25277	17.37	6.	0.1	2.989e-002
25278	17.271	6.	5.e-002	5.1856e-006
25279	17.568	6.	0.1	3.4879e-002
25280	17.469	6.	5.e-002	4.5299e-006
25281	17.766	6.	0.1	3.9861e-002
25282	17.667	6.	5.e-002	5.3048e-006
25283	17.964	6.	0.1	4.486e-002
25284	17.865	6.	5.e-002	5.9008e-006
25285	18.161	6.	0.1	4.9922e-002
25286	18.063	6.	5.e-002	4.5895e-006
25287	18.359	6.	0.1	5.509e-002
25288	18.26	6.	5.e-002	1.1921e-005
25289	18.557	6.	0.1	6.0391e-002
25290	18.458	6.	5.e-002	5.8318e-006
25291	18.755	6.	0.1	6.5857e-002
25292	18.656	6.	5.e-002	-2.3945e-006
25293	18.953	6.	0.1	7.1534e-002
25294	18.854	6.	5.e-002	6.7835e-006
25295	19.151	6.	0.1	7.7473e-002
25296	19.052	6.	5.e-002	6.3776e-006
25297	19.349	6.	0.1	8.371e-002
25298	19.25	6.	5.e-002	5.722e-006
25299	19.547	6.	0.1	9.0284e-002
25300	19.448	6.	5.e-002	6.2434e-006
25301	19.745	6.	0.1	9.7254e-002
25302	19.646	6.	5.e-002	6.8386e-006
25303	19.943	6.	0.1	0.10468
25304	19.844	6.	5.e-002	6.3366e-006
25305	20.141	6.	0.1	0.11262
25306	20.042	6.	5.e-002	6.536e-006
25307	20.339	6.	0.1	0.12113
25308	20.24	6.	5.e-002	5.8195e-006
25309	20.536	6.	0.1	0.13029
25310	20.438	6.	5.e-002	7.0691e-006
25311	20.734	6.	0.1	0.14018
25312	20.635	6.	5.e-002	5.7561e-006
25313	20.932	6.	0.1	0.15091
25314	20.833	6.	5.e-002	9.7469e-006
25315	21.13	6.	0.1	0.16257
25316	21.031	6.	5.e-002	4.7385e-006
25317	21.328	6.	0.1	0.1753
25318	21.229	6.	5.e-002	7.893e-006
25319	21.526	6.	0.1	0.18926
25320	21.427	6.	5.e-002	8.386e-006
25321	21.724	6.	0.1	0.20465
25322	21.625	6.	5.e-002	6.6748e-006
25323	21.922	6.	0.1	0.2217
25324	21.823	6.	5.e-002	5.8726e-006
25325	22.12	6.	0.1	0.24073
25326	22.021	6.	5.e-002	7.7243e-006
25327	22.318	6.	0.1	0.26214
25328	22.219	6.	5.e-002	8.0827e-006
25329	22.516	6.	0.1	0.28652
25330	22.417	6.	5.e-002	7.8915e-006
25331	22.714	6.	0.1	0.31453
25332	22.615	6.	5.e-002	7.4869e-006
25333	22.911	6.	0.1	0.34778
25334	22.813	6.	5.e-002	7.9814e-006
25335	23.109	6.	0.1	0.38592
25336	23.01	6.	5.e-002	8.2065e-006
25337	23.307	6.	0.1	0.44193
25338	23.208	6.	5.e-002	8.2708e-006
25339	23.505	6.	0.1	0.49191
25340	23.406	6.	5.e-002	7.3879e-006
25341	23.703	6.	0.1	0.69772
25342	23.604	6.	5.e-002	8.9621e-006
25343	23.901	6.	0.1	0.45904
25344	23.802	6.	5.e-002	9.7339e-006
25345	24.	5.9	0.1	-2.3171
25346	24.	6.	5.e-002	3.2176e-005
25347	24.	5.7	0.1	-2.0182
25348	24.	5.8	5.e-002	1.399e-005
25349	24.	5.5	0.1	-2.0634
25350	24.	5.6	5.e-002	9.5809e-006
25351	24.	5.3	0.1	-2.179
25352	24.	5.4	5.e-002	6.843e-006
25353	24.	5.1	0.1	-2.2099
25354	24.	5.2	5.e-002	6.5426e-006
25355	24.	4.9	0.1	-2.2373
25356	24.	5.	5.e-002	5.8158e-006
25357	24.	4.7	0.1	-2.2549
25358	24.	4.8	5.e-002	6.7095e-006
25359	24.	4.5	0.1	-2.2685
25360	24.	4.6	5.e-002	3.9219e-006
25361	24.	4.3	0.1	-2.2787
25362	24.	4.4	5.e-002	5.7759e-007
25363	24.	4.1	0.1	-2.2866
25364	24.	4.2	5.e-002	1.5399e-007
25365	24.	3.9	0.1	-2.2925
25366	24.	4.	5.e-002	3.1896e-006
25367	24.	3.7	0.1	-2.297
25368	24.	3.8	5.e-002	4.0686e-006
25369	24.	3.5	0.1	-2.3002
25370	24.	3.6	5.e-002	4.737e-006
25371	24.	3.3	0.1	-2.3022
25372	24.	3.4	5.e-002	9.2531e-006
25373	24.	3.1	0.1	-2.3032
25374	24.	3.2	5.e-002	6.6118e-006
25375	24.	2.9	0.1	-2.3032
25376	24.	3.	5.e-002	3.8147e-006
25377	24.	2.7	0.1	-2.3022
25378	24.	2.8	5.e-002	8.6301e-006
25379	24.	2.5	0.1	-2.3002
25380	24.	2.6	5.e-002	9.7474e-006
25381	24.	2.3	0.1	-2.297
25382	24.	2.4	5.e-002	1.4289e-005
25383	24.	2.1	0.1	-2.2925
25384	24.	2.2	5.e-002	1.4861e-005
25385	24.	1.9	0.1	-2.2866
25386	24.	2.	5.e-002	9.1368e-006
25387	24.	1.7	0.1	-2.2787
25388	24.	1.8	5.e-002	9.5206e-006
25389	24.	1.5	0.1	-2.2685
25390	24.	1.6	5.e-002	1.2745e-005
25391	24.	1.3	0.1	-2.2549
25392	24.	1.4	5.e-002	9.0689e-006
25393	24.	1.1	0.1	-2.2373
25394	24.	1.2	5.e-002	8.5754e-006
25395	24.	0.9	0.1	-2.2099
25396	24.	1.	5.e-002	9.5289e-006
25397	24.	0.7	0.1	-2.179
25398	24.	0.8	5.e-002	8.4954e-006
25399	24.	0.5	0.1	-2.0634
25400	24.	0.6	5.e-002	5.6175e-006
25401	24.	0.3	0.1	-2.0182
25402	24.	0.4	5.e-002	1.8528e-006
25403	24.	0.1	0.1	-2.3171
25404	24.	0.2	5.e-002	7.4044e-006
25405	2.6226e-015	0.3	0.1	1928.7
25406	8.7419e-016	0.1	0.1	488.11
25407	1.772e-015	0.2	5.e-002	1.7048e-004
25408	4.371e-015	0.5	0.1	2702.2
25409	3.5441e-015	0.4	5.e-002	2.0313e-004
25410	6.1193e-015	0.7	0.1	3095.2
25411	5.3161e-015	0.6	5.e-002	1.2114e-004
25412	7.8677e-015	0.9	0.1	3339.4
25413	7.0881e-015	0.8	5.e-002	8.0494e-005
25414	9.6161e-015	1.1	0.1	3506.5
25415	8.8602e-015	1.	5.e-002	8.384e-005
25416	1.1364e-014	1.3	0.1	3626.6
25417	1.0632e-014	1.2	5.e-002	1.3554e-005
25418	1.3113e-014	1.5	0.1	3715.3
25419	1.2404e-014	1.4	5.e-002	6.8239e-005
25420	1.4861e-014	1.7	0.1	3782.
25421	1.4176e-014	1.6	5.e-002	1.1884e-004
25422	1.661e-014	1.9	0.1	3832.3
25423	1.5948e-014	1.8	5.e-002	7.435e-006
25424	1.8358e-014	2.1	0.1	3870.2
25425	1.772e-014	2.	5.e-002	6.4683e-005
25426	2.0106e-014	2.3	0.1	3898.
25427	1.9492e-014	2.2	5.e-002	5.9189e-005
25428	2.1855e-014	2.5	0.1	3917.6
25429	2.1264e-014	2.4	5.e-002	4.0589e-008
25430	2.3603e-014	2.7	0.1	3930.
25431	2.3036e-014	2.6	5.e-002	2.037e-006
25432	2.5352e-014	2.9	0.1	3935.9
25433	2.4809e-014	2.8	5.e-002	4.9904e-007
25434	2.71e-014	3.1	0.1	3935.9
25435	2.6581e-014	3.	5.e-002	6.3093e-013
25436	2.8848e-014	3.3	0.1	3930.
25437	2.8353e-014	3.2	5.e-002	2.9347e-007
25438	3.0597e-014	3.5	0.1	3917.6
25439	3.0125e-014	3.4	5.e-002	5.107e-007
25440	3.2345e-014	3.7	0.1	3898.
25441	3.1897e-014	3.6	5.e-002	5.5809e-007
25442	3.4093e-014	3.9	0.1	3870.2
25443	3.3669e-014	3.8	5.e-002	-6.2904e-005
25444	3.5842e-014	4.1	0.1	3832.3
25445	3.5441e-014	4.	5.e-002	1.4418e-007
25446	3.759e-014	4.3	0.1	3782.
25447	3.7213e-014	4.2	5.e-002	-5.8401e-006
25448	3.9339e-014	4.5	0.1	3715.3
25449	3.8985e-014	4.4	5.e-002	-5.8956e-005
25450	4.1087e-014	4.7	0.1	3626.6
25451	4.0757e-014	4.6	5.e-002	-6.6186e-005
25452	4.2835e-014	4.9	0.1	3506.5
25453	4.2529e-014	4.8	5.e-002	-1.0779e-005
25454	4.4584e-014	5.1	0.1	3339.4
25455	4.4301e-014	5.	5.e-002	-1.4524e-005
25456	4.6332e-014	5.3	0.1	3095.2
25457	4.6073e-014	5.2	5.e-002	-7.6329e-005
25458	4.8081e-014	5.5	0.1	2702.2
25459	4.7845e-014	5.4	5.e-002	-8.8573e-005
25460	4.9829e-014	5.7	0.1	1928.7
25461	4.9617e-014	5.6	5.e-002	-1.9212e-004
25462	5.1577e-014	5.9	0.1	488.11
25463	5.1389e-014	5.8	5.e-002	-1.0945e-004
25464	23.901	0.	0.1	0.45903
25465	24.	0.	5.e-002	2.7297e-005
25466	23.703	0.	0.1	0.69772
25467	23.802	0.	5.e-002	8.8408e-006
25468	23.505	0.	0.1	0.49191
25469	23.604	0.	5.e-002	8.6372e-006
25470	23.307	0.	0.1	0.44194
25471	23.406	0.	5.e-002	9.4147e-006
25472	23.109	0.	0.1	0.38593
25473	23.208	0.	5.e-002	8.945e-006
25474	22.911	0.	0.1	0.34778
25475	23.01	0.	5.e-002	8.8655e-006
25476	22.714	0.	0.1	0.31453
25477	22.813	0.	5.e-002	5.5369e-006
25478	22.516	0.	0.1	0.28651
25479	22.615	0.	5.e-002	8.0484e-006
25480	22.318	0.	0.1	0.26214
25481	22.417	0.	5.e-002	8.6442e-006
25482	22.12	0.	0.1	0.24073
25483	22.219	0.	5.e-002	2.1832e-006
25484	21.922	0.	0.1	0.22169
25485	22.021	0.	5.e-002	2.1469e-006
25486	21.724	0.	0.1	0.20465
25487	21.823	0.	5.e-002	5.8399e-006
25488	21.526	0.	0.1	0.18927
25489	21.625	0.	5.e-002	7.8379e-006
25490	21.328	0.	0.1	0.1753
25491	21.427	0.	5.e-002	7.5906e-006
25492	21.13	0.	0.1	0.16257
25493	21.229	0.	5.e-002	8.822e-006
25494	20.932	0.	0.1	0.15091
25495	21.031	0.	5.e-002	6.3514e-006
25496	20.734	0.	0.1	0.14018
25497	20.833	0.	5.e-002	7.6593e-006
25498	20.536	0.	0.1	0.13029
25499	20.635	0.	5.e-002	7.5716e-006
25500	20.339	0.	0.1	0.12113
25501	20.438	0.	5.e-002	5.8782e-006
25502	20.141	0.	0.1	0.11262
25503	20.24	0.	5.e-002	6.8718e-006
25504	19.943	0.	0.1	0.10468
25505	20.042	0.	5.e-002	5.6828e-006
25506	19.745	0.	0.1	9.7256e-002
25507	19.844	0.	5.e-002	5.9021e-006
25508	19.547	0.	0.1	9.0285e-002
25509	19.646	0.	5.e-002	4.6496e-006
25510	19.349	0.	0.1	8.3711e-002
25511	19.448	0.	5.e-002	7.1086e-006
25512	19.151	0.	0.1	7.7473e-002
25513	19.25	0.	5.e-002	6.0937e-006
25514	18.953	0.	0.1	7.1534e-002
25515	19.052	0.	5.e-002	6.9144e-006
25516	18.755	0.	0.1	6.5856e-002
25517	18.854	0.	5.e-002	6.0092e-006
25518	18.557	0.	0.1	6.0391e-002
25519	18.656	0.	5.e-002	6.2976e-006
25520	18.359	0.	0.1	5.509e-002
25521	18.458	0.	5.e-002	4.0535e-006
25522	18.161	0.	0.1	4.9924e-002
25523	18.26	0.	5.e-002	4.9559e-006
25524	17.964	0.	0.1	4.4864e-002
25525	18.063	0.	5.e-002	6.9068e-006
25526	17.766	0.	0.1	3.9862e-002
25527	17.865	0.	5.e-002	-3.1589e-006
25528	17.568	0.	0.1	3.4879e-002
25529	17.667	0.	5.e-002	1.4776e-005
25530	17.37	0.	0.1	2.989e-002
25531	17.469	0.	5.e-002	1.9025e-006
25532	17.172	0.	0.1	2.4873e-002
25533	17.271	0.	5.e-002	4.9514e-006
25534	16.974	0.	0.1	1.9787e-002
25535	17.073	0.	5.e-002	5.4241e-006
25536	16.776	0.	0.1	1.4586e-002
25537	16.875	0.	5.e-002	4.8255e-006
25538	16.578	0.	0.1	9.2524e-003
25539	16.677	0.	5.e-002	4.828e-006
25540	16.38	0.	0.1	3.7722e-003
25541	16.479	0.	5.e-002	4.8868e-006
25542	16.182	0.	0.1	-1.8959e-003
25543	16.281	0.	5.e-002	5.4239e-006
25544	15.984	0.	0.1	-7.7882e-003
25545	16.083	0.	5.e-002	4.3521e-006
25546	15.786	0.	0.1	-1.3913e-002
25547	15.885	0.	5.e-002	3.8743e-006
25548	15.589	0.	0.1	-2.0276e-002
25549	15.688	0.	5.e-002	5.3049e-006
25550	15.391	0.	0.1	-2.6901e-002
25551	15.49	0.	5.e-002	3.8148e-006
25552	15.193	0.	0.1	-3.3808e-002
25553	15.292	0.	5.e-002	4.5846e-006
25554	14.995	0.	0.1	-4.0979e-002
25555	15.094	0.	5.e-002	4.0533e-006
25556	14.797	0.	0.1	-4.8383e-002
25557	14.896	0.	5.e-002	3.2787e-006
25558	14.599	0.	0.1	-5.6004e-002
25559	14.698	0.	5.e-002	2.7421e-006
25560	14.401	0.	0.1	-6.3809e-002
25561	14.5	0.	5.e-002	3.8155e-006
25562	14.203	0.	0.1	-7.1707e-002
25563	14.302	0.	5.e-002	3.6481e-006
25564	14.005	0.	0.1	-7.9573e-002
25565	14.104	0.	5.e-002	3.8749e-006
25566	13.807	0.	0.1	-8.7283e-002
25567	13.906	0.	5.e-002	3.9494e-006
25568	13.609	0.	0.1	-9.4662e-002
25569	13.708	0.	5.e-002	3.458e-006
25570	13.411	0.	0.1	-0.10144
25571	13.51	0.	5.e-002	2.3699e-006
25572	13.214	0.	0.1	-0.10729
25573	13.313	0.	5.e-002	3.2808e-006
25574	13.016	0.	0.1	-0.1118
25575	13.115	0.	5.e-002	3.4003e-006
25576	12.818	0.	0.1	-0.11451
25577	12.917	0.	5.e-002	3.1025e-006
25578	12.62	0.	0.1	-0.11475
25579	12.719	0.	5.e-002	3.1009e-006
25580	12.422	0.	0.1	-0.11172
25581	12.521	0.	5.e-002	2.6851e-006
25582	12.224	0.	0.1	-0.10453
25583	12.323	0.	5.e-002	3.1792e-006
25584	12.026	0.	0.1	-9.2064e-002
25585	12.125	0.	5.e-002	4.0105e-006
25586	11.828	0.	0.1	-7.3038e-002
25587	11.927	0.	5.e-002	-1.5492e-006
25588	11.63	0.	0.1	-4.598e-002
25589	11.729	0.	5.e-002	6.9091e-006
25590	11.432	0.	0.1	-9.3967e-003
25591	11.531	0.	5.e-002	8.0473e-007
25592	11.234	0.	0.1	3.826e-002
25593	11.333	0.	5.e-002	7.5108e-006
25594	11.036	0.	0.1	9.8282e-002
25595	11.135	0.	5.e-002	-1.2931e-005
25596	10.839	0.	0.1	0.1715
25597	10.937	0.	5.e-002	-2.3162e-006
25598	10.641	0.	0.1	0.25798
25599	10.74	0.	5.e-002	1.1627e-005
25600	10.443	0.	0.1	0.35605
25601	10.542	0.	5.e-002	3.9973e-006
25602	10.245	0.	0.1	0.46124
25603	10.344	0.	5.e-002	-1.2321e-005
25604	10.047	0.	0.1	0.56509
25605	10.146	0.	5.e-002	-4.181e-006
25606	9.849	0.	0.1	0.65287
25607	9.9479	0.	5.e-002	1.1635e-005
25608	9.651	0.	0.1	0.70233
25609	9.75	0.	5.e-002	-1.2584e-006
25610	9.4531	0.	0.1	0.67744
25611	9.5521	0.	5.e-002	2.2618e-006
25612	9.2552	0.	0.1	0.54923
25613	9.3542	0.	5.e-002	-1.5228e-014
25614	9.0573	0.	0.1	0.2246
25615	9.1563	0.	5.e-002	1.1914e-006
25616	8.8594	0.	0.1	-0.12284
25617	8.9583	0.	5.e-002	8.97e-007
25618	8.6615	0.	0.1	-1.2496
25619	8.7604	0.	5.e-002	9.5305e-007
25620	8.4635	0.	0.1	1.1884
25621	8.5625	0.	5.e-002	1.5928e-006
25622	8.2656	0.	0.1	23.286
25623	8.3646	0.	5.e-002	1.8164e-006
25624	8.1667	0.	5.e-002	6.313e-007
25625	7.9	1.198e-030	0.1	27.014
25626	8.	1.2132e-030	5.e-002	1.6809e-006
25627	7.7	1.1677e-030	0.1	1.9758
25628	7.8	0.	5.e-002	-2.6485e-006
25629	7.5	1.1374e-030	0.1	-0.97777
25630	7.6	0.	5.e-002	1.3795e-007
25631	7.3	1.107e-030	0.1	0.29006
25632	7.4	0.	5.e-002	-1.165e-014
25633	7.1	1.0767e-030	0.1	0.63293
25634	7.2	0.	5.e-002	-1.2177e-014
25635	6.9	1.0464e-030	0.1	0.9563
25636	7.	0.	5.e-002	-1.15e-014
25637	6.7	1.016e-030	0.1	1.0467
25638	6.8	0.	5.e-002	-1.0182e-014
25639	6.5	9.8571e-031	0.1	1.0129
25640	6.6	0.	5.e-002	7.0887e-007
25641	6.3	9.5538e-031	0.1	0.8874
25642	6.4	0.	5.e-002	2.2779e-006
25643	6.1	9.2505e-031	0.1	0.71238
25644	6.2	0.	5.e-002	1.4688e-006
25645	5.9	8.9472e-031	0.1	0.5142
25646	6.	0.	5.e-002	2.8048e-006
25647	5.7	8.6439e-031	0.1	0.31161
25648	5.8	0.	5.e-002	2.0446e-006
25649	5.5	8.3406e-031	0.1	0.1191
25650	5.6	0.	5.e-002	1.5554e-006
25651	5.3	8.0373e-031	0.1	-2.9515e-002
25652	5.4	0.	5.e-002	6.1797e-007
25653	5.1	7.734e-031	0.1	0.27107
25654	5.2	0.	5.e-002	6.2326e-007
25655	4.9	7.4308e-031	0.1	1.0822
25656	5.	0.	5.e-002	7.337e-007
25657	4.7	7.1275e-031	0.1	1.7976
25658	4.8	0.	5.e-002	1.28e-006
25659	4.5	6.8242e-031	0.1	2.3578
25660	4.6	0.	5.e-002	1.3965e-006
25661	4.3	6.5209e-031	0.1	2.7415
25662	4.4	0.	5.e-002	1.42e-006
25663	4.1	6.2176e-031	0.1	2.9251
25664	4.2	0.	5.e-002	1.3632e-006
25665	3.9	5.9143e-031	0.1	2.8793
25666	4.	0.	5.e-002	8.6031e-007
25667	3.7	5.611e-031	0.1	2.5685
25668	3.8	0.	5.e-002	-1.3031e-014
25669	3.5	5.3077e-031	0.1	1.9531
25670	3.6	0.	5.e-002	6.8318e-007
25671	3.3	5.0044e-031	0.1	0.99841
25672	3.4	0.	5.e-002	2.28e-007
25673	3.1	4.7011e-031	0.1	-0.26523
25674	3.2	0.	5.e-002	5.4444e-007
25675	2.9	4.3978e-031	0.1	-1.4276
25676	3.	0.	5.e-002	4.9049e-007
25677	2.7	4.0945e-031	0.1	-1.9954
25678	2.8	0.	5.e-002	4.452e-007
25679	2.5	3.7912e-031	0.1	-2.3341
25680	2.6	0.	5.e-002	2.0362e-007
25681	2.3	3.4879e-031	0.1	-2.6315
25682	2.4	0.	5.e-002	3.7548e-007
25683	2.1	3.1846e-031	0.1	-2.9335
25684	2.2	0.	5.e-002	3.4891e-007
25685	1.9	2.8813e-031	0.1	-3.2614
25686	2.	0.	5.e-002	3.2673e-007
25687	1.7	2.578e-031	0.1	-3.6241
25688	1.8	0.	5.e-002	3.0828e-007
25689	1.5	2.2747e-031	0.1	-4.0584
25690	1.6	0.	5.e-002	1.4651e-007
25691	1.3	1.9714e-031	0.1	-4.5174
25692	1.4	0.	5.e-002	2.8032e-007
25693	1.1	1.6681e-031	0.1	-5.2627
25694	1.2	0.	5.e-002	2.695e-007
25695	0.9	1.3648e-031	0.1	-5.6478
25696	1.	0.	5.e-002	2.5965e-007
25697	0.7	1.0615e-031	0.1	-7.6487
25698	0.8	0.	5.e-002	2.4472e-007
25699	0.5	7.5824e-032	0.1	-10.516
25700	0.6	0.	5.e-002	2.3665e-007
25701	0.3	4.5494e-032	0.1	16.112
25702	0.4	0.	5.e-002	2.0208e-007
25703	0.1	1.5165e-032	0.1	-149.25
25704	0.2	0.	5.e-002	-2.6695e-005
25705	0.	0.	5.e-002	2.0878e-004
25706	0.1	6.	0.1	-149.25
25707	5.2451e-014	6.	5.e-002	-1.6295e-004
25708	0.3	6.	0.1	16.112
25709	0.2	6.	5.e-002	2.0976e-005
25710	0.5	6.	0.1	-10.516
25711	0.4	6.	5.e-002	-2.0208e-007
25712	0.7	6.	0.1	-7.6487
25713	0.6	6.	5.e-002	-2.3665e-007
25714	0.9	6.	0.1	-5.6478
25715	0.8	6.	5.e-002	-1.2236e-007
25716	1.1	6.	0.1	-5.2627
25717	1.	6.	5.e-002	-1.2983e-007
25718	1.3	6.	0.1	-4.5174
25719	1.2	6.	5.e-002	-2.695e-007
25720	1.5	6.	0.1	-4.0584
25721	1.4	6.	5.e-002	-2.8032e-007
25722	1.7	6.	0.1	-3.6241
25723	1.6	6.	5.e-002	-2.9302e-007
25724	1.9	6.	0.1	-3.2614
25725	1.8	6.	5.e-002	-3.0828e-007
25726	2.1	6.	0.1	-2.9335
25727	2.	6.	5.e-002	-4.7787e-014
25728	2.3	6.	0.1	-2.6315
25729	2.2	6.	5.e-002	-1.7445e-007
25730	2.5	6.	0.1	-2.3341
25731	2.4	6.	5.e-002	-3.7548e-007
25732	2.7	6.	0.1	-1.9954
25733	2.6	6.	5.e-002	-4.0725e-007
25734	2.9	6.	0.1	-1.4276
25735	2.8	6.	5.e-002	-2.226e-007
25736	3.1	6.	0.1	-0.26525
25737	3.	6.	5.e-002	-2.4524e-007
25738	3.3	6.	0.1	0.99839
25739	3.2	6.	5.e-002	-2.7222e-007
25740	3.5	6.	0.1	1.9531
25741	3.4	6.	5.e-002	-6.0837e-007
25742	3.7	6.	0.1	2.5685
25743	3.6	6.	5.e-002	-6.8318e-007
25744	3.9	6.	0.1	2.8793
25745	3.8	6.	5.e-002	2.1368e-007
25746	4.1	6.	0.1	2.9251
25747	4.	6.	5.e-002	-8.6031e-007
25748	4.3	6.	0.1	2.7415
25749	4.2	6.	5.e-002	-4.738e-007
25750	4.5	6.	0.1	2.3578
25751	4.4	6.	5.e-002	-1.0044e-006
25752	4.7	6.	0.1	1.7976
25753	4.6	6.	5.e-002	-9.8094e-007
25754	4.9	6.	0.1	1.0822
25755	4.8	6.	5.e-002	-5.6713e-007
25756	5.1	6.	0.1	0.27107
25757	5.	6.	5.e-002	2.3799e-007
25758	5.3	6.	0.1	-2.9514e-002
25759	5.2	6.	5.e-002	2.1102e-007
25760	5.5	6.	0.1	0.1191
25761	5.4	6.	5.e-002	2.9055e-007
25762	5.7	6.	0.1	0.31161
25763	5.6	6.	5.e-002	-1.293e-007
25764	5.9	6.	0.1	0.5142
25765	5.8	6.	5.e-002	3.5458e-007
25766	6.1	6.	0.1	0.71238
25767	6.	6.	5.e-002	-1.6263e-006
25768	6.3	6.	0.1	0.8874
25769	6.2	6.	5.e-002	-2.7723e-008
25770	6.5	6.	0.1	1.0129
25771	6.4	6.	5.e-002	4.0093e-008
25772	6.7	6.	0.1	1.0467
25773	6.6	6.	5.e-002	1.6399e-007
25774	6.9	6.	0.1	0.9563
25775	6.8	6.	5.e-002	9.475e-007
25776	7.1	6.	0.1	0.63293
25777	7.	6.	5.e-002	1.8964e-006
25778	7.3	6.	0.1	0.29006
25779	7.2	6.	5.e-002	-1.2177e-014
25780	7.5	6.	0.1	-0.97777
25781	7.4	6.	5.e-002	1.9083e-006
25782	7.7	6.	0.1	1.9758
25783	7.6	6.	5.e-002	4.7162e-007
25784	7.9	6.	0.1	27.014
25785	7.8	6.	5.e-002	3.5824e-006
25786	8.	6.	5.e-002	-9.4112e-007
25787	7.7	6.	0.	-1.9758
25788	7.9	6.	0.	-27.014
25789	7.5	6.	0.	0.97777
25790	7.3	6.	0.	-0.29006
25791	7.1	6.	0.	-0.63293
25792	6.9	6.	0.	-0.9563
25793	6.7	6.	0.	-1.0467
25794	6.5	6.	0.	-1.0129
25795	6.3	6.	0.	-0.8874
25796	6.1	6.	0.	-0.71238
25797	5.9	6.	0.	-0.5142
25798	5.7	6.	0.	-0.31161
25799	5.5	6.	0.	-0.1191
25800	5.3	6.	0.	2.9514e-002
25801	5.1	6.	0.	-0.27107
25802	4.9	6.	0.	-1.0822
25803	4.7	6.	0.	-1.7976
25804	4.5	6.	0.	-2.3578
25805	4.3	6.	0.	-2.7415
25806	4.1	6.	0.	-2.9251
25807	3.9	6.	0.	-2.8793
25808	3.7	6.	0.	-2.5685
25809	3.5	6.	0.	-1.9531
25810	3.3	6.	0.	-0.99839
25811	3.1	6.	0.	0.26524
25812	2.9	6.	0.	1.4276
25813	2.7	6.	0.	1.9954
25814	2.5	6.	0.	2.3341
25815	2.3	6.	0.	2.6315
25816	2.1	6.	0.	2.9335
25817	1.9	6.	0.	3.2614
25818	1.7	6.	0.	3.6241
25819	1.5	6.	0.	4.0584
25820	1.3	6.	0.	4.5174
25821	1.1	6.	0.	5.2627
25822	0.9	6.	0.	5.6478
25823	0.7	6.	0.	7.6487
25824	0.5	6.	0.	10.516
25825	0.3	6.	0.	-16.112
25826	0.1	6.	0.	149.25
25827	8.	5.9	0.	-1.1767
25828	5.1577e-014	5.9	0.	-488.11
25829	0.3	4.5494e-032	0.	-16.112
25830	0.1	1.5165e-032	0.	149.25
25831	0.5	7.5824e-032	0.	10.516
25832	0.7	1.0615e-031	0.	7.6487
25833	0.9	1.3648e-031	0.	5.6478
25834	1.1	1.6681e-031	0.	5.2627
25835	1.3	1.9714e-031	0.	4.5174
25836	1.5	2.2747e-031	0.	4.0584
25837	1.7	2.578e-031	0.	3.6241
25838	1.9	2.8813e-031	0.	3.2614
25839	2.1	3.1846e-031	0.	2.9335
25840	2.3	3.4879e-031	0.	2.6315
25841	2.5	3.7912e-031	0.	2.3341
25842	2.7	4.0945e-031	0.	1.9954
25843	2.9	4.3978e-031	0.	1.4276
25844	3.1	4.7011e-031	0.	0.26523
25845	3.3	5.0044e-031	0.	-0.9984
25846	3.5	5.3077e-031	0.	-1.9531
25847	3.7	5.611e-031	0.	-2.5685
25848	3.9	5.9143e-031	0.	-2.8793
25849	4.1	6.2176e-031	0.	-2.9251
25850	4.3	6.5209e-031	0.	-2.7415
25851	4.5	6.8242e-031	0.	-2.3578
25852	4.7	7.1275e-031	0.	-1.7976
25853	4.9	7.4308e-031	0.	-1.0822
25854	5.1	7.734e-031	0.	-0.27107
25855	5.3	8.0373e-031	0.	2.9515e-002
25856	5.5	8.3406e-031	0.	-0.1191
25857	5.7	8.6439e-031	0.	-0.31161
25858	5.9	8.9472e-031	0.	-0.5142
25859	6.1	9.2505e-031	0.	-0.71238
25860	6.3	9.5538e-031	0.	-0.8874
25861	6.5	9.8571e-031	0.	-1.0129
25862	6.7	1.016e-030	0.	-1.0467
25863	6.9	1.0464e-030	0.	-0.9563
25864	7.1	1.0767e-030	0.	-0.63293
25865	7.3	1.107e-030	0.	-0.29006
25866	7.5	1.1374e-030	0.	0.97777
25867	7.7	1.1677e-030	0.	-1.9758
25868	7.9	1.198e-030	0.	-27.014
25869	8.	0.1	0.	-1.1767
25870	8.7419e-016	0.1	0.	-488.11
25871	8.4635	0.	0.	-1.1884
25872	8.2656	0.	0.	-23.286
25873	8.6615	0.	0.	1.2496
25874	8.8594	0.	0.	0.12284
25875	9.0573	0.	0.	-0.2246
25876	9.2552	0.	0.	-0.54923
25877	9.4531	0.	0.	-0.67744
25878	9.651	0.	0.	-0.70234
25879	9.849	0.	0.	-0.65286
25880	10.047	0.	0.	-0.56508
25881	10.245	0.	0.	-0.46126
25882	10.443	0.	0.	-0.35606
25883	10.641	0.	0.	-0.25797
25884	10.839	0.	0.	-0.17149
25885	11.036	0.	0.	-9.8301e-002
25886	11.234	0.	0.	-3.8267e-002
25887	11.432	0.	0.	9.4029e-003
25888	11.63	0.	0.	4.5979e-002
25889	11.828	0.	0.	7.3038e-002
25890	12.026	0.	0.	9.2064e-002
25891	12.224	0.	0.	0.10453
25892	12.422	0.	0.	0.11172
25893	12.62	0.	0.	0.11475
25894	12.818	0.	0.	0.11451
25895	13.016	0.	0.	0.11181
25896	13.214	0.	0.	0.10729
25897	13.411	0.	0.	0.10144
25898	13.609	0.	0.	9.4663e-002
25899	13.807	0.	0.	8.7283e-002
25900	14.005	0.	0.	7.9574e-002
25901	14.203	0.	0.	7.1707e-002
25902	14.401	0.	0.	6.381e-002
25903	14.599	0.	0.	5.6004e-002
25904	14.797	0.	0.	4.8382e-002
25905	14.995	0.	0.	4.0979e-002
25906	15.193	0.	0.	3.3808e-002
25907	15.391	0.	0.	2.6901e-002
25908	15.589	0.	0.	2.0277e-002
25909	15.786	0.	0.	1.3914e-002
25910	15.984	0.	0.	7.7887e-003
25911	16.182	0.	0.	1.8964e-003
25912	16.38	0.	0.	-3.7713e-003
25913	16.578	0.	0.	-9.2519e-003
25914	16.776	0.	0.	-1.4585e-002
25915	16.974	0.	0.	-1.9786e-002
25916	17.172	0.	0.	-2.4873e-002
25917	17.37	0.	0.	-2.9891e-002
25918	17.568	0.	0.	-3.4878e-002
25919	17.766	0.	0.	-3.9861e-002
25920	17.964	0.	0.	-4.4864e-002
25921	18.161	0.	0.	-4.9924e-002
25922	18.359	0.	0.	-5.509e-002
25923	18.557	0.	0.	-6.0391e-002
25924	18.755	0.	0.	-6.5856e-002
25925	18.953	0.	0.	-7.1533e-002
25926	19.151	0.	0.	-7.7473e-002
25927	19.349	0.	0.	-8.371e-002
25928	19.547	0.	0.	-9.0285e-002
25929	19.745	0.	0.	-9.7256e-002
25930	19.943	0.	0.	-0.10468
25931	20.141	0.	0.	-0.11262
25932	20.339	0.	0.	-0.12113
25933	20.536	0.	0.	-0.13029
25934	20.734	0.	0.	-0.14018
25935	20.932	0.	0.	-0.1509
25936	21.13	0.	0.	-0.16256
25937	21.328	0.	0.	-0.1753
25938	21.526	0.	0.	-0.18927
25939	21.724	0.	0.	-0.20465
25940	21.922	0.	0.	-0.2217
25941	22.12	0.	0.	-0.24072
25942	22.318	0.	0.	-0.26214
25943	22.516	0.	0.	-0.28652
25944	22.714	0.	0.	-0.31453
25945	22.911	0.	0.	-0.34778
25946	23.109	0.	0.	-0.38593
25947	23.307	0.	0.	-0.44193
25948	23.505	0.	0.	-0.49191
25949	23.703	0.	0.	-0.69772
25950	23.901	0.	0.	-0.45903
25951	8.1667	0.1	0.	-2.9187
25952	24.	0.1	0.	2.3171
25953	4.9829e-014	5.7	0.	-1928.7
25954	4.8081e-014	5.5	0.	-2702.2
25955	4.6332e-014	5.3	0.	-3095.2
25956	4.4584e-014	5.1	0.	-3339.4
25957	4.2835e-014	4.9	0.	-3506.5
25958	4.1087e-014	4.7	0.	-3626.6
25959	3.9339e-014	4.5	0.	-3715.3
25960	3.759e-014	4.3	0.	-3782.
25961	3.5842e-014	4.1	0.	-3832.3
25962	3.4093e-014	3.9	0.	-3870.2
25963	3.2345e-014	3.7	0.	-3898.
25964	3.0597e-014	3.5	0.	-3917.6
25965	2.8848e-014	3.3	0.	-3930.
25966	2.71e-014	3.1	0.	-3935.9
25967	2.5352e-014	2.9	0.	-3935.9
25968	2.3603e-014	2.7	0.	-3930.
25969	2.1855e-014	2.5	0.	-3917.6
25970	2.0106e-014	2.3	0.	-3898.
25971	1.8358e-014	2.1	0.	-3870.2
25972	1.661e-014	1.9	0.	-3832.3
25973	1.4861e-014	1.7	0.	-3782.
25974	1.3113e-014	1.5	0.	-3715.3
25975	1.1364e-014	1.3	0.	-3626.6
25976	9.6161e-015	1.1	0.	-3506.5
25977	7.8677e-015	0.9	0.	-3339.4
25978	6.1193e-015	0.7	0.	-3095.2
25979	4.371e-015	0.5	0.	-2702.2
25980	2.6226e-015	0.3	0.	-1928.7
25981	24.	0.3	0.	2.0182
25982	24.	0.5	0.	2.0634
25983	24.	0.7	0.	2.179
25984	24.	0.9	0.	2.2099
25985	24.	1.1	0.	2.2373
25986	24.	1.3	0.	2.2549
25987	24.	1.5	0.	2.2685
25988	24.	1.7	0.	2.2787
25989	24.	1.9	0.	2.2866
25990	24.	2.1	0.	2.2925
25991	24.	2.3	0.	2.297
25992	24.	2.5	0.	2.3002
25993	24.	2.7	0.	2.3022
25994	24.	2.9	0.	2.3032
25995	24.	3.1	0.	2.3032
25996	24.	3.3	0.	2.3022
25997	24.	3.5	0.	2.3002
25998	24.	3.7	0.	2.297
25999	24.	3.9	0.	2.2925
26000	24.	4.1	0.	2.2866
26001	24.	4.3	0.	2.2787
26002	24.	4.5	0.	2.2685
26003	24.	4.7	0.	2.2549
26004	24.	4.9	0.	2.2373
26005	24.	5.1	0.	2.2099
26006	24.	5.3	0.	2.179
26007	24.	5.5	0.	2.0634
26008	24.	5.7	0.	2.0182
26009	24.	5.9	0.	2.3171
26010	23.901	6.	0.	-0.45903
26011	23.703	6.	0.	-0.69772
26012	23.505	6.	0.	-0.49191
26013	23.307	6.	0.	-0.44193
26014	23.109	6.	0.	-0.38592
26015	22.911	6.	0.	-0.34778
26016	22.714	6.	0.	-0.31453
26017	22.516	6.	0.	-0.28652
26018	22.318	6.	0.	-0.26214
26019	22.12	6.	0.	-0.24072
26020	21.922	6.	0.	-0.2217
26021	21.724	6.	0.	-0.20465
26022	21.526	6.	0.	-0.18926
26023	21.328	6.	0.	-0.1753
26024	21.13	6.	0.	-0.16257
26025	20.932	6.	0.	-0.15091
26026	20.734	6.	0.	-0.14018
26027	20.536	6.	0.	-0.13028
26028	20.339	6.	0.	-0.12113
26029	20.141	6.	0.	-0.11262
26030	19.943	6.	0.	-0.10468
26031	19.745	6.	0.	-9.7252e-002
26032	19.547	6.	0.	-9.0282e-002
26033	19.349	6.	0.	-8.3709e-002
26034	19.151	6.	0.	-7.7472e-002
26035	18.953	6.	0.	-7.1533e-002
26036	18.755	6.	0.	-6.5856e-002
26037	18.557	6.	0.	-6.039e-002
26038	18.359	6.	0.	-5.5089e-002
26039	18.161	6.	0.	-4.9921e-002
26040	17.964	6.	0.	-4.4859e-002
26041	17.766	6.	0.	-3.986e-002
26042	17.568	6.	0.	-3.4878e-002
26043	17.37	6.	0.	-2.989e-002
26044	17.172	6.	0.	-2.4872e-002
26045	16.974	6.	0.	-1.9784e-002
26046	16.776	6.	0.	-1.4583e-002
26047	16.578	6.	0.	-9.2504e-003
26048	16.38	6.	0.	-3.7701e-003
26049	16.182	6.	0.	1.8967e-003
26050	15.984	6.	0.	7.7893e-003
26051	15.786	6.	0.	1.3915e-002
26052	15.589	6.	0.	2.0277e-002
26053	15.391	6.	0.	2.6901e-002
26054	15.193	6.	0.	3.3809e-002
26055	14.995	6.	0.	4.098e-002
26056	14.797	6.	0.	4.8383e-002
26057	14.599	6.	0.	5.6005e-002
26058	14.401	6.	0.	6.381e-002
26059	14.203	6.	0.	7.1707e-002
26060	14.005	6.	0.	7.9574e-002
26061	13.807	6.	0.	8.7283e-002
26062	13.609	6.	0.	9.4663e-002
26063	13.411	6.	0.	0.10144
26064	13.214	6.	0.	0.10729
26065	13.016	6.	0.	0.11181
26066	12.818	6.	0.	0.11451
26067	12.62	6.	0.	0.11475
26068	12.422	6.	0.	0.11172
26069	12.224	6.	0.	0.10453
26070	12.026	6.	0.	9.2066e-002
26071	11.828	6.	0.	7.3037e-002
26072	11.63	6.	0.	4.5981e-002
26073	11.432	6.	0.	9.3903e-003
26074	11.234	6.	0.	-3.8231e-002
26075	11.036	6.	0.	-9.8239e-002
26076	10.839	6.	0.	-0.17152
26077	10.641	6.	0.	-0.25801
26078	10.443	6.	0.	-0.35602
26079	10.245	6.	0.	-0.4612
26080	10.047	6.	0.	-0.56511
26081	9.849	6.	0.	-0.65289
26082	9.651	6.	0.	-0.70233
26083	9.4531	6.	0.	-0.67744
26084	9.2552	6.	0.	-0.54923
26085	9.0573	6.	0.	-0.2246
26086	8.8594	6.	0.	0.12283
26087	8.6615	6.	0.	1.2496
26088	8.4635	6.	0.	-1.1884
26089	8.2656	6.	0.	-23.286
26090	8.1667	5.9	0.	-2.9187
26091	8.	1.7	0.	6.9122
26092	8.	1.9	0.	-1042.8
26093	8.	1.5	0.	57.982
26094	8.	1.3	0.	22.639
26095	8.	1.1	0.	21.569
26096	8.	0.9	0.	16.715
26097	8.	0.7	0.	15.154
26098	8.	0.5	0.	14.129
26099	8.	0.3	0.	12.201
26100	8.0833	2.	0.	-1853.5
26101	8.1667	0.3	0.	10.208
26102	8.1667	0.5	0.	12.096
26103	8.1667	0.7	0.	13.124
26104	8.1667	0.9	0.	14.733
26105	8.1667	1.1	0.	19.397
26106	8.1667	1.3	0.	20.813
26107	8.1667	1.5	0.	56.235
26108	8.1667	1.7	0.	12.266
26109	8.1667	1.9	0.	-1167.1
26110	8.	4.3	0.	6.9123
26111	8.	4.1	0.	-1042.8
26112	8.	4.5	0.	57.982
26113	8.	4.7	0.	22.639
26114	8.	4.9	0.	21.569
26115	8.	5.1	0.	16.715
26116	8.	5.3	0.	15.154
26117	8.	5.5	0.	14.129
26118	8.	5.7	0.	12.201
26119	8.0833	4.	0.	-1853.5
26120	8.1667	5.7	0.	10.208
26121	8.1667	5.5	0.	12.096
26122	8.1667	5.3	0.	13.124
26123	8.1667	5.1	0.	14.733
26124	8.1667	4.9	0.	19.397
26125	8.1667	4.7	0.	20.813
26126	8.1667	4.5	0.	56.235
26127	8.1667	4.3	0.	12.266
26128	8.1667	4.1	0.	-1167.1
