Node Number	X Location (in)	Y Location (in)	Z Location (in)	Middle Principal Stress (psi)
1	17.	2.1818	0.	80.305
2	17.	2.3636	0.	-13.924
3	17.	2.5455	0.	0.33816
4	17.	2.7273	0.	-1.5421
5	17.	2.9091	0.	-0.8184
6	17.	3.0909	0.	-0.8184
7	17.	3.2727	0.	-1.5421
8	17.	3.4545	0.	0.33816
9	17.	3.6364	0.	-13.924
10	17.	3.8182	0.	80.305
11	17.167	2.1818	0.	9.7958
12	17.167	2.3636	0.	-15.343
13	17.167	2.5455	0.	0.81322
14	17.167	2.7273	0.	-1.5483
15	17.167	2.9091	0.	-0.70048
16	17.167	3.0909	0.	-0.70048
17	17.167	3.2727	0.	-1.5483
18	17.167	3.4545	0.	0.81322
19	17.167	3.6364	0.	-15.343
20	17.167	3.8182	0.	9.7956
21	16.815	5.8182	0.	-7.1654
22	16.815	5.6364	0.	-3.2563
23	16.815	5.4545	0.	-2.5413
24	16.815	5.2727	0.	-2.2902
25	16.815	5.0909	0.	-2.2546
26	16.815	4.9091	0.	-2.965
27	16.815	4.7273	0.	-1.9312
28	16.815	4.5455	0.	-9.0571
29	16.815	4.3636	0.	8.8349
30	16.815	4.1818	0.	-49.674
31	16.815	4.	0.	-224.03
32	16.815	3.8182	0.	11.177
33	16.815	3.6364	0.	-6.7793
34	16.815	3.4545	0.	2.1548
35	16.815	3.2727	0.	-1.3719
36	16.815	3.0909	0.	-0.31821
37	16.815	2.9091	0.	-0.31821
38	16.815	2.7273	0.	-1.3719
39	16.815	2.5455	0.	2.1548
40	16.815	2.3636	0.	-6.7793
41	16.815	2.1818	0.	11.177
42	16.815	2.	0.	-224.03
43	16.815	1.8182	0.	-49.674
44	16.815	1.6364	0.	8.8349
45	16.815	1.4545	0.	-9.0571
46	16.815	1.2727	0.	-1.9312
47	16.815	1.0909	0.	-2.965
48	16.815	0.90909	0.	-2.2546
49	16.815	0.72727	0.	-2.2902
50	16.815	0.54545	0.	-2.5413
51	16.815	0.36364	0.	-3.2563
52	16.815	0.18182	0.	-7.1655
53	16.63	5.8182	0.	-0.66264
54	16.63	5.6364	0.	-1.8608e-002
55	16.63	5.4545	0.	0.28281
56	16.63	5.2727	0.	0.51054
57	16.63	5.0909	0.	0.60762
58	16.63	4.9091	0.	0.76907
59	16.63	4.7273	0.	0.69274
60	16.63	4.5455	0.	0.63024
61	16.63	4.3636	0.	2.8611
62	16.63	4.1818	0.	7.2857
63	16.63	4.	0.	27.169
64	16.63	3.8182	0.	13.942
65	16.63	3.6364	0.	-2.153
66	16.63	3.4545	0.	0.51328
67	16.63	3.2727	0.	-7.5966e-002
68	16.63	3.0909	0.	-0.10644
69	16.63	2.9091	0.	-0.10645
70	16.63	2.7273	0.	-7.5964e-002
71	16.63	2.5455	0.	0.51328
72	16.63	2.3636	0.	-2.153
73	16.63	2.1818	0.	13.942
74	16.63	2.	0.	27.169
75	16.63	1.8182	0.	7.2857
76	16.63	1.6364	0.	2.8611
77	16.63	1.4545	0.	0.63024
78	16.63	1.2727	0.	0.69274
79	16.63	1.0909	0.	0.76907
80	16.63	0.90909	0.	0.60762
81	16.63	0.72727	0.	0.51054
82	16.63	0.54545	0.	0.28281
83	16.63	0.36364	0.	-1.8609e-002
84	16.63	0.18182	0.	-0.66264
85	16.446	5.8182	0.	1.4768e-002
86	16.446	5.6364	0.	-0.16404
87	16.446	5.4545	0.	-0.14332
88	16.446	5.2727	0.	-0.18757
89	16.446	5.0909	0.	-0.24167
90	16.446	4.9091	0.	-0.42016
91	16.446	4.7273	0.	-0.51329
92	16.446	4.5455	0.	-0.49292
93	16.446	4.3636	0.	-3.6016
94	16.446	4.1818	0.	-1.6911
95	16.446	4.	0.	-4.9601
96	16.446	3.8182	0.	-3.6354
97	16.446	3.6364	0.	2.0824
98	16.446	3.4545	0.	0.25219
99	16.446	3.2727	0.	0.26652
100	16.446	3.0909	0.	0.16123
101	16.446	2.9091	0.	0.16123
102	16.446	2.7273	0.	0.26652
103	16.446	2.5455	0.	0.25219
104	16.446	2.3636	0.	2.0824
105	16.446	2.1818	0.	-3.6354
106	16.446	2.	0.	-4.9601
107	16.446	1.8182	0.	-1.6911
108	16.446	1.6364	0.	-3.6016
109	16.446	1.4545	0.	-0.49292
110	16.446	1.2727	0.	-0.51329
111	16.446	1.0909	0.	-0.42016
112	16.446	0.90909	0.	-0.24167
113	16.446	0.72727	0.	-0.18757
114	16.446	0.54545	0.	-0.14332
115	16.446	0.36364	0.	-0.16404
116	16.446	0.18182	0.	1.4765e-002
117	16.261	5.8182	0.	0.44215
118	16.261	5.6364	0.	9.4054e-002
119	16.261	5.4545	0.	8.049e-002
120	16.261	5.2727	0.	-3.5039e-003
121	16.261	5.0909	0.	-7.15e-002
122	16.261	4.9091	0.	-0.13714
123	16.261	4.7273	0.	-0.27462
124	16.261	4.5455	0.	-0.41193
125	16.261	4.3636	0.	0.29306
126	16.261	4.1818	0.	-0.16319
127	16.261	4.	0.	0.85951
128	16.261	3.8182	0.	1.4086
129	16.261	3.6364	0.	0.17054
130	16.261	3.4545	0.	0.34258
131	16.261	3.2727	0.	0.30447
132	16.261	3.0909	0.	0.2516
133	16.261	2.9091	0.	0.2516
134	16.261	2.7273	0.	0.30447
135	16.261	2.5455	0.	0.34259
136	16.261	2.3636	0.	0.17054
137	16.261	2.1818	0.	1.4086
138	16.261	2.	0.	0.85951
139	16.261	1.8182	0.	-0.16319
140	16.261	1.6364	0.	0.29306
141	16.261	1.4545	0.	-0.41193
142	16.261	1.2727	0.	-0.27462
143	16.261	1.0909	0.	-0.13714
144	16.261	0.90909	0.	-7.1498e-002
145	16.261	0.72727	0.	-3.5042e-003
146	16.261	0.54545	0.	8.0489e-002
147	16.261	0.36364	0.	9.4055e-002
148	16.261	0.18182	0.	0.44215
149	16.076	5.8182	0.	0.3592
150	16.076	5.6364	0.	3.7321e-002
151	16.076	5.4545	0.	6.4524e-002
152	16.076	5.2727	0.	-2.5227e-002
153	16.076	5.0909	0.	-8.8261e-002
154	16.076	4.9091	0.	-0.15332
155	16.076	4.7273	0.	-0.19545
156	16.076	4.5455	0.	-0.25367
157	16.076	4.3636	0.	-0.40614
158	16.076	4.1818	0.	-0.28245
159	16.076	4.	0.	-0.38579
160	16.076	3.8182	0.	-0.34018
161	16.076	3.6364	0.	9.63e-002
162	16.076	3.4545	0.	0.21796
163	16.076	3.2727	0.	0.22849
164	16.076	3.0909	0.	0.24281
165	16.076	2.9091	0.	0.24281
166	16.076	2.7273	0.	0.22849
167	16.076	2.5455	0.	0.21796
168	16.076	2.3636	0.	9.6301e-002
169	16.076	2.1818	0.	-0.34018
170	16.076	2.	0.	-0.38579
171	16.076	1.8182	0.	-0.28245
172	16.076	1.6364	0.	-0.40614
173	16.076	1.4545	0.	-0.25367
174	16.076	1.2727	0.	-0.19545
175	16.076	1.0909	0.	-0.15332
176	16.076	0.90909	0.	-8.826e-002
177	16.076	0.72727	0.	-2.5224e-002
178	16.076	0.54545	0.	6.4524e-002
179	16.076	0.36364	0.	3.732e-002
180	16.076	0.18182	0.	0.3592
181	15.891	5.8182	0.	0.22656
182	15.891	5.6364	0.	-9.135e-003
183	15.891	5.4545	0.	6.7024e-002
184	15.891	5.2727	0.	-6.4548e-003
185	15.891	5.0909	0.	-4.7824e-002
186	15.891	4.9091	0.	-8.9208e-002
187	15.891	4.7273	0.	-0.12264
188	15.891	4.5455	0.	-0.13642
189	15.891	4.3636	0.	-0.12617
190	15.891	4.1818	0.	-0.14741
191	15.891	4.	0.	-9.4855e-002
192	15.891	3.8182	0.	-2.3956e-002
193	15.891	3.6364	0.	9.3018e-003
194	15.891	3.4545	0.	9.1209e-002
195	15.891	3.2727	0.	0.16433
196	15.891	3.0909	0.	0.19187
197	15.891	2.9091	0.	0.19187
198	15.891	2.7273	0.	0.16433
199	15.891	2.5455	0.	9.1208e-002
200	15.891	2.3636	0.	9.3025e-003
201	15.891	2.1818	0.	-2.3956e-002
202	15.891	2.	0.	-9.4856e-002
203	15.891	1.8182	0.	-0.14741
204	15.891	1.6364	0.	-0.12617
205	15.891	1.4545	0.	-0.13642
206	15.891	1.2727	0.	-0.12264
207	15.891	1.0909	0.	-8.9207e-002
208	15.891	0.90909	0.	-4.7824e-002
209	15.891	0.72727	0.	-6.4531e-003
210	15.891	0.54545	0.	6.7023e-002
211	15.891	0.36364	0.	-9.1352e-003
212	15.891	0.18182	0.	0.22656
213	15.707	5.8182	0.	8.9339e-002
214	15.707	5.6364	0.	-5.6884e-002
215	15.707	5.4545	0.	5.4725e-002
216	15.707	5.2727	0.	6.1106e-004
217	15.707	5.0909	0.	-2.5343e-002
218	15.707	4.9091	0.	-5.325e-002
219	15.707	4.7273	0.	-7.476e-002
220	15.707	4.5455	0.	-9.5342e-002
221	15.707	4.3636	0.	-0.11707
222	15.707	4.1818	0.	-0.12865
223	15.707	4.	0.	-0.13483
224	15.707	3.8182	0.	-0.10589
225	15.707	3.6364	0.	-3.1657e-002
226	15.707	3.4545	0.	4.6395e-002
227	15.707	3.2727	0.	0.10689
228	15.707	3.0909	0.	0.14048
229	15.707	2.9091	0.	0.14048
230	15.707	2.7273	0.	0.10689
231	15.707	2.5455	0.	4.6395e-002
232	15.707	2.3636	0.	-3.1656e-002
233	15.707	2.1818	0.	-0.10589
234	15.707	2.	0.	-0.13483
235	15.707	1.8182	0.	-0.12865
236	15.707	1.6364	0.	-0.11707
237	15.707	1.4545	0.	-9.5342e-002
238	15.707	1.2727	0.	-7.476e-002
239	15.707	1.0909	0.	-5.325e-002
240	15.707	0.90909	0.	-2.5342e-002
241	15.707	0.72727	0.	6.1274e-004
242	15.707	0.54545	0.	5.4724e-002
243	15.707	0.36364	0.	-5.6885e-002
244	15.707	0.18182	0.	8.9341e-002
245	15.522	5.8182	0.	-1.1134e-002
246	15.522	5.6364	0.	-8.6697e-002
247	15.522	5.4545	0.	4.5764e-002
248	15.522	5.2727	0.	8.3132e-003
249	15.522	5.0909	0.	-5.7038e-003
250	15.522	4.9091	0.	-2.5352e-002
251	15.522	4.7273	0.	-4.1755e-002
252	15.522	4.5455	0.	-5.7818e-002
253	15.522	4.3636	0.	-7.3281e-002
254	15.522	4.1818	0.	-8.6619e-002
255	15.522	4.	0.	-8.7153e-002
256	15.522	3.8182	0.	-6.943e-002
257	15.522	3.6364	0.	-3.2311e-002
258	15.522	3.4545	0.	2.0208e-002
259	15.522	3.2727	0.	7.0113e-002
260	15.522	3.0909	0.	9.9545e-002
261	15.522	2.9091	0.	9.9547e-002
262	15.522	2.7273	0.	7.0113e-002
263	15.522	2.5455	0.	2.0208e-002
264	15.522	2.3636	0.	-3.2312e-002
265	15.522	2.1818	0.	-6.943e-002
266	15.522	2.	0.	-8.7154e-002
267	15.522	1.8182	0.	-8.662e-002
268	15.522	1.6364	0.	-7.3283e-002
269	15.522	1.4545	0.	-5.7818e-002
270	15.522	1.2727	0.	-4.1756e-002
271	15.522	1.0909	0.	-2.5352e-002
272	15.522	0.90909	0.	-5.7028e-003
273	15.522	0.72727	0.	8.3165e-003
274	15.522	0.54545	0.	4.5765e-002
275	15.522	0.36364	0.	-8.6696e-002
276	15.522	0.18182	0.	-1.1135e-002
277	15.337	5.8182	0.	-7.4438e-002
278	15.337	5.6364	0.	-0.10303
279	15.337	5.4545	0.	3.7669e-002
280	15.337	5.2727	0.	1.2949e-002
281	15.337	5.0909	0.	6.9629e-003
282	15.337	4.9091	0.	-6.9916e-003
283	15.337	4.7273	0.	-2.0206e-002
284	15.337	4.5455	0.	-3.4622e-002
285	15.337	4.3636	0.	-4.928e-002
286	15.337	4.1818	0.	-6.114e-002
287	15.337	4.	0.	-6.5162e-002
288	15.337	3.8182	0.	-5.4729e-002
289	15.337	3.6364	0.	-2.7563e-002
290	15.337	3.4545	0.	1.0234e-002
291	15.337	3.2727	0.	4.7205e-002
292	15.337	3.0909	0.	7.0152e-002
293	15.337	2.9091	0.	7.0153e-002
294	15.337	2.7273	0.	4.7205e-002
295	15.337	2.5455	0.	1.0235e-002
296	15.337	2.3636	0.	-2.7563e-002
297	15.337	2.1818	0.	-5.4729e-002
298	15.337	2.	0.	-6.5163e-002
299	15.337	1.8182	0.	-6.1141e-002
300	15.337	1.6364	0.	-4.9279e-002
301	15.337	1.4545	0.	-3.4622e-002
302	15.337	1.2727	0.	-2.0206e-002
303	15.337	1.0909	0.	-6.9896e-003
304	15.337	0.90909	0.	6.9653e-003
305	15.337	0.72727	0.	1.2949e-002
306	15.337	0.54545	0.	3.767e-002
307	15.337	0.36364	0.	-0.10303
308	15.337	0.18182	0.	-7.4436e-002
309	15.152	5.8182	0.	-0.10653
310	15.152	5.6364	0.	-0.10895
311	15.152	5.4545	0.	3.0958e-002
312	15.152	5.2727	0.	1.5575e-002
313	15.152	5.0909	0.	1.4919e-002
314	15.152	4.9091	0.	5.0805e-003
315	15.152	4.7273	0.	-5.2669e-003
316	15.152	4.5455	0.	-1.7195e-002
317	15.152	4.3636	0.	-2.9171e-002
318	15.152	4.1818	0.	-3.8885e-002
319	15.152	4.	0.	-4.2434e-002
320	15.152	3.8182	0.	-3.6216e-002
321	15.152	3.6364	0.	-1.8813e-002
322	15.152	3.4545	0.	6.9827e-003
323	15.152	3.2727	0.	3.3292e-002
324	15.152	3.0909	0.	5.0023e-002
325	15.152	2.9091	0.	5.0026e-002
326	15.152	2.7273	0.	3.329e-002
327	15.152	2.5455	0.	6.983e-003
328	15.152	2.3636	0.	-1.8812e-002
329	15.152	2.1818	0.	-3.6216e-002
330	15.152	2.	0.	-4.2434e-002
331	15.152	1.8182	0.	-3.8883e-002
332	15.152	1.6364	0.	-2.9171e-002
333	15.152	1.4545	0.	-1.7195e-002
334	15.152	1.2727	0.	-5.2667e-003
335	15.152	1.0909	0.	5.081e-003
336	15.152	0.90909	0.	1.4921e-002
337	15.152	0.72727	0.	1.5576e-002
338	15.152	0.54545	0.	3.0957e-002
339	15.152	0.36364	0.	-0.10895
340	15.152	0.18182	0.	-0.10653
341	14.967	5.8182	0.	-0.11661
342	14.967	5.6364	0.	-0.10812
343	14.967	5.4545	0.	2.5144e-002
344	14.967	5.2727	0.	1.642e-002
345	14.967	5.0909	0.	1.9243e-002
346	14.967	4.9091	0.	1.2552e-002
347	14.967	4.7273	0.	4.6306e-003
348	14.967	4.5455	0.	-5.0026e-003
349	14.967	4.3636	0.	-1.4723e-002
350	14.967	4.1818	0.	-2.2613e-002
351	14.967	4.	0.	-2.6006e-002
352	14.967	3.8182	0.	-2.2379e-002
353	14.967	3.6364	0.	-1.0788e-002
354	14.967	3.4545	0.	6.7225e-003
355	14.967	3.2727	0.	2.4827e-002
356	14.967	3.0909	0.	3.648e-002
357	14.967	2.9091	0.	3.6479e-002
358	14.967	2.7273	0.	2.4828e-002
359	14.967	2.5455	0.	6.7222e-003
360	14.967	2.3636	0.	-1.0789e-002
361	14.967	2.1818	0.	-2.2379e-002
362	14.967	2.	0.	-2.6007e-002
363	14.967	1.8182	0.	-2.2612e-002
364	14.967	1.6364	0.	-1.4722e-002
365	14.967	1.4545	0.	-5.0034e-003
366	14.967	1.2727	0.	4.6317e-003
367	14.967	1.0909	0.	1.2552e-002
368	14.967	0.90909	0.	1.9245e-002
369	14.967	0.72727	0.	1.6421e-002
370	14.967	0.54545	0.	2.5144e-002
371	14.967	0.36364	0.	-0.10812
372	14.967	0.18182	0.	-0.11661
373	14.783	5.8182	0.	-0.11281
374	14.783	5.6364	0.	-0.10318
375	14.783	5.4545	0.	2.0104e-002
376	14.783	5.2727	0.	1.6047e-002
377	14.783	5.0909	0.	2.108e-002
378	14.783	4.9091	0.	1.6838e-002
379	14.783	4.7273	0.	1.1018e-002
380	14.783	4.5455	0.	3.4792e-003
381	14.783	4.3636	0.	-4.1965e-003
382	14.783	4.1818	0.	-1.0495e-002
383	14.783	4.	0.	-1.3503e-002
384	14.783	3.8182	0.	-1.1579e-002
385	14.783	3.6364	0.	-4.1421e-003
386	14.783	3.4545	0.	7.4413e-003
387	14.783	3.2727	0.	1.9559e-002
388	14.783	3.0909	0.	2.7393e-002
389	14.783	2.9091	0.	2.7395e-002
390	14.783	2.7273	0.	1.9559e-002
391	14.783	2.5455	0.	7.4414e-003
392	14.783	2.3636	0.	-4.1424e-003
393	14.783	2.1818	0.	-1.1578e-002
394	14.783	2.	0.	-1.3503e-002
395	14.783	1.8182	0.	-1.0495e-002
396	14.783	1.6364	0.	-4.1971e-003
397	14.783	1.4545	0.	3.4799e-003
398	14.783	1.2727	0.	1.1018e-002
399	14.783	1.0909	0.	1.6839e-002
400	14.783	0.90909	0.	2.1083e-002
401	14.783	0.72727	0.	1.6049e-002
402	14.783	0.54545	0.	2.0103e-002
403	14.783	0.36364	0.	-0.10318
404	14.783	0.18182	0.	-0.11281
405	14.598	5.8182	0.	-0.10143
406	14.598	5.6364	0.	-9.6014e-002
407	14.598	5.4545	0.	1.5726e-002
408	14.598	5.2727	0.	1.4881e-002
409	14.598	5.0909	0.	2.1251e-002
410	14.598	4.9091	0.	1.8904e-002
411	14.598	4.7273	0.	1.4826e-002
412	14.598	4.5455	0.	9.0724e-003
413	14.598	4.3636	0.	3.079e-003
414	14.598	4.1818	0.	-1.9443e-003
415	14.598	4.	0.	-4.6159e-003
416	14.598	3.8182	0.	-3.8171e-003
417	14.598	3.6364	0.	8.0107e-004
418	14.598	3.4545	0.	8.2698e-003
419	14.598	3.2727	0.	1.6156e-002
420	14.598	3.0909	0.	2.1267e-002
421	14.598	2.9091	0.	2.1267e-002
422	14.598	2.7273	0.	1.6156e-002
423	14.598	2.5455	0.	8.2698e-003
424	14.598	2.3636	0.	8.0188e-004
425	14.598	2.1818	0.	-3.8182e-003
426	14.598	2.	0.	-4.6157e-003
427	14.598	1.8182	0.	-1.9441e-003
428	14.598	1.6364	0.	3.0799e-003
429	14.598	1.4545	0.	9.0716e-003
430	14.598	1.2727	0.	1.4827e-002
431	14.598	1.0909	0.	1.8904e-002
432	14.598	0.90909	0.	2.1253e-002
433	14.598	0.72727	0.	1.4882e-002
434	14.598	0.54545	0.	1.5726e-002
435	14.598	0.36364	0.	-9.6015e-002
436	14.598	0.18182	0.	-0.10143
437	14.413	5.8182	0.	-8.683e-002
438	14.413	5.6364	0.	-8.7843e-002
439	14.413	5.4545	0.	1.196e-002
440	14.413	5.2727	0.	1.3269e-002
441	14.413	5.0909	0.	2.0367e-002
442	14.413	4.9091	0.	1.9466e-002
443	14.413	4.7273	0.	1.6801e-002
444	14.413	4.5455	0.	1.252e-002
445	14.413	4.3636	0.	7.896e-003
446	14.413	4.1818	0.	3.8933e-003
447	14.413	4.	0.	1.5322e-003
448	14.413	3.8182	0.	1.5821e-003
449	14.413	3.6364	0.	4.2609e-003
450	14.413	3.4545	0.	8.8953e-003
451	14.413	3.2727	0.	1.3865e-002
452	14.413	3.0909	0.	1.7099e-002
453	14.413	2.9091	0.	1.7099e-002
454	14.413	2.7273	0.	1.3866e-002
455	14.413	2.5455	0.	8.8952e-003
456	14.413	2.3636	0.	4.261e-003
457	14.413	2.1818	0.	1.5832e-003
458	14.413	2.	0.	1.5322e-003
459	14.413	1.8182	0.	3.893e-003
460	14.413	1.6364	0.	7.8963e-003
461	14.413	1.4545	0.	1.252e-002
462	14.413	1.2727	0.	1.6802e-002
463	14.413	1.0909	0.	1.9467e-002
464	14.413	0.90909	0.	2.0368e-002
465	14.413	0.72727	0.	1.327e-002
466	14.413	0.54545	0.	1.1961e-002
467	14.413	0.36364	0.	-8.7843e-002
468	14.413	0.18182	0.	-8.6831e-002
469	14.228	5.8182	0.	-7.1736e-002
470	14.228	5.6364	0.	-7.9446e-002
471	14.228	5.4545	0.	8.7615e-003
472	14.228	5.2727	0.	1.1458e-002
473	14.228	5.0909	0.	1.8861e-002
474	14.228	4.9091	0.	1.9039e-002
475	14.228	4.7273	0.	1.749e-002
476	14.228	4.5455	0.	1.4392e-002
477	14.228	4.3636	0.	1.0865e-002
478	14.228	4.1818	0.	7.6717e-003
479	14.228	4.	0.	5.5885e-003
480	14.228	3.8182	0.	5.1595e-003
481	14.228	3.6364	0.	6.5315e-003
482	14.228	3.4545	0.	9.249e-003
483	14.228	3.2727	0.	1.2257e-002
484	14.228	3.0909	0.	1.423e-002
485	14.228	2.9091	0.	1.423e-002
486	14.228	2.7273	0.	1.2256e-002
487	14.228	2.5455	0.	9.2503e-003
488	14.228	2.3636	0.	6.5317e-003
489	14.228	2.1818	0.	5.16e-003
490	14.228	2.	0.	5.5884e-003
491	14.228	1.8182	0.	7.6728e-003
492	14.228	1.6364	0.	1.0864e-002
493	14.228	1.4545	0.	1.4393e-002
494	14.228	1.2727	0.	1.749e-002
495	14.228	1.0909	0.	1.9039e-002
496	14.228	0.90909	0.	1.8862e-002
497	14.228	0.72727	0.	1.1459e-002
498	14.228	0.54545	0.	8.7603e-003
499	14.228	0.36364	0.	-7.9446e-002
500	14.228	0.18182	0.	-7.1736e-002
501	14.043	5.8182	0.	-5.7647e-002
502	14.043	5.6364	0.	-7.1247e-002
503	14.043	5.4545	0.	6.1124e-003
504	14.043	5.2727	0.	9.6563e-003
505	14.043	5.0909	0.	1.7072e-002
506	14.043	4.9091	0.	1.8036e-002
507	14.043	4.7273	0.	1.7345e-002
508	14.043	4.5455	0.	1.519e-002
509	14.043	4.3636	0.	1.2529e-002
510	14.043	4.1818	0.	9.9877e-003
511	14.043	4.	0.	8.1576e-003
512	14.043	3.8182	0.	7.443e-003
513	14.043	3.6364	0.	7.9572e-003
514	14.043	3.4545	0.	9.4097e-003
515	14.043	3.2727	0.	1.1122e-002
516	14.043	3.0909	0.	1.227e-002
517	14.043	2.9091	0.	1.2269e-002
518	14.043	2.7273	0.	1.1123e-002
519	14.043	2.5455	0.	9.41e-003
520	14.043	2.3636	0.	7.958e-003
521	14.043	2.1818	0.	7.4428e-003
522	14.043	2.	0.	8.1576e-003
523	14.043	1.8182	0.	9.9881e-003
524	14.043	1.6364	0.	1.2529e-002
525	14.043	1.4545	0.	1.5191e-002
526	14.043	1.2727	0.	1.7346e-002
527	14.043	1.0909	0.	1.8035e-002
528	14.043	0.90909	0.	1.7075e-002
529	14.043	0.72727	0.	9.6584e-003
530	14.043	0.54545	0.	6.1131e-003
531	14.043	0.36364	0.	-7.1248e-002
532	14.043	0.18182	0.	-5.7648e-002
533	13.859	5.8182	0.	-4.5342e-002
534	13.859	5.6364	0.	-6.3553e-002
535	13.859	5.4545	0.	3.9164e-003
536	13.859	5.2727	0.	7.9174e-003
537	13.859	5.0909	0.	1.5152e-002
538	13.859	4.9091	0.	1.6667e-002
539	13.859	4.7273	0.	1.6626e-002
540	13.859	4.5455	0.	1.5209e-002
541	13.859	4.3636	0.	1.3236e-002
542	13.859	4.1818	0.	1.1219e-002
543	13.859	4.	0.	9.626e-003
544	13.859	3.8182	0.	8.7674e-003
545	13.859	3.6364	0.	8.7432e-003
546	13.859	3.4545	0.	9.3816e-003
547	13.859	3.2727	0.	1.0263e-002
548	13.859	3.0909	0.	1.088e-002
549	13.859	2.9091	0.	1.088e-002
550	13.859	2.7273	0.	1.0263e-002
551	13.859	2.5455	0.	9.3822e-003
552	13.859	2.3636	0.	8.7432e-003
553	13.859	2.1818	0.	8.7672e-003
554	13.859	2.	0.	9.6262e-003
555	13.859	1.8182	0.	1.1218e-002
556	13.859	1.6364	0.	1.3236e-002
557	13.859	1.4545	0.	1.5209e-002
558	13.859	1.2727	0.	1.6627e-002
559	13.859	1.0909	0.	1.6666e-002
560	13.859	0.90909	0.	1.5154e-002
561	13.859	0.72727	0.	7.9206e-003
562	13.859	0.54545	0.	3.9159e-003
563	13.859	0.36364	0.	-6.3552e-002
564	13.859	0.18182	0.	-4.5342e-002
565	13.674	5.8182	0.	-3.5045e-002
566	13.674	5.6364	0.	-5.6488e-002
567	13.674	5.4545	0.	2.1144e-003
568	13.674	5.2727	0.	6.3063e-003
569	13.674	5.0909	0.	1.3229e-002
570	13.674	4.9091	0.	1.5113e-002
571	13.674	4.7273	0.	1.5555e-002
572	13.674	4.5455	0.	1.4709e-002
573	13.674	4.3636	0.	1.3282e-002
574	13.674	4.1818	0.	1.1696e-002
575	13.674	4.	0.	1.0324e-002
576	13.674	3.8182	0.	9.4237e-003
577	13.674	3.6364	0.	9.0838e-003
578	13.674	3.4545	0.	9.2196e-003
579	13.674	3.2727	0.	9.5832e-003
580	13.674	3.0909	0.	9.8689e-003
581	13.674	2.9091	0.	9.8699e-003
582	13.674	2.7273	0.	9.5837e-003
583	13.674	2.5455	0.	9.2203e-003
584	13.674	2.3636	0.	9.0829e-003
585	13.674	2.1818	0.	9.4232e-003
586	13.674	2.	0.	1.0326e-002
587	13.674	1.8182	0.	1.1696e-002
588	13.674	1.6364	0.	1.3282e-002
589	13.674	1.4545	0.	1.471e-002
590	13.674	1.2727	0.	1.5555e-002
591	13.674	1.0909	0.	1.5114e-002
592	13.674	0.90909	0.	1.3231e-002
593	13.674	0.72727	0.	6.3073e-003
594	13.674	0.54545	0.	2.1141e-003
595	13.674	0.36364	0.	-5.6489e-002
596	13.674	0.18182	0.	-3.5045e-002
597	13.489	5.8182	0.	-2.6663e-002
598	13.489	5.6364	0.	-5.0061e-002
599	13.489	5.4545	0.	6.8511e-004
600	13.489	5.2727	0.	4.8851e-003
601	13.489	5.0909	0.	1.142e-002
602	13.489	4.9091	0.	1.3535e-002
603	13.489	4.7273	0.	1.4325e-002
604	13.489	4.5455	0.	1.3921e-002
605	13.489	4.3636	0.	1.2927e-002
606	13.489	4.1818	0.	1.1696e-002
607	13.489	4.	0.	1.0539e-002
608	13.489	3.8182	0.	9.6596e-003
609	13.489	3.6364	0.	9.1584e-003
610	13.489	3.4545	0.	9.0042e-003
611	13.489	3.2727	0.	9.0572e-003
612	13.489	3.0909	0.	9.1444e-003
613	13.489	2.9091	0.	9.1436e-003
614	13.489	2.7273	0.	9.0567e-003
615	13.489	2.5455	0.	9.0034e-003
616	13.489	2.3636	0.	9.1588e-003
617	13.489	2.1818	0.	9.6598e-003
618	13.489	2.	0.	1.0538e-002
619	13.489	1.8182	0.	1.1696e-002
620	13.489	1.6364	0.	1.2928e-002
621	13.489	1.4545	0.	1.3921e-002
622	13.489	1.2727	0.	1.4325e-002
623	13.489	1.0909	0.	1.3536e-002
624	13.489	0.90909	0.	1.1422e-002
625	13.489	0.72727	0.	4.8869e-003
626	13.489	0.54545	0.	6.8652e-004
627	13.489	0.36364	0.	-5.0062e-002
628	13.489	0.18182	0.	-2.6662e-002
629	13.304	5.8182	0.	-2.0027e-002
630	13.304	5.6364	0.	-4.4296e-002
631	13.304	5.4545	0.	-4.5613e-004
632	13.304	5.2727	0.	3.626e-003
633	13.304	5.0909	0.	9.7327e-003
634	13.304	4.9091	0.	1.1975e-002
635	13.304	4.7273	0.	1.3008e-002
636	13.304	4.5455	0.	1.2943e-002
637	13.304	4.3636	0.	1.2295e-002
638	13.304	4.1818	0.	1.1361e-002
639	13.304	4.	0.	1.04e-002
640	13.304	3.8182	0.	9.5905e-003
641	13.304	3.6364	0.	9.0292e-003
642	13.304	3.4545	0.	8.722e-003
643	13.304	3.2727	0.	8.6023e-003
644	13.304	3.0909	0.	8.5767e-003
645	13.304	2.9091	0.	8.5772e-003
646	13.304	2.7273	0.	8.6038e-003
647	13.304	2.5455	0.	8.7222e-003
648	13.304	2.3636	0.	9.0301e-003
649	13.304	2.1818	0.	9.5911e-003
650	13.304	2.	0.	1.04e-002
651	13.304	1.8182	0.	1.1361e-002
652	13.304	1.6364	0.	1.2295e-002
653	13.304	1.4545	0.	1.2943e-002
654	13.304	1.2727	0.	1.3009e-002
655	13.304	1.0909	0.	1.1976e-002
656	13.304	0.90909	0.	9.7341e-003
657	13.304	0.72727	0.	3.6281e-003
658	13.304	0.54545	0.	-4.5713e-004
659	13.304	0.36364	0.	-4.4296e-002
660	13.304	0.18182	0.	-2.0026e-002
661	13.12	5.8182	0.	-1.4872e-002
662	13.12	5.6364	0.	-3.9143e-002
663	13.12	5.4545	0.	-1.3493e-003
664	13.12	5.2727	0.	2.5402e-003
665	13.12	5.0909	0.	8.2001e-003
666	13.12	4.9091	0.	1.0492e-002
667	13.12	4.7273	0.	1.1689e-002
668	13.12	4.5455	0.	1.1882e-002
669	13.12	4.3636	0.	1.151e-002
670	13.12	4.1818	0.	1.0825e-002
671	13.12	4.	0.	1.0049e-002
672	13.12	3.8182	0.	9.3342e-003
673	13.12	3.6364	0.	8.7773e-003
674	13.12	3.4545	0.	8.4079e-003
675	13.12	3.2727	0.	8.2022e-003
676	13.12	3.0909	0.	8.1169e-003
677	13.12	2.9091	0.	8.116e-003
678	13.12	2.7273	0.	8.2025e-003
679	13.12	2.5455	0.	8.4073e-003
680	13.12	2.3636	0.	8.7769e-003
681	13.12	2.1818	0.	9.3349e-003
682	13.12	2.	0.	1.005e-002
683	13.12	1.8182	0.	1.0825e-002
684	13.12	1.6364	0.	1.1511e-002
685	13.12	1.4545	0.	1.1882e-002
686	13.12	1.2727	0.	1.169e-002
687	13.12	1.0909	0.	1.0493e-002
688	13.12	0.90909	0.	8.2019e-003
689	13.12	0.72727	0.	2.5408e-003
690	13.12	0.54545	0.	-1.3503e-003
691	13.12	0.36364	0.	-3.9142e-002
692	13.12	0.18182	0.	-1.487e-002
693	12.935	5.8182	0.	-1.0929e-002
694	12.935	5.6364	0.	-3.4535e-002
695	12.935	5.4545	0.	-2.0246e-003
696	12.935	5.2727	0.	1.6256e-003
697	12.935	5.0909	0.	6.8369e-003
698	12.935	4.9091	0.	9.1244e-003
699	12.935	4.7273	0.	1.0425e-002
700	12.935	4.5455	0.	1.0811e-002
701	12.935	4.3636	0.	1.0661e-002
702	12.935	4.1818	0.	1.0185e-002
703	12.935	4.	0.	9.5759e-003
704	12.935	3.8182	0.	8.9694e-003
705	12.935	3.6364	0.	8.4553e-003
706	12.935	3.4545	0.	8.0787e-003
707	12.935	3.2727	0.	7.8421e-003
708	12.935	3.0909	0.	7.7305e-003
709	12.935	2.9091	0.	7.7314e-003
710	12.935	2.7273	0.	7.8422e-003
711	12.935	2.5455	0.	8.0789e-003
712	12.935	2.3636	0.	8.4558e-003
713	12.935	2.1818	0.	8.969e-003
714	12.935	2.	0.	9.5765e-003
715	12.935	1.8182	0.	1.0185e-002
716	12.935	1.6364	0.	1.066e-002
717	12.935	1.4545	0.	1.0812e-002
718	12.935	1.2727	0.	1.0426e-002
719	12.935	1.0909	0.	9.1244e-003
720	12.935	0.90909	0.	6.8392e-003
721	12.935	0.72727	0.	1.6272e-003
722	12.935	0.54545	0.	-2.0243e-003
723	12.935	0.36364	0.	-3.4535e-002
724	12.935	0.18182	0.	-1.093e-002
725	12.75	5.8182	0.	-7.9533e-003
726	12.75	5.6364	0.	-3.0404e-002
727	12.75	5.4545	0.	-2.5093e-003
728	12.75	5.2727	0.	8.7881e-004
729	12.75	5.0909	0.	5.651e-003
730	12.75	4.9091	0.	7.8937e-003
731	12.75	4.7273	0.	9.2526e-003
732	12.75	4.5455	0.	9.783e-003
733	12.75	4.3636	0.	9.8064e-003
734	12.75	4.1818	0.	9.5082e-003
735	12.75	4.	0.	9.0508e-003
736	12.75	3.8182	0.	8.5538e-003
737	12.75	3.6364	0.	8.1042e-003
738	12.75	3.4545	0.	7.753e-003
739	12.75	3.2727	0.	7.5173e-003
740	12.75	3.0909	0.	7.4017e-003
741	12.75	2.9091	0.	7.4017e-003
742	12.75	2.7273	0.	7.5176e-003
743	12.75	2.5455	0.	7.753e-003
744	12.75	2.3636	0.	8.1051e-003
745	12.75	2.1818	0.	8.5543e-003
746	12.75	2.	0.	9.0514e-003
747	12.75	1.8182	0.	9.5089e-003
748	12.75	1.6364	0.	9.8074e-003
749	12.75	1.4545	0.	9.7831e-003
750	12.75	1.2727	0.	9.253e-003
751	12.75	1.0909	0.	7.8941e-003
752	12.75	0.90909	0.	5.6522e-003
753	12.75	0.72727	0.	8.8117e-004
754	12.75	0.54545	0.	-2.5094e-003
755	12.75	0.36364	0.	-3.0403e-002
756	12.75	0.18182	0.	-7.9527e-003
757	12.565	5.8182	0.	-5.6992e-003
758	12.565	5.6364	0.	-2.6636e-002
759	12.565	5.4545	0.	-2.7869e-003
760	12.565	5.2727	0.	3.3024e-004
761	12.565	5.0909	0.	4.6774e-003
762	12.565	4.9091	0.	6.8476e-003
763	12.565	4.7273	0.	8.2096e-003
764	12.565	4.5455	0.	8.8807e-003
765	12.565	4.3636	0.	9.0292e-003
766	12.565	4.1818	0.	8.8793e-003
767	12.565	4.	0.	8.5542e-003
768	12.565	3.8182	0.	8.1643e-003
769	12.565	3.6364	0.	7.7886e-003
770	12.565	3.4545	0.	7.4795e-003
771	12.565	3.2727	0.	7.264e-003
772	12.565	3.0909	0.	7.1539e-003
773	12.565	2.9091	0.	7.1538e-003
774	12.565	2.7273	0.	7.2641e-003
775	12.565	2.5455	0.	7.4803e-003
776	12.565	2.3636	0.	7.7888e-003
777	12.565	2.1818	0.	8.1646e-003
778	12.565	2.	0.	8.5547e-003
779	12.565	1.8182	0.	8.8791e-003
780	12.565	1.6364	0.	9.03e-003
781	12.565	1.4545	0.	8.8807e-003
782	12.565	1.2727	0.	8.2096e-003
783	12.565	1.0909	0.	6.8484e-003
784	12.565	0.90909	0.	4.6792e-003
785	12.565	0.72727	0.	3.3145e-004
786	12.565	0.54545	0.	-2.7864e-003
787	12.565	0.36364	0.	-2.6636e-002
788	12.565	0.18182	0.	-5.6978e-003
789	12.38	5.8182	0.	-4.0411e-003
790	12.38	5.6364	0.	-2.3216e-002
791	12.38	5.4545	0.	-2.925e-003
792	12.38	5.2727	0.	-8.1014e-005
793	12.38	5.0909	0.	3.8598e-003
794	12.38	4.9091	0.	5.9369e-003
795	12.38	4.7273	0.	7.3173e-003
796	12.38	4.5455	0.	8.0277e-003
797	12.38	4.3636	0.	8.3013e-003
798	12.38	4.1818	0.	8.2734e-003
799	12.38	4.	0.	8.0671e-003
800	12.38	3.8182	0.	7.7757e-003
801	12.38	3.6364	0.	7.4744e-003
802	12.38	3.4545	0.	7.2163e-003
803	12.38	3.2727	0.	7.029e-003
804	12.38	3.0909	0.	6.9317e-003
805	12.38	2.9091	0.	6.932e-003
806	12.38	2.7273	0.	7.0287e-003
807	12.38	2.5455	0.	7.216e-003
808	12.38	2.3636	0.	7.4749e-003
809	12.38	2.1818	0.	7.7765e-003
810	12.38	2.	0.	8.0669e-003
811	12.38	1.8182	0.	8.2736e-003
812	12.38	1.6364	0.	8.302e-003
813	12.38	1.4545	0.	8.0285e-003
814	12.38	1.2727	0.	7.3179e-003
815	12.38	1.0909	0.	5.9375e-003
816	12.38	0.90909	0.	3.8604e-003
817	12.38	0.72727	0.	-7.8872e-005
818	12.38	0.54545	0.	-2.9247e-003
819	12.38	0.36364	0.	-2.3215e-002
820	12.38	0.18182	0.	-4.0413e-003
821	12.196	5.8182	0.	-2.8601e-003
822	12.196	5.6364	0.	-2.0095e-002
823	12.196	5.4545	0.	-2.9561e-003
824	12.196	5.2727	0.	-3.7999e-004
825	12.196	5.0909	0.	3.1709e-003
826	12.196	4.9091	0.	5.1424e-003
827	12.196	4.7273	0.	6.4999e-003
828	12.196	4.5455	0.	7.2622e-003
829	12.196	4.3636	0.	7.6217e-003
830	12.196	4.1818	0.	7.6959e-003
831	12.196	4.	0.	7.5906e-003
832	12.196	3.8182	0.	7.3893e-003
833	12.196	3.6364	0.	7.1605e-003
834	12.196	3.4545	0.	6.953e-003
835	12.196	3.2727	0.	6.7981e-003
836	12.196	3.0909	0.	6.7152e-003
837	12.196	2.9091	0.	6.7162e-003
838	12.196	2.7273	0.	6.7982e-003
839	12.196	2.5455	0.	6.9528e-003
840	12.196	2.3636	0.	7.1605e-003
841	12.196	2.1818	0.	7.3897e-003
842	12.196	2.	0.	7.5909e-003
843	12.196	1.8182	0.	7.6959e-003
844	12.196	1.6364	0.	7.6221e-003
845	12.196	1.4545	0.	7.2631e-003
846	12.196	1.2727	0.	6.5003e-003
847	12.196	1.0909	0.	5.143e-003
848	12.196	0.90909	0.	3.1726e-003
849	12.196	0.72727	0.	-3.7853e-004
850	12.196	0.54545	0.	-2.9557e-003
851	12.196	0.36364	0.	-2.0095e-002
852	12.196	0.18182	0.	-2.8597e-003
853	12.011	5.8182	0.	-2.0646e-003
854	12.011	5.6364	0.	-1.723e-002
855	12.011	5.4545	0.	-2.9073e-003
856	12.011	5.2727	0.	-5.9256e-004
857	12.011	5.0909	0.	2.5834e-003
858	12.011	4.9091	0.	4.4382e-003
859	12.011	4.7273	0.	5.7591e-003
860	12.011	4.5455	0.	6.5522e-003
861	12.011	4.3636	0.	6.9789e-003
862	12.011	4.1818	0.	7.1379e-003
863	12.011	4.	0.	7.1204e-003
864	12.011	3.8182	0.	6.9994e-003
865	12.011	3.6364	0.	6.837e-003
866	12.011	3.4545	0.	6.6795e-003
867	12.011	3.2727	0.	6.5574e-003
868	12.011	3.0909	0.	6.4914e-003
869	12.011	2.9091	0.	6.491e-003
870	12.011	2.7273	0.	6.5575e-003
871	12.011	2.5455	0.	6.68e-003
872	12.011	2.3636	0.	6.8372e-003
873	12.011	2.1818	0.	6.9993e-003
874	12.011	2.	0.	7.1205e-003
875	12.011	1.8182	0.	7.1385e-003
876	12.011	1.6364	0.	6.9792e-003
877	12.011	1.4545	0.	6.5526e-003
878	12.011	1.2727	0.	5.7593e-003
879	12.011	1.0909	0.	4.4381e-003
880	12.011	0.90909	0.	2.5848e-003
881	12.011	0.72727	0.	-5.9122e-004
882	12.011	0.54545	0.	-2.9061e-003
883	12.011	0.36364	0.	-1.7231e-002
884	12.011	0.18182	0.	-2.0643e-003
885	11.826	5.8182	0.	-1.5898e-003
886	11.826	5.6364	0.	-1.4586e-002
887	11.826	5.4545	0.	-2.8033e-003
888	11.826	5.2727	0.	-7.4487e-004
889	11.826	5.0909	0.	2.0665e-003
890	11.826	4.9091	0.	3.7946e-003
891	11.826	4.7273	0.	5.0652e-003
892	11.826	4.5455	0.	5.876e-003
893	11.826	4.3636	0.	6.355e-003
894	11.826	4.1818	0.	6.5851e-003
895	11.826	4.	0.	6.6444e-003
896	11.826	3.8182	0.	6.5955e-003
897	11.826	3.6364	0.	6.4943e-003
898	11.826	3.4545	0.	6.384e-003
899	11.826	3.2727	0.	6.2932e-003
900	11.826	3.0909	0.	6.2429e-003
901	11.826	2.9091	0.	6.2433e-003
902	11.826	2.7273	0.	6.2935e-003
903	11.826	2.5455	0.	6.3841e-003
904	11.826	2.3636	0.	6.4948e-003
905	11.826	2.1818	0.	6.5958e-003
906	11.826	2.	0.	6.6444e-003
907	11.826	1.8182	0.	6.5856e-003
908	11.826	1.6364	0.	6.3558e-003
909	11.826	1.4545	0.	5.877e-003
910	11.826	1.2727	0.	5.0658e-003
911	11.826	1.0909	0.	3.7954e-003
912	11.826	0.90909	0.	2.0681e-003
913	11.826	0.72727	0.	-7.4376e-004
914	11.826	0.54545	0.	-2.8029e-003
915	11.826	0.36364	0.	-1.4586e-002
916	11.826	0.18182	0.	-1.5888e-003
917	11.641	5.8182	0.	-1.3339e-003
918	11.641	5.6364	0.	-1.2072e-002
919	11.641	5.4545	0.	-2.6096e-003
920	11.641	5.2727	0.	-8.0638e-004
921	11.641	5.0909	0.	1.6457e-003
922	11.641	4.9091	0.	3.2345e-003
923	11.641	4.7273	0.	4.4435e-003
924	11.641	4.5455	0.	5.2592e-003
925	11.641	4.3636	0.	5.7794e-003
926	11.641	4.1818	0.	6.0718e-003
927	11.641	4.	0.	6.1999e-003
928	11.641	3.8182	0.	6.2179e-003
929	11.641	3.6364	0.	6.1755e-003
930	11.641	3.4545	0.	6.1116e-003
931	11.641	3.2727	0.	6.0509e-003
932	11.641	3.0909	0.	6.0163e-003
933	11.641	2.9091	0.	6.0165e-003
934	11.641	2.7273	0.	6.0513e-003
935	11.641	2.5455	0.	6.1115e-003
936	11.641	2.3636	0.	6.1755e-003
937	11.641	2.1818	0.	6.2186e-003
938	11.641	2.	0.	6.2001e-003
939	11.641	1.8182	0.	6.072e-003
940	11.641	1.6364	0.	5.7795e-003
941	11.641	1.4545	0.	5.2591e-003
942	11.641	1.2727	0.	4.4441e-003
943	11.641	1.0909	0.	3.2348e-003
944	11.641	0.90909	0.	1.6464e-003
945	11.641	0.72727	0.	-8.0512e-004
946	11.641	0.54545	0.	-2.6088e-003
947	11.641	0.36364	0.	-1.2072e-002
948	11.641	0.18182	0.	-1.3334e-003
949	11.457	5.8182	0.	-1.298e-003
950	11.457	5.6364	0.	-9.6899e-003
951	11.457	5.4545	0.	-2.3736e-003
952	11.457	5.2727	0.	-8.3351e-004
953	11.457	5.0909	0.	1.2484e-003
954	11.457	4.9091	0.	2.68e-003
955	11.457	4.7273	0.	3.8103e-003
956	11.457	4.5455	0.	4.6173e-003
957	11.457	4.3636	0.	5.1704e-003
958	11.457	4.1818	0.	5.5212e-003
959	11.457	4.	0.	5.7189e-003
960	11.457	3.8182	0.	5.8064e-003
961	11.457	3.6364	0.	5.8269e-003
962	11.457	3.4545	0.	5.8123e-003
963	11.457	3.2727	0.	5.7871e-003
964	11.457	3.0909	0.	5.7699e-003
965	11.457	2.9091	0.	5.7699e-003
966	11.457	2.7273	0.	5.7874e-003
967	11.457	2.5455	0.	5.8128e-003
968	11.457	2.3636	0.	5.8271e-003
969	11.457	2.1818	0.	5.8071e-003
970	11.457	2.	0.	5.7192e-003
971	11.457	1.8182	0.	5.5213e-003
972	11.457	1.6364	0.	5.1711e-003
973	11.457	1.4545	0.	4.6175e-003
974	11.457	1.2727	0.	3.8109e-003
975	11.457	1.0909	0.	2.6806e-003
976	11.457	0.90909	0.	1.2504e-003
977	11.457	0.72727	0.	-8.3148e-004
978	11.457	0.54545	0.	-2.374e-003
979	11.457	0.36364	0.	-9.6895e-003
980	11.457	0.18182	0.	-1.2979e-003
981	11.272	5.8182	0.	-1.4573e-003
982	11.272	5.6364	0.	-7.4018e-003
983	11.272	5.4545	0.	-2.1016e-003
984	11.272	5.2727	0.	-8.4373e-004
985	11.272	5.0909	0.	8.3573e-004
986	11.272	4.9091	0.	2.0673e-003
987	11.272	4.7273	0.	3.0808e-003
988	11.272	4.5455	0.	3.8501e-003
989	11.272	4.3636	0.	4.4196e-003
990	11.272	4.1818	0.	4.8237e-003
991	11.272	4.	0.	5.0968e-003
992	11.272	3.8182	0.	5.2726e-003
993	11.272	3.6364	0.	5.3822e-003
994	11.272	3.4545	0.	5.4501e-003
995	11.272	3.2727	0.	5.4885e-003
996	11.272	3.0909	0.	5.5064e-003
997	11.272	2.9091	0.	5.5058e-003
998	11.272	2.7273	0.	5.4886e-003
999	11.272	2.5455	0.	5.4502e-003
1000	11.272	2.3636	0.	5.383e-003
1001	11.272	2.1818	0.	5.2734e-003
1002	11.272	2.	0.	5.0973e-003
1003	11.272	1.8182	0.	4.8237e-003
1004	11.272	1.6364	0.	4.4208e-003
1005	11.272	1.4545	0.	3.8509e-003
1006	11.272	1.2727	0.	3.0812e-003
1007	11.272	1.0909	0.	2.0676e-003
1008	11.272	0.90909	0.	8.3752e-004
1009	11.272	0.72727	0.	-8.4291e-004
1010	11.272	0.54545	0.	-2.1009e-003
1011	11.272	0.36364	0.	-7.4014e-003
1012	11.272	0.18182	0.	-1.4563e-003
1013	11.087	5.8182	0.	-1.7371e-003
1014	11.087	5.6364	0.	-5.1108e-003
1015	11.087	5.4545	0.	-1.7356e-003
1016	11.087	5.2727	0.	-8.0907e-004
1017	11.087	5.0909	0.	3.8245e-004
1018	11.087	4.9091	0.	1.2936e-003
1019	11.087	4.7273	0.	2.0524e-003
1020	11.087	4.5455	0.	2.6279e-003
1021	11.087	4.3636	0.	3.0318e-003
1022	11.087	4.1818	0.	3.2581e-003
1023	11.087	4.	0.	3.2536e-003
1024	11.087	3.8182	0.	2.6935e-003
1025	11.087	3.6364	0.	-7.9385e-003
1026	11.087	3.4545	0.	-0.37621
1027	11.087	3.2727	0.	-0.67578
1028	11.087	3.0909	0.	-0.82863
1029	11.087	2.9091	0.	-0.82863
1030	11.087	2.7273	0.	-0.67579
1031	11.087	2.5455	0.	-0.37622
1032	11.087	2.3636	0.	-7.9409e-003
1033	11.087	2.1818	0.	2.694e-003
1034	11.087	2.	0.	3.2535e-003
1035	11.087	1.8182	0.	3.2583e-003
1036	11.087	1.6364	0.	3.0318e-003
1037	11.087	1.4545	0.	2.6283e-003
1038	11.087	1.2727	0.	2.053e-003
1039	11.087	1.0909	0.	1.294e-003
1040	11.087	0.90909	0.	3.8364e-004
1041	11.087	0.72727	0.	-8.076e-004
1042	11.087	0.54545	0.	-1.7357e-003
1043	11.087	0.36364	0.	-5.1102e-003
1044	11.087	0.18182	0.	-1.7358e-003
1045	10.902	5.8182	0.	-2.1964e-003
1046	10.902	5.6364	0.	-2.8464e-003
1047	10.902	5.4545	0.	-1.3404e-003
1048	10.902	5.2727	0.	-8.5544e-004
1049	10.902	5.0909	0.	-4.0627e-004
1050	10.902	4.9091	0.	-3.1438e-004
1051	10.902	4.7273	0.	-8.6665e-004
1052	10.902	4.5455	0.	-3.7837e-003
1053	10.902	4.3636	0.	-0.10109
1054	10.902	4.1818	0.	-1.0003
1055	10.902	4.	0.	-1.8643
1056	10.902	3.8182	0.	-2.6233
1057	10.902	3.6364	0.	-3.257
1058	10.902	3.4545	0.	-3.7484
1059	10.902	3.2727	0.	-4.084
1060	10.902	3.0909	0.	-4.2542
1061	10.902	2.9091	0.	-4.2542
1062	10.902	2.7273	0.	-4.084
1063	10.902	2.5455	0.	-3.7484
1064	10.902	2.3636	0.	-3.257
1065	10.902	2.1818	0.	-2.6233
1066	10.902	2.	0.	-1.8643
1067	10.902	1.8182	0.	-1.0003
1068	10.902	1.6364	0.	-0.10111
1069	10.902	1.4545	0.	-3.7836e-003
1070	10.902	1.2727	0.	-8.6637e-004
1071	10.902	1.0909	0.	-3.1434e-004
1072	10.902	0.90909	0.	-4.0502e-004
1073	10.902	0.72727	0.	-8.54e-004
1074	10.902	0.54545	0.	-1.3414e-003
1075	10.902	0.36364	0.	-2.8457e-003
1076	10.902	0.18182	0.	-2.195e-003
1077	10.717	5.8182	0.	-2.8639e-003
1078	10.717	5.6364	0.	-5.9465e-004
1079	10.717	5.4545	0.	-9.4371e-004
1080	10.717	5.2727	0.	-1.1817e-003
1081	10.717	5.0909	0.	-2.571e-003
1082	10.717	4.9091	0.	-9.3509e-003
1083	10.717	4.7273	0.	-0.47212
1084	10.717	4.5455	0.	-1.7533
1085	10.717	4.3636	0.	-2.9699
1086	10.717	4.1818	0.	-4.0912
1087	10.717	4.	0.	-5.0973
1088	10.717	3.8182	0.	-5.9697
1089	10.717	3.6364	0.	-6.691
1090	10.717	3.4545	0.	-7.2463
1091	10.717	3.2727	0.	-7.6235
1092	10.717	3.0909	0.	-7.8143
1093	10.717	2.9091	0.	-7.8143
1094	10.717	2.7273	0.	-7.6235
1095	10.717	2.5455	0.	-7.2463
1096	10.717	2.3636	0.	-6.691
1097	10.717	2.1818	0.	-5.9697
1098	10.717	2.	0.	-5.0973
1099	10.717	1.8182	0.	-4.0912
1100	10.717	1.6364	0.	-2.9699
1101	10.717	1.4545	0.	-1.7534
1102	10.717	1.2727	0.	-0.47214
1103	10.717	1.0909	0.	-9.3506e-003
1104	10.717	0.90909	0.	-2.5697e-003
1105	10.717	0.72727	0.	-1.1808e-003
1106	10.717	0.54545	0.	-9.4253e-004
1107	10.717	0.36364	0.	-5.9328e-004
1108	10.717	0.18182	0.	-2.8633e-003
1109	10.533	5.8182	0.	-3.7894e-003
1110	10.533	5.6364	0.	1.6504e-003
1111	10.533	5.4545	0.	-5.9381e-004
1112	10.533	5.2727	0.	-2.5887e-003
1113	10.533	5.0909	0.	-2.8725e-002
1114	10.533	4.9091	0.	-1.379
1115	10.533	4.7273	0.	-3.0082
1116	10.533	4.5455	0.	-4.548
1117	10.533	4.3636	0.	-5.9792
1118	10.533	4.1818	0.	-7.2837
1119	10.533	4.	0.	-8.4436
1120	10.533	3.8182	0.	-9.4413
1121	10.533	3.6364	0.	-10.261
1122	10.533	3.4545	0.	-10.889
1123	10.533	3.2727	0.	-11.314
1124	10.533	3.0909	0.	-11.528
1125	10.533	2.9091	0.	-11.528
1126	10.533	2.7273	0.	-11.314
1127	10.533	2.5455	0.	-10.889
1128	10.533	2.3636	0.	-10.261
1129	10.533	2.1818	0.	-9.4413
1130	10.533	2.	0.	-8.4436
1131	10.533	1.8182	0.	-7.2837
1132	10.533	1.6364	0.	-5.9792
1133	10.533	1.4545	0.	-4.548
1134	10.533	1.2727	0.	-3.0082
1135	10.533	1.0909	0.	-1.379
1136	10.533	0.90909	0.	-2.8727e-002
1137	10.533	0.72727	0.	-2.5876e-003
1138	10.533	0.54545	0.	-5.9345e-004
1139	10.533	0.36364	0.	1.6514e-003
1140	10.533	0.18182	0.	-3.7889e-003
1141	10.348	5.8182	0.	-5.0385e-003
1142	10.348	5.6364	0.	3.8874e-003
1143	10.348	5.4545	0.	-4.1601e-004
1144	10.348	5.2727	0.	-1.7841e-002
1145	10.348	5.0909	0.	-1.6983
1146	10.348	4.9091	0.	-3.721
1147	10.348	4.7273	0.	-5.6401
1148	10.348	4.5455	0.	-7.4378
1149	10.348	4.3636	0.	-9.0963
1150	10.348	4.1818	0.	-10.598
1151	10.348	4.	0.	-11.925
1152	10.348	3.8182	0.	-13.06
1153	10.348	3.6364	0.	-13.988
1154	10.348	3.4545	0.	-14.697
1155	10.348	3.2727	0.	-15.176
1156	10.348	3.0909	0.	-15.417
1157	10.348	2.9091	0.	-15.417
1158	10.348	2.7273	0.	-15.176
1159	10.348	2.5455	0.	-14.697
1160	10.348	2.3636	0.	-13.988
1161	10.348	2.1818	0.	-13.06
1162	10.348	2.	0.	-11.925
1163	10.348	1.8182	0.	-10.598
1164	10.348	1.6364	0.	-9.0963
1165	10.348	1.4545	0.	-7.4378
1166	10.348	1.2727	0.	-5.6401
1167	10.348	1.0909	0.	-3.721
1168	10.348	0.90909	0.	-1.6983
1169	10.348	0.72727	0.	-1.7841e-002
1170	10.348	0.54545	0.	-4.1549e-004
1171	10.348	0.36364	0.	3.8874e-003
1172	10.348	0.18182	0.	-5.0378e-003
1173	10.163	5.8182	0.	-6.6736e-003
1174	10.163	5.6364	0.	6.1676e-003
1175	10.163	5.4545	0.	-1.0265e-003
1176	10.163	5.2727	0.	-1.3318
1177	10.163	5.0909	0.	-3.7988
1178	10.163	4.9091	0.	-6.152
1179	10.163	4.7273	0.	-8.3725
1180	10.163	4.5455	0.	-10.442
1181	10.163	4.3636	0.	-12.343
1182	10.163	4.1818	0.	-14.056
1183	10.163	4.	0.	-15.563
1184	10.163	3.8182	0.	-16.848
1185	10.163	3.6364	0.	-17.896
1186	10.163	3.4545	0.	-18.694
1187	10.163	3.2727	0.	-19.231
1188	10.163	3.0909	0.	-19.502
1189	10.163	2.9091	0.	-19.502
1190	10.163	2.7273	0.	-19.231
1191	10.163	2.5455	0.	-18.694
1192	10.163	2.3636	0.	-17.896
1193	10.163	2.1818	0.	-16.849
1194	10.163	2.	0.	-15.563
1195	10.163	1.8182	0.	-14.056
1196	10.163	1.6364	0.	-12.343
1197	10.163	1.4545	0.	-10.442
1198	10.163	1.2727	0.	-8.3725
1199	10.163	1.0909	0.	-6.152
1200	10.163	0.90909	0.	-3.7989
1201	10.163	0.72727	0.	-1.3318
1202	10.163	0.54545	0.	-1.0265e-003
1203	10.163	0.36364	0.	6.1688e-003
1204	10.163	0.18182	0.	-6.6728e-003
1205	9.9783	5.8182	0.	-8.84e-003
1206	9.9783	5.6364	0.	8.4285e-003
1207	9.9783	5.4545	0.	-0.19919
1208	9.9783	5.2727	0.	-3.1512
1209	9.9783	5.0909	0.	-5.9893
1210	9.9783	4.9091	0.	-8.6871
1211	9.9783	4.7273	0.	-11.225
1212	9.9783	4.5455	0.	-13.583
1213	9.9783	4.3636	0.	-15.742
1214	9.9783	4.1818	0.	-17.682
1215	9.9783	4.	0.	-19.384
1216	9.9783	3.8182	0.	-20.831
1217	9.9783	3.6364	0.	-22.009
1218	9.9783	3.4545	0.	-22.903
1219	9.9783	3.2727	0.	-23.506
1220	9.9783	3.0909	0.	-23.809
1221	9.9783	2.9091	0.	-23.809
1222	9.9783	2.7273	0.	-23.506
1223	9.9783	2.5455	0.	-22.903
1224	9.9783	2.3636	0.	-22.009
1225	9.9783	2.1818	0.	-20.831
1226	9.9783	2.	0.	-19.384
1227	9.9783	1.8182	0.	-17.682
1228	9.9783	1.6364	0.	-15.742
1229	9.9783	1.4545	0.	-13.583
1230	9.9783	1.2727	0.	-11.225
1231	9.9783	1.0909	0.	-8.6871
1232	9.9783	0.90909	0.	-5.9894
1233	9.9783	0.72727	0.	-3.1512
1234	9.9783	0.54545	0.	-0.19922
1235	9.9783	0.36364	0.	8.429e-003
1236	9.9783	0.18182	0.	-8.8387e-003
1237	9.7935	5.8182	0.	-1.1742e-002
1238	9.7935	5.6364	0.	1.0513e-002
1239	9.7935	5.4545	0.	-1.6871
1240	9.7935	5.2727	0.	-5.0583
1241	9.7935	5.0909	0.	-8.2837
1242	9.7935	4.9091	0.	-11.344
1243	9.7935	4.7273	0.	-14.218
1244	9.7935	4.5455	0.	-16.882
1245	9.7935	4.3636	0.	-19.316
1246	9.7935	4.1818	0.	-21.499
1247	9.7935	4.	0.	-23.41
1248	9.7935	3.8182	0.	-25.033
1249	9.7935	3.6364	0.	-26.351
1250	9.7935	3.4545	0.	-27.351
1251	9.7935	3.2727	0.	-28.024
1252	9.7935	3.0909	0.	-28.362
1253	9.7935	2.9091	0.	-28.362
1254	9.7935	2.7273	0.	-28.024
1255	9.7935	2.5455	0.	-27.351
1256	9.7935	2.3636	0.	-26.351
1257	9.7935	2.1818	0.	-25.033
1258	9.7935	2.	0.	-23.41
1259	9.7935	1.8182	0.	-21.499
1260	9.7935	1.6364	0.	-19.316
1261	9.7935	1.4545	0.	-16.882
1262	9.7935	1.2727	0.	-14.218
1263	9.7935	1.0909	0.	-11.344
1264	9.7935	0.90909	0.	-8.2837
1265	9.7935	0.72727	0.	-5.0584
1266	9.7935	0.54545	0.	-1.6871
1267	9.7935	0.36364	0.	1.0514e-002
1268	9.7935	0.18182	0.	-1.174e-002
1269	9.6087	5.8182	0.	-1.5765e-002
1270	9.6087	5.6364	0.	1.087e-002
1271	9.6087	5.4545	0.	-3.264
1272	9.6087	5.2727	0.	-7.0643
1273	9.6087	5.0909	0.	-10.698
1274	9.6087	4.9091	0.	-14.142
1275	9.6087	4.7273	0.	-17.371
1276	9.6087	4.5455	0.	-20.362
1277	9.6087	4.3636	0.	-23.09
1278	9.6087	4.1818	0.	-25.532
1279	9.6087	4.	0.	-27.669
1280	9.6087	3.8182	0.	-29.481
1281	9.6087	3.6364	0.	-30.951
1282	9.6087	3.4545	0.	-32.066
1283	9.6087	3.2727	0.	-32.815
1284	9.6087	3.0909	0.	-33.192
1285	9.6087	2.9091	0.	-33.192
1286	9.6087	2.7273	0.	-32.815
1287	9.6087	2.5455	0.	-32.066
1288	9.6087	2.3636	0.	-30.951
1289	9.6087	2.1818	0.	-29.481
1290	9.6087	2.	0.	-27.669
1291	9.6087	1.8182	0.	-25.532
1292	9.6087	1.6364	0.	-23.09
1293	9.6087	1.4545	0.	-20.362
1294	9.6087	1.2727	0.	-17.371
1295	9.6087	1.0909	0.	-14.142
1296	9.6087	0.90909	0.	-10.698
1297	9.6087	0.72727	0.	-7.0644
1298	9.6087	0.54545	0.	-3.2641
1299	9.6087	0.36364	0.	1.0872e-002
1300	9.6087	0.18182	0.	-1.5764e-002
1301	9.4239	5.8182	0.	-2.1555e-002
1302	9.4239	5.6364	0.	-0.46531
1303	9.4239	5.4545	0.	-4.9288
1304	9.4239	5.2727	0.	-9.1823
1305	9.4239	5.0909	0.	-13.248
1306	9.4239	4.9091	0.	-17.098
1307	9.4239	4.7273	0.	-20.707
1308	9.4239	4.5455	0.	-24.045
1309	9.4239	4.3636	0.	-27.087
1310	9.4239	4.1818	0.	-29.809
1311	9.4239	4.	0.	-32.188
1312	9.4239	3.8182	0.	-34.203
1313	9.4239	3.6364	0.	-35.837
1314	9.4239	3.4545	0.	-37.076
1315	9.4239	3.2727	0.	-37.908
1316	9.4239	3.0909	0.	-38.326
1317	9.4239	2.9091	0.	-38.326
1318	9.4239	2.7273	0.	-37.908
1319	9.4239	2.5455	0.	-37.076
1320	9.4239	2.3636	0.	-35.837
1321	9.4239	2.1818	0.	-34.203
1322	9.4239	2.	0.	-32.188
1323	9.4239	1.8182	0.	-29.809
1324	9.4239	1.6364	0.	-27.087
1325	9.4239	1.4545	0.	-24.045
1326	9.4239	1.2727	0.	-20.707
1327	9.4239	1.0909	0.	-17.098
1328	9.4239	0.90909	0.	-13.248
1329	9.4239	0.72727	0.	-9.1823
1330	9.4239	0.54545	0.	-4.9289
1331	9.4239	0.36364	0.	-0.46532
1332	9.4239	0.18182	0.	-2.1554e-002
1333	9.2391	5.8182	0.	-3.0274e-002
1334	9.2391	5.6364	0.	-1.7255
1335	9.2391	5.4545	0.	-6.6915
1336	9.2391	5.2727	0.	-11.426
1337	9.2391	5.0909	0.	-15.95
1338	9.2391	4.9091	0.	-20.234
1339	9.2391	4.7273	0.	-24.246
1340	9.2391	4.5455	0.	-27.956
1341	9.2391	4.3636	0.	-31.335
1342	9.2391	4.1818	0.	-34.357
1343	9.2391	4.	0.	-36.996
1344	9.2391	3.8182	0.	-39.23
1345	9.2391	3.6364	0.	-41.041
1346	9.2391	3.4545	0.	-42.413
1347	9.2391	3.2727	0.	-43.335
1348	9.2391	3.0909	0.	-43.798
1349	9.2391	2.9091	0.	-43.798
1350	9.2391	2.7273	0.	-43.335
1351	9.2391	2.5455	0.	-42.413
1352	9.2391	2.3636	0.	-41.041
1353	9.2391	2.1818	0.	-39.23
1354	9.2391	2.	0.	-36.996
1355	9.2391	1.8182	0.	-34.357
1356	9.2391	1.6364	0.	-31.335
1357	9.2391	1.4545	0.	-27.956
1358	9.2391	1.2727	0.	-24.246
1359	9.2391	1.0909	0.	-20.234
1360	9.2391	0.90909	0.	-15.95
1361	9.2391	0.72727	0.	-11.426
1362	9.2391	0.54545	0.	-6.6915
1363	9.2391	0.36364	0.	-1.7255
1364	9.2391	0.18182	0.	-3.0272e-002
1365	9.0543	5.8182	0.	-4.4318e-002
1366	9.0543	5.6364	0.	-3.0659
1367	9.0543	5.4545	0.	-8.5626
1368	9.0543	5.2727	0.	-13.809
1369	9.0543	5.0909	0.	-18.822
1370	9.0543	4.9091	0.	-23.569
1371	9.0543	4.7273	0.	-28.013
1372	9.0543	4.5455	0.	-32.121
1373	9.0543	4.3636	0.	-35.862
1374	9.0543	4.1818	0.	-39.205
1375	9.0543	4.	0.	-42.123
1376	9.0543	3.8182	0.	-44.594
1377	9.0543	3.6364	0.	-46.596
1378	9.0543	3.4545	0.	-48.113
1379	9.0543	3.2727	0.	-49.131
1380	9.0543	3.0909	0.	-49.642
1381	9.0543	2.9091	0.	-49.642
1382	9.0543	2.7273	0.	-49.131
1383	9.0543	2.5455	0.	-48.113
1384	9.0543	2.3636	0.	-46.596
1385	9.0543	2.1818	0.	-44.594
1386	9.0543	2.	0.	-42.123
1387	9.0543	1.8182	0.	-39.205
1388	9.0543	1.6364	0.	-35.862
1389	9.0543	1.4545	0.	-32.121
1390	9.0543	1.2727	0.	-28.013
1391	9.0543	1.0909	0.	-23.569
1392	9.0543	0.90909	0.	-18.822
1393	9.0543	0.72727	0.	-13.809
1394	9.0543	0.54545	0.	-8.5626
1395	9.0543	0.36364	0.	-3.0659
1396	9.0543	0.18182	0.	-4.4318e-002
1397	8.8696	5.8182	0.	-6.9403e-002
1398	8.8696	5.6364	0.	-4.4906
1399	8.8696	5.4545	0.	-10.553
1400	8.8696	5.2727	0.	-16.346
1401	8.8696	5.0909	0.	-21.883
1402	8.8696	4.9091	0.	-27.124
1403	8.8696	4.7273	0.	-32.031
1404	8.8696	4.5455	0.	-36.566
1405	8.8696	4.3636	0.	-40.695
1406	8.8696	4.1818	0.	-44.384
1407	8.8696	4.	0.	-47.604
1408	8.8696	3.8182	0.	-50.329
1409	8.8696	3.6364	0.	-52.537
1410	8.8696	3.4545	0.	-54.21
1411	8.8696	3.2727	0.	-55.332
1412	8.8696	3.0909	0.	-55.896
1413	8.8696	2.9091	0.	-55.896
1414	8.8696	2.7273	0.	-55.332
1415	8.8696	2.5455	0.	-54.21
1416	8.8696	2.3636	0.	-52.537
1417	8.8696	2.1818	0.	-50.329
1418	8.8696	2.	0.	-47.604
1419	8.8696	1.8182	0.	-44.384
1420	8.8696	1.6364	0.	-40.695
1421	8.8696	1.4545	0.	-36.566
1422	8.8696	1.2727	0.	-32.031
1423	8.8696	1.0909	0.	-27.124
1424	8.8696	0.90909	0.	-21.883
1425	8.8696	0.72727	0.	-16.346
1426	8.8696	0.54545	0.	-10.553
1427	8.8696	0.36364	0.	-4.4906
1428	8.8696	0.18182	0.	-6.9402e-002
1429	8.6848	5.8182	0.	-0.12261
1430	8.6848	5.6364	0.	-6.0067
1431	8.6848	5.4545	0.	-12.674
1432	8.6848	5.2727	0.	-19.052
1433	8.6848	5.0909	0.	-25.149
1434	8.6848	4.9091	0.	-30.922
1435	8.6848	4.7273	0.	-36.325
1436	8.6848	4.5455	0.	-41.32
1437	8.6848	4.3636	0.	-45.866
1438	8.6848	4.1818	0.	-49.927
1439	8.6848	4.	0.	-53.473
1440	8.6848	3.8182	0.	-56.473
1441	8.6848	3.6364	0.	-58.903
1442	8.6848	3.4545	0.	-60.743
1443	8.6848	3.2727	0.	-61.979
1444	8.6848	3.0909	0.	-62.6
1445	8.6848	2.9091	0.	-62.6
1446	8.6848	2.7273	0.	-61.979
1447	8.6848	2.5455	0.	-60.744
1448	8.6848	2.3636	0.	-58.903
1449	8.6848	2.1818	0.	-56.473
1450	8.6848	2.	0.	-53.473
1451	8.6848	1.8182	0.	-49.927
1452	8.6848	1.6364	0.	-45.866
1453	8.6848	1.4545	0.	-41.32
1454	8.6848	1.2727	0.	-36.325
1455	8.6848	1.0909	0.	-30.922
1456	8.6848	0.90909	0.	-25.149
1457	8.6848	0.72727	0.	-19.052
1458	8.6848	0.54545	0.	-12.674
1459	8.6848	0.36364	0.	-6.0067
1460	8.6848	0.18182	0.	-0.12261
1461	8.5	5.8182	0.	-0.27267
1462	8.5	5.6364	0.	-7.6218
1463	8.5	5.4545	0.	-14.938
1464	8.5	5.2727	0.	-21.944
1465	8.5	5.0909	0.	-28.643
1466	8.5	4.9091	0.	-34.985
1467	8.5	4.7273	0.	-40.923
1468	8.5	4.5455	0.	-46.412
1469	8.5	4.3636	0.	-51.407
1470	8.5	4.1818	0.	-55.871
1471	8.5	4.	0.	-59.767
1472	8.5	3.8182	0.	-63.063
1473	8.5	3.6364	0.	-65.734
1474	8.5	3.4545	0.	-67.757
1475	8.5	3.2727	0.	-69.114
1476	8.5	3.0909	0.	-69.796
1477	8.5	2.9091	0.	-69.796
1478	8.5	2.7273	0.	-69.114
1479	8.5	2.5455	0.	-67.757
1480	8.5	2.3636	0.	-65.734
1481	8.5	2.1818	0.	-63.063
1482	8.5	2.	0.	-59.767
1483	8.5	1.8182	0.	-55.871
1484	8.5	1.6364	0.	-51.407
1485	8.5	1.4545	0.	-46.412
1486	8.5	1.2727	0.	-40.923
1487	8.5	1.0909	0.	-34.985
1488	8.5	0.90909	0.	-28.643
1489	8.5	0.72727	0.	-21.944
1490	8.5	0.54545	0.	-14.938
1491	8.5	0.36364	0.	-7.6218
1492	8.5	0.18182	0.	-0.27267
1493	8.3152	5.8182	0.	-0.76569
1494	8.3152	5.6364	0.	-9.3439
1495	8.3152	5.4545	0.	-17.357
1496	8.3152	5.2727	0.	-25.037
1497	8.3152	5.0909	0.	-32.383
1498	8.3152	4.9091	0.	-39.339
1499	8.3152	4.7273	0.	-45.853
1500	8.3152	4.5455	0.	-51.874
1501	8.3152	4.3636	0.	-57.355
1502	8.3152	4.1818	0.	-62.252
1503	8.3152	4.	0.	-66.527
1504	8.3152	3.8182	0.	-70.144
1505	8.3152	3.6364	0.	-73.075
1506	8.3152	3.4545	0.	-75.294
1507	8.3152	3.2727	0.	-76.784
1508	8.3152	3.0909	0.	-77.532
1509	8.3152	2.9091	0.	-77.532
1510	8.3152	2.7273	0.	-76.784
1511	8.3152	2.5455	0.	-75.294
1512	8.3152	2.3636	0.	-73.075
1513	8.3152	2.1818	0.	-70.144
1514	8.3152	2.	0.	-66.527
1515	8.3152	1.8182	0.	-62.252
1516	8.3152	1.6364	0.	-57.355
1517	8.3152	1.4545	0.	-51.874
1518	8.3152	1.2727	0.	-45.853
1519	8.3152	1.0909	0.	-39.339
1520	8.3152	0.90909	0.	-32.383
1521	8.3152	0.72727	0.	-25.037
1522	8.3152	0.54545	0.	-17.357
1523	8.3152	0.36364	0.	-9.3439
1524	8.3152	0.18182	0.	-0.7657
1525	8.1304	5.8182	0.	-1.686
1526	8.1304	5.6364	0.	-11.181
1527	8.1304	5.4545	0.	-19.944
1528	8.1304	5.2727	0.	-28.35
1529	8.1304	5.0909	0.	-36.393
1530	8.1304	4.9091	0.	-44.011
1531	8.1304	4.7273	0.	-51.145
1532	8.1304	4.5455	0.	-57.741
1533	8.1304	4.3636	0.	-63.745
1534	8.1304	4.1818	0.	-69.112
1535	8.1304	4.	0.	-73.796
1536	8.1304	3.8182	0.	-77.76
1537	8.1304	3.6364	0.	-80.972
1538	8.1304	3.4545	0.	-83.404
1539	8.1304	3.2727	0.	-85.037
1540	8.1304	3.0909	0.	-85.857
1541	8.1304	2.9091	0.	-85.857
1542	8.1304	2.7273	0.	-85.037
1543	8.1304	2.5455	0.	-83.404
1544	8.1304	2.3636	0.	-80.972
1545	8.1304	2.1818	0.	-77.76
1546	8.1304	2.	0.	-73.796
1547	8.1304	1.8182	0.	-69.112
1548	8.1304	1.6364	0.	-63.745
1549	8.1304	1.4545	0.	-57.741
1550	8.1304	1.2727	0.	-51.145
1551	8.1304	1.0909	0.	-44.011
1552	8.1304	0.90909	0.	-36.393
1553	8.1304	0.72727	0.	-28.35
1554	8.1304	0.54545	0.	-19.944
1555	8.1304	0.36364	0.	-11.181
1556	8.1304	0.18182	0.	-1.686
1557	7.9457	5.8182	0.	-2.7961
1558	7.9457	5.6364	0.	-13.142
1559	7.9457	5.4545	0.	-22.712
1560	7.9457	5.2727	0.	-31.901
1561	7.9457	5.0909	0.	-40.695
1562	7.9457	4.9091	0.	-49.027
1563	7.9457	4.7273	0.	-56.831
1564	7.9457	4.5455	0.	-64.048
1565	7.9457	4.3636	0.	-70.619
1566	7.9457	4.1818	0.	-76.493
1567	7.9457	4.	0.	-81.62
1568	7.9457	3.8182	0.	-85.96
1569	7.9457	3.6364	0.	-89.476
1570	7.9457	3.4545	0.	-92.14
1571	7.9457	3.2727	0.	-93.928
1572	7.9457	3.0909	0.	-94.826
1573	7.9457	2.9091	0.	-94.826
1574	7.9457	2.7273	0.	-93.928
1575	7.9457	2.5455	0.	-92.14
1576	7.9457	2.3636	0.	-89.476
1577	7.9457	2.1818	0.	-85.96
1578	7.9457	2.	0.	-81.62
1579	7.9457	1.8182	0.	-76.493
1580	7.9457	1.6364	0.	-70.619
1581	7.9457	1.4545	0.	-64.048
1582	7.9457	1.2727	0.	-56.831
1583	7.9457	1.0909	0.	-49.027
1584	7.9457	0.90909	0.	-40.695
1585	7.9457	0.72727	0.	-31.901
1586	7.9457	0.54545	0.	-22.712
1587	7.9457	0.36364	0.	-13.142
1588	7.9457	0.18182	0.	-2.7962
1589	7.7609	5.8182	0.	-4.0104
1590	7.7609	5.6364	0.	-15.236
1591	7.7609	5.4545	0.	-25.677
1592	7.7609	5.2727	0.	-35.71
1593	7.7609	5.0909	0.	-45.315
1594	7.7609	4.9091	0.	-54.417
1595	7.7609	4.7273	0.	-62.946
1596	7.7609	4.5455	0.	-70.834
1597	7.7609	4.3636	0.	-78.019
1598	7.7609	4.1818	0.	-84.441
1599	7.7609	4.	0.	-90.05
1600	7.7609	3.8182	0.	-94.797
1601	7.7609	3.6364	0.	-98.644
1602	7.7609	3.4545	0.	-101.56
1603	7.7609	3.2727	0.	-103.51
1604	7.7609	3.0909	0.	-104.5
1605	7.7609	2.9091	0.	-104.5
1606	7.7609	2.7273	0.	-103.51
1607	7.7609	2.5455	0.	-101.56
1608	7.7609	2.3636	0.	-98.644
1609	7.7609	2.1818	0.	-94.797
1610	7.7609	2.	0.	-90.05
1611	7.7609	1.8182	0.	-84.442
1612	7.7609	1.6364	0.	-78.019
1613	7.7609	1.4545	0.	-70.834
1614	7.7609	1.2727	0.	-62.946
1615	7.7609	1.0909	0.	-54.417
1616	7.7609	0.90909	0.	-45.315
1617	7.7609	0.72727	0.	-35.71
1618	7.7609	0.54545	0.	-25.677
1619	7.7609	0.36364	0.	-15.236
1620	7.7609	0.18182	0.	-4.0104
1621	7.5761	5.8182	0.	-5.3104
1622	7.5761	5.6364	0.	-17.472
1623	7.5761	5.4545	0.	-28.852
1624	7.5761	5.2727	0.	-39.797
1625	7.5761	5.0909	0.	-50.278
1626	7.5761	4.9091	0.	-60.214
1627	7.5761	4.7273	0.	-69.527
1628	7.5761	4.5455	0.	-78.142
1629	7.5761	4.3636	0.	-85.991
1630	7.5761	4.1818	0.	-93.009
1631	7.5761	4.	0.	-99.138
1632	7.5761	3.8182	0.	-104.33
1633	7.5761	3.6364	0.	-108.53
1634	7.5761	3.4545	0.	-111.72
1635	7.5761	3.2727	0.	-113.86
1636	7.5761	3.0909	0.	-114.93
1637	7.5761	2.9091	0.	-114.93
1638	7.5761	2.7273	0.	-113.86
1639	7.5761	2.5455	0.	-111.72
1640	7.5761	2.3636	0.	-108.53
1641	7.5761	2.1818	0.	-104.33
1642	7.5761	2.	0.	-99.138
1643	7.5761	1.8182	0.	-93.009
1644	7.5761	1.6364	0.	-85.991
1645	7.5761	1.4545	0.	-78.142
1646	7.5761	1.2727	0.	-69.527
1647	7.5761	1.0909	0.	-60.214
1648	7.5761	0.90909	0.	-50.278
1649	7.5761	0.72727	0.	-39.797
1650	7.5761	0.54545	0.	-28.852
1651	7.5761	0.36364	0.	-17.472
1652	7.5761	0.18182	0.	-5.3104
1653	7.3913	5.8182	0.	-6.6925
1654	7.3913	5.6364	0.	-19.86
1655	7.3913	5.4545	0.	-32.254
1656	7.3913	5.2727	0.	-44.184
1657	7.3913	5.0909	0.	-55.613
1658	7.3913	4.9091	0.	-66.451
1659	7.3913	4.7273	0.	-76.612
1660	7.3913	4.5455	0.	-86.015
1661	7.3913	4.3636	0.	-94.584
1662	7.3913	4.1818	0.	-102.25
1663	7.3913	4.	0.	-108.94
1664	7.3913	3.8182	0.	-114.61
1665	7.3913	3.6364	0.	-119.21
1666	7.3913	3.4545	0.	-122.69
1667	7.3913	3.2727	0.	-125.03
1668	7.3913	3.0909	0.	-126.2
1669	7.3913	2.9091	0.	-126.2
1670	7.3913	2.7273	0.	-125.03
1671	7.3913	2.5455	0.	-122.69
1672	7.3913	2.3636	0.	-119.21
1673	7.3913	2.1818	0.	-114.61
1674	7.3913	2.	0.	-108.94
1675	7.3913	1.8182	0.	-102.25
1676	7.3913	1.6364	0.	-94.584
1677	7.3913	1.4545	0.	-86.015
1678	7.3913	1.2727	0.	-76.612
1679	7.3913	1.0909	0.	-66.451
1680	7.3913	0.90909	0.	-55.613
1681	7.3913	0.72727	0.	-44.184
1682	7.3913	0.54545	0.	-32.254
1683	7.3913	0.36364	0.	-19.86
1684	7.3913	0.18182	0.	-6.6925
1685	7.2065	5.8182	0.	-8.1566
1686	7.2065	5.6364	0.	-22.408
1687	7.2065	5.4545	0.	-35.899
1688	7.2065	5.2727	0.	-48.894
1689	7.2065	5.0909	0.	-61.348
1690	7.2065	4.9091	0.	-73.163
1691	7.2065	4.7273	0.	-84.243
1692	7.2065	4.5455	0.	-94.501
1693	7.2065	4.3636	0.	-103.85
1694	7.2065	4.1818	0.	-112.22
1695	7.2065	4.	0.	-119.52
1696	7.2065	3.8182	0.	-125.72
1697	7.2065	3.6364	0.	-130.73
1698	7.2065	3.4545	0.	-134.54
1699	7.2065	3.2727	0.	-137.09
1700	7.2065	3.0909	0.	-138.37
1701	7.2065	2.9091	0.	-138.37
1702	7.2065	2.7273	0.	-137.09
1703	7.2065	2.5455	0.	-134.54
1704	7.2065	2.3636	0.	-130.73
1705	7.2065	2.1818	0.	-125.72
1706	7.2065	2.	0.	-119.52
1707	7.2065	1.8182	0.	-112.22
1708	7.2065	1.6364	0.	-103.85
1709	7.2065	1.4545	0.	-94.501
1710	7.2065	1.2727	0.	-84.243
1711	7.2065	1.0909	0.	-73.163
1712	7.2065	0.90909	0.	-61.348
1713	7.2065	0.72727	0.	-48.894
1714	7.2065	0.54545	0.	-35.9
1715	7.2065	0.36364	0.	-22.408
1716	7.2065	0.18182	0.	-8.1566
1717	7.0217	5.8182	0.	-9.7038
1718	7.0217	5.6364	0.	-25.128
1719	7.0217	5.4545	0.	-39.805
1720	7.0217	5.2727	0.	-53.952
1721	7.0217	5.0909	0.	-67.516
1722	7.0217	4.9091	0.	-80.388
1723	7.0217	4.7273	0.	-92.466
1724	7.0217	4.5455	0.	-103.65
1725	7.0217	4.3636	0.	-113.85
1726	7.0217	4.1818	0.	-122.98
1727	7.0217	4.	0.	-130.95
1728	7.0217	3.8182	0.	-137.71
1729	7.0217	3.6364	0.	-143.19
1730	7.0217	3.4545	0.	-147.34
1731	7.0217	3.2727	0.	-150.13
1732	7.0217	3.0909	0.	-151.53
1733	7.0217	2.9091	0.	-151.53
1734	7.0217	2.7273	0.	-150.13
1735	7.0217	2.5455	0.	-147.34
1736	7.0217	2.3636	0.	-143.19
1737	7.0217	2.1818	0.	-137.71
1738	7.0217	2.	0.	-130.95
1739	7.0217	1.8182	0.	-122.98
1740	7.0217	1.6364	0.	-113.85
1741	7.0217	1.4545	0.	-103.65
1742	7.0217	1.2727	0.	-92.466
1743	7.0217	1.0909	0.	-80.388
1744	7.0217	0.90909	0.	-67.516
1745	7.0217	0.72727	0.	-53.952
1746	7.0217	0.54545	0.	-39.805
1747	7.0217	0.36364	0.	-25.128
1748	7.0217	0.18182	0.	-9.7038
1749	6.837	5.8182	0.	-11.335
1750	6.837	5.6364	0.	-28.029
1751	6.837	5.4545	0.	-43.988
1752	6.837	5.2727	0.	-59.382
1753	6.837	5.0909	0.	-74.148
1754	6.837	4.9091	0.	-88.168
1755	6.837	4.7273	0.	-101.33
1756	6.837	4.5455	0.	-113.52
1757	6.837	4.3636	0.	-124.64
1758	6.837	4.1818	0.	-134.59
1759	6.837	4.	0.	-143.3
1760	6.837	3.8182	0.	-150.67
1761	6.837	3.6364	0.	-156.65
1762	6.837	3.4545	0.	-161.19
1763	6.837	3.2727	0.	-164.24
1764	6.837	3.0909	0.	-165.77
1765	6.837	2.9091	0.	-165.77
1766	6.837	2.7273	0.	-164.24
1767	6.837	2.5455	0.	-161.19
1768	6.837	2.3636	0.	-156.65
1769	6.837	2.1818	0.	-150.67
1770	6.837	2.	0.	-143.3
1771	6.837	1.8182	0.	-134.59
1772	6.837	1.6364	0.	-124.64
1773	6.837	1.4545	0.	-113.52
1774	6.837	1.2727	0.	-101.33
1775	6.837	1.0909	0.	-88.168
1776	6.837	0.90909	0.	-74.148
1777	6.837	0.72727	0.	-59.382
1778	6.837	0.54545	0.	-43.988
1779	6.837	0.36364	0.	-28.029
1780	6.837	0.18182	0.	-11.335
1781	6.6522	5.8182	0.	-13.052
1782	6.6522	5.6364	0.	-31.122
1783	6.6522	5.4545	0.	-48.468
1784	6.6522	5.2727	0.	-65.212
1785	6.6522	5.0909	0.	-81.281
1786	6.6522	4.9091	0.	-96.544
1787	6.6522	4.7273	0.	-110.88
1788	6.6522	4.5455	0.	-124.16
1789	6.6522	4.3636	0.	-136.29
1790	6.6522	4.1818	0.	-147.14
1791	6.6522	4.	0.	-156.64
1792	6.6522	3.8182	0.	-164.69
1793	6.6522	3.6364	0.	-171.21
1794	6.6522	3.4545	0.	-176.16
1795	6.6522	3.2727	0.	-179.49
1796	6.6522	3.0909	0.	-181.16
1797	6.6522	2.9091	0.	-181.16
1798	6.6522	2.7273	0.	-179.49
1799	6.6522	2.5455	0.	-176.16
1800	6.6522	2.3636	0.	-171.21
1801	6.6522	2.1818	0.	-164.69
1802	6.6522	2.	0.	-156.64
1803	6.6522	1.8182	0.	-147.14
1804	6.6522	1.6364	0.	-136.29
1805	6.6522	1.4545	0.	-124.16
1806	6.6522	1.2727	0.	-110.88
1807	6.6522	1.0909	0.	-96.544
1808	6.6522	0.90909	0.	-81.281
1809	6.6522	0.72727	0.	-65.212
1810	6.6522	0.54545	0.	-48.468
1811	6.6522	0.36364	0.	-31.122
1812	6.6522	0.18182	0.	-13.052
1813	6.4674	5.8182	0.	-14.855
1814	6.4674	5.6364	0.	-34.416
1815	6.4674	5.4545	0.	-53.264
1816	6.4674	5.2727	0.	-71.469
1817	6.4674	5.0909	0.	-88.95
1818	6.4674	4.9091	0.	-105.56
1819	6.4674	4.7273	0.	-121.17
1820	6.4674	4.5455	0.	-135.65
1821	6.4674	4.3636	0.	-148.86
1822	6.4674	4.1818	0.	-160.7
1823	6.4674	4.	0.	-171.06
1824	6.4674	3.8182	0.	-179.84
1825	6.4674	3.6364	0.	-186.96
1826	6.4674	3.4545	0.	-192.37
1827	6.4674	3.2727	0.	-196.
1828	6.4674	3.0909	0.	-197.82
1829	6.4674	2.9091	0.	-197.82
1830	6.4674	2.7273	0.	-196.
1831	6.4674	2.5455	0.	-192.37
1832	6.4674	2.3636	0.	-186.96
1833	6.4674	2.1818	0.	-179.84
1834	6.4674	2.	0.	-171.06
1835	6.4674	1.8182	0.	-160.7
1836	6.4674	1.6364	0.	-148.86
1837	6.4674	1.4545	0.	-135.65
1838	6.4674	1.2727	0.	-121.17
1839	6.4674	1.0909	0.	-105.56
1840	6.4674	0.90909	0.	-88.95
1841	6.4674	0.72727	0.	-71.469
1842	6.4674	0.54545	0.	-53.264
1843	6.4674	0.36364	0.	-34.416
1844	6.4674	0.18182	0.	-14.855
1845	6.2826	5.8182	0.	-16.743
1846	6.2826	5.6364	0.	-37.922
1847	6.2826	5.4545	0.	-58.394
1848	6.2826	5.2727	0.	-78.183
1849	6.2826	5.0909	0.	-97.196
1850	6.2826	4.9091	0.	-115.28
1851	6.2826	4.7273	0.	-132.27
1852	6.2826	4.5455	0.	-148.04
1853	6.2826	4.3636	0.	-162.44
1854	6.2826	4.1818	0.	-175.35
1855	6.2826	4.	0.	-186.64
1856	6.2826	3.8182	0.	-196.22
1857	6.2826	3.6364	0.	-204.
1858	6.2826	3.4545	0.	-209.9
1859	6.2826	3.2727	0.	-213.86
1860	6.2826	3.0909	0.	-215.85
1861	6.2826	2.9091	0.	-215.85
1862	6.2826	2.7273	0.	-213.86
1863	6.2826	2.5455	0.	-209.9
1864	6.2826	2.3636	0.	-204.
1865	6.2826	2.1818	0.	-196.22
1866	6.2826	2.	0.	-186.64
1867	6.2826	1.8182	0.	-175.35
1868	6.2826	1.6364	0.	-162.44
1869	6.2826	1.4545	0.	-148.04
1870	6.2826	1.2727	0.	-132.27
1871	6.2826	1.0909	0.	-115.28
1872	6.2826	0.90909	0.	-97.196
1873	6.2826	0.72727	0.	-78.183
1874	6.2826	0.54545	0.	-58.394
1875	6.2826	0.36364	0.	-37.922
1876	6.2826	0.18182	0.	-16.743
1877	6.0978	5.8182	0.	-18.715
1878	6.0978	5.6364	0.	-41.649
1879	6.0978	5.4545	0.	-63.88
1880	6.0978	5.2727	0.	-85.384
1881	6.0978	5.0909	0.	-106.06
1882	6.0978	4.9091	0.	-125.73
1883	6.0978	4.7273	0.	-144.23
1884	6.0978	4.5455	0.	-161.41
1885	6.0978	4.3636	0.	-177.1
1886	6.0978	4.1818	0.	-191.17
1887	6.0978	4.	0.	-203.49
1888	6.0978	3.8182	0.	-213.95
1889	6.0978	3.6364	0.	-222.43
1890	6.0978	3.4545	0.	-228.87
1891	6.0978	3.2727	0.	-233.2
1892	6.0978	3.0909	0.	-235.38
1893	6.0978	2.9091	0.	-235.38
1894	6.0978	2.7273	0.	-233.2
1895	6.0978	2.5455	0.	-228.87
1896	6.0978	2.3636	0.	-222.43
1897	6.0978	2.1818	0.	-213.95
1898	6.0978	2.	0.	-203.49
1899	6.0978	1.8182	0.	-191.17
1900	6.0978	1.6364	0.	-177.1
1901	6.0978	1.4545	0.	-161.41
1902	6.0978	1.2727	0.	-144.23
1903	6.0978	1.0909	0.	-125.73
1904	6.0978	0.90909	0.	-106.06
1905	6.0978	0.72727	0.	-85.384
1906	6.0978	0.54545	0.	-63.88
1907	6.0978	0.36364	0.	-41.649
1908	6.0978	0.18182	0.	-18.715
1909	5.913	5.8182	0.	-20.767
1910	5.913	5.6364	0.	-45.607
1911	5.913	5.4545	0.	-69.741
1912	5.913	5.2727	0.	-93.105
1913	5.913	5.0909	0.	-115.58
1914	5.913	4.9091	0.	-136.98
1915	5.913	4.7273	0.	-157.12
1916	5.913	4.5455	0.	-175.83
1917	5.913	4.3636	0.	-192.93
1918	5.913	4.1818	0.	-208.27
1919	5.913	4.	0.	-221.71
1920	5.913	3.8182	0.	-233.12
1921	5.913	3.6364	0.	-242.39
1922	5.913	3.4545	0.	-249.42
1923	5.913	3.2727	0.	-254.14
1924	5.913	3.0909	0.	-256.52
1925	5.913	2.9091	0.	-256.52
1926	5.913	2.7273	0.	-254.14
1927	5.913	2.5455	0.	-249.42
1928	5.913	2.3636	0.	-242.39
1929	5.913	2.1818	0.	-233.12
1930	5.913	2.	0.	-221.71
1931	5.913	1.8182	0.	-208.27
1932	5.913	1.6364	0.	-192.93
1933	5.913	1.4545	0.	-175.83
1934	5.913	1.2727	0.	-157.12
1935	5.913	1.0909	0.	-136.98
1936	5.913	0.90909	0.	-115.58
1937	5.913	0.72727	0.	-93.105
1938	5.913	0.54545	0.	-69.741
1939	5.913	0.36364	0.	-45.607
1940	5.913	0.18182	0.	-20.767
1941	5.7283	5.8182	0.	-22.896
1942	5.7283	5.6364	0.	-49.803
1943	5.7283	5.4545	0.	-75.998
1944	5.7283	5.2727	0.	-101.38
1945	5.7283	5.0909	0.	-125.81
1946	5.7283	4.9091	0.	-149.09
1947	5.7283	4.7273	0.	-171.01
1948	5.7283	4.5455	0.	-191.39
1949	5.7283	4.3636	0.	-210.03
1950	5.7283	4.1818	0.	-226.76
1951	5.7283	4.	0.	-241.42
1952	5.7283	3.8182	0.	-253.87
1953	5.7283	3.6364	0.	-263.98
1954	5.7283	3.4545	0.	-271.65
1955	5.7283	3.2727	0.	-276.82
1956	5.7283	3.0909	0.	-279.41
1957	5.7283	2.9091	0.	-279.41
1958	5.7283	2.7273	0.	-276.82
1959	5.7283	2.5455	0.	-271.65
1960	5.7283	2.3636	0.	-263.98
1961	5.7283	2.1818	0.	-253.87
1962	5.7283	2.	0.	-241.42
1963	5.7283	1.8182	0.	-226.76
1964	5.7283	1.6364	0.	-210.03
1965	5.7283	1.4545	0.	-191.39
1966	5.7283	1.2727	0.	-171.01
1967	5.7283	1.0909	0.	-149.09
1968	5.7283	0.90909	0.	-125.81
1969	5.7283	0.72727	0.	-101.38
1970	5.7283	0.54545	0.	-75.998
1971	5.7283	0.36364	0.	-49.803
1972	5.7283	0.18182	0.	-22.896
1973	5.5435	5.8182	0.	-25.095
1974	5.5435	5.6364	0.	-54.246
1975	5.5435	5.4545	0.	-82.673
1976	5.5435	5.2727	0.	-110.24
1977	5.5435	5.0909	0.	-136.79
1978	5.5435	4.9091	0.	-162.12
1979	5.5435	4.7273	0.	-185.98
1980	5.5435	4.5455	0.	-208.17
1981	5.5435	4.3636	0.	-228.49
1982	5.5435	4.1818	0.	-246.73
1983	5.5435	4.	0.	-262.72
1984	5.5435	3.8182	0.	-276.31
1985	5.5435	3.6364	0.	-287.35
1986	5.5435	3.4545	0.	-295.73
1987	5.5435	3.2727	0.	-301.37
1988	5.5435	3.0909	0.	-304.2
1989	5.5435	2.9091	0.	-304.2
1990	5.5435	2.7273	0.	-301.37
1991	5.5435	2.5455	0.	-295.73
1992	5.5435	2.3636	0.	-287.35
1993	5.5435	2.1818	0.	-276.31
1994	5.5435	2.	0.	-262.72
1995	5.5435	1.8182	0.	-246.73
1996	5.5435	1.6364	0.	-228.49
1997	5.5435	1.4545	0.	-208.17
1998	5.5435	1.2727	0.	-185.98
1999	5.5435	1.0909	0.	-162.12
2000	5.5435	0.90909	0.	-136.79
2001	5.5435	0.72727	0.	-110.24
2002	5.5435	0.54545	0.	-82.673
2003	5.5435	0.36364	0.	-54.246
2004	5.5435	0.18182	0.	-25.095
2005	5.3587	5.8182	0.	-27.354
2006	5.3587	5.6364	0.	-58.942
2007	5.3587	5.4545	0.	-89.785
2008	5.3587	5.2727	0.	-119.72
2009	5.3587	5.0909	0.	-148.58
2010	5.3587	4.9091	0.	-176.12
2011	5.3587	4.7273	0.	-202.1
2012	5.3587	4.5455	0.	-226.27
2013	5.3587	4.3636	0.	-248.41
2014	5.3587	4.1818	0.	-268.31
2015	5.3587	4.	0.	-285.76
2016	5.3587	3.8182	0.	-300.59
2017	5.3587	3.6364	0.	-312.64
2018	5.3587	3.4545	0.	-321.8
2019	5.3587	3.2727	0.	-327.96
2020	5.3587	3.0909	0.	-331.05
2021	5.3587	2.9091	0.	-331.05
2022	5.3587	2.7273	0.	-327.96
2023	5.3587	2.5455	0.	-321.8
2024	5.3587	2.3636	0.	-312.64
2025	5.3587	2.1818	0.	-300.59
2026	5.3587	2.	0.	-285.76
2027	5.3587	1.8182	0.	-268.31
2028	5.3587	1.6364	0.	-248.41
2029	5.3587	1.4545	0.	-226.27
2030	5.3587	1.2727	0.	-202.1
2031	5.3587	1.0909	0.	-176.12
2032	5.3587	0.90909	0.	-148.58
2033	5.3587	0.72727	0.	-119.72
2034	5.3587	0.54545	0.	-89.785
2035	5.3587	0.36364	0.	-58.942
2036	5.3587	0.18182	0.	-27.354
2037	5.1739	5.8182	0.	-29.662
2038	5.1739	5.6364	0.	-63.896
2039	5.1739	5.4545	0.	-97.355
2040	5.1739	5.2727	0.	-129.86
2041	5.1739	5.0909	0.	-161.23
2042	5.1739	4.9091	0.	-191.18
2043	5.1739	4.7273	0.	-219.46
2044	5.1739	4.5455	0.	-245.79
2045	5.1739	4.3636	0.	-269.93
2046	5.1739	4.1818	0.	-291.63
2047	5.1739	4.	0.	-310.67
2048	5.1739	3.8182	0.	-326.86
2049	5.1739	3.6364	0.	-340.02
2050	5.1739	3.4545	0.	-350.02
2051	5.1739	3.2727	0.	-356.75
2052	5.1739	3.0909	0.	-360.13
2053	5.1739	2.9091	0.	-360.13
2054	5.1739	2.7273	0.	-356.75
2055	5.1739	2.5455	0.	-350.02
2056	5.1739	2.3636	0.	-340.02
2057	5.1739	2.1818	0.	-326.86
2058	5.1739	2.	0.	-310.67
2059	5.1739	1.8182	0.	-291.63
2060	5.1739	1.6364	0.	-269.93
2061	5.1739	1.4545	0.	-245.79
2062	5.1739	1.2727	0.	-219.46
2063	5.1739	1.0909	0.	-191.18
2064	5.1739	0.90909	0.	-161.23
2065	5.1739	0.72727	0.	-129.86
2066	5.1739	0.54545	0.	-97.355
2067	5.1739	0.36364	0.	-63.896
2068	5.1739	0.18182	0.	-29.662
2069	4.9891	5.8182	0.	-32.005
2070	4.9891	5.6364	0.	-69.111
2071	4.9891	5.4545	0.	-105.4
2072	4.9891	5.2727	0.	-140.69
2073	4.9891	5.0909	0.	-174.78
2074	4.9891	4.9091	0.	-207.37
2075	4.9891	4.7273	0.	-238.15
2076	4.9891	4.5455	0.	-266.84
2077	4.9891	4.3636	0.	-293.15
2078	4.9891	4.1818	0.	-316.82
2079	4.9891	4.	0.	-337.6
2080	4.9891	3.8182	0.	-355.27
2081	4.9891	3.6364	0.	-369.65
2082	4.9891	3.4545	0.	-380.57
2083	4.9891	3.2727	0.	-387.92
2084	4.9891	3.0909	0.	-391.62
2085	4.9891	2.9091	0.	-391.62
2086	4.9891	2.7273	0.	-387.92
2087	4.9891	2.5455	0.	-380.57
2088	4.9891	2.3636	0.	-369.65
2089	4.9891	2.1818	0.	-355.27
2090	4.9891	2.	0.	-337.6
2091	4.9891	1.8182	0.	-316.82
2092	4.9891	1.6364	0.	-293.15
2093	4.9891	1.4545	0.	-266.84
2094	4.9891	1.2727	0.	-238.15
2095	4.9891	1.0909	0.	-207.37
2096	4.9891	0.90909	0.	-174.78
2097	4.9891	0.72727	0.	-140.69
2098	4.9891	0.54545	0.	-105.4
2099	4.9891	0.36364	0.	-69.111
2100	4.9891	0.18182	0.	-32.005
2101	4.8043	5.8182	0.	-34.363
2102	4.8043	5.6364	0.	-74.59
2103	4.8043	5.4545	0.	-113.95
2104	4.8043	5.2727	0.	-152.26
2105	4.8043	5.0909	0.	-189.31
2106	4.8043	4.9091	0.	-224.76
2107	4.8043	4.7273	0.	-258.27
2108	4.8043	4.5455	0.	-289.53
2109	4.8043	4.3636	0.	-318.22
2110	4.8043	4.1818	0.	-344.04
2111	4.8043	4.	0.	-366.72
2112	4.8043	3.8182	0.	-386.01
2113	4.8043	3.6364	0.	-401.71
2114	4.8043	3.4545	0.	-413.64
2115	4.8043	3.2727	0.	-421.67
2116	4.8043	3.0909	0.	-425.71
2117	4.8043	2.9091	0.	-425.71
2118	4.8043	2.7273	0.	-421.67
2119	4.8043	2.5455	0.	-413.64
2120	4.8043	2.3636	0.	-401.71
2121	4.8043	2.1818	0.	-386.01
2122	4.8043	2.	0.	-366.72
2123	4.8043	1.8182	0.	-344.04
2124	4.8043	1.6364	0.	-318.22
2125	4.8043	1.4545	0.	-289.53
2126	4.8043	1.2727	0.	-258.27
2127	4.8043	1.0909	0.	-224.76
2128	4.8043	0.90909	0.	-189.31
2129	4.8043	0.72727	0.	-152.26
2130	4.8043	0.54545	0.	-113.95
2131	4.8043	0.36364	0.	-74.59
2132	4.8043	0.18182	0.	-34.363
2133	4.6196	5.8182	0.	-36.713
2134	4.6196	5.6364	0.	-80.331
2135	4.6196	5.4545	0.	-123.02
2136	4.6196	5.2727	0.	-164.61
2137	4.6196	5.0909	0.	-204.87
2138	4.6196	4.9091	0.	-243.44
2139	4.6196	4.7273	0.	-279.93
2140	4.6196	4.5455	0.	-313.99
2141	4.6196	4.3636	0.	-345.27
2142	4.6196	4.1818	0.	-373.44
2143	4.6196	4.	0.	-398.19
2144	4.6196	3.8182	0.	-419.25
2145	4.6196	3.6364	0.	-436.4
2146	4.6196	3.4545	0.	-449.43
2147	4.6196	3.2727	0.	-458.2
2148	4.6196	3.0909	0.	-462.61
2149	4.6196	2.9091	0.	-462.61
2150	4.6196	2.7273	0.	-458.2
2151	4.6196	2.5455	0.	-449.43
2152	4.6196	2.3636	0.	-436.4
2153	4.6196	2.1818	0.	-419.25
2154	4.6196	2.	0.	-398.19
2155	4.6196	1.8182	0.	-373.44
2156	4.6196	1.6364	0.	-345.27
2157	4.6196	1.4545	0.	-313.99
2158	4.6196	1.2727	0.	-279.93
2159	4.6196	1.0909	0.	-243.44
2160	4.6196	0.90909	0.	-204.87
2161	4.6196	0.72727	0.	-164.61
2162	4.6196	0.54545	0.	-123.02
2163	4.6196	0.36364	0.	-80.331
2164	4.6196	0.18182	0.	-36.713
2165	4.4348	5.8182	0.	-39.028
2166	4.4348	5.6364	0.	-86.33
2167	4.4348	5.4545	0.	-132.62
2168	4.4348	5.2727	0.	-177.77
2169	4.4348	5.0909	0.	-221.54
2170	4.4348	4.9091	0.	-263.5
2171	4.4348	4.7273	0.	-303.24
2172	4.4348	4.5455	0.	-340.36
2173	4.4348	4.3636	0.	-374.46
2174	4.4348	4.1818	0.	-405.19
2175	4.4348	4.	0.	-432.2
2176	4.4348	3.8182	0.	-455.2
2177	4.4348	3.6364	0.	-473.91
2178	4.4348	3.4545	0.	-488.14
2179	4.4348	3.2727	0.	-497.72
2180	4.4348	3.0909	0.	-502.53
2181	4.4348	2.9091	0.	-502.53
2182	4.4348	2.7273	0.	-497.72
2183	4.4348	2.5455	0.	-488.14
2184	4.4348	2.3636	0.	-473.91
2185	4.4348	2.1818	0.	-455.2
2186	4.4348	2.	0.	-432.2
2187	4.4348	1.8182	0.	-405.19
2188	4.4348	1.6364	0.	-374.46
2189	4.4348	1.4545	0.	-340.36
2190	4.4348	1.2727	0.	-303.24
2191	4.4348	1.0909	0.	-263.5
2192	4.4348	0.90909	0.	-221.54
2193	4.4348	0.72727	0.	-177.77
2194	4.4348	0.54545	0.	-132.62
2195	4.4348	0.36364	0.	-86.33
2196	4.4348	0.18182	0.	-39.028
2197	4.25	5.8182	0.	-41.274
2198	4.25	5.6364	0.	-92.582
2199	4.25	5.4545	0.	-142.78
2200	4.25	5.2727	0.	-191.8
2201	4.25	5.0909	0.	-239.38
2202	4.25	4.9091	0.	-285.04
2203	4.25	4.7273	0.	-328.32
2204	4.25	4.5455	0.	-368.77
2205	4.25	4.3636	0.	-405.97
2206	4.25	4.1818	0.	-439.49
2207	4.25	4.	0.	-468.96
2208	4.25	3.8182	0.	-494.05
2209	4.25	3.6364	0.	-514.48
2210	4.25	3.4545	0.	-530.01
2211	4.25	3.2727	0.	-540.46
2212	4.25	3.0909	0.	-545.71
2213	4.25	2.9091	0.	-545.71
2214	4.25	2.7273	0.	-540.46
2215	4.25	2.5455	0.	-530.01
2216	4.25	2.3636	0.	-514.48
2217	4.25	2.1818	0.	-494.05
2218	4.25	2.	0.	-468.96
2219	4.25	1.8182	0.	-439.49
2220	4.25	1.6364	0.	-405.97
2221	4.25	1.4545	0.	-368.77
2222	4.25	1.2727	0.	-328.32
2223	4.25	1.0909	0.	-285.04
2224	4.25	0.90909	0.	-239.38
2225	4.25	0.72727	0.	-191.8
2226	4.25	0.54545	0.	-142.78
2227	4.25	0.36364	0.	-92.582
2228	4.25	0.18182	0.	-41.274
2229	4.0652	5.8182	0.	-43.413
2230	4.0652	5.6364	0.	-99.078
2231	4.0652	5.4545	0.	-153.51
2232	4.0652	5.2727	0.	-206.75
2233	4.0652	5.0909	0.	-258.48
2234	4.0652	4.9091	0.	-308.17
2235	4.0652	4.7273	0.	-355.31
2236	4.0652	4.5455	0.	-399.41
2237	4.0652	4.3636	0.	-439.96
2238	4.0652	4.1818	0.	-476.52
2239	4.0652	4.	0.	-508.67
2240	4.0652	3.8182	0.	-536.04
2241	4.0652	3.6364	0.	-558.32
2242	4.0652	3.4545	0.	-575.26
2243	4.0652	3.2727	0.	-586.66
2244	4.0652	3.0909	0.	-592.39
2245	4.0652	2.9091	0.	-592.39
2246	4.0652	2.7273	0.	-586.66
2247	4.0652	2.5455	0.	-575.26
2248	4.0652	2.3636	0.	-558.32
2249	4.0652	2.1818	0.	-536.04
2250	4.0652	2.	0.	-508.67
2251	4.0652	1.8182	0.	-476.52
2252	4.0652	1.6364	0.	-439.96
2253	4.0652	1.4545	0.	-399.41
2254	4.0652	1.2727	0.	-355.31
2255	4.0652	1.0909	0.	-308.17
2256	4.0652	0.90909	0.	-258.48
2257	4.0652	0.72727	0.	-206.75
2258	4.0652	0.54545	0.	-153.51
2259	4.0652	0.36364	0.	-99.078
2260	4.0652	0.18182	0.	-43.413
2261	3.8804	5.8182	0.	-45.397
2262	3.8804	5.6364	0.	-105.81
2263	3.8804	5.4545	0.	-164.85
2264	3.8804	5.2727	0.	-222.67
2265	3.8804	5.0909	0.	-278.92
2266	3.8804	4.9091	0.	-333.01
2267	3.8804	4.7273	0.	-384.37
2268	3.8804	4.5455	0.	-432.43
2269	3.8804	4.3636	0.	-476.65
2270	3.8804	4.1818	0.	-516.51
2271	3.8804	4.	0.	-551.56
2272	3.8804	3.8182	0.	-581.4
2273	3.8804	3.6364	0.	-605.68
2274	3.8804	3.4545	0.	-624.14
2275	3.8804	3.2727	0.	-636.56
2276	3.8804	3.0909	0.	-642.8
2277	3.8804	2.9091	0.	-642.8
2278	3.8804	2.7273	0.	-636.56
2279	3.8804	2.5455	0.	-624.14
2280	3.8804	2.3636	0.	-605.68
2281	3.8804	2.1818	0.	-581.4
2282	3.8804	2.	0.	-551.56
2283	3.8804	1.8182	0.	-516.51
2284	3.8804	1.6364	0.	-476.65
2285	3.8804	1.4545	0.	-432.43
2286	3.8804	1.2727	0.	-384.37
2287	3.8804	1.0909	0.	-333.01
2288	3.8804	0.90909	0.	-278.92
2289	3.8804	0.72727	0.	-222.67
2290	3.8804	0.54545	0.	-164.85
2291	3.8804	0.36364	0.	-105.81
2292	3.8804	0.18182	0.	-45.397
2293	3.6957	5.8182	0.	-47.173
2294	3.6957	5.6364	0.	-112.75
2295	3.6957	5.4545	0.	-176.8
2296	3.6957	5.2727	0.	-239.62
2297	3.6957	5.0909	0.	-300.81
2298	3.6957	4.9091	0.	-359.72
2299	3.6957	4.7273	0.	-415.68
2300	3.6957	4.5455	0.	-468.06
2301	3.6957	4.3636	0.	-516.25
2302	3.6957	4.1818	0.	-559.69
2303	3.6957	4.	0.	-597.88
2304	3.6957	3.8182	0.	-630.38
2305	3.6957	3.6364	0.	-656.81
2306	3.6957	3.4545	0.	-676.9
2307	3.6957	3.2727	0.	-690.41
2308	3.6957	3.0909	0.	-697.2
2309	3.6957	2.9091	0.	-697.2
2310	3.6957	2.7273	0.	-690.41
2311	3.6957	2.5455	0.	-676.9
2312	3.6957	2.3636	0.	-656.81
2313	3.6957	2.1818	0.	-630.38
2314	3.6957	2.	0.	-597.88
2315	3.6957	1.8182	0.	-559.69
2316	3.6957	1.6364	0.	-516.25
2317	3.6957	1.4545	0.	-468.06
2318	3.6957	1.2727	0.	-415.68
2319	3.6957	1.0909	0.	-359.72
2320	3.6957	0.90909	0.	-300.81
2321	3.6957	0.72727	0.	-239.62
2322	3.6957	0.54545	0.	-176.8
2323	3.6957	0.36364	0.	-112.75
2324	3.6957	0.18182	0.	-47.173
2325	3.5109	5.8182	0.	-48.68
2326	3.5109	5.6364	0.	-119.9
2327	3.5109	5.4545	0.	-189.41
2328	3.5109	5.2727	0.	-257.69
2329	3.5109	5.0909	0.	-324.28
2330	3.5109	4.9091	0.	-388.44
2331	3.5109	4.7273	0.	-449.43
2332	3.5109	4.5455	0.	-506.52
2333	3.5109	4.3636	0.	-559.03
2334	3.5109	4.1818	0.	-606.34
2335	3.5109	4.	0.	-647.9
2336	3.5109	3.8182	0.	-683.24
2337	3.5109	3.6364	0.	-711.97
2338	3.5109	3.4545	0.	-733.79
2339	3.5109	3.2727	0.	-748.45
2340	3.5109	3.0909	0.	-755.82
2341	3.5109	2.9091	0.	-755.82
2342	3.5109	2.7273	0.	-748.45
2343	3.5109	2.5455	0.	-733.79
2344	3.5109	2.3636	0.	-711.97
2345	3.5109	2.1818	0.	-683.24
2346	3.5109	2.	0.	-647.9
2347	3.5109	1.8182	0.	-606.34
2348	3.5109	1.6364	0.	-559.03
2349	3.5109	1.4545	0.	-506.52
2350	3.5109	1.2727	0.	-449.43
2351	3.5109	1.0909	0.	-388.44
2352	3.5109	0.90909	0.	-324.28
2353	3.5109	0.72727	0.	-257.69
2354	3.5109	0.54545	0.	-189.41
2355	3.5109	0.36364	0.	-119.9
2356	3.5109	0.18182	0.	-48.68
2357	3.3261	5.8182	0.	-49.848
2358	3.3261	5.6364	0.	-127.24
2359	3.3261	5.4545	0.	-202.71
2360	3.3261	5.2727	0.	-276.97
2361	3.3261	5.0909	0.	-349.48
2362	3.3261	4.9091	0.	-419.4
2363	3.3261	4.7273	0.	-485.86
2364	3.3261	4.5455	0.	-548.07
2365	3.3261	4.3636	0.	-605.25
2366	3.3261	4.1818	0.	-656.72
2367	3.3261	4.	0.	-701.89
2368	3.3261	3.8182	0.	-740.26
2369	3.3261	3.6364	0.	-771.42
2370	3.3261	3.4545	0.	-795.06
2371	3.3261	3.2727	0.	-810.94
2372	3.3261	3.0909	0.	-818.91
2373	3.3261	2.9091	0.	-818.91
2374	3.3261	2.7273	0.	-810.94
2375	3.3261	2.5455	0.	-795.06
2376	3.3261	2.3636	0.	-771.42
2377	3.3261	2.1818	0.	-740.26
2378	3.3261	2.	0.	-701.89
2379	3.3261	1.8182	0.	-656.72
2380	3.3261	1.6364	0.	-605.25
2381	3.3261	1.4545	0.	-548.07
2382	3.3261	1.2727	0.	-485.86
2383	3.3261	1.0909	0.	-419.4
2384	3.3261	0.90909	0.	-349.48
2385	3.3261	0.72727	0.	-276.97
2386	3.3261	0.54545	0.	-202.71
2387	3.3261	0.36364	0.	-127.24
2388	3.3261	0.18182	0.	-49.848
2389	3.1413	5.8182	0.	-50.597
2390	3.1413	5.6364	0.	-134.75
2391	3.1413	5.4545	0.	-216.76
2392	3.1413	5.2727	0.	-297.57
2393	3.1413	5.0909	0.	-376.59
2394	3.1413	4.9091	0.	-452.82
2395	3.1413	4.7273	0.	-525.27
2396	3.1413	4.5455	0.	-593.03
2397	3.1413	4.3636	0.	-655.25
2398	3.1413	4.1818	0.	-711.17
2399	3.1413	4.	0.	-760.17
2400	3.1413	3.8182	0.	-801.73
2401	3.1413	3.6364	0.	-835.42
2402	3.1413	3.4545	0.	-860.95
2403	3.1413	3.2727	0.	-878.08
2404	3.1413	3.0909	0.	-886.69
2405	3.1413	2.9091	0.	-886.69
2406	3.1413	2.7273	0.	-878.08
2407	3.1413	2.5455	0.	-860.95
2408	3.1413	2.3636	0.	-835.42
2409	3.1413	2.1818	0.	-801.73
2410	3.1413	2.	0.	-760.17
2411	3.1413	1.8182	0.	-711.17
2412	3.1413	1.6364	0.	-655.25
2413	3.1413	1.4545	0.	-593.03
2414	3.1413	1.2727	0.	-525.27
2415	3.1413	1.0909	0.	-452.82
2416	3.1413	0.90909	0.	-376.59
2417	3.1413	0.72727	0.	-297.57
2418	3.1413	0.54545	0.	-216.76
2419	3.1413	0.36364	0.	-134.75
2420	3.1413	0.18182	0.	-50.597
2421	2.9565	5.8182	0.	-50.841
2422	2.9565	5.6364	0.	-142.41
2423	2.9565	5.4545	0.	-231.62
2424	2.9565	5.2727	0.	-319.68
2425	2.9565	5.0909	0.	-405.86
2426	2.9565	4.9091	0.	-489.01
2427	2.9565	4.7273	0.	-568.
2428	2.9565	4.5455	0.	-641.77
2429	2.9565	4.3636	0.	-709.39
2430	2.9565	4.1818	0.	-770.04
2431	2.9565	4.	0.	-823.06
2432	2.9565	3.8182	0.	-867.93
2433	2.9565	3.6364	0.	-904.23
2434	2.9565	3.4545	0.	-931.69
2435	2.9565	3.2727	0.	-950.09
2436	2.9565	3.0909	0.	-959.33
2437	2.9565	2.9091	0.	-959.33
2438	2.9565	2.7273	0.	-950.09
2439	2.9565	2.5455	0.	-931.69
2440	2.9565	2.3636	0.	-904.23
2441	2.9565	2.1818	0.	-867.93
2442	2.9565	2.	0.	-823.06
2443	2.9565	1.8182	0.	-770.04
2444	2.9565	1.6364	0.	-709.39
2445	2.9565	1.4545	0.	-641.77
2446	2.9565	1.2727	0.	-568.
2447	2.9565	1.0909	0.	-489.01
2448	2.9565	0.90909	0.	-405.86
2449	2.9565	0.72727	0.	-319.68
2450	2.9565	0.54545	0.	-231.62
2451	2.9565	0.36364	0.	-142.41
2452	2.9565	0.18182	0.	-50.841
2453	2.7717	5.8182	0.	-50.485
2454	2.7717	5.6364	0.	-150.24
2455	2.7717	5.4545	0.	-247.4
2456	2.7717	5.2727	0.	-343.48
2457	2.7717	5.0909	0.	-437.59
2458	2.7717	4.9091	0.	-528.36
2459	2.7717	4.7273	0.	-614.47
2460	2.7717	4.5455	0.	-694.74
2461	2.7717	4.3636	0.	-768.11
2462	2.7717	4.1818	0.	-833.73
2463	2.7717	4.	0.	-890.92
2464	2.7717	3.8182	0.	-939.16
2465	2.7717	3.6364	0.	-978.09
2466	2.7717	3.4545	0.	-1007.5
2467	2.7717	3.2727	0.	-1027.1
2468	2.7717	3.0909	0.	-1037.
2469	2.7717	2.9091	0.	-1037.
2470	2.7717	2.7273	0.	-1027.1
2471	2.7717	2.5455	0.	-1007.5
2472	2.7717	2.3636	0.	-978.09
2473	2.7717	2.1818	0.	-939.16
2474	2.7717	2.	0.	-890.92
2475	2.7717	1.8182	0.	-833.73
2476	2.7717	1.6364	0.	-768.11
2477	2.7717	1.4545	0.	-694.74
2478	2.7717	1.2727	0.	-614.47
2479	2.7717	1.0909	0.	-528.36
2480	2.7717	0.90909	0.	-437.59
2481	2.7717	0.72727	0.	-343.48
2482	2.7717	0.54545	0.	-247.4
2483	2.7717	0.36364	0.	-150.24
2484	2.7717	0.18182	0.	-50.485
2485	2.587	5.8182	0.	-49.428
2486	2.587	5.6364	0.	-158.24
2487	2.587	5.4545	0.	-264.27
2488	2.587	5.2727	0.	-369.28
2489	2.587	5.0909	0.	-472.19
2490	2.587	4.9091	0.	-571.36
2491	2.587	4.7273	0.	-665.24
2492	2.587	4.5455	0.	-752.48
2493	2.587	4.3636	0.	-831.92
2494	2.587	4.1818	0.	-902.69
2495	2.587	4.	0.	-964.1
2496	2.587	3.8182	0.	-1015.7
2497	2.587	3.6364	0.	-1057.2
2498	2.587	3.4545	0.	-1088.4
2499	2.587	3.2727	0.	-1109.3
2500	2.587	3.0909	0.	-1119.7
2501	2.587	2.9091	0.	-1119.7
2502	2.587	2.7273	0.	-1109.3
2503	2.587	2.5455	0.	-1088.4
2504	2.587	2.3636	0.	-1057.2
2505	2.587	2.1818	0.	-1015.7
2506	2.587	2.	0.	-964.1
2507	2.587	1.8182	0.	-902.69
2508	2.587	1.6364	0.	-831.92
2509	2.587	1.4545	0.	-752.48
2510	2.587	1.2727	0.	-665.24
2511	2.587	1.0909	0.	-571.36
2512	2.587	0.90909	0.	-472.19
2513	2.587	0.72727	0.	-369.28
2514	2.587	0.54545	0.	-264.27
2515	2.587	0.36364	0.	-158.24
2516	2.587	0.18182	0.	-49.428
2517	2.4022	5.8182	0.	-47.57
2518	2.4022	5.6364	0.	-166.46
2519	2.4022	5.4545	0.	-282.43
2520	2.4022	5.2727	0.	-397.49
2521	2.4022	5.0909	0.	-510.23
2522	2.4022	4.9091	0.	-618.67
2523	2.4022	4.7273	0.	-720.99
2524	2.4022	4.5455	0.	-815.66
2525	2.4022	4.3636	0.	-901.43
2526	2.4022	4.1818	0.	-977.42
2527	2.4022	4.	0.	-1043.
2528	2.4022	3.8182	0.	-1097.8
2529	2.4022	3.6364	0.	-1141.7
2530	2.4022	3.4545	0.	-1174.7
2531	2.4022	3.2727	0.	-1196.6
2532	2.4022	3.0909	0.	-1207.5
2533	2.4022	2.9091	0.	-1207.5
2534	2.4022	2.7273	0.	-1196.6
2535	2.4022	2.5455	0.	-1174.7
2536	2.4022	2.3636	0.	-1141.7
2537	2.4022	2.1818	0.	-1097.8
2538	2.4022	2.	0.	-1043.
2539	2.4022	1.8182	0.	-977.42
2540	2.4022	1.6364	0.	-901.43
2541	2.4022	1.4545	0.	-815.66
2542	2.4022	1.2727	0.	-720.99
2543	2.4022	1.0909	0.	-618.67
2544	2.4022	0.90909	0.	-510.23
2545	2.4022	0.72727	0.	-397.49
2546	2.4022	0.54545	0.	-282.43
2547	2.4022	0.36364	0.	-166.46
2548	2.4022	0.18182	0.	-47.569
2549	2.2174	5.8182	0.	-44.821
2550	2.2174	5.6364	0.	-174.96
2551	2.2174	5.4545	0.	-302.22
2552	2.2174	5.2727	0.	-428.65
2553	2.2174	5.0909	0.	-552.44
2554	2.2174	4.9091	0.	-671.13
2555	2.2174	4.7273	0.	-782.6
2556	2.2174	4.5455	0.	-885.1
2557	2.2174	4.3636	0.	-977.33
2558	2.2174	4.1818	0.	-1058.5
2559	2.2174	4.	0.	-1128.
2560	2.2174	3.8182	0.	-1185.8
2561	2.2174	3.6364	0.	-1231.8
2562	2.2174	3.4545	0.	-1266.1
2563	2.2174	3.2727	0.	-1288.9
2564	2.2174	3.0909	0.	-1300.3
2565	2.2174	2.9091	0.	-1300.3
2566	2.2174	2.7273	0.	-1288.9
2567	2.2174	2.5455	0.	-1266.1
2568	2.2174	2.3636	0.	-1231.8
2569	2.2174	2.1818	0.	-1185.8
2570	2.2174	2.	0.	-1128.
2571	2.2174	1.8182	0.	-1058.5
2572	2.2174	1.6364	0.	-977.33
2573	2.2174	1.4545	0.	-885.1
2574	2.2174	1.2727	0.	-782.6
2575	2.2174	1.0909	0.	-671.13
2576	2.2174	0.90909	0.	-552.43
2577	2.2174	0.72727	0.	-428.65
2578	2.2174	0.54545	0.	-302.22
2579	2.2174	0.36364	0.	-174.96
2580	2.2174	0.18182	0.	-44.821
2581	2.0326	5.8182	0.	-41.128
2582	2.0326	5.6364	0.	-183.9
2583	2.0326	5.4545	0.	-324.13
2584	2.0326	5.2727	0.	-463.59
2585	2.0326	5.0909	0.	-599.85
2586	2.0326	4.9091	0.	-729.9
2587	2.0326	4.7273	0.	-851.19
2588	2.0326	4.5455	0.	-961.79
2589	2.0326	4.3636	0.	-1060.4
2590	2.0326	4.1818	0.	-1146.4
2591	2.0326	4.	0.	-1219.5
2592	2.0326	3.8182	0.	-1279.7
2593	2.0326	3.6364	0.	-1327.4
2594	2.0326	3.4545	0.	-1362.7
2595	2.0326	3.2727	0.	-1386.1
2596	2.0326	3.0909	0.	-1397.7
2597	2.0326	2.9091	0.	-1397.7
2598	2.0326	2.7273	0.	-1386.1
2599	2.0326	2.5455	0.	-1362.7
2600	2.0326	2.3636	0.	-1327.4
2601	2.0326	2.1818	0.	-1279.7
2602	2.0326	2.	0.	-1219.5
2603	2.0326	1.8182	0.	-1146.4
2604	2.0326	1.6364	0.	-1060.4
2605	2.0326	1.4545	0.	-961.79
2606	2.0326	1.2727	0.	-851.19
2607	2.0326	1.0909	0.	-729.9
2608	2.0326	0.90909	0.	-599.85
2609	2.0326	0.72727	0.	-463.59
2610	2.0326	0.54545	0.	-324.13
2611	2.0326	0.36364	0.	-183.9
2612	2.0326	0.18182	0.	-41.128
2613	1.8478	5.8182	0.	-36.527
2614	1.8478	5.6364	0.	-193.53
2615	1.8478	5.4545	0.	-348.89
2616	1.8478	5.2727	0.	-503.44
2617	1.8478	5.0909	0.	-653.91
2618	1.8478	4.9091	0.	-796.48
2619	1.8478	4.7273	0.	-928.18
2620	1.8478	4.5455	0.	-1047.
2621	1.8478	4.3636	0.	-1151.7
2622	1.8478	4.1818	0.	-1241.9
2623	1.8478	4.	0.	-1317.8
2624	1.8478	3.8182	0.	-1379.7
2625	1.8478	3.6364	0.	-1428.3
2626	1.8478	3.4545	0.	-1464.2
2627	1.8478	3.2727	0.	-1487.8
2628	1.8478	3.0909	0.	-1499.5
2629	1.8478	2.9091	0.	-1499.5
2630	1.8478	2.7273	0.	-1487.8
2631	1.8478	2.5455	0.	-1464.2
2632	1.8478	2.3636	0.	-1428.3
2633	1.8478	2.1818	0.	-1379.7
2634	1.8478	2.	0.	-1317.8
2635	1.8478	1.8182	0.	-1241.9
2636	1.8478	1.6364	0.	-1151.7
2637	1.8478	1.4545	0.	-1047.
2638	1.8478	1.2727	0.	-928.18
2639	1.8478	1.0909	0.	-796.48
2640	1.8478	0.90909	0.	-653.91
2641	1.8478	0.72727	0.	-503.44
2642	1.8478	0.54545	0.	-348.89
2643	1.8478	0.36364	0.	-193.53
2644	1.8478	0.18182	0.	-36.527
2645	1.663	5.8182	0.	-31.227
2646	1.663	5.6364	0.	-204.26
2647	1.663	5.4545	0.	-377.6
2648	1.663	5.2727	0.	-549.9
2649	1.663	5.0909	0.	-716.58
2650	1.663	4.9091	0.	-872.87
2651	1.663	4.7273	0.	-1015.3
2652	1.663	4.5455	0.	-1141.9
2653	1.663	4.3636	0.	-1251.9
2654	1.663	4.1818	0.	-1345.4
2655	1.663	4.	0.	-1422.9
2656	1.663	3.8182	0.	-1485.6
2657	1.663	3.6364	0.	-1534.3
2658	1.663	3.4545	0.	-1570.
2659	1.663	3.2727	0.	-1593.3
2660	1.663	3.0909	0.	-1604.9
2661	1.663	2.9091	0.	-1604.9
2662	1.663	2.7273	0.	-1593.3
2663	1.663	2.5455	0.	-1570.
2664	1.663	2.3636	0.	-1534.3
2665	1.663	2.1818	0.	-1485.6
2666	1.663	2.	0.	-1422.9
2667	1.663	1.8182	0.	-1345.4
2668	1.663	1.6364	0.	-1251.9
2669	1.663	1.4545	0.	-1141.9
2670	1.663	1.2727	0.	-1015.3
2671	1.663	1.0909	0.	-872.87
2672	1.663	0.90909	0.	-716.58
2673	1.663	0.72727	0.	-549.9
2674	1.663	0.54545	0.	-377.6
2675	1.663	0.36364	0.	-204.26
2676	1.663	0.18182	0.	-31.227
2677	1.4783	5.8182	0.	-25.77
2678	1.4783	5.6364	0.	-216.84
2679	1.4783	5.4545	0.	-412.04
2680	1.4783	5.2727	0.	-605.49
2681	1.4783	5.0909	0.	-790.72
2682	1.4783	4.9091	0.	-961.75
2683	1.4783	4.7273	0.	-1114.8
2684	1.4783	4.5455	0.	-1248.3
2685	1.4783	4.3636	0.	-1362.1
2686	1.4783	4.1818	0.	-1457.2
2687	1.4783	4.	0.	-1535.
2688	1.4783	3.8182	0.	-1597.1
2689	1.4783	3.6364	0.	-1644.8
2690	1.4783	3.4545	0.	-1679.5
2691	1.4783	3.2727	0.	-1702.1
2692	1.4783	3.0909	0.	-1713.2
2693	1.4783	2.9091	0.	-1713.2
2694	1.4783	2.7273	0.	-1702.1
2695	1.4783	2.5455	0.	-1679.5
2696	1.4783	2.3636	0.	-1644.8
2697	1.4783	2.1818	0.	-1597.1
2698	1.4783	2.	0.	-1535.
2699	1.4783	1.8182	0.	-1457.2
2700	1.4783	1.6364	0.	-1362.1
2701	1.4783	1.4545	0.	-1248.3
2702	1.4783	1.2727	0.	-1114.8
2703	1.4783	1.0909	0.	-961.75
2704	1.4783	0.90909	0.	-790.72
2705	1.4783	0.72727	0.	-605.49
2706	1.4783	0.54545	0.	-412.04
2707	1.4783	0.36364	0.	-216.84
2708	1.4783	0.18182	0.	-25.77
2709	1.2935	5.8182	0.	-20.87
2710	1.2935	5.6364	0.	-232.42
2711	1.2935	5.4545	0.	-454.87
2712	1.2935	5.2727	0.	-673.81
2713	1.2935	5.0909	0.	-880.05
2714	1.2935	4.9091	0.	-1066.3
2715	1.2935	4.7273	0.	-1228.9
2716	1.2935	4.5455	0.	-1367.3
2717	1.2935	4.3636	0.	-1482.7
2718	1.2935	4.1818	0.	-1577.2
2719	1.2935	4.	0.	-1653.3
2720	1.2935	3.8182	0.	-1713.2
2721	1.2935	3.6364	0.	-1758.8
2722	1.2935	3.4545	0.	-1791.6
2723	1.2935	3.2727	0.	-1812.9
2724	1.2935	3.0909	0.	-1823.4
2725	1.2935	2.9091	0.	-1823.4
2726	1.2935	2.7273	0.	-1812.9
2727	1.2935	2.5455	0.	-1791.6
2728	1.2935	2.3636	0.	-1758.8
2729	1.2935	2.1818	0.	-1713.2
2730	1.2935	2.	0.	-1653.3
2731	1.2935	1.8182	0.	-1577.2
2732	1.2935	1.6364	0.	-1482.7
2733	1.2935	1.4545	0.	-1367.3
2734	1.2935	1.2727	0.	-1228.9
2735	1.2935	1.0909	0.	-1066.3
2736	1.2935	0.90909	0.	-880.05
2737	1.2935	0.72727	0.	-673.81
2738	1.2935	0.54545	0.	-454.87
2739	1.2935	0.36364	0.	-232.42
2740	1.2935	0.18182	0.	-20.87
2741	1.1087	5.8182	0.	-17.592
2742	1.1087	5.6364	0.	-253.66
2743	1.1087	5.4545	0.	-511.24
2744	1.1087	5.2727	0.	-761.23
2745	1.1087	5.0909	0.	-990.57
2746	1.1087	4.9091	0.	-1191.1
2747	1.1087	4.7273	0.	-1360.6
2748	1.1087	4.5455	0.	-1500.6
2749	1.1087	4.3636	0.	-1614.3
2750	1.1087	4.1818	0.	-1705.5
2751	1.1087	4.	0.	-1777.6
2752	1.1087	3.8182	0.	-1833.6
2753	1.1087	3.6364	0.	-1875.8
2754	1.1087	3.4545	0.	-1906.
2755	1.1087	3.2727	0.	-1925.5
2756	1.1087	3.0909	0.	-1935.
2757	1.1087	2.9091	0.	-1935.
2758	1.1087	2.7273	0.	-1925.5
2759	1.1087	2.5455	0.	-1906.
2760	1.1087	2.3636	0.	-1875.8
2761	1.1087	2.1818	0.	-1833.6
2762	1.1087	2.	0.	-1777.6
2763	1.1087	1.8182	0.	-1705.5
2764	1.1087	1.6364	0.	-1614.3
2765	1.1087	1.4545	0.	-1500.6
2766	1.1087	1.2727	0.	-1360.6
2767	1.1087	1.0909	0.	-1191.1
2768	1.1087	0.90909	0.	-990.57
2769	1.1087	0.72727	0.	-761.23
2770	1.1087	0.54545	0.	-511.24
2771	1.1087	0.36364	0.	-253.66
2772	1.1087	0.18182	0.	-17.592
2773	0.92391	5.8182	0.	-14.367
2774	0.92391	5.6364	0.	-283.39
2775	0.92391	5.4545	0.	-587.09
2776	0.92391	5.2727	0.	-874.07
2777	0.92391	5.0909	0.	-1126.6
2778	0.92391	4.9091	0.	-1337.6
2779	0.92391	4.7273	0.	-1508.7
2780	0.92391	4.5455	0.	-1645.1
2781	0.92391	4.3636	0.	-1752.8
2782	0.92391	4.1818	0.	-1837.3
2783	0.92391	4.	0.	-1903.1
2784	0.92391	3.8182	0.	-1953.6
2785	0.92391	3.6364	0.	-1991.3
2786	0.92391	3.4545	0.	-2018.2
2787	0.92391	3.2727	0.	-2035.4
2788	0.92391	3.0909	0.	-2043.9
2789	0.92391	2.9091	0.	-2043.9
2790	0.92391	2.7273	0.	-2035.4
2791	0.92391	2.5455	0.	-2018.2
2792	0.92391	2.3636	0.	-1991.3
2793	0.92391	2.1818	0.	-1953.6
2794	0.92391	2.	0.	-1903.1
2795	0.92391	1.8182	0.	-1837.3
2796	0.92391	1.6364	0.	-1752.8
2797	0.92391	1.4545	0.	-1645.1
2798	0.92391	1.2727	0.	-1508.7
2799	0.92391	1.0909	0.	-1337.6
2800	0.92391	0.90909	0.	-1126.6
2801	0.92391	0.72727	0.	-874.07
2802	0.92391	0.54545	0.	-587.09
2803	0.92391	0.36364	0.	-283.39
2804	0.92391	0.18182	0.	-14.367
2805	0.73913	5.8182	0.	-18.391
2806	0.73913	5.6364	0.	-336.77
2807	0.73913	5.4545	0.	-705.06
2808	0.73913	5.2727	0.	-1034.6
2809	0.73913	5.0909	0.	-1305.9
2810	0.73913	4.9091	0.	-1519.1
2811	0.73913	4.7273	0.	-1683.6
2812	0.73913	4.5455	0.	-1809.9
2813	0.73913	4.3636	0.	-1907.1
2814	0.73913	4.1818	0.	-1981.9
2815	0.73913	4.	0.	-2039.5
2816	0.73913	3.8182	0.	-2083.3
2817	0.73913	3.6364	0.	-2115.9
2818	0.73913	3.4545	0.	-2139.
2819	0.73913	3.2727	0.	-2153.8
2820	0.73913	3.0909	0.	-2161.
2821	0.73913	2.9091	0.	-2161.
2822	0.73913	2.7273	0.	-2153.8
2823	0.73913	2.5455	0.	-2139.
2824	0.73913	2.3636	0.	-2115.9
2825	0.73913	2.1818	0.	-2083.3
2826	0.73913	2.	0.	-2039.5
2827	0.73913	1.8182	0.	-1981.9
2828	0.73913	1.6364	0.	-1907.1
2829	0.73913	1.4545	0.	-1809.9
2830	0.73913	1.2727	0.	-1683.6
2831	0.73913	1.0909	0.	-1519.1
2832	0.73913	0.90909	0.	-1305.9
2833	0.73913	0.72727	0.	-1034.6
2834	0.73913	0.54545	0.	-705.06
2835	0.73913	0.36364	0.	-336.77
2836	0.73913	0.18182	0.	-18.391
2837	0.55435	5.8182	0.	-0.66674
2838	0.55435	5.6364	0.	-410.77
2839	0.55435	5.4545	0.	-857.86
2840	0.55435	5.2727	0.	-1220.7
2841	0.55435	5.0909	0.	-1491.9
2842	0.55435	4.9091	0.	-1690.
2843	0.55435	4.7273	0.	-1835.4
2844	0.55435	4.5455	0.	-1943.8
2845	0.55435	4.3636	0.	-2025.7
2846	0.55435	4.1818	0.	-2088.2
2847	0.55435	4.	0.	-2136.
2848	0.55435	3.8182	0.	-2172.2
2849	0.55435	3.6364	0.	-2199.2
2850	0.55435	3.4545	0.	-2218.3
2851	0.55435	3.2727	0.	-2230.6
2852	0.55435	3.0909	0.	-2236.5
2853	0.55435	2.9091	0.	-2236.5
2854	0.55435	2.7273	0.	-2230.6
2855	0.55435	2.5455	0.	-2218.3
2856	0.55435	2.3636	0.	-2199.2
2857	0.55435	2.1818	0.	-2172.2
2858	0.55435	2.	0.	-2136.
2859	0.55435	1.8182	0.	-2088.2
2860	0.55435	1.6364	0.	-2025.7
2861	0.55435	1.4545	0.	-1943.8
2862	0.55435	1.2727	0.	-1835.4
2863	0.55435	1.0909	0.	-1690.
2864	0.55435	0.90909	0.	-1491.9
2865	0.55435	0.72727	0.	-1220.7
2866	0.55435	0.54545	0.	-857.86
2867	0.55435	0.36364	0.	-410.77
2868	0.55435	0.18182	0.	-0.66672
2869	0.36957	5.8182	0.	-81.498
2870	0.36957	5.6364	0.	-657.84
2871	0.36957	5.4545	0.	-1216.4
2872	0.36957	5.2727	0.	-1589.9
2873	0.36957	5.0909	0.	-1838.1
2874	0.36957	4.9091	0.	-2008.3
2875	0.36957	4.7273	0.	-2130.
2876	0.36957	4.5455	0.	-2219.8
2877	0.36957	4.3636	0.	-2287.5
2878	0.36957	4.1818	0.	-2339.3
2879	0.36957	4.	0.	-2379.1
2880	0.36957	3.8182	0.	-2409.4
2881	0.36957	3.6364	0.	-2431.9
2882	0.36957	3.4545	0.	-2448.
2883	0.36957	3.2727	0.	-2458.3
2884	0.36957	3.0909	0.	-2463.3
2885	0.36957	2.9091	0.	-2463.3
2886	0.36957	2.7273	0.	-2458.3
2887	0.36957	2.5455	0.	-2448.
2888	0.36957	2.3636	0.	-2431.9
2889	0.36957	2.1818	0.	-2409.4
2890	0.36957	2.	0.	-2379.1
2891	0.36957	1.8182	0.	-2339.3
2892	0.36957	1.6364	0.	-2287.5
2893	0.36957	1.4545	0.	-2219.8
2894	0.36957	1.2727	0.	-2130.
2895	0.36957	1.0909	0.	-2008.3
2896	0.36957	0.90909	0.	-1838.1
2897	0.36957	0.72727	0.	-1589.9
2898	0.36957	0.54545	0.	-1216.4
2899	0.36957	0.36364	0.	-657.84
2900	0.36957	0.18182	0.	-81.498
2901	0.18478	5.8182	0.	2.2644
2902	0.18478	5.6364	0.	-819.
2903	0.18478	5.4545	0.	-1255.6
2904	0.18478	5.2727	0.	-1505.6
2905	0.18478	5.0909	0.	-1663.1
2906	0.18478	4.9091	0.	-1771.7
2907	0.18478	4.7273	0.	-1850.5
2908	0.18478	4.5455	0.	-1909.6
2909	0.18478	4.3636	0.	-1954.8
2910	0.18478	4.1818	0.	-1989.7
2911	0.18478	4.	0.	-2016.8
2912	0.18478	3.8182	0.	-2037.5
2913	0.18478	3.6364	0.	-2053.
2914	0.18478	3.4545	0.	-2064.
2915	0.18478	3.2727	0.	-2071.1
2916	0.18478	3.0909	0.	-2074.6
2917	0.18478	2.9091	0.	-2074.6
2918	0.18478	2.7273	0.	-2071.1
2919	0.18478	2.5455	0.	-2064.
2920	0.18478	2.3636	0.	-2053.
2921	0.18478	2.1818	0.	-2037.5
2922	0.18478	2.	0.	-2016.8
2923	0.18478	1.8182	0.	-1989.7
2924	0.18478	1.6364	0.	-1954.8
2925	0.18478	1.4545	0.	-1909.6
2926	0.18478	1.2727	0.	-1850.5
2927	0.18478	1.0909	0.	-1771.7
2928	0.18478	0.90909	0.	-1663.1
2929	0.18478	0.72727	0.	-1505.6
2930	0.18478	0.54545	0.	-1255.6
2931	0.18478	0.36364	0.	-819.
2932	0.18478	0.18182	0.	2.2646
2933	17.351	0.18182	0.	-8.6262
2934	17.351	0.36364	0.	-4.4954
2935	17.351	0.54545	0.	-3.4198
2936	17.351	0.72727	0.	-3.0525
2937	17.351	0.90909	0.	-3.0918
2938	17.351	1.0909	0.	-3.8522
2939	17.351	1.2727	0.	-3.6365
2940	17.351	1.4545	0.	-9.7727
2941	17.351	1.6364	0.	1.2539
2942	17.351	1.8182	0.	-60.689
2943	17.351	2.	0.	-206.69
2944	17.351	2.1818	0.	-22.135
2945	17.351	2.3636	0.	-7.3324
2946	17.351	2.5455	0.	1.6423
2947	17.351	2.7273	0.	-1.0596
2948	17.351	2.9091	0.	-2.3222e-003
2949	17.351	3.0909	0.	-2.3216e-003
2950	17.351	3.2727	0.	-1.0596
2951	17.351	3.4545	0.	1.6423
2952	17.351	3.6364	0.	-7.3324
2953	17.351	3.8182	0.	-22.136
2954	17.351	4.	0.	-206.69
2955	17.351	4.1818	0.	-60.689
2956	17.351	4.3636	0.	1.2539
2957	17.351	4.5455	0.	-9.7727
2958	17.351	4.7273	0.	-3.6365
2959	17.351	4.9091	0.	-3.8522
2960	17.351	5.0909	0.	-3.0918
2961	17.351	5.2727	0.	-3.0525
2962	17.351	5.4545	0.	-3.4198
2963	17.351	5.6364	0.	-4.4954
2964	17.351	5.8182	0.	-8.6262
2965	17.536	0.18182	0.	-3.2718
2966	17.536	0.36364	0.	-2.8457
2967	17.536	0.54545	0.	-1.7967
2968	17.536	0.72727	0.	-1.1703
2969	17.536	0.90909	0.	-0.95581
2970	17.536	1.0909	0.	-0.8542
2971	17.536	1.2727	0.	-1.0609
2972	17.536	1.4545	0.	-1.6649
2973	17.536	1.6364	0.	-0.83216
2974	17.536	1.8182	0.	0.73392
2975	17.536	2.	0.	30.436
2976	17.536	2.1818	0.	9.6554
2977	17.536	2.3636	0.	-6.5336
2978	17.536	2.5455	0.	-0.50519
2979	17.536	2.7273	0.	-8.8053e-002
2980	17.536	2.9091	0.	6.768e-002
2981	17.536	3.0909	0.	6.7677e-002
2982	17.536	3.2727	0.	-8.8054e-002
2983	17.536	3.4545	0.	-0.5052
2984	17.536	3.6364	0.	-6.5337
2985	17.536	3.8182	0.	9.6554
2986	17.536	4.	0.	30.436
2987	17.536	4.1818	0.	0.73391
2988	17.536	4.3636	0.	-0.83216
2989	17.536	4.5455	0.	-1.6649
2990	17.536	4.7273	0.	-1.0609
2991	17.536	4.9091	0.	-0.8542
2992	17.536	5.0909	0.	-0.95581
2993	17.536	5.2727	0.	-1.1703
2994	17.536	5.4545	0.	-1.7967
2995	17.536	5.6364	0.	-2.8457
2996	17.536	5.8182	0.	-3.2718
2997	17.721	0.18182	0.	-1.685
2998	17.721	0.36364	0.	-2.1075
2999	17.721	0.54545	0.	-1.977
3000	17.721	0.72727	0.	-1.7289
3001	17.721	0.90909	0.	-1.6509
3002	17.721	1.0909	0.	-1.8096
3003	17.721	1.2727	0.	-2.0819
3004	17.721	1.4545	0.	-2.5154
3005	17.721	1.6364	0.	-5.5637
3006	17.721	1.8182	0.	-6.1181
3007	17.721	2.	0.	-21.968
3008	17.721	2.1818	0.	-44.362
3009	17.721	2.3636	0.	-24.905
3010	17.721	2.5455	0.	-3.7583
3011	17.721	2.7273	0.	-0.15215
3012	17.721	2.9091	0.	0.40959
3013	17.721	3.0909	0.	0.40959
3014	17.721	3.2727	0.	-0.15216
3015	17.721	3.4545	0.	-3.7583
3016	17.721	3.6364	0.	-24.906
3017	17.721	3.8182	0.	-44.362
3018	17.721	4.	0.	-21.968
3019	17.721	4.1818	0.	-6.1181
3020	17.721	4.3636	0.	-5.5637
3021	17.721	4.5455	0.	-2.5154
3022	17.721	4.7273	0.	-2.0819
3023	17.721	4.9091	0.	-1.8096
3024	17.721	5.0909	0.	-1.6509
3025	17.721	5.2727	0.	-1.7289
3026	17.721	5.4545	0.	-1.977
3027	17.721	5.6364	0.	-2.1075
3028	17.721	5.8182	0.	-1.685
3029	17.905	0.18182	0.	-0.69367
3030	17.905	0.36364	0.	-1.1063
3031	17.905	0.54545	0.	-1.3973
3032	17.905	0.72727	0.	-1.5021
3033	17.905	0.90909	0.	-1.6066
3034	17.905	1.0909	0.	-1.8096
3035	17.905	1.2727	0.	-2.2992
3036	17.905	1.4545	0.	-3.449
3037	17.905	1.6364	0.	-7.831
3038	17.905	1.8182	0.	-39.892
3039	17.905	2.	0.	-82.494
3040	17.905	2.1818	0.	-102.21
3041	17.905	2.3636	0.	-95.314
3042	17.905	2.5455	0.	-74.73
3043	17.905	2.7273	0.	-55.243
3044	17.905	2.9091	0.	-44.337
3045	17.905	3.0909	0.	-44.337
3046	17.905	3.2727	0.	-55.243
3047	17.905	3.4545	0.	-74.73
3048	17.905	3.6364	0.	-95.314
3049	17.905	3.8182	0.	-102.21
3050	17.905	4.	0.	-82.494
3051	17.905	4.1818	0.	-39.892
3052	17.905	4.3636	0.	-7.831
3053	17.905	4.5455	0.	-3.4491
3054	17.905	4.7273	0.	-2.2992
3055	17.905	4.9091	0.	-1.8096
3056	17.905	5.0909	0.	-1.6066
3057	17.905	5.2727	0.	-1.5021
3058	17.905	5.4545	0.	-1.3973
3059	17.905	5.6364	0.	-1.1063
3060	17.905	5.8182	0.	-0.69367
3061	18.09	0.18182	0.	-0.31953
3062	18.09	0.36364	0.	-0.65495
3063	18.09	0.54545	0.	-1.0008
3064	18.09	0.72727	0.	-1.3558
3065	18.09	0.90909	0.	-1.7845
3066	18.09	1.0909	0.	-2.5254
3067	18.09	1.2727	0.	-4.5764
3068	18.09	1.4545	0.	-14.915
3069	18.09	1.6364	0.	-44.693
3070	18.09	1.8182	0.	-82.973
3071	18.09	2.	0.	-116.61
3072	18.09	2.1818	0.	-135.28
3073	18.09	2.3636	0.	-137.09
3074	18.09	2.5455	0.	-128.36
3075	18.09	2.7273	0.	-117.5
3076	18.09	2.9091	0.	-110.67
3077	18.09	3.0909	0.	-110.67
3078	18.09	3.2727	0.	-117.5
3079	18.09	3.4545	0.	-128.36
3080	18.09	3.6364	0.	-137.09
3081	18.09	3.8182	0.	-135.28
3082	18.09	4.	0.	-116.61
3083	18.09	4.1818	0.	-82.973
3084	18.09	4.3636	0.	-44.693
3085	18.09	4.5455	0.	-14.915
3086	18.09	4.7273	0.	-4.5764
3087	18.09	4.9091	0.	-2.5254
3088	18.09	5.0909	0.	-1.7845
3089	18.09	5.2727	0.	-1.3558
3090	18.09	5.4545	0.	-1.0008
3091	18.09	5.6364	0.	-0.65495
3092	18.09	5.8182	0.	-0.31953
3093	18.275	0.18182	0.	-0.13581
3094	18.275	0.36364	0.	-0.40816
3095	18.275	0.54545	0.	-0.70321
3096	18.275	0.72727	0.	-1.1822
3097	18.275	0.90909	0.	-2.1083
3098	18.275	1.0909	0.	-5.1382
3099	18.275	1.2727	0.	-17.378
3100	18.275	1.4545	0.	-41.083
3101	18.275	1.6364	0.	-71.821
3102	18.275	1.8182	0.	-104.61
3103	18.275	2.	0.	-132.95
3104	18.275	2.1818	0.	-151.54
3105	18.275	2.3636	0.	-159.08
3106	18.275	2.5455	0.	-158.47
3107	18.275	2.7273	0.	-154.54
3108	18.275	2.9091	0.	-151.46
3109	18.275	3.0909	0.	-151.46
3110	18.275	3.2727	0.	-154.54
3111	18.275	3.4545	0.	-158.47
3112	18.275	3.6364	0.	-159.08
3113	18.275	3.8182	0.	-151.54
3114	18.275	4.	0.	-132.95
3115	18.275	4.1818	0.	-104.61
3116	18.275	4.3636	0.	-71.821
3117	18.275	4.5455	0.	-41.083
3118	18.275	4.7273	0.	-17.379
3119	18.275	4.9091	0.	-5.1382
3120	18.275	5.0909	0.	-2.1083
3121	18.275	5.2727	0.	-1.1822
3122	18.275	5.4545	0.	-0.70321
3123	18.275	5.6364	0.	-0.40816
3124	18.275	5.8182	0.	-0.13581
3125	18.459	0.18182	0.	-5.7899e-002
3126	18.459	0.36364	0.	-0.2776
3127	18.459	0.54545	0.	-0.51278
3128	18.459	0.72727	0.	-1.0535
3129	18.459	0.90909	0.	-2.8991
3130	18.459	1.0909	0.	-12.312
3131	18.459	1.2727	0.	-31.447
3132	18.459	1.4545	0.	-56.363
3133	18.459	1.6364	0.	-84.832
3134	18.459	1.8182	0.	-113.64
3135	18.459	2.	0.	-138.86
3136	18.459	2.1818	0.	-157.36
3137	18.459	2.3636	0.	-168.16
3138	18.459	2.5455	0.	-172.61
3139	18.459	2.7273	0.	-173.37
3140	18.459	2.9091	0.	-173.01
3141	18.459	3.0909	0.	-173.01
3142	18.459	3.2727	0.	-173.37
3143	18.459	3.4545	0.	-172.61
3144	18.459	3.6364	0.	-168.16
3145	18.459	3.8182	0.	-157.36
3146	18.459	4.	0.	-138.86
3147	18.459	4.1818	0.	-113.64
3148	18.459	4.3636	0.	-84.832
3149	18.459	4.5455	0.	-56.363
3150	18.459	4.7273	0.	-31.447
3151	18.459	4.9091	0.	-12.312
3152	18.459	5.0909	0.	-2.8992
3153	18.459	5.2727	0.	-1.0535
3154	18.459	5.4545	0.	-0.51278
3155	18.459	5.6364	0.	-0.27761
3156	18.459	5.8182	0.	-5.79e-002
3157	18.644	0.18182	0.	-2.367e-002
3158	18.644	0.36364	0.	-0.19796
3159	18.644	0.54545	0.	-0.38533
3160	18.644	0.72727	0.	-0.97711
3161	18.644	0.90909	0.	-4.6847
3162	18.644	1.0909	0.	-18.987
3163	18.644	1.2727	0.	-39.316
3164	18.644	1.4545	0.	-63.35
3165	18.644	1.6364	0.	-89.423
3166	18.644	1.8182	0.	-115.23
3167	18.644	2.	0.	-138.21
3168	18.644	2.1818	0.	-156.33
3169	18.644	2.3636	0.	-168.79
3170	18.644	2.5455	0.	-176.14
3171	18.644	2.7273	0.	-179.76
3172	18.644	2.9091	0.	-181.11
3173	18.644	3.0909	0.	-181.11
3174	18.644	3.2727	0.	-179.76
3175	18.644	3.4545	0.	-176.14
3176	18.644	3.6364	0.	-168.79
3177	18.644	3.8182	0.	-156.33
3178	18.644	4.	0.	-138.21
3179	18.644	4.1818	0.	-115.23
3180	18.644	4.3636	0.	-89.423
3181	18.644	4.5455	0.	-63.351
3182	18.644	4.7273	0.	-39.316
3183	18.644	4.9091	0.	-18.987
3184	18.644	5.0909	0.	-4.6847
3185	18.644	5.2727	0.	-0.97711
3186	18.644	5.4545	0.	-0.38533
3187	18.644	5.6364	0.	-0.19796
3188	18.644	5.8182	0.	-2.3671e-002
3189	18.829	0.18182	0.	-1.0157e-002
3190	18.829	0.36364	0.	-0.14553
3191	18.829	0.54545	0.	-0.29926
3192	18.829	0.72727	0.	-0.9738
3193	18.829	0.90909	0.	-7.3121
3194	18.829	1.0909	0.	-23.097
3195	18.829	1.2727	0.	-42.919
3196	18.829	1.4545	0.	-65.393
3197	18.829	1.6364	0.	-89.143
3198	18.829	1.8182	0.	-112.45
3199	18.829	2.	0.	-133.52
3200	18.829	2.1818	0.	-150.93
3201	18.829	2.3636	0.	-163.97
3202	18.829	2.5455	0.	-172.75
3203	18.829	2.7273	0.	-177.91
3204	18.829	2.9091	0.	-180.25
3205	18.829	3.0909	0.	-180.25
3206	18.829	3.2727	0.	-177.91
3207	18.829	3.4545	0.	-172.75
3208	18.829	3.6364	0.	-163.97
3209	18.829	3.8182	0.	-150.93
3210	18.829	4.	0.	-133.52
3211	18.829	4.1818	0.	-112.45
3212	18.829	4.3636	0.	-89.143
3213	18.829	4.5455	0.	-65.393
3214	18.829	4.7273	0.	-42.919
3215	18.829	4.9091	0.	-23.097
3216	18.829	5.0909	0.	-7.3121
3217	18.829	5.2727	0.	-0.9738
3218	18.829	5.4545	0.	-0.29925
3219	18.829	5.6364	0.	-0.14553
3220	18.829	5.8182	0.	-1.0157e-002
3221	19.014	0.18182	0.	-5.2256e-003
3222	19.014	0.36364	0.	-0.10789
3223	19.014	0.54545	0.	-0.23924
3224	19.014	0.72727	0.	-1.0889
3225	19.014	0.90909	0.	-9.7111
3226	19.014	1.0909	0.	-25.264
3227	19.014	1.2727	0.	-43.881
3228	19.014	1.4545	0.	-64.522
3229	19.014	1.6364	0.	-86.036
3230	19.014	1.8182	0.	-107.09
3231	19.014	2.	0.	-126.37
3232	19.014	2.1818	0.	-142.77
3233	19.014	2.3636	0.	-155.68
3234	19.014	2.5455	0.	-164.94
3235	19.014	2.7273	0.	-170.8
3236	19.014	2.9091	0.	-173.6
3237	19.014	3.0909	0.	-173.6
3238	19.014	3.2727	0.	-170.8
3239	19.014	3.4545	0.	-164.94
3240	19.014	3.6364	0.	-155.68
3241	19.014	3.8182	0.	-142.77
3242	19.014	4.	0.	-126.37
3243	19.014	4.1818	0.	-107.09
3244	19.014	4.3636	0.	-86.036
3245	19.014	4.5455	0.	-64.522
3246	19.014	4.7273	0.	-43.881
3247	19.014	4.9091	0.	-25.264
3248	19.014	5.0909	0.	-9.7111
3249	19.014	5.2727	0.	-1.0889
3250	19.014	5.4545	0.	-0.23924
3251	19.014	5.6364	0.	-0.10789
3252	19.014	5.8182	0.	-5.2243e-003
3253	19.198	0.18182	0.	-3.7114e-003
3254	19.198	0.36364	0.	-7.9267e-002
3255	19.198	0.54545	0.	-0.1961
3256	19.198	0.72727	0.	-1.4436
3257	19.198	0.90909	0.	-11.439
3258	19.198	1.0909	0.	-26.083
3259	19.198	1.2727	0.	-43.195
3260	19.198	1.4545	0.	-61.916
3261	19.198	1.6364	0.	-81.283
3262	19.198	1.8182	0.	-100.24
3263	19.198	2.	0.	-117.76
3264	19.198	2.1818	0.	-132.96
3265	19.198	2.3636	0.	-145.27
3266	19.198	2.5455	0.	-154.43
3267	19.198	2.7273	0.	-160.43
3268	19.198	2.9091	0.	-163.38
3269	19.198	3.0909	0.	-163.38
3270	19.198	3.2727	0.	-160.43
3271	19.198	3.4545	0.	-154.43
3272	19.198	3.6364	0.	-145.27
3273	19.198	3.8182	0.	-132.96
3274	19.198	4.	0.	-117.76
3275	19.198	4.1818	0.	-100.24
3276	19.198	4.3636	0.	-81.284
3277	19.198	4.5455	0.	-61.916
3278	19.198	4.7273	0.	-43.195
3279	19.198	4.9091	0.	-26.083
3280	19.198	5.0909	0.	-11.439
3281	19.198	5.2727	0.	-1.4436
3282	19.198	5.4545	0.	-0.1961
3283	19.198	5.6364	0.	-7.9267e-002
3284	19.198	5.8182	0.	-3.7111e-003
3285	19.383	0.18182	0.	-3.3055e-003
3286	19.383	0.36364	0.	-5.653e-002
3287	19.383	0.54545	0.	-0.16332
3288	19.383	0.72727	0.	-2.1794
3289	19.383	0.90909	0.	-12.466
3290	19.383	1.0909	0.	-25.932
3291	19.383	1.2727	0.	-41.434
3292	19.383	1.4545	0.	-58.248
3293	19.383	1.6364	0.	-75.569
3294	19.383	1.8182	0.	-92.539
3295	19.383	2.	0.	-108.32
3296	19.383	2.1818	0.	-122.2
3297	19.383	2.3636	0.	-133.65
3298	19.383	2.5455	0.	-142.35
3299	19.383	2.7273	0.	-148.16
3300	19.383	2.9091	0.	-151.06
3301	19.383	3.0909	0.	-151.06
3302	19.383	3.2727	0.	-148.16
3303	19.383	3.4545	0.	-142.35
3304	19.383	3.6364	0.	-133.65
3305	19.383	3.8182	0.	-122.2
3306	19.383	4.	0.	-108.32
3307	19.383	4.1818	0.	-92.539
3308	19.383	4.3636	0.	-75.569
3309	19.383	4.5455	0.	-58.248
3310	19.383	4.7273	0.	-41.434
3311	19.383	4.9091	0.	-25.932
3312	19.383	5.0909	0.	-12.466
3313	19.383	5.2727	0.	-2.1794
3314	19.383	5.4545	0.	-0.16333
3315	19.383	5.6364	0.	-5.6527e-002
3316	19.383	5.8182	0.	-3.3055e-003
3317	19.568	0.18182	0.	-3.0904e-003
3318	19.568	0.36364	0.	-3.796e-002
3319	19.568	0.54545	0.	-0.13544
3320	19.568	0.72727	0.	-3.0439
3321	19.568	0.90909	0.	-12.84
3322	19.568	1.0909	0.	-25.038
3323	19.568	1.2727	0.	-38.929
3324	19.568	1.4545	0.	-53.905
3325	19.568	1.6364	0.	-69.29
3326	19.568	1.8182	0.	-84.377
3327	19.568	2.	0.	-98.478
3328	19.568	2.1818	0.	-110.99
3329	19.568	2.3636	0.	-121.42
3330	19.568	2.5455	0.	-129.45
3331	19.568	2.7273	0.	-134.88
3332	19.568	2.9091	0.	-137.62
3333	19.568	3.0909	0.	-137.62
3334	19.568	3.2727	0.	-134.88
3335	19.568	3.4545	0.	-129.45
3336	19.568	3.6364	0.	-121.42
3337	19.568	3.8182	0.	-110.99
3338	19.568	4.	0.	-98.478
3339	19.568	4.1818	0.	-84.377
3340	19.568	4.3636	0.	-69.29
3341	19.568	4.5455	0.	-53.905
3342	19.568	4.7273	0.	-38.929
3343	19.568	4.9091	0.	-25.038
3344	19.568	5.0909	0.	-12.84
3345	19.568	5.2727	0.	-3.0438
3346	19.568	5.4545	0.	-0.13544
3347	19.568	5.6364	0.	-3.7958e-002
3348	19.568	5.8182	0.	-3.0891e-003
3349	19.752	0.18182	0.	-2.7243e-003
3350	19.752	0.36364	0.	-2.2652e-002
3351	19.752	0.54545	0.	-0.10682
3352	19.752	0.72727	0.	-3.6165
3353	19.752	0.90909	0.	-12.616
3354	19.752	1.0909	0.	-23.54
3355	19.752	1.2727	0.	-35.875
3356	19.752	1.4545	0.	-49.107
3357	19.752	1.6364	0.	-62.675
3358	19.752	1.8182	0.	-75.989
3359	19.752	2.	0.	-88.476
3360	19.752	2.1818	0.	-99.616
3361	19.752	2.3636	0.	-108.98
3362	19.752	2.5455	0.	-116.25
3363	19.752	2.7273	0.	-121.19
3364	19.752	2.9091	0.	-123.7
3365	19.752	3.0909	0.	-123.7
3366	19.752	3.2727	0.	-121.19
3367	19.752	3.4545	0.	-116.25
3368	19.752	3.6364	0.	-108.98
3369	19.752	3.8182	0.	-99.616
3370	19.752	4.	0.	-88.476
3371	19.752	4.1818	0.	-75.989
3372	19.752	4.3636	0.	-62.675
3373	19.752	4.5455	0.	-49.107
3374	19.752	4.7273	0.	-35.875
3375	19.752	4.9091	0.	-23.54
3376	19.752	5.0909	0.	-12.616
3377	19.752	5.2727	0.	-3.6165
3378	19.752	5.4545	0.	-0.10682
3379	19.752	5.6364	0.	-2.2652e-002
3380	19.752	5.8182	0.	-2.7237e-003
3381	19.937	0.18182	0.	-2.1729e-003
3382	19.937	0.36364	0.	-1.0369e-002
3383	19.937	0.54545	0.	-7.2773e-002
3384	19.937	0.72727	0.	-3.7314
3385	19.937	0.90909	0.	-11.846
3386	19.937	1.0909	0.	-21.532
3387	19.937	1.2727	0.	-32.388
3388	19.937	1.4545	0.	-43.987
3389	19.937	1.6364	0.	-55.86
3390	19.937	1.8182	0.	-67.516
3391	19.937	2.	0.	-78.473
3392	19.937	2.1818	0.	-88.287
3393	19.937	2.3636	0.	-96.578
3394	19.937	2.5455	0.	-103.04
3395	19.937	2.7273	0.	-107.47
3396	19.937	2.9091	0.	-109.71
3397	19.937	3.0909	0.	-109.71
3398	19.937	3.2727	0.	-107.47
3399	19.937	3.4545	0.	-103.04
3400	19.937	3.6364	0.	-96.578
3401	19.937	3.8182	0.	-88.287
3402	19.937	4.	0.	-78.473
3403	19.937	4.1818	0.	-67.516
3404	19.937	4.3636	0.	-55.86
3405	19.937	4.5455	0.	-43.987
3406	19.937	4.7273	0.	-32.387
3407	19.937	4.9091	0.	-21.532
3408	19.937	5.0909	0.	-11.846
3409	19.937	5.2727	0.	-3.7313
3410	19.937	5.4545	0.	-7.2771e-002
3411	19.937	5.6364	0.	-1.0366e-002
3412	19.937	5.8182	0.	-2.1727e-003
3413	20.122	0.18182	0.	-1.5251e-003
3414	20.122	0.36364	0.	-1.2809e-003
3415	20.122	0.54545	0.	-3.4874e-002
3416	20.122	0.72727	0.	-3.3656
3417	20.122	0.90909	0.	-10.58
3418	20.122	1.0909	0.	-19.08
3419	20.122	1.2727	0.	-28.545
3420	20.122	1.4545	0.	-38.623
3421	20.122	1.6364	0.	-48.924
3422	20.122	1.8182	0.	-59.04
3423	20.122	2.	0.	-68.565
3424	20.122	2.1818	0.	-77.118
3425	20.122	2.3636	0.	-84.368
3426	20.122	2.5455	0.	-90.042
3427	20.122	2.7273	0.	-93.936
3428	20.122	2.9091	0.	-95.917
3429	20.122	3.0909	0.	-95.917
3430	20.122	3.2727	0.	-93.936
3431	20.122	3.4545	0.	-90.042
3432	20.122	3.6364	0.	-84.368
3433	20.122	3.8182	0.	-77.118
3434	20.122	4.	0.	-68.565
3435	20.122	4.1818	0.	-59.04
3436	20.122	4.3636	0.	-48.924
3437	20.122	4.5455	0.	-38.623
3438	20.122	4.7273	0.	-28.545
3439	20.122	4.9091	0.	-19.08
3440	20.122	5.0909	0.	-10.58
3441	20.122	5.2727	0.	-3.3655
3442	20.122	5.4545	0.	-3.4873e-002
3443	20.122	5.6364	0.	-1.2764e-003
3444	20.122	5.8182	0.	-1.5253e-003
3445	20.306	0.18182	0.	-9.2512e-004
3446	20.306	0.36364	0.	4.4099e-003
3447	20.306	0.54545	0.	-3.9321e-003
3448	20.306	0.72727	0.	-2.5438
3449	20.306	0.90909	0.	-8.866
3450	20.306	1.0909	0.	-16.237
3451	20.306	1.2727	0.	-24.4
3452	20.306	1.4545	0.	-33.067
3453	20.306	1.6364	0.	-41.916
3454	20.306	1.8182	0.	-50.608
3455	20.306	2.	0.	-58.801
3456	20.306	2.1818	0.	-66.174
3457	20.306	2.3636	0.	-72.438
3458	20.306	2.5455	0.	-77.352
3459	20.306	2.7273	0.	-80.732
3460	20.306	2.9091	0.	-82.453
3461	20.306	3.0909	0.	-82.453
3462	20.306	3.2727	0.	-80.732
3463	20.306	3.4545	0.	-77.352
3464	20.306	3.6364	0.	-72.438
3465	20.306	3.8182	0.	-66.174
3466	20.306	4.	0.	-58.801
3467	20.306	4.1818	0.	-50.608
3468	20.306	4.3636	0.	-41.916
3469	20.306	4.5455	0.	-33.067
3470	20.306	4.7273	0.	-24.4
3471	20.306	4.9091	0.	-16.237
3472	20.306	5.0909	0.	-8.8659
3473	20.306	5.2727	0.	-2.5437
3474	20.306	5.4545	0.	-3.9317e-003
3475	20.306	5.6364	0.	4.4133e-003
3476	20.306	5.8182	0.	-9.2425e-004
3477	20.491	0.18182	0.	-5.0039e-004
3478	20.491	0.36364	0.	6.8788e-003
3479	20.491	0.54545	0.	1.2422e-002
3480	20.491	0.72727	0.	-1.3101
3481	20.491	0.90909	0.	-6.7502
3482	20.491	1.0909	0.	-13.048
3483	20.491	1.2727	0.	-19.993
3484	20.491	1.4545	0.	-27.352
3485	20.491	1.6364	0.	-34.861
3486	20.491	1.8182	0.	-42.241
3487	20.491	2.	0.	-49.206
3488	20.491	2.1818	0.	-55.484
3489	20.491	2.3636	0.	-60.828
3490	20.491	2.5455	0.	-65.029
3491	20.491	2.7273	0.	-67.922
3492	20.491	2.9091	0.	-69.397
3493	20.491	3.0909	0.	-69.397
3494	20.491	3.2727	0.	-67.922
3495	20.491	3.4545	0.	-65.029
3496	20.491	3.6364	0.	-60.828
3497	20.491	3.8182	0.	-55.484
3498	20.491	4.	0.	-49.206
3499	20.491	4.1818	0.	-42.241
3500	20.491	4.3636	0.	-34.861
3501	20.491	4.5455	0.	-27.352
3502	20.491	4.7273	0.	-19.993
3503	20.491	4.9091	0.	-13.048
3504	20.491	5.0909	0.	-6.7501
3505	20.491	5.2727	0.	-1.3101
3506	20.491	5.4545	0.	1.2421e-002
3507	20.491	5.6364	0.	6.8778e-003
3508	20.491	5.8182	0.	-4.9774e-004
3509	20.676	0.18182	0.	-3.8331e-004
3510	20.676	0.36364	0.	6.7027e-003
3511	20.676	0.54545	0.	1.7454e-002
3512	20.676	0.72727	0.	-3.016e-002
3513	20.676	0.90909	0.	-4.2768
3514	20.676	1.0909	0.	-9.5526
3515	20.676	1.2727	0.	-15.356
3516	20.676	1.4545	0.	-21.501
3517	20.676	1.6364	0.	-27.775
3518	20.676	1.8182	0.	-33.948
3519	20.676	2.	0.	-39.784
3520	20.676	2.1818	0.	-45.053
3521	20.676	2.3636	0.	-49.547
3522	20.676	2.5455	0.	-53.086
3523	20.676	2.7273	0.	-55.526
3524	20.676	2.9091	0.	-56.772
3525	20.676	3.0909	0.	-56.772
3526	20.676	3.2727	0.	-55.526
3527	20.676	3.4545	0.	-53.086
3528	20.676	3.6364	0.	-49.547
3529	20.676	3.8182	0.	-45.053
3530	20.676	4.	0.	-39.784
3531	20.676	4.1818	0.	-33.948
3532	20.676	4.3636	0.	-27.775
3533	20.676	4.5455	0.	-21.501
3534	20.676	4.7273	0.	-15.355
3535	20.676	4.9091	0.	-9.5525
3536	20.676	5.0909	0.	-4.2768
3537	20.676	5.2727	0.	-3.0151e-002
3538	20.676	5.4545	0.	1.7453e-002
3539	20.676	5.6364	0.	6.7047e-003
3540	20.676	5.8182	0.	-3.8331e-004
3541	20.86	0.18182	0.	-6.5965e-004
3542	20.86	0.36364	0.	4.6655e-003
3543	20.86	0.54545	0.	1.716e-002
3544	20.86	0.72727	0.	2.1212e-002
3545	20.86	0.90909	0.	-1.4875
3546	20.86	1.0909	0.	-5.7833
3547	20.86	1.2727	0.	-10.512
3548	20.86	1.4545	0.	-15.528
3549	20.86	1.6364	0.	-20.661
3550	20.86	1.8182	0.	-25.724
3551	20.86	2.	0.	-30.524
3552	20.86	2.1818	0.	-34.868
3553	20.86	2.3636	0.	-38.582
3554	20.86	2.5455	0.	-41.512
3555	20.86	2.7273	0.	-43.536
3556	20.86	2.9091	0.	-44.569
3557	20.86	3.0909	0.	-44.569
3558	20.86	3.2727	0.	-43.536
3559	20.86	3.4545	0.	-41.512
3560	20.86	3.6364	0.	-38.582
3561	20.86	3.8182	0.	-34.868
3562	20.86	4.	0.	-30.524
3563	20.86	4.1818	0.	-25.724
3564	20.86	4.3636	0.	-20.661
3565	20.86	4.5455	0.	-15.528
3566	20.86	4.7273	0.	-10.512
3567	20.86	4.9091	0.	-5.7832
3568	20.86	5.0909	0.	-1.4874
3569	20.86	5.2727	0.	2.121e-002
3570	20.86	5.4545	0.	1.7162e-002
3571	20.86	5.6364	0.	4.6659e-003
3572	20.86	5.8182	0.	-6.5884e-004
3573	21.045	0.18182	0.	-1.3517e-003
3574	21.045	0.36364	0.	1.4512e-003
3575	21.045	0.54545	0.	1.5108e-002
3576	21.045	0.72727	0.	2.1288e-002
3577	21.045	0.90909	0.	2.5036e-002
3578	21.045	1.0909	0.	-1.7686
3579	21.045	1.2727	0.	-5.48
3580	21.045	1.4545	0.	-9.4404
3581	21.045	1.6364	0.	-13.516
3582	21.045	1.8182	0.	-17.558
3583	21.045	2.	0.	-21.406
3584	21.045	2.1818	0.	-24.905
3585	21.045	2.3636	0.	-27.905
3586	21.045	2.5455	0.	-30.278
3587	21.045	2.7273	0.	-31.92
3588	21.045	2.9091	0.	-32.76
3589	21.045	3.0909	0.	-32.76
3590	21.045	3.2727	0.	-31.92
3591	21.045	3.4545	0.	-30.278
3592	21.045	3.6364	0.	-27.905
3593	21.045	3.8182	0.	-24.905
3594	21.045	4.	0.	-21.406
3595	21.045	4.1818	0.	-17.558
3596	21.045	4.3636	0.	-13.516
3597	21.045	4.5455	0.	-9.4403
3598	21.045	4.7273	0.	-5.4799
3599	21.045	4.9091	0.	-1.7685
3600	21.045	5.0909	0.	2.5033e-002
3601	21.045	5.2727	0.	2.1289e-002
3602	21.045	5.4545	0.	1.511e-002
3603	21.045	5.6364	0.	1.4534e-003
3604	21.045	5.8182	0.	-1.3514e-003
3605	21.23	0.18182	0.	-2.5041e-003
3606	21.23	0.36364	0.	-2.4808e-003
3607	21.23	0.54545	0.	1.277e-002
3608	21.23	0.72727	0.	1.9492e-002
3609	21.23	0.90909	0.	2.5369e-002
3610	21.23	1.0909	0.	2.8606e-002
3611	21.23	1.2727	0.	-0.28583
3612	21.23	1.4545	0.	-3.2407
3613	21.23	1.6364	0.	-6.3327
3614	21.23	1.8182	0.	-9.4304
3615	21.23	2.	0.	-12.405
3616	21.23	2.1818	0.	-15.129
3617	21.23	2.3636	0.	-17.477
3618	21.23	2.5455	0.	-19.342
3619	21.23	2.7273	0.	-20.637
3620	21.23	2.9091	0.	-21.301
3621	21.23	3.0909	0.	-21.301
3622	21.23	3.2727	0.	-20.637
3623	21.23	3.4545	0.	-19.342
3624	21.23	3.6364	0.	-17.477
3625	21.23	3.8182	0.	-15.129
3626	21.23	4.	0.	-12.405
3627	21.23	4.1818	0.	-9.4303
3628	21.23	4.3636	0.	-6.3326
3629	21.23	4.5455	0.	-3.2407
3630	21.23	4.7273	0.	-0.28574
3631	21.23	4.9091	0.	2.8604e-002
3632	21.23	5.0909	0.	2.5367e-002
3633	21.23	5.2727	0.	1.949e-002
3634	21.23	5.4545	0.	1.2772e-002
3635	21.23	5.6364	0.	-2.4808e-003
3636	21.23	5.8182	0.	-2.5046e-003
3637	21.414	0.18182	0.	-4.1319e-003
3638	21.414	0.36364	0.	-6.8555e-003
3639	21.414	0.54545	0.	1.0686e-002
3640	21.414	0.72727	0.	1.7933e-002
3641	21.414	0.90909	0.	2.4573e-002
3642	21.414	1.0909	0.	2.8978e-002
3643	21.414	1.2727	0.	3.1729e-002
3644	21.414	1.4545	0.	3.249e-002
3645	21.414	1.6364	0.	2.5893e-002
3646	21.414	1.8182	0.	-1.3233
3647	21.414	2.	0.	-3.4903
3648	21.414	2.1818	0.	-5.5025
3649	21.414	2.3636	0.	-7.2556
3650	21.414	2.5455	0.	-8.6584
3651	21.414	2.7273	0.	-9.6372
3652	21.414	2.9091	0.	-10.14
3653	21.414	3.0909	0.	-10.14
3654	21.414	3.2727	0.	-9.6372
3655	21.414	3.4545	0.	-8.6584
3656	21.414	3.6364	0.	-7.2556
3657	21.414	3.8182	0.	-5.5025
3658	21.414	4.	0.	-3.4902
3659	21.414	4.1818	0.	-1.3233
3660	21.414	4.3636	0.	2.5895e-002
3661	21.414	4.5455	0.	3.2489e-002
3662	21.414	4.7273	0.	3.173e-002
3663	21.414	4.9091	0.	2.8977e-002
3664	21.414	5.0909	0.	2.4574e-002
3665	21.414	5.2727	0.	1.793e-002
3666	21.414	5.4545	0.	1.0691e-002
3667	21.414	5.6364	0.	-6.8543e-003
3668	21.414	5.8182	0.	-4.1321e-003
3669	21.599	0.18182	0.	-6.265e-003
3670	21.599	0.36364	0.	-1.1514e-002
3671	21.599	0.54545	0.	9.0353e-003
3672	21.599	0.72727	0.	1.6933e-002
3673	21.599	0.90909	0.	2.4331e-002
3674	21.599	1.0909	0.	2.9287e-002
3675	21.599	1.2727	0.	3.2722e-002
3676	21.599	1.4545	0.	3.485e-002
3677	21.599	1.6364	0.	3.6023e-002
3678	21.599	1.8182	0.	3.6513e-002
3679	21.599	2.	0.	3.6575e-002
3680	21.599	2.1818	0.	3.6428e-002
3681	21.599	2.3636	0.	3.6285e-002
3682	21.599	2.5455	0.	3.6381e-002
3683	21.599	2.7273	0.	3.698e-002
3684	21.599	2.9091	0.	3.7966e-002
3685	21.599	3.0909	0.	3.7966e-002
3686	21.599	3.2727	0.	3.6981e-002
3687	21.599	3.4545	0.	3.6383e-002
3688	21.599	3.6364	0.	3.6285e-002
3689	21.599	3.8182	0.	3.6427e-002
3690	21.599	4.	0.	3.6576e-002
3691	21.599	4.1818	0.	3.6513e-002
3692	21.599	4.3636	0.	3.6022e-002
3693	21.599	4.5455	0.	3.4849e-002
3694	21.599	4.7273	0.	3.2724e-002
3695	21.599	4.9091	0.	2.9287e-002
3696	21.599	5.0909	0.	2.4327e-002
3697	21.599	5.2727	0.	1.6927e-002
3698	21.599	5.4545	0.	9.0368e-003
3699	21.599	5.6364	0.	-1.1512e-002
3700	21.599	5.8182	0.	-6.2644e-003
3701	21.784	0.18182	0.	-8.9519e-003
3702	21.784	0.36364	0.	-1.637e-002
3703	21.784	0.54545	0.	7.8793e-003
3704	21.784	0.72727	0.	1.6565e-002
3705	21.784	0.90909	0.	2.4791e-002
3706	21.784	1.0909	0.	3.026e-002
3707	21.784	1.2727	0.	3.4144e-002
3708	21.784	1.4545	0.	3.67e-002
3709	21.784	1.6364	0.	3.8333e-002
3710	21.784	1.8182	0.	3.9327e-002
3711	21.784	2.	0.	3.9917e-002
3712	21.784	2.1818	0.	4.027e-002
3713	21.784	2.3636	0.	4.0504e-002
3714	21.784	2.5455	0.	4.0676e-002
3715	21.784	2.7273	0.	4.0803e-002
3716	21.784	2.9091	0.	4.0874e-002
3717	21.784	3.0909	0.	4.0871e-002
3718	21.784	3.2727	0.	4.0803e-002
3719	21.784	3.4545	0.	4.0674e-002
3720	21.784	3.6364	0.	4.0503e-002
3721	21.784	3.8182	0.	4.0271e-002
3722	21.784	4.	0.	3.9916e-002
3723	21.784	4.1818	0.	3.9328e-002
3724	21.784	4.3636	0.	3.8334e-002
3725	21.784	4.5455	0.	3.67e-002
3726	21.784	4.7273	0.	3.4141e-002
3727	21.784	4.9091	0.	3.026e-002
3728	21.784	5.0909	0.	2.4791e-002
3729	21.784	5.2727	0.	1.6565e-002
3730	21.784	5.4545	0.	7.8834e-003
3731	21.784	5.6364	0.	-1.6369e-002
3732	21.784	5.8182	0.	-8.9505e-003
3733	21.968	0.18182	0.	-1.2292e-002
3734	21.968	0.36364	0.	-2.1385e-002
3735	21.968	0.54545	0.	7.2666e-003
3736	21.968	0.72727	0.	1.6887e-002
3737	21.968	0.90909	0.	2.603e-002
3738	21.968	1.0909	0.	3.202e-002
3739	21.968	1.2727	0.	3.6313e-002
3740	21.968	1.4545	0.	3.92e-002
3741	21.968	1.6364	0.	4.1121e-002
3742	21.968	1.8182	0.	4.2362e-002
3743	21.968	2.	0.	4.3145e-002
3744	21.968	2.1818	0.	4.3635e-002
3745	21.968	2.3636	0.	4.394e-002
3746	21.968	2.5455	0.	4.413e-002
3747	21.968	2.7273	0.	4.4242e-002
3748	21.968	2.9091	0.	4.4293e-002
3749	21.968	3.0909	0.	4.4294e-002
3750	21.968	3.2727	0.	4.424e-002
3751	21.968	3.4545	0.	4.4129e-002
3752	21.968	3.6364	0.	4.3939e-002
3753	21.968	3.8182	0.	4.3636e-002
3754	21.968	4.	0.	4.3145e-002
3755	21.968	4.1818	0.	4.2359e-002
3756	21.968	4.3636	0.	4.1119e-002
3757	21.968	4.5455	0.	3.9199e-002
3758	21.968	4.7273	0.	3.6311e-002
3759	21.968	4.9091	0.	3.202e-002
3760	21.968	5.0909	0.	2.6028e-002
3761	21.968	5.2727	0.	1.6886e-002
3762	21.968	5.4545	0.	7.2678e-003
3763	21.968	5.6364	0.	-2.1387e-002
3764	21.968	5.8182	0.	-1.2291e-002
3765	22.153	0.18182	0.	-1.6406e-002
3766	22.153	0.36364	0.	-2.6518e-002
3767	22.153	0.54545	0.	7.2929e-003
3768	22.153	0.72727	0.	1.8011e-002
3769	22.153	0.90909	0.	2.8173e-002
3770	22.153	1.0909	0.	3.4712e-002
3771	22.153	1.2727	0.	3.9408e-002
3772	22.153	1.4545	0.	4.2591e-002
3773	22.153	1.6364	0.	4.4754e-002
3774	22.153	1.8182	0.	4.6191e-002
3775	22.153	2.	0.	4.713e-002
3776	22.153	2.1818	0.	4.7741e-002
3777	22.153	2.3636	0.	4.8125e-002
3778	22.153	2.5455	0.	4.8365e-002
3779	22.153	2.7273	0.	4.8501e-002
3780	22.153	2.9091	0.	4.8565e-002
3781	22.153	3.0909	0.	4.8565e-002
3782	22.153	3.2727	0.	4.8501e-002
3783	22.153	3.4545	0.	4.8364e-002
3784	22.153	3.6364	0.	4.8126e-002
3785	22.153	3.8182	0.	4.7738e-002
3786	22.153	4.	0.	4.7134e-002
3787	22.153	4.1818	0.	4.619e-002
3788	22.153	4.3636	0.	4.4753e-002
3789	22.153	4.5455	0.	4.2592e-002
3790	22.153	4.7273	0.	3.9409e-002
3791	22.153	4.9091	0.	3.4713e-002
3792	22.153	5.0909	0.	2.8171e-002
3793	22.153	5.2727	0.	1.8007e-002
3794	22.153	5.4545	0.	7.2919e-003
3795	22.153	5.6364	0.	-2.6516e-002
3796	22.153	5.8182	0.	-1.6404e-002
3797	22.338	0.18182	0.	-2.1473e-002
3798	22.338	0.36364	0.	-3.1693e-002
3799	22.338	0.54545	0.	8.1283e-003
3800	22.338	0.72727	0.	2.013e-002
3801	22.338	0.90909	0.	3.1428e-002
3802	22.338	1.0909	0.	3.8556e-002
3803	22.338	1.2727	0.	4.3656e-002
3804	22.338	1.4545	0.	4.7125e-002
3805	22.338	1.6364	0.	4.9501e-002
3806	22.338	1.8182	0.	5.1111e-002
3807	22.338	2.	0.	5.2191e-002
3808	22.338	2.1818	0.	5.2907e-002
3809	22.338	2.3636	0.	5.3374e-002
3810	22.338	2.5455	0.	5.3669e-002
3811	22.338	2.7273	0.	5.3843e-002
3812	22.338	2.9091	0.	5.3921e-002
3813	22.338	3.0909	0.	5.3921e-002
3814	22.338	3.2727	0.	5.3843e-002
3815	22.338	3.4545	0.	5.3669e-002
3816	22.338	3.6364	0.	5.3374e-002
3817	22.338	3.8182	0.	5.2906e-002
3818	22.338	4.	0.	5.2191e-002
3819	22.338	4.1818	0.	5.1111e-002
3820	22.338	4.3636	0.	4.9503e-002
3821	22.338	4.5455	0.	4.7123e-002
3822	22.338	4.7273	0.	4.3658e-002
3823	22.338	4.9091	0.	3.8553e-002
3824	22.338	5.0909	0.	3.1427e-002
3825	22.338	5.2727	0.	2.0127e-002
3826	22.338	5.4545	0.	8.1289e-003
3827	22.338	5.6364	0.	-3.1689e-002
3828	22.338	5.8182	0.	-2.1474e-002
3829	22.523	0.18182	0.	-2.7743e-002
3830	22.523	0.36364	0.	-3.6764e-002
3831	22.523	0.54545	0.	1.0095e-002
3832	22.523	0.72727	0.	2.3608e-002
3833	22.523	0.90909	0.	3.6171e-002
3834	22.523	1.0909	0.	4.3921e-002
3835	22.523	1.2727	0.	4.9437e-002
3836	22.523	1.4545	0.	5.3175e-002
3837	22.523	1.6364	0.	5.576e-002
3838	22.523	1.8182	0.	5.7527e-002
3839	22.523	2.	0.	5.8737e-002
3840	22.523	2.1818	0.	5.9556e-002
3841	22.523	2.3636	0.	6.0105e-002
3842	22.523	2.5455	0.	6.0458e-002
3843	22.523	2.7273	0.	6.0668e-002
3844	22.523	2.9091	0.	6.0767e-002
3845	22.523	3.0909	0.	6.0766e-002
3846	22.523	3.2727	0.	6.0669e-002
3847	22.523	3.4545	0.	6.046e-002
3848	22.523	3.6364	0.	6.0104e-002
3849	22.523	3.8182	0.	5.9557e-002
3850	22.523	4.	0.	5.8737e-002
3851	22.523	4.1818	0.	5.7527e-002
3852	22.523	4.3636	0.	5.5758e-002
3853	22.523	4.5455	0.	5.3175e-002
3854	22.523	4.7273	0.	4.9435e-002
3855	22.523	4.9091	0.	4.3919e-002
3856	22.523	5.0909	0.	3.6169e-002
3857	22.523	5.2727	0.	2.3606e-002
3858	22.523	5.4545	0.	1.0096e-002
3859	22.523	5.6364	0.	-3.6763e-002
3860	22.523	5.8182	0.	-2.7745e-002
3861	22.707	0.18182	0.	-3.5689e-002
3862	22.707	0.36364	0.	-4.1628e-002
3863	22.707	0.54545	0.	1.355e-002
3864	22.707	0.72727	0.	2.8828e-002
3865	22.707	0.90909	0.	4.2804e-002
3866	22.707	1.0909	0.	5.1211e-002
3867	22.707	1.2727	0.	5.7149e-002
3868	22.707	1.4545	0.	6.1161e-002
3869	22.707	1.6364	0.	6.3945e-002
3870	22.707	1.8182	0.	6.5871e-002
3871	22.707	2.	0.	6.7209e-002
3872	22.707	2.1818	0.	6.8133e-002
3873	22.707	2.3636	0.	6.8762e-002
3874	22.707	2.5455	0.	6.9177e-002
3875	22.707	2.7273	0.	6.9428e-002
3876	22.707	2.9091	0.	6.9544e-002
3877	22.707	3.0909	0.	6.9544e-002
3878	22.707	3.2727	0.	6.9427e-002
3879	22.707	3.4545	0.	6.9176e-002
3880	22.707	3.6364	0.	6.8761e-002
3881	22.707	3.8182	0.	6.8133e-002
3882	22.707	4.	0.	6.7209e-002
3883	22.707	4.1818	0.	6.5871e-002
3884	22.707	4.3636	0.	6.3943e-002
3885	22.707	4.5455	0.	6.1161e-002
3886	22.707	4.7273	0.	5.7149e-002
3887	22.707	4.9091	0.	5.1209e-002
3888	22.707	5.0909	0.	4.2803e-002
3889	22.707	5.2727	0.	2.8828e-002
3890	22.707	5.4545	0.	1.355e-002
3891	22.707	5.6364	0.	-4.1627e-002
3892	22.707	5.8182	0.	-3.5688e-002
3893	22.892	0.18182	0.	-4.5405e-002
3894	22.892	0.36364	0.	-4.5273e-002
3895	22.892	0.54545	0.	1.9941e-002
3896	22.892	0.72727	0.	3.7324e-002
3897	22.892	0.90909	0.	5.2866e-002
3898	22.892	1.0909	0.	6.1969e-002
3899	22.892	1.2727	0.	6.8355e-002
3900	22.892	1.4545	0.	7.2655e-002
3901	22.892	1.6364	0.	7.565e-002
3902	22.892	1.8182	0.	7.7747e-002
3903	22.892	2.	0.	7.9225e-002
3904	22.892	2.1818	0.	8.0259e-002
3905	22.892	2.3636	0.	8.0976e-002
3906	22.892	2.5455	0.	8.1455e-002
3907	22.892	2.7273	0.	8.1747e-002
3908	22.892	2.9091	0.	8.1887e-002
3909	22.892	3.0909	0.	8.1889e-002
3910	22.892	3.2727	0.	8.175e-002
3911	22.892	3.4545	0.	8.1454e-002
3912	22.892	3.6364	0.	8.0978e-002
3913	22.892	3.8182	0.	8.0258e-002
3914	22.892	4.	0.	7.9224e-002
3915	22.892	4.1818	0.	7.7747e-002
3916	22.892	4.3636	0.	7.5651e-002
3917	22.892	4.5455	0.	7.2651e-002
3918	22.892	4.7273	0.	6.8357e-002
3919	22.892	4.9091	0.	6.1969e-002
3920	22.892	5.0909	0.	5.2864e-002
3921	22.892	5.2727	0.	3.7323e-002
3922	22.892	5.4545	0.	1.9943e-002
3923	22.892	5.6364	0.	-4.527e-002
3924	22.892	5.8182	0.	-4.5407e-002
3925	23.077	0.18182	0.	-5.9281e-002
3926	23.077	0.36364	0.	-4.8804e-002
3927	23.077	0.54545	0.	2.8536e-002
3928	23.077	0.72727	0.	4.829e-002
3929	23.077	0.90909	0.	6.5595e-002
3930	23.077	1.0909	0.	7.5451e-002
3931	23.077	1.2727	0.	8.2328e-002
3932	23.077	1.4545	0.	8.6952e-002
3933	23.077	1.6364	0.	9.0202e-002
3934	23.077	1.8182	0.	9.2499e-002
3935	23.077	2.	0.	9.4136e-002
3936	23.077	2.1818	0.	9.5304e-002
3937	23.077	2.3636	0.	9.612e-002
3938	23.077	2.5455	0.	9.6674e-002
3939	23.077	2.7273	0.	9.7015e-002
3940	23.077	2.9091	0.	9.7179e-002
3941	23.077	3.0909	0.	9.7179e-002
3942	23.077	3.2727	0.	9.7013e-002
3943	23.077	3.4545	0.	9.6675e-002
3944	23.077	3.6364	0.	9.6119e-002
3945	23.077	3.8182	0.	9.5303e-002
3946	23.077	4.	0.	9.4138e-002
3947	23.077	4.1818	0.	9.2499e-002
3948	23.077	4.3636	0.	9.0204e-002
3949	23.077	4.5455	0.	8.6953e-002
3950	23.077	4.7273	0.	8.2328e-002
3951	23.077	4.9091	0.	7.5449e-002
3952	23.077	5.0909	0.	6.5595e-002
3953	23.077	5.2727	0.	4.8288e-002
3954	23.077	5.4545	0.	2.8532e-002
3955	23.077	5.6364	0.	-4.8802e-002
3956	23.077	5.8182	0.	-5.9278e-002
3957	23.261	0.18182	0.	-7.1821e-002
3958	23.261	0.36364	0.	-4.1854e-002
3959	23.261	0.54545	0.	5.1875e-002
3960	23.261	0.72727	0.	7.4524e-002
3961	23.261	0.90909	0.	9.3894e-002
3962	23.261	1.0909	0.	0.10471
3963	23.261	1.2727	0.	0.11223
3964	23.261	1.4545	0.	0.11731
3965	23.261	1.6364	0.	0.1209
3966	23.261	1.8182	0.	0.12346
3967	23.261	2.	0.	0.1253
3968	23.261	2.1818	0.	0.12662
3969	23.261	2.3636	0.	0.12756
3970	23.261	2.5455	0.	0.12819
3971	23.261	2.7273	0.	0.12859
3972	23.261	2.9091	0.	0.12878
3973	23.261	3.0909	0.	0.12878
3974	23.261	3.2727	0.	0.12859
3975	23.261	3.4545	0.	0.1282
3976	23.261	3.6364	0.	0.12756
3977	23.261	3.8182	0.	0.12662
3978	23.261	4.	0.	0.1253
3979	23.261	4.1818	0.	0.12346
3980	23.261	4.3636	0.	0.12089
3981	23.261	4.5455	0.	0.1173
3982	23.261	4.7273	0.	0.11223
3983	23.261	4.9091	0.	0.10471
3984	23.261	5.0909	0.	9.3895e-002
3985	23.261	5.2727	0.	7.4523e-002
3986	23.261	5.4545	0.	5.1872e-002
3987	23.261	5.6364	0.	-4.185e-002
3988	23.261	5.8182	0.	-7.182e-002
3989	23.446	0.18182	0.	-0.10848
3990	23.446	0.36364	0.	-5.1158e-002
3991	23.446	0.54545	0.	5.8496e-002
3992	23.446	0.72727	0.	8.5745e-002
3993	23.446	0.90909	0.	0.10752
3994	23.446	1.0909	0.	0.11943
3995	23.446	1.2727	0.	0.12783
3996	23.446	1.4545	0.	0.13353
3997	23.446	1.6364	0.	0.13761
3998	23.446	1.8182	0.	0.14056
3999	23.446	2.	0.	0.1427
4000	23.446	2.1818	0.	0.14425
4001	23.446	2.3636	0.	0.14536
4002	23.446	2.5455	0.	0.14612
4003	23.446	2.7273	0.	0.1466
4004	23.446	2.9091	0.	0.14683
4005	23.446	3.0909	0.	0.14683
4006	23.446	3.2727	0.	0.1466
4007	23.446	3.4545	0.	0.14612
4008	23.446	3.6364	0.	0.14536
4009	23.446	3.8182	0.	0.14425
4010	23.446	4.	0.	0.1427
4011	23.446	4.1818	0.	0.14056
4012	23.446	4.3636	0.	0.13761
4013	23.446	4.5455	0.	0.13353
4014	23.446	4.7273	0.	0.12783
4015	23.446	4.9091	0.	0.11943
4016	23.446	5.0909	0.	0.10752
4017	23.446	5.2727	0.	8.5743e-002
4018	23.446	5.4545	0.	5.8499e-002
4019	23.446	5.6364	0.	-5.1156e-002
4020	23.446	5.8182	0.	-0.10848
4021	23.631	0.18182	0.	-7.7048e-002
4022	23.631	0.36364	0.	6.5665e-002
4023	23.631	0.54545	0.	0.22154
4024	23.631	0.72727	0.	0.25313
4025	23.631	0.90909	0.	0.28087
4026	23.631	1.0909	0.	0.29589
4027	23.631	1.2727	0.	0.3065
4028	23.631	1.4545	0.	0.3137
4029	23.631	1.6364	0.	0.31882
4030	23.631	1.8182	0.	0.32247
4031	23.631	2.	0.	0.32508
4032	23.631	2.1818	0.	0.32694
4033	23.631	2.3636	0.	0.32824
4034	23.631	2.5455	0.	0.32911
4035	23.631	2.7273	0.	0.32964
4036	23.631	2.9091	0.	0.3299
4037	23.631	3.0909	0.	0.3299
4038	23.631	3.2727	0.	0.32964
4039	23.631	3.4545	0.	0.32911
4040	23.631	3.6364	0.	0.32824
4041	23.631	3.8182	0.	0.32694
4042	23.631	4.	0.	0.32508
4043	23.631	4.1818	0.	0.32247
4044	23.631	4.3636	0.	0.31882
4045	23.631	4.5455	0.	0.3137
4046	23.631	4.7273	0.	0.3065
4047	23.631	4.9091	0.	0.29589
4048	23.631	5.0909	0.	0.28087
4049	23.631	5.2727	0.	0.25313
4050	23.631	5.4545	0.	0.22154
4051	23.631	5.6364	0.	6.5667e-002
4052	23.631	5.8182	0.	-7.705e-002
4053	23.815	0.18182	0.	-0.45037
4054	23.815	0.36364	0.	-0.19089
4055	23.815	0.54545	0.	3.2582e-002
4056	23.815	0.72727	0.	7.8591e-002
4057	23.815	0.90909	0.	0.12067
4058	23.815	1.0909	0.	0.14511
4059	23.815	1.2727	0.	0.16309
4060	23.815	1.4545	0.	0.17588
4061	23.815	1.6364	0.	0.18533
4062	23.815	1.8182	0.	0.19232
4063	23.815	2.	0.	0.1975
4064	23.815	2.1818	0.	0.2013
4065	23.815	2.3636	0.	0.20403
4066	23.815	2.5455	0.	0.20591
4067	23.815	2.7273	0.	0.20709
4068	23.815	2.9091	0.	0.20765
4069	23.815	3.0909	0.	0.20766
4070	23.815	3.2727	0.	0.20709
4071	23.815	3.4545	0.	0.20591
4072	23.815	3.6364	0.	0.20403
4073	23.815	3.8182	0.	0.2013
4074	23.815	4.	0.	0.19749
4075	23.815	4.1818	0.	0.19232
4076	23.815	4.3636	0.	0.18533
4077	23.815	4.5455	0.	0.17587
4078	23.815	4.7273	0.	0.16309
4079	23.815	4.9091	0.	0.14511
4080	23.815	5.0909	0.	0.12067
4081	23.815	5.2727	0.	7.8588e-002
4082	23.815	5.4545	0.	3.2578e-002
4083	23.815	5.6364	0.	-0.19088
4084	23.815	5.8182	0.	-0.45037
4085	23.815	5.8182	0.1	0.45037
4086	23.815	5.6364	0.1	0.19088
4087	23.815	5.4545	0.1	-3.2575e-002
4088	23.815	5.2727	0.1	-7.8587e-002
4089	23.815	5.0909	0.1	-0.12067
4090	23.815	4.9091	0.1	-0.14511
4091	23.815	4.7273	0.1	-0.16309
4092	23.815	4.5455	0.1	-0.17587
4093	23.815	4.3636	0.1	-0.18533
4094	23.815	4.1818	0.1	-0.19231
4095	23.815	4.	0.1	-0.1975
4096	23.815	3.8182	0.1	-0.2013
4097	23.815	3.6364	0.1	-0.20403
4098	23.815	3.4545	0.1	-0.20591
4099	23.815	3.2727	0.1	-0.20709
4100	23.815	3.0909	0.1	-0.20765
4101	23.815	2.9091	0.1	-0.20765
4102	23.815	2.7273	0.1	-0.20709
4103	23.815	2.5455	0.1	-0.20591
4104	23.815	2.3636	0.1	-0.20403
4105	23.815	2.1818	0.1	-0.2013
4106	23.815	2.	0.1	-0.1975
4107	23.815	1.8182	0.1	-0.19232
4108	23.815	1.6364	0.1	-0.18533
4109	23.815	1.4545	0.1	-0.17588
4110	23.815	1.2727	0.1	-0.16309
4111	23.815	1.0909	0.1	-0.14511
4112	23.815	0.90909	0.1	-0.12067
4113	23.815	0.72727	0.1	-7.8588e-002
4114	23.815	0.54545	0.1	-3.2579e-002
4115	23.815	0.36364	0.1	0.19088
4116	23.815	0.18182	0.1	0.45037
4117	23.631	5.8182	0.1	7.705e-002
4118	23.631	5.6364	0.1	-6.5664e-002
4119	23.631	5.4545	0.1	-0.22154
4120	23.631	5.2727	0.1	-0.25313
4121	23.631	5.0909	0.1	-0.28087
4122	23.631	4.9091	0.1	-0.29589
4123	23.631	4.7273	0.1	-0.3065
4124	23.631	4.5455	0.1	-0.3137
4125	23.631	4.3636	0.1	-0.31882
4126	23.631	4.1818	0.1	-0.32247
4127	23.631	4.	0.1	-0.32508
4128	23.631	3.8182	0.1	-0.32694
4129	23.631	3.6364	0.1	-0.32824
4130	23.631	3.4545	0.1	-0.32911
4131	23.631	3.2727	0.1	-0.32964
4132	23.631	3.0909	0.1	-0.3299
4133	23.631	2.9091	0.1	-0.3299
4134	23.631	2.7273	0.1	-0.32964
4135	23.631	2.5455	0.1	-0.32911
4136	23.631	2.3636	0.1	-0.32824
4137	23.631	2.1818	0.1	-0.32694
4138	23.631	2.	0.1	-0.32508
4139	23.631	1.8182	0.1	-0.32247
4140	23.631	1.6364	0.1	-0.31882
4141	23.631	1.4545	0.1	-0.3137
4142	23.631	1.2727	0.1	-0.3065
4143	23.631	1.0909	0.1	-0.29589
4144	23.631	0.90909	0.1	-0.28087
4145	23.631	0.72727	0.1	-0.25313
4146	23.631	0.54545	0.1	-0.22154
4147	23.631	0.36364	0.1	-6.5664e-002
4148	23.631	0.18182	0.1	7.7051e-002
4149	23.446	5.8182	0.1	0.10848
4150	23.446	5.6364	0.1	5.1157e-002
4151	23.446	5.4545	0.1	-5.8497e-002
4152	23.446	5.2727	0.1	-8.5743e-002
4153	23.446	5.0909	0.1	-0.10752
4154	23.446	4.9091	0.1	-0.11943
4155	23.446	4.7273	0.1	-0.12783
4156	23.446	4.5455	0.1	-0.13353
4157	23.446	4.3636	0.1	-0.13761
4158	23.446	4.1818	0.1	-0.14056
4159	23.446	4.	0.1	-0.1427
4160	23.446	3.8182	0.1	-0.14425
4161	23.446	3.6364	0.1	-0.14536
4162	23.446	3.4545	0.1	-0.14612
4163	23.446	3.2727	0.1	-0.1466
4164	23.446	3.0909	0.1	-0.14683
4165	23.446	2.9091	0.1	-0.14683
4166	23.446	2.7273	0.1	-0.1466
4167	23.446	2.5455	0.1	-0.14612
4168	23.446	2.3636	0.1	-0.14536
4169	23.446	2.1818	0.1	-0.14425
4170	23.446	2.	0.1	-0.1427
4171	23.446	1.8182	0.1	-0.14056
4172	23.446	1.6364	0.1	-0.13761
4173	23.446	1.4545	0.1	-0.13353
4174	23.446	1.2727	0.1	-0.12783
4175	23.446	1.0909	0.1	-0.11943
4176	23.446	0.90909	0.1	-0.10752
4177	23.446	0.72727	0.1	-8.5742e-002
4178	23.446	0.54545	0.1	-5.8497e-002
4179	23.446	0.36364	0.1	5.1159e-002
4180	23.446	0.18182	0.1	0.10848
4181	23.261	5.8182	0.1	7.1821e-002
4182	23.261	5.6364	0.1	4.185e-002
4183	23.261	5.4545	0.1	-5.187e-002
4184	23.261	5.2727	0.1	-7.4524e-002
4185	23.261	5.0909	0.1	-9.3895e-002
4186	23.261	4.9091	0.1	-0.10471
4187	23.261	4.7273	0.1	-0.11223
4188	23.261	4.5455	0.1	-0.11731
4189	23.261	4.3636	0.1	-0.1209
4190	23.261	4.1818	0.1	-0.12346
4191	23.261	4.	0.1	-0.1253
4192	23.261	3.8182	0.1	-0.12662
4193	23.261	3.6364	0.1	-0.12756
4194	23.261	3.4545	0.1	-0.1282
4195	23.261	3.2727	0.1	-0.12859
4196	23.261	3.0909	0.1	-0.12878
4197	23.261	2.9091	0.1	-0.12878
4198	23.261	2.7273	0.1	-0.12859
4199	23.261	2.5455	0.1	-0.1282
4200	23.261	2.3636	0.1	-0.12756
4201	23.261	2.1818	0.1	-0.12662
4202	23.261	2.	0.1	-0.1253
4203	23.261	1.8182	0.1	-0.12346
4204	23.261	1.6364	0.1	-0.1209
4205	23.261	1.4545	0.1	-0.11731
4206	23.261	1.2727	0.1	-0.11223
4207	23.261	1.0909	0.1	-0.10471
4208	23.261	0.90909	0.1	-9.3895e-002
4209	23.261	0.72727	0.1	-7.4524e-002
4210	23.261	0.54545	0.1	-5.1874e-002
4211	23.261	0.36364	0.1	4.1853e-002
4212	23.261	0.18182	0.1	7.1822e-002
4213	23.077	5.8182	0.1	5.9277e-002
4214	23.077	5.6364	0.1	4.8802e-002
4215	23.077	5.4545	0.1	-2.8534e-002
4216	23.077	5.2727	0.1	-4.8289e-002
4217	23.077	5.0909	0.1	-6.5595e-002
4218	23.077	4.9091	0.1	-7.5451e-002
4219	23.077	4.7273	0.1	-8.2329e-002
4220	23.077	4.5455	0.1	-8.6953e-002
4221	23.077	4.3636	0.1	-9.0203e-002
4222	23.077	4.1818	0.1	-9.2499e-002
4223	23.077	4.	0.1	-9.4138e-002
4224	23.077	3.8182	0.1	-9.5303e-002
4225	23.077	3.6364	0.1	-9.6121e-002
4226	23.077	3.4545	0.1	-9.6675e-002
4227	23.077	3.2727	0.1	-9.7014e-002
4228	23.077	3.0909	0.1	-9.718e-002
4229	23.077	2.9091	0.1	-9.7179e-002
4230	23.077	2.7273	0.1	-9.7017e-002
4231	23.077	2.5455	0.1	-9.6674e-002
4232	23.077	2.3636	0.1	-9.6122e-002
4233	23.077	2.1818	0.1	-9.5303e-002
4234	23.077	2.	0.1	-9.4137e-002
4235	23.077	1.8182	0.1	-9.2499e-002
4236	23.077	1.6364	0.1	-9.0203e-002
4237	23.077	1.4545	0.1	-8.6953e-002
4238	23.077	1.2727	0.1	-8.2329e-002
4239	23.077	1.0909	0.1	-7.5452e-002
4240	23.077	0.90909	0.1	-6.5596e-002
4241	23.077	0.72727	0.1	-4.8291e-002
4242	23.077	0.54545	0.1	-2.8535e-002
4243	23.077	0.36364	0.1	4.8805e-002
4244	23.077	0.18182	0.1	5.928e-002
4245	22.892	5.8182	0.1	4.5406e-002
4246	22.892	5.6364	0.1	4.5272e-002
4247	22.892	5.4545	0.1	-1.9943e-002
4248	22.892	5.2727	0.1	-3.7324e-002
4249	22.892	5.0909	0.1	-5.2862e-002
4250	22.892	4.9091	0.1	-6.197e-002
4251	22.892	4.7273	0.1	-6.8356e-002
4252	22.892	4.5455	0.1	-7.2653e-002
4253	22.892	4.3636	0.1	-7.565e-002
4254	22.892	4.1818	0.1	-7.7747e-002
4255	22.892	4.	0.1	-7.9223e-002
4256	22.892	3.8182	0.1	-8.0258e-002
4257	22.892	3.6364	0.1	-8.0977e-002
4258	22.892	3.4545	0.1	-8.1454e-002
4259	22.892	3.2727	0.1	-8.175e-002
4260	22.892	3.0909	0.1	-8.1888e-002
4261	22.892	2.9091	0.1	-8.1888e-002
4262	22.892	2.7273	0.1	-8.1747e-002
4263	22.892	2.5455	0.1	-8.1455e-002
4264	22.892	2.3636	0.1	-8.0976e-002
4265	22.892	2.1818	0.1	-8.0258e-002
4266	22.892	2.	0.1	-7.9224e-002
4267	22.892	1.8182	0.1	-7.7748e-002
4268	22.892	1.6364	0.1	-7.565e-002
4269	22.892	1.4545	0.1	-7.2655e-002
4270	22.892	1.2727	0.1	-6.8356e-002
4271	22.892	1.0909	0.1	-6.1969e-002
4272	22.892	0.90909	0.1	-5.2866e-002
4273	22.892	0.72727	0.1	-3.7323e-002
4274	22.892	0.54545	0.1	-1.9942e-002
4275	22.892	0.36364	0.1	4.5272e-002
4276	22.892	0.18182	0.1	4.5406e-002
4277	22.707	5.8182	0.1	3.5689e-002
4278	22.707	5.6364	0.1	4.1627e-002
4279	22.707	5.4545	0.1	-1.355e-002
4280	22.707	5.2727	0.1	-2.8828e-002
4281	22.707	5.0909	0.1	-4.2803e-002
4282	22.707	4.9091	0.1	-5.1207e-002
4283	22.707	4.7273	0.1	-5.7148e-002
4284	22.707	4.5455	0.1	-6.1161e-002
4285	22.707	4.3636	0.1	-6.3943e-002
4286	22.707	4.1818	0.1	-6.5871e-002
4287	22.707	4.	0.1	-6.7209e-002
4288	22.707	3.8182	0.1	-6.8132e-002
4289	22.707	3.6364	0.1	-6.8761e-002
4290	22.707	3.4545	0.1	-6.9176e-002
4291	22.707	3.2727	0.1	-6.9426e-002
4292	22.707	3.0909	0.1	-6.9545e-002
4293	22.707	2.9091	0.1	-6.9544e-002
4294	22.707	2.7273	0.1	-6.9426e-002
4295	22.707	2.5455	0.1	-6.9177e-002
4296	22.707	2.3636	0.1	-6.8761e-002
4297	22.707	2.1818	0.1	-6.8133e-002
4298	22.707	2.	0.1	-6.7208e-002
4299	22.707	1.8182	0.1	-6.5871e-002
4300	22.707	1.6364	0.1	-6.3943e-002
4301	22.707	1.4545	0.1	-6.116e-002
4302	22.707	1.2727	0.1	-5.7149e-002
4303	22.707	1.0909	0.1	-5.121e-002
4304	22.707	0.90909	0.1	-4.2803e-002
4305	22.707	0.72727	0.1	-2.883e-002
4306	22.707	0.54545	0.1	-1.3549e-002
4307	22.707	0.36364	0.1	4.1629e-002
4308	22.707	0.18182	0.1	3.5691e-002
4309	22.523	5.8182	0.1	2.7744e-002
4310	22.523	5.6364	0.1	3.6762e-002
4311	22.523	5.4545	0.1	-1.0097e-002
4312	22.523	5.2727	0.1	-2.3605e-002
4313	22.523	5.0909	0.1	-3.617e-002
4314	22.523	4.9091	0.1	-4.392e-002
4315	22.523	4.7273	0.1	-4.9435e-002
4316	22.523	4.5455	0.1	-5.3175e-002
4317	22.523	4.3636	0.1	-5.576e-002
4318	22.523	4.1818	0.1	-5.7528e-002
4319	22.523	4.	0.1	-5.8738e-002
4320	22.523	3.8182	0.1	-5.9557e-002
4321	22.523	3.6364	0.1	-6.0104e-002
4322	22.523	3.4545	0.1	-6.0459e-002
4323	22.523	3.2727	0.1	-6.0669e-002
4324	22.523	3.0909	0.1	-6.0767e-002
4325	22.523	2.9091	0.1	-6.0768e-002
4326	22.523	2.7273	0.1	-6.0668e-002
4327	22.523	2.5455	0.1	-6.0458e-002
4328	22.523	2.3636	0.1	-6.0105e-002
4329	22.523	2.1818	0.1	-5.9556e-002
4330	22.523	2.	0.1	-5.8737e-002
4331	22.523	1.8182	0.1	-5.7528e-002
4332	22.523	1.6364	0.1	-5.576e-002
4333	22.523	1.4545	0.1	-5.3176e-002
4334	22.523	1.2727	0.1	-4.9437e-002
4335	22.523	1.0909	0.1	-4.392e-002
4336	22.523	0.90909	0.1	-3.6171e-002
4337	22.523	0.72727	0.1	-2.3607e-002
4338	22.523	0.54545	0.1	-1.0096e-002
4339	22.523	0.36364	0.1	3.6763e-002
4340	22.523	0.18182	0.1	2.7744e-002
4341	22.338	5.8182	0.1	2.1474e-002
4342	22.338	5.6364	0.1	3.169e-002
4343	22.338	5.4545	0.1	-8.1283e-003
4344	22.338	5.2727	0.1	-2.0129e-002
4345	22.338	5.0909	0.1	-3.1427e-002
4346	22.338	4.9091	0.1	-3.8555e-002
4347	22.338	4.7273	0.1	-4.3658e-002
4348	22.338	4.5455	0.1	-4.7124e-002
4349	22.338	4.3636	0.1	-4.9503e-002
4350	22.338	4.1818	0.1	-5.1112e-002
4351	22.338	4.	0.1	-5.2191e-002
4352	22.338	3.8182	0.1	-5.2907e-002
4353	22.338	3.6364	0.1	-5.3375e-002
4354	22.338	3.4545	0.1	-5.367e-002
4355	22.338	3.2727	0.1	-5.3843e-002
4356	22.338	3.0909	0.1	-5.3923e-002
4357	22.338	2.9091	0.1	-5.3923e-002
4358	22.338	2.7273	0.1	-5.3843e-002
4359	22.338	2.5455	0.1	-5.3671e-002
4360	22.338	2.3636	0.1	-5.3375e-002
4361	22.338	2.1818	0.1	-5.2907e-002
4362	22.338	2.	0.1	-5.2192e-002
4363	22.338	1.8182	0.1	-5.1112e-002
4364	22.338	1.6364	0.1	-4.9501e-002
4365	22.338	1.4545	0.1	-4.7124e-002
4366	22.338	1.2727	0.1	-4.3659e-002
4367	22.338	1.0909	0.1	-3.8557e-002
4368	22.338	0.90909	0.1	-3.1429e-002
4369	22.338	0.72727	0.1	-2.0131e-002
4370	22.338	0.54545	0.1	-8.13e-003
4371	22.338	0.36364	0.1	3.1692e-002
4372	22.338	0.18182	0.1	2.1472e-002
4373	22.153	5.8182	0.1	1.6404e-002
4374	22.153	5.6364	0.1	2.6517e-002
4375	22.153	5.4545	0.1	-7.2937e-003
4376	22.153	5.2727	0.1	-1.8008e-002
4377	22.153	5.0909	0.1	-2.8171e-002
4378	22.153	4.9091	0.1	-3.4711e-002
4379	22.153	4.7273	0.1	-3.9407e-002
4380	22.153	4.5455	0.1	-4.2592e-002
4381	22.153	4.3636	0.1	-4.4753e-002
4382	22.153	4.1818	0.1	-4.6189e-002
4383	22.153	4.	0.1	-4.7133e-002
4384	22.153	3.8182	0.1	-4.7738e-002
4385	22.153	3.6364	0.1	-4.8125e-002
4386	22.153	3.4545	0.1	-4.8363e-002
4387	22.153	3.2727	0.1	-4.8501e-002
4388	22.153	3.0909	0.1	-4.8565e-002
4389	22.153	2.9091	0.1	-4.8564e-002
4390	22.153	2.7273	0.1	-4.8501e-002
4391	22.153	2.5455	0.1	-4.8364e-002
4392	22.153	2.3636	0.1	-4.8125e-002
4393	22.153	2.1818	0.1	-4.774e-002
4394	22.153	2.	0.1	-4.7131e-002
4395	22.153	1.8182	0.1	-4.619e-002
4396	22.153	1.6364	0.1	-4.4754e-002
4397	22.153	1.4545	0.1	-4.2591e-002
4398	22.153	1.2727	0.1	-3.9409e-002
4399	22.153	1.0909	0.1	-3.4712e-002
4400	22.153	0.90909	0.1	-2.8173e-002
4401	22.153	0.72727	0.1	-1.8012e-002
4402	22.153	0.54545	0.1	-7.2928e-003
4403	22.153	0.36364	0.1	2.652e-002
4404	22.153	0.18182	0.1	1.6406e-002
4405	21.968	5.8182	0.1	1.2291e-002
4406	21.968	5.6364	0.1	2.1387e-002
4407	21.968	5.4545	0.1	-7.2655e-003
4408	21.968	5.2727	0.1	-1.6885e-002
4409	21.968	5.0909	0.1	-2.6027e-002
4410	21.968	4.9091	0.1	-3.2019e-002
4411	21.968	4.7273	0.1	-3.6311e-002
4412	21.968	4.5455	0.1	-3.9199e-002
4413	21.968	4.3636	0.1	-4.1119e-002
4414	21.968	4.1818	0.1	-4.2359e-002
4415	21.968	4.	0.1	-4.3144e-002
4416	21.968	3.8182	0.1	-4.3635e-002
4417	21.968	3.6364	0.1	-4.394e-002
4418	21.968	3.4545	0.1	-4.4129e-002
4419	21.968	3.2727	0.1	-4.424e-002
4420	21.968	3.0909	0.1	-4.4294e-002
4421	21.968	2.9091	0.1	-4.4292e-002
4422	21.968	2.7273	0.1	-4.4241e-002
4423	21.968	2.5455	0.1	-4.413e-002
4424	21.968	2.3636	0.1	-4.394e-002
4425	21.968	2.1818	0.1	-4.3634e-002
4426	21.968	2.	0.1	-4.3146e-002
4427	21.968	1.8182	0.1	-4.2359e-002
4428	21.968	1.6364	0.1	-4.112e-002
4429	21.968	1.4545	0.1	-3.9198e-002
4430	21.968	1.2727	0.1	-3.6312e-002
4431	21.968	1.0909	0.1	-3.2019e-002
4432	21.968	0.90909	0.1	-2.6028e-002
4433	21.968	0.72727	0.1	-1.6885e-002
4434	21.968	0.54545	0.1	-7.2645e-003
4435	21.968	0.36364	0.1	2.1386e-002
4436	21.968	0.18182	0.1	1.2292e-002
4437	21.784	5.8182	0.1	8.9526e-003
4438	21.784	5.6364	0.1	1.637e-002
4439	21.784	5.4545	0.1	-7.8815e-003
4440	21.784	5.2727	0.1	-1.6565e-002
4441	21.784	5.0909	0.1	-2.479e-002
4442	21.784	4.9091	0.1	-3.0259e-002
4443	21.784	4.7273	0.1	-3.4142e-002
4444	21.784	4.5455	0.1	-3.67e-002
4445	21.784	4.3636	0.1	-3.8333e-002
4446	21.784	4.1818	0.1	-3.9328e-002
4447	21.784	4.	0.1	-3.9916e-002
4448	21.784	3.8182	0.1	-4.0271e-002
4449	21.784	3.6364	0.1	-4.0504e-002
4450	21.784	3.4545	0.1	-4.0676e-002
4451	21.784	3.2727	0.1	-4.0804e-002
4452	21.784	3.0909	0.1	-4.0872e-002
4453	21.784	2.9091	0.1	-4.0873e-002
4454	21.784	2.7273	0.1	-4.0804e-002
4455	21.784	2.5455	0.1	-4.0675e-002
4456	21.784	2.3636	0.1	-4.0505e-002
4457	21.784	2.1818	0.1	-4.0269e-002
4458	21.784	2.	0.1	-3.9917e-002
4459	21.784	1.8182	0.1	-3.9327e-002
4460	21.784	1.6364	0.1	-3.8333e-002
4461	21.784	1.4545	0.1	-3.6701e-002
4462	21.784	1.2727	0.1	-3.4144e-002
4463	21.784	1.0909	0.1	-3.0259e-002
4464	21.784	0.90909	0.1	-2.4792e-002
4465	21.784	0.72727	0.1	-1.6565e-002
4466	21.784	0.54545	0.1	-7.8796e-003
4467	21.784	0.36364	0.1	1.637e-002
4468	21.784	0.18182	0.1	8.9514e-003
4469	21.599	5.8182	0.1	6.2653e-003
4470	21.599	5.6364	0.1	1.1512e-002
4471	21.599	5.4545	0.1	-9.0381e-003
4472	21.599	5.2727	0.1	-1.6927e-002
4473	21.599	5.0909	0.1	-2.4329e-002
4474	21.599	4.9091	0.1	-2.9288e-002
4475	21.599	4.7273	0.1	-3.2723e-002
4476	21.599	4.5455	0.1	-3.4849e-002
4477	21.599	4.3636	0.1	-3.6021e-002
4478	21.599	4.1818	0.1	-3.6514e-002
4479	21.599	4.	0.1	-3.6575e-002
4480	21.599	3.8182	0.1	-3.6427e-002
4481	21.599	3.6364	0.1	-3.6285e-002
4482	21.599	3.4545	0.1	-3.6381e-002
4483	21.599	3.2727	0.1	-3.6979e-002
4484	21.599	3.0909	0.1	-3.7966e-002
4485	21.599	2.9091	0.1	-3.7966e-002
4486	21.599	2.7273	0.1	-3.6981e-002
4487	21.599	2.5455	0.1	-3.6381e-002
4488	21.599	2.3636	0.1	-3.6285e-002
4489	21.599	2.1818	0.1	-3.6428e-002
4490	21.599	2.	0.1	-3.6575e-002
4491	21.599	1.8182	0.1	-3.6513e-002
4492	21.599	1.6364	0.1	-3.6021e-002
4493	21.599	1.4545	0.1	-3.4849e-002
4494	21.599	1.2727	0.1	-3.2722e-002
4495	21.599	1.0909	0.1	-2.9288e-002
4496	21.599	0.90909	0.1	-2.433e-002
4497	21.599	0.72727	0.1	-1.6931e-002
4498	21.599	0.54545	0.1	-9.0362e-003
4499	21.599	0.36364	0.1	1.1515e-002
4500	21.599	0.18182	0.1	6.2636e-003
4501	21.414	5.8182	0.1	4.1325e-003
4502	21.414	5.6364	0.1	6.8537e-003
4503	21.414	5.4545	0.1	-1.0691e-002
4504	21.414	5.2727	0.1	-1.7932e-002
4505	21.414	5.0909	0.1	-2.4574e-002
4506	21.414	4.9091	0.1	-2.8978e-002
4507	21.414	4.7273	0.1	-3.1729e-002
4508	21.414	4.5455	0.1	-3.2491e-002
4509	21.414	4.3636	0.1	-2.5893e-002
4510	21.414	4.1818	0.1	1.3233
4511	21.414	4.	0.1	3.4902
4512	21.414	3.8182	0.1	5.5025
4513	21.414	3.6364	0.1	7.2556
4514	21.414	3.4545	0.1	8.6584
4515	21.414	3.2727	0.1	9.6372
4516	21.414	3.0909	0.1	10.14
4517	21.414	2.9091	0.1	10.14
4518	21.414	2.7273	0.1	9.6372
4519	21.414	2.5455	0.1	8.6584
4520	21.414	2.3636	0.1	7.2556
4521	21.414	2.1818	0.1	5.5025
4522	21.414	2.	0.1	3.4903
4523	21.414	1.8182	0.1	1.3233
4524	21.414	1.6364	0.1	-2.5894e-002
4525	21.414	1.4545	0.1	-3.2489e-002
4526	21.414	1.2727	0.1	-3.173e-002
4527	21.414	1.0909	0.1	-2.8978e-002
4528	21.414	0.90909	0.1	-2.4575e-002
4529	21.414	0.72727	0.1	-1.7932e-002
4530	21.414	0.54545	0.1	-1.0687e-002
4531	21.414	0.36364	0.1	6.8563e-003
4532	21.414	0.18182	0.1	4.1312e-003
4533	21.23	5.8182	0.1	2.5039e-003
4534	21.23	5.6364	0.1	2.4817e-003
4535	21.23	5.4545	0.1	-1.2773e-002
4536	21.23	5.2727	0.1	-1.949e-002
4537	21.23	5.0909	0.1	-2.5368e-002
4538	21.23	4.9091	0.1	-2.8604e-002
4539	21.23	4.7273	0.1	0.28576
4540	21.23	4.5455	0.1	3.2407
4541	21.23	4.3636	0.1	6.3326
4542	21.23	4.1818	0.1	9.4303
4543	21.23	4.	0.1	12.405
4544	21.23	3.8182	0.1	15.129
4545	21.23	3.6364	0.1	17.477
4546	21.23	3.4545	0.1	19.342
4547	21.23	3.2727	0.1	20.637
4548	21.23	3.0909	0.1	21.301
4549	21.23	2.9091	0.1	21.301
4550	21.23	2.7273	0.1	20.637
4551	21.23	2.5455	0.1	19.342
4552	21.23	2.3636	0.1	17.477
4553	21.23	2.1818	0.1	15.129
4554	21.23	2.	0.1	12.405
4555	21.23	1.8182	0.1	9.4304
4556	21.23	1.6364	0.1	6.3327
4557	21.23	1.4545	0.1	3.2407
4558	21.23	1.2727	0.1	0.28583
4559	21.23	1.0909	0.1	-2.8605e-002
4560	21.23	0.90909	0.1	-2.5369e-002
4561	21.23	0.72727	0.1	-1.9492e-002
4562	21.23	0.54545	0.1	-1.277e-002
4563	21.23	0.36364	0.1	2.4833e-003
4564	21.23	0.18182	0.1	2.5024e-003
4565	21.045	5.8182	0.1	1.3512e-003
4566	21.045	5.6364	0.1	-1.4531e-003
4567	21.045	5.4545	0.1	-1.511e-002
4568	21.045	5.2727	0.1	-2.1288e-002
4569	21.045	5.0909	0.1	-2.5033e-002
4570	21.045	4.9091	0.1	1.7685
4571	21.045	4.7273	0.1	5.4799
4572	21.045	4.5455	0.1	9.4403
4573	21.045	4.3636	0.1	13.516
4574	21.045	4.1818	0.1	17.558
4575	21.045	4.	0.1	21.406
4576	21.045	3.8182	0.1	24.905
4577	21.045	3.6364	0.1	27.905
4578	21.045	3.4545	0.1	30.278
4579	21.045	3.2727	0.1	31.92
4580	21.045	3.0909	0.1	32.76
4581	21.045	2.9091	0.1	32.76
4582	21.045	2.7273	0.1	31.92
4583	21.045	2.5455	0.1	30.278
4584	21.045	2.3636	0.1	27.905
4585	21.045	2.1818	0.1	24.905
4586	21.045	2.	0.1	21.406
4587	21.045	1.8182	0.1	17.558
4588	21.045	1.6364	0.1	13.516
4589	21.045	1.4545	0.1	9.4404
4590	21.045	1.2727	0.1	5.48
4591	21.045	1.0909	0.1	1.7686
4592	21.045	0.90909	0.1	-2.5036e-002
4593	21.045	0.72727	0.1	-2.1288e-002
4594	21.045	0.54545	0.1	-1.5108e-002
4595	21.045	0.36364	0.1	-1.4509e-003
4596	21.045	0.18182	0.1	1.3516e-003
4597	20.86	5.8182	0.1	6.5604e-004
4598	20.86	5.6364	0.1	-4.6654e-003
4599	20.86	5.4545	0.1	-1.7162e-002
4600	20.86	5.2727	0.1	-2.1211e-002
4601	20.86	5.0909	0.1	1.4874
4602	20.86	4.9091	0.1	5.7832
4603	20.86	4.7273	0.1	10.512
4604	20.86	4.5455	0.1	15.528
4605	20.86	4.3636	0.1	20.661
4606	20.86	4.1818	0.1	25.724
4607	20.86	4.	0.1	30.524
4608	20.86	3.8182	0.1	34.868
4609	20.86	3.6364	0.1	38.582
4610	20.86	3.4545	0.1	41.512
4611	20.86	3.2727	0.1	43.536
4612	20.86	3.0909	0.1	44.569
4613	20.86	2.9091	0.1	44.569
4614	20.86	2.7273	0.1	43.536
4615	20.86	2.5455	0.1	41.512
4616	20.86	2.3636	0.1	38.582
4617	20.86	2.1818	0.1	34.868
4618	20.86	2.	0.1	30.524
4619	20.86	1.8182	0.1	25.724
4620	20.86	1.6364	0.1	20.661
4621	20.86	1.4545	0.1	15.528
4622	20.86	1.2727	0.1	10.512
4623	20.86	1.0909	0.1	5.7833
4624	20.86	0.90909	0.1	1.4875
4625	20.86	0.72727	0.1	-2.1212e-002
4626	20.86	0.54545	0.1	-1.7161e-002
4627	20.86	0.36364	0.1	-4.6649e-003
4628	20.86	0.18182	0.1	6.5936e-004
4629	20.676	5.8182	0.1	3.8224e-004
4630	20.676	5.6364	0.1	-6.7045e-003
4631	20.676	5.4545	0.1	-1.7453e-002
4632	20.676	5.2727	0.1	3.0153e-002
4633	20.676	5.0909	0.1	4.2768
4634	20.676	4.9091	0.1	9.5525
4635	20.676	4.7273	0.1	15.355
4636	20.676	4.5455	0.1	21.501
4637	20.676	4.3636	0.1	27.775
4638	20.676	4.1818	0.1	33.948
4639	20.676	4.	0.1	39.784
4640	20.676	3.8182	0.1	45.053
4641	20.676	3.6364	0.1	49.547
4642	20.676	3.4545	0.1	53.086
4643	20.676	3.2727	0.1	55.526
4644	20.676	3.0909	0.1	56.772
4645	20.676	2.9091	0.1	56.772
4646	20.676	2.7273	0.1	55.526
4647	20.676	2.5455	0.1	53.086
4648	20.676	2.3636	0.1	49.547
4649	20.676	2.1818	0.1	45.053
4650	20.676	2.	0.1	39.784
4651	20.676	1.8182	0.1	33.948
4652	20.676	1.6364	0.1	27.775
4653	20.676	1.4545	0.1	21.501
4654	20.676	1.2727	0.1	15.356
4655	20.676	1.0909	0.1	9.5526
4656	20.676	0.90909	0.1	4.2769
4657	20.676	0.72727	0.1	3.0162e-002
4658	20.676	0.54545	0.1	-1.7453e-002
4659	20.676	0.36364	0.1	-6.7018e-003
4660	20.676	0.18182	0.1	3.828e-004
4661	20.491	5.8182	0.1	4.9857e-004
4662	20.491	5.6364	0.1	-6.8776e-003
4663	20.491	5.4545	0.1	-1.2421e-002
4664	20.491	5.2727	0.1	1.3101
4665	20.491	5.0909	0.1	6.7501
4666	20.491	4.9091	0.1	13.048
4667	20.491	4.7273	0.1	19.993
4668	20.491	4.5455	0.1	27.352
4669	20.491	4.3636	0.1	34.861
4670	20.491	4.1818	0.1	42.241
4671	20.491	4.	0.1	49.206
4672	20.491	3.8182	0.1	55.484
4673	20.491	3.6364	0.1	60.828
4674	20.491	3.4545	0.1	65.029
4675	20.491	3.2727	0.1	67.922
4676	20.491	3.0909	0.1	69.397
4677	20.491	2.9091	0.1	69.397
4678	20.491	2.7273	0.1	67.922
4679	20.491	2.5455	0.1	65.029
4680	20.491	2.3636	0.1	60.828
4681	20.491	2.1818	0.1	55.484
4682	20.491	2.	0.1	49.206
4683	20.491	1.8182	0.1	42.241
4684	20.491	1.6364	0.1	34.861
4685	20.491	1.4545	0.1	27.352
4686	20.491	1.2727	0.1	19.993
4687	20.491	1.0909	0.1	13.048
4688	20.491	0.90909	0.1	6.7502
4689	20.491	0.72727	0.1	1.3101
4690	20.491	0.54545	0.1	-1.2422e-002
4691	20.491	0.36364	0.1	-6.8787e-003
4692	20.491	0.18182	0.1	4.9981e-004
4693	20.306	5.8182	0.1	9.2307e-004
4694	20.306	5.6364	0.1	-4.4117e-003
4695	20.306	5.4545	0.1	3.9319e-003
4696	20.306	5.2727	0.1	2.5438
4697	20.306	5.0909	0.1	8.8659
4698	20.306	4.9091	0.1	16.237
4699	20.306	4.7273	0.1	24.4
4700	20.306	4.5455	0.1	33.067
4701	20.306	4.3636	0.1	41.916
4702	20.306	4.1818	0.1	50.608
4703	20.306	4.	0.1	58.801
4704	20.306	3.8182	0.1	66.174
4705	20.306	3.6364	0.1	72.438
4706	20.306	3.4545	0.1	77.352
4707	20.306	3.2727	0.1	80.732
4708	20.306	3.0909	0.1	82.453
4709	20.306	2.9091	0.1	82.453
4710	20.306	2.7273	0.1	80.732
4711	20.306	2.5455	0.1	77.352
4712	20.306	2.3636	0.1	72.438
4713	20.306	2.1818	0.1	66.174
4714	20.306	2.	0.1	58.801
4715	20.306	1.8182	0.1	50.608
4716	20.306	1.6364	0.1	41.916
4717	20.306	1.4545	0.1	33.067
4718	20.306	1.2727	0.1	24.4
4719	20.306	1.0909	0.1	16.237
4720	20.306	0.90909	0.1	8.866
4721	20.306	0.72727	0.1	2.5438
4722	20.306	0.54545	0.1	3.9332e-003
4723	20.306	0.36364	0.1	-4.4097e-003
4724	20.306	0.18182	0.1	9.2494e-004
4725	20.122	5.8182	0.1	1.5231e-003
4726	20.122	5.6364	0.1	1.277e-003
4727	20.122	5.4545	0.1	3.4872e-002
4728	20.122	5.2727	0.1	3.3655
4729	20.122	5.0909	0.1	10.58
4730	20.122	4.9091	0.1	19.08
4731	20.122	4.7273	0.1	28.545
4732	20.122	4.5455	0.1	38.623
4733	20.122	4.3636	0.1	48.924
4734	20.122	4.1818	0.1	59.04
4735	20.122	4.	0.1	68.565
4736	20.122	3.8182	0.1	77.118
4737	20.122	3.6364	0.1	84.368
4738	20.122	3.4545	0.1	90.042
4739	20.122	3.2727	0.1	93.936
4740	20.122	3.0909	0.1	95.917
4741	20.122	2.9091	0.1	95.917
4742	20.122	2.7273	0.1	93.936
4743	20.122	2.5455	0.1	90.042
4744	20.122	2.3636	0.1	84.368
4745	20.122	2.1818	0.1	77.118
4746	20.122	2.	0.1	68.565
4747	20.122	1.8182	0.1	59.04
4748	20.122	1.6364	0.1	48.924
4749	20.122	1.4545	0.1	38.623
4750	20.122	1.2727	0.1	28.545
4751	20.122	1.0909	0.1	19.08
4752	20.122	0.90909	0.1	10.58
4753	20.122	0.72727	0.1	3.3656
4754	20.122	0.54545	0.1	3.4875e-002
4755	20.122	0.36364	0.1	1.2796e-003
4756	20.122	0.18182	0.1	1.5242e-003
4757	19.937	5.8182	0.1	2.1725e-003
4758	19.937	5.6364	0.1	1.0366e-002
4759	19.937	5.4545	0.1	7.2772e-002
4760	19.937	5.2727	0.1	3.7313
4761	19.937	5.0909	0.1	11.846
4762	19.937	4.9091	0.1	21.532
4763	19.937	4.7273	0.1	32.388
4764	19.937	4.5455	0.1	43.987
4765	19.937	4.3636	0.1	55.86
4766	19.937	4.1818	0.1	67.516
4767	19.937	4.	0.1	78.473
4768	19.937	3.8182	0.1	88.288
4769	19.937	3.6364	0.1	96.578
4770	19.937	3.4545	0.1	103.04
4771	19.937	3.2727	0.1	107.47
4772	19.937	3.0909	0.1	109.71
4773	19.937	2.9091	0.1	109.71
4774	19.937	2.7273	0.1	107.47
4775	19.937	2.5455	0.1	103.04
4776	19.937	2.3636	0.1	96.578
4777	19.937	2.1818	0.1	88.287
4778	19.937	2.	0.1	78.473
4779	19.937	1.8182	0.1	67.516
4780	19.937	1.6364	0.1	55.86
4781	19.937	1.4545	0.1	43.987
4782	19.937	1.2727	0.1	32.388
4783	19.937	1.0909	0.1	21.532
4784	19.937	0.90909	0.1	11.846
4785	19.937	0.72727	0.1	3.7314
4786	19.937	0.54545	0.1	7.2773e-002
4787	19.937	0.36364	0.1	1.0368e-002
4788	19.937	0.18182	0.1	2.1726e-003
4789	19.752	5.8182	0.1	2.7236e-003
4790	19.752	5.6364	0.1	2.2652e-002
4791	19.752	5.4545	0.1	0.10682
4792	19.752	5.2727	0.1	3.6165
4793	19.752	5.0909	0.1	12.616
4794	19.752	4.9091	0.1	23.54
4795	19.752	4.7273	0.1	35.875
4796	19.752	4.5455	0.1	49.107
4797	19.752	4.3636	0.1	62.675
4798	19.752	4.1818	0.1	75.989
4799	19.752	4.	0.1	88.476
4800	19.752	3.8182	0.1	99.617
4801	19.752	3.6364	0.1	108.98
4802	19.752	3.4545	0.1	116.25
4803	19.752	3.2727	0.1	121.19
4804	19.752	3.0909	0.1	123.7
4805	19.752	2.9091	0.1	123.7
4806	19.752	2.7273	0.1	121.19
4807	19.752	2.5455	0.1	116.25
4808	19.752	2.3636	0.1	108.98
4809	19.752	2.1818	0.1	99.616
4810	19.752	2.	0.1	88.476
4811	19.752	1.8182	0.1	75.989
4812	19.752	1.6364	0.1	62.675
4813	19.752	1.4545	0.1	49.107
4814	19.752	1.2727	0.1	35.875
4815	19.752	1.0909	0.1	23.54
4816	19.752	0.90909	0.1	12.616
4817	19.752	0.72727	0.1	3.6165
4818	19.752	0.54545	0.1	0.10682
4819	19.752	0.36364	0.1	2.2653e-002
4820	19.752	0.18182	0.1	2.725e-003
4821	19.568	5.8182	0.1	3.089e-003
4822	19.568	5.6364	0.1	3.7959e-002
4823	19.568	5.4545	0.1	0.13544
4824	19.568	5.2727	0.1	3.0438
4825	19.568	5.0909	0.1	12.84
4826	19.568	4.9091	0.1	25.038
4827	19.568	4.7273	0.1	38.929
4828	19.568	4.5455	0.1	53.905
4829	19.568	4.3636	0.1	69.29
4830	19.568	4.1818	0.1	84.377
4831	19.568	4.	0.1	98.478
4832	19.568	3.8182	0.1	110.99
4833	19.568	3.6364	0.1	121.42
4834	19.568	3.4545	0.1	129.45
4835	19.568	3.2727	0.1	134.88
4836	19.568	3.0909	0.1	137.62
4837	19.568	2.9091	0.1	137.62
4838	19.568	2.7273	0.1	134.88
4839	19.568	2.5455	0.1	129.45
4840	19.568	2.3636	0.1	121.42
4841	19.568	2.1818	0.1	110.99
4842	19.568	2.	0.1	98.478
4843	19.568	1.8182	0.1	84.377
4844	19.568	1.6364	0.1	69.29
4845	19.568	1.4545	0.1	53.905
4846	19.568	1.2727	0.1	38.929
4847	19.568	1.0909	0.1	25.038
4848	19.568	0.90909	0.1	12.84
4849	19.568	0.72727	0.1	3.0439
4850	19.568	0.54545	0.1	0.13544
4851	19.568	0.36364	0.1	3.7961e-002
4852	19.568	0.18182	0.1	3.09e-003
4853	19.383	5.8182	0.1	3.3045e-003
4854	19.383	5.6364	0.1	5.6528e-002
4855	19.383	5.4545	0.1	0.16333
4856	19.383	5.2727	0.1	2.1794
4857	19.383	5.0909	0.1	12.466
4858	19.383	4.9091	0.1	25.932
4859	19.383	4.7273	0.1	41.434
4860	19.383	4.5455	0.1	58.248
4861	19.383	4.3636	0.1	75.57
4862	19.383	4.1818	0.1	92.539
4863	19.383	4.	0.1	108.32
4864	19.383	3.8182	0.1	122.2
4865	19.383	3.6364	0.1	133.65
4866	19.383	3.4545	0.1	142.35
4867	19.383	3.2727	0.1	148.16
4868	19.383	3.0909	0.1	151.06
4869	19.383	2.9091	0.1	151.06
4870	19.383	2.7273	0.1	148.16
4871	19.383	2.5455	0.1	142.35
4872	19.383	2.3636	0.1	133.65
4873	19.383	2.1818	0.1	122.2
4874	19.383	2.	0.1	108.32
4875	19.383	1.8182	0.1	92.539
4876	19.383	1.6364	0.1	75.569
4877	19.383	1.4545	0.1	58.248
4878	19.383	1.2727	0.1	41.434
4879	19.383	1.0909	0.1	25.932
4880	19.383	0.90909	0.1	12.466
4881	19.383	0.72727	0.1	2.1794
4882	19.383	0.54545	0.1	0.16333
4883	19.383	0.36364	0.1	5.653e-002
4884	19.383	0.18182	0.1	3.3051e-003
4885	19.198	5.8182	0.1	3.7108e-003
4886	19.198	5.6364	0.1	7.9267e-002
4887	19.198	5.4545	0.1	0.1961
4888	19.198	5.2727	0.1	1.4436
4889	19.198	5.0909	0.1	11.439
4890	19.198	4.9091	0.1	26.083
4891	19.198	4.7273	0.1	43.195
4892	19.198	4.5455	0.1	61.916
4893	19.198	4.3636	0.1	81.284
4894	19.198	4.1818	0.1	100.24
4895	19.198	4.	0.1	117.76
4896	19.198	3.8182	0.1	132.96
4897	19.198	3.6364	0.1	145.27
4898	19.198	3.4545	0.1	154.43
4899	19.198	3.2727	0.1	160.43
4900	19.198	3.0909	0.1	163.38
4901	19.198	2.9091	0.1	163.38
4902	19.198	2.7273	0.1	160.43
4903	19.198	2.5455	0.1	154.43
4904	19.198	2.3636	0.1	145.27
4905	19.198	2.1818	0.1	132.96
4906	19.198	2.	0.1	117.76
4907	19.198	1.8182	0.1	100.24
4908	19.198	1.6364	0.1	81.283
4909	19.198	1.4545	0.1	61.916
4910	19.198	1.2727	0.1	43.195
4911	19.198	1.0909	0.1	26.083
4912	19.198	0.90909	0.1	11.439
4913	19.198	0.72727	0.1	1.4436
4914	19.198	0.54545	0.1	0.1961
4915	19.198	0.36364	0.1	7.9267e-002
4916	19.198	0.18182	0.1	3.7124e-003
4917	19.014	5.8182	0.1	5.2251e-003
4918	19.014	5.6364	0.1	0.10789
4919	19.014	5.4545	0.1	0.23924
4920	19.014	5.2727	0.1	1.0889
4921	19.014	5.0909	0.1	9.7111
4922	19.014	4.9091	0.1	25.264
4923	19.014	4.7273	0.1	43.881
4924	19.014	4.5455	0.1	64.522
4925	19.014	4.3636	0.1	86.036
4926	19.014	4.1818	0.1	107.09
4927	19.014	4.	0.1	126.37
4928	19.014	3.8182	0.1	142.77
4929	19.014	3.6364	0.1	155.68
4930	19.014	3.4545	0.1	164.94
4931	19.014	3.2727	0.1	170.8
4932	19.014	3.0909	0.1	173.6
4933	19.014	2.9091	0.1	173.6
4934	19.014	2.7273	0.1	170.8
4935	19.014	2.5455	0.1	164.94
4936	19.014	2.3636	0.1	155.68
4937	19.014	2.1818	0.1	142.77
4938	19.014	2.	0.1	126.37
4939	19.014	1.8182	0.1	107.09
4940	19.014	1.6364	0.1	86.036
4941	19.014	1.4545	0.1	64.522
4942	19.014	1.2727	0.1	43.881
4943	19.014	1.0909	0.1	25.264
4944	19.014	0.90909	0.1	9.7111
4945	19.014	0.72727	0.1	1.0889
4946	19.014	0.54545	0.1	0.23924
4947	19.014	0.36364	0.1	0.10789
4948	19.014	0.18182	0.1	5.2256e-003
4949	18.829	5.8182	0.1	1.0155e-002
4950	18.829	5.6364	0.1	0.14553
4951	18.829	5.4545	0.1	0.29925
4952	18.829	5.2727	0.1	0.9738
4953	18.829	5.0909	0.1	7.3121
4954	18.829	4.9091	0.1	23.097
4955	18.829	4.7273	0.1	42.919
4956	18.829	4.5455	0.1	65.393
4957	18.829	4.3636	0.1	89.143
4958	18.829	4.1818	0.1	112.45
4959	18.829	4.	0.1	133.52
4960	18.829	3.8182	0.1	150.93
4961	18.829	3.6364	0.1	163.97
4962	18.829	3.4545	0.1	172.75
4963	18.829	3.2727	0.1	177.91
4964	18.829	3.0909	0.1	180.25
4965	18.829	2.9091	0.1	180.25
4966	18.829	2.7273	0.1	177.91
4967	18.829	2.5455	0.1	172.75
4968	18.829	2.3636	0.1	163.97
4969	18.829	2.1818	0.1	150.93
4970	18.829	2.	0.1	133.52
4971	18.829	1.8182	0.1	112.45
4972	18.829	1.6364	0.1	89.143
4973	18.829	1.4545	0.1	65.393
4974	18.829	1.2727	0.1	42.919
4975	18.829	1.0909	0.1	23.097
4976	18.829	0.90909	0.1	7.3121
4977	18.829	0.72727	0.1	0.9738
4978	18.829	0.54545	0.1	0.29925
4979	18.829	0.36364	0.1	0.14553
4980	18.829	0.18182	0.1	1.0155e-002
4981	18.644	5.8182	0.1	2.367e-002
4982	18.644	5.6364	0.1	0.19796
4983	18.644	5.4545	0.1	0.38533
4984	18.644	5.2727	0.1	0.97712
4985	18.644	5.0909	0.1	4.6848
4986	18.644	4.9091	0.1	18.987
4987	18.644	4.7273	0.1	39.316
4988	18.644	4.5455	0.1	63.351
4989	18.644	4.3636	0.1	89.423
4990	18.644	4.1818	0.1	115.23
4991	18.644	4.	0.1	138.21
4992	18.644	3.8182	0.1	156.33
4993	18.644	3.6364	0.1	168.79
4994	18.644	3.4545	0.1	176.14
4995	18.644	3.2727	0.1	179.76
4996	18.644	3.0909	0.1	181.11
4997	18.644	2.9091	0.1	181.11
4998	18.644	2.7273	0.1	179.76
4999	18.644	2.5455	0.1	176.14
5000	18.644	2.3636	0.1	168.79
5001	18.644	2.1818	0.1	156.33
5002	18.644	2.	0.1	138.21
5003	18.644	1.8182	0.1	115.23
5004	18.644	1.6364	0.1	89.423
5005	18.644	1.4545	0.1	63.35
5006	18.644	1.2727	0.1	39.316
5007	18.644	1.0909	0.1	18.987
5008	18.644	0.90909	0.1	4.6847
5009	18.644	0.72727	0.1	0.97711
5010	18.644	0.54545	0.1	0.38533
5011	18.644	0.36364	0.1	0.19796
5012	18.644	0.18182	0.1	2.367e-002
5013	18.459	5.8182	0.1	5.79e-002
5014	18.459	5.6364	0.1	0.27761
5015	18.459	5.4545	0.1	0.51278
5016	18.459	5.2727	0.1	1.0535
5017	18.459	5.0909	0.1	2.8992
5018	18.459	4.9091	0.1	12.312
5019	18.459	4.7273	0.1	31.447
5020	18.459	4.5455	0.1	56.363
5021	18.459	4.3636	0.1	84.833
5022	18.459	4.1818	0.1	113.64
5023	18.459	4.	0.1	138.86
5024	18.459	3.8182	0.1	157.36
5025	18.459	3.6364	0.1	168.16
5026	18.459	3.4545	0.1	172.61
5027	18.459	3.2727	0.1	173.37
5028	18.459	3.0909	0.1	173.01
5029	18.459	2.9091	0.1	173.01
5030	18.459	2.7273	0.1	173.37
5031	18.459	2.5455	0.1	172.61
5032	18.459	2.3636	0.1	168.16
5033	18.459	2.1818	0.1	157.36
5034	18.459	2.	0.1	138.86
5035	18.459	1.8182	0.1	113.64
5036	18.459	1.6364	0.1	84.832
5037	18.459	1.4545	0.1	56.362
5038	18.459	1.2727	0.1	31.447
5039	18.459	1.0909	0.1	12.312
5040	18.459	0.90909	0.1	2.8991
5041	18.459	0.72727	0.1	1.0535
5042	18.459	0.54545	0.1	0.51279
5043	18.459	0.36364	0.1	0.27761
5044	18.459	0.18182	0.1	5.7899e-002
5045	18.275	5.8182	0.1	0.13581
5046	18.275	5.6364	0.1	0.40816
5047	18.275	5.4545	0.1	0.70321
5048	18.275	5.2727	0.1	1.1822
5049	18.275	5.0909	0.1	2.1083
5050	18.275	4.9091	0.1	5.1382
5051	18.275	4.7273	0.1	17.379
5052	18.275	4.5455	0.1	41.083
5053	18.275	4.3636	0.1	71.821
5054	18.275	4.1818	0.1	104.61
5055	18.275	4.	0.1	132.95
5056	18.275	3.8182	0.1	151.54
5057	18.275	3.6364	0.1	159.08
5058	18.275	3.4545	0.1	158.47
5059	18.275	3.2727	0.1	154.54
5060	18.275	3.0909	0.1	151.46
5061	18.275	2.9091	0.1	151.46
5062	18.275	2.7273	0.1	154.54
5063	18.275	2.5455	0.1	158.47
5064	18.275	2.3636	0.1	159.08
5065	18.275	2.1818	0.1	151.54
5066	18.275	2.	0.1	132.95
5067	18.275	1.8182	0.1	104.61
5068	18.275	1.6364	0.1	71.821
5069	18.275	1.4545	0.1	41.082
5070	18.275	1.2727	0.1	17.378
5071	18.275	1.0909	0.1	5.1382
5072	18.275	0.90909	0.1	2.1083
5073	18.275	0.72727	0.1	1.1822
5074	18.275	0.54545	0.1	0.70321
5075	18.275	0.36364	0.1	0.40816
5076	18.275	0.18182	0.1	0.13581
5077	18.09	5.8182	0.1	0.31953
5078	18.09	5.6364	0.1	0.65495
5079	18.09	5.4545	0.1	1.0008
5080	18.09	5.2727	0.1	1.3558
5081	18.09	5.0909	0.1	1.7845
5082	18.09	4.9091	0.1	2.5254
5083	18.09	4.7273	0.1	4.5764
5084	18.09	4.5455	0.1	14.915
5085	18.09	4.3636	0.1	44.693
5086	18.09	4.1818	0.1	82.973
5087	18.09	4.	0.1	116.61
5088	18.09	3.8182	0.1	135.28
5089	18.09	3.6364	0.1	137.09
5090	18.09	3.4545	0.1	128.36
5091	18.09	3.2727	0.1	117.5
5092	18.09	3.0909	0.1	110.67
5093	18.09	2.9091	0.1	110.67
5094	18.09	2.7273	0.1	117.5
5095	18.09	2.5455	0.1	128.36
5096	18.09	2.3636	0.1	137.09
5097	18.09	2.1818	0.1	135.28
5098	18.09	2.	0.1	116.61
5099	18.09	1.8182	0.1	82.973
5100	18.09	1.6364	0.1	44.693
5101	18.09	1.4545	0.1	14.915
5102	18.09	1.2727	0.1	4.5764
5103	18.09	1.0909	0.1	2.5254
5104	18.09	0.90909	0.1	1.7845
5105	18.09	0.72727	0.1	1.3558
5106	18.09	0.54545	0.1	1.0008
5107	18.09	0.36364	0.1	0.65495
5108	18.09	0.18182	0.1	0.31953
5109	17.905	5.8182	0.1	0.69367
5110	17.905	5.6364	0.1	1.1063
5111	17.905	5.4545	0.1	1.3973
5112	17.905	5.2727	0.1	1.5021
5113	17.905	5.0909	0.1	1.6066
5114	17.905	4.9091	0.1	1.8096
5115	17.905	4.7273	0.1	2.2992
5116	17.905	4.5455	0.1	3.4491
5117	17.905	4.3636	0.1	7.831
5118	17.905	4.1818	0.1	39.892
5119	17.905	4.	0.1	82.494
5120	17.905	3.8182	0.1	102.21
5121	17.905	3.6364	0.1	95.314
5122	17.905	3.4545	0.1	74.73
5123	17.905	3.2727	0.1	55.243
5124	17.905	3.0909	0.1	44.337
5125	17.905	2.9091	0.1	44.337
5126	17.905	2.7273	0.1	55.243
5127	17.905	2.5455	0.1	74.73
5128	17.905	2.3636	0.1	95.314
5129	17.905	2.1818	0.1	102.21
5130	17.905	2.	0.1	82.494
5131	17.905	1.8182	0.1	39.892
5132	17.905	1.6364	0.1	7.831
5133	17.905	1.4545	0.1	3.449
5134	17.905	1.2727	0.1	2.2992
5135	17.905	1.0909	0.1	1.8096
5136	17.905	0.90909	0.1	1.6066
5137	17.905	0.72727	0.1	1.5021
5138	17.905	0.54545	0.1	1.3973
5139	17.905	0.36364	0.1	1.1063
5140	17.905	0.18182	0.1	0.69367
5141	17.721	5.8182	0.1	1.685
5142	17.721	5.6364	0.1	2.1075
5143	17.721	5.4545	0.1	1.977
5144	17.721	5.2727	0.1	1.7289
5145	17.721	5.0909	0.1	1.6509
5146	17.721	4.9091	0.1	1.8096
5147	17.721	4.7273	0.1	2.0819
5148	17.721	4.5455	0.1	2.5154
5149	17.721	4.3636	0.1	5.5637
5150	17.721	4.1818	0.1	6.1181
5151	17.721	4.	0.1	21.968
5152	17.721	3.8182	0.1	44.362
5153	17.721	3.6364	0.1	24.906
5154	17.721	3.4545	0.1	3.7583
5155	17.721	3.2727	0.1	0.15216
5156	17.721	3.0909	0.1	-0.40959
5157	17.721	2.9091	0.1	-0.40959
5158	17.721	2.7273	0.1	0.15215
5159	17.721	2.5455	0.1	3.7583
5160	17.721	2.3636	0.1	24.906
5161	17.721	2.1818	0.1	44.362
5162	17.721	2.	0.1	21.968
5163	17.721	1.8182	0.1	6.1181
5164	17.721	1.6364	0.1	5.5637
5165	17.721	1.4545	0.1	2.5154
5166	17.721	1.2727	0.1	2.0819
5167	17.721	1.0909	0.1	1.8096
5168	17.721	0.90909	0.1	1.6509
5169	17.721	0.72727	0.1	1.7289
5170	17.721	0.54545	0.1	1.977
5171	17.721	0.36364	0.1	2.1075
5172	17.721	0.18182	0.1	1.685
5173	17.536	5.8182	0.1	3.2718
5174	17.536	5.6364	0.1	2.8457
5175	17.536	5.4545	0.1	1.7967
5176	17.536	5.2727	0.1	1.1703
5177	17.536	5.0909	0.1	0.95581
5178	17.536	4.9091	0.1	0.8542
5179	17.536	4.7273	0.1	1.0609
5180	17.536	4.5455	0.1	1.6649
5181	17.536	4.3636	0.1	0.83217
5182	17.536	4.1818	0.1	-0.73391
5183	17.536	4.	0.1	-30.436
5184	17.536	3.8182	0.1	-9.6554
5185	17.536	3.6364	0.1	6.5337
5186	17.536	3.4545	0.1	0.5052
5187	17.536	3.2727	0.1	8.8054e-002
5188	17.536	3.0909	0.1	-6.7679e-002
5189	17.536	2.9091	0.1	-6.7679e-002
5190	17.536	2.7273	0.1	8.8053e-002
5191	17.536	2.5455	0.1	0.5052
5192	17.536	2.3636	0.1	6.5336
5193	17.536	2.1818	0.1	-9.6554
5194	17.536	2.	0.1	-30.436
5195	17.536	1.8182	0.1	-0.73392
5196	17.536	1.6364	0.1	0.83216
5197	17.536	1.4545	0.1	1.6649
5198	17.536	1.2727	0.1	1.0609
5199	17.536	1.0909	0.1	0.8542
5200	17.536	0.90909	0.1	0.95581
5201	17.536	0.72727	0.1	1.1703
5202	17.536	0.54545	0.1	1.7967
5203	17.536	0.36364	0.1	2.8457
5204	17.536	0.18182	0.1	3.2718
5205	17.351	5.8182	0.1	8.6262
5206	17.351	5.6364	0.1	4.4954
5207	17.351	5.4545	0.1	3.4198
5208	17.351	5.2727	0.1	3.0525
5209	17.351	5.0909	0.1	3.0918
5210	17.351	4.9091	0.1	3.8522
5211	17.351	4.7273	0.1	3.6365
5212	17.351	4.5455	0.1	9.7727
5213	17.351	4.3636	0.1	-1.2539
5214	17.351	4.1818	0.1	60.689
5215	17.351	4.	0.1	206.69
5216	17.351	3.8182	0.1	22.136
5217	17.351	3.6364	0.1	7.3324
5218	17.351	3.4545	0.1	-1.6423
5219	17.351	3.2727	0.1	1.0596
5220	17.351	3.0909	0.1	2.3221e-003
5221	17.351	2.9091	0.1	2.3224e-003
5222	17.351	2.7273	0.1	1.0596
5223	17.351	2.5455	0.1	-1.6423
5224	17.351	2.3636	0.1	7.3324
5225	17.351	2.1818	0.1	22.136
5226	17.351	2.	0.1	206.69
5227	17.351	1.8182	0.1	60.689
5228	17.351	1.6364	0.1	-1.2539
5229	17.351	1.4545	0.1	9.7727
5230	17.351	1.2727	0.1	3.6365
5231	17.351	1.0909	0.1	3.8522
5232	17.351	0.90909	0.1	3.0918
5233	17.351	0.72727	0.1	3.0525
5234	17.351	0.54545	0.1	3.4198
5235	17.351	0.36364	0.1	4.4954
5236	17.351	0.18182	0.1	8.6262
5237	0.18478	0.18182	0.1	-2.2645
5238	0.18478	0.36364	0.1	819.
5239	0.18478	0.54545	0.1	1255.6
5240	0.18478	0.72727	0.1	1505.6
5241	0.18478	0.90909	0.1	1663.1
5242	0.18478	1.0909	0.1	1771.7
5243	0.18478	1.2727	0.1	1850.5
5244	0.18478	1.4545	0.1	1909.6
5245	0.18478	1.6364	0.1	1954.8
5246	0.18478	1.8182	0.1	1989.7
5247	0.18478	2.	0.1	2016.8
5248	0.18478	2.1818	0.1	2037.5
5249	0.18478	2.3636	0.1	2053.
5250	0.18478	2.5455	0.1	2064.
5251	0.18478	2.7273	0.1	2071.1
5252	0.18478	2.9091	0.1	2074.6
5253	0.18478	3.0909	0.1	2074.6
5254	0.18478	3.2727	0.1	2071.1
5255	0.18478	3.4545	0.1	2064.
5256	0.18478	3.6364	0.1	2053.
5257	0.18478	3.8182	0.1	2037.5
5258	0.18478	4.	0.1	2016.8
5259	0.18478	4.1818	0.1	1989.7
5260	0.18478	4.3636	0.1	1954.8
5261	0.18478	4.5455	0.1	1909.6
5262	0.18478	4.7273	0.1	1850.5
5263	0.18478	4.9091	0.1	1771.7
5264	0.18478	5.0909	0.1	1663.1
5265	0.18478	5.2727	0.1	1505.6
5266	0.18478	5.4545	0.1	1255.6
5267	0.18478	5.6364	0.1	819.
5268	0.18478	5.8182	0.1	-2.2645
5269	0.36957	0.18182	0.1	81.498
5270	0.36957	0.36364	0.1	657.84
5271	0.36957	0.54545	0.1	1216.4
5272	0.36957	0.72727	0.1	1589.9
5273	0.36957	0.90909	0.1	1838.1
5274	0.36957	1.0909	0.1	2008.3
5275	0.36957	1.2727	0.1	2130.
5276	0.36957	1.4545	0.1	2219.8
5277	0.36957	1.6364	0.1	2287.5
5278	0.36957	1.8182	0.1	2339.3
5279	0.36957	2.	0.1	2379.1
5280	0.36957	2.1818	0.1	2409.4
5281	0.36957	2.3636	0.1	2431.9
5282	0.36957	2.5455	0.1	2448.
5283	0.36957	2.7273	0.1	2458.3
5284	0.36957	2.9091	0.1	2463.3
5285	0.36957	3.0909	0.1	2463.3
5286	0.36957	3.2727	0.1	2458.3
5287	0.36957	3.4545	0.1	2448.
5288	0.36957	3.6364	0.1	2431.9
5289	0.36957	3.8182	0.1	2409.4
5290	0.36957	4.	0.1	2379.1
5291	0.36957	4.1818	0.1	2339.3
5292	0.36957	4.3636	0.1	2287.5
5293	0.36957	4.5455	0.1	2219.8
5294	0.36957	4.7273	0.1	2130.
5295	0.36957	4.9091	0.1	2008.3
5296	0.36957	5.0909	0.1	1838.1
5297	0.36957	5.2727	0.1	1589.9
5298	0.36957	5.4545	0.1	1216.4
5299	0.36957	5.6364	0.1	657.84
5300	0.36957	5.8182	0.1	81.498
5301	0.55435	0.18182	0.1	0.66672
5302	0.55435	0.36364	0.1	410.77
5303	0.55435	0.54545	0.1	857.86
5304	0.55435	0.72727	0.1	1220.7
5305	0.55435	0.90909	0.1	1491.9
5306	0.55435	1.0909	0.1	1690.
5307	0.55435	1.2727	0.1	1835.4
5308	0.55435	1.4545	0.1	1943.8
5309	0.55435	1.6364	0.1	2025.7
5310	0.55435	1.8182	0.1	2088.2
5311	0.55435	2.	0.1	2136.
5312	0.55435	2.1818	0.1	2172.2
5313	0.55435	2.3636	0.1	2199.2
5314	0.55435	2.5455	0.1	2218.3
5315	0.55435	2.7273	0.1	2230.6
5316	0.55435	2.9091	0.1	2236.5
5317	0.55435	3.0909	0.1	2236.5
5318	0.55435	3.2727	0.1	2230.6
5319	0.55435	3.4545	0.1	2218.3
5320	0.55435	3.6364	0.1	2199.2
5321	0.55435	3.8182	0.1	2172.2
5322	0.55435	4.	0.1	2136.
5323	0.55435	4.1818	0.1	2088.2
5324	0.55435	4.3636	0.1	2025.7
5325	0.55435	4.5455	0.1	1943.8
5326	0.55435	4.7273	0.1	1835.4
5327	0.55435	4.9091	0.1	1690.
5328	0.55435	5.0909	0.1	1491.9
5329	0.55435	5.2727	0.1	1220.7
5330	0.55435	5.4545	0.1	857.86
5331	0.55435	5.6364	0.1	410.77
5332	0.55435	5.8182	0.1	0.66673
5333	0.73913	0.18182	0.1	18.391
5334	0.73913	0.36364	0.1	336.77
5335	0.73913	0.54545	0.1	705.06
5336	0.73913	0.72727	0.1	1034.6
5337	0.73913	0.90909	0.1	1305.9
5338	0.73913	1.0909	0.1	1519.1
5339	0.73913	1.2727	0.1	1683.6
5340	0.73913	1.4545	0.1	1809.9
5341	0.73913	1.6364	0.1	1907.1
5342	0.73913	1.8182	0.1	1981.9
5343	0.73913	2.	0.1	2039.5
5344	0.73913	2.1818	0.1	2083.3
5345	0.73913	2.3636	0.1	2115.9
5346	0.73913	2.5455	0.1	2139.
5347	0.73913	2.7273	0.1	2153.8
5348	0.73913	2.9091	0.1	2161.
5349	0.73913	3.0909	0.1	2161.
5350	0.73913	3.2727	0.1	2153.8
5351	0.73913	3.4545	0.1	2139.
5352	0.73913	3.6364	0.1	2115.9
5353	0.73913	3.8182	0.1	2083.3
5354	0.73913	4.	0.1	2039.5
5355	0.73913	4.1818	0.1	1981.9
5356	0.73913	4.3636	0.1	1907.1
5357	0.73913	4.5455	0.1	1809.9
5358	0.73913	4.7273	0.1	1683.6
5359	0.73913	4.9091	0.1	1519.1
5360	0.73913	5.0909	0.1	1305.9
5361	0.73913	5.2727	0.1	1034.6
5362	0.73913	5.4545	0.1	705.06
5363	0.73913	5.6364	0.1	336.77
5364	0.73913	5.8182	0.1	18.391
5365	0.92391	0.18182	0.1	14.367
5366	0.92391	0.36364	0.1	283.39
5367	0.92391	0.54545	0.1	587.09
5368	0.92391	0.72727	0.1	874.07
5369	0.92391	0.90909	0.1	1126.6
5370	0.92391	1.0909	0.1	1337.6
5371	0.92391	1.2727	0.1	1508.7
5372	0.92391	1.4545	0.1	1645.1
5373	0.92391	1.6364	0.1	1752.8
5374	0.92391	1.8182	0.1	1837.3
5375	0.92391	2.	0.1	1903.1
5376	0.92391	2.1818	0.1	1953.6
5377	0.92391	2.3636	0.1	1991.3
5378	0.92391	2.5455	0.1	2018.2
5379	0.92391	2.7273	0.1	2035.4
5380	0.92391	2.9091	0.1	2043.9
5381	0.92391	3.0909	0.1	2043.9
5382	0.92391	3.2727	0.1	2035.4
5383	0.92391	3.4545	0.1	2018.2
5384	0.92391	3.6364	0.1	1991.3
5385	0.92391	3.8182	0.1	1953.6
5386	0.92391	4.	0.1	1903.1
5387	0.92391	4.1818	0.1	1837.3
5388	0.92391	4.3636	0.1	1752.8
5389	0.92391	4.5455	0.1	1645.1
5390	0.92391	4.7273	0.1	1508.7
5391	0.92391	4.9091	0.1	1337.6
5392	0.92391	5.0909	0.1	1126.6
5393	0.92391	5.2727	0.1	874.07
5394	0.92391	5.4545	0.1	587.09
5395	0.92391	5.6364	0.1	283.39
5396	0.92391	5.8182	0.1	14.367
5397	1.1087	0.18182	0.1	17.592
5398	1.1087	0.36364	0.1	253.66
5399	1.1087	0.54545	0.1	511.24
5400	1.1087	0.72727	0.1	761.23
5401	1.1087	0.90909	0.1	990.57
5402	1.1087	1.0909	0.1	1191.1
5403	1.1087	1.2727	0.1	1360.6
5404	1.1087	1.4545	0.1	1500.6
5405	1.1087	1.6364	0.1	1614.3
5406	1.1087	1.8182	0.1	1705.5
5407	1.1087	2.	0.1	1777.6
5408	1.1087	2.1818	0.1	1833.6
5409	1.1087	2.3636	0.1	1875.8
5410	1.1087	2.5455	0.1	1906.
5411	1.1087	2.7273	0.1	1925.5
5412	1.1087	2.9091	0.1	1935.
5413	1.1087	3.0909	0.1	1935.
5414	1.1087	3.2727	0.1	1925.5
5415	1.1087	3.4545	0.1	1906.
5416	1.1087	3.6364	0.1	1875.8
5417	1.1087	3.8182	0.1	1833.6
5418	1.1087	4.	0.1	1777.6
5419	1.1087	4.1818	0.1	1705.5
5420	1.1087	4.3636	0.1	1614.3
5421	1.1087	4.5455	0.1	1500.6
5422	1.1087	4.7273	0.1	1360.6
5423	1.1087	4.9091	0.1	1191.1
5424	1.1087	5.0909	0.1	990.57
5425	1.1087	5.2727	0.1	761.23
5426	1.1087	5.4545	0.1	511.24
5427	1.1087	5.6364	0.1	253.66
5428	1.1087	5.8182	0.1	17.592
5429	1.2935	0.18182	0.1	20.87
5430	1.2935	0.36364	0.1	232.42
5431	1.2935	0.54545	0.1	454.87
5432	1.2935	0.72727	0.1	673.81
5433	1.2935	0.90909	0.1	880.05
5434	1.2935	1.0909	0.1	1066.3
5435	1.2935	1.2727	0.1	1228.9
5436	1.2935	1.4545	0.1	1367.3
5437	1.2935	1.6364	0.1	1482.7
5438	1.2935	1.8182	0.1	1577.2
5439	1.2935	2.	0.1	1653.3
5440	1.2935	2.1818	0.1	1713.2
5441	1.2935	2.3636	0.1	1758.8
5442	1.2935	2.5455	0.1	1791.6
5443	1.2935	2.7273	0.1	1812.9
5444	1.2935	2.9091	0.1	1823.4
5445	1.2935	3.0909	0.1	1823.4
5446	1.2935	3.2727	0.1	1812.9
5447	1.2935	3.4545	0.1	1791.6
5448	1.2935	3.6364	0.1	1758.8
5449	1.2935	3.8182	0.1	1713.2
5450	1.2935	4.	0.1	1653.3
5451	1.2935	4.1818	0.1	1577.2
5452	1.2935	4.3636	0.1	1482.7
5453	1.2935	4.5455	0.1	1367.3
5454	1.2935	4.7273	0.1	1228.9
5455	1.2935	4.9091	0.1	1066.3
5456	1.2935	5.0909	0.1	880.05
5457	1.2935	5.2727	0.1	673.81
5458	1.2935	5.4545	0.1	454.87
5459	1.2935	5.6364	0.1	232.42
5460	1.2935	5.8182	0.1	20.87
5461	1.4783	0.18182	0.1	25.77
5462	1.4783	0.36364	0.1	216.84
5463	1.4783	0.54545	0.1	412.04
5464	1.4783	0.72727	0.1	605.49
5465	1.4783	0.90909	0.1	790.72
5466	1.4783	1.0909	0.1	961.75
5467	1.4783	1.2727	0.1	1114.8
5468	1.4783	1.4545	0.1	1248.3
5469	1.4783	1.6364	0.1	1362.1
5470	1.4783	1.8182	0.1	1457.2
5471	1.4783	2.	0.1	1535.
5472	1.4783	2.1818	0.1	1597.1
5473	1.4783	2.3636	0.1	1644.8
5474	1.4783	2.5455	0.1	1679.5
5475	1.4783	2.7273	0.1	1702.1
5476	1.4783	2.9091	0.1	1713.2
5477	1.4783	3.0909	0.1	1713.2
5478	1.4783	3.2727	0.1	1702.1
5479	1.4783	3.4545	0.1	1679.5
5480	1.4783	3.6364	0.1	1644.8
5481	1.4783	3.8182	0.1	1597.1
5482	1.4783	4.	0.1	1535.
5483	1.4783	4.1818	0.1	1457.2
5484	1.4783	4.3636	0.1	1362.1
5485	1.4783	4.5455	0.1	1248.3
5486	1.4783	4.7273	0.1	1114.8
5487	1.4783	4.9091	0.1	961.75
5488	1.4783	5.0909	0.1	790.72
5489	1.4783	5.2727	0.1	605.49
5490	1.4783	5.4545	0.1	412.04
5491	1.4783	5.6364	0.1	216.84
5492	1.4783	5.8182	0.1	25.77
5493	1.663	0.18182	0.1	31.227
5494	1.663	0.36364	0.1	204.26
5495	1.663	0.54545	0.1	377.6
5496	1.663	0.72727	0.1	549.9
5497	1.663	0.90909	0.1	716.58
5498	1.663	1.0909	0.1	872.87
5499	1.663	1.2727	0.1	1015.3
5500	1.663	1.4545	0.1	1141.9
5501	1.663	1.6364	0.1	1251.9
5502	1.663	1.8182	0.1	1345.4
5503	1.663	2.	0.1	1422.9
5504	1.663	2.1818	0.1	1485.6
5505	1.663	2.3636	0.1	1534.3
5506	1.663	2.5455	0.1	1570.
5507	1.663	2.7273	0.1	1593.3
5508	1.663	2.9091	0.1	1604.9
5509	1.663	3.0909	0.1	1604.9
5510	1.663	3.2727	0.1	1593.3
5511	1.663	3.4545	0.1	1570.
5512	1.663	3.6364	0.1	1534.3
5513	1.663	3.8182	0.1	1485.6
5514	1.663	4.	0.1	1422.9
5515	1.663	4.1818	0.1	1345.4
5516	1.663	4.3636	0.1	1251.9
5517	1.663	4.5455	0.1	1141.9
5518	1.663	4.7273	0.1	1015.3
5519	1.663	4.9091	0.1	872.87
5520	1.663	5.0909	0.1	716.58
5521	1.663	5.2727	0.1	549.9
5522	1.663	5.4545	0.1	377.6
5523	1.663	5.6364	0.1	204.26
5524	1.663	5.8182	0.1	31.227
5525	1.8478	0.18182	0.1	36.527
5526	1.8478	0.36364	0.1	193.53
5527	1.8478	0.54545	0.1	348.89
5528	1.8478	0.72727	0.1	503.44
5529	1.8478	0.90909	0.1	653.91
5530	1.8478	1.0909	0.1	796.48
5531	1.8478	1.2727	0.1	928.18
5532	1.8478	1.4545	0.1	1047.
5533	1.8478	1.6364	0.1	1151.7
5534	1.8478	1.8182	0.1	1241.9
5535	1.8478	2.	0.1	1317.8
5536	1.8478	2.1818	0.1	1379.7
5537	1.8478	2.3636	0.1	1428.3
5538	1.8478	2.5455	0.1	1464.2
5539	1.8478	2.7273	0.1	1487.8
5540	1.8478	2.9091	0.1	1499.5
5541	1.8478	3.0909	0.1	1499.5
5542	1.8478	3.2727	0.1	1487.8
5543	1.8478	3.4545	0.1	1464.2
5544	1.8478	3.6364	0.1	1428.3
5545	1.8478	3.8182	0.1	1379.7
5546	1.8478	4.	0.1	1317.8
5547	1.8478	4.1818	0.1	1241.9
5548	1.8478	4.3636	0.1	1151.7
5549	1.8478	4.5455	0.1	1047.
5550	1.8478	4.7273	0.1	928.18
5551	1.8478	4.9091	0.1	796.48
5552	1.8478	5.0909	0.1	653.91
5553	1.8478	5.2727	0.1	503.44
5554	1.8478	5.4545	0.1	348.89
5555	1.8478	5.6364	0.1	193.53
5556	1.8478	5.8182	0.1	36.527
5557	2.0326	0.18182	0.1	41.128
5558	2.0326	0.36364	0.1	183.9
5559	2.0326	0.54545	0.1	324.13
5560	2.0326	0.72727	0.1	463.59
5561	2.0326	0.90909	0.1	599.85
5562	2.0326	1.0909	0.1	729.9
5563	2.0326	1.2727	0.1	851.19
5564	2.0326	1.4545	0.1	961.79
5565	2.0326	1.6364	0.1	1060.4
5566	2.0326	1.8182	0.1	1146.4
5567	2.0326	2.	0.1	1219.5
5568	2.0326	2.1818	0.1	1279.7
5569	2.0326	2.3636	0.1	1327.4
5570	2.0326	2.5455	0.1	1362.7
5571	2.0326	2.7273	0.1	1386.1
5572	2.0326	2.9091	0.1	1397.7
5573	2.0326	3.0909	0.1	1397.7
5574	2.0326	3.2727	0.1	1386.1
5575	2.0326	3.4545	0.1	1362.7
5576	2.0326	3.6364	0.1	1327.4
5577	2.0326	3.8182	0.1	1279.7
5578	2.0326	4.	0.1	1219.5
5579	2.0326	4.1818	0.1	1146.4
5580	2.0326	4.3636	0.1	1060.4
5581	2.0326	4.5455	0.1	961.79
5582	2.0326	4.7273	0.1	851.19
5583	2.0326	4.9091	0.1	729.9
5584	2.0326	5.0909	0.1	599.85
5585	2.0326	5.2727	0.1	463.59
5586	2.0326	5.4545	0.1	324.13
5587	2.0326	5.6364	0.1	183.9
5588	2.0326	5.8182	0.1	41.128
5589	2.2174	0.18182	0.1	44.821
5590	2.2174	0.36364	0.1	174.96
5591	2.2174	0.54545	0.1	302.22
5592	2.2174	0.72727	0.1	428.65
5593	2.2174	0.90909	0.1	552.43
5594	2.2174	1.0909	0.1	671.13
5595	2.2174	1.2727	0.1	782.6
5596	2.2174	1.4545	0.1	885.1
5597	2.2174	1.6364	0.1	977.33
5598	2.2174	1.8182	0.1	1058.5
5599	2.2174	2.	0.1	1128.
5600	2.2174	2.1818	0.1	1185.8
5601	2.2174	2.3636	0.1	1231.8
5602	2.2174	2.5455	0.1	1266.1
5603	2.2174	2.7273	0.1	1288.9
5604	2.2174	2.9091	0.1	1300.3
5605	2.2174	3.0909	0.1	1300.3
5606	2.2174	3.2727	0.1	1288.9
5607	2.2174	3.4545	0.1	1266.1
5608	2.2174	3.6364	0.1	1231.8
5609	2.2174	3.8182	0.1	1185.8
5610	2.2174	4.	0.1	1128.
5611	2.2174	4.1818	0.1	1058.5
5612	2.2174	4.3636	0.1	977.33
5613	2.2174	4.5455	0.1	885.1
5614	2.2174	4.7273	0.1	782.6
5615	2.2174	4.9091	0.1	671.13
5616	2.2174	5.0909	0.1	552.44
5617	2.2174	5.2727	0.1	428.65
5618	2.2174	5.4545	0.1	302.22
5619	2.2174	5.6364	0.1	174.96
5620	2.2174	5.8182	0.1	44.821
5621	2.4022	0.18182	0.1	47.569
5622	2.4022	0.36364	0.1	166.46
5623	2.4022	0.54545	0.1	282.43
5624	2.4022	0.72727	0.1	397.49
5625	2.4022	0.90909	0.1	510.23
5626	2.4022	1.0909	0.1	618.67
5627	2.4022	1.2727	0.1	720.99
5628	2.4022	1.4545	0.1	815.66
5629	2.4022	1.6364	0.1	901.43
5630	2.4022	1.8182	0.1	977.42
5631	2.4022	2.	0.1	1043.
5632	2.4022	2.1818	0.1	1097.8
5633	2.4022	2.3636	0.1	1141.7
5634	2.4022	2.5455	0.1	1174.7
5635	2.4022	2.7273	0.1	1196.6
5636	2.4022	2.9091	0.1	1207.5
5637	2.4022	3.0909	0.1	1207.5
5638	2.4022	3.2727	0.1	1196.6
5639	2.4022	3.4545	0.1	1174.7
5640	2.4022	3.6364	0.1	1141.7
5641	2.4022	3.8182	0.1	1097.8
5642	2.4022	4.	0.1	1043.
5643	2.4022	4.1818	0.1	977.42
5644	2.4022	4.3636	0.1	901.43
5645	2.4022	4.5455	0.1	815.66
5646	2.4022	4.7273	0.1	720.99
5647	2.4022	4.9091	0.1	618.67
5648	2.4022	5.0909	0.1	510.23
5649	2.4022	5.2727	0.1	397.49
5650	2.4022	5.4545	0.1	282.43
5651	2.4022	5.6364	0.1	166.46
5652	2.4022	5.8182	0.1	47.57
5653	2.587	0.18182	0.1	49.428
5654	2.587	0.36364	0.1	158.24
5655	2.587	0.54545	0.1	264.27
5656	2.587	0.72727	0.1	369.28
5657	2.587	0.90909	0.1	472.19
5658	2.587	1.0909	0.1	571.36
5659	2.587	1.2727	0.1	665.24
5660	2.587	1.4545	0.1	752.48
5661	2.587	1.6364	0.1	831.92
5662	2.587	1.8182	0.1	902.69
5663	2.587	2.	0.1	964.1
5664	2.587	2.1818	0.1	1015.7
5665	2.587	2.3636	0.1	1057.2
5666	2.587	2.5455	0.1	1088.4
5667	2.587	2.7273	0.1	1109.3
5668	2.587	2.9091	0.1	1119.7
5669	2.587	3.0909	0.1	1119.7
5670	2.587	3.2727	0.1	1109.3
5671	2.587	3.4545	0.1	1088.4
5672	2.587	3.6364	0.1	1057.2
5673	2.587	3.8182	0.1	1015.7
5674	2.587	4.	0.1	964.1
5675	2.587	4.1818	0.1	902.69
5676	2.587	4.3636	0.1	831.92
5677	2.587	4.5455	0.1	752.48
5678	2.587	4.7273	0.1	665.24
5679	2.587	4.9091	0.1	571.36
5680	2.587	5.0909	0.1	472.19
5681	2.587	5.2727	0.1	369.28
5682	2.587	5.4545	0.1	264.27
5683	2.587	5.6364	0.1	158.24
5684	2.587	5.8182	0.1	49.428
5685	2.7717	0.18182	0.1	50.485
5686	2.7717	0.36364	0.1	150.24
5687	2.7717	0.54545	0.1	247.4
5688	2.7717	0.72727	0.1	343.48
5689	2.7717	0.90909	0.1	437.59
5690	2.7717	1.0909	0.1	528.36
5691	2.7717	1.2727	0.1	614.47
5692	2.7717	1.4545	0.1	694.74
5693	2.7717	1.6364	0.1	768.11
5694	2.7717	1.8182	0.1	833.73
5695	2.7717	2.	0.1	890.92
5696	2.7717	2.1818	0.1	939.16
5697	2.7717	2.3636	0.1	978.09
5698	2.7717	2.5455	0.1	1007.5
5699	2.7717	2.7273	0.1	1027.1
5700	2.7717	2.9091	0.1	1037.
5701	2.7717	3.0909	0.1	1037.
5702	2.7717	3.2727	0.1	1027.1
5703	2.7717	3.4545	0.1	1007.5
5704	2.7717	3.6364	0.1	978.09
5705	2.7717	3.8182	0.1	939.16
5706	2.7717	4.	0.1	890.92
5707	2.7717	4.1818	0.1	833.73
5708	2.7717	4.3636	0.1	768.11
5709	2.7717	4.5455	0.1	694.74
5710	2.7717	4.7273	0.1	614.47
5711	2.7717	4.9091	0.1	528.36
5712	2.7717	5.0909	0.1	437.59
5713	2.7717	5.2727	0.1	343.48
5714	2.7717	5.4545	0.1	247.4
5715	2.7717	5.6364	0.1	150.24
5716	2.7717	5.8182	0.1	50.485
5717	2.9565	0.18182	0.1	50.841
5718	2.9565	0.36364	0.1	142.41
5719	2.9565	0.54545	0.1	231.62
5720	2.9565	0.72727	0.1	319.68
5721	2.9565	0.90909	0.1	405.86
5722	2.9565	1.0909	0.1	489.01
5723	2.9565	1.2727	0.1	568.
5724	2.9565	1.4545	0.1	641.77
5725	2.9565	1.6364	0.1	709.39
5726	2.9565	1.8182	0.1	770.04
5727	2.9565	2.	0.1	823.06
5728	2.9565	2.1818	0.1	867.93
5729	2.9565	2.3636	0.1	904.23
5730	2.9565	2.5455	0.1	931.69
5731	2.9565	2.7273	0.1	950.09
5732	2.9565	2.9091	0.1	959.33
5733	2.9565	3.0909	0.1	959.33
5734	2.9565	3.2727	0.1	950.09
5735	2.9565	3.4545	0.1	931.69
5736	2.9565	3.6364	0.1	904.23
5737	2.9565	3.8182	0.1	867.93
5738	2.9565	4.	0.1	823.06
5739	2.9565	4.1818	0.1	770.04
5740	2.9565	4.3636	0.1	709.39
5741	2.9565	4.5455	0.1	641.77
5742	2.9565	4.7273	0.1	568.
5743	2.9565	4.9091	0.1	489.01
5744	2.9565	5.0909	0.1	405.86
5745	2.9565	5.2727	0.1	319.68
5746	2.9565	5.4545	0.1	231.62
5747	2.9565	5.6364	0.1	142.41
5748	2.9565	5.8182	0.1	50.841
5749	3.1413	0.18182	0.1	50.597
5750	3.1413	0.36364	0.1	134.75
5751	3.1413	0.54545	0.1	216.76
5752	3.1413	0.72727	0.1	297.57
5753	3.1413	0.90909	0.1	376.59
5754	3.1413	1.0909	0.1	452.82
5755	3.1413	1.2727	0.1	525.27
5756	3.1413	1.4545	0.1	593.03
5757	3.1413	1.6364	0.1	655.25
5758	3.1413	1.8182	0.1	711.17
5759	3.1413	2.	0.1	760.17
5760	3.1413	2.1818	0.1	801.73
5761	3.1413	2.3636	0.1	835.42
5762	3.1413	2.5455	0.1	860.95
5763	3.1413	2.7273	0.1	878.08
5764	3.1413	2.9091	0.1	886.69
5765	3.1413	3.0909	0.1	886.69
5766	3.1413	3.2727	0.1	878.08
5767	3.1413	3.4545	0.1	860.95
5768	3.1413	3.6364	0.1	835.42
5769	3.1413	3.8182	0.1	801.73
5770	3.1413	4.	0.1	760.17
5771	3.1413	4.1818	0.1	711.17
5772	3.1413	4.3636	0.1	655.25
5773	3.1413	4.5455	0.1	593.03
5774	3.1413	4.7273	0.1	525.27
5775	3.1413	4.9091	0.1	452.82
5776	3.1413	5.0909	0.1	376.59
5777	3.1413	5.2727	0.1	297.57
5778	3.1413	5.4545	0.1	216.76
5779	3.1413	5.6364	0.1	134.75
5780	3.1413	5.8182	0.1	50.597
5781	3.3261	0.18182	0.1	49.848
5782	3.3261	0.36364	0.1	127.24
5783	3.3261	0.54545	0.1	202.71
5784	3.3261	0.72727	0.1	276.97
5785	3.3261	0.90909	0.1	349.48
5786	3.3261	1.0909	0.1	419.4
5787	3.3261	1.2727	0.1	485.86
5788	3.3261	1.4545	0.1	548.07
5789	3.3261	1.6364	0.1	605.25
5790	3.3261	1.8182	0.1	656.72
5791	3.3261	2.	0.1	701.89
5792	3.3261	2.1818	0.1	740.26
5793	3.3261	2.3636	0.1	771.42
5794	3.3261	2.5455	0.1	795.06
5795	3.3261	2.7273	0.1	810.94
5796	3.3261	2.9091	0.1	818.91
5797	3.3261	3.0909	0.1	818.91
5798	3.3261	3.2727	0.1	810.94
5799	3.3261	3.4545	0.1	795.06
5800	3.3261	3.6364	0.1	771.42
5801	3.3261	3.8182	0.1	740.26
5802	3.3261	4.	0.1	701.89
5803	3.3261	4.1818	0.1	656.72
5804	3.3261	4.3636	0.1	605.25
5805	3.3261	4.5455	0.1	548.07
5806	3.3261	4.7273	0.1	485.86
5807	3.3261	4.9091	0.1	419.4
5808	3.3261	5.0909	0.1	349.48
5809	3.3261	5.2727	0.1	276.97
5810	3.3261	5.4545	0.1	202.71
5811	3.3261	5.6364	0.1	127.24
5812	3.3261	5.8182	0.1	49.848
5813	3.5109	0.18182	0.1	48.68
5814	3.5109	0.36364	0.1	119.9
5815	3.5109	0.54545	0.1	189.41
5816	3.5109	0.72727	0.1	257.69
5817	3.5109	0.90909	0.1	324.28
5818	3.5109	1.0909	0.1	388.44
5819	3.5109	1.2727	0.1	449.43
5820	3.5109	1.4545	0.1	506.52
5821	3.5109	1.6364	0.1	559.03
5822	3.5109	1.8182	0.1	606.34
5823	3.5109	2.	0.1	647.9
5824	3.5109	2.1818	0.1	683.24
5825	3.5109	2.3636	0.1	711.97
5826	3.5109	2.5455	0.1	733.79
5827	3.5109	2.7273	0.1	748.45
5828	3.5109	2.9091	0.1	755.82
5829	3.5109	3.0909	0.1	755.82
5830	3.5109	3.2727	0.1	748.45
5831	3.5109	3.4545	0.1	733.79
5832	3.5109	3.6364	0.1	711.97
5833	3.5109	3.8182	0.1	683.24
5834	3.5109	4.	0.1	647.9
5835	3.5109	4.1818	0.1	606.34
5836	3.5109	4.3636	0.1	559.03
5837	3.5109	4.5455	0.1	506.52
5838	3.5109	4.7273	0.1	449.43
5839	3.5109	4.9091	0.1	388.44
5840	3.5109	5.0909	0.1	324.28
5841	3.5109	5.2727	0.1	257.69
5842	3.5109	5.4545	0.1	189.41
5843	3.5109	5.6364	0.1	119.9
5844	3.5109	5.8182	0.1	48.68
5845	3.6957	0.18182	0.1	47.173
5846	3.6957	0.36364	0.1	112.75
5847	3.6957	0.54545	0.1	176.8
5848	3.6957	0.72727	0.1	239.62
5849	3.6957	0.90909	0.1	300.81
5850	3.6957	1.0909	0.1	359.72
5851	3.6957	1.2727	0.1	415.68
5852	3.6957	1.4545	0.1	468.06
5853	3.6957	1.6364	0.1	516.25
5854	3.6957	1.8182	0.1	559.69
5855	3.6957	2.	0.1	597.88
5856	3.6957	2.1818	0.1	630.38
5857	3.6957	2.3636	0.1	656.81
5858	3.6957	2.5455	0.1	676.9
5859	3.6957	2.7273	0.1	690.41
5860	3.6957	2.9091	0.1	697.2
5861	3.6957	3.0909	0.1	697.2
5862	3.6957	3.2727	0.1	690.41
5863	3.6957	3.4545	0.1	676.9
5864	3.6957	3.6364	0.1	656.81
5865	3.6957	3.8182	0.1	630.38
5866	3.6957	4.	0.1	597.88
5867	3.6957	4.1818	0.1	559.69
5868	3.6957	4.3636	0.1	516.25
5869	3.6957	4.5455	0.1	468.06
5870	3.6957	4.7273	0.1	415.68
5871	3.6957	4.9091	0.1	359.72
5872	3.6957	5.0909	0.1	300.81
5873	3.6957	5.2727	0.1	239.62
5874	3.6957	5.4545	0.1	176.8
5875	3.6957	5.6364	0.1	112.75
5876	3.6957	5.8182	0.1	47.173
5877	3.8804	0.18182	0.1	45.397
5878	3.8804	0.36364	0.1	105.81
5879	3.8804	0.54545	0.1	164.85
5880	3.8804	0.72727	0.1	222.67
5881	3.8804	0.90909	0.1	278.92
5882	3.8804	1.0909	0.1	333.01
5883	3.8804	1.2727	0.1	384.37
5884	3.8804	1.4545	0.1	432.43
5885	3.8804	1.6364	0.1	476.65
5886	3.8804	1.8182	0.1	516.51
5887	3.8804	2.	0.1	551.56
5888	3.8804	2.1818	0.1	581.4
5889	3.8804	2.3636	0.1	605.68
5890	3.8804	2.5455	0.1	624.14
5891	3.8804	2.7273	0.1	636.56
5892	3.8804	2.9091	0.1	642.8
5893	3.8804	3.0909	0.1	642.8
5894	3.8804	3.2727	0.1	636.56
5895	3.8804	3.4545	0.1	624.14
5896	3.8804	3.6364	0.1	605.68
5897	3.8804	3.8182	0.1	581.4
5898	3.8804	4.	0.1	551.56
5899	3.8804	4.1818	0.1	516.51
5900	3.8804	4.3636	0.1	476.65
5901	3.8804	4.5455	0.1	432.43
5902	3.8804	4.7273	0.1	384.37
5903	3.8804	4.9091	0.1	333.01
5904	3.8804	5.0909	0.1	278.92
5905	3.8804	5.2727	0.1	222.67
5906	3.8804	5.4545	0.1	164.85
5907	3.8804	5.6364	0.1	105.81
5908	3.8804	5.8182	0.1	45.397
5909	4.0652	0.18182	0.1	43.413
5910	4.0652	0.36364	0.1	99.078
5911	4.0652	0.54545	0.1	153.51
5912	4.0652	0.72727	0.1	206.75
5913	4.0652	0.90909	0.1	258.48
5914	4.0652	1.0909	0.1	308.17
5915	4.0652	1.2727	0.1	355.31
5916	4.0652	1.4545	0.1	399.41
5917	4.0652	1.6364	0.1	439.96
5918	4.0652	1.8182	0.1	476.52
5919	4.0652	2.	0.1	508.67
5920	4.0652	2.1818	0.1	536.04
5921	4.0652	2.3636	0.1	558.32
5922	4.0652	2.5455	0.1	575.26
5923	4.0652	2.7273	0.1	586.66
5924	4.0652	2.9091	0.1	592.39
5925	4.0652	3.0909	0.1	592.39
5926	4.0652	3.2727	0.1	586.66
5927	4.0652	3.4545	0.1	575.26
5928	4.0652	3.6364	0.1	558.32
5929	4.0652	3.8182	0.1	536.04
5930	4.0652	4.	0.1	508.67
5931	4.0652	4.1818	0.1	476.52
5932	4.0652	4.3636	0.1	439.96
5933	4.0652	4.5455	0.1	399.41
5934	4.0652	4.7273	0.1	355.31
5935	4.0652	4.9091	0.1	308.17
5936	4.0652	5.0909	0.1	258.48
5937	4.0652	5.2727	0.1	206.75
5938	4.0652	5.4545	0.1	153.51
5939	4.0652	5.6364	0.1	99.078
5940	4.0652	5.8182	0.1	43.413
5941	4.25	0.18182	0.1	41.274
5942	4.25	0.36364	0.1	92.582
5943	4.25	0.54545	0.1	142.78
5944	4.25	0.72727	0.1	191.8
5945	4.25	0.90909	0.1	239.38
5946	4.25	1.0909	0.1	285.04
5947	4.25	1.2727	0.1	328.32
5948	4.25	1.4545	0.1	368.77
5949	4.25	1.6364	0.1	405.97
5950	4.25	1.8182	0.1	439.49
5951	4.25	2.	0.1	468.96
5952	4.25	2.1818	0.1	494.05
5953	4.25	2.3636	0.1	514.48
5954	4.25	2.5455	0.1	530.01
5955	4.25	2.7273	0.1	540.46
5956	4.25	2.9091	0.1	545.71
5957	4.25	3.0909	0.1	545.71
5958	4.25	3.2727	0.1	540.46
5959	4.25	3.4545	0.1	530.01
5960	4.25	3.6364	0.1	514.48
5961	4.25	3.8182	0.1	494.05
5962	4.25	4.	0.1	468.96
5963	4.25	4.1818	0.1	439.49
5964	4.25	4.3636	0.1	405.97
5965	4.25	4.5455	0.1	368.77
5966	4.25	4.7273	0.1	328.32
5967	4.25	4.9091	0.1	285.04
5968	4.25	5.0909	0.1	239.38
5969	4.25	5.2727	0.1	191.8
5970	4.25	5.4545	0.1	142.78
5971	4.25	5.6364	0.1	92.582
5972	4.25	5.8182	0.1	41.274
5973	4.4348	0.18182	0.1	39.028
5974	4.4348	0.36364	0.1	86.33
5975	4.4348	0.54545	0.1	132.62
5976	4.4348	0.72727	0.1	177.77
5977	4.4348	0.90909	0.1	221.54
5978	4.4348	1.0909	0.1	263.5
5979	4.4348	1.2727	0.1	303.24
5980	4.4348	1.4545	0.1	340.36
5981	4.4348	1.6364	0.1	374.46
5982	4.4348	1.8182	0.1	405.19
5983	4.4348	2.	0.1	432.2
5984	4.4348	2.1818	0.1	455.2
5985	4.4348	2.3636	0.1	473.91
5986	4.4348	2.5455	0.1	488.14
5987	4.4348	2.7273	0.1	497.72
5988	4.4348	2.9091	0.1	502.53
5989	4.4348	3.0909	0.1	502.53
5990	4.4348	3.2727	0.1	497.72
5991	4.4348	3.4545	0.1	488.14
5992	4.4348	3.6364	0.1	473.91
5993	4.4348	3.8182	0.1	455.2
5994	4.4348	4.	0.1	432.2
5995	4.4348	4.1818	0.1	405.19
5996	4.4348	4.3636	0.1	374.46
5997	4.4348	4.5455	0.1	340.36
5998	4.4348	4.7273	0.1	303.24
5999	4.4348	4.9091	0.1	263.5
6000	4.4348	5.0909	0.1	221.54
6001	4.4348	5.2727	0.1	177.77
6002	4.4348	5.4545	0.1	132.62
6003	4.4348	5.6364	0.1	86.33
6004	4.4348	5.8182	0.1	39.028
6005	4.6196	0.18182	0.1	36.713
6006	4.6196	0.36364	0.1	80.331
6007	4.6196	0.54545	0.1	123.02
6008	4.6196	0.72727	0.1	164.61
6009	4.6196	0.90909	0.1	204.87
6010	4.6196	1.0909	0.1	243.44
6011	4.6196	1.2727	0.1	279.93
6012	4.6196	1.4545	0.1	313.99
6013	4.6196	1.6364	0.1	345.27
6014	4.6196	1.8182	0.1	373.44
6015	4.6196	2.	0.1	398.19
6016	4.6196	2.1818	0.1	419.25
6017	4.6196	2.3636	0.1	436.4
6018	4.6196	2.5455	0.1	449.43
6019	4.6196	2.7273	0.1	458.2
6020	4.6196	2.9091	0.1	462.61
6021	4.6196	3.0909	0.1	462.61
6022	4.6196	3.2727	0.1	458.2
6023	4.6196	3.4545	0.1	449.43
6024	4.6196	3.6364	0.1	436.4
6025	4.6196	3.8182	0.1	419.25
6026	4.6196	4.	0.1	398.19
6027	4.6196	4.1818	0.1	373.44
6028	4.6196	4.3636	0.1	345.27
6029	4.6196	4.5455	0.1	313.99
6030	4.6196	4.7273	0.1	279.93
6031	4.6196	4.9091	0.1	243.44
6032	4.6196	5.0909	0.1	204.87
6033	4.6196	5.2727	0.1	164.61
6034	4.6196	5.4545	0.1	123.02
6035	4.6196	5.6364	0.1	80.331
6036	4.6196	5.8182	0.1	36.713
6037	4.8043	0.18182	0.1	34.363
6038	4.8043	0.36364	0.1	74.59
6039	4.8043	0.54545	0.1	113.95
6040	4.8043	0.72727	0.1	152.26
6041	4.8043	0.90909	0.1	189.31
6042	4.8043	1.0909	0.1	224.76
6043	4.8043	1.2727	0.1	258.27
6044	4.8043	1.4545	0.1	289.53
6045	4.8043	1.6364	0.1	318.22
6046	4.8043	1.8182	0.1	344.04
6047	4.8043	2.	0.1	366.72
6048	4.8043	2.1818	0.1	386.01
6049	4.8043	2.3636	0.1	401.71
6050	4.8043	2.5455	0.1	413.64
6051	4.8043	2.7273	0.1	421.67
6052	4.8043	2.9091	0.1	425.71
6053	4.8043	3.0909	0.1	425.71
6054	4.8043	3.2727	0.1	421.67
6055	4.8043	3.4545	0.1	413.64
6056	4.8043	3.6364	0.1	401.71
6057	4.8043	3.8182	0.1	386.01
6058	4.8043	4.	0.1	366.72
6059	4.8043	4.1818	0.1	344.04
6060	4.8043	4.3636	0.1	318.22
6061	4.8043	4.5455	0.1	289.53
6062	4.8043	4.7273	0.1	258.27
6063	4.8043	4.9091	0.1	224.76
6064	4.8043	5.0909	0.1	189.31
6065	4.8043	5.2727	0.1	152.26
6066	4.8043	5.4545	0.1	113.95
6067	4.8043	5.6364	0.1	74.59
6068	4.8043	5.8182	0.1	34.363
6069	4.9891	0.18182	0.1	32.005
6070	4.9891	0.36364	0.1	69.111
6071	4.9891	0.54545	0.1	105.4
6072	4.9891	0.72727	0.1	140.69
6073	4.9891	0.90909	0.1	174.78
6074	4.9891	1.0909	0.1	207.37
6075	4.9891	1.2727	0.1	238.15
6076	4.9891	1.4545	0.1	266.84
6077	4.9891	1.6364	0.1	293.15
6078	4.9891	1.8182	0.1	316.82
6079	4.9891	2.	0.1	337.6
6080	4.9891	2.1818	0.1	355.27
6081	4.9891	2.3636	0.1	369.65
6082	4.9891	2.5455	0.1	380.57
6083	4.9891	2.7273	0.1	387.92
6084	4.9891	2.9091	0.1	391.62
6085	4.9891	3.0909	0.1	391.62
6086	4.9891	3.2727	0.1	387.92
6087	4.9891	3.4545	0.1	380.57
6088	4.9891	3.6364	0.1	369.65
6089	4.9891	3.8182	0.1	355.27
6090	4.9891	4.	0.1	337.6
6091	4.9891	4.1818	0.1	316.82
6092	4.9891	4.3636	0.1	293.15
6093	4.9891	4.5455	0.1	266.84
6094	4.9891	4.7273	0.1	238.15
6095	4.9891	4.9091	0.1	207.37
6096	4.9891	5.0909	0.1	174.78
6097	4.9891	5.2727	0.1	140.69
6098	4.9891	5.4545	0.1	105.4
6099	4.9891	5.6364	0.1	69.111
6100	4.9891	5.8182	0.1	32.005
6101	5.1739	0.18182	0.1	29.662
6102	5.1739	0.36364	0.1	63.896
6103	5.1739	0.54545	0.1	97.355
6104	5.1739	0.72727	0.1	129.86
6105	5.1739	0.90909	0.1	161.23
6106	5.1739	1.0909	0.1	191.18
6107	5.1739	1.2727	0.1	219.46
6108	5.1739	1.4545	0.1	245.79
6109	5.1739	1.6364	0.1	269.93
6110	5.1739	1.8182	0.1	291.63
6111	5.1739	2.	0.1	310.67
6112	5.1739	2.1818	0.1	326.86
6113	5.1739	2.3636	0.1	340.02
6114	5.1739	2.5455	0.1	350.02
6115	5.1739	2.7273	0.1	356.75
6116	5.1739	2.9091	0.1	360.13
6117	5.1739	3.0909	0.1	360.13
6118	5.1739	3.2727	0.1	356.75
6119	5.1739	3.4545	0.1	350.02
6120	5.1739	3.6364	0.1	340.02
6121	5.1739	3.8182	0.1	326.86
6122	5.1739	4.	0.1	310.67
6123	5.1739	4.1818	0.1	291.63
6124	5.1739	4.3636	0.1	269.93
6125	5.1739	4.5455	0.1	245.79
6126	5.1739	4.7273	0.1	219.46
6127	5.1739	4.9091	0.1	191.18
6128	5.1739	5.0909	0.1	161.23
6129	5.1739	5.2727	0.1	129.86
6130	5.1739	5.4545	0.1	97.355
6131	5.1739	5.6364	0.1	63.896
6132	5.1739	5.8182	0.1	29.662
6133	5.3587	0.18182	0.1	27.354
6134	5.3587	0.36364	0.1	58.942
6135	5.3587	0.54545	0.1	89.785
6136	5.3587	0.72727	0.1	119.72
6137	5.3587	0.90909	0.1	148.58
6138	5.3587	1.0909	0.1	176.12
6139	5.3587	1.2727	0.1	202.1
6140	5.3587	1.4545	0.1	226.27
6141	5.3587	1.6364	0.1	248.41
6142	5.3587	1.8182	0.1	268.31
6143	5.3587	2.	0.1	285.76
6144	5.3587	2.1818	0.1	300.59
6145	5.3587	2.3636	0.1	312.64
6146	5.3587	2.5455	0.1	321.8
6147	5.3587	2.7273	0.1	327.96
6148	5.3587	2.9091	0.1	331.05
6149	5.3587	3.0909	0.1	331.05
6150	5.3587	3.2727	0.1	327.96
6151	5.3587	3.4545	0.1	321.8
6152	5.3587	3.6364	0.1	312.64
6153	5.3587	3.8182	0.1	300.59
6154	5.3587	4.	0.1	285.76
6155	5.3587	4.1818	0.1	268.31
6156	5.3587	4.3636	0.1	248.41
6157	5.3587	4.5455	0.1	226.27
6158	5.3587	4.7273	0.1	202.1
6159	5.3587	4.9091	0.1	176.12
6160	5.3587	5.0909	0.1	148.58
6161	5.3587	5.2727	0.1	119.72
6162	5.3587	5.4545	0.1	89.785
6163	5.3587	5.6364	0.1	58.942
6164	5.3587	5.8182	0.1	27.354
6165	5.5435	0.18182	0.1	25.095
6166	5.5435	0.36364	0.1	54.246
6167	5.5435	0.54545	0.1	82.673
6168	5.5435	0.72727	0.1	110.24
6169	5.5435	0.90909	0.1	136.79
6170	5.5435	1.0909	0.1	162.12
6171	5.5435	1.2727	0.1	185.98
6172	5.5435	1.4545	0.1	208.17
6173	5.5435	1.6364	0.1	228.49
6174	5.5435	1.8182	0.1	246.73
6175	5.5435	2.	0.1	262.72
6176	5.5435	2.1818	0.1	276.31
6177	5.5435	2.3636	0.1	287.35
6178	5.5435	2.5455	0.1	295.73
6179	5.5435	2.7273	0.1	301.37
6180	5.5435	2.9091	0.1	304.2
6181	5.5435	3.0909	0.1	304.2
6182	5.5435	3.2727	0.1	301.37
6183	5.5435	3.4545	0.1	295.73
6184	5.5435	3.6364	0.1	287.35
6185	5.5435	3.8182	0.1	276.31
6186	5.5435	4.	0.1	262.72
6187	5.5435	4.1818	0.1	246.73
6188	5.5435	4.3636	0.1	228.49
6189	5.5435	4.5455	0.1	208.17
6190	5.5435	4.7273	0.1	185.98
6191	5.5435	4.9091	0.1	162.12
6192	5.5435	5.0909	0.1	136.79
6193	5.5435	5.2727	0.1	110.24
6194	5.5435	5.4545	0.1	82.673
6195	5.5435	5.6364	0.1	54.246
6196	5.5435	5.8182	0.1	25.095
6197	5.7283	0.18182	0.1	22.896
6198	5.7283	0.36364	0.1	49.803
6199	5.7283	0.54545	0.1	75.998
6200	5.7283	0.72727	0.1	101.38
6201	5.7283	0.90909	0.1	125.81
6202	5.7283	1.0909	0.1	149.09
6203	5.7283	1.2727	0.1	171.01
6204	5.7283	1.4545	0.1	191.39
6205	5.7283	1.6364	0.1	210.03
6206	5.7283	1.8182	0.1	226.76
6207	5.7283	2.	0.1	241.42
6208	5.7283	2.1818	0.1	253.87
6209	5.7283	2.3636	0.1	263.98
6210	5.7283	2.5455	0.1	271.65
6211	5.7283	2.7273	0.1	276.82
6212	5.7283	2.9091	0.1	279.41
6213	5.7283	3.0909	0.1	279.41
6214	5.7283	3.2727	0.1	276.82
6215	5.7283	3.4545	0.1	271.65
6216	5.7283	3.6364	0.1	263.98
6217	5.7283	3.8182	0.1	253.87
6218	5.7283	4.	0.1	241.42
6219	5.7283	4.1818	0.1	226.76
6220	5.7283	4.3636	0.1	210.03
6221	5.7283	4.5455	0.1	191.39
6222	5.7283	4.7273	0.1	171.01
6223	5.7283	4.9091	0.1	149.09
6224	5.7283	5.0909	0.1	125.81
6225	5.7283	5.2727	0.1	101.38
6226	5.7283	5.4545	0.1	75.998
6227	5.7283	5.6364	0.1	49.803
6228	5.7283	5.8182	0.1	22.896
6229	5.913	0.18182	0.1	20.767
6230	5.913	0.36364	0.1	45.607
6231	5.913	0.54545	0.1	69.741
6232	5.913	0.72727	0.1	93.105
6233	5.913	0.90909	0.1	115.58
6234	5.913	1.0909	0.1	136.98
6235	5.913	1.2727	0.1	157.12
6236	5.913	1.4545	0.1	175.83
6237	5.913	1.6364	0.1	192.93
6238	5.913	1.8182	0.1	208.27
6239	5.913	2.	0.1	221.71
6240	5.913	2.1818	0.1	233.12
6241	5.913	2.3636	0.1	242.39
6242	5.913	2.5455	0.1	249.42
6243	5.913	2.7273	0.1	254.14
6244	5.913	2.9091	0.1	256.52
6245	5.913	3.0909	0.1	256.52
6246	5.913	3.2727	0.1	254.14
6247	5.913	3.4545	0.1	249.42
6248	5.913	3.6364	0.1	242.39
6249	5.913	3.8182	0.1	233.12
6250	5.913	4.	0.1	221.71
6251	5.913	4.1818	0.1	208.27
6252	5.913	4.3636	0.1	192.93
6253	5.913	4.5455	0.1	175.83
6254	5.913	4.7273	0.1	157.12
6255	5.913	4.9091	0.1	136.98
6256	5.913	5.0909	0.1	115.58
6257	5.913	5.2727	0.1	93.105
6258	5.913	5.4545	0.1	69.741
6259	5.913	5.6364	0.1	45.607
6260	5.913	5.8182	0.1	20.767
6261	6.0978	0.18182	0.1	18.715
6262	6.0978	0.36364	0.1	41.649
6263	6.0978	0.54545	0.1	63.88
6264	6.0978	0.72727	0.1	85.384
6265	6.0978	0.90909	0.1	106.06
6266	6.0978	1.0909	0.1	125.73
6267	6.0978	1.2727	0.1	144.23
6268	6.0978	1.4545	0.1	161.41
6269	6.0978	1.6364	0.1	177.1
6270	6.0978	1.8182	0.1	191.17
6271	6.0978	2.	0.1	203.49
6272	6.0978	2.1818	0.1	213.95
6273	6.0978	2.3636	0.1	222.43
6274	6.0978	2.5455	0.1	228.87
6275	6.0978	2.7273	0.1	233.2
6276	6.0978	2.9091	0.1	235.38
6277	6.0978	3.0909	0.1	235.38
6278	6.0978	3.2727	0.1	233.2
6279	6.0978	3.4545	0.1	228.87
6280	6.0978	3.6364	0.1	222.43
6281	6.0978	3.8182	0.1	213.95
6282	6.0978	4.	0.1	203.49
6283	6.0978	4.1818	0.1	191.17
6284	6.0978	4.3636	0.1	177.1
6285	6.0978	4.5455	0.1	161.41
6286	6.0978	4.7273	0.1	144.23
6287	6.0978	4.9091	0.1	125.73
6288	6.0978	5.0909	0.1	106.06
6289	6.0978	5.2727	0.1	85.384
6290	6.0978	5.4545	0.1	63.88
6291	6.0978	5.6364	0.1	41.649
6292	6.0978	5.8182	0.1	18.715
6293	6.2826	0.18182	0.1	16.743
6294	6.2826	0.36364	0.1	37.922
6295	6.2826	0.54545	0.1	58.394
6296	6.2826	0.72727	0.1	78.183
6297	6.2826	0.90909	0.1	97.196
6298	6.2826	1.0909	0.1	115.28
6299	6.2826	1.2727	0.1	132.27
6300	6.2826	1.4545	0.1	148.04
6301	6.2826	1.6364	0.1	162.44
6302	6.2826	1.8182	0.1	175.35
6303	6.2826	2.	0.1	186.64
6304	6.2826	2.1818	0.1	196.22
6305	6.2826	2.3636	0.1	204.
6306	6.2826	2.5455	0.1	209.9
6307	6.2826	2.7273	0.1	213.86
6308	6.2826	2.9091	0.1	215.85
6309	6.2826	3.0909	0.1	215.85
6310	6.2826	3.2727	0.1	213.86
6311	6.2826	3.4545	0.1	209.9
6312	6.2826	3.6364	0.1	204.
6313	6.2826	3.8182	0.1	196.22
6314	6.2826	4.	0.1	186.64
6315	6.2826	4.1818	0.1	175.35
6316	6.2826	4.3636	0.1	162.44
6317	6.2826	4.5455	0.1	148.04
6318	6.2826	4.7273	0.1	132.27
6319	6.2826	4.9091	0.1	115.28
6320	6.2826	5.0909	0.1	97.196
6321	6.2826	5.2727	0.1	78.183
6322	6.2826	5.4545	0.1	58.394
6323	6.2826	5.6364	0.1	37.922
6324	6.2826	5.8182	0.1	16.743
6325	6.4674	0.18182	0.1	14.855
6326	6.4674	0.36364	0.1	34.416
6327	6.4674	0.54545	0.1	53.264
6328	6.4674	0.72727	0.1	71.469
6329	6.4674	0.90909	0.1	88.95
6330	6.4674	1.0909	0.1	105.56
6331	6.4674	1.2727	0.1	121.17
6332	6.4674	1.4545	0.1	135.65
6333	6.4674	1.6364	0.1	148.86
6334	6.4674	1.8182	0.1	160.7
6335	6.4674	2.	0.1	171.06
6336	6.4674	2.1818	0.1	179.84
6337	6.4674	2.3636	0.1	186.96
6338	6.4674	2.5455	0.1	192.37
6339	6.4674	2.7273	0.1	196.
6340	6.4674	2.9091	0.1	197.82
6341	6.4674	3.0909	0.1	197.82
6342	6.4674	3.2727	0.1	196.
6343	6.4674	3.4545	0.1	192.37
6344	6.4674	3.6364	0.1	186.96
6345	6.4674	3.8182	0.1	179.84
6346	6.4674	4.	0.1	171.06
6347	6.4674	4.1818	0.1	160.7
6348	6.4674	4.3636	0.1	148.86
6349	6.4674	4.5455	0.1	135.65
6350	6.4674	4.7273	0.1	121.17
6351	6.4674	4.9091	0.1	105.56
6352	6.4674	5.0909	0.1	88.95
6353	6.4674	5.2727	0.1	71.469
6354	6.4674	5.4545	0.1	53.264
6355	6.4674	5.6364	0.1	34.416
6356	6.4674	5.8182	0.1	14.855
6357	6.6522	0.18182	0.1	13.052
6358	6.6522	0.36364	0.1	31.122
6359	6.6522	0.54545	0.1	48.468
6360	6.6522	0.72727	0.1	65.212
6361	6.6522	0.90909	0.1	81.281
6362	6.6522	1.0909	0.1	96.544
6363	6.6522	1.2727	0.1	110.88
6364	6.6522	1.4545	0.1	124.16
6365	6.6522	1.6364	0.1	136.29
6366	6.6522	1.8182	0.1	147.14
6367	6.6522	2.	0.1	156.64
6368	6.6522	2.1818	0.1	164.69
6369	6.6522	2.3636	0.1	171.21
6370	6.6522	2.5455	0.1	176.16
6371	6.6522	2.7273	0.1	179.49
6372	6.6522	2.9091	0.1	181.16
6373	6.6522	3.0909	0.1	181.16
6374	6.6522	3.2727	0.1	179.49
6375	6.6522	3.4545	0.1	176.16
6376	6.6522	3.6364	0.1	171.21
6377	6.6522	3.8182	0.1	164.69
6378	6.6522	4.	0.1	156.64
6379	6.6522	4.1818	0.1	147.14
6380	6.6522	4.3636	0.1	136.29
6381	6.6522	4.5455	0.1	124.16
6382	6.6522	4.7273	0.1	110.88
6383	6.6522	4.9091	0.1	96.544
6384	6.6522	5.0909	0.1	81.281
6385	6.6522	5.2727	0.1	65.212
6386	6.6522	5.4545	0.1	48.468
6387	6.6522	5.6364	0.1	31.122
6388	6.6522	5.8182	0.1	13.052
6389	6.837	0.18182	0.1	11.335
6390	6.837	0.36364	0.1	28.029
6391	6.837	0.54545	0.1	43.988
6392	6.837	0.72727	0.1	59.382
6393	6.837	0.90909	0.1	74.148
6394	6.837	1.0909	0.1	88.168
6395	6.837	1.2727	0.1	101.33
6396	6.837	1.4545	0.1	113.52
6397	6.837	1.6364	0.1	124.64
6398	6.837	1.8182	0.1	134.59
6399	6.837	2.	0.1	143.3
6400	6.837	2.1818	0.1	150.67
6401	6.837	2.3636	0.1	156.65
6402	6.837	2.5455	0.1	161.19
6403	6.837	2.7273	0.1	164.24
6404	6.837	2.9091	0.1	165.77
6405	6.837	3.0909	0.1	165.77
6406	6.837	3.2727	0.1	164.24
6407	6.837	3.4545	0.1	161.19
6408	6.837	3.6364	0.1	156.65
6409	6.837	3.8182	0.1	150.67
6410	6.837	4.	0.1	143.3
6411	6.837	4.1818	0.1	134.59
6412	6.837	4.3636	0.1	124.64
6413	6.837	4.5455	0.1	113.52
6414	6.837	4.7273	0.1	101.33
6415	6.837	4.9091	0.1	88.168
6416	6.837	5.0909	0.1	74.148
6417	6.837	5.2727	0.1	59.382
6418	6.837	5.4545	0.1	43.988
6419	6.837	5.6364	0.1	28.029
6420	6.837	5.8182	0.1	11.335
6421	7.0217	0.18182	0.1	9.7038
6422	7.0217	0.36364	0.1	25.128
6423	7.0217	0.54545	0.1	39.805
6424	7.0217	0.72727	0.1	53.952
6425	7.0217	0.90909	0.1	67.516
6426	7.0217	1.0909	0.1	80.388
6427	7.0217	1.2727	0.1	92.466
6428	7.0217	1.4545	0.1	103.65
6429	7.0217	1.6364	0.1	113.85
6430	7.0217	1.8182	0.1	122.98
6431	7.0217	2.	0.1	130.95
6432	7.0217	2.1818	0.1	137.71
6433	7.0217	2.3636	0.1	143.19
6434	7.0217	2.5455	0.1	147.34
6435	7.0217	2.7273	0.1	150.13
6436	7.0217	2.9091	0.1	151.53
6437	7.0217	3.0909	0.1	151.53
6438	7.0217	3.2727	0.1	150.13
6439	7.0217	3.4545	0.1	147.34
6440	7.0217	3.6364	0.1	143.19
6441	7.0217	3.8182	0.1	137.71
6442	7.0217	4.	0.1	130.95
6443	7.0217	4.1818	0.1	122.98
6444	7.0217	4.3636	0.1	113.85
6445	7.0217	4.5455	0.1	103.65
6446	7.0217	4.7273	0.1	92.466
6447	7.0217	4.9091	0.1	80.388
6448	7.0217	5.0909	0.1	67.516
6449	7.0217	5.2727	0.1	53.952
6450	7.0217	5.4545	0.1	39.805
6451	7.0217	5.6364	0.1	25.128
6452	7.0217	5.8182	0.1	9.7038
6453	7.2065	0.18182	0.1	8.1566
6454	7.2065	0.36364	0.1	22.408
6455	7.2065	0.54545	0.1	35.9
6456	7.2065	0.72727	0.1	48.894
6457	7.2065	0.90909	0.1	61.348
6458	7.2065	1.0909	0.1	73.163
6459	7.2065	1.2727	0.1	84.243
6460	7.2065	1.4545	0.1	94.501
6461	7.2065	1.6364	0.1	103.85
6462	7.2065	1.8182	0.1	112.22
6463	7.2065	2.	0.1	119.52
6464	7.2065	2.1818	0.1	125.72
6465	7.2065	2.3636	0.1	130.73
6466	7.2065	2.5455	0.1	134.54
6467	7.2065	2.7273	0.1	137.09
6468	7.2065	2.9091	0.1	138.37
6469	7.2065	3.0909	0.1	138.37
6470	7.2065	3.2727	0.1	137.09
6471	7.2065	3.4545	0.1	134.54
6472	7.2065	3.6364	0.1	130.73
6473	7.2065	3.8182	0.1	125.72
6474	7.2065	4.	0.1	119.52
6475	7.2065	4.1818	0.1	112.22
6476	7.2065	4.3636	0.1	103.85
6477	7.2065	4.5455	0.1	94.501
6478	7.2065	4.7273	0.1	84.243
6479	7.2065	4.9091	0.1	73.163
6480	7.2065	5.0909	0.1	61.348
6481	7.2065	5.2727	0.1	48.894
6482	7.2065	5.4545	0.1	35.899
6483	7.2065	5.6364	0.1	22.408
6484	7.2065	5.8182	0.1	8.1566
6485	7.3913	0.18182	0.1	6.6925
6486	7.3913	0.36364	0.1	19.86
6487	7.3913	0.54545	0.1	32.254
6488	7.3913	0.72727	0.1	44.184
6489	7.3913	0.90909	0.1	55.613
6490	7.3913	1.0909	0.1	66.451
6491	7.3913	1.2727	0.1	76.612
6492	7.3913	1.4545	0.1	86.015
6493	7.3913	1.6364	0.1	94.584
6494	7.3913	1.8182	0.1	102.25
6495	7.3913	2.	0.1	108.94
6496	7.3913	2.1818	0.1	114.61
6497	7.3913	2.3636	0.1	119.21
6498	7.3913	2.5455	0.1	122.69
6499	7.3913	2.7273	0.1	125.03
6500	7.3913	2.9091	0.1	126.2
6501	7.3913	3.0909	0.1	126.2
6502	7.3913	3.2727	0.1	125.03
6503	7.3913	3.4545	0.1	122.69
6504	7.3913	3.6364	0.1	119.21
6505	7.3913	3.8182	0.1	114.61
6506	7.3913	4.	0.1	108.94
6507	7.3913	4.1818	0.1	102.25
6508	7.3913	4.3636	0.1	94.584
6509	7.3913	4.5455	0.1	86.015
6510	7.3913	4.7273	0.1	76.612
6511	7.3913	4.9091	0.1	66.451
6512	7.3913	5.0909	0.1	55.613
6513	7.3913	5.2727	0.1	44.184
6514	7.3913	5.4545	0.1	32.254
6515	7.3913	5.6364	0.1	19.86
6516	7.3913	5.8182	0.1	6.6925
6517	7.5761	0.18182	0.1	5.3104
6518	7.5761	0.36364	0.1	17.472
6519	7.5761	0.54545	0.1	28.852
6520	7.5761	0.72727	0.1	39.797
6521	7.5761	0.90909	0.1	50.278
6522	7.5761	1.0909	0.1	60.214
6523	7.5761	1.2727	0.1	69.527
6524	7.5761	1.4545	0.1	78.142
6525	7.5761	1.6364	0.1	85.991
6526	7.5761	1.8182	0.1	93.009
6527	7.5761	2.	0.1	99.138
6528	7.5761	2.1818	0.1	104.33
6529	7.5761	2.3636	0.1	108.53
6530	7.5761	2.5455	0.1	111.72
6531	7.5761	2.7273	0.1	113.86
6532	7.5761	2.9091	0.1	114.93
6533	7.5761	3.0909	0.1	114.93
6534	7.5761	3.2727	0.1	113.86
6535	7.5761	3.4545	0.1	111.72
6536	7.5761	3.6364	0.1	108.53
6537	7.5761	3.8182	0.1	104.33
6538	7.5761	4.	0.1	99.138
6539	7.5761	4.1818	0.1	93.009
6540	7.5761	4.3636	0.1	85.991
6541	7.5761	4.5455	0.1	78.142
6542	7.5761	4.7273	0.1	69.527
6543	7.5761	4.9091	0.1	60.214
6544	7.5761	5.0909	0.1	50.278
6545	7.5761	5.2727	0.1	39.797
6546	7.5761	5.4545	0.1	28.852
6547	7.5761	5.6364	0.1	17.472
6548	7.5761	5.8182	0.1	5.3104
6549	7.7609	0.18182	0.1	4.0104
6550	7.7609	0.36364	0.1	15.236
6551	7.7609	0.54545	0.1	25.677
6552	7.7609	0.72727	0.1	35.71
6553	7.7609	0.90909	0.1	45.315
6554	7.7609	1.0909	0.1	54.417
6555	7.7609	1.2727	0.1	62.946
6556	7.7609	1.4545	0.1	70.835
6557	7.7609	1.6364	0.1	78.019
6558	7.7609	1.8182	0.1	84.442
6559	7.7609	2.	0.1	90.05
6560	7.7609	2.1818	0.1	94.797
6561	7.7609	2.3636	0.1	98.644
6562	7.7609	2.5455	0.1	101.56
6563	7.7609	2.7273	0.1	103.51
6564	7.7609	2.9091	0.1	104.5
6565	7.7609	3.0909	0.1	104.5
6566	7.7609	3.2727	0.1	103.51
6567	7.7609	3.4545	0.1	101.56
6568	7.7609	3.6364	0.1	98.644
6569	7.7609	3.8182	0.1	94.797
6570	7.7609	4.	0.1	90.05
6571	7.7609	4.1818	0.1	84.441
6572	7.7609	4.3636	0.1	78.019
6573	7.7609	4.5455	0.1	70.834
6574	7.7609	4.7273	0.1	62.946
6575	7.7609	4.9091	0.1	54.417
6576	7.7609	5.0909	0.1	45.315
6577	7.7609	5.2727	0.1	35.71
6578	7.7609	5.4545	0.1	25.677
6579	7.7609	5.6364	0.1	15.236
6580	7.7609	5.8182	0.1	4.0104
6581	7.9457	0.18182	0.1	2.7962
6582	7.9457	0.36364	0.1	13.142
6583	7.9457	0.54545	0.1	22.712
6584	7.9457	0.72727	0.1	31.901
6585	7.9457	0.90909	0.1	40.695
6586	7.9457	1.0909	0.1	49.027
6587	7.9457	1.2727	0.1	56.831
6588	7.9457	1.4545	0.1	64.048
6589	7.9457	1.6364	0.1	70.619
6590	7.9457	1.8182	0.1	76.493
6591	7.9457	2.	0.1	81.62
6592	7.9457	2.1818	0.1	85.96
6593	7.9457	2.3636	0.1	89.476
6594	7.9457	2.5455	0.1	92.14
6595	7.9457	2.7273	0.1	93.928
6596	7.9457	2.9091	0.1	94.826
6597	7.9457	3.0909	0.1	94.826
6598	7.9457	3.2727	0.1	93.928
6599	7.9457	3.4545	0.1	92.14
6600	7.9457	3.6364	0.1	89.476
6601	7.9457	3.8182	0.1	85.96
6602	7.9457	4.	0.1	81.62
6603	7.9457	4.1818	0.1	76.493
6604	7.9457	4.3636	0.1	70.619
6605	7.9457	4.5455	0.1	64.048
6606	7.9457	4.7273	0.1	56.831
6607	7.9457	4.9091	0.1	49.027
6608	7.9457	5.0909	0.1	40.695
6609	7.9457	5.2727	0.1	31.901
6610	7.9457	5.4545	0.1	22.712
6611	7.9457	5.6364	0.1	13.142
6612	7.9457	5.8182	0.1	2.7961
6613	8.1304	0.18182	0.1	1.686
6614	8.1304	0.36364	0.1	11.181
6615	8.1304	0.54545	0.1	19.944
6616	8.1304	0.72727	0.1	28.35
6617	8.1304	0.90909	0.1	36.393
6618	8.1304	1.0909	0.1	44.011
6619	8.1304	1.2727	0.1	51.145
6620	8.1304	1.4545	0.1	57.741
6621	8.1304	1.6364	0.1	63.745
6622	8.1304	1.8182	0.1	69.112
6623	8.1304	2.	0.1	73.796
6624	8.1304	2.1818	0.1	77.76
6625	8.1304	2.3636	0.1	80.972
6626	8.1304	2.5455	0.1	83.404
6627	8.1304	2.7273	0.1	85.037
6628	8.1304	2.9091	0.1	85.857
6629	8.1304	3.0909	0.1	85.857
6630	8.1304	3.2727	0.1	85.037
6631	8.1304	3.4545	0.1	83.404
6632	8.1304	3.6364	0.1	80.972
6633	8.1304	3.8182	0.1	77.76
6634	8.1304	4.	0.1	73.796
6635	8.1304	4.1818	0.1	69.112
6636	8.1304	4.3636	0.1	63.745
6637	8.1304	4.5455	0.1	57.741
6638	8.1304	4.7273	0.1	51.145
6639	8.1304	4.9091	0.1	44.011
6640	8.1304	5.0909	0.1	36.393
6641	8.1304	5.2727	0.1	28.35
6642	8.1304	5.4545	0.1	19.944
6643	8.1304	5.6364	0.1	11.181
6644	8.1304	5.8182	0.1	1.686
6645	8.3152	0.18182	0.1	0.7657
6646	8.3152	0.36364	0.1	9.3439
6647	8.3152	0.54545	0.1	17.357
6648	8.3152	0.72727	0.1	25.037
6649	8.3152	0.90909	0.1	32.383
6650	8.3152	1.0909	0.1	39.339
6651	8.3152	1.2727	0.1	45.853
6652	8.3152	1.4545	0.1	51.874
6653	8.3152	1.6364	0.1	57.355
6654	8.3152	1.8182	0.1	62.252
6655	8.3152	2.	0.1	66.527
6656	8.3152	2.1818	0.1	70.144
6657	8.3152	2.3636	0.1	73.075
6658	8.3152	2.5455	0.1	75.294
6659	8.3152	2.7273	0.1	76.784
6660	8.3152	2.9091	0.1	77.532
6661	8.3152	3.0909	0.1	77.532
6662	8.3152	3.2727	0.1	76.784
6663	8.3152	3.4545	0.1	75.294
6664	8.3152	3.6364	0.1	73.075
6665	8.3152	3.8182	0.1	70.144
6666	8.3152	4.	0.1	66.527
6667	8.3152	4.1818	0.1	62.252
6668	8.3152	4.3636	0.1	57.355
6669	8.3152	4.5455	0.1	51.874
6670	8.3152	4.7273	0.1	45.853
6671	8.3152	4.9091	0.1	39.339
6672	8.3152	5.0909	0.1	32.383
6673	8.3152	5.2727	0.1	25.037
6674	8.3152	5.4545	0.1	17.357
6675	8.3152	5.6364	0.1	9.3439
6676	8.3152	5.8182	0.1	0.76569
6677	8.5	0.18182	0.1	0.27267
6678	8.5	0.36364	0.1	7.6218
6679	8.5	0.54545	0.1	14.938
6680	8.5	0.72727	0.1	21.944
6681	8.5	0.90909	0.1	28.643
6682	8.5	1.0909	0.1	34.985
6683	8.5	1.2727	0.1	40.923
6684	8.5	1.4545	0.1	46.412
6685	8.5	1.6364	0.1	51.407
6686	8.5	1.8182	0.1	55.871
6687	8.5	2.	0.1	59.767
6688	8.5	2.1818	0.1	63.063
6689	8.5	2.3636	0.1	65.734
6690	8.5	2.5455	0.1	67.757
6691	8.5	2.7273	0.1	69.114
6692	8.5	2.9091	0.1	69.796
6693	8.5	3.0909	0.1	69.796
6694	8.5	3.2727	0.1	69.114
6695	8.5	3.4545	0.1	67.757
6696	8.5	3.6364	0.1	65.734
6697	8.5	3.8182	0.1	63.063
6698	8.5	4.	0.1	59.767
6699	8.5	4.1818	0.1	55.871
6700	8.5	4.3636	0.1	51.407
6701	8.5	4.5455	0.1	46.412
6702	8.5	4.7273	0.1	40.923
6703	8.5	4.9091	0.1	34.985
6704	8.5	5.0909	0.1	28.643
6705	8.5	5.2727	0.1	21.944
6706	8.5	5.4545	0.1	14.938
6707	8.5	5.6364	0.1	7.6218
6708	8.5	5.8182	0.1	0.27267
6709	8.6848	0.18182	0.1	0.12261
6710	8.6848	0.36364	0.1	6.0067
6711	8.6848	0.54545	0.1	12.674
6712	8.6848	0.72727	0.1	19.052
6713	8.6848	0.90909	0.1	25.149
6714	8.6848	1.0909	0.1	30.922
6715	8.6848	1.2727	0.1	36.325
6716	8.6848	1.4545	0.1	41.32
6717	8.6848	1.6364	0.1	45.866
6718	8.6848	1.8182	0.1	49.927
6719	8.6848	2.	0.1	53.473
6720	8.6848	2.1818	0.1	56.473
6721	8.6848	2.3636	0.1	58.903
6722	8.6848	2.5455	0.1	60.744
6723	8.6848	2.7273	0.1	61.979
6724	8.6848	2.9091	0.1	62.6
6725	8.6848	3.0909	0.1	62.6
6726	8.6848	3.2727	0.1	61.979
6727	8.6848	3.4545	0.1	60.743
6728	8.6848	3.6364	0.1	58.903
6729	8.6848	3.8182	0.1	56.473
6730	8.6848	4.	0.1	53.473
6731	8.6848	4.1818	0.1	49.927
6732	8.6848	4.3636	0.1	45.866
6733	8.6848	4.5455	0.1	41.32
6734	8.6848	4.7273	0.1	36.325
6735	8.6848	4.9091	0.1	30.922
6736	8.6848	5.0909	0.1	25.149
6737	8.6848	5.2727	0.1	19.052
6738	8.6848	5.4545	0.1	12.674
6739	8.6848	5.6364	0.1	6.0067
6740	8.6848	5.8182	0.1	0.12261
6741	8.8696	0.18182	0.1	6.9402e-002
6742	8.8696	0.36364	0.1	4.4906
6743	8.8696	0.54545	0.1	10.553
6744	8.8696	0.72727	0.1	16.346
6745	8.8696	0.90909	0.1	21.883
6746	8.8696	1.0909	0.1	27.124
6747	8.8696	1.2727	0.1	32.031
6748	8.8696	1.4545	0.1	36.566
6749	8.8696	1.6364	0.1	40.695
6750	8.8696	1.8182	0.1	44.384
6751	8.8696	2.	0.1	47.604
6752	8.8696	2.1818	0.1	50.329
6753	8.8696	2.3636	0.1	52.537
6754	8.8696	2.5455	0.1	54.21
6755	8.8696	2.7273	0.1	55.332
6756	8.8696	2.9091	0.1	55.896
6757	8.8696	3.0909	0.1	55.896
6758	8.8696	3.2727	0.1	55.332
6759	8.8696	3.4545	0.1	54.21
6760	8.8696	3.6364	0.1	52.537
6761	8.8696	3.8182	0.1	50.329
6762	8.8696	4.	0.1	47.604
6763	8.8696	4.1818	0.1	44.384
6764	8.8696	4.3636	0.1	40.695
6765	8.8696	4.5455	0.1	36.566
6766	8.8696	4.7273	0.1	32.031
6767	8.8696	4.9091	0.1	27.124
6768	8.8696	5.0909	0.1	21.883
6769	8.8696	5.2727	0.1	16.346
6770	8.8696	5.4545	0.1	10.553
6771	8.8696	5.6364	0.1	4.4906
6772	8.8696	5.8182	0.1	6.9403e-002
6773	9.0543	0.18182	0.1	4.4318e-002
6774	9.0543	0.36364	0.1	3.0659
6775	9.0543	0.54545	0.1	8.5626
6776	9.0543	0.72727	0.1	13.809
6777	9.0543	0.90909	0.1	18.822
6778	9.0543	1.0909	0.1	23.569
6779	9.0543	1.2727	0.1	28.013
6780	9.0543	1.4545	0.1	32.121
6781	9.0543	1.6364	0.1	35.862
6782	9.0543	1.8182	0.1	39.205
6783	9.0543	2.	0.1	42.123
6784	9.0543	2.1818	0.1	44.594
6785	9.0543	2.3636	0.1	46.596
6786	9.0543	2.5455	0.1	48.113
6787	9.0543	2.7273	0.1	49.131
6788	9.0543	2.9091	0.1	49.642
6789	9.0543	3.0909	0.1	49.642
6790	9.0543	3.2727	0.1	49.131
6791	9.0543	3.4545	0.1	48.113
6792	9.0543	3.6364	0.1	46.596
6793	9.0543	3.8182	0.1	44.594
6794	9.0543	4.	0.1	42.123
6795	9.0543	4.1818	0.1	39.205
6796	9.0543	4.3636	0.1	35.862
6797	9.0543	4.5455	0.1	32.121
6798	9.0543	4.7273	0.1	28.013
6799	9.0543	4.9091	0.1	23.569
6800	9.0543	5.0909	0.1	18.822
6801	9.0543	5.2727	0.1	13.809
6802	9.0543	5.4545	0.1	8.5626
6803	9.0543	5.6364	0.1	3.0659
6804	9.0543	5.8182	0.1	4.4318e-002
6805	9.2391	0.18182	0.1	3.0272e-002
6806	9.2391	0.36364	0.1	1.7255
6807	9.2391	0.54545	0.1	6.6915
6808	9.2391	0.72727	0.1	11.426
6809	9.2391	0.90909	0.1	15.95
6810	9.2391	1.0909	0.1	20.234
6811	9.2391	1.2727	0.1	24.246
6812	9.2391	1.4545	0.1	27.956
6813	9.2391	1.6364	0.1	31.335
6814	9.2391	1.8182	0.1	34.357
6815	9.2391	2.	0.1	36.996
6816	9.2391	2.1818	0.1	39.23
6817	9.2391	2.3636	0.1	41.041
6818	9.2391	2.5455	0.1	42.413
6819	9.2391	2.7273	0.1	43.335
6820	9.2391	2.9091	0.1	43.798
6821	9.2391	3.0909	0.1	43.798
6822	9.2391	3.2727	0.1	43.335
6823	9.2391	3.4545	0.1	42.413
6824	9.2391	3.6364	0.1	41.041
6825	9.2391	3.8182	0.1	39.23
6826	9.2391	4.	0.1	36.996
6827	9.2391	4.1818	0.1	34.357
6828	9.2391	4.3636	0.1	31.335
6829	9.2391	4.5455	0.1	27.956
6830	9.2391	4.7273	0.1	24.246
6831	9.2391	4.9091	0.1	20.234
6832	9.2391	5.0909	0.1	15.95
6833	9.2391	5.2727	0.1	11.426
6834	9.2391	5.4545	0.1	6.6915
6835	9.2391	5.6364	0.1	1.7255
6836	9.2391	5.8182	0.1	3.0273e-002
6837	9.4239	0.18182	0.1	2.1554e-002
6838	9.4239	0.36364	0.1	0.46533
6839	9.4239	0.54545	0.1	4.9289
6840	9.4239	0.72727	0.1	9.1823
6841	9.4239	0.90909	0.1	13.248
6842	9.4239	1.0909	0.1	17.098
6843	9.4239	1.2727	0.1	20.707
6844	9.4239	1.4545	0.1	24.045
6845	9.4239	1.6364	0.1	27.087
6846	9.4239	1.8182	0.1	29.809
6847	9.4239	2.	0.1	32.188
6848	9.4239	2.1818	0.1	34.203
6849	9.4239	2.3636	0.1	35.837
6850	9.4239	2.5455	0.1	37.076
6851	9.4239	2.7273	0.1	37.908
6852	9.4239	2.9091	0.1	38.326
6853	9.4239	3.0909	0.1	38.326
6854	9.4239	3.2727	0.1	37.908
6855	9.4239	3.4545	0.1	37.076
6856	9.4239	3.6364	0.1	35.837
6857	9.4239	3.8182	0.1	34.203
6858	9.4239	4.	0.1	32.188
6859	9.4239	4.1818	0.1	29.809
6860	9.4239	4.3636	0.1	27.087
6861	9.4239	4.5455	0.1	24.045
6862	9.4239	4.7273	0.1	20.707
6863	9.4239	4.9091	0.1	17.098
6864	9.4239	5.0909	0.1	13.248
6865	9.4239	5.2727	0.1	9.1823
6866	9.4239	5.4545	0.1	4.9288
6867	9.4239	5.6364	0.1	0.46531
6868	9.4239	5.8182	0.1	2.1555e-002
6869	9.6087	0.18182	0.1	1.5764e-002
6870	9.6087	0.36364	0.1	-1.0872e-002
6871	9.6087	0.54545	0.1	3.2641
6872	9.6087	0.72727	0.1	7.0644
6873	9.6087	0.90909	0.1	10.698
6874	9.6087	1.0909	0.1	14.142
6875	9.6087	1.2727	0.1	17.371
6876	9.6087	1.4545	0.1	20.362
6877	9.6087	1.6364	0.1	23.09
6878	9.6087	1.8182	0.1	25.532
6879	9.6087	2.	0.1	27.669
6880	9.6087	2.1818	0.1	29.481
6881	9.6087	2.3636	0.1	30.951
6882	9.6087	2.5455	0.1	32.066
6883	9.6087	2.7273	0.1	32.815
6884	9.6087	2.9091	0.1	33.192
6885	9.6087	3.0909	0.1	33.192
6886	9.6087	3.2727	0.1	32.815
6887	9.6087	3.4545	0.1	32.066
6888	9.6087	3.6364	0.1	30.951
6889	9.6087	3.8182	0.1	29.481
6890	9.6087	4.	0.1	27.669
6891	9.6087	4.1818	0.1	25.532
6892	9.6087	4.3636	0.1	23.09
6893	9.6087	4.5455	0.1	20.362
6894	9.6087	4.7273	0.1	17.371
6895	9.6087	4.9091	0.1	14.142
6896	9.6087	5.0909	0.1	10.698
6897	9.6087	5.2727	0.1	7.0643
6898	9.6087	5.4545	0.1	3.264
6899	9.6087	5.6364	0.1	-1.087e-002
6900	9.6087	5.8182	0.1	1.5765e-002
6901	9.7935	0.18182	0.1	1.174e-002
6902	9.7935	0.36364	0.1	-1.0514e-002
6903	9.7935	0.54545	0.1	1.6872
6904	9.7935	0.72727	0.1	5.0584
6905	9.7935	0.90909	0.1	8.2837
6906	9.7935	1.0909	0.1	11.344
6907	9.7935	1.2727	0.1	14.218
6908	9.7935	1.4545	0.1	16.882
6909	9.7935	1.6364	0.1	19.316
6910	9.7935	1.8182	0.1	21.499
6911	9.7935	2.	0.1	23.41
6912	9.7935	2.1818	0.1	25.033
6913	9.7935	2.3636	0.1	26.351
6914	9.7935	2.5455	0.1	27.351
6915	9.7935	2.7273	0.1	28.024
6916	9.7935	2.9091	0.1	28.362
6917	9.7935	3.0909	0.1	28.362
6918	9.7935	3.2727	0.1	28.024
6919	9.7935	3.4545	0.1	27.351
6920	9.7935	3.6364	0.1	26.351
6921	9.7935	3.8182	0.1	25.033
6922	9.7935	4.	0.1	23.41
6923	9.7935	4.1818	0.1	21.499
6924	9.7935	4.3636	0.1	19.316
6925	9.7935	4.5455	0.1	16.882
6926	9.7935	4.7273	0.1	14.218
6927	9.7935	4.9091	0.1	11.344
6928	9.7935	5.0909	0.1	8.2837
6929	9.7935	5.2727	0.1	5.0583
6930	9.7935	5.4545	0.1	1.6871
6931	9.7935	5.6364	0.1	-1.0513e-002
6932	9.7935	5.8182	0.1	1.1742e-002
6933	9.9783	0.18182	0.1	8.8388e-003
6934	9.9783	0.36364	0.1	-8.4291e-003
6935	9.9783	0.54545	0.1	0.19922
6936	9.9783	0.72727	0.1	3.1512
6937	9.9783	0.90909	0.1	5.9894
6938	9.9783	1.0909	0.1	8.6871
6939	9.9783	1.2727	0.1	11.225
6940	9.9783	1.4545	0.1	13.583
6941	9.9783	1.6364	0.1	15.742
6942	9.9783	1.8182	0.1	17.682
6943	9.9783	2.	0.1	19.384
6944	9.9783	2.1818	0.1	20.831
6945	9.9783	2.3636	0.1	22.009
6946	9.9783	2.5455	0.1	22.903
6947	9.9783	2.7273	0.1	23.506
6948	9.9783	2.9091	0.1	23.809
6949	9.9783	3.0909	0.1	23.809
6950	9.9783	3.2727	0.1	23.506
6951	9.9783	3.4545	0.1	22.903
6952	9.9783	3.6364	0.1	22.009
6953	9.9783	3.8182	0.1	20.831
6954	9.9783	4.	0.1	19.384
6955	9.9783	4.1818	0.1	17.682
6956	9.9783	4.3636	0.1	15.742
6957	9.9783	4.5455	0.1	13.583
6958	9.9783	4.7273	0.1	11.225
6959	9.9783	4.9091	0.1	8.687
6960	9.9783	5.0909	0.1	5.9893
6961	9.9783	5.2727	0.1	3.1512
6962	9.9783	5.4545	0.1	0.19919
6963	9.9783	5.6364	0.1	-8.4283e-003
6964	9.9783	5.8182	0.1	8.8403e-003
6965	10.163	0.18182	0.1	6.6727e-003
6966	10.163	0.36364	0.1	-6.1687e-003
6967	10.163	0.54545	0.1	1.0263e-003
6968	10.163	0.72727	0.1	1.3318
6969	10.163	0.90909	0.1	3.7989
6970	10.163	1.0909	0.1	6.152
6971	10.163	1.2727	0.1	8.3725
6972	10.163	1.4545	0.1	10.442
6973	10.163	1.6364	0.1	12.343
6974	10.163	1.8182	0.1	14.056
6975	10.163	2.	0.1	15.563
6976	10.163	2.1818	0.1	16.849
6977	10.163	2.3636	0.1	17.896
6978	10.163	2.5455	0.1	18.694
6979	10.163	2.7273	0.1	19.231
6980	10.163	2.9091	0.1	19.502
6981	10.163	3.0909	0.1	19.502
6982	10.163	3.2727	0.1	19.231
6983	10.163	3.4545	0.1	18.694
6984	10.163	3.6364	0.1	17.896
6985	10.163	3.8182	0.1	16.848
6986	10.163	4.	0.1	15.563
6987	10.163	4.1818	0.1	14.056
6988	10.163	4.3636	0.1	12.343
6989	10.163	4.5455	0.1	10.442
6990	10.163	4.7273	0.1	8.3725
6991	10.163	4.9091	0.1	6.152
6992	10.163	5.0909	0.1	3.7988
6993	10.163	5.2727	0.1	1.3318
6994	10.163	5.4545	0.1	1.0267e-003
6995	10.163	5.6364	0.1	-6.1676e-003
6996	10.163	5.8182	0.1	6.6734e-003
6997	10.348	0.18182	0.1	5.0379e-003
6998	10.348	0.36364	0.1	-3.8873e-003
6999	10.348	0.54545	0.1	4.1575e-004
7000	10.348	0.72727	0.1	1.7841e-002
7001	10.348	0.90909	0.1	1.6983
7002	10.348	1.0909	0.1	3.721
7003	10.348	1.2727	0.1	5.6401
7004	10.348	1.4545	0.1	7.4378
7005	10.348	1.6364	0.1	9.0963
7006	10.348	1.8182	0.1	10.598
7007	10.348	2.	0.1	11.925
7008	10.348	2.1818	0.1	13.06
7009	10.348	2.3636	0.1	13.988
7010	10.348	2.5455	0.1	14.697
7011	10.348	2.7273	0.1	15.176
7012	10.348	2.9091	0.1	15.417
7013	10.348	3.0909	0.1	15.417
7014	10.348	3.2727	0.1	15.176
7015	10.348	3.4545	0.1	14.697
7016	10.348	3.6364	0.1	13.988
7017	10.348	3.8182	0.1	13.06
7018	10.348	4.	0.1	11.925
7019	10.348	4.1818	0.1	10.598
7020	10.348	4.3636	0.1	9.0963
7021	10.348	4.5455	0.1	7.4378
7022	10.348	4.7273	0.1	5.6401
7023	10.348	4.9091	0.1	3.721
7024	10.348	5.0909	0.1	1.6983
7025	10.348	5.2727	0.1	1.784e-002
7026	10.348	5.4545	0.1	4.1596e-004
7027	10.348	5.6364	0.1	-3.8875e-003
7028	10.348	5.8182	0.1	5.0387e-003
7029	10.533	0.18182	0.1	3.7888e-003
7030	10.533	0.36364	0.1	-1.651e-003
7031	10.533	0.54545	0.1	5.9362e-004
7032	10.533	0.72727	0.1	2.5876e-003
7033	10.533	0.90909	0.1	2.8727e-002
7034	10.533	1.0909	0.1	1.379
7035	10.533	1.2727	0.1	3.0082
7036	10.533	1.4545	0.1	4.548
7037	10.533	1.6364	0.1	5.9792
7038	10.533	1.8182	0.1	7.2837
7039	10.533	2.	0.1	8.4436
7040	10.533	2.1818	0.1	9.4413
7041	10.533	2.3636	0.1	10.261
7042	10.533	2.5455	0.1	10.889
7043	10.533	2.7273	0.1	11.314
7044	10.533	2.9091	0.1	11.528
7045	10.533	3.0909	0.1	11.528
7046	10.533	3.2727	0.1	11.314
7047	10.533	3.4545	0.1	10.889
7048	10.533	3.6364	0.1	10.261
7049	10.533	3.8182	0.1	9.4413
7050	10.533	4.	0.1	8.4436
7051	10.533	4.1818	0.1	7.2837
7052	10.533	4.3636	0.1	5.9792
7053	10.533	4.5455	0.1	4.548
7054	10.533	4.7273	0.1	3.0082
7055	10.533	4.9091	0.1	1.379
7056	10.533	5.0909	0.1	2.8725e-002
7057	10.533	5.2727	0.1	2.5888e-003
7058	10.533	5.4545	0.1	5.9428e-004
7059	10.533	5.6364	0.1	-1.6504e-003
7060	10.533	5.8182	0.1	3.7897e-003
7061	10.717	0.18182	0.1	2.8634e-003
7062	10.717	0.36364	0.1	5.9342e-004
7063	10.717	0.54545	0.1	9.4269e-004
7064	10.717	0.72727	0.1	1.1806e-003
7065	10.717	0.90909	0.1	2.5695e-003
7066	10.717	1.0909	0.1	9.351e-003
7067	10.717	1.2727	0.1	0.47215
7068	10.717	1.4545	0.1	1.7534
7069	10.717	1.6364	0.1	2.97
7070	10.717	1.8182	0.1	4.0912
7071	10.717	2.	0.1	5.0973
7072	10.717	2.1818	0.1	5.9697
7073	10.717	2.3636	0.1	6.691
7074	10.717	2.5455	0.1	7.2463
7075	10.717	2.7273	0.1	7.6235
7076	10.717	2.9091	0.1	7.8143
7077	10.717	3.0909	0.1	7.8143
7078	10.717	3.2727	0.1	7.6235
7079	10.717	3.4545	0.1	7.2463
7080	10.717	3.6364	0.1	6.691
7081	10.717	3.8182	0.1	5.9697
7082	10.717	4.	0.1	5.0973
7083	10.717	4.1818	0.1	4.0912
7084	10.717	4.3636	0.1	2.9699
7085	10.717	4.5455	0.1	1.7533
7086	10.717	4.7273	0.1	0.47211
7087	10.717	4.9091	0.1	9.351e-003
7088	10.717	5.0909	0.1	2.5705e-003
7089	10.717	5.2727	0.1	1.1818e-003
7090	10.717	5.4545	0.1	9.4312e-004
7091	10.717	5.6364	0.1	5.9439e-004
7092	10.717	5.8182	0.1	2.8641e-003
7093	10.902	0.18182	0.1	2.1948e-003
7094	10.902	0.36364	0.1	2.8454e-003
7095	10.902	0.54545	0.1	1.3408e-003
7096	10.902	0.72727	0.1	8.5405e-004
7097	10.902	0.90909	0.1	4.053e-004
7098	10.902	1.0909	0.1	3.1382e-004
7099	10.902	1.2727	0.1	8.6628e-004
7100	10.902	1.4545	0.1	3.7833e-003
7101	10.902	1.6364	0.1	0.10111
7102	10.902	1.8182	0.1	1.0003
7103	10.902	2.	0.1	1.8643
7104	10.902	2.1818	0.1	2.6233
7105	10.902	2.3636	0.1	3.257
7106	10.902	2.5455	0.1	3.7484
7107	10.902	2.7273	0.1	4.084
7108	10.902	2.9091	0.1	4.2542
7109	10.902	3.0909	0.1	4.2542
7110	10.902	3.2727	0.1	4.084
7111	10.902	3.4545	0.1	3.7484
7112	10.902	3.6364	0.1	3.257
7113	10.902	3.8182	0.1	2.6233
7114	10.902	4.	0.1	1.8643
7115	10.902	4.1818	0.1	1.0003
7116	10.902	4.3636	0.1	0.10109
7117	10.902	4.5455	0.1	3.784e-003
7118	10.902	4.7273	0.1	8.6662e-004
7119	10.902	4.9091	0.1	3.1428e-004
7120	10.902	5.0909	0.1	4.0645e-004
7121	10.902	5.2727	0.1	8.554e-004
7122	10.902	5.4545	0.1	1.3409e-003
7123	10.902	5.6364	0.1	2.8465e-003
7124	10.902	5.8182	0.1	2.1963e-003
7125	11.087	0.18182	0.1	1.736e-003
7126	11.087	0.36364	0.1	5.1105e-003
7127	11.087	0.54545	0.1	1.736e-003
7128	11.087	0.72727	0.1	8.0759e-004
7129	11.087	0.90909	0.1	-3.8371e-004
7130	11.087	1.0909	0.1	-1.2941e-003
7131	11.087	1.2727	0.1	-2.0527e-003
7132	11.087	1.4545	0.1	-2.6281e-003
7133	11.087	1.6364	0.1	-3.032e-003
7134	11.087	1.8182	0.1	-3.2585e-003
7135	11.087	2.	0.1	-3.2535e-003
7136	11.087	2.1818	0.1	-2.6935e-003
7137	11.087	2.3636	0.1	7.9415e-003
7138	11.087	2.5455	0.1	0.37623
7139	11.087	2.7273	0.1	0.67579
7140	11.087	2.9091	0.1	0.82863
7141	11.087	3.0909	0.1	0.82863
7142	11.087	3.2727	0.1	0.67578
7143	11.087	3.4545	0.1	0.37622
7144	11.087	3.6364	0.1	7.9397e-003
7145	11.087	3.8182	0.1	-2.6932e-003
7146	11.087	4.	0.1	-3.2535e-003
7147	11.087	4.1818	0.1	-3.2579e-003
7148	11.087	4.3636	0.1	-3.0318e-003
7149	11.087	4.5455	0.1	-2.628e-003
7150	11.087	4.7273	0.1	-2.0519e-003
7151	11.087	4.9091	0.1	-1.2934e-003
7152	11.087	5.0909	0.1	-3.8217e-004
7153	11.087	5.2727	0.1	8.0908e-004
7154	11.087	5.4545	0.1	1.7358e-003
7155	11.087	5.6364	0.1	5.1107e-003
7156	11.087	5.8182	0.1	1.737e-003
7157	11.272	0.18182	0.1	1.4564e-003
7158	11.272	0.36364	0.1	7.4011e-003
7159	11.272	0.54545	0.1	2.1007e-003
7160	11.272	0.72727	0.1	8.4282e-004
7161	11.272	0.90909	0.1	-8.3714e-004
7162	11.272	1.0909	0.1	-2.0676e-003
7163	11.272	1.2727	0.1	-3.0812e-003
7164	11.272	1.4545	0.1	-3.8514e-003
7165	11.272	1.6364	0.1	-4.4201e-003
7166	11.272	1.8182	0.1	-4.8237e-003
7167	11.272	2.	0.1	-5.0974e-003
7168	11.272	2.1818	0.1	-5.2737e-003
7169	11.272	2.3636	0.1	-5.3829e-003
7170	11.272	2.5455	0.1	-5.4505e-003
7171	11.272	2.7273	0.1	-5.4881e-003
7172	11.272	2.9091	0.1	-5.5061e-003
7173	11.272	3.0909	0.1	-5.506e-003
7174	11.272	3.2727	0.1	-5.4883e-003
7175	11.272	3.4545	0.1	-5.4498e-003
7176	11.272	3.6364	0.1	-5.3824e-003
7177	11.272	3.8182	0.1	-5.2726e-003
7178	11.272	4.	0.1	-5.097e-003
7179	11.272	4.1818	0.1	-4.8235e-003
7180	11.272	4.3636	0.1	-4.4197e-003
7181	11.272	4.5455	0.1	-3.8501e-003
7182	11.272	4.7273	0.1	-3.0806e-003
7183	11.272	4.9091	0.1	-2.0669e-003
7184	11.272	5.0909	0.1	-8.3584e-004
7185	11.272	5.2727	0.1	8.4383e-004
7186	11.272	5.4545	0.1	2.1018e-003
7187	11.272	5.6364	0.1	7.4022e-003
7188	11.272	5.8182	0.1	1.4566e-003
7189	11.457	0.18182	0.1	1.2979e-003
7190	11.457	0.36364	0.1	9.6896e-003
7191	11.457	0.54545	0.1	2.3742e-003
7192	11.457	0.72727	0.1	8.3183e-004
7193	11.457	0.90909	0.1	-1.2501e-003
7194	11.457	1.0909	0.1	-2.6802e-003
7195	11.457	1.2727	0.1	-3.8111e-003
7196	11.457	1.4545	0.1	-4.6177e-003
7197	11.457	1.6364	0.1	-5.1714e-003
7198	11.457	1.8182	0.1	-5.5213e-003
7199	11.457	2.	0.1	-5.7184e-003
7200	11.457	2.1818	0.1	-5.8071e-003
7201	11.457	2.3636	0.1	-5.8265e-003
7202	11.457	2.5455	0.1	-5.8126e-003
7203	11.457	2.7273	0.1	-5.7869e-003
7204	11.457	2.9091	0.1	-5.7698e-003
7205	11.457	3.0909	0.1	-5.77e-003
7206	11.457	3.2727	0.1	-5.7872e-003
7207	11.457	3.4545	0.1	-5.8122e-003
7208	11.457	3.6364	0.1	-5.8264e-003
7209	11.457	3.8182	0.1	-5.8066e-003
7210	11.457	4.	0.1	-5.7184e-003
7211	11.457	4.1818	0.1	-5.5214e-003
7212	11.457	4.3636	0.1	-5.1709e-003
7213	11.457	4.5455	0.1	-4.6175e-003
7214	11.457	4.7273	0.1	-3.8101e-003
7215	11.457	4.9091	0.1	-2.6802e-003
7216	11.457	5.0909	0.1	-1.2483e-003
7217	11.457	5.2727	0.1	8.3307e-004
7218	11.457	5.4545	0.1	2.374e-003
7219	11.457	5.6364	0.1	9.6903e-003
7220	11.457	5.8182	0.1	1.2983e-003
7221	11.641	0.18182	0.1	1.3327e-003
7222	11.641	0.36364	0.1	1.2071e-002
7223	11.641	0.54545	0.1	2.6087e-003
7224	11.641	0.72727	0.1	8.0477e-004
7225	11.641	0.90909	0.1	-1.6465e-003
7226	11.641	1.0909	0.1	-3.2349e-003
7227	11.641	1.2727	0.1	-4.4441e-003
7228	11.641	1.4545	0.1	-5.2587e-003
7229	11.641	1.6364	0.1	-5.7798e-003
7230	11.641	1.8182	0.1	-6.0719e-003
7231	11.641	2.	0.1	-6.2001e-003
7232	11.641	2.1818	0.1	-6.2182e-003
7233	11.641	2.3636	0.1	-6.1759e-003
7234	11.641	2.5455	0.1	-6.111e-003
7235	11.641	2.7273	0.1	-6.0515e-003
7236	11.641	2.9091	0.1	-6.0165e-003
7237	11.641	3.0909	0.1	-6.0159e-003
7238	11.641	3.2727	0.1	-6.0513e-003
7239	11.641	3.4545	0.1	-6.1111e-003
7240	11.641	3.6364	0.1	-6.1755e-003
7241	11.641	3.8182	0.1	-6.2182e-003
7242	11.641	4.	0.1	-6.2001e-003
7243	11.641	4.1818	0.1	-6.0713e-003
7244	11.641	4.3636	0.1	-5.7792e-003
7245	11.641	4.5455	0.1	-5.2588e-003
7246	11.641	4.7273	0.1	-4.444e-003
7247	11.641	4.9091	0.1	-3.2342e-003
7248	11.641	5.0909	0.1	-1.6451e-003
7249	11.641	5.2727	0.1	8.0589e-004
7250	11.641	5.4545	0.1	2.6093e-003
7251	11.641	5.6364	0.1	1.2073e-002
7252	11.641	5.8182	0.1	1.334e-003
7253	11.826	0.18182	0.1	1.589e-003
7254	11.826	0.36364	0.1	1.4586e-002
7255	11.826	0.54545	0.1	2.8032e-003
7256	11.826	0.72727	0.1	7.4439e-004
7257	11.826	0.90909	0.1	-2.0681e-003
7258	11.826	1.0909	0.1	-3.795e-003
7259	11.826	1.2727	0.1	-5.0661e-003
7260	11.826	1.4545	0.1	-5.8764e-003
7261	11.826	1.6364	0.1	-6.3555e-003
7262	11.826	1.8182	0.1	-6.5855e-003
7263	11.826	2.	0.1	-6.6442e-003
7264	11.826	2.1818	0.1	-6.5957e-003
7265	11.826	2.3636	0.1	-6.4946e-003
7266	11.826	2.5455	0.1	-6.384e-003
7267	11.826	2.7273	0.1	-6.2935e-003
7268	11.826	2.9091	0.1	-6.243e-003
7269	11.826	3.0909	0.1	-6.2433e-003
7270	11.826	3.2727	0.1	-6.2933e-003
7271	11.826	3.4545	0.1	-6.384e-003
7272	11.826	3.6364	0.1	-6.4944e-003
7273	11.826	3.8182	0.1	-6.5952e-003
7274	11.826	4.	0.1	-6.6438e-003
7275	11.826	4.1818	0.1	-6.5854e-003
7276	11.826	4.3636	0.1	-6.3552e-003
7277	11.826	4.5455	0.1	-5.876e-003
7278	11.826	4.7273	0.1	-5.0657e-003
7279	11.826	4.9091	0.1	-3.7944e-003
7280	11.826	5.0909	0.1	-2.0671e-003
7281	11.826	5.2727	0.1	7.4534e-004
7282	11.826	5.4545	0.1	2.8033e-003
7283	11.826	5.6364	0.1	1.4586e-002
7284	11.826	5.8182	0.1	1.5896e-003
7285	12.011	0.18182	0.1	2.0645e-003
7286	12.011	0.36364	0.1	1.7229e-002
7287	12.011	0.54545	0.1	2.9068e-003
7288	12.011	0.72727	0.1	5.9097e-004
7289	12.011	0.90909	0.1	-2.5848e-003
7290	12.011	1.0909	0.1	-4.439e-003
7291	12.011	1.2727	0.1	-5.7592e-003
7292	12.011	1.4545	0.1	-6.5532e-003
7293	12.011	1.6364	0.1	-6.9793e-003
7294	12.011	1.8182	0.1	-7.1383e-003
7295	12.011	2.	0.1	-7.121e-003
7296	12.011	2.1818	0.1	-6.9998e-003
7297	12.011	2.3636	0.1	-6.8375e-003
7298	12.011	2.5455	0.1	-6.6795e-003
7299	12.011	2.7273	0.1	-6.5574e-003
7300	12.011	2.9091	0.1	-6.4912e-003
7301	12.011	3.0909	0.1	-6.4913e-003
7302	12.011	3.2727	0.1	-6.5573e-003
7303	12.011	3.4545	0.1	-6.6797e-003
7304	12.011	3.6364	0.1	-6.8372e-003
7305	12.011	3.8182	0.1	-6.9993e-003
7306	12.011	4.	0.1	-7.1207e-003
7307	12.011	4.1818	0.1	-7.1378e-003
7308	12.011	4.3636	0.1	-6.9792e-003
7309	12.011	4.5455	0.1	-6.5522e-003
7310	12.011	4.7273	0.1	-5.7587e-003
7311	12.011	4.9091	0.1	-4.438e-003
7312	12.011	5.0909	0.1	-2.5836e-003
7313	12.011	5.2727	0.1	5.9217e-004
7314	12.011	5.4545	0.1	2.9073e-003
7315	12.011	5.6364	0.1	1.723e-002
7316	12.011	5.8182	0.1	2.0648e-003
7317	12.196	0.18182	0.1	2.8599e-003
7318	12.196	0.36364	0.1	2.0095e-002
7319	12.196	0.54545	0.1	2.9559e-003
7320	12.196	0.72727	0.1	3.7836e-004
7321	12.196	0.90909	0.1	-3.1723e-003
7322	12.196	1.0909	0.1	-5.1426e-003
7323	12.196	1.2727	0.1	-6.5006e-003
7324	12.196	1.4545	0.1	-7.2626e-003
7325	12.196	1.6364	0.1	-7.6218e-003
7326	12.196	1.8182	0.1	-7.696e-003
7327	12.196	2.	0.1	-7.5904e-003
7328	12.196	2.1818	0.1	-7.3897e-003
7329	12.196	2.3636	0.1	-7.1598e-003
7330	12.196	2.5455	0.1	-6.9531e-003
7331	12.196	2.7273	0.1	-6.798e-003
7332	12.196	2.9091	0.1	-6.7158e-003
7333	12.196	3.0909	0.1	-6.7159e-003
7334	12.196	3.2727	0.1	-6.7978e-003
7335	12.196	3.4545	0.1	-6.9525e-003
7336	12.196	3.6364	0.1	-7.1599e-003
7337	12.196	3.8182	0.1	-7.3893e-003
7338	12.196	4.	0.1	-7.5904e-003
7339	12.196	4.1818	0.1	-7.6961e-003
7340	12.196	4.3636	0.1	-7.6213e-003
7341	12.196	4.5455	0.1	-7.2625e-003
7342	12.196	4.7273	0.1	-6.4997e-003
7343	12.196	4.9091	0.1	-5.142e-003
7344	12.196	5.0909	0.1	-3.171e-003
7345	12.196	5.2727	0.1	3.8011e-004
7346	12.196	5.4545	0.1	2.9566e-003
7347	12.196	5.6364	0.1	2.0095e-002
7348	12.196	5.8182	0.1	2.8602e-003
7349	12.38	0.18182	0.1	4.0411e-003
7350	12.38	0.36364	0.1	2.3216e-002
7351	12.38	0.54545	0.1	2.9246e-003
7352	12.38	0.72727	0.1	7.9535e-005
7353	12.38	0.90909	0.1	-3.8607e-003
7354	12.38	1.0909	0.1	-5.9376e-003
7355	12.38	1.2727	0.1	-7.3177e-003
7356	12.38	1.4545	0.1	-8.0286e-003
7357	12.38	1.6364	0.1	-8.3017e-003
7358	12.38	1.8182	0.1	-8.274e-003
7359	12.38	2.	0.1	-8.067e-003
7360	12.38	2.1818	0.1	-7.7761e-003
7361	12.38	2.3636	0.1	-7.4751e-003
7362	12.38	2.5455	0.1	-7.2159e-003
7363	12.38	2.7273	0.1	-7.0291e-003
7364	12.38	2.9091	0.1	-6.9318e-003
7365	12.38	3.0909	0.1	-6.9318e-003
7366	12.38	3.2727	0.1	-7.029e-003
7367	12.38	3.4545	0.1	-7.2161e-003
7368	12.38	3.6364	0.1	-7.475e-003
7369	12.38	3.8182	0.1	-7.7755e-003
7370	12.38	4.	0.1	-8.0666e-003
7371	12.38	4.1818	0.1	-8.2731e-003
7372	12.38	4.3636	0.1	-8.3019e-003
7373	12.38	4.5455	0.1	-8.0278e-003
7374	12.38	4.7273	0.1	-7.317e-003
7375	12.38	4.9091	0.1	-5.9371e-003
7376	12.38	5.0909	0.1	-3.8597e-003
7377	12.38	5.2727	0.1	8.0942e-005
7378	12.38	5.4545	0.1	2.9254e-003
7379	12.38	5.6364	0.1	2.3216e-002
7380	12.38	5.8182	0.1	4.041e-003
7381	12.565	0.18182	0.1	5.6974e-003
7382	12.565	0.36364	0.1	2.6636e-002
7383	12.565	0.54545	0.1	2.7863e-003
7384	12.565	0.72727	0.1	-3.3179e-004
7385	12.565	0.90909	0.1	-4.6796e-003
7386	12.565	1.0909	0.1	-6.8484e-003
7387	12.565	1.2727	0.1	-8.2096e-003
7388	12.565	1.4545	0.1	-8.8807e-003
7389	12.565	1.6364	0.1	-9.0305e-003
7390	12.565	1.8182	0.1	-8.8786e-003
7391	12.565	2.	0.1	-8.5553e-003
7392	12.565	2.1818	0.1	-8.1648e-003
7393	12.565	2.3636	0.1	-7.7885e-003
7394	12.565	2.5455	0.1	-7.4802e-003
7395	12.565	2.7273	0.1	-7.2641e-003
7396	12.565	2.9091	0.1	-7.1542e-003
7397	12.565	3.0909	0.1	-7.1544e-003
7398	12.565	3.2727	0.1	-7.2642e-003
7399	12.565	3.4545	0.1	-7.4796e-003
7400	12.565	3.6364	0.1	-7.7885e-003
7401	12.565	3.8182	0.1	-8.1648e-003
7402	12.565	4.	0.1	-8.5547e-003
7403	12.565	4.1818	0.1	-8.8789e-003
7404	12.565	4.3636	0.1	-9.0296e-003
7405	12.565	4.5455	0.1	-8.8807e-003
7406	12.565	4.7273	0.1	-8.2096e-003
7407	12.565	4.9091	0.1	-6.8479e-003
7408	12.565	5.0909	0.1	-4.678e-003
7409	12.565	5.2727	0.1	-3.3035e-004
7410	12.565	5.4545	0.1	2.7861e-003
7411	12.565	5.6364	0.1	2.6636e-002
7412	12.565	5.8182	0.1	5.6981e-003
7413	12.75	0.18182	0.1	7.9524e-003
7414	12.75	0.36364	0.1	3.0403e-002
7415	12.75	0.54545	0.1	2.5094e-003
7416	12.75	0.72727	0.1	-8.8127e-004
7417	12.75	0.90909	0.1	-5.6521e-003
7418	12.75	1.0909	0.1	-7.894e-003
7419	12.75	1.2727	0.1	-9.2533e-003
7420	12.75	1.4545	0.1	-9.7831e-003
7421	12.75	1.6364	0.1	-9.8078e-003
7422	12.75	1.8182	0.1	-9.5091e-003
7423	12.75	2.	0.1	-9.0509e-003
7424	12.75	2.1818	0.1	-8.5541e-003
7425	12.75	2.3636	0.1	-8.1048e-003
7426	12.75	2.5455	0.1	-7.7531e-003
7427	12.75	2.7273	0.1	-7.5181e-003
7428	12.75	2.9091	0.1	-7.4016e-003
7429	12.75	3.0909	0.1	-7.4019e-003
7430	12.75	3.2727	0.1	-7.5179e-003
7431	12.75	3.4545	0.1	-7.7534e-003
7432	12.75	3.6364	0.1	-8.1041e-003
7433	12.75	3.8182	0.1	-8.5535e-003
7434	12.75	4.	0.1	-9.0511e-003
7435	12.75	4.1818	0.1	-9.5083e-003
7436	12.75	4.3636	0.1	-9.8072e-003
7437	12.75	4.5455	0.1	-9.783e-003
7438	12.75	4.7273	0.1	-9.2528e-003
7439	12.75	4.9091	0.1	-7.8939e-003
7440	12.75	5.0909	0.1	-5.6509e-003
7441	12.75	5.2727	0.1	-8.7933e-004
7442	12.75	5.4545	0.1	2.5098e-003
7443	12.75	5.6364	0.1	3.0403e-002
7444	12.75	5.8182	0.1	7.9532e-003
7445	12.935	0.18182	0.1	1.093e-002
7446	12.935	0.36364	0.1	3.4535e-002
7447	12.935	0.54545	0.1	2.024e-003
7448	12.935	0.72727	0.1	-1.6274e-003
7449	12.935	0.90909	0.1	-6.8388e-003
7450	12.935	1.0909	0.1	-9.1248e-003
7451	12.935	1.2727	0.1	-1.0425e-002
7452	12.935	1.4545	0.1	-1.0813e-002
7453	12.935	1.6364	0.1	-1.066e-002
7454	12.935	1.8182	0.1	-1.0185e-002
7455	12.935	2.	0.1	-9.5767e-003
7456	12.935	2.1818	0.1	-8.9698e-003
7457	12.935	2.3636	0.1	-8.4558e-003
7458	12.935	2.5455	0.1	-8.0791e-003
7459	12.935	2.7273	0.1	-7.842e-003
7460	12.935	2.9091	0.1	-7.7313e-003
7461	12.935	3.0909	0.1	-7.7316e-003
7462	12.935	3.2727	0.1	-7.8423e-003
7463	12.935	3.4545	0.1	-8.0787e-003
7464	12.935	3.6364	0.1	-8.4557e-003
7465	12.935	3.8182	0.1	-8.9698e-003
7466	12.935	4.	0.1	-9.5763e-003
7467	12.935	4.1818	0.1	-1.0185e-002
7468	12.935	4.3636	0.1	-1.066e-002
7469	12.935	4.5455	0.1	-1.0811e-002
7470	12.935	4.7273	0.1	-1.0426e-002
7471	12.935	4.9091	0.1	-9.1241e-003
7472	12.935	5.0909	0.1	-6.8372e-003
7473	12.935	5.2727	0.1	-1.6257e-003
7474	12.935	5.4545	0.1	2.0252e-003
7475	12.935	5.6364	0.1	3.4536e-002
7476	12.935	5.8182	0.1	1.0929e-002
7477	13.12	0.18182	0.1	1.487e-002
7478	13.12	0.36364	0.1	3.9142e-002
7479	13.12	0.54545	0.1	1.3505e-003
7480	13.12	0.72727	0.1	-2.5407e-003
7481	13.12	0.90909	0.1	-8.2011e-003
7482	13.12	1.0909	0.1	-1.0493e-002
7483	13.12	1.2727	0.1	-1.169e-002
7484	13.12	1.4545	0.1	-1.1882e-002
7485	13.12	1.6364	0.1	-1.151e-002
7486	13.12	1.8182	0.1	-1.0825e-002
7487	13.12	2.	0.1	-1.0049e-002
7488	13.12	2.1818	0.1	-9.3346e-003
7489	13.12	2.3636	0.1	-8.7771e-003
7490	13.12	2.5455	0.1	-8.4072e-003
7491	13.12	2.7273	0.1	-8.2022e-003
7492	13.12	2.9091	0.1	-8.1164e-003
7493	13.12	3.0909	0.1	-8.1163e-003
7494	13.12	3.2727	0.1	-8.2025e-003
7495	13.12	3.4545	0.1	-8.4075e-003
7496	13.12	3.6364	0.1	-8.7766e-003
7497	13.12	3.8182	0.1	-9.3343e-003
7498	13.12	4.	0.1	-1.0048e-002
7499	13.12	4.1818	0.1	-1.0825e-002
7500	13.12	4.3636	0.1	-1.151e-002
7501	13.12	4.5455	0.1	-1.1882e-002
7502	13.12	4.7273	0.1	-1.169e-002
7503	13.12	4.9091	0.1	-1.0492e-002
7504	13.12	5.0909	0.1	-8.2001e-003
7505	13.12	5.2727	0.1	-2.54e-003
7506	13.12	5.4545	0.1	1.3493e-003
7507	13.12	5.6364	0.1	3.9143e-002
7508	13.12	5.8182	0.1	1.4872e-002
7509	13.304	0.18182	0.1	2.0025e-002
7510	13.304	0.36364	0.1	4.4296e-002
7511	13.304	0.54545	0.1	4.5725e-004
7512	13.304	0.72727	0.1	-3.6279e-003
7513	13.304	0.90909	0.1	-9.7338e-003
7514	13.304	1.0909	0.1	-1.1976e-002
7515	13.304	1.2727	0.1	-1.3008e-002
7516	13.304	1.4545	0.1	-1.2943e-002
7517	13.304	1.6364	0.1	-1.2295e-002
7518	13.304	1.8182	0.1	-1.1361e-002
7519	13.304	2.	0.1	-1.04e-002
7520	13.304	2.1818	0.1	-9.5907e-003
7521	13.304	2.3636	0.1	-9.0301e-003
7522	13.304	2.5455	0.1	-8.7227e-003
7523	13.304	2.7273	0.1	-8.6031e-003
7524	13.304	2.9091	0.1	-8.5762e-003
7525	13.304	3.0909	0.1	-8.5767e-003
7526	13.304	3.2727	0.1	-8.6025e-003
7527	13.304	3.4545	0.1	-8.7222e-003
7528	13.304	3.6364	0.1	-9.0291e-003
7529	13.304	3.8182	0.1	-9.5904e-003
7530	13.304	4.	0.1	-1.04e-002
7531	13.304	4.1818	0.1	-1.1361e-002
7532	13.304	4.3636	0.1	-1.2295e-002
7533	13.304	4.5455	0.1	-1.2943e-002
7534	13.304	4.7273	0.1	-1.3007e-002
7535	13.304	4.9091	0.1	-1.1975e-002
7536	13.304	5.0909	0.1	-9.7326e-003
7537	13.304	5.2727	0.1	-3.626e-003
7538	13.304	5.4545	0.1	4.5629e-004
7539	13.304	5.6364	0.1	4.4296e-002
7540	13.304	5.8182	0.1	2.0027e-002
7541	13.489	0.18182	0.1	2.6663e-002
7542	13.489	0.36364	0.1	5.0062e-002
7543	13.489	0.54545	0.1	-6.8628e-004
7544	13.489	0.72727	0.1	-4.8857e-003
7545	13.489	0.90909	0.1	-1.1422e-002
7546	13.489	1.0909	0.1	-1.3535e-002
7547	13.489	1.2727	0.1	-1.4325e-002
7548	13.489	1.4545	0.1	-1.3921e-002
7549	13.489	1.6364	0.1	-1.2928e-002
7550	13.489	1.8182	0.1	-1.1696e-002
7551	13.489	2.	0.1	-1.0538e-002
7552	13.489	2.1818	0.1	-9.6594e-003
7553	13.489	2.3636	0.1	-9.1578e-003
7554	13.489	2.5455	0.1	-9.004e-003
7555	13.489	2.7273	0.1	-9.0566e-003
7556	13.489	2.9091	0.1	-9.1442e-003
7557	13.489	3.0909	0.1	-9.1442e-003
7558	13.489	3.2727	0.1	-9.0573e-003
7559	13.489	3.4545	0.1	-9.0036e-003
7560	13.489	3.6364	0.1	-9.1581e-003
7561	13.489	3.8182	0.1	-9.6593e-003
7562	13.489	4.	0.1	-1.0538e-002
7563	13.489	4.1818	0.1	-1.1696e-002
7564	13.489	4.3636	0.1	-1.2927e-002
7565	13.489	4.5455	0.1	-1.3921e-002
7566	13.489	4.7273	0.1	-1.4325e-002
7567	13.489	4.9091	0.1	-1.3535e-002
7568	13.489	5.0909	0.1	-1.142e-002
7569	13.489	5.2727	0.1	-4.8845e-003
7570	13.489	5.4545	0.1	-6.8566e-004
7571	13.489	5.6364	0.1	5.0062e-002
7572	13.489	5.8182	0.1	2.6663e-002
7573	13.674	0.18182	0.1	3.5044e-002
7574	13.674	0.36364	0.1	5.6489e-002
7575	13.674	0.54545	0.1	-2.1144e-003
7576	13.674	0.72727	0.1	-6.3079e-003
7577	13.674	0.90909	0.1	-1.3232e-002
7578	13.674	1.0909	0.1	-1.5114e-002
7579	13.674	1.2727	0.1	-1.5556e-002
7580	13.674	1.4545	0.1	-1.471e-002
7581	13.674	1.6364	0.1	-1.3283e-002
7582	13.674	1.8182	0.1	-1.1696e-002
7583	13.674	2.	0.1	-1.0326e-002
7584	13.674	2.1818	0.1	-9.4234e-003
7585	13.674	2.3636	0.1	-9.084e-003
7586	13.674	2.5455	0.1	-9.2203e-003
7587	13.674	2.7273	0.1	-9.5834e-003
7588	13.674	2.9091	0.1	-9.8699e-003
7589	13.674	3.0909	0.1	-9.8699e-003
7590	13.674	3.2727	0.1	-9.5837e-003
7591	13.674	3.4545	0.1	-9.2204e-003
7592	13.674	3.6364	0.1	-9.0841e-003
7593	13.674	3.8182	0.1	-9.4231e-003
7594	13.674	4.	0.1	-1.0325e-002
7595	13.674	4.1818	0.1	-1.1696e-002
7596	13.674	4.3636	0.1	-1.3283e-002
7597	13.674	4.5455	0.1	-1.4709e-002
7598	13.674	4.7273	0.1	-1.5555e-002
7599	13.674	4.9091	0.1	-1.5114e-002
7600	13.674	5.0909	0.1	-1.323e-002
7601	13.674	5.2727	0.1	-6.3067e-003
7602	13.674	5.4545	0.1	-2.1143e-003
7603	13.674	5.6364	0.1	5.6489e-002
7604	13.674	5.8182	0.1	3.5044e-002
7605	13.859	0.18182	0.1	4.5342e-002
7606	13.859	0.36364	0.1	6.3553e-002
7607	13.859	0.54545	0.1	-3.916e-003
7608	13.859	0.72727	0.1	-7.92e-003
7609	13.859	0.90909	0.1	-1.5154e-002
7610	13.859	1.0909	0.1	-1.6666e-002
7611	13.859	1.2727	0.1	-1.6627e-002
7612	13.859	1.4545	0.1	-1.5209e-002
7613	13.859	1.6364	0.1	-1.3236e-002
7614	13.859	1.8182	0.1	-1.1219e-002
7615	13.859	2.	0.1	-9.626e-003
7616	13.859	2.1818	0.1	-8.7664e-003
7617	13.859	2.3636	0.1	-8.7434e-003
7618	13.859	2.5455	0.1	-9.3816e-003
7619	13.859	2.7273	0.1	-1.0263e-002
7620	13.859	2.9091	0.1	-1.0879e-002
7621	13.859	3.0909	0.1	-1.0879e-002
7622	13.859	3.2727	0.1	-1.0263e-002
7623	13.859	3.4545	0.1	-9.3814e-003
7624	13.859	3.6364	0.1	-8.7431e-003
7625	13.859	3.8182	0.1	-8.7668e-003
7626	13.859	4.	0.1	-9.6261e-003
7627	13.859	4.1818	0.1	-1.1219e-002
7628	13.859	4.3636	0.1	-1.3235e-002
7629	13.859	4.5455	0.1	-1.5209e-002
7630	13.859	4.7273	0.1	-1.6626e-002
7631	13.859	4.9091	0.1	-1.6666e-002
7632	13.859	5.0909	0.1	-1.5152e-002
7633	13.859	5.2727	0.1	-7.9182e-003
7634	13.859	5.4545	0.1	-3.9157e-003
7635	13.859	5.6364	0.1	6.3553e-002
7636	13.859	5.8182	0.1	4.5342e-002
7637	14.043	0.18182	0.1	5.7648e-002
7638	14.043	0.36364	0.1	7.1248e-002
7639	14.043	0.54545	0.1	-6.1126e-003
7640	14.043	0.72727	0.1	-9.6574e-003
7641	14.043	0.90909	0.1	-1.7074e-002
7642	14.043	1.0909	0.1	-1.8035e-002
7643	14.043	1.2727	0.1	-1.7346e-002
7644	14.043	1.4545	0.1	-1.519e-002
7645	14.043	1.6364	0.1	-1.253e-002
7646	14.043	1.8182	0.1	-9.9875e-003
7647	14.043	2.	0.1	-8.1577e-003
7648	14.043	2.1818	0.1	-7.4433e-003
7649	14.043	2.3636	0.1	-7.9575e-003
7650	14.043	2.5455	0.1	-9.4092e-003
7651	14.043	2.7273	0.1	-1.1123e-002
7652	14.043	2.9091	0.1	-1.2269e-002
7653	14.043	3.0909	0.1	-1.2269e-002
7654	14.043	3.2727	0.1	-1.1122e-002
7655	14.043	3.4545	0.1	-9.4091e-003
7656	14.043	3.6364	0.1	-7.9573e-003
7657	14.043	3.8182	0.1	-7.4427e-003
7658	14.043	4.	0.1	-8.1571e-003
7659	14.043	4.1818	0.1	-9.9871e-003
7660	14.043	4.3636	0.1	-1.2529e-002
7661	14.043	4.5455	0.1	-1.519e-002
7662	14.043	4.7273	0.1	-1.7345e-002
7663	14.043	4.9091	0.1	-1.8035e-002
7664	14.043	5.0909	0.1	-1.7072e-002
7665	14.043	5.2727	0.1	-9.6562e-003
7666	14.043	5.4545	0.1	-6.1123e-003
7667	14.043	5.6364	0.1	7.1248e-002
7668	14.043	5.8182	0.1	5.7648e-002
7669	14.228	0.18182	0.1	7.1736e-002
7670	14.228	0.36364	0.1	7.9446e-002
7671	14.228	0.54545	0.1	-8.7608e-003
7672	14.228	0.72727	0.1	-1.146e-002
7673	14.228	0.90909	0.1	-1.8863e-002
7674	14.228	1.0909	0.1	-1.904e-002
7675	14.228	1.2727	0.1	-1.7489e-002
7676	14.228	1.4545	0.1	-1.4394e-002
7677	14.228	1.6364	0.1	-1.0864e-002
7678	14.228	1.8182	0.1	-7.6724e-003
7679	14.228	2.	0.1	-5.589e-003
7680	14.228	2.1818	0.1	-5.1599e-003
7681	14.228	2.3636	0.1	-6.5315e-003
7682	14.228	2.5455	0.1	-9.2499e-003
7683	14.228	2.7273	0.1	-1.2257e-002
7684	14.228	2.9091	0.1	-1.4229e-002
7685	14.228	3.0909	0.1	-1.423e-002
7686	14.228	3.2727	0.1	-1.2257e-002
7687	14.228	3.4545	0.1	-9.2501e-003
7688	14.228	3.6364	0.1	-6.5312e-003
7689	14.228	3.8182	0.1	-5.1593e-003
7690	14.228	4.	0.1	-5.5887e-003
7691	14.228	4.1818	0.1	-7.6726e-003
7692	14.228	4.3636	0.1	-1.0864e-002
7693	14.228	4.5455	0.1	-1.4394e-002
7694	14.228	4.7273	0.1	-1.749e-002
7695	14.228	4.9091	0.1	-1.904e-002
7696	14.228	5.0909	0.1	-1.8862e-002
7697	14.228	5.2727	0.1	-1.1458e-002
7698	14.228	5.4545	0.1	-8.7608e-003
7699	14.228	5.6364	0.1	7.9446e-002
7700	14.228	5.8182	0.1	7.1736e-002
7701	14.413	0.18182	0.1	8.683e-002
7702	14.413	0.36364	0.1	8.7843e-002
7703	14.413	0.54545	0.1	-1.1961e-002
7704	14.413	0.72727	0.1	-1.327e-002
7705	14.413	0.90909	0.1	-2.0369e-002
7706	14.413	1.0909	0.1	-1.9466e-002
7707	14.413	1.2727	0.1	-1.6802e-002
7708	14.413	1.4545	0.1	-1.2519e-002
7709	14.413	1.6364	0.1	-7.8965e-003
7710	14.413	1.8182	0.1	-3.8929e-003
7711	14.413	2.	0.1	-1.5322e-003
7712	14.413	2.1818	0.1	-1.5827e-003
7713	14.413	2.3636	0.1	-4.2611e-003
7714	14.413	2.5455	0.1	-8.8951e-003
7715	14.413	2.7273	0.1	-1.3865e-002
7716	14.413	2.9091	0.1	-1.7099e-002
7717	14.413	3.0909	0.1	-1.7099e-002
7718	14.413	3.2727	0.1	-1.3865e-002
7719	14.413	3.4545	0.1	-8.895e-003
7720	14.413	3.6364	0.1	-4.2602e-003
7721	14.413	3.8182	0.1	-1.583e-003
7722	14.413	4.	0.1	-1.5321e-003
7723	14.413	4.1818	0.1	-3.893e-003
7724	14.413	4.3636	0.1	-7.8959e-003
7725	14.413	4.5455	0.1	-1.2519e-002
7726	14.413	4.7273	0.1	-1.6801e-002
7727	14.413	4.9091	0.1	-1.9466e-002
7728	14.413	5.0909	0.1	-2.0367e-002
7729	14.413	5.2727	0.1	-1.3269e-002
7730	14.413	5.4545	0.1	-1.1961e-002
7731	14.413	5.6364	0.1	8.7844e-002
7732	14.413	5.8182	0.1	8.6831e-002
7733	14.598	0.18182	0.1	0.10143
7734	14.598	0.36364	0.1	9.6015e-002
7735	14.598	0.54545	0.1	-1.5727e-002
7736	14.598	0.72727	0.1	-1.4882e-002
7737	14.598	0.90909	0.1	-2.1253e-002
7738	14.598	1.0909	0.1	-1.8904e-002
7739	14.598	1.2727	0.1	-1.4826e-002
7740	14.598	1.4545	0.1	-9.0718e-003
7741	14.598	1.6364	0.1	-3.0795e-003
7742	14.598	1.8182	0.1	1.9444e-003
7743	14.598	2.	0.1	4.6155e-003
7744	14.598	2.1818	0.1	3.8179e-003
7745	14.598	2.3636	0.1	-8.0163e-004
7746	14.598	2.5455	0.1	-8.2699e-003
7747	14.598	2.7273	0.1	-1.6156e-002
7748	14.598	2.9091	0.1	-2.1267e-002
7749	14.598	3.0909	0.1	-2.1268e-002
7750	14.598	3.2727	0.1	-1.6155e-002
7751	14.598	3.4545	0.1	-8.2703e-003
7752	14.598	3.6364	0.1	-8.0068e-004
7753	14.598	3.8182	0.1	3.8177e-003
7754	14.598	4.	0.1	4.6163e-003
7755	14.598	4.1818	0.1	1.945e-003
7756	14.598	4.3636	0.1	-3.079e-003
7757	14.598	4.5455	0.1	-9.072e-003
7758	14.598	4.7273	0.1	-1.4826e-002
7759	14.598	4.9091	0.1	-1.8904e-002
7760	14.598	5.0909	0.1	-2.1251e-002
7761	14.598	5.2727	0.1	-1.488e-002
7762	14.598	5.4545	0.1	-1.5726e-002
7763	14.598	5.6364	0.1	9.6014e-002
7764	14.598	5.8182	0.1	0.10143
7765	14.783	0.18182	0.1	0.11281
7766	14.783	0.36364	0.1	0.10318
7767	14.783	0.54545	0.1	-2.0102e-002
7768	14.783	0.72727	0.1	-1.6049e-002
7769	14.783	0.90909	0.1	-2.1083e-002
7770	14.783	1.0909	0.1	-1.6839e-002
7771	14.783	1.2727	0.1	-1.1018e-002
7772	14.783	1.4545	0.1	-3.4803e-003
7773	14.783	1.6364	0.1	4.1974e-003
7774	14.783	1.8182	0.1	1.0495e-002
7775	14.783	2.	0.1	1.3503e-002
7776	14.783	2.1818	0.1	1.1578e-002
7777	14.783	2.3636	0.1	4.1424e-003
7778	14.783	2.5455	0.1	-7.4422e-003
7779	14.783	2.7273	0.1	-1.9558e-002
7780	14.783	2.9091	0.1	-2.7395e-002
7781	14.783	3.0909	0.1	-2.7394e-002
7782	14.783	3.2727	0.1	-1.9559e-002
7783	14.783	3.4545	0.1	-7.4414e-003
7784	14.783	3.6364	0.1	4.142e-003
7785	14.783	3.8182	0.1	1.1578e-002
7786	14.783	4.	0.1	1.3504e-002
7787	14.783	4.1818	0.1	1.0496e-002
7788	14.783	4.3636	0.1	4.197e-003
7789	14.783	4.5455	0.1	-3.4795e-003
7790	14.783	4.7273	0.1	-1.1017e-002
7791	14.783	4.9091	0.1	-1.6839e-002
7792	14.783	5.0909	0.1	-2.108e-002
7793	14.783	5.2727	0.1	-1.6047e-002
7794	14.783	5.4545	0.1	-2.0103e-002
7795	14.783	5.6364	0.1	0.10318
7796	14.783	5.8182	0.1	0.11281
7797	14.967	0.18182	0.1	0.11661
7798	14.967	0.36364	0.1	0.10812
7799	14.967	0.54545	0.1	-2.5144e-002
7800	14.967	0.72727	0.1	-1.6422e-002
7801	14.967	0.90909	0.1	-1.9244e-002
7802	14.967	1.0909	0.1	-1.2552e-002
7803	14.967	1.2727	0.1	-4.6315e-003
7804	14.967	1.4545	0.1	5.003e-003
7805	14.967	1.6364	0.1	1.4721e-002
7806	14.967	1.8182	0.1	2.2612e-002
7807	14.967	2.	0.1	2.6006e-002
7808	14.967	2.1818	0.1	2.2379e-002
7809	14.967	2.3636	0.1	1.0788e-002
7810	14.967	2.5455	0.1	-6.7222e-003
7811	14.967	2.7273	0.1	-2.4828e-002
7812	14.967	2.9091	0.1	-3.6479e-002
7813	14.967	3.0909	0.1	-3.6479e-002
7814	14.967	3.2727	0.1	-2.4828e-002
7815	14.967	3.4545	0.1	-6.7219e-003
7816	14.967	3.6364	0.1	1.0788e-002
7817	14.967	3.8182	0.1	2.2379e-002
7818	14.967	4.	0.1	2.6006e-002
7819	14.967	4.1818	0.1	2.2613e-002
7820	14.967	4.3636	0.1	1.4722e-002
7821	14.967	4.5455	0.1	5.0033e-003
7822	14.967	4.7273	0.1	-4.6312e-003
7823	14.967	4.9091	0.1	-1.2551e-002
7824	14.967	5.0909	0.1	-1.9243e-002
7825	14.967	5.2727	0.1	-1.642e-002
7826	14.967	5.4545	0.1	-2.5144e-002
7827	14.967	5.6364	0.1	0.10812
7828	14.967	5.8182	0.1	0.11661
7829	15.152	0.18182	0.1	0.10653
7830	15.152	0.36364	0.1	0.10895
7831	15.152	0.54545	0.1	-3.0958e-002
7832	15.152	0.72727	0.1	-1.5575e-002
7833	15.152	0.90909	0.1	-1.4922e-002
7834	15.152	1.0909	0.1	-5.0809e-003
7835	15.152	1.2727	0.1	5.267e-003
7836	15.152	1.4545	0.1	1.7194e-002
7837	15.152	1.6364	0.1	2.9171e-002
7838	15.152	1.8182	0.1	3.8884e-002
7839	15.152	2.	0.1	4.2434e-002
7840	15.152	2.1818	0.1	3.6216e-002
7841	15.152	2.3636	0.1	1.8812e-002
7842	15.152	2.5455	0.1	-6.9829e-003
7843	15.152	2.7273	0.1	-3.3291e-002
7844	15.152	2.9091	0.1	-5.0024e-002
7845	15.152	3.0909	0.1	-5.0024e-002
7846	15.152	3.2727	0.1	-3.3291e-002
7847	15.152	3.4545	0.1	-6.9825e-003
7848	15.152	3.6364	0.1	1.8813e-002
7849	15.152	3.8182	0.1	3.6216e-002
7850	15.152	4.	0.1	4.2434e-002
7851	15.152	4.1818	0.1	3.8884e-002
7852	15.152	4.3636	0.1	2.9171e-002
7853	15.152	4.5455	0.1	1.7194e-002
7854	15.152	4.7273	0.1	5.2672e-003
7855	15.152	4.9091	0.1	-5.0809e-003
7856	15.152	5.0909	0.1	-1.4918e-002
7857	15.152	5.2727	0.1	-1.5574e-002
7858	15.152	5.4545	0.1	-3.0958e-002
7859	15.152	5.6364	0.1	0.10895
7860	15.152	5.8182	0.1	0.10653
7861	15.337	0.18182	0.1	7.4437e-002
7862	15.337	0.36364	0.1	0.10303
7863	15.337	0.54545	0.1	-3.7669e-002
7864	15.337	0.72727	0.1	-1.295e-002
7865	15.337	0.90909	0.1	-6.9649e-003
7866	15.337	1.0909	0.1	6.9904e-003
7867	15.337	1.2727	0.1	2.0207e-002
7868	15.337	1.4545	0.1	3.4622e-002
7869	15.337	1.6364	0.1	4.928e-002
7870	15.337	1.8182	0.1	6.1141e-002
7871	15.337	2.	0.1	6.5162e-002
7872	15.337	2.1818	0.1	5.4729e-002
7873	15.337	2.3636	0.1	2.7564e-002
7874	15.337	2.5455	0.1	-1.0234e-002
7875	15.337	2.7273	0.1	-4.7205e-002
7876	15.337	2.9091	0.1	-7.0152e-002
7877	15.337	3.0909	0.1	-7.0151e-002
7878	15.337	3.2727	0.1	-4.7205e-002
7879	15.337	3.4545	0.1	-1.0234e-002
7880	15.337	3.6364	0.1	2.7564e-002
7881	15.337	3.8182	0.1	5.4729e-002
7882	15.337	4.	0.1	6.5163e-002
7883	15.337	4.1818	0.1	6.114e-002
7884	15.337	4.3636	0.1	4.9281e-002
7885	15.337	4.5455	0.1	3.4622e-002
7886	15.337	4.7273	0.1	2.0206e-002
7887	15.337	4.9091	0.1	6.9921e-003
7888	15.337	5.0909	0.1	-6.9625e-003
7889	15.337	5.2727	0.1	-1.2949e-002
7890	15.337	5.4545	0.1	-3.7668e-002
7891	15.337	5.6364	0.1	0.10303
7892	15.337	5.8182	0.1	7.4438e-002
7893	15.522	0.18182	0.1	1.1135e-002
7894	15.522	0.36364	0.1	8.6697e-002
7895	15.522	0.54545	0.1	-4.5765e-002
7896	15.522	0.72727	0.1	-8.3152e-003
7897	15.522	0.90909	0.1	5.7032e-003
7898	15.522	1.0909	0.1	2.5352e-002
7899	15.522	1.2727	0.1	4.1756e-002
7900	15.522	1.4545	0.1	5.7819e-002
7901	15.522	1.6364	0.1	7.3282e-002
7902	15.522	1.8182	0.1	8.662e-002
7903	15.522	2.	0.1	8.7153e-002
7904	15.522	2.1818	0.1	6.9431e-002
7905	15.522	2.3636	0.1	3.2311e-002
7906	15.522	2.5455	0.1	-2.0208e-002
7907	15.522	2.7273	0.1	-7.0112e-002
7908	15.522	2.9091	0.1	-9.9546e-002
7909	15.522	3.0909	0.1	-9.9546e-002
7910	15.522	3.2727	0.1	-7.0112e-002
7911	15.522	3.4545	0.1	-2.0208e-002
7912	15.522	3.6364	0.1	3.2311e-002
7913	15.522	3.8182	0.1	6.9432e-002
7914	15.522	4.	0.1	8.7154e-002
7915	15.522	4.1818	0.1	8.662e-002
7916	15.522	4.3636	0.1	7.3282e-002
7917	15.522	4.5455	0.1	5.7819e-002
7918	15.522	4.7273	0.1	4.1756e-002
7919	15.522	4.9091	0.1	2.5352e-002
7920	15.522	5.0909	0.1	5.7035e-003
7921	15.522	5.2727	0.1	-8.3136e-003
7922	15.522	5.4545	0.1	-4.5763e-002
7923	15.522	5.6364	0.1	8.6697e-002
7924	15.522	5.8182	0.1	1.1135e-002
7925	15.707	0.18182	0.1	-8.9342e-002
7926	15.707	0.36364	0.1	5.6884e-002
7927	15.707	0.54545	0.1	-5.4724e-002
7928	15.707	0.72727	0.1	-6.1326e-004
7929	15.707	0.90909	0.1	2.5341e-002
7930	15.707	1.0909	0.1	5.325e-002
7931	15.707	1.2727	0.1	7.476e-002
7932	15.707	1.4545	0.1	9.5342e-002
7933	15.707	1.6364	0.1	0.11707
7934	15.707	1.8182	0.1	0.12865
7935	15.707	2.	0.1	0.13483
7936	15.707	2.1818	0.1	0.10588
7937	15.707	2.3636	0.1	3.1656e-002
7938	15.707	2.5455	0.1	-4.6394e-002
7939	15.707	2.7273	0.1	-0.10689
7940	15.707	2.9091	0.1	-0.14048
7941	15.707	3.0909	0.1	-0.14048
7942	15.707	3.2727	0.1	-0.10689
7943	15.707	3.4545	0.1	-4.6394e-002
7944	15.707	3.6364	0.1	3.1657e-002
7945	15.707	3.8182	0.1	0.10589
7946	15.707	4.	0.1	0.13483
7947	15.707	4.1818	0.1	0.12865
7948	15.707	4.3636	0.1	0.11707
7949	15.707	4.5455	0.1	9.5342e-002
7950	15.707	4.7273	0.1	7.476e-002
7951	15.707	4.9091	0.1	5.325e-002
7952	15.707	5.0909	0.1	2.5343e-002
7953	15.707	5.2727	0.1	-6.1095e-004
7954	15.707	5.4545	0.1	-5.4724e-002
7955	15.707	5.6364	0.1	5.6883e-002
7956	15.707	5.8182	0.1	-8.9339e-002
7957	15.891	0.18182	0.1	-0.22656
7958	15.891	0.36364	0.1	9.1359e-003
7959	15.891	0.54545	0.1	-6.7023e-002
7960	15.891	0.72727	0.1	6.453e-003
7961	15.891	0.90909	0.1	4.7824e-002
7962	15.891	1.0909	0.1	8.9208e-002
7963	15.891	1.2727	0.1	0.12264
7964	15.891	1.4545	0.1	0.13642
7965	15.891	1.6364	0.1	0.12617
7966	15.891	1.8182	0.1	0.14741
7967	15.891	2.	0.1	9.4856e-002
7968	15.891	2.1818	0.1	2.3956e-002
7969	15.891	2.3636	0.1	-9.3036e-003
7970	15.891	2.5455	0.1	-9.1207e-002
7971	15.891	2.7273	0.1	-0.16433
7972	15.891	2.9091	0.1	-0.19187
7973	15.891	3.0909	0.1	-0.19187
7974	15.891	3.2727	0.1	-0.16433
7975	15.891	3.4545	0.1	-9.1208e-002
7976	15.891	3.6364	0.1	-9.3019e-003
7977	15.891	3.8182	0.1	2.3956e-002
7978	15.891	4.	0.1	9.4855e-002
7979	15.891	4.1818	0.1	0.14741
7980	15.891	4.3636	0.1	0.12617
7981	15.891	4.5455	0.1	0.13642
7982	15.891	4.7273	0.1	0.12264
7983	15.891	4.9091	0.1	8.9208e-002
7984	15.891	5.0909	0.1	4.7825e-002
7985	15.891	5.2727	0.1	6.4549e-003
7986	15.891	5.4545	0.1	-6.7024e-002
7987	15.891	5.6364	0.1	9.1357e-003
7988	15.891	5.8182	0.1	-0.22655
7989	16.076	0.18182	0.1	-0.3592
7990	16.076	0.36364	0.1	-3.732e-002
7991	16.076	0.54545	0.1	-6.4524e-002
7992	16.076	0.72727	0.1	2.5225e-002
7993	16.076	0.90909	0.1	8.826e-002
7994	16.076	1.0909	0.1	0.15332
7995	16.076	1.2727	0.1	0.19545
7996	16.076	1.4545	0.1	0.25367
7997	16.076	1.6364	0.1	0.40614
7998	16.076	1.8182	0.1	0.28245
7999	16.076	2.	0.1	0.38579
8000	16.076	2.1818	0.1	0.34018
8001	16.076	2.3636	0.1	-9.6301e-002
8002	16.076	2.5455	0.1	-0.21796
8003	16.076	2.7273	0.1	-0.22849
8004	16.076	2.9091	0.1	-0.24281
8005	16.076	3.0909	0.1	-0.24281
8006	16.076	3.2727	0.1	-0.22849
8007	16.076	3.4545	0.1	-0.21796
8008	16.076	3.6364	0.1	-9.6301e-002
8009	16.076	3.8182	0.1	0.34018
8010	16.076	4.	0.1	0.38579
8011	16.076	4.1818	0.1	0.28245
8012	16.076	4.3636	0.1	0.40614
8013	16.076	4.5455	0.1	0.25367
8014	16.076	4.7273	0.1	0.19545
8015	16.076	4.9091	0.1	0.15332
8016	16.076	5.0909	0.1	8.8261e-002
8017	16.076	5.2727	0.1	2.5227e-002
8018	16.076	5.4545	0.1	-6.4523e-002
8019	16.076	5.6364	0.1	-3.732e-002
8020	16.076	5.8182	0.1	-0.3592
8021	16.261	0.18182	0.1	-0.44215
8022	16.261	0.36364	0.1	-9.4055e-002
8023	16.261	0.54545	0.1	-8.049e-002
8024	16.261	0.72727	0.1	3.5039e-003
8025	16.261	0.90909	0.1	7.1498e-002
8026	16.261	1.0909	0.1	0.13714
8027	16.261	1.2727	0.1	0.27462
8028	16.261	1.4545	0.1	0.41193
8029	16.261	1.6364	0.1	-0.29306
8030	16.261	1.8182	0.1	0.16319
8031	16.261	2.	0.1	-0.85951
8032	16.261	2.1818	0.1	-1.4086
8033	16.261	2.3636	0.1	-0.17054
8034	16.261	2.5455	0.1	-0.34259
8035	16.261	2.7273	0.1	-0.30447
8036	16.261	2.9091	0.1	-0.2516
8037	16.261	3.0909	0.1	-0.2516
8038	16.261	3.2727	0.1	-0.30447
8039	16.261	3.4545	0.1	-0.34259
8040	16.261	3.6364	0.1	-0.17054
8041	16.261	3.8182	0.1	-1.4086
8042	16.261	4.	0.1	-0.85951
8043	16.261	4.1818	0.1	0.16319
8044	16.261	4.3636	0.1	-0.29306
8045	16.261	4.5455	0.1	0.41193
8046	16.261	4.7273	0.1	0.27462
8047	16.261	4.9091	0.1	0.13714
8048	16.261	5.0909	0.1	7.1499e-002
8049	16.261	5.2727	0.1	3.5036e-003
8050	16.261	5.4545	0.1	-8.049e-002
8051	16.261	5.6364	0.1	-9.4055e-002
8052	16.261	5.8182	0.1	-0.44215
8053	16.446	0.18182	0.1	-1.4766e-002
8054	16.446	0.36364	0.1	0.16404
8055	16.446	0.54545	0.1	0.14332
8056	16.446	0.72727	0.1	0.18757
8057	16.446	0.90909	0.1	0.24167
8058	16.446	1.0909	0.1	0.42016
8059	16.446	1.2727	0.1	0.51329
8060	16.446	1.4545	0.1	0.49292
8061	16.446	1.6364	0.1	3.6016
8062	16.446	1.8182	0.1	1.6911
8063	16.446	2.	0.1	4.9601
8064	16.446	2.1818	0.1	3.6354
8065	16.446	2.3636	0.1	-2.0824
8066	16.446	2.5455	0.1	-0.25219
8067	16.446	2.7273	0.1	-0.26652
8068	16.446	2.9091	0.1	-0.16123
8069	16.446	3.0909	0.1	-0.16123
8070	16.446	3.2727	0.1	-0.26652
8071	16.446	3.4545	0.1	-0.25219
8072	16.446	3.6364	0.1	-2.0824
8073	16.446	3.8182	0.1	3.6354
8074	16.446	4.	0.1	4.9601
8075	16.446	4.1818	0.1	1.6911
8076	16.446	4.3636	0.1	3.6016
8077	16.446	4.5455	0.1	0.49292
8078	16.446	4.7273	0.1	0.51329
8079	16.446	4.9091	0.1	0.42016
8080	16.446	5.0909	0.1	0.24167
8081	16.446	5.2727	0.1	0.18757
8082	16.446	5.4545	0.1	0.14332
8083	16.446	5.6364	0.1	0.16404
8084	16.446	5.8182	0.1	-1.4768e-002
8085	16.63	0.18182	0.1	0.66265
8086	16.63	0.36364	0.1	1.8612e-002
8087	16.63	0.54545	0.1	-0.28281
8088	16.63	0.72727	0.1	-0.51054
8089	16.63	0.90909	0.1	-0.60762
8090	16.63	1.0909	0.1	-0.76907
8091	16.63	1.2727	0.1	-0.69274
8092	16.63	1.4545	0.1	-0.63024
8093	16.63	1.6364	0.1	-2.8611
8094	16.63	1.8182	0.1	-7.2857
8095	16.63	2.	0.1	-27.169
8096	16.63	2.1818	0.1	-13.942
8097	16.63	2.3636	0.1	2.153
8098	16.63	2.5455	0.1	-0.51328
8099	16.63	2.7273	0.1	7.5965e-002
8100	16.63	2.9091	0.1	0.10645
8101	16.63	3.0909	0.1	0.10645
8102	16.63	3.2727	0.1	7.5965e-002
8103	16.63	3.4545	0.1	-0.51328
8104	16.63	3.6364	0.1	2.153
8105	16.63	3.8182	0.1	-13.942
8106	16.63	4.	0.1	-27.169
8107	16.63	4.1818	0.1	-7.2857
8108	16.63	4.3636	0.1	-2.8611
8109	16.63	4.5455	0.1	-0.63024
8110	16.63	4.7273	0.1	-0.69274
8111	16.63	4.9091	0.1	-0.76907
8112	16.63	5.0909	0.1	-0.60762
8113	16.63	5.2727	0.1	-0.51054
8114	16.63	5.4545	0.1	-0.28281
8115	16.63	5.6364	0.1	1.8608e-002
8116	16.63	5.8182	0.1	0.66264
8117	16.815	0.18182	0.1	7.1654
8118	16.815	0.36364	0.1	3.2563
8119	16.815	0.54545	0.1	2.5413
8120	16.815	0.72727	0.1	2.2902
8121	16.815	0.90909	0.1	2.2546
8122	16.815	1.0909	0.1	2.965
8123	16.815	1.2727	0.1	1.9312
8124	16.815	1.4545	0.1	9.0571
8125	16.815	1.6364	0.1	-8.8349
8126	16.815	1.8182	0.1	49.674
8127	16.815	2.	0.1	224.03
8128	16.815	2.1818	0.1	-11.177
8129	16.815	2.3636	0.1	6.7793
8130	16.815	2.5455	0.1	-2.1548
8131	16.815	2.7273	0.1	1.3719
8132	16.815	2.9091	0.1	0.31821
8133	16.815	3.0909	0.1	0.31821
8134	16.815	3.2727	0.1	1.3719
8135	16.815	3.4545	0.1	-2.1548
8136	16.815	3.6364	0.1	6.7793
8137	16.815	3.8182	0.1	-11.177
8138	16.815	4.	0.1	224.03
8139	16.815	4.1818	0.1	49.674
8140	16.815	4.3636	0.1	-8.8349
8141	16.815	4.5455	0.1	9.0571
8142	16.815	4.7273	0.1	1.9312
8143	16.815	4.9091	0.1	2.965
8144	16.815	5.0909	0.1	2.2546
8145	16.815	5.2727	0.1	2.2902
8146	16.815	5.4545	0.1	2.5413
8147	16.815	5.6364	0.1	3.2563
8148	16.815	5.8182	0.1	7.1654
8149	17.167	3.8182	0.1	-9.7957
8150	17.167	3.6364	0.1	15.343
8151	17.167	3.4545	0.1	-0.81322
8152	17.167	3.2727	0.1	1.5483
8153	17.167	3.0909	0.1	0.70048
8154	17.167	2.9091	0.1	0.70048
8155	17.167	2.7273	0.1	1.5483
8156	17.167	2.5455	0.1	-0.81322
8157	17.167	2.3636	0.1	15.343
8158	17.167	2.1818	0.1	-9.7957
8159	17.	3.8182	0.1	-80.305
8160	17.	3.6364	0.1	13.924
8161	17.	3.4545	0.1	-0.33816
8162	17.	3.2727	0.1	1.5421
8163	17.	3.0909	0.1	0.8184
8164	17.	2.9091	0.1	0.8184
8165	17.	2.7273	0.1	1.5421
8166	17.	2.5455	0.1	-0.33816
8167	17.	2.3636	0.1	13.924
8168	17.	2.1818	0.1	-80.305
8169	17.167	5.8182	0.1	-3.1643
8170	17.167	5.6364	0.1	-4.9003
8171	17.167	5.4545	0.1	-4.9926
8172	17.167	5.2727	0.1	-5.6174
8173	17.167	5.0909	0.1	-6.6274
8174	17.167	4.9091	0.1	-7.5417
8175	17.167	4.7273	0.1	-11.226
8176	17.167	4.5455	0.1	-10.174
8177	17.167	4.3636	0.1	-40.02
8178	17.167	4.1818	0.1	10.284
8179	17.167	4.	0.1	561.41
8180	17.	4.	0.1	256.66
8181	17.	4.1818	0.1	7.8914
8182	17.	4.3636	0.1	-46.988
8183	17.	4.5455	0.1	-12.118
8184	17.	4.7273	0.1	-14.41
8185	17.	4.9091	0.1	-10.007
8186	17.	5.0909	0.1	-9.1187
8187	17.	5.2727	0.1	-7.9692
8188	17.	5.4545	0.1	-7.2713
8189	17.	5.6364	0.1	-7.1213
8190	17.	5.8182	0.1	-5.4899
8191	17.167	0.18182	0.1	-3.1643
8192	17.167	0.36364	0.1	-4.9003
8193	17.167	0.54545	0.1	-4.9926
8194	17.167	0.72727	0.1	-5.6174
8195	17.167	0.90909	0.1	-6.6274
8196	17.167	1.0909	0.1	-7.5417
8197	17.167	1.2727	0.1	-11.226
8198	17.167	1.4545	0.1	-10.174
8199	17.167	1.6364	0.1	-40.019
8200	17.167	1.8182	0.1	10.284
8201	17.167	2.	0.1	561.41
8202	17.	2.	0.1	256.67
8203	17.	1.8182	0.1	7.8913
8204	17.	1.6364	0.1	-46.988
8205	17.	1.4545	0.1	-12.118
8206	17.	1.2727	0.1	-14.41
8207	17.	1.0909	0.1	-10.007
8208	17.	0.90909	0.1	-9.1187
8209	17.	0.72727	0.1	-7.9693
8210	17.	0.54545	0.1	-7.2713
8211	17.	0.36364	0.1	-7.1213
8212	17.	0.18182	0.1	-5.4899
8213	17.167	6.	0.1	11.73
8214	17.351	6.	0.1	1.0304
8215	17.536	6.	0.1	-1.2132
8216	17.721	6.	0.1	-0.44952
8217	17.905	6.	0.1	-0.26174
8218	18.09	6.	0.1	-2.7108e-002
8219	18.275	6.	0.1	9.6783e-002
8220	18.459	6.	0.1	0.16477
8221	18.644	6.	0.1	0.18596
8222	18.829	6.	0.1	0.17924
8223	19.014	6.	0.1	0.15678
8224	19.198	6.	0.1	0.12767
8225	19.383	6.	0.1	9.7712e-002
8226	19.568	6.	0.1	7.0455e-002
8227	19.752	6.	0.1	4.7772e-002
8228	19.937	6.	0.1	3.0508e-002
8229	20.122	6.	0.1	1.8831e-002
8230	20.306	6.	0.1	1.2529e-002
8231	20.491	6.	0.1	1.118e-002
8232	20.676	6.	0.1	1.4306e-002
8233	20.86	6.	0.1	2.1414e-002
8234	21.045	6.	0.1	3.2045e-002
8235	21.23	6.	0.1	4.5825e-002
8236	21.414	6.	0.1	6.2441e-002
8237	21.599	6.	0.1	8.1685e-002
8238	21.784	6.	0.1	0.10343
8239	21.968	6.	0.1	0.12769
8240	22.153	6.	0.1	0.15455
8241	22.338	6.	0.1	0.18427
8242	22.523	6.	0.1	0.21729
8243	22.707	6.	0.1	0.25437
8244	22.892	6.	0.1	0.2963
8245	23.077	6.	0.1	0.34587
8246	23.261	6.	0.1	0.40118
8247	23.446	6.	0.1	0.48759
8248	23.631	6.	0.1	0.55072
8249	23.815	6.	0.1	0.92453
8250	24.	6.	0.1	-1.0782
8251	24.	5.8182	0.1	-2.2143
8252	24.	5.6364	0.1	-2.2413
8253	24.	5.4545	0.1	-2.4123
8254	24.	5.2727	0.1	-2.4338
8255	24.	5.0909	0.1	-2.4596
8256	24.	4.9091	0.1	-2.4721
8257	24.	4.7273	0.1	-2.481
8258	24.	4.5455	0.1	-2.4865
8259	24.	4.3636	0.1	-2.49
8260	24.	4.1818	0.1	-2.492
8261	24.	4.	0.1	-2.493
8262	24.	3.8182	0.1	-2.4935
8263	24.	3.6364	0.1	-2.4936
8264	24.	3.4545	0.1	-2.4935
8265	24.	3.2727	0.1	-2.4933
8266	24.	3.0909	0.1	-2.4933
8267	24.	2.9091	0.1	-2.4933
8268	24.	2.7273	0.1	-2.4933
8269	24.	2.5455	0.1	-2.4935
8270	24.	2.3636	0.1	-2.4936
8271	24.	2.1818	0.1	-2.4935
8272	24.	2.	0.1	-2.493
8273	24.	1.8182	0.1	-2.492
8274	24.	1.6364	0.1	-2.49
8275	24.	1.4545	0.1	-2.4865
8276	24.	1.2727	0.1	-2.481
8277	24.	1.0909	0.1	-2.4721
8278	24.	0.90909	0.1	-2.4596
8279	24.	0.72727	0.1	-2.4338
8280	24.	0.54545	0.1	-2.4123
8281	24.	0.36364	0.1	-2.2413
8282	24.	0.18182	0.1	-2.2143
8283	1.5894e-015	0.18182	0.1	1194.6
8284	3.1789e-015	0.36364	0.1	2308.4
8285	4.7683e-015	0.54545	0.1	2825.2
8286	6.3578e-015	0.72727	0.1	3134.4
8287	7.9472e-015	0.90909	0.1	3341.8
8288	9.5366e-015	1.0909	0.1	3490.4
8289	1.1126e-014	1.2727	0.1	3600.7
8290	1.2716e-014	1.4545	0.1	3684.5
8291	1.4305e-014	1.6364	0.1	3749.1
8292	1.5894e-014	1.8182	0.1	3799.3
8293	1.7484e-014	2.	0.1	3838.1
8294	1.9073e-014	2.1818	0.1	3867.9
8295	2.0663e-014	2.3636	0.1	3890.2
8296	2.2252e-014	2.5455	0.1	3906.
8297	2.3842e-014	2.7273	0.1	3916.2
8298	2.5431e-014	2.9091	0.1	3921.
8299	2.702e-014	3.0909	0.1	3921.
8300	2.861e-014	3.2727	0.1	3916.2
8301	3.0199e-014	3.4545	0.1	3906.
8302	3.1789e-014	3.6364	0.1	3890.2
8303	3.3378e-014	3.8182	0.1	3867.9
8304	3.4968e-014	4.	0.1	3838.1
8305	3.6557e-014	4.1818	0.1	3799.3
8306	3.8147e-014	4.3636	0.1	3749.1
8307	3.9736e-014	4.5455	0.1	3684.5
8308	4.1325e-014	4.7273	0.1	3600.7
8309	4.2915e-014	4.9091	0.1	3490.4
8310	4.4504e-014	5.0909	0.1	3341.8
8311	4.6094e-014	5.2727	0.1	3134.4
8312	4.7683e-014	5.4545	0.1	2825.2
8313	4.9273e-014	5.6364	0.1	2308.4
8314	5.0862e-014	5.8182	0.1	1194.6
8315	24.	0.	0.1	-1.0782
8316	23.815	0.	0.1	0.92453
8317	23.631	0.	0.1	0.55072
8318	23.446	0.	0.1	0.48759
8319	23.261	0.	0.1	0.40118
8320	23.077	0.	0.1	0.34587
8321	22.892	0.	0.1	0.2963
8322	22.707	0.	0.1	0.25437
8323	22.523	0.	0.1	0.21729
8324	22.338	0.	0.1	0.18427
8325	22.153	0.	0.1	0.15455
8326	21.968	0.	0.1	0.12769
8327	21.784	0.	0.1	0.10344
8328	21.599	0.	0.1	8.1684e-002
8329	21.414	0.	0.1	6.2442e-002
8330	21.23	0.	0.1	4.5824e-002
8331	21.045	0.	0.1	3.2044e-002
8332	20.86	0.	0.1	2.1415e-002
8333	20.676	0.	0.1	1.4306e-002
8334	20.491	0.	0.1	1.1182e-002
8335	20.306	0.	0.1	1.253e-002
8336	20.122	0.	0.1	1.883e-002
8337	19.937	0.	0.1	3.0511e-002
8338	19.752	0.	0.1	4.7775e-002
8339	19.568	0.	0.1	7.0455e-002
8340	19.383	0.	0.1	9.7714e-002
8341	19.198	0.	0.1	0.12767
8342	19.014	0.	0.1	0.15679
8343	18.829	0.	0.1	0.17924
8344	18.644	0.	0.1	0.18596
8345	18.459	0.	0.1	0.16477
8346	18.275	0.	0.1	9.6784e-002
8347	18.09	0.	0.1	-2.7106e-002
8348	17.905	0.	0.1	-0.26174
8349	17.721	0.	0.1	-0.44952
8350	17.536	0.	0.1	-1.2132
8351	17.351	0.	0.1	1.0304
8352	17.167	0.	0.1	11.73
8353	17.	0.	0.1	13.967
8354	16.815	6.96e-030	0.1	1.8815
8355	16.63	6.8835e-030	0.1	-0.65615
8356	16.446	6.807e-030	0.1	0.32569
8357	16.261	6.7305e-030	0.1	0.57569
8358	16.076	6.6541e-030	0.1	0.89186
8359	15.891	6.5776e-030	0.1	1.0548
8360	15.707	6.5011e-030	0.1	1.1325
8361	15.522	6.4246e-030	0.1	1.1348
8362	15.337	6.3481e-030	0.1	1.0875
8363	15.152	6.2716e-030	0.1	1.0096
8364	14.967	6.1952e-030	0.1	0.91643
8365	14.783	6.1187e-030	0.1	0.81869
8366	14.598	6.0422e-030	0.1	0.72321
8367	14.413	5.9657e-030	0.1	0.63392
8368	14.228	5.8892e-030	0.1	0.55274
8369	14.043	5.8127e-030	0.1	0.48027
8370	13.859	5.7363e-030	0.1	0.41641
8371	13.674	5.6598e-030	0.1	0.36059
8372	13.489	5.5833e-030	0.1	0.31201
8373	13.304	5.5068e-030	0.1	0.26984
8374	13.12	5.4303e-030	0.1	0.23322
8375	12.935	5.3538e-030	0.1	0.20135
8376	12.75	5.2774e-030	0.1	0.1735
8377	12.565	5.2009e-030	0.1	0.14897
8378	12.38	5.1244e-030	0.1	0.12724
8379	12.196	5.0479e-030	0.1	0.10781
8380	12.011	4.9714e-030	0.1	9.0268e-002
8381	11.826	4.8949e-030	0.1	7.4242e-002
8382	11.641	4.8185e-030	0.1	5.9375e-002
8383	11.457	4.742e-030	0.1	4.5421e-002
8384	11.272	4.6655e-030	0.1	3.2139e-002
8385	11.087	4.589e-030	0.1	1.9262e-002
8386	10.902	4.5125e-030	0.1	6.6506e-003
8387	10.717	4.436e-030	0.1	-5.8557e-003
8388	10.533	4.3596e-030	0.1	-1.8392e-002
8389	10.348	4.2831e-030	0.1	-3.1093e-002
8390	10.163	4.2066e-030	0.1	-4.4111e-002
8391	9.9783	4.1301e-030	0.1	-5.7564e-002
8392	9.7935	4.0536e-030	0.1	-7.1591e-002
8393	9.6087	3.9771e-030	0.1	-8.6284e-002
8394	9.4239	3.9007e-030	0.1	-0.10175
8395	9.2391	3.8242e-030	0.1	-0.1181
8396	9.0543	3.7477e-030	0.1	-0.13547
8397	8.8696	3.6712e-030	0.1	-0.15398
8398	8.6848	3.5947e-030	0.1	-0.17374
8399	8.5	3.5182e-030	0.1	-0.19489
8400	8.3152	3.4418e-030	0.1	-0.21759
8401	8.1304	3.3653e-030	0.1	-0.24197
8402	7.9457	3.2888e-030	0.1	-0.26818
8403	7.7609	3.2123e-030	0.1	-0.2964
8404	7.5761	3.1358e-030	0.1	-0.32681
8405	7.3913	3.0593e-030	0.1	-0.35959
8406	7.2065	2.9829e-030	0.1	-0.3949
8407	7.0217	2.9064e-030	0.1	-0.43209
8408	6.837	2.8299e-030	0.1	-0.14961
8409	6.6522	2.7534e-030	0.1	0.20031
8410	6.4674	2.6769e-030	0.1	0.55509
8411	6.2826	2.6004e-030	0.1	0.91201
8412	6.0978	2.524e-030	0.1	1.2677
8413	5.913	2.4475e-030	0.1	1.6179
8414	5.7283	2.371e-030	0.1	1.9575
8415	5.5435	2.2945e-030	0.1	2.2804
8416	5.3587	2.218e-030	0.1	2.5791
8417	5.1739	2.1415e-030	0.1	2.8447
8418	4.9891	2.0651e-030	0.1	3.0664
8419	4.8043	1.9886e-030	0.1	3.2317
8420	4.6196	1.9121e-030	0.1	3.3257
8421	4.4348	1.8356e-030	0.1	3.3309
8422	4.25	1.7591e-030	0.1	3.2269
8423	4.0652	1.6826e-030	0.1	2.9901
8424	3.8804	1.6062e-030	0.1	2.5937
8425	3.6957	1.5297e-030	0.1	2.0076
8426	3.5109	1.4532e-030	0.1	1.2018
8427	3.3261	1.3767e-030	0.1	0.15788
8428	3.1413	1.3002e-030	0.1	-1.0617
8429	2.9565	1.2237e-030	0.1	-2.0587
8430	2.7717	1.1473e-030	0.1	-2.5677
8431	2.587	1.0708e-030	0.1	-2.9081
8432	2.4022	9.9428e-031	0.1	-3.2177
8433	2.2174	9.178e-031	0.1	-3.5336
8434	2.0326	8.4132e-031	0.1	-3.872
8435	1.8478	7.6483e-031	0.1	-4.2431
8436	1.663	6.8835e-031	0.1	-4.6617
8437	1.4783	6.1187e-031	0.1	-5.1283
8438	1.2935	5.3538e-031	0.1	-5.7065
8439	1.1087	4.589e-031	0.1	-6.2671
8440	0.92391	3.8242e-031	0.1	-7.3429
8441	0.73913	3.0593e-031	0.1	-7.5107
8442	0.55435	2.2945e-031	0.1	-10.318
8443	0.36957	1.5297e-031	0.1	-16.514
8444	0.18478	7.6483e-032	0.1	51.443
8445	0.	0.	0.1	-351.23
8446	3.937e-014	6.	0.1	-351.23
8447	0.18478	6.	0.1	51.443
8448	0.36957	6.	0.1	-16.514
8449	0.55435	6.	0.1	-10.318
8450	0.73913	6.	0.1	-7.5107
8451	0.92391	6.	0.1	-7.3429
8452	1.1087	6.	0.1	-6.2671
8453	1.2935	6.	0.1	-5.7065
8454	1.4783	6.	0.1	-5.1283
8455	1.663	6.	0.1	-4.6617
8456	1.8478	6.	0.1	-4.2431
8457	2.0326	6.	0.1	-3.872
8458	2.2174	6.	0.1	-3.5336
8459	2.4022	6.	0.1	-3.2177
8460	2.587	6.	0.1	-2.9081
8461	2.7717	6.	0.1	-2.5677
8462	2.9565	6.	0.1	-2.0587
8463	3.1413	6.	0.1	-1.0617
8464	3.3261	6.	0.1	0.15789
8465	3.5109	6.	0.1	1.2018
8466	3.6957	6.	0.1	2.0076
8467	3.8804	6.	0.1	2.5937
8468	4.0652	6.	0.1	2.9901
8469	4.25	6.	0.1	3.2269
8470	4.4348	6.	0.1	3.3309
8471	4.6196	6.	0.1	3.3257
8472	4.8043	6.	0.1	3.2317
8473	4.9891	6.	0.1	3.0664
8474	5.1739	6.	0.1	2.8447
8475	5.3587	6.	0.1	2.5791
8476	5.5435	6.	0.1	2.2804
8477	5.7283	6.	0.1	1.9575
8478	5.913	6.	0.1	1.6179
8479	6.0978	6.	0.1	1.2677
8480	6.2826	6.	0.1	0.91201
8481	6.4674	6.	0.1	0.55509
8482	6.6522	6.	0.1	0.2003
8483	6.837	6.	0.1	-0.14962
8484	7.0217	6.	0.1	-0.43209
8485	7.2065	6.	0.1	-0.3949
8486	7.3913	6.	0.1	-0.35959
8487	7.5761	6.	0.1	-0.32681
8488	7.7609	6.	0.1	-0.2964
8489	7.9457	6.	0.1	-0.26817
8490	8.1304	6.	0.1	-0.24197
8491	8.3152	6.	0.1	-0.21759
8492	8.5	6.	0.1	-0.19489
8493	8.6848	6.	0.1	-0.17374
8494	8.8696	6.	0.1	-0.15398
8495	9.0543	6.	0.1	-0.13547
8496	9.2391	6.	0.1	-0.1181
8497	9.4239	6.	0.1	-0.10175
8498	9.6087	6.	0.1	-8.6284e-002
8499	9.7935	6.	0.1	-7.159e-002
8500	9.9783	6.	0.1	-5.7564e-002
8501	10.163	6.	0.1	-4.411e-002
8502	10.348	6.	0.1	-3.1092e-002
8503	10.533	6.	0.1	-1.8391e-002
8504	10.717	6.	0.1	-5.8548e-003
8505	10.902	6.	0.1	6.6505e-003
8506	11.087	6.	0.1	1.9262e-002
8507	11.272	6.	0.1	3.2141e-002
8508	11.457	6.	0.1	4.5422e-002
8509	11.641	6.	0.1	5.9375e-002
8510	11.826	6.	0.1	7.4242e-002
8511	12.011	6.	0.1	9.0269e-002
8512	12.196	6.	0.1	0.10781
8513	12.38	6.	0.1	0.12724
8514	12.565	6.	0.1	0.14897
8515	12.75	6.	0.1	0.1735
8516	12.935	6.	0.1	0.20135
8517	13.12	6.	0.1	0.23322
8518	13.304	6.	0.1	0.26983
8519	13.489	6.	0.1	0.31201
8520	13.674	6.	0.1	0.36059
8521	13.859	6.	0.1	0.41641
8522	14.043	6.	0.1	0.48027
8523	14.228	6.	0.1	0.55274
8524	14.413	6.	0.1	0.63392
8525	14.598	6.	0.1	0.72321
8526	14.783	6.	0.1	0.81869
8527	14.967	6.	0.1	0.91643
8528	15.152	6.	0.1	1.0096
8529	15.337	6.	0.1	1.0875
8530	15.522	6.	0.1	1.1348
8531	15.707	6.	0.1	1.1325
8532	15.891	6.	0.1	1.0548
8533	16.076	6.	0.1	0.89186
8534	16.261	6.	0.1	0.57569
8535	16.446	6.	0.1	0.32569
8536	16.63	6.	0.1	-0.65615
8537	16.815	6.	0.1	1.8815
8538	17.	6.	0.1	13.967
8539	16.815	6.	0.	-1.8815
8540	16.63	6.	0.	0.65615
8541	16.446	6.	0.	-0.32569
8542	16.261	6.	0.	-0.57569
8543	16.076	6.	0.	-0.89186
8544	15.891	6.	0.	-1.0548
8545	15.707	6.	0.	-1.1325
8546	15.522	6.	0.	-1.1348
8547	15.337	6.	0.	-1.0875
8548	15.152	6.	0.	-1.0096
8549	14.967	6.	0.	-0.91643
8550	14.783	6.	0.	-0.81869
8551	14.598	6.	0.	-0.72321
8552	14.413	6.	0.	-0.63392
8553	14.228	6.	0.	-0.55274
8554	14.043	6.	0.	-0.48027
8555	13.859	6.	0.	-0.41641
8556	13.674	6.	0.	-0.36059
8557	13.489	6.	0.	-0.31201
8558	13.304	6.	0.	-0.26983
8559	13.12	6.	0.	-0.23322
8560	12.935	6.	0.	-0.20135
8561	12.75	6.	0.	-0.1735
8562	12.565	6.	0.	-0.14897
8563	12.38	6.	0.	-0.12724
8564	12.196	6.	0.	-0.10781
8565	12.011	6.	0.	-9.0269e-002
8566	11.826	6.	0.	-7.4242e-002
8567	11.641	6.	0.	-5.9375e-002
8568	11.457	6.	0.	-4.5422e-002
8569	11.272	6.	0.	-3.214e-002
8570	11.087	6.	0.	-1.9261e-002
8571	10.902	6.	0.	-6.6504e-003
8572	10.717	6.	0.	5.8553e-003
8573	10.533	6.	0.	1.8392e-002
8574	10.348	6.	0.	3.1092e-002
8575	10.163	6.	0.	4.4111e-002
8576	9.9783	6.	0.	5.7564e-002
8577	9.7935	6.	0.	7.159e-002
8578	9.6087	6.	0.	8.6284e-002
8579	9.4239	6.	0.	0.10175
8580	9.2391	6.	0.	0.1181
8581	9.0543	6.	0.	0.13547
8582	8.8696	6.	0.	0.15398
8583	8.6848	6.	0.	0.17374
8584	8.5	6.	0.	0.19489
8585	8.3152	6.	0.	0.21759
8586	8.1304	6.	0.	0.24197
8587	7.9457	6.	0.	0.26817
8588	7.7609	6.	0.	0.2964
8589	7.5761	6.	0.	0.32681
8590	7.3913	6.	0.	0.35959
8591	7.2065	6.	0.	0.3949
8592	7.0217	6.	0.	0.43209
8593	6.837	6.	0.	0.14962
8594	6.6522	6.	0.	-0.2003
8595	6.4674	6.	0.	-0.55509
8596	6.2826	6.	0.	-0.912
8597	6.0978	6.	0.	-1.2677
8598	5.913	6.	0.	-1.6179
8599	5.7283	6.	0.	-1.9575
8600	5.5435	6.	0.	-2.2804
8601	5.3587	6.	0.	-2.5791
8602	5.1739	6.	0.	-2.8447
8603	4.9891	6.	0.	-3.0664
8604	4.8043	6.	0.	-3.2317
8605	4.6196	6.	0.	-3.3257
8606	4.4348	6.	0.	-3.3309
8607	4.25	6.	0.	-3.2269
8608	4.0652	6.	0.	-2.9901
8609	3.8804	6.	0.	-2.5937
8610	3.6957	6.	0.	-2.0076
8611	3.5109	6.	0.	-1.2018
8612	3.3261	6.	0.	-0.15789
8613	3.1413	6.	0.	1.0617
8614	2.9565	6.	0.	2.0587
8615	2.7717	6.	0.	2.5677
8616	2.587	6.	0.	2.9081
8617	2.4022	6.	0.	3.2177
8618	2.2174	6.	0.	3.5336
8619	2.0326	6.	0.	3.872
8620	1.8478	6.	0.	4.2431
8621	1.663	6.	0.	4.6617
8622	1.4783	6.	0.	5.1283
8623	1.2935	6.	0.	5.7065
8624	1.1087	6.	0.	6.2671
8625	0.92391	6.	0.	7.3429
8626	0.73913	6.	0.	7.5107
8627	0.55435	6.	0.	10.318
8628	0.36957	6.	0.	16.514
8629	0.18478	6.	0.	-51.443
8630	17.	6.	0.	-13.967
8631	3.937e-014	6.	0.	351.23
8632	0.18478	7.6483e-032	0.	-51.443
8633	0.36957	1.5297e-031	0.	16.514
8634	0.55435	2.2945e-031	0.	10.318
8635	0.73913	3.0593e-031	0.	7.5107
8636	0.92391	3.8242e-031	0.	7.3429
8637	1.1087	4.589e-031	0.	6.2671
8638	1.2935	5.3538e-031	0.	5.7065
8639	1.4783	6.1187e-031	0.	5.1283
8640	1.663	6.8835e-031	0.	4.6617
8641	1.8478	7.6483e-031	0.	4.2431
8642	2.0326	8.4132e-031	0.	3.872
8643	2.2174	9.178e-031	0.	3.5336
8644	2.4022	9.9428e-031	0.	3.2177
8645	2.587	1.0708e-030	0.	2.9081
8646	2.7717	1.1473e-030	0.	2.5677
8647	2.9565	1.2237e-030	0.	2.0587
8648	3.1413	1.3002e-030	0.	1.0617
8649	3.3261	1.3767e-030	0.	-0.15788
8650	3.5109	1.4532e-030	0.	-1.2018
8651	3.6957	1.5297e-030	0.	-2.0076
8652	3.8804	1.6062e-030	0.	-2.5937
8653	4.0652	1.6826e-030	0.	-2.9901
8654	4.25	1.7591e-030	0.	-3.2269
8655	4.4348	1.8356e-030	0.	-3.3309
8656	4.6196	1.9121e-030	0.	-3.3257
8657	4.8043	1.9886e-030	0.	-3.2317
8658	4.9891	2.0651e-030	0.	-3.0664
8659	5.1739	2.1415e-030	0.	-2.8447
8660	5.3587	2.218e-030	0.	-2.5791
8661	5.5435	2.2945e-030	0.	-2.2804
8662	5.7283	2.371e-030	0.	-1.9575
8663	5.913	2.4475e-030	0.	-1.6179
8664	6.0978	2.524e-030	0.	-1.2677
8665	6.2826	2.6004e-030	0.	-0.91201
8666	6.4674	2.6769e-030	0.	-0.55509
8667	6.6522	2.7534e-030	0.	-0.20031
8668	6.837	2.8299e-030	0.	0.14961
8669	7.0217	2.9064e-030	0.	0.43209
8670	7.2065	2.9829e-030	0.	0.3949
8671	7.3913	3.0593e-030	0.	0.35959
8672	7.5761	3.1358e-030	0.	0.32681
8673	7.7609	3.2123e-030	0.	0.2964
8674	7.9457	3.2888e-030	0.	0.26818
8675	8.1304	3.3653e-030	0.	0.24197
8676	8.3152	3.4418e-030	0.	0.21759
8677	8.5	3.5182e-030	0.	0.19489
8678	8.6848	3.5947e-030	0.	0.17374
8679	8.8696	3.6712e-030	0.	0.15398
8680	9.0543	3.7477e-030	0.	0.13547
8681	9.2391	3.8242e-030	0.	0.1181
8682	9.4239	3.9007e-030	0.	0.10175
8683	9.6087	3.9771e-030	0.	8.6284e-002
8684	9.7935	4.0536e-030	0.	7.159e-002
8685	9.9783	4.1301e-030	0.	5.7564e-002
8686	10.163	4.2066e-030	0.	4.4111e-002
8687	10.348	4.2831e-030	0.	3.1093e-002
8688	10.533	4.3596e-030	0.	1.8392e-002
8689	10.717	4.436e-030	0.	5.8564e-003
8690	10.902	4.5125e-030	0.	-6.6497e-003
8691	11.087	4.589e-030	0.	-1.926e-002
8692	11.272	4.6655e-030	0.	-3.214e-002
8693	11.457	4.742e-030	0.	-4.5421e-002
8694	11.641	4.8185e-030	0.	-5.9375e-002
8695	11.826	4.8949e-030	0.	-7.4242e-002
8696	12.011	4.9714e-030	0.	-9.0269e-002
8697	12.196	5.0479e-030	0.	-0.10781
8698	12.38	5.1244e-030	0.	-0.12724
8699	12.565	5.2009e-030	0.	-0.14897
8700	12.75	5.2774e-030	0.	-0.1735
8701	12.935	5.3538e-030	0.	-0.20135
8702	13.12	5.4303e-030	0.	-0.23322
8703	13.304	5.5068e-030	0.	-0.26983
8704	13.489	5.5833e-030	0.	-0.31201
8705	13.674	5.6598e-030	0.	-0.36059
8706	13.859	5.7363e-030	0.	-0.41641
8707	14.043	5.8127e-030	0.	-0.48027
8708	14.228	5.8892e-030	0.	-0.55273
8709	14.413	5.9657e-030	0.	-0.63392
8710	14.598	6.0422e-030	0.	-0.72321
8711	14.783	6.1187e-030	0.	-0.81868
8712	14.967	6.1952e-030	0.	-0.91643
8713	15.152	6.2716e-030	0.	-1.0096
8714	15.337	6.3481e-030	0.	-1.0875
8715	15.522	6.4246e-030	0.	-1.1348
8716	15.707	6.5011e-030	0.	-1.1325
8717	15.891	6.5776e-030	0.	-1.0548
8718	16.076	6.6541e-030	0.	-0.89186
8719	16.261	6.7305e-030	0.	-0.57569
8720	16.446	6.807e-030	0.	-0.32569
8721	16.63	6.8835e-030	0.	0.65615
8722	16.815	6.96e-030	0.	-1.8815
8723	17.	0.	0.	-13.967
8724	0.	0.	0.	351.23
8725	17.351	0.	0.	-1.0304
8726	17.536	0.	0.	1.2132
8727	17.721	0.	0.	0.44952
8728	17.905	0.	0.	0.26174
8729	18.09	0.	0.	2.7108e-002
8730	18.275	0.	0.	-9.6784e-002
8731	18.459	0.	0.	-0.16477
8732	18.644	0.	0.	-0.18596
8733	18.829	0.	0.	-0.17924
8734	19.014	0.	0.	-0.15679
8735	19.198	0.	0.	-0.12767
8736	19.383	0.	0.	-9.7713e-002
8737	19.568	0.	0.	-7.0454e-002
8738	19.752	0.	0.	-4.7775e-002
8739	19.937	0.	0.	-3.0509e-002
8740	20.122	0.	0.	-1.8829e-002
8741	20.306	0.	0.	-1.2527e-002
8742	20.491	0.	0.	-1.1179e-002
8743	20.676	0.	0.	-1.4306e-002
8744	20.86	0.	0.	-2.1416e-002
8745	21.045	0.	0.	-3.2046e-002
8746	21.23	0.	0.	-4.5826e-002
8747	21.414	0.	0.	-6.2443e-002
8748	21.599	0.	0.	-8.1686e-002
8749	21.784	0.	0.	-0.10343
8750	21.968	0.	0.	-0.12769
8751	22.153	0.	0.	-0.15455
8752	22.338	0.	0.	-0.18427
8753	22.523	0.	0.	-0.21729
8754	22.707	0.	0.	-0.25437
8755	22.892	0.	0.	-0.2963
8756	23.077	0.	0.	-0.34587
8757	23.261	0.	0.	-0.40118
8758	23.446	0.	0.	-0.48759
8759	23.631	0.	0.	-0.55072
8760	23.815	0.	0.	-0.92453
8761	17.167	0.	0.	-11.73
8762	24.	0.	0.	1.0783
8763	5.0862e-014	5.8182	0.	-1194.6
8764	4.9273e-014	5.6364	0.	-2308.4
8765	4.7683e-014	5.4545	0.	-2825.2
8766	4.6094e-014	5.2727	0.	-3134.4
8767	4.4504e-014	5.0909	0.	-3341.8
8768	4.2915e-014	4.9091	0.	-3490.4
8769	4.1325e-014	4.7273	0.	-3600.7
8770	3.9736e-014	4.5455	0.	-3684.5
8771	3.8147e-014	4.3636	0.	-3749.1
8772	3.6557e-014	4.1818	0.	-3799.3
8773	3.4968e-014	4.	0.	-3838.1
8774	3.3378e-014	3.8182	0.	-3867.9
8775	3.1789e-014	3.6364	0.	-3890.2
8776	3.0199e-014	3.4545	0.	-3906.
8777	2.861e-014	3.2727	0.	-3916.2
8778	2.702e-014	3.0909	0.	-3921.
8779	2.5431e-014	2.9091	0.	-3921.
8780	2.3842e-014	2.7273	0.	-3916.2
8781	2.2252e-014	2.5455	0.	-3906.
8782	2.0663e-014	2.3636	0.	-3890.2
8783	1.9073e-014	2.1818	0.	-3867.9
8784	1.7484e-014	2.	0.	-3838.1
8785	1.5894e-014	1.8182	0.	-3799.3
8786	1.4305e-014	1.6364	0.	-3749.1
8787	1.2716e-014	1.4545	0.	-3684.5
8788	1.1126e-014	1.2727	0.	-3600.7
8789	9.5366e-015	1.0909	0.	-3490.4
8790	7.9472e-015	0.90909	0.	-3341.8
8791	6.3578e-015	0.72727	0.	-3134.4
8792	4.7683e-015	0.54545	0.	-2825.2
8793	3.1789e-015	0.36364	0.	-2308.4
8794	1.5894e-015	0.18182	0.	-1194.6
8795	24.	0.18182	0.	2.2143
8796	24.	0.36364	0.	2.2413
8797	24.	0.54545	0.	2.4123
8798	24.	0.72727	0.	2.4338
8799	24.	0.90909	0.	2.4596
8800	24.	1.0909	0.	2.4721
8801	24.	1.2727	0.	2.481
8802	24.	1.4545	0.	2.4865
8803	24.	1.6364	0.	2.49
8804	24.	1.8182	0.	2.492
8805	24.	2.	0.	2.493
8806	24.	2.1818	0.	2.4935
8807	24.	2.3636	0.	2.4936
8808	24.	2.5455	0.	2.4935
8809	24.	2.7273	0.	2.4933
8810	24.	2.9091	0.	2.4933
8811	24.	3.0909	0.	2.4933
8812	24.	3.2727	0.	2.4933
8813	24.	3.4545	0.	2.4935
8814	24.	3.6364	0.	2.4936
8815	24.	3.8182	0.	2.4935
8816	24.	4.	0.	2.493
8817	24.	4.1818	0.	2.492
8818	24.	4.3636	0.	2.49
8819	24.	4.5455	0.	2.4865
8820	24.	4.7273	0.	2.481
8821	24.	4.9091	0.	2.4721
8822	24.	5.0909	0.	2.4596
8823	24.	5.2727	0.	2.4338
8824	24.	5.4545	0.	2.4123
8825	24.	5.6364	0.	2.2413
8826	24.	5.8182	0.	2.2143
8827	24.	6.	0.	1.0783
8828	23.815	6.	0.	-0.92453
8829	23.631	6.	0.	-0.55072
8830	23.446	6.	0.	-0.48759
8831	23.261	6.	0.	-0.40118
8832	23.077	6.	0.	-0.34587
8833	22.892	6.	0.	-0.2963
8834	22.707	6.	0.	-0.25436
8835	22.523	6.	0.	-0.21729
8836	22.338	6.	0.	-0.18427
8837	22.153	6.	0.	-0.15455
8838	21.968	6.	0.	-0.12768
8839	21.784	6.	0.	-0.10343
8840	21.599	6.	0.	-8.1685e-002
8841	21.414	6.	0.	-6.2442e-002
8842	21.23	6.	0.	-4.5825e-002
8843	21.045	6.	0.	-3.2043e-002
8844	20.86	6.	0.	-2.1414e-002
8845	20.676	6.	0.	-1.4306e-002
8846	20.491	6.	0.	-1.1179e-002
8847	20.306	6.	0.	-1.253e-002
8848	20.122	6.	0.	-1.8829e-002
8849	19.937	6.	0.	-3.0508e-002
8850	19.752	6.	0.	-4.7774e-002
8851	19.568	6.	0.	-7.0453e-002
8852	19.383	6.	0.	-9.7713e-002
8853	19.198	6.	0.	-0.12767
8854	19.014	6.	0.	-0.15678
8855	18.829	6.	0.	-0.17924
8856	18.644	6.	0.	-0.18596
8857	18.459	6.	0.	-0.16477
8858	18.275	6.	0.	-9.6783e-002
8859	18.09	6.	0.	2.7109e-002
8860	17.905	6.	0.	0.26174
8861	17.721	6.	0.	0.44952
8862	17.536	6.	0.	1.2132
8863	17.351	6.	0.	-1.0304
8864	17.167	6.	0.	-11.73
8865	17.	1.8182	0.	-7.8914
8866	17.	1.6364	0.	46.988
8867	17.	1.4545	0.	12.118
8868	17.	1.2727	0.	14.41
8869	17.	1.0909	0.	10.007
8870	17.	0.90909	0.	9.1187
8871	17.	0.72727	0.	7.9693
8872	17.	0.54545	0.	7.2713
8873	17.	0.36364	0.	7.1213
8874	17.	0.18182	0.	5.4899
8875	17.	2.	0.	-256.67
8876	17.167	0.18182	0.	3.1643
8877	17.167	0.36364	0.	4.9003
8878	17.167	0.54545	0.	4.9926
8879	17.167	0.72727	0.	5.6174
8880	17.167	0.90909	0.	6.6274
8881	17.167	1.0909	0.	7.5418
8882	17.167	1.2727	0.	11.226
8883	17.167	1.4545	0.	10.174
8884	17.167	1.6364	0.	40.02
8885	17.167	1.8182	0.	-10.284
8886	17.167	2.	0.	-561.41
8887	17.	4.1818	0.	-7.8913
8888	17.	4.3636	0.	46.988
8889	17.	4.5455	0.	12.118
8890	17.	4.7273	0.	14.41
8891	17.	4.9091	0.	10.007
8892	17.	5.0909	0.	9.1187
8893	17.	5.2727	0.	7.9693
8894	17.	5.4545	0.	7.2713
8895	17.	5.6364	0.	7.1213
8896	17.	5.8182	0.	5.4899
8897	17.	4.	0.	-256.66
8898	17.167	5.8182	0.	3.1643
8899	17.167	5.6364	0.	4.9003
8900	17.167	5.4545	0.	4.9926
8901	17.167	5.2727	0.	5.6174
8902	17.167	5.0909	0.	6.6274
8903	17.167	4.9091	0.	7.5417
8904	17.167	4.7273	0.	11.226
8905	17.167	4.5455	0.	10.174
8906	17.167	4.3636	0.	40.019
8907	17.167	4.1818	0.	-10.284
8908	17.167	4.	0.	-561.41
8909	17.	2.2727	0.	31.901
8910	17.083	2.1818	0.	50.253
8911	16.908	2.1818	0.	45.76
8912	17.	2.1818	5.e-002	4.9814e-004
8913	17.	2.0909	0.	-102.92
8914	17.	2.4545	0.	-6.714
8915	17.083	2.3636	0.	-14.522
8916	16.908	2.3636	0.	-10.322
8917	17.	2.3636	5.e-002	3.5136e-004
8918	17.	2.6364	0.	-0.60206
8919	17.083	2.5455	0.	0.56436
8920	16.908	2.5455	0.	1.2384
8921	17.	2.5455	5.e-002	2.0085e-004
8922	17.	2.8182	0.	-1.1737
8923	17.083	2.7273	0.	-1.5535
8924	16.908	2.7273	0.	-1.4639
8925	17.	2.7273	5.e-002	1.2497e-004
8926	17.	3.	0.	-0.81364
8927	17.083	2.9091	0.	-0.76734
8928	16.908	2.9091	0.	-0.57458
8929	17.	2.9091	5.e-002	4.6494e-005
8930	17.	3.1818	0.	-1.1737
8931	17.083	3.0909	0.	-0.76734
8932	16.908	3.0909	0.	-0.57458
8933	17.	3.0909	5.e-002	-3.9748e-005
8934	17.	3.3636	0.	-0.60206
8935	17.083	3.2727	0.	-1.5535
8936	16.908	3.2727	0.	-1.4639
8937	17.	3.2727	5.e-002	-1.2266e-004
8938	17.	3.5455	0.	-6.714
8939	17.083	3.4545	0.	0.56437
8940	16.908	3.4545	0.	1.2384
8941	17.	3.4545	5.e-002	-1.892e-004
8942	17.	3.7273	0.	31.901
8943	17.083	3.6364	0.	-14.522
8944	16.908	3.6364	0.	-10.322
8945	17.	3.6364	5.e-002	-3.5136e-004
8946	17.083	3.8182	0.	50.253
8947	16.908	3.8182	0.	45.76
8948	17.	3.8182	5.e-002	-4.9052e-004
8949	17.	3.9091	0.	-102.92
8950	17.167	2.2727	0.	1.1323
8951	17.259	2.1818	0.	-6.9001
8952	17.167	2.1818	5.e-002	3.1292e-004
8953	17.167	2.0909	0.	-284.2
8954	17.167	2.4545	0.	-7.0784
8955	17.259	2.3636	0.	-11.157
8956	17.167	2.3636	5.e-002	1.6969e-004
8957	17.167	2.6364	0.	-0.35029
8958	17.259	2.5455	0.	1.3487
8959	17.167	2.5455	5.e-002	1.1953e-004
8960	17.167	2.8182	0.	-1.1115
8961	17.259	2.7273	0.	-1.3032
8962	17.167	2.7273	5.e-002	2.857e-005
8963	17.167	3.	0.	-0.69136
8964	17.259	2.9091	0.	-0.35919
8965	17.167	2.9091	5.e-002	1.4448e-006
8966	17.167	3.1818	0.	-1.1115
8967	17.259	3.0909	0.	-0.3592
8968	17.167	3.0909	5.e-002	9.216e-006
8969	17.167	3.3636	0.	-0.35029
8970	17.259	3.2727	0.	-1.3032
8971	17.167	3.2727	5.e-002	-1.2947e-005
8972	17.167	3.5455	0.	-7.0784
8973	17.259	3.4545	0.	1.3487
8974	17.167	3.4545	5.e-002	-8.7998e-005
8975	17.167	3.7273	0.	1.1323
8976	17.259	3.6364	0.	-11.157
8977	17.167	3.6364	5.e-002	-1.688e-004
8978	17.259	3.8182	0.	-6.9003
8979	17.167	3.8182	5.e-002	-3.0192e-004
8980	17.167	3.9091	0.	-284.2
8981	16.815	5.7273	0.	-4.6781
8982	16.723	5.8182	0.	-4.0807
8983	16.815	5.8182	5.e-002	4.6757e-006
8984	16.815	5.9091	0.	-4.7816
8985	16.908	5.8182	0.	1.0594
8986	16.815	5.5455	0.	-2.7506
8987	16.723	5.6364	0.	-1.7846
8988	16.815	5.6364	5.e-002	6.3098e-006
8989	16.908	5.6364	0.	1.2502
8990	16.815	5.3636	0.	-2.3748
8991	16.723	5.4545	0.	-1.1829
8992	16.815	5.4545	5.e-002	-3.959e-006
8993	16.908	5.4545	0.	0.80917
8994	16.815	5.1818	0.	-2.2573
8995	16.723	5.2727	0.	-0.9059
8996	16.815	5.2727	5.e-002	-7.1783e-006
8997	16.908	5.2727	0.	0.78656
8998	16.815	5.	0.	-2.6032
8999	16.723	5.0909	0.	-0.81699
9000	16.815	5.0909	5.e-002	-2.2347e-005
9001	16.908	5.0909	0.	0.9375
9002	16.815	4.8182	0.	-2.447
9003	16.723	4.9091	0.	-1.0718
9004	16.815	4.9091	5.e-002	-3.9758e-005
9005	16.908	4.9091	0.	0.25983
9006	16.815	4.6364	0.	-5.4948
9007	16.723	4.7273	0.	-0.55422
9008	16.815	4.7273	5.e-002	-5.2894e-005
9009	16.908	4.7273	0.	2.6645
9010	16.815	4.4545	0.	-9.9486e-002
9011	16.723	4.5455	0.	-4.1561
9012	16.815	4.5455	5.e-002	-1.0801e-004
9013	16.908	4.5455	0.	-7.3651
9014	16.815	4.2727	0.	-20.747
9015	16.723	4.3636	0.	6.0474
9016	16.815	4.3636	5.e-002	-1.8881e-004
9017	16.908	4.3636	0.	29.261
9018	16.815	4.0909	0.	-139.96
9019	16.723	4.1818	0.	-21.576
9020	16.815	4.1818	5.e-002	-4.6046e-004
9021	16.908	4.1818	0.	-130.73
9022	16.815	3.9091	0.	-100.57
9023	16.723	4.	0.	-98.607
9024	16.815	4.	5.e-002	-3.0745e-004
9025	16.908	4.	0.	-133.13
9026	16.815	3.7273	0.	2.1845
9027	16.723	3.8182	0.	13.279
9028	16.815	3.8182	5.e-002	-1.3182e-004
9029	16.815	3.5455	0.	-2.3384
9030	16.723	3.6364	0.	-4.4392
9031	16.815	3.6364	5.e-002	-1.7259e-004
9032	16.815	3.3636	0.	0.40196
9033	16.723	3.4545	0.	1.3475
9034	16.815	3.4545	5.e-002	-1.0413e-004
9035	16.815	3.1818	0.	-0.84258
9036	16.723	3.2727	0.	-0.72578
9037	16.815	3.2727	5.e-002	-5.8165e-005
9038	16.815	3.	0.	-0.31471
9039	16.723	3.0909	0.	-0.21466
9040	16.815	3.0909	5.e-002	-1.1124e-005
9041	16.815	2.8182	0.	-0.84258
9042	16.723	2.9091	0.	-0.21466
9043	16.815	2.9091	5.e-002	2.2493e-005
9044	16.815	2.6364	0.	0.40196
9045	16.723	2.7273	0.	-0.72578
9046	16.815	2.7273	5.e-002	7.3899e-005
9047	16.815	2.4545	0.	-2.3384
9048	16.723	2.5455	0.	1.3475
9049	16.815	2.5455	5.e-002	1.1388e-004
9050	16.815	2.2727	0.	2.1845
9051	16.723	2.3636	0.	-4.4392
9052	16.815	2.3636	5.e-002	1.7465e-004
9053	16.815	2.0909	0.	-100.57
9054	16.723	2.1818	0.	13.279
9055	16.815	2.1818	5.e-002	1.4015e-004
9056	16.815	1.9091	0.	-139.96
9057	16.723	2.	0.	-98.607
9058	16.815	2.	5.e-002	3.4421e-004
9059	16.908	2.	0.	-133.13
9060	16.815	1.7273	0.	-20.747
9061	16.723	1.8182	0.	-21.576
9062	16.815	1.8182	5.e-002	4.691e-004
9063	16.908	1.8182	0.	-130.73
9064	16.815	1.5455	0.	-9.949e-002
9065	16.723	1.6364	0.	6.0474
9066	16.815	1.6364	5.e-002	2.0106e-004
9067	16.908	1.6364	0.	29.261
9068	16.815	1.3636	0.	-5.4948
9069	16.723	1.4545	0.	-4.1561
9070	16.815	1.4545	5.e-002	1.2514e-004
9071	16.908	1.4545	0.	-7.3651
9072	16.815	1.1818	0.	-2.447
9073	16.723	1.2727	0.	-0.55422
9074	16.815	1.2727	5.e-002	6.2208e-005
9075	16.908	1.2727	0.	2.6645
9076	16.815	1.	0.	-2.6032
9077	16.723	1.0909	0.	-1.0718
9078	16.815	1.0909	5.e-002	4.2372e-005
9079	16.908	1.0909	0.	0.25983
9080	16.815	0.81818	0.	-2.2573
9081	16.723	0.90909	0.	-0.81699
9082	16.815	0.90909	5.e-002	2.0097e-005
9083	16.908	0.90909	0.	0.9375
9084	16.815	0.63636	0.	-2.3748
9085	16.723	0.72727	0.	-0.9059
9086	16.815	0.72727	5.e-002	6.9255e-006
9087	16.908	0.72727	0.	0.78657
9088	16.815	0.45455	0.	-2.7506
9089	16.723	0.54545	0.	-1.1829
9090	16.815	0.54545	5.e-002	3.5134e-006
9091	16.908	0.54545	0.	0.80917
9092	16.815	0.27273	0.	-4.6781
9093	16.723	0.36364	0.	-1.7846
9094	16.815	0.36364	5.e-002	1.6634e-006
9095	16.908	0.36364	0.	1.2502
9096	16.723	0.18182	0.	-4.0807
9097	16.815	0.18182	5.e-002	1.453e-006
9098	16.815	9.0909e-002	0.	-4.7816
9099	16.908	0.18182	0.	1.0594
9100	16.63	5.7273	0.	-0.26515
9101	16.538	5.8182	0.	-0.18129
9102	16.63	5.8182	5.e-002	2.6736e-006
9103	16.63	5.9091	0.	7.8238e-002
9104	16.63	5.5455	0.	0.18571
9105	16.538	5.6364	0.	-4.22e-002
9106	16.63	5.6364	5.e-002	3.5303e-007
9107	16.63	5.3636	0.	0.41577
9108	16.538	5.4545	0.	8.6543e-002
9109	16.63	5.4545	5.e-002	-3.346e-006
9110	16.63	5.1818	0.	0.56669
9111	16.538	5.2727	0.	0.17058
9112	16.63	5.2727	5.e-002	-1.5105e-005
9113	16.63	5.	0.	0.69155
9114	16.538	5.0909	0.	0.18951
9115	16.63	5.0909	5.e-002	-2.6109e-005
9116	16.63	4.8182	0.	0.73275
9117	16.538	4.9091	0.	0.17961
9118	16.63	4.9091	5.e-002	-4.4573e-005
9119	16.63	4.6364	0.	0.6616
9120	16.538	4.7273	0.	9.0335e-002
9121	16.63	4.7273	5.e-002	-6.98e-005
9122	16.63	4.4545	0.	1.7265
9123	16.538	4.5455	0.	6.1139e-002
9124	16.63	4.5455	5.e-002	-1.1092e-004
9125	16.63	4.2727	0.	5.1827
9126	16.538	4.3636	0.	-0.36981
9127	16.63	4.3636	5.e-002	-2.0525e-004
9128	16.63	4.0909	0.	17.221
9129	16.538	4.1818	0.	2.8666
9130	16.63	4.1818	5.e-002	-3.7021e-004
9131	16.63	3.9091	0.	20.551
9132	16.538	4.	0.	11.075
9133	16.63	4.	5.e-002	-1.3789e-004
9134	16.63	3.7273	0.	5.947
9135	16.538	3.8182	0.	5.087
9136	16.63	3.8182	5.e-002	-1.0287e-004
9137	16.63	3.5455	0.	-0.82399
9138	16.538	3.6364	0.	-1.4664e-002
9139	16.63	3.6364	5.e-002	-7.4339e-005
9140	16.63	3.3636	0.	0.21448
9141	16.538	3.4545	0.	0.39363
9142	16.63	3.4545	5.e-002	-5.7548e-005
9143	16.63	3.1818	0.	-9.0075e-002
9144	16.538	3.2727	0.	9.8113e-002
9145	16.63	3.2727	5.e-002	-2.7036e-005
9146	16.63	3.	0.	-0.10478
9147	16.538	3.0909	0.	2.7347e-002
9148	16.63	3.0909	5.e-002	-1.0268e-005
9149	16.63	2.8182	0.	-9.0074e-002
9150	16.538	2.9091	0.	2.7346e-002
9151	16.63	2.9091	5.e-002	1.0243e-005
9152	16.63	2.6364	0.	0.21448
9153	16.538	2.7273	0.	9.8114e-002
9154	16.63	2.7273	5.e-002	3.416e-005
9155	16.63	2.4545	0.	-0.82399
9156	16.538	2.5455	0.	0.39363
9157	16.63	2.5455	5.e-002	6.5027e-005
9158	16.63	2.2727	0.	5.947
9159	16.538	2.3636	0.	-1.4663e-002
9160	16.63	2.3636	5.e-002	7.7637e-005
9161	16.63	2.0909	0.	20.551
9162	16.538	2.1818	0.	5.087
9163	16.63	2.1818	5.e-002	1.0078e-004
9164	16.63	1.9091	0.	17.221
9165	16.538	2.	0.	11.075
9166	16.63	2.	5.e-002	1.7483e-004
9167	16.63	1.7273	0.	5.1827
9168	16.538	1.8182	0.	2.8666
9169	16.63	1.8182	5.e-002	4.1722e-004
9170	16.63	1.5455	0.	1.7265
9171	16.538	1.6364	0.	-0.36981
9172	16.63	1.6364	5.e-002	2.3059e-004
9173	16.63	1.3636	0.	0.6616
9174	16.538	1.4545	0.	6.1139e-002
9175	16.63	1.4545	5.e-002	1.1849e-004
9176	16.63	1.1818	0.	0.73275
9177	16.538	1.2727	0.	9.0335e-002
9178	16.63	1.2727	5.e-002	7.187e-005
9179	16.63	1.	0.	0.69155
9180	16.538	1.0909	0.	0.17961
9181	16.63	1.0909	5.e-002	5.0295e-005
9182	16.63	0.81818	0.	0.56669
9183	16.538	0.90909	0.	0.18951
9184	16.63	0.90909	5.e-002	3.3738e-005
9185	16.63	0.63636	0.	0.41577
9186	16.538	0.72727	0.	0.17058
9187	16.63	0.72727	5.e-002	2.1345e-005
9188	16.63	0.45455	0.	0.1857
9189	16.538	0.54545	0.	8.6542e-002
9190	16.63	0.54545	5.e-002	1.1791e-005
9191	16.63	0.27273	0.	-0.26516
9192	16.538	0.36364	0.	-4.2202e-002
9193	16.63	0.36364	5.e-002	5.4922e-006
9194	16.538	0.18182	0.	-0.1813
9195	16.63	0.18182	5.e-002	3.5256e-006
9196	16.63	9.0909e-002	0.	7.8237e-002
9197	16.446	5.7273	0.	-7.3154e-002
9198	16.353	5.8182	0.	0.2821
9199	16.446	5.8182	5.e-002	2.4436e-006
9200	16.446	5.9091	0.	-7.8963e-002
9201	16.446	5.5455	0.	-0.14797
9202	16.353	5.6364	0.	-9.049e-003
9203	16.446	5.6364	5.e-002	-1.7371e-006
9204	16.446	5.3636	0.	-0.16179
9205	16.353	5.4545	0.	-1.9926e-002
9206	16.446	5.4545	5.e-002	-8.6117e-006
9207	16.446	5.1818	0.	-0.21288
9208	16.353	5.2727	0.	-9.0452e-002
9209	16.446	5.2727	5.e-002	-1.8921e-005
9210	16.446	5.	0.	-0.33034
9211	16.353	5.0909	0.	-0.15459
9212	16.446	5.0909	5.e-002	-3.0693e-005
9213	16.446	4.8182	0.	-0.46768
9214	16.353	4.9091	0.	-0.2789
9215	16.446	4.9091	5.e-002	-4.6757e-005
9216	16.446	4.6364	0.	-0.506
9217	16.353	4.7273	0.	-0.39545
9218	16.446	4.7273	5.e-002	-7.3154e-005
9219	16.446	4.4545	0.	-2.0488
9220	16.353	4.5455	0.	-0.45419
9221	16.446	4.5455	5.e-002	-1.1627e-004
9222	16.446	4.2727	0.	-2.6657
9223	16.353	4.3636	0.	-1.6562
9224	16.446	4.3636	5.e-002	-2.0331e-004
9225	16.446	4.0909	0.	-3.3329
9226	16.353	4.1818	0.	-0.93065
9227	16.446	4.1818	5.e-002	-3.0507e-004
9228	16.446	3.9091	0.	-4.2974
9229	16.353	4.	0.	-2.066
9230	16.446	4.	5.e-002	-1.4023e-004
9231	16.446	3.7273	0.	-0.73706
9232	16.353	3.8182	0.	-1.1263
9233	16.446	3.8182	5.e-002	-1.1823e-004
9234	16.446	3.5455	0.	1.1744
9235	16.353	3.6364	0.	1.1254
9236	16.446	3.6364	5.e-002	-5.4863e-005
9237	16.446	3.3636	0.	0.25925
9238	16.353	3.4545	0.	0.30155
9239	16.446	3.4545	5.e-002	-3.5367e-005
9240	16.446	3.1818	0.	0.21353
9241	16.353	3.2727	0.	0.28738
9242	16.446	3.2727	5.e-002	-2.0651e-005
9243	16.446	3.	0.	0.16137
9244	16.353	3.0909	0.	0.20657
9245	16.446	3.0909	5.e-002	-1.4892e-006
9246	16.446	2.8182	0.	0.21353
9247	16.353	2.9091	0.	0.20657
9248	16.446	2.9091	5.e-002	1.6754e-005
9249	16.446	2.6364	0.	0.25925
9250	16.353	2.7273	0.	0.28738
9251	16.446	2.7273	5.e-002	2.0651e-005
9252	16.446	2.4545	0.	1.1744
9253	16.353	2.5455	0.	0.30155
9254	16.446	2.5455	5.e-002	4.2862e-005
9255	16.446	2.2727	0.	-0.73706
9256	16.353	2.3636	0.	1.1254
9257	16.446	2.3636	5.e-002	6.0334e-005
9258	16.446	2.0909	0.	-4.2974
9259	16.353	2.1818	0.	-1.1263
9260	16.446	2.1818	5.e-002	1.22e-004
9261	16.446	1.9091	0.	-3.3329
9262	16.353	2.	0.	-2.066
9263	16.446	2.	5.e-002	1.9975e-004
9264	16.446	1.7273	0.	-2.6657
9265	16.353	1.8182	0.	-0.93065
9266	16.446	1.8182	5.e-002	2.9078e-004
9267	16.446	1.5455	0.	-2.0488
9268	16.353	1.6364	0.	-1.6562
9269	16.446	1.6364	5.e-002	2.0039e-004
9270	16.446	1.3636	0.	-0.50599
9271	16.353	1.4545	0.	-0.45419
9272	16.446	1.4545	5.e-002	1.1627e-004
9273	16.446	1.1818	0.	-0.46768
9274	16.353	1.2727	0.	-0.39545
9275	16.446	1.2727	5.e-002	7.1834e-005
9276	16.446	1.	0.	-0.33034
9277	16.353	1.0909	0.	-0.2789
9278	16.446	1.0909	5.e-002	5.4385e-005
9279	16.446	0.81818	0.	-0.21288
9280	16.353	0.90909	0.	-0.15459
9281	16.446	0.90909	5.e-002	3.5538e-005
9282	16.446	0.63636	0.	-0.16179
9283	16.353	0.72727	0.	-9.0452e-002
9284	16.446	0.72727	5.e-002	2.4748e-005
9285	16.446	0.45455	0.	-0.14798
9286	16.353	0.54545	0.	-1.9927e-002
9287	16.446	0.54545	5.e-002	1.3671e-005
9288	16.446	0.27273	0.	-7.3157e-002
9289	16.353	0.36364	0.	-9.0506e-003
9290	16.446	0.36364	5.e-002	7.8465e-006
9291	16.353	0.18182	0.	0.2821
9292	16.446	0.18182	5.e-002	4.1124e-006
9293	16.446	9.0909e-002	0.	-7.8962e-002
9294	16.261	5.7273	0.	0.26213
9295	16.168	5.8182	0.	0.41853
9296	16.261	5.8182	5.e-002	2.6488e-006
9297	16.261	5.9091	0.	0.11404
9298	16.261	5.5455	0.	8.5651e-002
9299	16.168	5.6364	0.	7.4267e-002
9300	16.261	5.6364	5.e-002	-1.1866e-006
9301	16.261	5.3636	0.	3.7708e-002
9302	16.168	5.4545	0.	7.7102e-002
9303	16.261	5.4545	5.e-002	-6.7231e-006
9304	16.261	5.1818	0.	-3.8173e-002
9305	16.168	5.2727	0.	-1.2372e-002
9306	16.261	5.2727	5.e-002	-1.979e-005
9307	16.261	5.	0.	-0.10531
9308	16.168	5.0909	0.	-7.9449e-002
9309	16.261	5.0909	5.e-002	-3.0736e-005
9310	16.261	4.8182	0.	-0.20744
9311	16.168	4.9091	0.	-0.14563
9312	16.261	4.9091	5.e-002	-4.4121e-005
9313	16.261	4.6364	0.	-0.34543
9314	16.168	4.7273	0.	-0.23568
9315	16.261	4.7273	5.e-002	-7.4395e-005
9316	16.261	4.4545	0.	-6.2102e-002
9317	16.168	4.5455	0.	-0.33302
9318	16.261	4.5455	5.e-002	-1.1088e-004
9319	16.261	4.2727	0.	6.3569e-002
9320	16.168	4.3636	0.	-5.6756e-002
9321	16.261	4.3636	5.e-002	-2.2768e-004
9322	16.261	4.0909	0.	0.34741
9323	16.168	4.1818	0.	-0.22477
9324	16.261	4.1818	5.e-002	-2.6074e-004
9325	16.261	3.9091	0.	1.1339
9326	16.168	4.	0.	0.23192
9327	16.261	4.	5.e-002	-2.2162e-004
9328	16.261	3.7273	0.	0.795
9329	16.168	3.8182	0.	0.52778
9330	16.261	3.8182	5.e-002	-1.0489e-004
9331	16.261	3.5455	0.	0.26507
9332	16.168	3.6364	0.	0.12983
9333	16.261	3.6364	5.e-002	-5.881e-005
9334	16.261	3.3636	0.	0.32667
9335	16.168	3.4545	0.	0.2803
9336	16.261	3.4545	5.e-002	-2.8969e-005
9337	16.261	3.1818	0.	0.27883
9338	16.168	3.2727	0.	0.26683
9339	16.261	3.2727	5.e-002	-1.3296e-005
9340	16.261	3.	0.	0.252
9341	16.168	3.0909	0.	0.24683
9342	16.261	3.0909	5.e-002	-3.9964e-006
9343	16.261	2.8182	0.	0.27883
9344	16.168	2.9091	0.	0.24683
9345	16.261	2.9091	5.e-002	5.8683e-006
9346	16.261	2.6364	0.	0.32667
9347	16.168	2.7273	0.	0.26683
9348	16.261	2.7273	5.e-002	1.8934e-005
9349	16.261	2.4545	0.	0.26507
9350	16.168	2.5455	0.	0.2803
9351	16.261	2.5455	5.e-002	3.546e-005
9352	16.261	2.2727	0.	0.795
9353	16.168	2.3636	0.	0.12983
9354	16.261	2.3636	5.e-002	7.1527e-005
9355	16.261	2.0909	0.	1.1339
9356	16.168	2.1818	0.	0.52778
9357	16.261	2.1818	5.e-002	1.2873e-004
9358	16.261	1.9091	0.	0.34741
9359	16.168	2.	0.	0.23192
9360	16.261	2.	5.e-002	1.6726e-004
9361	16.261	1.7273	0.	6.3569e-002
9362	16.168	1.8182	0.	-0.22477
9363	16.261	1.8182	5.e-002	2.6446e-004
9364	16.261	1.5455	0.	-6.2101e-002
9365	16.168	1.6364	0.	-5.6756e-002
9366	16.261	1.6364	5.e-002	2.2199e-004
9367	16.261	1.3636	0.	-0.34543
9368	16.168	1.4545	0.	-0.33302
9369	16.261	1.4545	5.e-002	1.2581e-004
9370	16.261	1.1818	0.	-0.20744
9371	16.168	1.2727	0.	-0.23568
9372	16.261	1.2727	5.e-002	7.2719e-005
9373	16.261	1.	0.	-0.10531
9374	16.168	1.0909	0.	-0.14563
9375	16.261	1.0909	5.e-002	4.9244e-005
9376	16.261	0.81818	0.	-3.8172e-002
9377	16.168	0.90909	0.	-7.9448e-002
9378	16.261	0.90909	5.e-002	3.5493e-005
9379	16.261	0.63636	0.	3.7707e-002
9380	16.168	0.72727	0.	-1.2371e-002
9381	16.261	0.72727	5.e-002	2.4585e-005
9382	16.261	0.45455	0.	8.565e-002
9383	16.168	0.54545	0.	7.7102e-002
9384	16.261	0.54545	5.e-002	1.5127e-005
9385	16.261	0.27273	0.	0.26213
9386	16.168	0.36364	0.	7.4267e-002
9387	16.261	0.36364	5.e-002	7.4427e-006
9388	16.168	0.18182	0.	0.41853
9389	16.261	0.18182	5.e-002	3.1372e-006
9390	16.261	9.0909e-002	0.	0.11404
9391	16.076	5.7273	0.	0.20131
9392	15.984	5.8182	0.	0.29633
9393	16.076	5.8182	5.e-002	5.1444e-006
9394	16.076	5.9091	0.	6.3109e-002
9395	16.076	5.5455	0.	5.0632e-002
9396	15.984	5.6364	0.	1.5968e-002
9397	16.076	5.6364	5.e-002	5.6345e-007
9398	16.076	5.3636	0.	1.8851e-002
9399	15.984	5.4545	0.	6.6918e-002
9400	16.076	5.4545	5.e-002	-3.8776e-006
9401	16.076	5.1818	0.	-5.7646e-002
9402	15.984	5.2727	0.	-1.5399e-002
9403	16.076	5.2727	5.e-002	-1.4897e-005
9404	16.076	5.	0.	-0.12185
9405	15.984	5.0909	0.	-6.8084e-002
9406	16.076	5.0909	5.e-002	-2.3088e-005
9407	16.076	4.8182	0.	-0.17563
9408	15.984	4.9091	0.	-0.12148
9409	16.076	4.9091	5.e-002	-4.1976e-005
9410	16.076	4.6364	0.	-0.22584
9411	15.984	4.7273	0.	-0.15917
9412	16.076	4.7273	5.e-002	-6.258e-005
9413	16.076	4.4545	0.	-0.33068
9414	15.984	4.5455	0.	-0.19504
9415	16.076	4.5455	5.e-002	-1.142e-004
9416	16.076	4.2727	0.	-0.34431
9417	15.984	4.3636	0.	-0.26647
9418	16.076	4.3636	5.e-002	-1.7592e-004
9419	16.076	4.0909	0.	-0.33428
9420	15.984	4.1818	0.	-0.2163
9421	16.076	4.1818	5.e-002	-2.2545e-004
9422	16.076	3.9091	0.	-0.36336
9423	15.984	4.	0.	-0.24291
9424	16.076	4.	5.e-002	-1.7983e-004
9425	16.076	3.7273	0.	-0.11995
9426	15.984	3.8182	0.	-0.18521
9427	16.076	3.8182	5.e-002	-1.3326e-004
9428	16.076	3.5455	0.	0.16165
9429	15.984	3.6364	0.	5.0259e-002
9430	16.076	3.6364	5.e-002	-7.3138e-005
9431	16.076	3.3636	0.	0.22705
9432	15.984	3.4545	0.	0.1534
9433	16.076	3.4545	5.e-002	-2.836e-005
9434	16.076	3.1818	0.	0.23799
9435	15.984	3.2727	0.	0.19584
9436	16.076	3.2727	5.e-002	-1.574e-005
9437	16.076	3.	0.	0.24463
9438	15.984	3.0909	0.	0.21666
9439	16.076	3.0909	5.e-002	-2.2583e-006
9440	16.076	2.8182	0.	0.23799
9441	15.984	2.9091	0.	0.21666
9442	16.076	2.9091	5.e-002	8.2216e-006
9443	16.076	2.6364	0.	0.22706
9444	15.984	2.7273	0.	0.19584
9445	16.076	2.7273	5.e-002	2.0907e-005
9446	16.076	2.4545	0.	0.16165
9447	15.984	2.5455	0.	0.1534
9448	16.076	2.5455	5.e-002	3.8542e-005
9449	16.076	2.2727	0.	-0.11995
9450	15.984	2.3636	0.	5.0259e-002
9451	16.076	2.3636	5.e-002	7.8222e-005
9452	16.076	2.0909	0.	-0.36336
9453	15.984	2.1818	0.	-0.18521
9454	16.076	2.1818	5.e-002	1.3458e-004
9455	16.076	1.9091	0.	-0.33428
9456	15.984	2.	0.	-0.24291
9457	16.076	2.	5.e-002	2.0713e-004
9458	16.076	1.7273	0.	-0.34431
9459	15.984	1.8182	0.	-0.2163
9460	16.076	1.8182	5.e-002	2.2363e-004
9461	16.076	1.5455	0.	-0.33068
9462	15.984	1.6364	0.	-0.26647
9463	16.076	1.6364	5.e-002	1.8628e-004
9464	16.076	1.3636	0.	-0.22584
9465	15.984	1.4545	0.	-0.19504
9466	16.076	1.4545	5.e-002	1.142e-004
9467	16.076	1.1818	0.	-0.17563
9468	15.984	1.2727	0.	-0.15917
9469	16.076	1.2727	5.e-002	7.4406e-005
9470	16.076	1.	0.	-0.12185
9471	15.984	1.0909	0.	-0.12148
9472	16.076	1.0909	5.e-002	4.5661e-005
9473	16.076	0.81818	0.	-5.7644e-002
9474	15.984	0.90909	0.	-6.8083e-002
9475	16.076	0.90909	5.e-002	3.1109e-005
9476	16.076	0.63636	0.	1.8853e-002
9477	15.984	0.72727	0.	-1.5397e-002
9478	16.076	0.72727	5.e-002	2.0522e-005
9479	16.076	0.45455	0.	5.0632e-002
9480	15.984	0.54545	0.	6.6918e-002
9481	16.076	0.54545	5.e-002	1.1528e-005
9482	16.076	0.27273	0.	0.20131
9483	15.984	0.36364	0.	1.5967e-002
9484	16.076	0.36364	5.e-002	4.979e-006
9485	15.984	0.18182	0.	0.29633
9486	16.076	0.18182	5.e-002	2.2784e-006
9487	16.076	9.0909e-002	0.	6.3109e-002
9488	15.891	5.7273	0.	0.12518
9489	15.799	5.8182	0.	0.15615
9490	15.891	5.8182	5.e-002	6.825e-006
9491	15.891	5.9091	0.	4.4436e-002
9492	15.891	5.5455	0.	3.0925e-002
9493	15.799	5.6364	0.	-3.329e-002
9494	15.891	5.6364	5.e-002	3.7109e-006
9495	15.891	5.3636	0.	3.0433e-002
9496	15.799	5.4545	0.	6.0796e-002
9497	15.891	5.4545	5.e-002	6.2971e-007
9498	15.891	5.1818	0.	-2.7512e-002
9499	15.799	5.2727	0.	-3.0099e-003
9500	15.891	5.2727	5.e-002	-8.7439e-006
9501	15.891	5.	0.	-6.9091e-002
9502	15.799	5.0909	0.	-3.6693e-002
9503	15.891	5.0909	5.e-002	-2.0236e-005
9504	15.891	4.8182	0.	-0.10656
9505	15.799	4.9091	0.	-7.1294e-002
9506	15.891	4.9091	5.e-002	-3.8114e-005
9507	15.891	4.6364	0.	-0.13001
9508	15.799	4.7273	0.	-9.868e-002
9509	15.891	4.7273	5.e-002	-5.6713e-005
9510	15.891	4.4545	0.	-0.13141
9511	15.799	4.5455	0.	-0.11587
9512	15.891	4.5455	5.e-002	-1.0078e-004
9513	15.891	4.2727	0.	-0.13659
9514	15.799	4.3636	0.	-0.12187
9515	15.891	4.3636	5.e-002	-1.5359e-004
9516	15.891	4.0909	0.	-0.12111
9517	15.799	4.1818	0.	-0.13877
9518	15.891	4.1818	5.e-002	-1.9818e-004
9519	15.891	3.9091	0.	-5.9663e-002
9520	15.799	4.	0.	-0.11612
9521	15.891	4.	5.e-002	-2.0464e-004
9522	15.891	3.7273	0.	-6.7274e-003
9523	15.799	3.8182	0.	-6.656e-002
9524	15.891	3.8182	5.e-002	-1.5284e-004
9525	15.891	3.5455	0.	5.2581e-002
9526	15.799	3.6364	0.	-1.2773e-002
9527	15.891	3.6364	5.e-002	-8.8022e-005
9528	15.891	3.3636	0.	0.13106
9529	15.799	3.4545	0.	6.7641e-002
9530	15.891	3.4545	5.e-002	-4.6929e-005
9531	15.891	3.1818	0.	0.1813
9532	15.799	3.2727	0.	0.13483
9533	15.891	3.2727	5.e-002	-1.9859e-005
9534	15.891	3.	0.	0.19489
9535	15.799	3.0909	0.	0.16549
9536	15.891	3.0909	5.e-002	-6.1846e-006
9537	15.891	2.8182	0.	0.1813
9538	15.799	2.9091	0.	0.16549
9539	15.891	2.9091	5.e-002	6.5751e-006
9540	15.891	2.6364	0.	0.13106
9541	15.799	2.7273	0.	0.13483
9542	15.891	2.7273	5.e-002	2.6304e-005
9543	15.891	2.4545	0.	5.2582e-002
9544	15.799	2.5455	0.	6.7641e-002
9545	15.891	2.5455	5.e-002	4.2897e-005
9546	15.891	2.2727	0.	-6.7269e-003
9547	15.799	2.3636	0.	-1.2773e-002
9548	15.891	2.3636	5.e-002	9.2108e-005
9549	15.891	2.0909	0.	-5.9663e-002
9550	15.799	2.1818	0.	-6.656e-002
9551	15.891	2.1818	5.e-002	1.0532e-004
9552	15.891	1.9091	0.	-0.12111
9553	15.799	2.	0.	-0.11612
9554	15.891	2.	5.e-002	2.3489e-004
9555	15.891	1.7273	0.	-0.13659
9556	15.799	1.8182	0.	-0.13878
9557	15.891	1.8182	5.e-002	1.9936e-004
9558	15.891	1.5455	0.	-0.13141
9559	15.799	1.6364	0.	-0.12187
9560	15.891	1.6364	5.e-002	1.6282e-004
9561	15.891	1.3636	0.	-0.13001
9562	15.799	1.4545	0.	-0.11587
9563	15.891	1.4545	5.e-002	9.8935e-005
9564	15.891	1.1818	0.	-0.10656
9565	15.799	1.2727	0.	-9.868e-002
9566	15.891	1.2727	5.e-002	6.2009e-005
9567	15.891	1.	0.	-6.909e-002
9568	15.799	1.0909	0.	-7.1294e-002
9569	15.891	1.0909	5.e-002	4.1224e-005
9570	15.891	0.81818	0.	-2.751e-002
9571	15.799	0.90909	0.	-3.6692e-002
9572	15.891	0.90909	5.e-002	2.3826e-005
9573	15.891	0.63636	0.	3.0433e-002
9574	15.799	0.72727	0.	-3.0082e-003
9575	15.891	0.72727	5.e-002	1.6423e-005
9576	15.891	0.45455	0.	3.0925e-002
9577	15.799	0.54545	0.	6.0795e-002
9578	15.891	0.54545	5.e-002	9.6903e-006
9579	15.891	0.27273	0.	0.12518
9580	15.799	0.36364	0.	-3.3291e-002
9581	15.891	0.36364	5.e-002	9.2228e-007
9582	15.799	0.18182	0.	0.15616
9583	15.891	0.18182	5.e-002	1.3485e-007
9584	15.891	9.0909e-002	0.	4.4437e-002
9585	15.707	5.7273	0.	4.3998e-002
9586	15.614	5.8182	0.	3.588e-002
9587	15.707	5.8182	5.e-002	7.6737e-006
9588	15.707	5.9091	0.	2.0623e-002
9589	15.707	5.5455	0.	2.6576e-003
9590	15.614	5.6364	0.	-7.2595e-002
9591	15.707	5.6364	5.e-002	6.741e-006
9592	15.707	5.3636	0.	2.8665e-002
9593	15.614	5.4545	0.	4.9859e-002
9594	15.707	5.4545	5.e-002	5.4758e-006
9595	15.707	5.1818	0.	-1.2165e-002
9596	15.614	5.2727	0.	4.2643e-003
9597	15.707	5.2727	5.e-002	-3.2201e-006
9598	15.707	5.	0.	-3.9376e-002
9599	15.614	5.0909	0.	-1.5603e-002
9600	15.707	5.0909	5.e-002	-1.3065e-005
9601	15.707	4.8182	0.	-6.415e-002
9602	15.614	4.9091	0.	-3.9286e-002
9603	15.707	4.9091	5.e-002	-2.6412e-005
9604	15.707	4.6364	0.	-8.5108e-002
9605	15.614	4.7273	0.	-5.8185e-002
9606	15.707	4.7273	5.e-002	-5.044e-005
9607	15.707	4.4545	0.	-0.10609
9608	15.614	4.5455	0.	-7.6538e-002
9609	15.707	4.5455	5.e-002	-8.1491e-005
9610	15.707	4.2727	0.	-0.12266
9611	15.614	4.3636	0.	-9.5285e-002
9612	15.707	4.3636	5.e-002	-1.2265e-004
9613	15.707	4.0909	0.	-0.1317
9614	15.614	4.1818	0.	-0.10799
9615	15.707	4.1818	5.e-002	-1.3481e-004
9616	15.707	3.9091	0.	-0.12053
9617	15.614	4.	0.	-0.1116
9618	15.707	4.	5.e-002	-1.5608e-004
9619	15.707	3.7273	0.	-6.8597e-002
9620	15.614	3.8182	0.	-8.8481e-002
9621	15.707	3.8182	5.e-002	-1.8761e-004
9622	15.707	3.5455	0.	8.6582e-003
9623	15.614	3.6364	0.	-3.2888e-002
9624	15.707	3.6364	5.e-002	-7.9628e-005
9625	15.707	3.3636	0.	7.9176e-002
9626	15.614	3.4545	0.	3.2493e-002
9627	15.707	3.4545	5.e-002	-5.4797e-005
9628	15.707	3.1818	0.	0.12694
9629	15.614	3.2727	0.	8.7862e-002
9630	15.707	3.2727	5.e-002	-2.007e-005
9631	15.707	3.	0.	0.14393
9632	15.614	3.0909	0.	0.11947
9633	15.707	3.0909	5.e-002	-4.2802e-006
9634	15.707	2.8182	0.	0.12694
9635	15.614	2.9091	0.	0.11947
9636	15.707	2.9091	5.e-002	1.19e-005
9637	15.707	2.6364	0.	7.9176e-002
9638	15.614	2.7273	0.	8.7862e-002
9639	15.707	2.7273	5.e-002	2.7272e-005
9640	15.707	2.4545	0.	8.6584e-003
9641	15.614	2.5455	0.	3.2493e-002
9642	15.707	2.5455	5.e-002	5.7172e-005
9643	15.707	2.2727	0.	-6.8597e-002
9644	15.614	2.3636	0.	-3.2888e-002
9645	15.707	2.3636	5.e-002	1.0088e-004
9646	15.707	2.0909	0.	-0.12053
9647	15.614	2.1818	0.	-8.8481e-002
9648	15.707	2.1818	5.e-002	1.0318e-004
9649	15.707	1.9091	0.	-0.1317
9650	15.614	2.	0.	-0.1116
9651	15.707	2.	5.e-002	1.8642e-004
9652	15.707	1.7273	0.	-0.12266
9653	15.614	1.8182	0.	-0.10799
9654	15.707	1.8182	5.e-002	1.7238e-004
9655	15.707	1.5455	0.	-0.10609
9656	15.614	1.6364	0.	-9.5286e-002
9657	15.707	1.6364	5.e-002	1.3414e-004
9658	15.707	1.3636	0.	-8.5107e-002
9659	15.614	1.4545	0.	-7.6538e-002
9660	15.707	1.4545	5.e-002	8.9367e-005
9661	15.707	1.1818	0.	-6.415e-002
9662	15.614	1.2727	0.	-5.8185e-002
9663	15.707	1.2727	5.e-002	5.1134e-005
9664	15.707	1.	0.	-3.9376e-002
9665	15.614	1.0909	0.	-3.9286e-002
9666	15.707	1.0909	5.e-002	2.9721e-005
9667	15.707	0.81818	0.	-1.2164e-002
9668	15.614	0.90909	0.	-1.5602e-002
9669	15.707	0.90909	5.e-002	1.8277e-005
9670	15.707	0.63636	0.	2.8666e-002
9671	15.614	0.72727	0.	4.2667e-003
9672	15.707	0.72727	5.e-002	9.8945e-006
9673	15.707	0.45455	0.	2.657e-003
9674	15.614	0.54545	0.	4.986e-002
9675	15.707	0.54545	5.e-002	4.3237e-006
9676	15.707	0.27273	0.	4.3998e-002
9677	15.614	0.36364	0.	-7.2595e-002
9678	15.707	0.36364	5.e-002	-9.7919e-007
9679	15.614	0.18182	0.	3.5881e-002
9680	15.707	0.18182	5.e-002	-4.3018e-007
9681	15.707	9.0909e-002	0.	2.0624e-002
9682	15.522	5.7273	0.	-1.4646e-002
9683	15.429	5.8182	0.	-4.5895e-002
9684	15.522	5.8182	5.e-002	7.8835e-006
9685	15.522	5.9091	0.	6.492e-003
9686	15.522	5.5455	0.	-1.5684e-002
9687	15.429	5.6364	0.	-9.5655e-002
9688	15.522	5.6364	5.e-002	9.1729e-006
9689	15.522	5.3636	0.	2.8579e-002
9690	15.429	5.4545	0.	4.1333e-002
9691	15.522	5.4545	5.e-002	9.1658e-006
9692	15.522	5.1818	0.	1.9022e-003
9693	15.429	5.2727	0.	1.0455e-002
9694	15.522	5.2727	5.e-002	-9.6576e-008
9695	15.522	5.	0.	-1.527e-002
9696	15.429	5.0909	0.	5.8871e-004
9697	15.522	5.0909	5.e-002	-2.9521e-006
9698	15.522	4.8182	0.	-3.3408e-002
9699	15.429	4.9091	0.	-1.612e-002
9700	15.522	4.9091	5.e-002	-1.7954e-005
9701	15.522	4.6364	0.	-4.9635e-002
9702	15.429	4.7273	0.	-3.0883e-002
9703	15.522	4.7273	5.e-002	-3.6867e-005
9704	15.522	4.4545	0.	-6.5356e-002
9705	15.429	4.5455	0.	-4.6135e-002
9706	15.522	4.5455	5.e-002	-6.0417e-005
9707	15.522	4.2727	0.	-7.9778e-002
9708	15.429	4.3636	0.	-6.127e-002
9709	15.522	4.3636	5.e-002	-9.1201e-005
9710	15.522	4.0909	0.	-8.6857e-002
9711	15.429	4.1818	0.	-7.3984e-002
9712	15.522	4.1818	5.e-002	-1.3487e-004
9713	15.522	3.9091	0.	-7.841e-002
9714	15.429	4.	0.	-7.6393e-002
9715	15.522	4.	5.e-002	-1.2249e-004
9716	15.522	3.7273	0.	-5.0827e-002
9717	15.429	3.8182	0.	-6.2438e-002
9718	15.522	3.8182	5.e-002	-1.2077e-004
9719	15.522	3.5455	0.	-5.2816e-003
9720	15.429	3.6364	0.	-3.0384e-002
9721	15.522	3.6364	5.e-002	-1.0497e-004
9722	15.522	3.3636	0.	4.7046e-002
9723	15.429	3.4545	0.	1.4755e-002
9724	15.522	3.4545	5.e-002	-1.6928e-005
9725	15.522	3.1818	0.	8.7687e-002
9726	15.429	3.2727	0.	5.8233e-002
9727	15.522	3.2727	5.e-002	-2.4098e-005
9728	15.522	3.	0.	0.10278
9729	15.429	3.0909	0.	8.4466e-002
9730	15.522	3.0909	5.e-002	-5.2944e-006
9731	15.522	2.8182	0.	8.7688e-002
9732	15.429	2.9091	0.	8.4467e-002
9733	15.522	2.9091	5.e-002	1.2393e-005
9734	15.522	2.6364	0.	4.7046e-002
9735	15.429	2.7273	0.	5.8233e-002
9736	15.522	2.7273	5.e-002	2.8758e-005
9737	15.522	2.4545	0.	-5.2817e-003
9738	15.429	2.5455	0.	1.4755e-002
9739	15.522	2.5455	5.e-002	8.0063e-005
9740	15.522	2.2727	0.	-5.0827e-002
9741	15.429	2.3636	0.	-3.0384e-002
9742	15.522	2.3636	5.e-002	1.0597e-004
9743	15.522	2.0909	0.	-7.8411e-002
9744	15.429	2.1818	0.	-6.2438e-002
9745	15.522	2.1818	5.e-002	1.8102e-004
9746	15.522	1.9091	0.	-8.6857e-002
9747	15.429	2.	0.	-7.6393e-002
9748	15.522	2.	5.e-002	1.5241e-004
9749	15.522	1.7273	0.	-7.9779e-002
9750	15.429	1.8182	0.	-7.3985e-002
9751	15.522	1.8182	5.e-002	1.3663e-004
9752	15.522	1.5455	0.	-6.5357e-002
9753	15.429	1.6364	0.	-6.127e-002
9754	15.522	1.6364	5.e-002	1.0762e-004
9755	15.522	1.3636	0.	-4.9636e-002
9756	15.429	1.4545	0.	-4.6136e-002
9757	15.522	1.4545	5.e-002	6.8542e-005
9758	15.522	1.1818	0.	-3.3408e-002
9759	15.429	1.2727	0.	-3.0883e-002
9760	15.522	1.2727	5.e-002	4.2406e-005
9761	15.522	1.	0.	-1.527e-002
9762	15.429	1.0909	0.	-1.6119e-002
9763	15.522	1.0909	5.e-002	2.6995e-005
9764	15.522	0.81818	0.	1.9044e-003
9765	15.429	0.90909	0.	5.9049e-004
9766	15.522	0.90909	5.e-002	1.6496e-005
9767	15.522	0.63636	0.	2.8582e-002
9768	15.429	0.72727	0.	1.0457e-002
9769	15.522	0.72727	5.e-002	3.9345e-006
9770	15.522	0.45455	0.	-1.5683e-002
9771	15.429	0.54545	0.	4.1334e-002
9772	15.522	0.54545	5.e-002	-2.1748e-006
9773	15.522	0.27273	0.	-1.4647e-002
9774	15.429	0.36364	0.	-9.5655e-002
9775	15.522	0.36364	5.e-002	-4.4682e-006
9776	15.429	0.18182	0.	-4.5895e-002
9777	15.522	0.18182	5.e-002	-1.8605e-007
9778	15.522	9.0909e-002	0.	6.4911e-003
9779	15.337	5.7273	0.	-5.2906e-002
9780	15.245	5.8182	0.	-9.296e-002
9781	15.337	5.8182	5.e-002	6.916e-006
9782	15.337	5.9091	0.	-2.3553e-003
9783	15.337	5.5455	0.	-2.7463e-002
9784	15.245	5.6364	0.	-0.10662
9785	15.337	5.6364	5.e-002	1.178e-005
9786	15.337	5.3636	0.	2.7116e-002
9787	15.245	5.4545	0.	3.4011e-002
9788	15.337	5.4545	5.e-002	1.0446e-005
9789	15.337	5.1818	0.	1.0767e-002
9790	15.245	5.2727	0.	1.4134e-002
9791	15.337	5.2727	5.e-002	7.1979e-006
9792	15.337	5.	0.	4.2511e-004
9793	15.245	5.0909	0.	1.0929e-002
9794	15.337	5.0909	5.e-002	9.6863e-007
9795	15.337	4.8182	0.	-1.331e-002
9796	15.245	4.9091	0.	-8.9014e-004
9797	15.337	4.9091	5.e-002	-1.083e-005
9798	15.337	4.6364	0.	-2.718e-002
9799	15.245	4.7273	0.	-1.263e-002
9800	15.337	4.7273	5.e-002	-2.5703e-005
9801	15.337	4.4545	0.	-4.1747e-002
9802	15.245	4.5455	0.	-2.5797e-002
9803	15.337	4.5455	5.e-002	-4.3776e-005
9804	15.337	4.2727	0.	-5.507e-002
9805	15.245	4.3636	0.	-3.9143e-002
9806	15.337	4.3636	5.e-002	-6.8099e-005
9807	15.337	4.0909	0.	-6.3132e-002
9808	15.245	4.1818	0.	-4.998e-002
9809	15.337	4.1818	5.e-002	-7.1354e-005
9810	15.337	3.9091	0.	-6.0034e-002
9811	15.245	4.	0.	-5.3829e-002
9812	15.337	4.	5.e-002	-1.0461e-004
9813	15.337	3.7273	0.	-4.1142e-002
9814	15.245	3.8182	0.	-4.5573e-002
9815	15.337	3.8182	5.e-002	-1.1702e-004
9816	15.337	3.5455	0.	-8.1652e-003
9817	15.245	3.6364	0.	-2.3358e-002
9818	15.337	3.6364	5.e-002	-3.1939e-005
9819	15.337	3.3636	0.	3.0108e-002
9820	15.245	3.4545	0.	8.3866e-003
9821	15.337	3.4545	5.e-002	-6.2514e-005
9822	15.337	3.1818	0.	6.0975e-002
9823	15.245	3.2727	0.	4.0003e-002
9824	15.337	3.2727	5.e-002	-3.3173e-005
9825	15.337	3.	0.	7.2837e-002
9826	15.245	3.0909	0.	5.9839e-002
9827	15.337	3.0909	5.e-002	-1.1321e-005
9828	15.337	2.8182	0.	6.0975e-002
9829	15.245	2.9091	0.	5.984e-002
9830	15.337	2.9091	5.e-002	1.8227e-005
9831	15.337	2.6364	0.	3.0108e-002
9832	15.245	2.7273	0.	4.0002e-002
9833	15.337	2.7273	5.e-002	4.9186e-005
9834	15.337	2.4545	0.	-8.1651e-003
9835	15.245	2.5455	0.	8.3871e-003
9836	15.337	2.5455	5.e-002	8.6048e-005
9837	15.337	2.2727	0.	-4.1143e-002
9838	15.245	2.3636	0.	-2.3358e-002
9839	15.337	2.3636	5.e-002	1.2241e-004
9840	15.337	2.0909	0.	-6.0035e-002
9841	15.245	2.1818	0.	-4.5574e-002
9842	15.337	2.1818	5.e-002	1.469e-004
9843	15.337	1.9091	0.	-6.3132e-002
9844	15.245	2.	0.	-5.3829e-002
9845	15.337	2.	5.e-002	1.0583e-004
9846	15.337	1.7273	0.	-5.507e-002
9847	15.245	1.8182	0.	-4.998e-002
9848	15.337	1.8182	5.e-002	9.184e-005
9849	15.337	1.5455	0.	-4.1746e-002
9850	15.245	1.6364	0.	-3.9142e-002
9851	15.337	1.6364	5.e-002	8.612e-005
9852	15.337	1.3636	0.	-2.718e-002
9853	15.245	1.4545	0.	-2.5797e-002
9854	15.337	1.4545	5.e-002	5.1135e-005
9855	15.337	1.1818	0.	-1.3309e-002
9856	15.245	1.2727	0.	-1.2629e-002
9857	15.337	1.2727	5.e-002	2.9908e-005
9858	15.337	1.	0.	4.2735e-004
9859	15.245	1.0909	0.	-8.8888e-004
9860	15.337	1.0909	5.e-002	1.6356e-005
9861	15.337	0.81818	0.	1.0768e-002
9862	15.245	0.90909	0.	1.0931e-002
9863	15.337	0.90909	5.e-002	6.4348e-006
9864	15.337	0.63636	0.	2.7117e-002
9865	15.245	0.72727	0.	1.4135e-002
9866	15.337	0.72727	5.e-002	-5.2116e-007
9867	15.337	0.45455	0.	-2.7463e-002
9868	15.245	0.54545	0.	3.4011e-002
9869	15.337	0.54545	5.e-002	-5.4777e-006
9870	15.337	0.27273	0.	-5.2906e-002
9871	15.245	0.36364	0.	-0.10662
9872	15.337	0.36364	5.e-002	-4.6e-006
9873	15.245	0.18182	0.	-9.2959e-002
9874	15.337	0.18182	5.e-002	1.2025e-007
9875	15.337	9.0909e-002	0.	-2.3545e-003
9876	15.152	5.7273	0.	-7.4173e-002
9877	15.06	5.8182	0.	-0.11334
9878	15.152	5.8182	5.e-002	5.9297e-006
9879	15.152	5.9091	0.	-6.9179e-003
9880	15.152	5.5455	0.	-3.3788e-002
9881	15.06	5.6364	0.	-0.109
9882	15.152	5.6364	5.e-002	1.0882e-005
9883	15.152	5.3636	0.	2.5141e-002
9884	15.06	5.4545	0.	2.7833e-002
9885	15.152	5.4545	5.e-002	1.4525e-005
9886	15.152	5.1818	0.	1.6136e-002
9887	15.06	5.2727	0.	1.5913e-002
9888	15.152	5.2727	5.e-002	8.8984e-006
9889	15.152	5.	0.	1.0511e-002
9890	15.06	5.0909	0.	1.7087e-002
9891	15.152	5.0909	5.e-002	3.4876e-006
9892	15.152	4.8182	0.	2.4713e-004
9893	15.06	4.9091	0.	8.8839e-003
9894	15.152	4.9091	5.e-002	-4.8129e-006
9895	15.152	4.6364	0.	-1.0978e-002
9896	15.06	4.7273	0.	-2.1342e-004
9897	15.152	4.7273	5.e-002	-1.7266e-005
9898	15.152	4.4545	0.	-2.2994e-002
9899	15.06	4.5455	0.	-1.0979e-002
9900	15.152	4.5455	5.e-002	-2.2785e-005
9901	15.152	4.2727	0.	-3.3916e-002
9902	15.06	4.3636	0.	-2.1831e-002
9903	15.152	4.3636	5.e-002	-4.3387e-005
9904	15.152	4.0909	0.	-4.0649e-002
9905	15.06	4.1818	0.	-3.0651e-002
9906	15.152	4.1818	5.e-002	-6.3704e-005
9907	15.152	3.9091	0.	-3.9394e-002
9908	15.06	4.	0.	-3.415e-002
9909	15.152	4.	5.e-002	-7.6291e-005
9910	15.152	3.7273	0.	-2.752e-002
9911	15.06	3.8182	0.	-2.9266e-002
9912	15.152	3.8182	5.e-002	-6.6607e-005
9913	15.152	3.5455	0.	-5.5697e-003
9914	15.06	3.6364	0.	-1.4819e-002
9915	15.152	3.6364	5.e-002	-7.6292e-005
9916	15.152	3.3636	0.	2.115e-002
9917	15.06	3.4545	0.	6.7775e-003
9918	15.152	3.4545	5.e-002	-8.912e-005
9919	15.152	3.1818	0.	4.3396e-002
9920	15.06	3.2727	0.	2.8934e-002
9921	15.152	3.2727	5.e-002	-6.8351e-005
9922	15.152	3.	0.	5.2087e-002
9923	15.06	3.0909	0.	4.3097e-002
9924	15.152	3.0909	5.e-002	-2.1202e-005
9925	15.152	2.8182	0.	4.3396e-002
9926	15.06	2.9091	0.	4.3098e-002
9927	15.152	2.9091	5.e-002	2.3879e-005
9928	15.152	2.6364	0.	2.1149e-002
9929	15.06	2.7273	0.	2.8934e-002
9930	15.152	2.7273	5.e-002	6.8418e-005
9931	15.152	2.4545	0.	-5.5691e-003
9932	15.06	2.5455	0.	6.7775e-003
9933	15.152	2.5455	5.e-002	8.9248e-005
9934	15.152	2.2727	0.	-2.752e-002
9935	15.06	2.3636	0.	-1.4819e-002
9936	15.152	2.3636	5.e-002	5.0346e-005
9937	15.152	2.0909	0.	-3.9394e-002
9938	15.06	2.1818	0.	-2.9266e-002
9939	15.152	2.1818	5.e-002	9.1072e-005
9940	15.152	1.9091	0.	-4.0649e-002
9941	15.06	2.	0.	-3.415e-002
9942	15.152	2.	5.e-002	7.8509e-005
9943	15.152	1.7273	0.	-3.3916e-002
9944	15.06	1.8182	0.	-3.0649e-002
9945	15.152	1.8182	5.e-002	6.5674e-005
9946	15.152	1.5455	0.	-2.2994e-002
9947	15.06	1.6364	0.	-2.1831e-002
9948	15.152	1.6364	5.e-002	5.0054e-005
9949	15.152	1.3636	0.	-1.0978e-002
9950	15.06	1.4545	0.	-1.098e-002
9951	15.152	1.4545	5.e-002	3.7156e-005
9952	15.152	1.1818	0.	2.475e-004
9953	15.06	1.2727	0.	-2.1275e-004
9954	15.152	1.2727	5.e-002	2.1781e-005
9955	15.152	1.	0.	1.0512e-002
9956	15.06	1.0909	0.	8.8841e-003
9957	15.152	1.0909	5.e-002	8.1834e-006
9958	15.152	0.81818	0.	1.6137e-002
9959	15.06	0.90909	0.	1.7089e-002
9960	15.152	0.90909	5.e-002	3.2204e-007
9961	15.152	0.63636	0.	2.5141e-002
9962	15.06	0.72727	0.	1.5914e-002
9963	15.152	0.72727	5.e-002	-3.1762e-006
9964	15.152	0.45455	0.	-3.3788e-002
9965	15.06	0.54545	0.	2.7833e-002
9966	15.152	0.54545	5.e-002	-6.1452e-006
9967	15.152	0.27273	0.	-7.4173e-002
9968	15.06	0.36364	0.	-0.109
9969	15.152	0.36364	5.e-002	-4.0871e-006
9970	15.06	0.18182	0.	-0.11334
9971	15.152	0.18182	5.e-002	2.6785e-007
9972	15.152	9.0909e-002	0.	-6.9172e-003
9973	14.967	5.7273	0.	-8.3403e-002
9974	14.875	5.8182	0.	-0.11586
9975	14.967	5.8182	5.e-002	3.9327e-006
9976	14.967	5.9091	0.	-8.9041e-003
9977	14.967	5.5455	0.	-3.6582e-002
9978	14.875	5.6364	0.	-0.10598
9979	14.967	5.6364	5.e-002	1.1313e-005
9980	14.967	5.3636	0.	2.2597e-002
9981	14.875	5.4545	0.	2.2474e-002
9982	14.967	5.4545	5.e-002	1.2618e-005
9983	14.967	5.1818	0.	1.8714e-002
9984	14.875	5.2727	0.	1.6182e-002
9985	14.967	5.2727	5.e-002	8.6776e-006
9986	14.967	5.	0.	1.6414e-002
9987	14.875	5.0909	0.	2.0178e-002
9988	14.967	5.0909	5.e-002	5.4372e-006
9989	14.967	4.8182	0.	8.9326e-003
9990	14.875	4.9091	0.	1.4759e-002
9991	14.967	4.9091	5.e-002	2.0319e-007
9992	14.967	4.6364	0.	5.4709e-005
9993	14.875	4.7273	0.	7.9207e-003
9994	14.967	4.7273	5.e-002	-1.0941e-005
9995	14.967	4.4545	0.	-9.6979e-003
9996	14.875	4.5455	0.	-6.467e-004
9997	14.967	4.5455	5.e-002	-1.3596e-005
9998	14.967	4.2727	0.	-1.8581e-002
9999	14.875	4.3636	0.	-9.3369e-003
10000	14.967	4.3636	5.e-002	-2.4568e-005
10001	14.967	4.0909	0.	-2.4306e-002
10002	14.875	4.1818	0.	-1.6433e-002
10003	14.967	4.1818	5.e-002	-4.013e-005
10004	14.967	3.9091	0.	-2.4246e-002
10005	14.875	4.	0.	-1.9643e-002
10006	14.967	4.	5.e-002	-2.39e-005
10007	14.967	3.7273	0.	-1.6588e-002
10008	14.875	3.8182	0.	-1.6889e-002
10009	14.967	3.8182	5.e-002	-2.4485e-005
10010	14.967	3.5455	0.	-1.7841e-003
10011	14.875	3.6364	0.	-7.4123e-003
10012	14.967	3.6364	5.e-002	-2.3338e-005
10013	14.967	3.3636	0.	1.6505e-002
10014	14.875	3.4545	0.	7.0825e-003
10015	14.967	3.4545	5.e-002	-2.4701e-006
10016	14.967	3.1818	0.	3.1916e-002
10017	14.875	3.2727	0.	2.2138e-002
10018	14.967	3.2727	5.e-002	2.0807e-005
10019	14.967	3.	0.	3.7981e-002
10020	14.875	3.0909	0.	3.1845e-002
10021	14.967	3.0909	5.e-002	2.185e-005
10022	14.967	2.8182	0.	3.1916e-002
10023	14.875	2.9091	0.	3.1845e-002
10024	14.967	2.9091	5.e-002	-1.7368e-005
10025	14.967	2.6364	0.	1.6506e-002
10026	14.875	2.7273	0.	2.2138e-002
10027	14.967	2.7273	5.e-002	-1.7794e-006
10028	14.967	2.4545	0.	-1.7845e-003
10029	14.875	2.5455	0.	7.0824e-003
10030	14.967	2.5455	5.e-002	4.2547e-005
10031	14.967	2.2727	0.	-1.6588e-002
10032	14.875	2.3636	0.	-7.4128e-003
10033	14.967	2.3636	5.e-002	4.3541e-005
10034	14.967	2.0909	0.	-2.4246e-002
10035	14.875	2.1818	0.	-1.6888e-002
10036	14.967	2.1818	5.e-002	5.5432e-005
10037	14.967	1.9091	0.	-2.4306e-002
10038	14.875	2.	0.	-1.9643e-002
10039	14.967	2.	5.e-002	3.7939e-005
10040	14.967	1.7273	0.	-1.858e-002
10041	14.875	1.8182	0.	-1.6432e-002
10042	14.967	1.8182	5.e-002	4.3002e-005
10043	14.967	1.5455	0.	-9.698e-003
10044	14.875	1.6364	0.	-9.3368e-003
10045	14.967	1.6364	5.e-002	3.2379e-005
10046	14.967	1.3636	0.	5.4866e-005
10047	14.875	1.4545	0.	-6.4678e-004
10048	14.967	1.4545	5.e-002	2.2681e-005
10049	14.967	1.1818	0.	8.9331e-003
10050	14.875	1.2727	0.	7.9212e-003
10051	14.967	1.2727	5.e-002	1.2281e-005
10052	14.967	1.	0.	1.6415e-002
10053	14.875	1.0909	0.	1.476e-002
10054	14.967	1.0909	5.e-002	3.1134e-006
10055	14.967	0.81818	0.	1.8715e-002
10056	14.875	0.90909	0.	2.018e-002
10057	14.967	0.90909	5.e-002	-4.4732e-006
10058	14.967	0.63636	0.	2.2597e-002
10059	14.875	0.72727	0.	1.6184e-002
10060	14.967	0.72727	5.e-002	-5.8309e-006
10061	14.967	0.45455	0.	-3.6581e-002
10062	14.875	0.54545	0.	2.2474e-002
10063	14.967	0.54545	5.e-002	-6.7835e-006
10064	14.967	0.27273	0.	-8.3402e-002
10065	14.875	0.36364	0.	-0.10598
10066	14.967	0.36364	5.e-002	-3.5855e-006
10067	14.875	0.18182	0.	-0.11586
10068	14.967	0.18182	5.e-002	1.6731e-006
10069	14.967	9.0909e-002	0.	-8.9043e-003
10070	14.783	5.7273	0.	-8.4661e-002
10071	14.69	5.8182	0.	-0.10781
10072	14.783	5.8182	5.e-002	2.6537e-006
10073	14.783	5.9091	0.	-9.3738e-003
10074	14.783	5.5455	0.	-3.7098e-002
10075	14.69	5.6364	0.	-9.9828e-002
10076	14.783	5.6364	5.e-002	1.1086e-005
10077	14.783	5.3636	0.	1.9758e-002
10078	14.69	5.4545	0.	1.7815e-002
10079	14.783	5.4545	5.e-002	1.5774e-005
10080	14.783	5.1818	0.	1.9392e-002
10081	14.69	5.2727	0.	1.5435e-002
10082	14.783	5.2727	5.e-002	1.0194e-005
10083	14.783	5.	0.	1.9446e-002
10084	14.69	5.0909	0.	2.1187e-002
10085	14.783	5.0909	5.e-002	8.3968e-006
10086	14.783	4.8182	0.	1.4246e-002
10087	14.69	4.9091	0.	1.7929e-002
10088	14.783	4.9091	5.e-002	3.5641e-006
10089	14.783	4.6364	0.	7.4642e-003
10090	14.69	4.7273	0.	1.3007e-002
10091	14.783	4.7273	5.e-002	-2.7607e-006
10092	14.783	4.4545	0.	-2.1998e-004
10093	14.69	4.5455	0.	6.3795e-003
10094	14.783	4.5455	5.e-002	-4.1272e-006
10095	14.783	4.2727	0.	-7.2785e-003
10096	14.69	4.3636	0.	-4.4325e-004
10097	14.783	4.3636	5.e-002	-9.5993e-006
10098	14.783	4.0909	0.	-1.1999e-002
10099	14.69	4.1818	0.	-6.0986e-003
10100	14.783	4.1818	5.e-002	-2.2137e-005
10101	14.783	3.9091	0.	-1.2581e-002
10102	14.69	4.	0.	-8.9406e-003
10103	14.783	4.	5.e-002	-2.5612e-005
10104	14.783	3.7273	0.	-7.8615e-003
10105	14.69	3.8182	0.	-7.592e-003
10106	14.783	3.8182	5.e-002	-1.7775e-005
10107	14.783	3.5455	0.	1.8315e-003
10108	14.69	3.6364	0.	-1.5932e-003
10109	14.783	3.6364	5.e-002	-4.1355e-006
10110	14.783	3.3636	0.	1.402e-002
10111	14.69	3.4545	0.	7.8883e-003
10112	14.783	3.4545	5.e-002	8.9862e-006
10113	14.783	3.1818	0.	2.4364e-002
10114	14.69	3.2727	0.	1.7839e-002
10115	14.783	3.2727	5.e-002	6.5253e-006
10116	14.783	3.	0.	2.8447e-002
10117	14.69	3.0909	0.	2.4277e-002
10118	14.783	3.0909	5.e-002	9.0778e-006
10119	14.783	2.8182	0.	2.4365e-002
10120	14.69	2.9091	0.	2.4278e-002
10121	14.783	2.9091	5.e-002	-4.0293e-006
10122	14.783	2.6364	0.	1.402e-002
10123	14.69	2.7273	0.	1.7839e-002
10124	14.783	2.7273	5.e-002	2.9887e-006
10125	14.783	2.4545	0.	1.8313e-003
10126	14.69	2.5455	0.	7.8883e-003
10127	14.783	2.5455	5.e-002	1.1296e-005
10128	14.783	2.2727	0.	-7.861e-003
10129	14.69	2.3636	0.	-1.5929e-003
10130	14.783	2.3636	5.e-002	1.7304e-005
10131	14.783	2.0909	0.	-1.2581e-002
10132	14.69	2.1818	0.	-7.5919e-003
10133	14.783	2.1818	5.e-002	3.0657e-005
10134	14.783	1.9091	0.	-1.1999e-002
10135	14.69	2.	0.	-8.9403e-003
10136	14.783	2.	5.e-002	1.372e-005
10137	14.783	1.7273	0.	-7.2788e-003
10138	14.69	1.8182	0.	-6.0984e-003
10139	14.783	1.8182	5.e-002	2.6043e-005
10140	14.783	1.5455	0.	-2.2e-004
10141	14.69	1.6364	0.	-4.4314e-004
10142	14.783	1.6364	5.e-002	2.0419e-005
10143	14.783	1.3636	0.	7.4645e-003
10144	14.69	1.4545	0.	6.3794e-003
10145	14.783	1.4545	5.e-002	1.1877e-005
10146	14.783	1.1818	0.	1.4246e-002
10147	14.69	1.2727	0.	1.3008e-002
10148	14.783	1.2727	5.e-002	6.0803e-006
10149	14.783	1.	0.	1.9448e-002
10150	14.69	1.0909	0.	1.793e-002
10151	14.783	1.0909	5.e-002	-2.2006e-007
10152	14.783	0.81818	0.	1.9395e-002
10153	14.69	0.90909	0.	2.1189e-002
10154	14.783	0.90909	5.e-002	-5.3938e-006
10155	14.783	0.63636	0.	1.9759e-002
10156	14.69	0.72727	0.	1.5437e-002
10157	14.783	0.72727	5.e-002	-7.3455e-006
10158	14.783	0.45455	0.	-3.7098e-002
10159	14.69	0.54545	0.	1.7815e-002
10160	14.783	0.54545	5.e-002	-4.8996e-006
10161	14.783	0.27273	0.	-8.4661e-002
10162	14.69	0.36364	0.	-9.9828e-002
10163	14.783	0.36364	5.e-002	-1.4037e-006
10164	14.69	0.18182	0.	-0.10781
10165	14.783	0.18182	5.e-002	4.8757e-006
10166	14.783	9.0909e-002	0.	-9.3731e-003
10167	14.598	5.7273	0.	-8.1075e-002
10168	14.505	5.8182	0.	-9.4503e-002
10169	14.598	5.8182	5.e-002	-3.6996e-008
10170	14.598	5.9091	0.	-9.0685e-003
10171	14.598	5.5455	0.	-3.6241e-002
10172	14.505	5.6364	0.	-9.2085e-002
10173	14.598	5.6364	5.e-002	9.3155e-006
10174	14.598	5.3636	0.	1.682e-002
10175	14.505	5.4545	0.	1.3778e-002
10176	14.598	5.4545	5.e-002	1.3268e-005
10177	14.598	5.1818	0.	1.8819e-002
10178	14.505	5.2727	0.	1.4061e-002
10179	14.598	5.2727	5.e-002	1.2598e-005
10180	14.598	5.	0.	2.0519e-002
10181	14.505	5.0909	0.	2.0832e-002
10182	14.598	5.0909	5.e-002	8.9963e-006
10183	14.598	4.8182	0.	1.7149e-002
10184	14.505	4.9091	0.	1.9236e-002
10185	14.598	4.9091	5.e-002	6.3918e-006
10186	14.598	4.6364	0.	1.2136e-002
10187	14.505	4.7273	0.	1.5887e-002
10188	14.598	4.7273	5.e-002	-2.783e-008
10189	14.598	4.4545	0.	6.1904e-003
10190	14.505	4.5455	0.	1.0886e-002
10191	14.598	4.5455	5.e-002	-1.0654e-006
10192	14.598	4.2727	0.	6.1958e-004
10193	14.505	4.3636	0.	5.5892e-003
10194	14.598	4.3636	5.e-002	-8.0673e-006
10195	14.598	4.0909	0.	-3.2815e-003
10196	14.505	4.1818	0.	1.0835e-003
10197	14.598	4.1818	5.e-002	-1.1641e-005
10198	14.598	3.9091	0.	-4.2462e-003
10199	14.505	4.	0.	-1.4321e-003
10200	14.598	4.	5.e-002	1.4887e-007
10201	14.598	3.7273	0.	-1.5062e-003
10202	14.505	3.8182	0.	-1.0168e-003
10203	14.598	3.8182	5.e-002	-1.386e-006
10204	14.598	3.5455	0.	4.668e-003
10205	14.505	3.6364	0.	2.6089e-003
10206	14.598	3.6364	5.e-002	-2.62e-006
10207	14.598	3.3636	0.	1.2577e-002
10208	14.505	3.4545	0.	8.6239e-003
10209	14.598	3.4545	5.e-002	5.7563e-006
10210	14.598	3.1818	0.	1.9321e-002
10211	14.505	3.2727	0.	1.501e-002
10212	14.598	3.2727	5.e-002	8.8836e-006
10213	14.598	3.	0.	2.1985e-002
10214	14.505	3.0909	0.	1.9153e-002
10215	14.598	3.0909	5.e-002	5.6884e-006
10216	14.598	2.8182	0.	1.9321e-002
10217	14.505	2.9091	0.	1.9153e-002
10218	14.598	2.9091	5.e-002	-1.6349e-006
10219	14.598	2.6364	0.	1.2577e-002
10220	14.505	2.7273	0.	1.501e-002
10221	14.598	2.7273	5.e-002	-5.0724e-006
10222	14.598	2.4545	0.	4.6684e-003
10223	14.505	2.5455	0.	8.6238e-003
10224	14.598	2.5455	5.e-002	9.3094e-007
10225	14.598	2.2727	0.	-1.5063e-003
10226	14.505	2.3636	0.	2.6094e-003
10227	14.598	2.3636	5.e-002	2.7194e-006
10228	14.598	2.0909	0.	-4.2467e-003
10229	14.505	2.1818	0.	-1.0168e-003
10230	14.598	2.1818	5.e-002	-5.7204e-006
10231	14.598	1.9091	0.	-3.2813e-003
10232	14.505	2.	0.	-1.4319e-003
10233	14.598	2.	5.e-002	1.0053e-005
10234	14.598	1.7273	0.	6.2013e-004
10235	14.505	1.8182	0.	1.0835e-003
10236	14.598	1.8182	5.e-002	1.3712e-005
10237	14.598	1.5455	0.	6.1905e-003
10238	14.505	1.6364	0.	5.5898e-003
10239	14.598	1.6364	5.e-002	1.0134e-005
10240	14.598	1.3636	0.	1.2136e-002
10241	14.505	1.4545	0.	1.0885e-002
10242	14.598	1.4545	5.e-002	5.3901e-006
10243	14.598	1.1818	0.	1.7149e-002
10244	14.505	1.2727	0.	1.5888e-002
10245	14.598	1.2727	5.e-002	1.4748e-006
10246	14.598	1.	0.	2.052e-002
10247	14.505	1.0909	0.	1.9237e-002
10248	14.598	1.0909	5.e-002	-3.2789e-006
10249	14.598	0.81818	0.	1.882e-002
10250	14.505	0.90909	0.	2.0834e-002
10251	14.598	0.90909	5.e-002	-6.9685e-006
10252	14.598	0.63636	0.	1.6821e-002
10253	14.505	0.72727	0.	1.4063e-002
10254	14.598	0.72727	5.e-002	-8.8309e-006
10255	14.598	0.45455	0.	-3.6241e-002
10256	14.505	0.54545	0.	1.3779e-002
10257	14.598	0.54545	5.e-002	-7.8712e-006
10258	14.598	0.27273	0.	-8.1075e-002
10259	14.505	0.36364	0.	-9.2085e-002
10260	14.598	0.36364	5.e-002	-3.981e-006
10261	14.505	0.18182	0.	-9.4504e-002
10262	14.598	0.18182	5.e-002	8.6931e-006
10263	14.598	9.0909e-002	0.	-9.0682e-003
10264	14.413	5.7273	0.	-7.4834e-002
10265	14.321	5.8182	0.	-7.9447e-002
10266	14.413	5.8182	5.e-002	-4.3931e-006
10267	14.413	5.9091	0.	-8.4275e-003
10268	14.413	5.5455	0.	-3.4591e-002
10269	14.321	5.6364	0.	-8.3749e-002
10270	14.413	5.6364	5.e-002	9.0166e-006
10271	14.413	5.3636	0.	1.3954e-002
10272	14.321	5.4545	0.	1.032e-002
10273	14.413	5.4545	5.e-002	1.3004e-005
10274	14.413	5.1818	0.	1.7488e-002
10275	14.321	5.2727	0.	1.2359e-002
10276	14.413	5.2727	5.e-002	1.0917e-005
10277	14.413	5.	0.	2.0308e-002
10278	14.321	5.0909	0.	1.9637e-002
10279	14.413	5.0909	5.e-002	1.0208e-005
10280	14.413	4.8182	0.	1.8381e-002
10281	14.321	4.9091	0.	1.9297e-002
10282	14.413	4.9091	5.e-002	7.397e-006
10283	14.413	4.6364	0.	1.482e-002
10284	14.321	4.7273	0.	1.7207e-002
10285	14.413	4.7273	5.e-002	4.497e-006
10286	14.413	4.4545	0.	1.0302e-002
10287	14.321	4.5455	0.	1.3531e-002
10288	14.413	4.5455	5.e-002	3.9718e-006
10289	14.413	4.2727	0.	5.9359e-003
10290	14.321	4.3636	0.	9.4663e-003
10291	14.413	4.3636	5.e-002	-8.5139e-007
10292	14.413	4.0909	0.	2.7116e-003
10293	14.321	4.1818	0.	5.8751e-003
10294	14.413	4.1818	5.e-002	-2.0932e-006
10295	14.413	3.9091	0.	1.5359e-003
10296	14.321	4.	0.	3.654e-003
10297	14.413	4.	5.e-002	3.1654e-006
10298	14.413	3.7273	0.	2.9247e-003
10299	14.321	3.8182	0.	3.4573e-003
10300	14.413	3.8182	5.e-002	5.726e-006
10301	14.413	3.5455	0.	6.6731e-003
10302	14.321	3.6364	0.	5.4643e-003
10303	14.413	3.6364	5.e-002	5.9768e-006
10304	14.413	3.3636	0.	1.163e-002
10305	14.321	3.4545	0.	9.1112e-003
10306	14.413	3.4545	5.e-002	4.9221e-006
10307	14.413	3.1818	0.	1.5891e-002
10308	14.321	3.2727	0.	1.3067e-002
10309	14.413	3.2727	5.e-002	7.6188e-006
10310	14.413	3.	0.	1.7577e-002
10311	14.321	3.0909	0.	1.5648e-002
10312	14.413	3.0909	5.e-002	3.8387e-006
10313	14.413	2.8182	0.	1.5892e-002
10314	14.321	2.9091	0.	1.5648e-002
10315	14.413	2.9091	5.e-002	5.4935e-007
10316	14.413	2.6364	0.	1.1631e-002
10317	14.321	2.7273	0.	1.3067e-002
10318	14.413	2.7273	5.e-002	-3.4221e-006
10319	14.413	2.4545	0.	6.6731e-003
10320	14.321	2.5455	0.	9.1118e-003
10321	14.413	2.5455	5.e-002	-1.3876e-006
10322	14.413	2.2727	0.	2.9253e-003
10323	14.321	2.3636	0.	5.4644e-003
10324	14.413	2.3636	5.e-002	1.2125e-006
10325	14.413	2.0909	0.	1.5364e-003
10326	14.321	2.1818	0.	3.458e-003
10327	14.413	2.1818	5.e-002	6.0005e-007
10328	14.413	1.9091	0.	2.7114e-003
10329	14.321	2.	0.	3.654e-003
10330	14.413	2.	5.e-002	1.291e-006
10331	14.413	1.7273	0.	5.9358e-003
10332	14.321	1.8182	0.	5.8755e-003
10333	14.413	1.8182	5.e-002	3.8446e-006
10334	14.413	1.5455	0.	1.0302e-002
10335	14.321	1.6364	0.	9.4661e-003
10336	14.413	1.6364	5.e-002	4.1467e-006
10337	14.413	1.3636	0.	1.482e-002
10338	14.321	1.4545	0.	1.3532e-002
10339	14.413	1.4545	5.e-002	2.485e-006
10340	14.413	1.1818	0.	1.8382e-002
10341	14.321	1.2727	0.	1.7208e-002
10342	14.413	1.2727	5.e-002	-9.0308e-007
10343	14.413	1.	0.	2.0309e-002
10344	14.321	1.0909	0.	1.9297e-002
10345	14.413	1.0909	5.e-002	-4.899e-006
10346	14.413	0.81818	0.	1.7489e-002
10347	14.321	0.90909	0.	1.9639e-002
10348	14.413	0.90909	5.e-002	-6.3177e-006
10349	14.413	0.63636	0.	1.3956e-002
10350	14.321	0.72727	0.	1.2361e-002
10351	14.413	0.72727	5.e-002	-7.1737e-006
10352	14.413	0.45455	0.	-3.4591e-002
10353	14.321	0.54545	0.	1.0319e-002
10354	14.413	0.54545	5.e-002	-8.6486e-006
10355	14.413	0.27273	0.	-7.4834e-002
10356	14.321	0.36364	0.	-8.375e-002
10357	14.413	0.36364	5.e-002	-4.8781e-006
10358	14.321	0.18182	0.	-7.9447e-002
10359	14.413	0.18182	5.e-002	9.4325e-006
10360	14.413	9.0909e-002	0.	-8.4291e-003
10361	14.228	5.7273	0.	-6.7399e-002
10362	14.136	5.8182	0.	-6.4729e-002
10363	14.228	5.8182	5.e-002	-6.4743e-006
10364	14.228	5.9091	0.	-7.6994e-003
10365	14.228	5.5455	0.	-3.252e-002
10366	14.136	5.6364	0.	-7.5417e-002
10367	14.228	5.6364	5.e-002	7.2371e-006
10368	14.228	5.3636	0.	1.1276e-002
10369	14.136	5.4545	0.	7.4112e-003
10370	14.228	5.4545	5.e-002	1.1773e-005
10371	14.228	5.1818	0.	1.5747e-002
10372	14.136	5.2727	0.	1.0559e-002
10373	14.228	5.2727	5.e-002	9.421e-006
10374	14.228	5.	0.	1.9292e-002
10375	14.136	5.0909	0.	1.7989e-002
10376	14.228	5.0909	5.e-002	1.0669e-005
10377	14.228	4.8182	0.	1.8478e-002
10378	14.136	4.9091	0.	1.8575e-002
10379	14.228	4.9091	5.e-002	8.4118e-006
10380	14.228	4.6364	0.	1.6076e-002
10381	14.136	4.7273	0.	1.7469e-002
10382	14.228	4.7273	5.e-002	4.5387e-006
10383	14.228	4.4545	0.	1.2707e-002
10384	14.136	4.5455	0.	1.4853e-002
10385	14.228	4.5455	5.e-002	4.746e-006
10386	14.228	4.2727	0.	9.3015e-003
10387	14.136	4.3636	0.	1.1767e-002
10388	14.228	4.3636	5.e-002	1.2875e-006
10389	14.228	4.0909	0.	6.6299e-003
10390	14.136	4.1818	0.	8.9054e-003
10391	14.228	4.1818	5.e-002	-1.2087e-007
10392	14.228	3.9091	0.	5.3592e-003
10393	14.136	4.	0.	6.9492e-003
10394	14.228	4.	5.e-002	1.5271e-006
10395	14.228	3.7273	0.	5.8488e-003
10396	14.136	3.8182	0.	6.3712e-003
10397	14.228	3.8182	5.e-002	5.2987e-006
10398	14.228	3.5455	0.	7.9565e-003
10399	14.136	3.6364	0.	7.2994e-003
10400	14.228	3.6364	5.e-002	8.395e-006
10401	14.228	3.3636	0.	1.0921e-002
10402	14.136	3.4545	0.	9.362e-003
10403	14.228	3.4545	5.e-002	6.7126e-006
10404	14.228	3.1818	0.	1.3513e-002
10405	14.136	3.2727	0.	1.1698e-002
10406	14.228	3.2727	5.e-002	4.9296e-006
10407	14.228	3.	0.	1.4542e-002
10408	14.136	3.0909	0.	1.3241e-002
10409	14.228	3.0909	5.e-002	1.7017e-006
10410	14.228	2.8182	0.	1.3512e-002
10411	14.136	2.9091	0.	1.3241e-002
10412	14.228	2.9091	5.e-002	2.0741e-007
10413	14.228	2.6364	0.	1.0921e-002
10414	14.136	2.7273	0.	1.1697e-002
10415	14.228	2.7273	5.e-002	-2.1763e-006
10416	14.228	2.4545	0.	7.9573e-003
10417	14.136	2.5455	0.	9.3628e-003
10418	14.228	2.5455	5.e-002	-5.4198e-006
10419	14.228	2.2727	0.	5.8491e-003
10420	14.136	2.3636	0.	7.2999e-003
10421	14.228	2.3636	5.e-002	-5.726e-006
10422	14.228	2.0909	0.	5.3594e-003
10423	14.136	2.1818	0.	6.3713e-003
10424	14.228	2.1818	5.e-002	-4.007e-006
10425	14.228	1.9091	0.	6.6305e-003
10426	14.136	2.	0.	6.9492e-003
10427	14.228	2.	5.e-002	7.1108e-007
10428	14.228	1.7273	0.	9.3018e-003
10429	14.136	1.8182	0.	8.9061e-003
10430	14.228	1.8182	5.e-002	-8.2135e-007
10431	14.228	1.5455	0.	1.2706e-002
10432	14.136	1.6364	0.	1.1767e-002
10433	14.228	1.6364	5.e-002	-6.0395e-007
10434	14.228	1.3636	0.	1.6076e-002
10435	14.136	1.4545	0.	1.4854e-002
10436	14.228	1.4545	5.e-002	-2.8933e-006
10437	14.228	1.1818	0.	1.8479e-002
10438	14.136	1.2727	0.	1.747e-002
10439	14.228	1.2727	5.e-002	-4.2209e-006
10440	14.228	1.	0.	1.9293e-002
10441	14.136	1.0909	0.	1.8575e-002
10442	14.228	1.0909	5.e-002	-4.6084e-006
10443	14.228	0.81818	0.	1.5749e-002
10444	14.136	0.90909	0.	1.7991e-002
10445	14.228	0.90909	5.e-002	-6.8501e-006
10446	14.228	0.63636	0.	1.1277e-002
10447	14.136	0.72727	0.	1.0561e-002
10448	14.228	0.72727	5.e-002	-8.0812e-006
10449	14.228	0.45455	0.	-3.252e-002
10450	14.136	0.54545	0.	7.4109e-003
10451	14.228	0.54545	5.e-002	-8.8361e-006
10452	14.228	0.27273	0.	-6.7399e-002
10453	14.136	0.36364	0.	-7.5417e-002
10454	14.228	0.36364	5.e-002	-4.7837e-006
10455	14.136	0.18182	0.	-6.4729e-002
10456	14.228	0.18182	5.e-002	8.8243e-006
10457	14.228	9.0909e-002	0.	-7.6984e-003
10458	14.043	5.7273	0.	-5.9657e-002
10459	13.951	5.8182	0.	-5.1462e-002
10460	14.043	5.8182	5.e-002	-1.2181e-005
10461	14.043	5.9091	0.	-6.9679e-003
10462	14.043	5.5455	0.	-3.0228e-002
10463	13.951	5.6364	0.	-6.7446e-002
10464	14.043	5.6364	5.e-002	6.7282e-006
10465	14.043	5.3636	0.	8.8892e-003
10466	13.951	5.4545	0.	4.9988e-003
10467	14.043	5.4545	5.e-002	1.0247e-005
10468	14.043	5.1818	0.	1.3875e-002
10469	13.951	5.2727	0.	8.7921e-003
10470	14.043	5.2727	5.e-002	9.2145e-006
10471	14.043	5.	0.	1.7851e-002
10472	13.951	5.0909	0.	1.6132e-002
10473	14.043	5.0909	5.e-002	9.8598e-006
10474	14.043	4.8182	0.	1.7874e-002
10475	13.951	4.9091	0.	1.7384e-002
10476	14.043	4.9091	5.e-002	9.1344e-006
10477	14.043	4.6364	0.	1.6382e-002
10478	13.951	4.7273	0.	1.7028e-002
10479	14.043	4.7273	5.e-002	6.7483e-006
10480	14.043	4.4545	0.	1.3925e-002
10481	13.951	4.5455	0.	1.525e-002
10482	14.043	4.5455	5.e-002	7.2161e-006
10483	14.043	4.2727	0.	1.1286e-002
10484	13.951	4.3636	0.	1.2939e-002
10485	14.043	4.3636	5.e-002	5.2628e-006
10486	14.043	4.0909	0.	9.0738e-003
10487	13.951	4.1818	0.	1.0664e-002
10488	14.043	4.1818	5.e-002	2.9535e-006
10489	14.043	3.9091	0.	7.7903e-003
10490	13.951	4.	0.	8.9517e-003
10491	14.043	4.	5.e-002	4.3013e-006
10492	14.043	3.7273	0.	7.7025e-003
10493	13.951	3.8182	0.	8.1596e-003
10494	14.043	3.8182	5.e-002	4.07e-006
10495	14.043	3.5455	0.	8.7281e-003
10496	13.951	3.6364	0.	8.3927e-003
10497	14.043	3.6364	5.e-002	7.7416e-006
10498	14.043	3.3636	0.	1.0376e-002
10499	13.951	3.4545	0.	9.4212e-003
10500	14.043	3.4545	5.e-002	5.6799e-006
10501	14.043	3.1818	0.	1.1869e-002
10502	13.951	3.2727	0.	1.07e-002
10503	14.043	3.2727	5.e-002	4.0416e-006
10504	14.043	3.	0.	1.247e-002
10505	13.951	3.0909	0.	1.1571e-002
10506	14.043	3.0909	5.e-002	2.6296e-006
10507	14.043	2.8182	0.	1.1869e-002
10508	13.951	2.9091	0.	1.157e-002
10509	14.043	2.9091	5.e-002	7.1232e-007
10510	14.043	2.6364	0.	1.0377e-002
10511	13.951	2.7273	0.	1.07e-002
10512	14.043	2.7273	5.e-002	-1.1227e-006
10513	14.043	2.4545	0.	8.7286e-003
10514	13.951	2.5455	0.	9.4216e-003
10515	14.043	2.5455	5.e-002	-2.2256e-006
10516	14.043	2.2727	0.	7.7028e-003
10517	13.951	2.3636	0.	8.3931e-003
10518	14.043	2.3636	5.e-002	-3.0769e-006
10519	14.043	2.0909	0.	7.7902e-003
10520	13.951	2.1818	0.	8.1593e-003
10521	14.043	2.1818	5.e-002	-1.7384e-006
10522	14.043	1.9091	0.	9.074e-003
10523	13.951	2.	0.	8.9519e-003
10524	14.043	2.	5.e-002	-1.9847e-006
10525	14.043	1.7273	0.	1.1287e-002
10526	13.951	1.8182	0.	1.0664e-002
10527	14.043	1.8182	5.e-002	-1.7449e-007
10528	14.043	1.5455	0.	1.3925e-002
10529	13.951	1.6364	0.	1.294e-002
10530	14.043	1.6364	5.e-002	-1.641e-006
10531	14.043	1.3636	0.	1.6383e-002
10532	13.951	1.4545	0.	1.5251e-002
10533	14.043	1.4545	5.e-002	-2.7463e-006
10534	14.043	1.1818	0.	1.7875e-002
10535	13.951	1.2727	0.	1.7029e-002
10536	14.043	1.2727	5.e-002	-3.8728e-006
10537	14.043	1.	0.	1.7852e-002
10538	13.951	1.0909	0.	1.7383e-002
10539	14.043	1.0909	5.e-002	-5.1718e-006
10540	14.043	0.81818	0.	1.3878e-002
10541	13.951	0.90909	0.	1.6135e-002
10542	14.043	0.90909	5.e-002	-6.5436e-006
10543	14.043	0.63636	0.	8.8906e-003
10544	13.951	0.72727	0.	8.7947e-003
10545	14.043	0.72727	5.e-002	-5.9804e-006
10546	14.043	0.45455	0.	-3.0228e-002
10547	13.951	0.54545	0.	4.9989e-003
10548	14.043	0.54545	5.e-002	-4.4648e-006
10549	14.043	0.27273	0.	-5.9657e-002
10550	13.951	0.36364	0.	-6.7447e-002
10551	14.043	0.36364	5.e-002	-1.3565e-006
10552	13.951	0.18182	0.	-5.1462e-002
10553	14.043	0.18182	5.e-002	1.2869e-005
10554	14.043	9.0909e-002	0.	-6.9685e-003
10555	13.859	5.7273	0.	-5.2203e-002
10556	13.766	5.8182	0.	-4.0127e-002
10557	13.859	5.8182	5.e-002	-1.7011e-005
10558	13.859	5.9091	0.	-6.3313e-003
10559	13.859	5.5455	0.	-2.7906e-002
10560	13.766	5.6364	0.	-6.0051e-002
10561	13.859	5.6364	5.e-002	5.8028e-006
10562	13.859	5.3636	0.	6.7749e-003
10563	13.766	5.4545	0.	3.0064e-003
10564	13.859	5.4545	5.e-002	9.7834e-006
10565	13.859	5.1818	0.	1.1976e-002
10566	13.766	5.2727	0.	7.1186e-003
10567	13.859	5.2727	5.e-002	9.6715e-006
10568	13.859	5.	0.	1.6166e-002
10569	13.766	5.0909	0.	1.4209e-002
10570	13.859	5.0909	5.e-002	8.791e-006
10571	13.859	4.8182	0.	1.6805e-002
10572	13.766	4.9091	0.	1.5917e-002
10573	13.859	4.9091	5.e-002	7.8156e-006
10574	13.859	4.6364	0.	1.6015e-002
10575	13.766	4.7273	0.	1.6126e-002
10576	13.859	4.7273	5.e-002	7.6618e-006
10577	13.859	4.4545	0.	1.4278e-002
10578	13.766	4.5455	0.	1.4999e-002
10579	13.859	4.5455	5.e-002	7.1521e-006
10580	13.859	4.2727	0.	1.2252e-002
10581	13.766	4.3636	0.	1.3304e-002
10582	13.859	4.3636	5.e-002	5.9158e-006
10583	13.859	4.0909	0.	1.0425e-002
10584	13.766	4.1818	0.	1.1504e-002
10585	13.859	4.1818	5.e-002	5.3998e-006
10586	13.859	3.9091	0.	9.1901e-003
10587	13.766	4.	0.	1.0021e-002
10588	13.859	4.	5.e-002	4.4663e-006
10589	13.859	3.7273	0.	8.7566e-003
10590	13.766	3.8182	0.	9.1367e-003
10591	13.859	3.8182	5.e-002	5.7335e-006
10592	13.859	3.5455	0.	9.0911e-003
10593	13.766	3.6364	0.	8.9454e-003
10594	13.859	3.6364	5.e-002	6.0764e-006
10595	13.859	3.3636	0.	9.8924e-003
10596	13.766	3.4545	0.	9.3198e-003
10597	13.859	3.4545	5.e-002	5.2172e-006
10598	13.859	3.1818	0.	1.0681e-002
10599	13.766	3.2727	0.	9.9295e-003
10600	13.859	3.2727	5.e-002	3.6509e-006
10601	13.859	3.	0.	1.1006e-002
10602	13.766	3.0909	0.	1.0373e-002
10603	13.859	3.0909	5.e-002	2.6837e-006
10604	13.859	2.8182	0.	1.0681e-002
10605	13.766	2.9091	0.	1.0373e-002
10606	13.859	2.9091	5.e-002	6.6775e-007
10607	13.859	2.6364	0.	9.8927e-003
10608	13.766	2.7273	0.	9.9298e-003
10609	13.859	2.7273	5.e-002	1.7857e-007
10610	13.859	2.4545	0.	9.0913e-003
10611	13.766	2.5455	0.	9.3205e-003
10612	13.859	2.5455	5.e-002	-1.9957e-006
10613	13.859	2.2727	0.	8.7565e-003
10614	13.766	2.3636	0.	8.9449e-003
10615	13.859	2.3636	5.e-002	-2.5104e-006
10616	13.859	2.0909	0.	9.1902e-003
10617	13.766	2.1818	0.	9.1364e-003
10618	13.859	2.1818	5.e-002	-2.0194e-006
10619	13.859	1.9091	0.	1.0425e-002
10620	13.766	2.	0.	1.0022e-002
10621	13.859	2.	5.e-002	-3.157e-006
10622	13.859	1.7273	0.	1.2251e-002
10623	13.766	1.8182	0.	1.1504e-002
10624	13.859	1.8182	5.e-002	-1.8788e-006
10625	13.859	1.5455	0.	1.4278e-002
10626	13.766	1.6364	0.	1.3304e-002
10627	13.859	1.6364	5.e-002	-2.6906e-006
10628	13.859	1.3636	0.	1.6015e-002
10629	13.766	1.4545	0.	1.5001e-002
10630	13.859	1.4545	5.e-002	-3.7353e-006
10631	13.859	1.1818	0.	1.6805e-002
10632	13.766	1.2727	0.	1.6126e-002
10633	13.859	1.2727	5.e-002	-4.3676e-006
10634	13.859	1.	0.	1.6167e-002
10635	13.766	1.0909	0.	1.5917e-002
10636	13.859	1.0909	5.e-002	-4.3951e-006
10637	13.859	0.81818	0.	1.1979e-002
10638	13.766	0.90909	0.	1.4211e-002
10639	13.859	0.90909	5.e-002	-5.5086e-006
10640	13.859	0.63636	0.	6.7763e-003
10641	13.766	0.72727	0.	7.1207e-003
10642	13.859	0.72727	5.e-002	-3.8653e-006
10643	13.859	0.45455	0.	-2.7906e-002
10644	13.766	0.54545	0.	3.006e-003
10645	13.859	0.54545	5.e-002	-1.253e-006
10646	13.859	0.27273	0.	-5.2203e-002
10647	13.766	0.36364	0.	-6.0051e-002
10648	13.859	0.36364	5.e-002	2.0033e-006
10649	13.766	0.18182	0.	-4.0127e-002
10650	13.859	0.18182	5.e-002	2.4546e-005
10651	13.859	9.0909e-002	0.	-6.3303e-003
10652	13.674	5.7273	0.	-4.5333e-002
10653	13.582	5.8182	0.	-3.0776e-002
10654	13.674	5.8182	5.e-002	-1.6649e-005
10655	13.674	5.9091	0.	-5.7958e-003
10656	13.674	5.5455	0.	-2.5645e-002
10657	13.582	5.6364	0.	-5.3295e-002
10658	13.674	5.6364	5.e-002	4.9285e-006
10659	13.674	5.3636	0.	4.9377e-003
10660	13.582	5.4545	0.	1.3948e-003
10661	13.674	5.4545	5.e-002	6.7892e-006
10662	13.674	5.1818	0.	1.0148e-002
10663	13.582	5.2727	0.	5.603e-003
10664	13.674	5.2727	5.e-002	5.7059e-006
10665	13.674	5.	0.	1.4393e-002
10666	13.582	5.0909	0.	1.2341e-002
10667	13.674	5.0909	5.e-002	6.692e-006
10668	13.674	4.8182	0.	1.5471e-002
10669	13.582	4.9091	0.	1.4347e-002
10670	13.674	4.9091	5.e-002	5.6195e-006
10671	13.674	4.6364	0.	1.5216e-002
10672	13.582	4.7273	0.	1.4969e-002
10673	13.674	4.7273	5.e-002	4.4809e-006
10674	13.674	4.4545	0.	1.4043e-002
10675	13.582	4.5455	0.	1.4347e-002
10676	13.674	4.5455	5.e-002	5.1548e-006
10677	13.674	4.2727	0.	1.251e-002
10678	13.582	4.3636	0.	1.314e-002
10679	13.674	4.3636	5.e-002	3.8627e-006
10680	13.674	4.0909	0.	1.1014e-002
10681	13.582	4.1818	0.	1.1732e-002
10682	13.674	4.1818	5.e-002	3.8864e-006
10683	13.674	3.9091	0.	9.87e-003
10684	13.582	4.	0.	1.0467e-002
10685	13.674	4.	5.e-002	3.0459e-006
10686	13.674	3.7273	0.	9.254e-003
10687	13.582	3.8182	0.	9.5723e-003
10688	13.674	3.8182	5.e-002	4.561e-006
10689	13.674	3.5455	0.	9.1691e-003
10690	13.582	3.6364	0.	9.1445e-003
10691	13.674	3.6364	5.e-002	3.8843e-006
10692	13.674	3.3636	0.	9.4446e-003
10693	13.582	3.4545	0.	9.126e-003
10694	13.674	3.4545	5.e-002	3.4491e-006
10695	13.674	3.1818	0.	9.7932e-003
10696	13.582	3.2727	0.	9.3253e-003
10697	13.674	3.2727	5.e-002	1.2024e-006
10698	13.674	3.	0.	9.9463e-003
10699	13.582	3.0909	0.	9.5061e-003
10700	13.674	3.0909	5.e-002	-9.0638e-008
10701	13.674	2.8182	0.	9.7939e-003
10702	13.582	2.9091	0.	9.5062e-003
10703	13.674	2.9091	5.e-002	5.7004e-007
10704	13.674	2.6364	0.	9.4452e-003
10705	13.582	2.7273	0.	9.3253e-003
10706	13.674	2.7273	5.e-002	-1.5682e-006
10707	13.674	2.4545	0.	9.169e-003
10708	13.582	2.5455	0.	9.126e-003
10709	13.674	2.5455	5.e-002	-2.5943e-006
10710	13.674	2.2727	0.	9.2533e-003
10711	13.582	2.3636	0.	9.1442e-003
10712	13.674	2.3636	5.e-002	-3.7204e-006
10713	13.674	2.0909	0.	9.8705e-003
10714	13.582	2.1818	0.	9.5722e-003
10715	13.674	2.1818	5.e-002	-3.9987e-006
10716	13.674	1.9091	0.	1.1015e-002
10717	13.582	2.	0.	1.0467e-002
10718	13.674	2.	5.e-002	-3.4423e-006
10719	13.674	1.7273	0.	1.251e-002
10720	13.582	1.8182	0.	1.1732e-002
10721	13.674	1.8182	5.e-002	-4.0235e-006
10722	13.674	1.5455	0.	1.4044e-002
10723	13.582	1.6364	0.	1.314e-002
10724	13.674	1.6364	5.e-002	-4.3455e-006
10725	13.674	1.3636	0.	1.5216e-002
10726	13.582	1.4545	0.	1.4348e-002
10727	13.674	1.4545	5.e-002	-5.0956e-006
10728	13.674	1.1818	0.	1.5471e-002
10729	13.582	1.2727	0.	1.4969e-002
10730	13.674	1.2727	5.e-002	-5.2136e-006
10731	13.674	1.	0.	1.4395e-002
10732	13.582	1.0909	0.	1.4348e-002
10733	13.674	1.0909	5.e-002	-5.6162e-006
10734	13.674	0.81818	0.	1.015e-002
10735	13.582	0.90909	0.	1.2343e-002
10736	13.674	0.90909	5.e-002	-5.3015e-006
10737	13.674	0.63636	0.	4.9381e-003
10738	13.582	0.72727	0.	5.6044e-003
10739	13.674	0.72727	5.e-002	-4.4677e-006
10740	13.674	0.45455	0.	-2.5645e-002
10741	13.582	0.54545	0.	1.3954e-003
10742	13.674	0.54545	5.e-002	-2.6895e-006
10743	13.674	0.27273	0.	-4.5334e-002
10744	13.582	0.36364	0.	-5.3295e-002
10745	13.674	0.36364	5.e-002	2.375e-007
10746	13.582	0.18182	0.	-3.0776e-002
10747	13.674	0.18182	5.e-002	2.11e-005
10748	13.674	9.0909e-002	0.	-5.7962e-003
10749	13.489	5.7273	0.	-3.9148e-002
10750	13.397	5.8182	0.	-2.3267e-002
10751	13.489	5.8182	5.e-002	-2.4163e-005
10752	13.489	5.9091	0.	-5.3243e-003
10753	13.489	5.5455	0.	-2.3461e-002
10754	13.397	5.6364	0.	-4.7192e-002
10755	13.489	5.6364	5.e-002	5.5753e-006
10756	13.489	5.3636	0.	3.3978e-003
10757	13.397	5.4545	0.	1.1209e-004
10758	13.489	5.4545	5.e-002	7.9815e-006
10759	13.489	5.1818	0.	8.4792e-003
10760	13.397	5.2727	0.	4.2628e-003
10761	13.489	5.2727	5.e-002	7.1402e-006
10762	13.489	5.	0.	1.267e-002
10763	13.397	5.0909	0.	1.0591e-002
10764	13.489	5.0909	5.e-002	7.2167e-006
10765	13.489	4.8182	0.	1.4048e-002
10766	13.397	4.9091	0.	1.2775e-002
10767	13.489	4.9091	5.e-002	7.0956e-006
10768	13.489	4.6364	0.	1.4195e-002
10769	13.397	4.7273	0.	1.369e-002
10770	13.489	4.7273	5.e-002	5.2755e-006
10771	13.489	4.4545	0.	1.3465e-002
10772	13.397	4.5455	0.	1.3458e-002
10773	13.489	4.5455	5.e-002	7.0292e-006
10774	13.489	4.2727	0.	1.2331e-002
10775	13.397	4.3636	0.	1.2638e-002
10776	13.489	4.3636	5.e-002	4.6402e-006
10777	13.489	4.0909	0.	1.1122e-002
10778	13.397	4.1818	0.	1.1556e-002
10779	13.489	4.1818	5.e-002	4.6078e-006
10780	13.489	3.9091	0.	1.0097e-002
10781	13.397	4.	0.	1.0496e-002
10782	13.489	4.	5.e-002	3.7796e-006
10783	13.489	3.7273	0.	9.4085e-003
10784	13.397	3.8182	0.	9.6476e-003
10785	13.489	3.8182	5.e-002	4.1025e-006
10786	13.489	3.5455	0.	9.0911e-003
10787	13.397	3.6364	0.	9.1107e-003
10788	13.489	3.6364	5.e-002	4.5368e-006
10789	13.489	3.3636	0.	9.0561e-003
10790	13.397	3.4545	0.	8.8733e-003
10791	13.489	3.4545	5.e-002	3.8118e-006
10792	13.489	3.1818	0.	9.1405e-003
10793	13.397	3.2727	0.	8.8336e-003
10794	13.489	3.2727	5.e-002	2.4187e-006
10795	13.489	3.	0.	9.1896e-003
10796	13.397	3.0909	0.	8.8605e-003
10797	13.489	3.0909	5.e-002	1.4307e-006
10798	13.489	2.8182	0.	9.1399e-003
10799	13.397	2.9091	0.	8.8604e-003
10800	13.489	2.9091	5.e-002	1.4351e-006
10801	13.489	2.6364	0.	9.0554e-003
10802	13.397	2.7273	0.	8.8341e-003
10803	13.489	2.7273	5.e-002	5.9032e-008
10804	13.489	2.4545	0.	9.0908e-003
10805	13.397	2.5455	0.	8.873e-003
10806	13.489	2.5455	5.e-002	-3.611e-007
10807	13.489	2.2727	0.	9.4088e-003
10808	13.397	2.3636	0.	9.1114e-003
10809	13.489	2.3636	5.e-002	-1.8799e-006
10810	13.489	2.0909	0.	1.0097e-002
10811	13.397	2.1818	0.	9.648e-003
10812	13.489	2.1818	5.e-002	-1.9037e-006
10813	13.489	1.9091	0.	1.1122e-002
10814	13.397	2.	0.	1.0496e-002
10815	13.489	2.	5.e-002	-2.9202e-006
10816	13.489	1.7273	0.	1.2332e-002
10817	13.397	1.8182	0.	1.1557e-002
10818	13.489	1.8182	5.e-002	-2.4412e-006
10819	13.489	1.5455	0.	1.3466e-002
10820	13.397	1.6364	0.	1.2639e-002
10821	13.489	1.6364	5.e-002	-3.349e-006
10822	13.489	1.3636	0.	1.4195e-002
10823	13.397	1.4545	0.	1.3458e-002
10824	13.489	1.4545	5.e-002	-3.0514e-006
10825	13.489	1.1818	0.	1.4048e-002
10826	13.397	1.2727	0.	1.369e-002
10827	13.489	1.2727	5.e-002	-2.4163e-006
10828	13.489	1.	0.	1.2671e-002
10829	13.397	1.0909	0.	1.2775e-002
10830	13.489	1.0909	5.e-002	-3.2788e-006
10831	13.489	0.81818	0.	8.4809e-003
10832	13.397	0.90909	0.	1.0592e-002
10833	13.489	0.90909	5.e-002	-3.0234e-006
10834	13.489	0.63636	0.	3.3994e-003
10835	13.397	0.72727	0.	4.2647e-003
10836	13.489	0.72727	5.e-002	-1.7725e-006
10837	13.489	0.45455	0.	-2.346e-002
10838	13.397	0.54545	0.	1.123e-004
10839	13.489	0.54545	5.e-002	-2.8161e-007
10840	13.489	0.27273	0.	-3.9148e-002
10841	13.397	0.36364	0.	-4.7192e-002
10842	13.489	0.36364	5.e-002	2.0036e-006
10843	13.397	0.18182	0.	-2.3266e-002
10844	13.489	0.18182	5.e-002	2.2789e-005
10845	13.489	9.0909e-002	0.	-5.3241e-003
10846	13.304	5.7273	0.	-3.3711e-002
10847	13.212	5.8182	0.	-1.7378e-002
10848	13.304	5.8182	5.e-002	-2.3655e-005
10849	13.304	5.9091	0.	-4.9344e-003
10850	13.304	5.5455	0.	-2.1412e-002
10851	13.212	5.6364	0.	-4.1728e-002
10852	13.304	5.6364	5.e-002	4.087e-006
10853	13.304	5.3636	0.	2.0978e-003
10854	13.212	5.4545	0.	-9.036e-004
10855	13.304	5.4545	5.e-002	7.1181e-006
10856	13.304	5.1818	0.	6.9588e-003
10857	13.212	5.2727	0.	3.0899e-003
10858	13.304	5.2727	5.e-002	5.717e-006
10859	13.304	5.	0.	1.102e-002
10860	13.212	5.0909	0.	8.9788e-003
10861	13.304	5.0909	5.e-002	6.3106e-006
10862	13.304	4.8182	0.	1.2594e-002
10863	13.212	4.9091	0.	1.125e-002
10864	13.304	4.9091	5.e-002	6.4531e-006
10865	13.304	4.6364	0.	1.3038e-002
10866	13.212	4.7273	0.	1.2368e-002
10867	13.304	4.7273	5.e-002	4.9666e-006
10868	13.304	4.4545	0.	1.2655e-002
10869	13.212	4.5455	0.	1.2433e-002
10870	13.304	4.5455	5.e-002	6.0608e-006
10871	13.304	4.2727	0.	1.1846e-002
10872	13.212	4.3636	0.	1.1924e-002
10873	13.304	4.3636	5.e-002	4.8659e-006
10874	13.304	4.0909	0.	1.0886e-002
10875	13.212	4.1818	0.	1.1114e-002
10876	13.304	4.1818	5.e-002	2.811e-006
10877	13.304	3.9091	0.	9.9946e-003
10878	13.212	4.	0.	1.0244e-002
10879	13.304	4.	5.e-002	3.0601e-006
10880	13.304	3.7273	0.	9.309e-003
10881	13.212	3.8182	0.	9.4788e-003
10882	13.304	3.8182	5.e-002	4.2844e-006
10883	13.304	3.5455	0.	8.8804e-003
10884	13.212	3.6364	0.	8.9154e-003
10885	13.304	3.6364	5.e-002	4.1702e-006
10886	13.304	3.3636	0.	8.6761e-003
10887	13.212	3.4545	0.	8.5722e-003
10888	13.304	3.4545	5.e-002	3.8342e-006
10889	13.304	3.1818	0.	8.612e-003
10890	13.212	3.2727	0.	8.4051e-003
10891	13.304	3.2727	5.e-002	2.2156e-006
10892	13.304	3.	0.	8.6028e-003
10893	13.212	3.0909	0.	8.347e-003
10894	13.304	3.0909	5.e-002	1.9968e-006
10895	13.304	2.8182	0.	8.613e-003
10896	13.212	2.9091	0.	8.3468e-003
10897	13.304	2.9091	5.e-002	2.2954e-006
10898	13.304	2.6364	0.	8.677e-003
10899	13.212	2.7273	0.	8.406e-003
10900	13.304	2.7273	5.e-002	1.1494e-006
10901	13.304	2.4545	0.	8.881e-003
10902	13.212	2.5455	0.	8.572e-003
10903	13.304	2.5455	5.e-002	-9.0435e-007
10904	13.304	2.2727	0.	9.3098e-003
10905	13.212	2.3636	0.	8.9157e-003
10906	13.304	2.3636	5.e-002	-1.1274e-006
10907	13.304	2.0909	0.	9.995e-003
10908	13.212	2.1818	0.	9.4794e-003
10909	13.304	2.1818	5.e-002	-1.8425e-006
10910	13.304	1.9091	0.	1.0887e-002
10911	13.212	2.	0.	1.0244e-002
10912	13.304	2.	5.e-002	-1.0519e-006
10913	13.304	1.7273	0.	1.1846e-002
10914	13.212	1.8182	0.	1.1114e-002
10915	13.304	1.8182	5.e-002	-1.3185e-006
10916	13.304	1.5455	0.	1.2656e-002
10917	13.212	1.6364	0.	1.1924e-002
10918	13.304	1.6364	5.e-002	-3.1537e-006
10919	13.304	1.3636	0.	1.3039e-002
10920	13.212	1.4545	0.	1.2433e-002
10921	13.304	1.4545	5.e-002	-2.0444e-006
10922	13.304	1.1818	0.	1.2595e-002
10923	13.212	1.2727	0.	1.2368e-002
10924	13.304	1.2727	5.e-002	-3.0658e-006
10925	13.304	1.	0.	1.1021e-002
10926	13.212	1.0909	0.	1.1251e-002
10927	13.304	1.0909	5.e-002	-2.1832e-006
10928	13.304	0.81818	0.	6.9606e-003
10929	13.212	0.90909	0.	8.9804e-003
10930	13.304	0.90909	5.e-002	-1.6516e-006
10931	13.304	0.63636	0.	2.0984e-003
10932	13.212	0.72727	0.	3.0913e-003
10933	13.304	0.72727	5.e-002	-1.632e-006
10934	13.304	0.45455	0.	-2.1413e-002
10935	13.212	0.54545	0.	-9.046e-004
10936	13.304	0.54545	5.e-002	-6.5041e-009
10937	13.304	0.27273	0.	-3.3711e-002
10938	13.212	0.36364	0.	-4.1727e-002
10939	13.304	0.36364	5.e-002	1.8486e-006
10940	13.212	0.18182	0.	-1.7376e-002
10941	13.304	0.18182	5.e-002	3.2144e-005
10942	13.304	9.0909e-002	0.	-4.9334e-003
10943	13.12	5.7273	0.	-2.8986e-002
10944	13.027	5.8182	0.	-1.2838e-002
10945	13.12	5.8182	5.e-002	-1.7062e-005
10946	13.12	5.9091	0.	-4.5986e-003
10947	13.12	5.5455	0.	-1.95e-002
10948	13.027	5.6364	0.	-3.6844e-002
10949	13.12	5.6364	5.e-002	4.4594e-006
10950	13.12	5.3636	0.	1.022e-003
10951	13.027	5.4545	0.	-1.6869e-003
10952	13.12	5.4545	5.e-002	6.466e-006
10953	13.12	5.1818	0.	5.6087e-003
10954	13.027	5.2727	0.	2.0892e-003
10955	13.12	5.2727	5.e-002	5.9954e-006
10956	13.12	5.	0.	9.4898e-003
10957	13.027	5.0909	0.	7.5293e-003
10958	13.12	5.0909	5.e-002	5.5844e-006
10959	13.12	4.8182	0.	1.118e-002
10960	13.027	4.9091	0.	9.8221e-003
10961	13.12	4.9091	5.e-002	5.7078e-006
10962	13.12	4.6364	0.	1.1841e-002
10963	13.027	4.7273	0.	1.1073e-002
10964	13.12	4.7273	5.e-002	3.5129e-006
10965	13.12	4.4545	0.	1.1729e-002
10966	13.027	4.5455	0.	1.1363e-002
10967	13.12	4.5455	5.e-002	6.6233e-006
10968	13.12	4.2727	0.	1.1185e-002
10969	13.027	4.3636	0.	1.1102e-002
10970	13.12	4.3636	5.e-002	4.1163e-006
10971	13.12	4.0909	0.	1.0444e-002
10972	13.027	4.1818	0.	1.0521e-002
10973	13.12	4.1818	5.e-002	3.6526e-006
10974	13.12	3.9091	0.	9.6922e-003
10975	13.027	4.	0.	9.827e-003
10976	13.12	4.	5.e-002	3.4778e-006
10977	13.12	3.7273	0.	9.055e-003
10978	13.027	3.8182	0.	9.1638e-003
10979	13.12	3.8182	5.e-002	2.5106e-006
10980	13.12	3.5455	0.	8.5945e-003
10981	13.027	3.6364	0.	8.625e-003
10982	13.12	3.6364	5.e-002	3.8689e-006
10983	13.12	3.3636	0.	8.3121e-003
10984	13.027	3.4545	0.	8.2484e-003
10985	13.12	3.4545	5.e-002	3.0613e-006
10986	13.12	3.1818	0.	8.1714e-003
10987	13.027	3.2727	0.	8.0242e-003
10988	13.12	3.2727	5.e-002	1.9341e-006
10989	13.12	3.	0.	8.1303e-003
10990	13.027	3.0909	0.	7.9239e-003
10991	13.12	3.0909	5.e-002	1.5939e-006
10992	13.12	2.8182	0.	8.1711e-003
10993	13.027	2.9091	0.	7.9239e-003
10994	13.12	2.9091	5.e-002	1.2697e-006
10995	13.12	2.6364	0.	8.3119e-003
10996	13.027	2.7273	0.	8.0244e-003
10997	13.12	2.7273	5.e-002	1.1643e-006
10998	13.12	2.4545	0.	8.594e-003
10999	13.027	2.5455	0.	8.2482e-003
11000	13.12	2.5455	5.e-002	3.0122e-007
11001	13.12	2.2727	0.	9.0551e-003
11002	13.027	2.3636	0.	8.625e-003
11003	13.12	2.3636	5.e-002	-2.4521e-007
11004	13.12	2.0909	0.	9.6928e-003
11005	13.027	2.1818	0.	9.164e-003
11006	13.12	2.1818	5.e-002	-1.5073e-006
11007	13.12	1.9091	0.	1.0444e-002
11008	13.027	2.	0.	9.8276e-003
11009	13.12	2.	5.e-002	-1.0185e-006
11010	13.12	1.7273	0.	1.1185e-002
11011	13.027	1.8182	0.	1.0521e-002
11012	13.12	1.8182	5.e-002	-1.7198e-006
11013	13.12	1.5455	0.	1.173e-002
11014	13.027	1.6364	0.	1.1102e-002
11015	13.12	1.6364	5.e-002	-1.6159e-006
11016	13.12	1.3636	0.	1.1842e-002
11017	13.027	1.4545	0.	1.1364e-002
11018	13.12	1.4545	5.e-002	-1.7797e-006
11019	13.12	1.1818	0.	1.1181e-002
11020	13.027	1.2727	0.	1.1074e-002
11021	13.12	1.2727	5.e-002	-1.57e-006
11022	13.12	1.	0.	9.4912e-003
11023	13.027	1.0909	0.	9.8226e-003
11024	13.12	1.0909	5.e-002	-9.5978e-007
11025	13.12	0.81818	0.	5.6099e-003
11026	13.027	0.90909	0.	7.5313e-003
11027	13.12	0.90909	5.e-002	-1.6067e-007
11028	13.12	0.63636	0.	1.0218e-003
11029	13.027	0.72727	0.	2.0903e-003
11030	13.12	0.72727	5.e-002	-3.0728e-007
11031	13.12	0.45455	0.	-1.95e-002
11032	13.027	0.54545	0.	-1.6873e-003
11033	13.12	0.54545	5.e-002	4.1486e-007
11034	13.12	0.27273	0.	-2.8985e-002
11035	13.027	0.36364	0.	-3.6844e-002
11036	13.12	0.36364	5.e-002	5.0249e-007
11037	13.027	0.18182	0.	-1.2837e-002
11038	13.12	0.18182	5.e-002	3.0091e-005
11039	13.12	9.0909e-002	0.	-4.5973e-003
11040	12.935	5.7273	0.	-2.4902e-002
11041	12.842	5.8182	0.	-9.3872e-003
11042	12.935	5.8182	5.e-002	-1.7385e-005
11043	12.935	5.9091	0.	-4.2961e-003
11044	12.935	5.5455	0.	-1.7713e-002
11045	12.842	5.6364	0.	-3.2473e-002
11046	12.935	5.6364	5.e-002	3.8604e-006
11047	12.935	5.3636	0.	1.5252e-004
11048	12.842	5.4545	0.	-2.2664e-003
11049	12.935	5.4545	5.e-002	5.8257e-006
11050	12.935	5.1818	0.	4.4341e-003
11051	12.842	5.2727	0.	1.258e-003
11052	12.935	5.2727	5.e-002	4.319e-006
11053	12.935	5.	0.	8.1049e-003
11054	12.842	5.0909	0.	6.2535e-003
11055	12.935	5.0909	5.e-002	4.5788e-006
11056	12.935	4.8182	0.	9.8533e-003
11057	12.842	4.9091	0.	8.5208e-003
11058	12.935	4.9091	5.e-002	4.17e-006
11059	12.935	4.6364	0.	1.0668e-002
11060	12.842	4.7273	0.	9.852e-003
11061	12.935	4.7273	5.e-002	2.8386e-006
11062	12.935	4.4545	0.	1.0766e-002
11063	12.842	4.5455	0.	1.0311e-002
11064	12.935	4.5455	5.e-002	4.1646e-006
11065	12.935	4.2727	0.	1.0439e-002
11066	12.842	4.3636	0.	1.0247e-002
11067	12.935	4.3636	5.e-002	2.6832e-006
11068	12.935	4.0909	0.	9.8876e-003
11069	12.842	4.1818	0.	9.8591e-003
11070	12.935	4.1818	5.e-002	2.1111e-006
11071	12.935	3.9091	0.	9.2743e-003
11072	12.842	4.	0.	9.3243e-003
11073	12.935	4.	5.e-002	1.9994e-006
11074	12.935	3.7273	0.	8.712e-003
11075	12.842	3.8182	0.	8.7704e-003
11076	12.935	3.8182	5.e-002	1.7403e-006
11077	12.935	3.5455	0.	8.2675e-003
11078	12.842	3.6364	0.	8.286e-003
11079	12.935	3.6364	5.e-002	2.3941e-006
11080	12.935	3.3636	0.	7.9634e-003
11081	12.842	3.4545	0.	7.9195e-003
11082	12.935	3.4545	5.e-002	2.4446e-006
11083	12.935	3.1818	0.	7.7919e-003
11084	12.842	3.2727	0.	7.6811e-003
11085	12.935	3.2727	5.e-002	9.5533e-007
11086	12.935	3.	0.	7.7377e-003
11087	12.842	3.0909	0.	7.5663e-003
11088	12.935	3.0909	5.e-002	1.184e-006
11089	12.935	2.8182	0.	7.7924e-003
11090	12.842	2.9091	0.	7.5667e-003
11091	12.935	2.9091	5.e-002	9.6231e-007
11092	12.935	2.6364	0.	7.9635e-003
11093	12.842	2.7273	0.	7.6813e-003
11094	12.935	2.7273	5.e-002	7.2565e-007
11095	12.935	2.4545	0.	8.2677e-003
11096	12.842	2.5455	0.	7.9195e-003
11097	12.935	2.5455	5.e-002	1.8705e-007
11098	12.935	2.2727	0.	8.712e-003
11099	12.842	2.3636	0.	8.2867e-003
11100	12.935	2.3636	5.e-002	-6.6469e-007
11101	12.935	2.0909	0.	9.2744e-003
11102	12.842	2.1818	0.	8.7705e-003
11103	12.935	2.1818	5.e-002	-1.1494e-006
11104	12.935	1.9091	0.	9.8881e-003
11105	12.842	2.	0.	9.3249e-003
11106	12.935	2.	5.e-002	-1.3779e-006
11107	12.935	1.7273	0.	1.0439e-002
11108	12.842	1.8182	0.	9.8596e-003
11109	12.935	1.8182	5.e-002	-7.9157e-007
11110	12.935	1.5455	0.	1.0766e-002
11111	12.842	1.6364	0.	1.0247e-002
11112	12.935	1.6364	5.e-002	-1.2265e-006
11113	12.935	1.3636	0.	1.0668e-002
11114	12.842	1.4545	0.	1.0311e-002
11115	12.935	1.4545	5.e-002	-1.4723e-006
11116	12.935	1.1818	0.	9.8535e-003
11117	12.842	1.2727	0.	9.8524e-003
11118	12.935	1.2727	5.e-002	-4.5254e-007
11119	12.935	1.	0.	8.106e-003
11120	12.842	1.0909	0.	8.5211e-003
11121	12.935	1.0909	5.e-002	-1.0454e-006
11122	12.935	0.81818	0.	4.436e-003
11123	12.842	0.90909	0.	6.2552e-003
11124	12.935	0.90909	5.e-002	1.8557e-007
11125	12.935	0.63636	0.	1.5346e-004
11126	12.842	0.72727	0.	1.26e-003
11127	12.935	0.72727	5.e-002	-3.6149e-007
11128	12.935	0.45455	0.	-1.7713e-002
11129	12.842	0.54545	0.	-2.2663e-003
11130	12.935	0.54545	5.e-002	-1.0737e-006
11131	12.935	0.27273	0.	-2.4902e-002
11132	12.842	0.36364	0.	-3.2472e-002
11133	12.935	0.36364	5.e-002	3.0615e-007
11134	12.842	0.18182	0.	-9.3872e-003
11135	12.935	0.18182	5.e-002	3.1829e-005
11136	12.935	9.0909e-002	0.	-4.2963e-003
11137	12.75	5.7273	0.	-2.1376e-002
11138	12.658	5.8182	0.	-6.7803e-003
11139	12.75	5.8182	5.e-002	-3.9113e-005
11140	12.75	5.9091	0.	-4.0062e-003
11141	12.75	5.5455	0.	-1.6035e-002
11142	12.658	5.6364	0.	-2.8522e-002
11143	12.75	5.6364	5.e-002	3.9503e-006
11144	12.75	5.3636	0.	-5.2752e-004
11145	12.658	5.4545	0.	-2.6473e-003
11146	12.75	5.4545	5.e-002	5.2015e-006
11147	12.75	5.1818	0.	3.4363e-003
11148	12.658	5.2727	0.	6.0985e-004
11149	12.75	5.2727	5.e-002	3.9504e-006
11150	12.75	5.	0.	6.8796e-003
11151	12.658	5.0909	0.	5.1987e-003
11152	12.75	5.0909	5.e-002	4.2597e-006
11153	12.75	4.8182	0.	8.6421e-003
11154	12.658	4.9091	0.	7.381e-003
11155	12.75	4.9091	5.e-002	3.4382e-006
11156	12.75	4.6364	0.	9.5621e-003
11157	12.658	4.7273	0.	8.7525e-003
11158	12.75	4.7273	5.e-002	3.0161e-006
11159	12.75	4.4545	0.	9.8223e-003
11160	12.658	4.5455	0.	9.336e-003
11161	12.75	4.5455	5.e-002	3.7294e-006
11162	12.75	4.2727	0.	9.6732e-003
11163	12.658	4.3636	0.	9.4287e-003
11164	12.75	4.3636	5.e-002	2.1049e-006
11165	12.75	4.0909	0.	9.2883e-003
11166	12.658	4.1818	0.	9.2036e-003
11167	12.75	4.1818	5.e-002	1.8747e-006
11168	12.75	3.9091	0.	8.805e-003
11169	12.658	4.	0.	8.8109e-003
11170	12.75	4.	5.e-002	1.6629e-006
11171	12.75	3.7273	0.	8.3292e-003
11172	12.658	3.8182	0.	8.3656e-003
11173	12.75	3.8182	5.e-002	1.9262e-006
11174	12.75	3.5455	0.	7.9285e-003
11175	12.658	3.6364	0.	7.9509e-003
11176	12.75	3.6364	5.e-002	2.7163e-006
11177	12.75	3.3636	0.	7.6361e-003
11178	12.658	3.4545	0.	7.6188e-003
11179	12.75	3.4545	5.e-002	2.0001e-006
11180	12.75	3.1818	0.	7.4618e-003
11181	12.658	3.2727	0.	7.3916e-003
11182	12.75	3.2727	5.e-002	6.377e-007
11183	12.75	3.	0.	7.4045e-003
11184	12.658	3.0909	0.	7.2779e-003
11185	12.75	3.0909	5.e-002	1.0012e-006
11186	12.75	2.8182	0.	7.4619e-003
11187	12.658	2.9091	0.	7.2779e-003
11188	12.75	2.9091	5.e-002	1.3829e-006
11189	12.75	2.6364	0.	7.6362e-003
11190	12.658	2.7273	0.	7.3918e-003
11191	12.75	2.7273	5.e-002	7.9512e-007
11192	12.75	2.4545	0.	7.9289e-003
11193	12.658	2.5455	0.	7.6192e-003
11194	12.75	2.5455	5.e-002	-6.2013e-008
11195	12.75	2.2727	0.	8.3299e-003
11196	12.658	2.3636	0.	7.9515e-003
11197	12.75	2.3636	5.e-002	-3.3309e-007
11198	12.75	2.0909	0.	8.8055e-003
11199	12.658	2.1818	0.	8.366e-003
11200	12.75	2.1818	5.e-002	-6.3364e-007
11201	12.75	1.9091	0.	9.2883e-003
11202	12.658	2.	0.	8.8114e-003
11203	12.75	2.	5.e-002	-9.268e-007
11204	12.75	1.7273	0.	9.674e-003
11205	12.658	1.8182	0.	9.2038e-003
11206	12.75	1.8182	5.e-002	-8.1928e-007
11207	12.75	1.5455	0.	9.8228e-003
11208	12.658	1.6364	0.	9.4295e-003
11209	12.75	1.6364	5.e-002	-6.8083e-007
11210	12.75	1.3636	0.	9.5623e-003
11211	12.658	1.4545	0.	9.3362e-003
11212	12.75	1.4545	5.e-002	-8.6724e-007
11213	12.75	1.1818	0.	8.6424e-003
11214	12.658	1.2727	0.	8.753e-003
11215	12.75	1.2727	5.e-002	-6.3194e-007
11216	12.75	1.	0.	6.8804e-003
11217	12.658	1.0909	0.	7.3816e-003
11218	12.75	1.0909	5.e-002	-6.0662e-007
11219	12.75	0.81818	0.	3.4381e-003
11220	12.658	0.90909	0.	5.1988e-003
11221	12.75	0.90909	5.e-002	-2.5345e-008
11222	12.75	0.63636	0.	-5.2641e-004
11223	12.658	0.72727	0.	6.1163e-004
11224	12.75	0.72727	5.e-002	4.1388e-007
11225	12.75	0.45455	0.	-1.6035e-002
11226	12.658	0.54545	0.	-2.6471e-003
11227	12.75	0.54545	5.e-002	6.111e-007
11228	12.75	0.27273	0.	-2.1375e-002
11229	12.658	0.36364	0.	-2.8521e-002
11230	12.75	0.36364	5.e-002	1.5524e-006
11231	12.658	0.18182	0.	-6.7794e-003
11232	12.75	0.18182	5.e-002	3.2087e-005
11233	12.75	9.0909e-002	0.	-4.0055e-003
11234	12.565	5.7273	0.	-1.8284e-002
11235	12.473	5.8182	0.	-4.8311e-003
11236	12.565	5.8182	5.e-002	-2.1419e-005
11237	12.565	5.9091	0.	-3.6789e-003
11238	12.565	5.5455	0.	-1.4408e-002
11239	12.473	5.6364	0.	-2.4927e-002
11240	12.565	5.6364	5.e-002	3.3228e-006
11241	12.565	5.3636	0.	-9.9615e-004
11242	12.473	5.4545	0.	-2.855e-003
11243	12.565	5.4545	5.e-002	4.6835e-006
11244	12.565	5.1818	0.	2.6476e-003
11245	12.473	5.2727	0.	1.2958e-004
11246	12.565	5.2727	5.e-002	3.1313e-006
11247	12.565	5.	0.	5.8547e-003
11248	12.473	5.0909	0.	4.2764e-003
11249	12.565	5.0909	5.e-002	3.4968e-006
11250	12.565	4.8182	0.	7.5992e-003
11251	12.473	4.9091	0.	6.4016e-003
11252	12.565	4.9091	5.e-002	2.9796e-006
11253	12.565	4.6364	0.	8.5848e-003
11254	12.473	4.7273	0.	7.7835e-003
11255	12.565	4.7273	5.e-002	1.682e-006
11256	12.565	4.4545	0.	8.9731e-003
11257	12.473	4.5455	0.	8.4568e-003
11258	12.565	4.5455	5.e-002	3.229e-006
11259	12.565	4.2727	0.	8.9696e-003
11260	12.473	4.3636	0.	8.6743e-003
11261	12.565	4.3636	5.e-002	1.4679e-006
11262	12.565	4.0909	0.	8.725e-003
11263	12.473	4.1818	0.	8.5844e-003
11264	12.565	4.1818	5.e-002	9.7937e-007
11265	12.565	3.9091	0.	8.3628e-003
11266	12.473	4.	0.	8.3173e-003
11267	12.565	4.	5.e-002	1.3182e-006
11268	12.565	3.7273	0.	7.9774e-003
11269	12.473	3.8182	0.	7.975e-003
11270	12.565	3.8182	5.e-002	7.9418e-007
11271	12.565	3.5455	0.	7.6341e-003
11272	12.473	3.6364	0.	7.6349e-003
11273	12.565	3.6364	5.e-002	1.8453e-006
11274	12.565	3.3636	0.	7.3718e-003
11275	12.473	3.4545	0.	7.3498e-003
11276	12.565	3.4545	5.e-002	1.5026e-006
11277	12.565	3.1818	0.	7.2095e-003
11278	12.473	3.2727	0.	7.1472e-003
11279	12.565	3.2727	5.e-002	5.3995e-007
11280	12.565	3.	0.	7.1547e-003
11281	12.473	3.0909	0.	7.0428e-003
11282	12.565	3.0909	5.e-002	8.0942e-007
11283	12.565	2.8182	0.	7.2095e-003
11284	12.473	2.9091	0.	7.0429e-003
11285	12.565	2.9091	5.e-002	1.0982e-006
11286	12.565	2.6364	0.	7.3723e-003
11287	12.473	2.7273	0.	7.1471e-003
11288	12.565	2.7273	5.e-002	4.1552e-007
11289	12.565	2.4545	0.	7.6345e-003
11290	12.473	2.5455	0.	7.35e-003
11291	12.565	2.5455	5.e-002	1.7179e-007
11292	12.565	2.2727	0.	7.9777e-003
11293	12.473	2.3636	0.	7.6353e-003
11294	12.565	2.3636	5.e-002	-1.4796e-007
11295	12.565	2.0909	0.	8.3632e-003
11296	12.473	2.1818	0.	7.9756e-003
11297	12.565	2.1818	5.e-002	-5.1691e-007
11298	12.565	1.9091	0.	8.7251e-003
11299	12.473	2.	0.	8.3175e-003
11300	12.565	2.	5.e-002	-7.8765e-007
11301	12.565	1.7273	0.	8.9699e-003
11302	12.473	1.8182	0.	8.5844e-003
11303	12.565	1.8182	5.e-002	-5.0091e-007
11304	12.565	1.5455	0.	8.9737e-003
11305	12.473	1.6364	0.	8.6751e-003
11306	12.565	1.6364	5.e-002	-4.9961e-007
11307	12.565	1.3636	0.	8.5848e-003
11308	12.473	1.4545	0.	8.4574e-003
11309	12.565	1.4545	5.e-002	-5.9654e-007
11310	12.565	1.1818	0.	7.6e-003
11311	12.473	1.2727	0.	7.7841e-003
11312	12.565	1.2727	5.e-002	-4.8992e-007
11313	12.565	1.	0.	5.856e-003
11314	12.473	1.0909	0.	6.4023e-003
11315	12.565	1.0909	5.e-002	-8.9493e-008
11316	12.565	0.81818	0.	2.6491e-003
11317	12.473	0.90909	0.	4.2776e-003
11318	12.565	0.90909	5.e-002	-1.3975e-007
11319	12.565	0.63636	0.	-9.9529e-004
11320	12.473	0.72727	0.	1.3125e-004
11321	12.565	0.72727	5.e-002	7.9687e-007
11322	12.565	0.45455	0.	-1.4408e-002
11323	12.473	0.54545	0.	-2.8546e-003
11324	12.565	0.54545	5.e-002	9.884e-007
11325	12.565	0.27273	0.	-1.8284e-002
11326	12.473	0.36364	0.	-2.4927e-002
11327	12.565	0.36364	5.e-002	3.4649e-006
11328	12.473	0.18182	0.	-4.8305e-003
11329	12.565	0.18182	5.e-002	3.3263e-005
11330	12.565	9.0909e-002	0.	-3.6772e-003
11331	12.38	5.7273	0.	-1.5597e-002
11332	12.288	5.8182	0.	-3.4171e-003
11333	12.38	5.8182	5.e-002	-3.0745e-005
11334	12.38	5.9091	0.	-3.3493e-003
11335	12.38	5.5455	0.	-1.2861e-002
11336	12.288	5.6364	0.	-2.1656e-002
11337	12.38	5.6364	5.e-002	3.8941e-006
11338	12.38	5.3636	0.	-1.3189e-003
11339	12.288	5.4545	0.	-2.9395e-003
11340	12.38	5.4545	5.e-002	4.6871e-006
11341	12.38	5.1818	0.	2.0084e-003
11342	12.288	5.2727	0.	-2.2574e-004
11343	12.38	5.2727	5.e-002	2.8556e-006
11344	12.38	5.	0.	4.9769e-003
11345	12.288	5.0909	0.	3.5228e-003
11346	12.38	5.0909	5.e-002	2.9814e-006
11347	12.38	4.8182	0.	6.6799e-003
11348	12.288	4.9091	0.	5.5485e-003
11349	12.38	4.9091	5.e-002	2.4872e-006
11350	12.38	4.6364	0.	7.708e-003
11351	12.288	4.7273	0.	6.9178e-003
11352	12.38	4.7273	5.e-002	1.7187e-006
11353	12.38	4.4545	0.	8.1879e-003
11354	12.288	4.5455	0.	7.6539e-003
11355	12.38	4.5455	5.e-002	2.6254e-006
11356	12.38	4.2727	0.	8.3021e-003
11357	12.288	4.3636	0.	7.9696e-003
11358	12.38	4.3636	5.e-002	1.1568e-006
11359	12.38	4.0909	0.	8.1788e-003
11360	12.288	4.1818	0.	7.9916e-003
11361	12.38	4.1818	5.e-002	4.7072e-007
11362	12.38	3.9091	0.	7.9257e-003
11363	12.288	4.	0.	7.8344e-003
11364	12.38	4.	5.e-002	1.0647e-006
11365	12.38	3.7273	0.	7.6268e-003
11366	12.288	3.8182	0.	7.5866e-003
11367	12.38	3.8182	5.e-002	1.0032e-006
11368	12.38	3.5455	0.	7.3458e-003
11369	12.288	3.6364	0.	7.3201e-003
11370	12.38	3.6364	5.e-002	2.2351e-006
11371	12.38	3.3636	0.	7.1227e-003
11372	12.288	3.4545	0.	7.086e-003
11373	12.38	3.4545	5.e-002	1.4052e-006
11374	12.38	3.1818	0.	6.9804e-003
11375	12.288	3.2727	0.	6.914e-003
11376	12.38	3.2727	5.e-002	8.6667e-007
11377	12.38	3.	0.	6.9319e-003
11378	12.288	3.0909	0.	6.8234e-003
11379	12.38	3.0909	5.e-002	1.079e-006
11380	12.38	2.8182	0.	6.9804e-003
11381	12.288	2.9091	0.	6.824e-003
11382	12.38	2.9091	5.e-002	1.0668e-006
11383	12.38	2.6364	0.	7.1223e-003
11384	12.288	2.7273	0.	6.9139e-003
11385	12.38	2.7273	5.e-002	1.279e-006
11386	12.38	2.4545	0.	7.3459e-003
11387	12.288	2.5455	0.	7.0858e-003
11388	12.38	2.5455	5.e-002	7.4216e-007
11389	12.38	2.2727	0.	7.6275e-003
11390	12.288	2.3636	0.	7.3204e-003
11391	12.38	2.3636	5.e-002	3.9101e-007
11392	12.38	2.0909	0.	7.9261e-003
11393	12.288	2.1818	0.	7.5872e-003
11394	12.38	2.1818	5.e-002	-6.1264e-008
11395	12.38	1.9091	0.	8.1789e-003
11396	12.288	2.	0.	7.8345e-003
11397	12.38	2.	5.e-002	-6.7044e-008
11398	12.38	1.7273	0.	8.3026e-003
11399	12.288	1.8182	0.	7.9917e-003
11400	12.38	1.8182	5.e-002	3.0126e-008
11401	12.38	1.5455	0.	8.1887e-003
11402	12.288	1.6364	0.	7.9702e-003
11403	12.38	1.6364	5.e-002	3.5277e-008
11404	12.38	1.3636	0.	7.7087e-003
11405	12.288	1.4545	0.	7.6547e-003
11406	12.38	1.4545	5.e-002	-2.4119e-007
11407	12.38	1.1818	0.	6.6805e-003
11408	12.288	1.2727	0.	6.9183e-003
11409	12.38	1.2727	5.e-002	-6.3185e-008
11410	12.38	1.	0.	4.9776e-003
11411	12.288	1.0909	0.	5.5491e-003
11412	12.38	1.0909	5.e-002	-2.8074e-007
11413	12.38	0.81818	0.	2.0098e-003
11414	12.288	0.90909	0.	3.5239e-003
11415	12.38	0.90909	5.e-002	3.1005e-007
11416	12.38	0.63636	0.	-1.3177e-003
11417	12.288	0.72727	0.	-2.2395e-004
11418	12.38	0.72727	5.e-002	1.5558e-006
11419	12.38	0.45455	0.	-1.2861e-002
11420	12.288	0.54545	0.	-2.9391e-003
11421	12.38	0.54545	5.e-002	1.3212e-006
11422	12.38	0.27273	0.	-1.5596e-002
11423	12.288	0.36364	0.	-2.1655e-002
11424	12.38	0.36364	5.e-002	2.5589e-006
11425	12.288	0.18182	0.	-3.4171e-003
11426	12.38	0.18182	5.e-002	2.6038e-005
11427	12.38	9.0909e-002	0.	-3.3499e-003
11428	12.196	5.7273	0.	-1.3255e-002
11429	12.103	5.8182	0.	-2.4332e-003
11430	12.196	5.8182	5.e-002	-2.3092e-005
11431	12.196	5.9091	0.	-3.0267e-003
11432	12.196	5.5455	0.	-1.1391e-002
11433	12.103	5.6364	0.	-1.8662e-002
11434	12.196	5.6364	5.e-002	3.5442e-006
11435	12.196	5.3636	0.	-1.5258e-003
11436	12.103	5.4545	0.	-2.9306e-003
11437	12.196	5.4545	5.e-002	4.5773e-006
11438	12.196	5.1818	0.	1.4921e-003
11439	12.103	5.2727	0.	-4.8154e-004
11440	12.196	5.2727	5.e-002	2.8574e-006
11441	12.196	5.	0.	4.2227e-003
11442	12.103	5.0909	0.	2.8846e-003
11443	12.196	5.0909	5.e-002	2.8144e-006
11444	12.196	4.8182	0.	5.8668e-003
11445	12.103	4.9091	0.	4.7992e-003
11446	12.196	4.9091	5.e-002	2.7748e-006
11447	12.196	4.6364	0.	6.9126e-003
11448	12.103	4.7273	0.	6.1387e-003
11449	12.196	4.7273	5.e-002	1.3686e-006
11450	12.196	4.4545	0.	7.4634e-003
11451	12.103	4.5455	0.	6.916e-003
11452	12.196	4.5455	5.e-002	2.5673e-006
11453	12.196	4.2727	0.	7.673e-003
11454	12.103	4.3636	0.	7.3082e-003
11455	12.196	4.3636	5.e-002	1.1633e-006
11456	12.196	4.0909	0.	7.6521e-003
11457	12.103	4.1818	0.	7.4235e-003
11458	12.196	4.1818	5.e-002	9.8606e-007
11459	12.196	3.9091	0.	7.495e-003
11460	12.103	4.	0.	7.3607e-003
11461	12.196	4.	5.e-002	7.5613e-007
11462	12.196	3.7273	0.	7.2774e-003
11463	12.103	3.8182	0.	7.198e-003
11464	12.196	3.8182	5.e-002	1.1791e-006
11465	12.196	3.5455	0.	7.0578e-003
11466	12.103	3.6364	0.	7.0011e-003
11467	12.196	3.6364	5.e-002	2.048e-006
11468	12.196	3.3636	0.	6.8759e-003
11469	12.103	3.4545	0.	6.8174e-003
11470	12.196	3.4545	5.e-002	1.5362e-006
11471	12.196	3.1818	0.	6.7568e-003
11472	12.103	3.2727	0.	6.6781e-003
11473	12.196	3.2727	5.e-002	8.2954e-007
11474	12.196	3.	0.	6.7157e-003
11475	12.103	3.0909	0.	6.6032e-003
11476	12.196	3.0909	5.e-002	1.4645e-006
11477	12.196	2.8182	0.	6.7573e-003
11478	12.103	2.9091	0.	6.6035e-003
11479	12.196	2.9091	5.e-002	1.6352e-006
11480	12.196	2.6364	0.	6.8759e-003
11481	12.103	2.7273	0.	6.6782e-003
11482	12.196	2.7273	5.e-002	1.3194e-006
11483	12.196	2.4545	0.	7.0577e-003
11484	12.103	2.5455	0.	6.8175e-003
11485	12.196	2.5455	5.e-002	1.0928e-006
11486	12.196	2.2727	0.	7.2776e-003
11487	12.103	2.3636	0.	7.0011e-003
11488	12.196	2.3636	5.e-002	1.308e-006
11489	12.196	2.0909	0.	7.4953e-003
11490	12.103	2.1818	0.	7.1982e-003
11491	12.196	2.1818	5.e-002	7.367e-007
11492	12.196	1.9091	0.	7.6522e-003
11493	12.103	2.	0.	7.3608e-003
11494	12.196	2.	5.e-002	8.0742e-007
11495	12.196	1.7273	0.	7.6732e-003
11496	12.103	1.8182	0.	7.4238e-003
11497	12.196	1.8182	5.e-002	6.8772e-007
11498	12.196	1.5455	0.	7.4641e-003
11499	12.103	1.6364	0.	7.3085e-003
11500	12.196	1.6364	5.e-002	5.0562e-007
11501	12.196	1.3636	0.	6.9133e-003
11502	12.103	1.4545	0.	6.9167e-003
11503	12.196	1.4545	5.e-002	7.7051e-007
11504	12.196	1.1818	0.	5.8673e-003
11505	12.103	1.2727	0.	6.1391e-003
11506	12.196	1.2727	5.e-002	7.7704e-007
11507	12.196	1.	0.	4.2238e-003
11508	12.103	1.0909	0.	4.7994e-003
11509	12.196	1.0909	5.e-002	8.008e-007
11510	12.196	0.81818	0.	1.4937e-003
11511	12.103	0.90909	0.	2.8862e-003
11512	12.196	0.90909	5.e-002	5.9002e-007
11513	12.196	0.63636	0.	-1.5248e-003
11514	12.103	0.72727	0.	-4.8014e-004
11515	12.196	0.72727	5.e-002	2.0198e-006
11516	12.196	0.45455	0.	-1.1391e-002
11517	12.103	0.54545	0.	-2.9298e-003
11518	12.196	0.54545	5.e-002	2.5236e-006
11519	12.196	0.27273	0.	-1.3255e-002
11520	12.103	0.36364	0.	-1.8663e-002
11521	12.196	0.36364	5.e-002	2.4799e-006
11522	12.103	0.18182	0.	-2.4328e-003
11523	12.196	0.18182	5.e-002	2.2195e-005
11524	12.196	9.0909e-002	0.	-3.025e-003
11525	12.011	5.7273	0.	-1.1212e-002
11526	11.918	5.8182	0.	-1.8012e-003
11527	12.011	5.8182	5.e-002	-1.8757e-005
11528	12.011	5.9091	0.	-2.7193e-003
11529	12.011	5.5455	0.	-9.9929e-003
11530	11.918	5.6364	0.	-1.5908e-002
11531	12.011	5.6364	5.e-002	2.6763e-006
11532	12.011	5.3636	0.	-1.6442e-003
11533	11.918	5.4545	0.	-2.8541e-003
11534	12.011	5.4545	5.e-002	3.7923e-006
11535	12.011	5.1818	0.	1.0715e-003
11536	11.918	5.2727	0.	-6.6374e-004
11537	12.011	5.2727	5.e-002	2.1542e-006
11538	12.011	5.	0.	3.565e-003
11539	11.918	5.0909	0.	2.333e-003
11540	12.011	5.0909	5.e-002	2.1798e-006
11541	12.011	4.8182	0.	5.1373e-003
11542	11.918	4.9091	0.	4.1262e-003
11543	12.011	4.9091	5.e-002	1.6392e-006
11544	12.011	4.6364	0.	6.1833e-003
11545	11.918	4.7273	0.	5.4224e-003
11546	12.011	4.7273	5.e-002	1.2257e-006
11547	12.011	4.4545	0.	6.7851e-003
11548	11.918	4.5455	0.	6.2238e-003
11549	12.011	4.5455	5.e-002	2.1013e-006
11550	12.011	4.2727	0.	7.0718e-003
11551	11.918	4.3636	0.	6.6756e-003
11552	12.011	4.3636	5.e-002	3.8352e-007
11553	12.011	4.0909	0.	7.1381e-003
11554	11.918	4.1818	0.	6.8686e-003
11555	12.011	4.1818	5.e-002	3.5752e-007
11556	12.011	3.9091	0.	7.0656e-003
11557	11.918	4.	0.	6.8879e-003
11558	12.011	4.	5.e-002	1.433e-007
11559	12.011	3.7273	0.	6.9215e-003
11560	11.918	3.8182	0.	6.8013e-003
11561	12.011	3.8182	5.e-002	8.3003e-007
11562	12.011	3.5455	0.	6.7601e-003
11563	11.918	3.6364	0.	6.668e-003
11564	12.011	3.6364	5.e-002	1.4334e-006
11565	12.011	3.3636	0.	6.6194e-003
11566	11.918	3.4545	0.	6.5329e-003
11567	12.011	3.4545	5.e-002	1.3797e-006
11568	12.011	3.1818	0.	6.525e-003
11569	11.918	3.2727	0.	6.4256e-003
11570	12.011	3.2727	5.e-002	5.2429e-007
11571	12.011	3.	0.	6.4916e-003
11572	11.918	3.0909	0.	6.367e-003
11573	12.011	3.0909	5.e-002	1.0063e-006
11574	12.011	2.8182	0.	6.5248e-003
11575	11.918	2.9091	0.	6.367e-003
11576	12.011	2.9091	5.e-002	1.4968e-006
11577	12.011	2.6364	0.	6.6197e-003
11578	11.918	2.7273	0.	6.4258e-003
11579	12.011	2.7273	5.e-002	1.5022e-006
11580	12.011	2.4545	0.	6.7604e-003
11581	11.918	2.5455	0.	6.5332e-003
11582	12.011	2.5455	5.e-002	1.2454e-006
11583	12.011	2.2727	0.	6.9215e-003
11584	11.918	2.3636	0.	6.6683e-003
11585	12.011	2.3636	5.e-002	1.1878e-006
11586	12.011	2.0909	0.	7.0655e-003
11587	11.918	2.1818	0.	6.8014e-003
11588	12.011	2.1818	5.e-002	7.3447e-007
11589	12.011	1.9091	0.	7.1384e-003
11590	11.918	2.	0.	6.8879e-003
11591	12.011	2.	5.e-002	6.924e-007
11592	12.011	1.7273	0.	7.0723e-003
11593	11.918	1.8182	0.	6.8692e-003
11594	12.011	1.8182	5.e-002	8.2999e-007
11595	12.011	1.5455	0.	6.7854e-003
11596	11.918	1.6364	0.	6.6761e-003
11597	12.011	1.6364	5.e-002	6.8962e-007
11598	12.011	1.3636	0.	6.1835e-003
11599	11.918	1.4545	0.	6.2245e-003
11600	12.011	1.4545	5.e-002	6.3736e-007
11601	12.011	1.1818	0.	5.1374e-003
11602	11.918	1.2727	0.	5.4227e-003
11603	12.011	1.2727	5.e-002	1.0405e-006
11604	12.011	1.	0.	3.5656e-003
11605	11.918	1.0909	0.	4.1265e-003
11606	12.011	1.0909	5.e-002	7.446e-007
11607	12.011	0.81818	0.	1.0729e-003
11608	11.918	0.90909	0.	2.3345e-003
11609	12.011	0.90909	5.e-002	1.013e-006
11610	12.011	0.63636	0.	-1.6429e-003
11611	11.918	0.72727	0.	-6.6251e-004
11612	12.011	0.72727	5.e-002	1.6796e-006
11613	12.011	0.45455	0.	-9.9926e-003
11614	11.918	0.54545	0.	-2.8533e-003
11615	12.011	0.54545	5.e-002	2.2877e-006
11616	12.011	0.27273	0.	-1.1212e-002
11617	11.918	0.36364	0.	-1.5908e-002
11618	12.011	0.36364	5.e-002	2.1803e-006
11619	11.918	0.18182	0.	-1.8006e-003
11620	12.011	0.18182	5.e-002	3.1205e-005
11621	12.011	9.0909e-002	0.	-2.7187e-003
11622	11.826	5.7273	0.	-9.4274e-003
11623	11.734	5.8182	0.	-1.4381e-003
11624	11.826	5.8182	5.e-002	-1.6477e-005
11625	11.826	5.9091	0.	-2.4408e-003
11626	11.826	5.5455	0.	-8.664e-003
11627	11.734	5.6364	0.	-1.3329e-002
11628	11.826	5.6364	5.e-002	2.7018e-006
11629	11.826	5.3636	0.	-1.7004e-003
11630	11.734	5.4545	0.	-2.7051e-003
11631	11.826	5.4545	5.e-002	3.5612e-006
11632	11.826	5.1818	0.	7.1769e-004
11633	11.734	5.2727	0.	-7.7003e-004
11634	11.826	5.2727	5.e-002	2.2245e-006
11635	11.826	5.	0.	2.973e-003
11636	11.734	5.0909	0.	1.8655e-003
11637	11.826	5.0909	5.e-002	2.1527e-006
11638	11.826	4.8182	0.	4.4615e-003
11639	11.734	4.9091	0.	3.5264e-003
11640	11.826	4.9091	5.e-002	1.7773e-006
11641	11.826	4.6364	0.	5.494e-003
11642	11.734	4.7273	0.	4.7671e-003
11643	11.826	4.7273	5.e-002	8.0479e-007
11644	11.826	4.4545	0.	6.1327e-003
11645	11.734	4.5455	0.	5.58e-003
11646	11.826	4.5455	5.e-002	1.7266e-006
11647	11.826	4.2727	0.	6.4825e-003
11648	11.734	4.3636	0.	6.0783e-003
11649	11.826	4.3636	5.e-002	3.9762e-007
11650	11.826	4.0909	0.	6.6235e-003
11651	11.734	4.1818	0.	6.3378e-003
11652	11.826	4.1818	5.e-002	5.2504e-007
11653	11.826	3.9091	0.	6.626e-003
11654	11.734	4.	0.	6.4293e-003
11655	11.826	4.	5.e-002	5.6554e-007
11656	11.826	3.7273	0.	6.5489e-003
11657	11.734	3.8182	0.	6.4118e-003
11658	11.826	3.8182	5.e-002	8.9104e-007
11659	11.826	3.5455	0.	6.4417e-003
11660	11.734	3.6364	0.	6.338e-003
11661	11.826	3.6364	5.e-002	1.7349e-006
11662	11.826	3.3636	0.	6.3403e-003
11663	11.734	3.4545	0.	6.2493e-003
11664	11.826	3.4545	5.e-002	1.312e-006
11665	11.826	3.1818	0.	6.2693e-003
11666	11.734	3.2727	0.	6.1725e-003
11667	11.826	3.2727	5.e-002	7.9649e-007
11668	11.826	3.	0.	6.2442e-003
11669	11.734	3.0909	0.	6.1295e-003
11670	11.826	3.0909	5.e-002	1.3757e-006
11671	11.826	2.8182	0.	6.2696e-003
11672	11.734	2.9091	0.	6.1298e-003
11673	11.826	2.9091	5.e-002	1.8431e-006
11674	11.826	2.6364	0.	6.3405e-003
11675	11.734	2.7273	0.	6.1728e-003
11676	11.826	2.7273	5.e-002	1.5884e-006
11677	11.826	2.4545	0.	6.442e-003
11678	11.734	2.5455	0.	6.2493e-003
11679	11.826	2.5455	5.e-002	1.4345e-006
11680	11.826	2.2727	0.	6.5493e-003
11681	11.734	2.3636	0.	6.3383e-003
11682	11.826	2.3636	5.e-002	1.4888e-006
11683	11.826	2.0909	0.	6.6261e-003
11684	11.734	2.1818	0.	6.4123e-003
11685	11.826	2.1818	5.e-002	1.2611e-006
11686	11.826	1.9091	0.	6.6237e-003
11687	11.734	2.	0.	6.4295e-003
11688	11.826	2.	5.e-002	9.8918e-007
11689	11.826	1.7273	0.	6.4831e-003
11690	11.734	1.8182	0.	6.3381e-003
11691	11.826	1.8182	5.e-002	1.2673e-006
11692	11.826	1.5455	0.	6.1336e-003
11693	11.734	1.6364	0.	6.0789e-003
11694	11.826	1.6364	5.e-002	1.3941e-006
11695	11.826	1.3636	0.	5.4948e-003
11696	11.734	1.4545	0.	5.5805e-003
11697	11.826	1.4545	5.e-002	1.4919e-006
11698	11.826	1.1818	0.	4.4622e-003
11699	11.734	1.2727	0.	4.7677e-003
11700	11.826	1.2727	5.e-002	1.3409e-006
11701	11.826	1.	0.	2.9742e-003
11702	11.734	1.0909	0.	3.527e-003
11703	11.826	1.0909	5.e-002	1.6794e-006
11704	11.826	0.81818	0.	7.1907e-004
11705	11.734	0.90909	0.	1.8667e-003
11706	11.826	0.90909	5.e-002	1.6851e-006
11707	11.826	0.63636	0.	-1.6997e-003
11708	11.734	0.72727	0.	-7.6885e-004
11709	11.826	0.72727	5.e-002	1.7469e-006
11710	11.826	0.45455	0.	-8.6638e-003
11711	11.734	0.54545	0.	-2.7045e-003
11712	11.826	0.54545	5.e-002	1.6804e-006
11713	11.826	0.27273	0.	-9.4269e-003
11714	11.734	0.36364	0.	-1.3328e-002
11715	11.826	0.36364	5.e-002	1.8483e-006
11716	11.734	0.18182	0.	-1.4373e-003
11717	11.826	0.18182	5.e-002	1.7055e-005
11718	11.826	9.0909e-002	0.	-2.4402e-003
11719	11.641	5.7273	0.	-7.8135e-003
11720	11.549	5.8182	0.	-1.2934e-003
11721	11.641	5.8182	5.e-002	-1.1384e-005
11722	11.641	5.9091	0.	-2.1501e-003
11723	11.641	5.5455	0.	-7.344e-003
11724	11.549	5.6364	0.	-1.0881e-002
11725	11.641	5.6364	5.e-002	2.4264e-006
11726	11.641	5.3636	0.	-1.6625e-003
11727	11.549	5.4545	0.	-2.4901e-003
11728	11.641	5.4545	5.e-002	3.1854e-006
11729	11.641	5.1818	0.	4.5818e-004
11730	11.549	5.2727	0.	-8.1311e-004
11731	11.641	5.2727	5.e-002	1.6955e-006
11732	11.641	5.	0.	2.4706e-003
11733	11.549	5.0909	0.	1.4594e-003
11734	11.641	5.0909	5.e-002	1.996e-006
11735	11.641	4.8182	0.	3.8629e-003
11736	11.549	4.9091	0.	2.9738e-003
11737	11.641	4.9091	5.e-002	1.4311e-006
11738	11.641	4.6364	0.	4.8699e-003
11739	11.549	4.7273	0.	4.1457e-003
11740	11.641	4.7273	5.e-002	4.9529e-007
11741	11.641	4.4545	0.	5.5336e-003
11742	11.549	4.5455	0.	4.9576e-003
11743	11.641	4.5455	5.e-002	1.6233e-006
11744	11.641	4.2727	0.	5.9365e-003
11745	11.549	4.3636	0.	5.4932e-003
11746	11.641	4.3636	5.e-002	4.9788e-007
11747	11.641	4.0909	0.	6.1441e-003
11748	11.549	4.1818	0.	5.8126e-003
11749	11.641	4.1818	5.e-002	1.7128e-007
11750	11.641	3.9091	0.	6.2151e-003
11751	11.549	4.	0.	5.9724e-003
11752	11.641	4.	5.e-002	2.3286e-007
11753	11.641	3.7273	0.	6.2013e-003
11754	11.549	3.8182	0.	6.0218e-003
11755	11.641	3.8182	5.e-002	6.2236e-007
11756	11.641	3.5455	0.	6.1469e-003
11757	11.549	3.6364	0.	6.0075e-003
11758	11.641	3.6364	5.e-002	1.5343e-006
11759	11.641	3.3636	0.	6.0838e-003
11760	11.549	3.4545	0.	5.9652e-003
11761	11.641	3.4545	5.e-002	1.5806e-006
11762	11.641	3.1818	0.	6.0357e-003
11763	11.549	3.2727	0.	5.9201e-003
11764	11.641	3.2727	5.e-002	9.9652e-007
11765	11.641	3.	0.	6.0184e-003
11766	11.549	3.0909	0.	5.893e-003
11767	11.641	3.0909	5.e-002	1.5619e-006
11768	11.641	2.8182	0.	6.0361e-003
11769	11.549	2.9091	0.	5.8931e-003
11770	11.641	2.9091	5.e-002	2.0144e-006
11771	11.641	2.6364	0.	6.084e-003
11772	11.549	2.7273	0.	5.9204e-003
11773	11.641	2.7273	5.e-002	1.8055e-006
11774	11.641	2.4545	0.	6.1469e-003
11775	11.549	2.5455	0.	5.9654e-003
11776	11.641	2.5455	5.e-002	1.7577e-006
11777	11.641	2.2727	0.	6.2016e-003
11778	11.549	2.3636	0.	6.0075e-003
11779	11.641	2.3636	5.e-002	1.7439e-006
11780	11.641	2.0909	0.	6.2155e-003
11781	11.549	2.1818	0.	6.0224e-003
11782	11.641	2.1818	5.e-002	1.6475e-006
11783	11.641	1.9091	0.	6.1443e-003
11784	11.549	2.	0.	5.9727e-003
11785	11.641	2.	5.e-002	1.5531e-006
11786	11.641	1.7273	0.	5.9367e-003
11787	11.549	1.8182	0.	5.8127e-003
11788	11.641	1.8182	5.e-002	1.6755e-006
11789	11.641	1.5455	0.	5.5336e-003
11790	11.549	1.6364	0.	5.4936e-003
11791	11.641	1.6364	5.e-002	1.767e-006
11792	11.641	1.3636	0.	4.8702e-003
11793	11.549	1.4545	0.	4.9577e-003
11794	11.641	1.4545	5.e-002	1.8337e-006
11795	11.641	1.1818	0.	3.8634e-003
11796	11.549	1.2727	0.	4.1464e-003
11797	11.641	1.2727	5.e-002	1.7101e-006
11798	11.641	1.	0.	2.4712e-003
11799	11.549	1.0909	0.	2.9743e-003
11800	11.641	1.0909	5.e-002	1.9371e-006
11801	11.641	0.81818	0.	4.5919e-004
11802	11.549	0.90909	0.	1.4608e-003
11803	11.641	0.90909	5.e-002	1.2818e-006
11804	11.641	0.63636	0.	-1.6614e-003
11805	11.549	0.72727	0.	-8.1147e-004
11806	11.641	0.72727	5.e-002	1.6939e-006
11807	11.641	0.45455	0.	-7.3432e-003
11808	11.549	0.54545	0.	-2.4899e-003
11809	11.641	0.54545	5.e-002	2.2363e-006
11810	11.641	0.27273	0.	-7.8129e-003
11811	11.549	0.36364	0.	-1.088e-002
11812	11.641	0.36364	5.e-002	2.7589e-006
11813	11.549	0.18182	0.	-1.2931e-003
11814	11.641	0.18182	5.e-002	2.0671e-005
11815	11.641	9.0909e-002	0.	-2.1494e-003
11816	11.457	5.7273	0.	-6.3749e-003
11817	11.364	5.8182	0.	-1.3554e-003
11818	11.457	5.8182	5.e-002	-7.4234e-006
11819	11.457	5.9091	0.	-1.8908e-003
11820	11.457	5.5455	0.	-6.0575e-003
11821	11.364	5.6364	0.	-8.5451e-003
11822	11.457	5.6364	5.e-002	2.3621e-006
11823	11.457	5.3636	0.	-1.5824e-003
11824	11.364	5.4545	0.	-2.2357e-003
11825	11.457	5.4545	5.e-002	2.8882e-006
11826	11.457	5.1818	0.	2.2822e-004
11827	11.364	5.2727	0.	-8.2934e-004
11828	11.457	5.2727	5.e-002	1.2e-006
11829	11.457	5.	0.	1.982e-003
11830	11.364	5.0909	0.	1.0608e-003
11831	11.457	5.0909	5.e-002	1.1436e-006
11832	11.457	4.8182	0.	3.26e-003
11833	11.364	4.9091	0.	2.4014e-003
11834	11.457	4.9091	5.e-002	7.9572e-007
11835	11.457	4.6364	0.	4.2261e-003
11836	11.364	4.7273	0.	3.4806e-003
11837	11.457	4.7273	5.e-002	4.5553e-008
11838	11.457	4.4545	0.	4.9039e-003
11839	11.364	4.5455	0.	4.2738e-003
11840	11.457	4.5455	5.e-002	9.0359e-007
11841	11.457	4.2727	0.	5.3541e-003
11842	11.364	4.3636	0.	4.8376e-003
11843	11.457	4.3636	5.e-002	-3.2252e-007
11844	11.457	4.0909	0.	5.6269e-003
11845	11.364	4.1818	0.	5.2147e-003
11846	11.457	4.1818	5.e-002	-2.0235e-007
11847	11.457	3.9091	0.	5.7683e-003
11848	11.364	4.	0.	5.447e-003
11849	11.457	4.	5.e-002	-4.2734e-008
11850	11.457	3.7273	0.	5.8215e-003
11851	11.364	3.8182	0.	5.5728e-003
11852	11.457	3.8182	5.e-002	1.8468e-007
11853	11.457	3.5455	0.	5.8238e-003
11854	11.364	3.6364	0.	5.6295e-003
11855	11.457	3.6364	5.e-002	1.255e-006
11856	11.457	3.3636	0.	5.8034e-003
11857	11.364	3.4545	0.	5.6464e-003
11858	11.457	3.4545	5.e-002	9.972e-007
11859	11.457	3.1818	0.	5.7819e-003
11860	11.364	3.2727	0.	5.6439e-003
11861	11.457	3.2727	5.e-002	5.8863e-007
11862	11.457	3.	0.	5.7732e-003
11863	11.364	3.0909	0.	5.6387e-003
11864	11.457	3.0909	5.e-002	1.1781e-006
11865	11.457	2.8182	0.	5.7821e-003
11866	11.364	2.9091	0.	5.6384e-003
11867	11.457	2.9091	5.e-002	1.7427e-006
11868	11.457	2.6364	0.	5.8038e-003
11869	11.364	2.7273	0.	5.6441e-003
11870	11.457	2.7273	5.e-002	1.7955e-006
11871	11.457	2.4545	0.	5.8241e-003
11872	11.364	2.5455	0.	5.6467e-003
11873	11.457	2.5455	5.e-002	1.4781e-006
11874	11.457	2.2727	0.	5.8219e-003
11875	11.364	2.3636	0.	5.63e-003
11876	11.457	2.3636	5.e-002	1.6538e-006
11877	11.457	2.0909	0.	5.7688e-003
11878	11.364	2.1818	0.	5.5735e-003
11879	11.457	2.1818	5.e-002	1.394e-006
11880	11.457	1.9091	0.	5.6271e-003
11881	11.364	2.	0.	5.4474e-003
11882	11.457	2.	5.e-002	1.478e-006
11883	11.457	1.7273	0.	5.3545e-003
11884	11.364	1.8182	0.	5.2148e-003
11885	11.457	1.8182	5.e-002	1.671e-006
11886	11.457	1.5455	0.	4.9044e-003
11887	11.364	1.6364	0.	4.8385e-003
11888	11.457	1.6364	5.e-002	1.5146e-006
11889	11.457	1.3636	0.	4.2265e-003
11890	11.364	1.4545	0.	4.2744e-003
11891	11.457	1.4545	5.e-002	1.632e-006
11892	11.457	1.1818	0.	3.2606e-003
11893	11.364	1.2727	0.	3.4812e-003
11894	11.457	1.2727	5.e-002	1.7724e-006
11895	11.457	1.	0.	1.9833e-003
11896	11.364	1.0909	0.	2.4018e-003
11897	11.457	1.0909	5.e-002	1.7538e-006
11898	11.457	0.81818	0.	2.3021e-004
11899	11.364	0.90909	0.	1.0626e-003
11900	11.457	0.90909	5.e-002	1.7173e-006
11901	11.457	0.63636	0.	-1.5816e-003
11902	11.364	0.72727	0.	-8.2791e-004
11903	11.457	0.72727	5.e-002	2.2678e-006
11904	11.457	0.45455	0.	-6.0574e-003
11905	11.364	0.54545	0.	-2.2356e-003
11906	11.457	0.54545	5.e-002	2.2244e-006
11907	11.457	0.27273	0.	-6.3746e-003
11908	11.364	0.36364	0.	-8.5447e-003
11909	11.457	0.36364	5.e-002	2.5548e-006
11910	11.364	0.18182	0.	-1.3549e-003
11911	11.457	0.18182	5.e-002	1.0084e-005
11912	11.457	9.0909e-002	0.	-1.8901e-003
11913	11.272	5.7273	0.	-5.0838e-003
11914	11.179	5.8182	0.	-1.5743e-003
11915	11.272	5.8182	5.e-002	-3.0344e-006
11916	11.272	5.9091	0.	-1.6679e-003
11917	11.272	5.5455	0.	-4.7893e-003
11918	11.179	5.6364	0.	-6.2553e-003
11919	11.272	5.6364	5.e-002	2.3063e-006
11920	11.272	5.3636	0.	-1.4715e-003
11921	11.179	5.4545	0.	-1.9161e-003
11922	11.272	5.4545	5.e-002	2.8587e-006
11923	11.272	5.1818	0.	-1.7591e-007
11924	11.179	5.2727	0.	-8.12e-004
11925	11.272	5.2727	5.e-002	1.2416e-006
11926	11.272	5.	0.	1.4554e-003
11927	11.179	5.0909	0.	6.4316e-004
11928	11.272	5.0909	5.e-002	1.2135e-006
11929	11.272	4.8182	0.	2.5775e-003
11930	11.179	4.9091	0.	1.7408e-003
11931	11.272	4.9091	5.e-002	6.9615e-007
11932	11.272	4.6364	0.	3.4685e-003
11933	11.179	4.7273	0.	2.6601e-003
11934	11.272	4.7273	5.e-002	-5.0308e-008
11935	11.272	4.4545	0.	4.1374e-003
11936	11.179	4.5455	0.	3.3747e-003
11937	11.272	4.5455	5.e-002	8.4489e-007
11938	11.272	4.2727	0.	4.624e-003
11939	11.179	4.3636	0.	3.9187e-003
11940	11.272	4.3636	5.e-002	-2.4616e-007
11941	11.272	4.0909	0.	4.9625e-003
11942	11.179	4.1818	0.	4.3207e-003
11943	11.272	4.1818	5.e-002	-3.4353e-007
11944	11.272	3.9091	0.	5.1872e-003
11945	11.179	4.	0.	4.6119e-003
11946	11.272	4.	5.e-002	-1.7719e-007
11947	11.272	3.7273	0.	5.3306e-003
11948	11.179	3.8182	0.	4.8244e-003
11949	11.272	3.8182	5.e-002	2.1626e-007
11950	11.272	3.5455	0.	5.4203e-003
11951	11.179	3.6364	0.	4.9923e-003
11952	11.272	3.6364	5.e-002	1.1759e-006
11953	11.272	3.3636	0.	5.4747e-003
11954	11.179	3.4545	0.	5.1443e-003
11955	11.272	3.4545	5.e-002	1.1041e-006
11956	11.272	3.1818	0.	5.5042e-003
11957	11.179	3.2727	0.	5.2869e-003
11958	11.272	3.2727	5.e-002	6.7411e-007
11959	11.272	3.	0.	5.5133e-003
11960	11.179	3.0909	0.	5.3884e-003
11961	11.272	3.0909	5.e-002	1.3564e-006
11962	11.272	2.8182	0.	5.5039e-003
11963	11.179	2.9091	0.	5.3882e-003
11964	11.272	2.9091	5.e-002	1.7691e-006
11965	11.272	2.6364	0.	5.4748e-003
11966	11.179	2.7273	0.	5.2872e-003
11967	11.272	2.7273	5.e-002	1.8583e-006
11968	11.272	2.4545	0.	5.4207e-003
11969	11.179	2.5455	0.	5.1444e-003
11970	11.272	2.5455	5.e-002	1.5216e-006
11971	11.272	2.2727	0.	5.3314e-003
11972	11.179	2.3636	0.	4.9927e-003
11973	11.272	2.3636	5.e-002	1.726e-006
11974	11.272	2.0909	0.	5.1879e-003
11975	11.179	2.1818	0.	4.8251e-003
11976	11.272	2.1818	5.e-002	1.5011e-006
11977	11.272	1.9091	0.	4.9628e-003
11978	11.179	2.	0.	4.6121e-003
11979	11.272	2.	5.e-002	1.562e-006
11980	11.272	1.7273	0.	4.6246e-003
11981	11.179	1.8182	0.	4.3208e-003
11982	11.272	1.8182	5.e-002	1.8568e-006
11983	11.272	1.5455	0.	4.1384e-003
11984	11.179	1.6364	0.	3.9193e-003
11985	11.272	1.6364	5.e-002	1.9319e-006
11986	11.272	1.3636	0.	3.4691e-003
11987	11.179	1.4545	0.	3.3753e-003
11988	11.272	1.4545	5.e-002	1.8546e-006
11989	11.272	1.1818	0.	2.5779e-003
11990	11.179	1.2727	0.	2.6606e-003
11991	11.272	1.2727	5.e-002	1.9157e-006
11992	11.272	1.	0.	1.4564e-003
11993	11.179	1.0909	0.	1.7412e-003
11994	11.272	1.0909	5.e-002	1.9563e-006
11995	11.272	0.81818	0.	1.1291e-006
11996	11.179	0.90909	0.	6.4466e-004
11997	11.272	0.90909	5.e-002	1.9682e-006
11998	11.272	0.63636	0.	-1.4707e-003
11999	11.179	0.72727	0.	-8.1085e-004
12000	11.272	0.72727	5.e-002	2.9608e-006
12001	11.272	0.45455	0.	-4.7888e-003
12002	11.179	0.54545	0.	-1.9158e-003
12003	11.272	0.54545	5.e-002	3.4326e-006
12004	11.272	0.27273	0.	-5.0831e-003
12005	11.179	0.36364	0.	-6.2548e-003
12006	11.272	0.36364	5.e-002	3.1392e-006
12007	11.179	0.18182	0.	-1.5732e-003
12008	11.272	0.18182	5.e-002	6.9848e-006
12009	11.272	9.0909e-002	0.	-1.6665e-003
12010	11.087	5.7273	0.	-3.8564e-003
12011	10.995	5.8182	0.	-1.9422e-003
12012	11.087	5.8182	5.e-002	9.8089e-007
12013	11.087	5.9091	0.	-1.4287e-003
12014	11.087	5.5455	0.	-3.4607e-003
12015	10.995	5.6364	0.	-3.9774e-003
12016	11.087	5.6364	5.e-002	2.1569e-006
12017	11.087	5.3636	0.	-1.2841e-003
12018	10.995	5.4545	0.	-1.5343e-003
12019	11.087	5.4545	5.e-002	2.7963e-006
12020	11.087	5.1818	0.	-2.2292e-004
12021	10.995	5.2727	0.	-8.0553e-004
12022	11.087	5.2727	5.e-002	1.2923e-006
12023	11.087	5.	0.	8.289e-004
12024	10.995	5.0909	0.	7.0682e-005
12025	11.087	5.0909	5.e-002	1.3479e-006
12026	11.087	4.8182	0.	1.6642e-003
12027	10.995	4.9091	0.	6.9666e-004
12028	11.087	4.9091	5.e-002	8.6646e-007
12029	11.087	4.6364	0.	2.3319e-003
12030	10.995	4.7273	0.	1.1201e-003
12031	11.087	4.7273	5.e-002	1.1963e-007
12032	11.087	4.4545	0.	2.823e-003
12033	10.995	4.5455	0.	1.2206e-003
12034	11.087	4.5455	5.e-002	8.2349e-007
12035	11.087	4.2727	0.	3.1424e-003
12036	10.995	4.3636	0.	6.6222e-004
12037	11.087	4.3636	5.e-002	-1.1303e-007
12038	11.087	4.0909	0.	3.2688e-003
12039	10.995	4.1818	0.	-3.0867e-003
12040	11.087	4.1818	5.e-002	-1.2284e-007
12041	11.087	3.9091	0.	3.077e-003
12042	10.995	4.	0.	-0.30035
12043	11.087	4.	5.e-002	4.1224e-008
12044	11.087	3.7273	0.	1.5258e-003
12045	10.995	3.8182	0.	-1.0029
12046	11.087	3.8182	5.e-002	4.1396e-007
12047	11.087	3.5455	0.	-0.16823
12048	10.995	3.6364	0.	-1.598
12049	11.087	3.6364	5.e-002	1.3087e-006
12050	11.087	3.3636	0.	-0.53363
12051	10.995	3.4545	0.	-2.0619
12052	11.087	3.4545	5.e-002	1.2846e-006
12053	11.087	3.1818	0.	-0.75994
12054	10.995	3.2727	0.	-2.3798
12055	11.087	3.2727	5.e-002	1.0153e-006
12056	11.087	3.	0.	-0.83636
12057	10.995	3.0909	0.	-2.5414
12058	11.087	3.0909	5.e-002	1.5789e-006
12059	11.087	2.8182	0.	-0.75994
12060	10.995	2.9091	0.	-2.5414
12061	11.087	2.9091	5.e-002	2.1315e-006
12062	11.087	2.6364	0.	-0.53363
12063	10.995	2.7273	0.	-2.3798
12064	11.087	2.7273	5.e-002	2.1127e-006
12065	11.087	2.4545	0.	-0.16824
12066	10.995	2.5455	0.	-2.0619
12067	11.087	2.5455	5.e-002	1.9974e-006
12068	11.087	2.2727	0.	1.5258e-003
12069	10.995	2.3636	0.	-1.598
12070	11.087	2.3636	5.e-002	2.1185e-006
12071	11.087	2.0909	0.	3.0772e-003
12072	10.995	2.1818	0.	-1.0029
12073	11.087	2.1818	5.e-002	2.0368e-006
12074	11.087	1.9091	0.	3.2689e-003
12075	10.995	2.	0.	-0.30037
12076	11.087	2.	5.e-002	2.0512e-006
12077	11.087	1.7273	0.	3.1425e-003
12078	10.995	1.8182	0.	-3.0869e-003
12079	11.087	1.8182	5.e-002	2.2089e-006
12080	11.087	1.5455	0.	2.8232e-003
12081	10.995	1.6364	0.	6.6228e-004
12082	11.087	1.6364	5.e-002	2.297e-006
12083	11.087	1.3636	0.	2.3324e-003
12084	10.995	1.4545	0.	1.221e-003
12085	11.087	1.4545	5.e-002	2.3324e-006
12086	11.087	1.1818	0.	1.6647e-003
12087	10.995	1.2727	0.	1.1206e-003
12088	11.087	1.2727	5.e-002	2.4433e-006
12089	11.087	1.	0.	8.2972e-004
12090	10.995	1.0909	0.	6.9692e-004
12091	11.087	1.0909	5.e-002	2.4264e-006
12092	11.087	0.81818	0.	-2.2159e-004
12093	10.995	0.90909	0.	7.191e-005
12094	11.087	0.90909	5.e-002	2.7483e-006
12095	11.087	0.63636	0.	-1.2834e-003
12096	10.995	0.72727	0.	-8.0408e-004
12097	11.087	0.72727	5.e-002	3.5208e-006
12098	11.087	0.45455	0.	-3.4605e-003
12099	10.995	0.54545	0.	-1.5349e-003
12100	11.087	0.54545	5.e-002	3.8504e-006
12101	11.087	0.27273	0.	-3.8554e-003
12102	10.995	0.36364	0.	-3.9767e-003
12103	11.087	0.36364	5.e-002	2.1378e-006
12104	10.995	0.18182	0.	-1.9408e-003
12105	11.087	0.18182	5.e-002	3.383e-006
12106	11.087	9.0909e-002	0.	-1.4279e-003
12107	10.902	5.7273	0.	-2.74e-003
12108	10.81	5.8182	0.	-2.5026e-003
12109	10.902	5.8182	5.e-002	1.4279e-006
12110	10.902	5.9091	0.	-1.2435e-003
12111	10.902	5.5455	0.	-2.1152e-003
12112	10.81	5.6364	0.	-1.7188e-003
12113	10.902	5.6364	5.e-002	1.4621e-006
12114	10.902	5.3636	0.	-1.1068e-003
12115	10.81	5.4545	0.	-1.1358e-003
12116	10.902	5.4545	5.e-002	2.2364e-006
12117	10.902	5.1818	0.	-6.336e-004
12118	10.81	5.2727	0.	-9.5381e-004
12119	10.902	5.2727	5.e-002	7.941e-007
12120	10.902	5.	0.	-3.464e-004
12121	10.81	5.0909	0.	-1.1482e-003
12122	10.902	5.0909	5.e-002	6.7792e-007
12123	10.902	4.8182	0.	-5.1266e-004
12124	10.81	4.9091	0.	-2.3591e-003
12125	10.902	4.9091	5.e-002	1.942e-007
12126	10.902	4.6364	0.	-1.8062e-003
12127	10.81	4.7273	0.	-8.6575e-003
12128	10.902	4.7273	5.e-002	-5.7218e-007
12129	10.902	4.4545	0.	-1.0694e-002
12130	10.81	4.5455	0.	-0.40587
12131	10.902	4.5455	5.e-002	2.1924e-007
12132	10.902	4.2727	0.	-0.53731
12133	10.81	4.3636	0.	-1.5094
12134	10.902	4.3636	5.e-002	-7.6756e-007
12135	10.902	4.0909	0.	-1.4399
12136	10.81	4.1818	0.	-2.5448
12137	10.902	4.1818	5.e-002	-8.3153e-007
12138	10.902	3.9091	0.	-2.2516
12139	10.81	4.	0.	-3.4806
12140	10.902	4.	5.e-002	-6.2288e-007
12141	10.902	3.7273	0.	-2.9479
12142	10.81	3.8182	0.	-4.2965
12143	10.902	3.8182	5.e-002	-2.9984e-007
12144	10.902	3.5455	0.	-3.5104
12145	10.81	3.6364	0.	-4.974
12146	10.902	3.6364	5.e-002	7.4984e-007
12147	10.902	3.3636	0.	-3.9238
12148	10.81	3.4545	0.	-5.4974
12149	10.902	3.4545	5.e-002	7.6048e-007
12150	10.902	3.1818	0.	-4.1767
12151	10.81	3.2727	0.	-5.8537
12152	10.902	3.2727	5.e-002	3.5643e-007
12153	10.902	3.	0.	-4.2618
12154	10.81	3.0909	0.	-6.0342
12155	10.902	3.0909	5.e-002	1.0662e-006
12156	10.902	2.8182	0.	-4.1767
12157	10.81	2.9091	0.	-6.0342
12158	10.902	2.9091	5.e-002	1.6905e-006
12159	10.902	2.6364	0.	-3.9238
12160	10.81	2.7273	0.	-5.8538
12161	10.902	2.7273	5.e-002	1.6112e-006
12162	10.902	2.4545	0.	-3.5104
12163	10.81	2.5455	0.	-5.4974
12164	10.902	2.5455	5.e-002	1.5364e-006
12165	10.902	2.2727	0.	-2.948
12166	10.81	2.3636	0.	-4.974
12167	10.902	2.3636	5.e-002	1.6566e-006
12168	10.902	2.0909	0.	-2.2516
12169	10.81	2.1818	0.	-4.2965
12170	10.902	2.1818	5.e-002	1.6009e-006
12171	10.902	1.9091	0.	-1.44
12172	10.81	2.	0.	-3.4806
12173	10.902	2.	5.e-002	1.5954e-006
12174	10.902	1.7273	0.	-0.53733
12175	10.81	1.8182	0.	-2.5449
12176	10.902	1.8182	5.e-002	1.9379e-006
12177	10.902	1.5455	0.	-1.0694e-002
12178	10.81	1.6364	0.	-1.5094
12179	10.902	1.6364	5.e-002	1.8845e-006
12180	10.902	1.3636	0.	-1.806e-003
12181	10.81	1.4545	0.	-0.40589
12182	10.902	1.4545	5.e-002	1.9688e-006
12183	10.902	1.1818	0.	-5.125e-004
12184	10.81	1.2727	0.	-8.6575e-003
12185	10.902	1.2727	5.e-002	2.0754e-006
12186	10.902	1.	0.	-3.4575e-004
12187	10.81	1.0909	0.	-2.3589e-003
12188	10.902	1.0909	5.e-002	2.0124e-006
12189	10.902	0.81818	0.	-6.3225e-004
12190	10.81	0.90909	0.	-1.1469e-003
12191	10.902	0.90909	5.e-002	2.8777e-006
12192	10.902	0.63636	0.	-1.1066e-003
12193	10.81	0.72727	0.	-9.5265e-004
12194	10.902	0.72727	5.e-002	2.6509e-006
12195	10.902	0.45455	0.	-2.1154e-003
12196	10.81	0.54545	0.	-1.1357e-003
12197	10.902	0.54545	5.e-002	2.1811e-006
12198	10.902	0.27273	0.	-2.739e-003
12199	10.81	0.36364	0.	-1.7177e-003
12200	10.902	0.36364	5.e-002	1.0115e-006
12201	10.81	0.18182	0.	-2.5015e-003
12202	10.902	0.18182	5.e-002	7.9818e-007
12203	10.902	9.0909e-002	0.	-1.2429e-003
12204	10.717	5.7273	0.	-1.7475e-003
12205	10.625	5.8182	0.	-3.2941e-003
12206	10.717	5.8182	5.e-002	1.0252e-006
12207	10.717	5.9091	0.	-1.1392e-003
12208	10.717	5.5455	0.	-7.5128e-004
12209	10.625	5.6364	0.	5.3046e-004
12210	10.717	5.6364	5.e-002	1.5075e-006
12211	10.717	5.3636	0.	-1.0183e-003
12212	10.625	5.4545	0.	-7.5564e-004
12213	10.717	5.4545	5.e-002	1.947e-006
12214	10.717	5.1818	0.	-1.6993e-003
12215	10.625	5.2727	0.	-1.6284e-003
12216	10.717	5.2727	5.e-002	5.3963e-007
12217	10.717	5.	0.	-4.504e-003
12218	10.625	5.0909	0.	-6.1659e-003
12219	10.717	5.0909	5.e-002	4.6112e-007
12220	10.717	4.8182	0.	-3.9337e-002
12221	10.625	4.9091	0.	-0.27268
12222	10.717	4.9091	5.e-002	-1.1609e-007
12223	10.717	4.6364	0.	-1.1167
12224	10.625	4.7273	0.	-1.7338
12225	10.717	4.7273	5.e-002	-8.3015e-007
12226	10.717	4.4545	0.	-2.3698
12227	10.625	4.5455	0.	-3.1502
12228	10.717	4.5455	5.e-002	-1.2816e-007
12229	10.717	4.2727	0.	-3.5386
12230	10.625	4.3636	0.	-4.4745
12231	10.717	4.3636	5.e-002	-1.0462e-006
12232	10.717	4.0909	0.	-4.6022
12233	10.625	4.1818	0.	-5.6875
12234	10.717	4.1818	5.e-002	-1.0704e-006
12235	10.717	3.9091	0.	-5.5412
12236	10.625	4.	0.	-6.7705
12237	10.717	4.	5.e-002	-8.4242e-007
12238	10.717	3.7273	0.	-6.3379
12239	10.625	3.8182	0.	-7.7055
12240	10.717	3.8182	5.e-002	-5.2714e-007
12241	10.717	3.5455	0.	-6.9761
12242	10.625	3.6364	0.	-8.476
12243	10.717	3.6364	5.e-002	4.8059e-007
12244	10.717	3.3636	0.	-7.4423
12245	10.625	3.4545	0.	-9.0675
12246	10.717	3.4545	5.e-002	3.2014e-007
12247	10.717	3.1818	0.	-7.7263
12248	10.625	3.2727	0.	-9.4686
12249	10.717	3.2727	5.e-002	2.4611e-007
12250	10.717	3.	0.	-7.8217
12251	10.625	3.0909	0.	-9.6712
12252	10.717	3.0909	5.e-002	6.5663e-007
12253	10.717	2.8182	0.	-7.7263
12254	10.625	2.9091	0.	-9.6712
12255	10.717	2.9091	5.e-002	1.3698e-006
12256	10.717	2.6364	0.	-7.4423
12257	10.625	2.7273	0.	-9.4686
12258	10.717	2.7273	5.e-002	1.3632e-006
12259	10.717	2.4545	0.	-6.9762
12260	10.625	2.5455	0.	-9.0675
12261	10.717	2.5455	5.e-002	1.4083e-006
12262	10.717	2.2727	0.	-6.338
12263	10.625	2.3636	0.	-8.476
12264	10.717	2.3636	5.e-002	1.5062e-006
12265	10.717	2.0909	0.	-5.5412
12266	10.625	2.1818	0.	-7.7055
12267	10.717	2.1818	5.e-002	1.4591e-006
12268	10.717	1.9091	0.	-4.6022
12269	10.625	2.	0.	-6.7705
12270	10.717	2.	5.e-002	1.5512e-006
12271	10.717	1.7273	0.	-3.5387
12272	10.625	1.8182	0.	-5.6875
12273	10.717	1.8182	5.e-002	1.915e-006
12274	10.717	1.5455	0.	-2.3698
12275	10.625	1.6364	0.	-4.4746
12276	10.717	1.6364	5.e-002	1.8078e-006
12277	10.717	1.3636	0.	-1.1167
12278	10.625	1.4545	0.	-3.1502
12279	10.717	1.4545	5.e-002	1.9499e-006
12280	10.717	1.1818	0.	-3.934e-002
12281	10.625	1.2727	0.	-1.7338
12282	10.717	1.2727	5.e-002	2.0622e-006
12283	10.717	1.	0.	-4.5032e-003
12284	10.625	1.0909	0.	-0.27271
12285	10.717	1.0909	5.e-002	2.161e-006
12286	10.717	0.81818	0.	-1.6982e-003
12287	10.625	0.90909	0.	-6.1649e-003
12288	10.717	0.90909	5.e-002	2.1717e-006
12289	10.717	0.63636	0.	-1.0172e-003
12290	10.625	0.72727	0.	-1.6274e-003
12291	10.717	0.72727	5.e-002	1.8928e-006
12292	10.717	0.45455	0.	-7.5e-004
12293	10.625	0.54545	0.	-7.5486e-004
12294	10.717	0.54545	5.e-002	1.3592e-006
12295	10.717	0.27273	0.	-1.7465e-003
12296	10.625	0.36364	0.	5.3164e-004
12297	10.717	0.36364	5.e-002	7.6565e-007
12298	10.625	0.18182	0.	-3.2936e-003
12299	10.717	0.18182	5.e-002	1.8701e-006
12300	10.717	9.0909e-002	0.	-1.1385e-003
12301	10.533	5.7273	0.	-9.1146e-004
12302	10.44	5.8182	0.	-4.374e-003
12303	10.533	5.8182	5.e-002	-5.5717e-007
12304	10.533	5.9091	0.	-1.157e-003
12305	10.533	5.5455	0.	6.3007e-004
12306	10.44	5.6364	0.	2.7769e-003
12307	10.533	5.6364	5.e-002	2.0244e-006
12308	10.533	5.3636	0.	-1.2329e-003
12309	10.44	5.4545	0.	-4.6708e-004
12310	10.533	5.4545	5.e-002	2.4095e-006
12311	10.533	5.1818	0.	-6.6054e-003
12312	10.44	5.2727	0.	-5.1095e-003
12313	10.533	5.2727	5.e-002	9.1978e-007
12314	10.533	5.	0.	-0.54565
12315	10.44	5.0909	0.	-0.69199
12316	10.533	5.0909	5.e-002	6.0418e-007
12317	10.533	4.8182	0.	-2.2017
12318	10.44	4.9091	0.	-2.5491
12319	10.533	4.9091	5.e-002	3.5512e-008
12320	10.533	4.6364	0.	-3.7865
12321	10.44	4.7273	0.	-4.3242
12322	10.533	4.7273	5.e-002	-5.8123e-007
12323	10.533	4.4545	0.	-5.2718
12324	10.44	4.5455	0.	-5.993
12325	10.533	4.5455	5.e-002	2.4756e-007
12326	10.533	4.2727	0.	-6.6394
12327	10.44	4.3636	0.	-7.5379
12328	10.533	4.3636	5.e-002	-7.023e-007
12329	10.533	4.0909	0.	-7.8714
12330	10.44	4.1818	0.	-8.9409
12331	10.533	4.1818	5.e-002	-8.6047e-007
12332	10.533	3.9091	0.	-8.95
12333	10.44	4.	0.	-10.184
12334	10.533	4.	5.e-002	-8.1767e-007
12335	10.533	3.7273	0.	-9.8586
12336	10.44	3.8182	0.	-11.251
12337	10.533	3.8182	5.e-002	-1.6099e-007
12338	10.533	3.5455	0.	-10.582
12339	10.44	3.6364	0.	-12.125
12340	10.533	3.6364	5.e-002	7.7643e-007
12341	10.533	3.3636	0.	-11.108
12342	10.44	3.4545	0.	-12.793
12343	10.533	3.4545	5.e-002	6.3691e-007
12344	10.533	3.1818	0.	-11.428
12345	10.44	3.2727	0.	-13.245
12346	10.533	3.2727	5.e-002	3.9888e-007
12347	10.533	3.	0.	-11.535
12348	10.44	3.0909	0.	-13.472
12349	10.533	3.0909	5.e-002	8.8674e-007
12350	10.533	2.8182	0.	-11.428
12351	10.44	2.9091	0.	-13.472
12352	10.533	2.9091	5.e-002	1.8549e-006
12353	10.533	2.6364	0.	-11.108
12354	10.44	2.7273	0.	-13.245
12355	10.533	2.7273	5.e-002	1.7469e-006
12356	10.533	2.4545	0.	-10.582
12357	10.44	2.5455	0.	-12.793
12358	10.533	2.5455	5.e-002	1.75e-006
12359	10.533	2.2727	0.	-9.8586
12360	10.44	2.3636	0.	-12.125
12361	10.533	2.3636	5.e-002	1.9885e-006
12362	10.533	2.0909	0.	-8.95
12363	10.44	2.1818	0.	-11.251
12364	10.533	2.1818	5.e-002	1.8201e-006
12365	10.533	1.9091	0.	-7.8714
12366	10.44	2.	0.	-10.184
12367	10.533	2.	5.e-002	2.0208e-006
12368	10.533	1.7273	0.	-6.6395
12369	10.44	1.8182	0.	-8.9409
12370	10.533	1.8182	5.e-002	2.2239e-006
12371	10.533	1.5455	0.	-5.2718
12372	10.44	1.6364	0.	-7.5379
12373	10.533	1.6364	5.e-002	2.3712e-006
12374	10.533	1.3636	0.	-3.7866
12375	10.44	1.4545	0.	-5.993
12376	10.533	1.4545	5.e-002	2.4059e-006
12377	10.533	1.1818	0.	-2.2017
12378	10.44	1.2727	0.	-4.3242
12379	10.533	1.2727	5.e-002	2.362e-006
12380	10.533	1.	0.	-0.54568
12381	10.44	1.0909	0.	-2.5491
12382	10.533	1.0909	5.e-002	2.3412e-006
12383	10.533	0.81818	0.	-6.6044e-003
12384	10.44	0.90909	0.	-0.69202
12385	10.533	0.90909	5.e-002	2.3838e-006
12386	10.533	0.63636	0.	-1.2321e-003
12387	10.44	0.72727	0.	-5.1085e-003
12388	10.533	0.72727	5.e-002	1.8088e-006
12389	10.533	0.45455	0.	6.3076e-004
12390	10.44	0.54545	0.	-4.6664e-004
12391	10.533	0.54545	5.e-002	1.5982e-006
12392	10.533	0.27273	0.	-9.1069e-004
12393	10.44	0.36364	0.	2.7778e-003
12394	10.533	0.36364	5.e-002	1.7539e-006
12395	10.44	0.18182	0.	-4.3733e-003
12396	10.533	0.18182	5.e-002	5.3842e-006
12397	10.533	9.0909e-002	0.	-1.1567e-003
12398	10.348	5.7273	0.	-2.8254e-004
12399	10.255	5.8182	0.	-5.8046e-003
12400	10.348	5.8182	5.e-002	-4.2341e-006
12401	10.348	5.9091	0.	-1.3437e-003
12402	10.348	5.5455	0.	2.0312e-003
12403	10.255	5.6364	0.	5.0394e-003
12404	10.348	5.6364	5.e-002	1.9225e-006
12405	10.348	5.3636	0.	-2.784e-003
12406	10.255	5.4545	0.	-5.0598e-004
12407	10.348	5.4545	5.e-002	2.3829e-006
12408	10.348	5.1818	0.	-0.65846
12409	10.255	5.2727	0.	-0.46871
12410	10.348	5.2727	5.e-002	8.9487e-007
12411	10.348	5.	0.	-2.7183
12412	10.255	5.0909	0.	-2.7483
12413	10.348	5.0909	5.e-002	7.7737e-007
12414	10.348	4.8182	0.	-4.6893
12415	10.255	4.9091	0.	-4.9367
12416	10.348	4.9091	5.e-002	9.2759e-008
12417	10.348	4.6364	0.	-6.5473
12418	10.255	4.7273	0.	-7.0066
12419	10.348	4.7273	5.e-002	-6.7856e-007
12420	10.348	4.4545	0.	-8.2751
12421	10.255	4.5455	0.	-8.9403
12422	10.348	4.5455	5.e-002	3.3176e-007
12423	10.348	4.2727	0.	-9.8549
12424	10.255	4.3636	0.	-10.72
12425	10.348	4.3636	5.e-002	-1.0111e-006
12426	10.348	4.0909	0.	-11.269
12427	10.255	4.1818	0.	-12.327
12428	10.348	4.1818	5.e-002	-8.2422e-007
12429	10.348	3.9091	0.	-12.5
12430	10.255	4.	0.	-13.744
12431	10.348	4.	5.e-002	-6.4933e-007
12432	10.348	3.7273	0.	-13.531
12433	10.255	3.8182	0.	-14.954
12434	10.348	3.8182	5.e-002	-9.6097e-008
12435	10.348	3.5455	0.	-14.35
12436	10.255	3.6364	0.	-15.942
12437	10.348	3.6364	5.e-002	8.1981e-007
12438	10.348	3.3636	0.	-14.943
12439	10.255	3.4545	0.	-16.696
12440	10.348	3.4545	5.e-002	8.2692e-007
12441	10.348	3.1818	0.	-15.303
12442	10.255	3.2727	0.	-17.203
12443	10.348	3.2727	5.e-002	3.7143e-007
12444	10.348	3.	0.	-15.423
12445	10.255	3.0909	0.	-17.459
12446	10.348	3.0909	5.e-002	9.9662e-007
12447	10.348	2.8182	0.	-15.303
12448	10.255	2.9091	0.	-17.459
12449	10.348	2.9091	5.e-002	1.8643e-006
12450	10.348	2.6364	0.	-14.943
12451	10.255	2.7273	0.	-17.204
12452	10.348	2.7273	5.e-002	2.0137e-006
12453	10.348	2.4545	0.	-14.35
12454	10.255	2.5455	0.	-16.696
12455	10.348	2.5455	5.e-002	1.9115e-006
12456	10.348	2.2727	0.	-13.531
12457	10.255	2.3636	0.	-15.942
12458	10.348	2.3636	5.e-002	2.0464e-006
12459	10.348	2.0909	0.	-12.5
12460	10.255	2.1818	0.	-14.954
12461	10.348	2.1818	5.e-002	2.2754e-006
12462	10.348	1.9091	0.	-11.269
12463	10.255	2.	0.	-13.744
12464	10.348	2.	5.e-002	1.9796e-006
12465	10.348	1.7273	0.	-9.8549
12466	10.255	1.8182	0.	-12.327
12467	10.348	1.8182	5.e-002	2.6569e-006
12468	10.348	1.5455	0.	-8.2751
12469	10.255	1.6364	0.	-10.72
12470	10.348	1.6364	5.e-002	2.5456e-006
12471	10.348	1.3636	0.	-6.5474
12472	10.255	1.4545	0.	-8.9403
12473	10.348	1.4545	5.e-002	2.5037e-006
12474	10.348	1.1818	0.	-4.6893
12475	10.255	1.2727	0.	-7.0066
12476	10.348	1.2727	5.e-002	2.466e-006
12477	10.348	1.	0.	-2.7183
12478	10.255	1.0909	0.	-4.9367
12479	10.348	1.0909	5.e-002	2.5149e-006
12480	10.348	0.81818	0.	-0.65849
12481	10.255	0.90909	0.	-2.7484
12482	10.348	0.90909	5.e-002	2.2694e-006
12483	10.348	0.63636	0.	-2.7833e-003
12484	10.255	0.72727	0.	-0.46874
12485	10.348	0.72727	5.e-002	2.363e-006
12486	10.348	0.45455	0.	2.032e-003
12487	10.255	0.54545	0.	-5.0568e-004
12488	10.348	0.54545	5.e-002	2.274e-006
12489	10.348	0.27273	0.	-2.8168e-004
12490	10.255	0.36364	0.	5.0404e-003
12491	10.348	0.36364	5.e-002	1.7375e-006
12492	10.255	0.18182	0.	-5.8038e-003
12493	10.348	0.18182	5.e-002	7.9461e-006
12494	10.348	9.0909e-002	0.	-1.3429e-003
12495	10.163	5.7273	0.	8.1668e-005
12496	10.071	5.8182	0.	-7.6874e-003
12497	10.163	5.8182	5.e-002	-5.7436e-006
12498	10.163	5.9091	0.	-1.7236e-003
12499	10.163	5.5455	0.	3.4917e-003
12500	10.071	5.6364	0.	7.3174e-003
12501	10.163	5.6364	5.e-002	1.4962e-006
12502	10.163	5.3636	0.	-0.1056
12503	10.071	5.4545	0.	-3.7884e-003
12504	10.163	5.4545	5.e-002	1.843e-006
12505	10.163	5.1818	0.	-2.5742
12506	10.071	5.2727	0.	-2.2413
12507	10.163	5.2727	5.e-002	5.0798e-007
12508	10.163	5.	0.	-4.9844
12509	10.071	5.0909	0.	-4.8945
12510	10.163	5.0909	5.e-002	2.9332e-007
12511	10.163	4.8182	0.	-7.2709
12512	10.071	4.9091	0.	-7.4199
12513	10.163	4.9091	5.e-002	-3.2583e-007
12514	10.163	4.6364	0.	-9.4157
12515	10.071	4.7273	0.	-9.7991
12516	10.163	4.7273	5.e-002	-1.11e-006
12517	10.163	4.4545	0.	-11.401
12518	10.071	4.5455	0.	-12.013
12519	10.163	4.5455	5.e-002	-3.3729e-007
12520	10.163	4.2727	0.	-13.207
12521	10.071	4.3636	0.	-14.043
12522	10.163	4.3636	5.e-002	-1.2716e-006
12523	10.163	4.0909	0.	-14.817
12524	10.071	4.1818	0.	-15.869
12525	10.163	4.1818	5.e-002	-9.9531e-007
12526	10.163	3.9091	0.	-16.213
12527	10.071	4.	0.	-17.474
12528	10.163	4.	5.e-002	-9.0711e-007
12529	10.163	3.7273	0.	-17.379
12530	10.071	3.8182	0.	-18.84
12531	10.163	3.8182	5.e-002	-5.7043e-007
12532	10.163	3.5455	0.	-18.302
12533	10.071	3.6364	0.	-19.952
12534	10.163	3.6364	5.e-002	2.6446e-007
12535	10.163	3.3636	0.	-18.969
12536	10.071	3.4545	0.	-20.799
12537	10.163	3.4545	5.e-002	-1.7942e-007
12538	10.163	3.1818	0.	-19.373
12539	10.071	3.2727	0.	-21.369
12540	10.163	3.2727	5.e-002	2.1767e-007
12541	10.163	3.	0.	-19.509
12542	10.071	3.0909	0.	-21.655
12543	10.163	3.0909	5.e-002	6.2779e-007
12544	10.163	2.8182	0.	-19.373
12545	10.071	2.9091	0.	-21.655
12546	10.163	2.9091	5.e-002	1.518e-006
12547	10.163	2.6364	0.	-18.969
12548	10.071	2.7273	0.	-21.369
12549	10.163	2.7273	5.e-002	1.6908e-006
12550	10.163	2.4545	0.	-18.302
12551	10.071	2.5455	0.	-20.799
12552	10.163	2.5455	5.e-002	1.3791e-006
12553	10.163	2.2727	0.	-17.379
12554	10.071	2.3636	0.	-19.952
12555	10.163	2.3636	5.e-002	1.6463e-006
12556	10.163	2.0909	0.	-16.213
12557	10.071	2.1818	0.	-18.84
12558	10.163	2.1818	5.e-002	1.7754e-006
12559	10.163	1.9091	0.	-14.817
12560	10.071	2.	0.	-17.474
12561	10.163	2.	5.e-002	2.1538e-006
12562	10.163	1.7273	0.	-13.207
12563	10.071	1.8182	0.	-15.869
12564	10.163	1.8182	5.e-002	2.3239e-006
12565	10.163	1.5455	0.	-11.401
12566	10.071	1.6364	0.	-14.043
12567	10.163	1.6364	5.e-002	2.3703e-006
12568	10.163	1.3636	0.	-9.4157
12569	10.071	1.4545	0.	-12.013
12570	10.163	1.4545	5.e-002	2.2314e-006
12571	10.163	1.1818	0.	-7.2709
12572	10.071	1.2727	0.	-9.7991
12573	10.163	1.2727	5.e-002	2.1526e-006
12574	10.163	1.	0.	-4.9844
12575	10.071	1.0909	0.	-7.4199
12576	10.163	1.0909	5.e-002	2.2452e-006
12577	10.163	0.81818	0.	-2.5742
12578	10.071	0.90909	0.	-4.8945
12579	10.163	0.90909	5.e-002	1.9582e-006
12580	10.163	0.63636	0.	-0.10562
12581	10.071	0.72727	0.	-2.2414
12582	10.163	0.72727	5.e-002	2.0523e-006
12583	10.163	0.45455	0.	3.4924e-003
12584	10.071	0.54545	0.	-3.7891e-003
12585	10.163	0.54545	5.e-002	2.2627e-006
12586	10.163	0.27273	0.	8.2744e-005
12587	10.071	0.36364	0.	7.3182e-003
12588	10.163	0.36364	5.e-002	2.1389e-006
12589	10.071	0.18182	0.	-7.6863e-003
12590	10.163	0.18182	5.e-002	1.1926e-005
12591	10.163	9.0909e-002	0.	-1.7228e-003
12592	9.9783	5.7273	0.	6.77e-006
12593	9.8859	5.8182	0.	-1.0192e-002
12594	9.9783	5.8182	5.e-002	-9.7869e-006
12595	9.9783	5.9091	0.	-2.3826e-003
12596	9.9783	5.5455	0.	4.9986e-003
12597	9.8859	5.6364	0.	9.5356e-003
12598	9.9783	5.6364	5.e-002	1.0703e-006
12599	9.9783	5.3636	0.	-1.6802
12600	9.8859	5.4545	0.	-0.93896
12601	9.9783	5.4545	5.e-002	1.335e-006
12602	9.9783	5.1818	0.	-4.5796
12603	9.8859	5.2727	0.	-4.1053
12604	9.9783	5.2727	5.e-002	-1.7025e-007
12605	9.9783	5.	0.	-7.3471
12606	9.8859	5.0909	0.	-7.1371
12607	9.9783	5.0909	5.e-002	-3.0077e-008
12608	9.9783	4.8182	0.	-9.9644
12609	9.8859	4.9091	0.	-10.016
12610	9.9783	4.9091	5.e-002	-7.2648e-007
12611	9.9783	4.6364	0.	-12.412
12612	9.8859	4.7273	0.	-12.722
12613	9.9783	4.7273	5.e-002	-1.3485e-006
12614	9.9783	4.4545	0.	-14.67
12615	9.8859	4.5455	0.	-15.233
12616	9.9783	4.5455	5.e-002	-8.4746e-007
12617	9.9783	4.2727	0.	-16.719
12618	9.8859	4.3636	0.	-17.529
12619	9.9783	4.3636	5.e-002	-1.6628e-006
12620	9.9783	4.0909	0.	-18.54
12621	9.8859	4.1818	0.	-19.59
12622	9.9783	4.1818	5.e-002	-1.3948e-006
12623	9.9783	3.9091	0.	-20.114
12624	9.8859	4.	0.	-21.397
12625	9.9783	4.	5.e-002	-1.1465e-006
12626	9.9783	3.7273	0.	-21.426
12627	9.8859	3.8182	0.	-22.932
12628	9.9783	3.8182	5.e-002	-1.0664e-006
12629	9.9783	3.5455	0.	-22.463
12630	9.8859	3.6364	0.	-24.18
12631	9.9783	3.6364	5.e-002	2.8005e-007
12632	9.9783	3.3636	0.	-23.211
12633	9.8859	3.4545	0.	-25.127
12634	9.9783	3.4545	5.e-002	-4.8858e-007
12635	9.9783	3.1818	0.	-23.664
12636	9.8859	3.2727	0.	-25.765
12637	9.9783	3.2727	5.e-002	-6.1589e-008
12638	9.9783	3.	0.	-23.815
12639	9.8859	3.0909	0.	-26.086
12640	9.9783	3.0909	5.e-002	8.5247e-007
12641	9.9783	2.8182	0.	-23.664
12642	9.8859	2.9091	0.	-26.086
12643	9.9783	2.9091	5.e-002	1.2933e-006
12644	9.9783	2.6364	0.	-23.211
12645	9.8859	2.7273	0.	-25.765
12646	9.9783	2.7273	5.e-002	1.4921e-006
12647	9.9783	2.4545	0.	-22.463
12648	9.8859	2.5455	0.	-25.127
12649	9.9783	2.5455	5.e-002	1.6875e-006
12650	9.9783	2.2727	0.	-21.426
12651	9.8859	2.3636	0.	-24.18
12652	9.9783	2.3636	5.e-002	1.6029e-006
12653	9.9783	2.0909	0.	-20.114
12654	9.8859	2.1818	0.	-22.932
12655	9.9783	2.1818	5.e-002	1.7511e-006
12656	9.9783	1.9091	0.	-18.54
12657	9.8859	2.	0.	-21.397
12658	9.9783	2.	5.e-002	1.8977e-006
12659	9.9783	1.7273	0.	-16.719
12660	9.8859	1.8182	0.	-19.59
12661	9.9783	1.8182	5.e-002	2.2289e-006
12662	9.9783	1.5455	0.	-14.67
12663	9.8859	1.6364	0.	-17.529
12664	9.9783	1.6364	5.e-002	2.0202e-006
12665	9.9783	1.3636	0.	-12.412
12666	9.8859	1.4545	0.	-15.233
12667	9.9783	1.4545	5.e-002	2.1389e-006
12668	9.9783	1.1818	0.	-9.9645
12669	9.8859	1.2727	0.	-12.722
12670	9.9783	1.2727	5.e-002	2.1165e-006
12671	9.9783	1.	0.	-7.3471
12672	9.8859	1.0909	0.	-10.016
12673	9.9783	1.0909	5.e-002	2.0366e-006
12674	9.9783	0.81818	0.	-4.5796
12675	9.8859	0.90909	0.	-7.1371
12676	9.9783	0.90909	5.e-002	2.0829e-006
12677	9.9783	0.63636	0.	-1.6802
12678	9.8859	0.72727	0.	-4.1054
12679	9.9783	0.72727	5.e-002	1.8976e-006
12680	9.9783	0.45455	0.	4.9988e-003
12681	9.8859	0.54545	0.	-0.93899
12682	9.9783	0.54545	5.e-002	2.1488e-006
12683	9.9783	0.27273	0.	7.6806e-006
12684	9.8859	0.36364	0.	9.5363e-003
12685	9.9783	0.36364	5.e-002	2.1185e-006
12686	9.8859	0.18182	0.	-1.0191e-002
12687	9.9783	0.18182	5.e-002	1.7154e-005
12688	9.9783	9.0909e-002	0.	-2.3819e-003
12689	9.7935	5.7273	0.	-8.4085e-004
12690	9.7011	5.8182	0.	-1.3606e-002
12691	9.7935	5.8182	5.e-002	-1.5283e-005
12692	9.7935	5.9091	0.	-3.4163e-003
12693	9.7935	5.5455	0.	5.1764e-003
12694	9.7011	5.6364	0.	1.1227e-002
12695	9.7935	5.6364	5.e-002	6.6318e-007
12696	9.7935	5.3636	0.	-3.3825
12697	9.7011	5.4545	0.	-2.4763
12698	9.7935	5.4545	5.e-002	1.376e-006
12699	9.7935	5.1818	0.	-6.6802
12700	9.7011	5.2727	0.	-6.0621
12701	9.7935	5.2727	5.e-002	-7.8097e-008
12702	9.7935	5.	0.	-9.8226
12703	9.7011	5.0909	0.	-9.4914
12704	9.7935	5.0909	5.e-002	-5.5607e-007
12705	9.7935	4.8182	0.	-12.789
12706	9.7011	4.9091	0.	-12.743
12707	9.7935	4.9091	5.e-002	-1.2903e-006
12708	9.7935	4.6364	0.	-15.558
12709	9.7011	4.7273	0.	-15.795
12710	9.7935	4.7273	5.e-002	-1.5919e-006
12711	9.7935	4.4545	0.	-18.107
12712	9.7011	4.5455	0.	-18.622
12713	9.7935	4.5455	5.e-002	-9.8266e-007
12714	9.7935	4.2727	0.	-20.414
12715	9.7011	4.3636	0.	-21.203
12716	9.7935	4.3636	5.e-002	-1.7475e-006
12717	9.7935	4.0909	0.	-22.461
12718	9.7011	4.1818	0.	-23.516
12719	9.7935	4.1818	5.e-002	-1.6622e-006
12720	9.7935	3.9091	0.	-24.228
12721	9.7011	4.	0.	-25.54
12722	9.7935	4.	5.e-002	-1.3484e-006
12723	9.7935	3.7273	0.	-25.698
12724	9.7011	3.8182	0.	-27.257
12725	9.7935	3.8182	5.e-002	-1.1362e-006
12726	9.7935	3.5455	0.	-26.857
12727	9.7011	3.6364	0.	-28.651
12728	9.7935	3.6364	5.e-002	-2.9496e-008
12729	9.7935	3.3636	0.	-27.694
12730	9.7011	3.4545	0.	-29.709
12731	9.7935	3.4545	5.e-002	-7.5807e-008
12732	9.7935	3.1818	0.	-28.2
12733	9.7011	3.2727	0.	-30.42
12734	9.7935	3.2727	5.e-002	-1.0146e-007
12735	9.7935	3.	0.	-28.369
12736	9.7011	3.0909	0.	-30.777
12737	9.7935	3.0909	5.e-002	3.6191e-007
12738	9.7935	2.8182	0.	-28.2
12739	9.7011	2.9091	0.	-30.777
12740	9.7935	2.9091	5.e-002	1.5449e-006
12741	9.7935	2.6364	0.	-27.694
12742	9.7011	2.7273	0.	-30.42
12743	9.7935	2.7273	5.e-002	1.5334e-006
12744	9.7935	2.4545	0.	-26.857
12745	9.7011	2.5455	0.	-29.709
12746	9.7935	2.5455	5.e-002	1.5112e-006
12747	9.7935	2.2727	0.	-25.698
12748	9.7011	2.3636	0.	-28.651
12749	9.7935	2.3636	5.e-002	1.6981e-006
12750	9.7935	2.0909	0.	-24.228
12751	9.7011	2.1818	0.	-27.257
12752	9.7935	2.1818	5.e-002	1.886e-006
12753	9.7935	1.9091	0.	-22.461
12754	9.7011	2.	0.	-25.54
12755	9.7935	2.	5.e-002	2.0425e-006
12756	9.7935	1.7273	0.	-20.414
12757	9.7011	1.8182	0.	-23.516
12758	9.7935	1.8182	5.e-002	2.158e-006
12759	9.7935	1.5455	0.	-18.107
12760	9.7011	1.6364	0.	-21.203
12761	9.7935	1.6364	5.e-002	2.2773e-006
12762	9.7935	1.3636	0.	-15.558
12763	9.7011	1.4545	0.	-18.622
12764	9.7935	1.4545	5.e-002	2.3213e-006
12765	9.7935	1.1818	0.	-12.789
12766	9.7011	1.2727	0.	-15.795
12767	9.7935	1.2727	5.e-002	2.9911e-006
12768	9.7935	1.	0.	-9.8226
12769	9.7011	1.0909	0.	-12.743
12770	9.7935	1.0909	5.e-002	2.719e-006
12771	9.7935	0.81818	0.	-6.6802
12772	9.7011	0.90909	0.	-9.4914
12773	9.7935	0.90909	5.e-002	1.9952e-006
12774	9.7935	0.63636	0.	-3.3825
12775	9.7011	0.72727	0.	-6.0621
12776	9.7935	0.72727	5.e-002	2.464e-006
12777	9.7935	0.45455	0.	5.1765e-003
12778	9.7011	0.54545	0.	-2.4763
12779	9.7935	0.54545	5.e-002	2.2143e-006
12780	9.7935	0.27273	0.	-8.3966e-004
12781	9.7011	0.36364	0.	1.1228e-002
12782	9.7935	0.36364	5.e-002	2.2339e-006
12783	9.7011	0.18182	0.	-1.3605e-002
12784	9.7935	0.18182	5.e-002	2.2568e-005
12785	9.7935	9.0909e-002	0.	-3.415e-003
12786	9.6087	5.7273	0.	-3.3049e-003
12787	9.5163	5.8182	0.	-1.8424e-002
12788	9.6087	5.8182	5.e-002	-1.8667e-005
12789	9.6087	5.9091	0.	-5.0251e-003
12790	9.6087	5.5455	0.	-1.2746
12791	9.5163	5.6364	0.	-4.1983e-003
12792	9.6087	5.6364	5.e-002	7.7837e-007
12793	9.6087	5.3636	0.	-5.1738
12794	9.5163	5.4545	0.	-4.0974
12795	9.6087	5.4545	5.e-002	6.3658e-007
12796	9.6087	5.1818	0.	-8.89
12797	9.5163	5.2727	0.	-8.1242
12798	9.6087	5.2727	5.e-002	-3.321e-007
12799	9.6087	5.	0.	-12.428
12800	9.5163	5.0909	0.	-11.973
12801	9.6087	5.0909	5.e-002	-1.1058e-006
12802	9.6087	4.8182	0.	-15.764
12803	9.5163	4.9091	0.	-15.621
12804	9.6087	4.9091	5.e-002	-9.9782e-007
12805	9.6087	4.6364	0.	-18.874
12806	9.5163	4.7273	0.	-19.039
12807	9.6087	4.7273	5.e-002	-1.5498e-006
12808	9.6087	4.4545	0.	-21.733
12809	9.5163	4.5455	0.	-22.204
12810	9.6087	4.5455	5.e-002	-9.1466e-007
12811	9.6087	4.2727	0.	-24.318
12812	9.5163	4.3636	0.	-25.089
12813	9.6087	4.3636	5.e-002	-1.6504e-006
12814	9.6087	4.0909	0.	-26.607
12815	9.5163	4.1818	0.	-27.671
12816	9.6087	4.1818	5.e-002	-1.5951e-006
12817	9.6087	3.9091	0.	-28.581
12818	9.5163	4.	0.	-29.929
12819	9.6087	4.	5.e-002	-1.2413e-006
12820	9.6087	3.7273	0.	-30.222
12821	9.5163	3.8182	0.	-31.842
12822	9.6087	3.8182	5.e-002	-1.5254e-006
12823	9.6087	3.5455	0.	-31.514
12824	9.5163	3.6364	0.	-33.394
12825	9.6087	3.6364	5.e-002	-1.4645e-007
12826	9.6087	3.3636	0.	-32.446
12827	9.5163	3.4545	0.	-34.571
12828	9.6087	3.4545	5.e-002	-3.7843e-007
12829	9.6087	3.1818	0.	-33.009
12830	9.5163	3.2727	0.	-35.362
12831	9.6087	3.2727	5.e-002	-1.433e-007
12832	9.6087	3.	0.	-33.197
12833	9.5163	3.0909	0.	-35.759
12834	9.6087	3.0909	5.e-002	5.8634e-007
12835	9.6087	2.8182	0.	-33.009
12836	9.5163	2.9091	0.	-35.759
12837	9.6087	2.9091	5.e-002	1.0826e-006
12838	9.6087	2.6364	0.	-32.446
12839	9.5163	2.7273	0.	-35.362
12840	9.6087	2.7273	5.e-002	1.5737e-006
12841	9.6087	2.4545	0.	-31.514
12842	9.5163	2.5455	0.	-34.571
12843	9.6087	2.5455	5.e-002	1.8201e-006
12844	9.6087	2.2727	0.	-30.222
12845	9.5163	2.3636	0.	-33.394
12846	9.6087	2.3636	5.e-002	1.8232e-006
12847	9.6087	2.0909	0.	-28.581
12848	9.5163	2.1818	0.	-31.842
12849	9.6087	2.1818	5.e-002	2.0218e-006
12850	9.6087	1.9091	0.	-26.607
12851	9.5163	2.	0.	-29.929
12852	9.6087	2.	5.e-002	1.975e-006
12853	9.6087	1.7273	0.	-24.318
12854	9.5163	1.8182	0.	-27.671
12855	9.6087	1.8182	5.e-002	2.3644e-006
12856	9.6087	1.5455	0.	-21.733
12857	9.5163	1.6364	0.	-25.089
12858	9.6087	1.6364	5.e-002	2.4874e-006
12859	9.6087	1.3636	0.	-18.874
12860	9.5163	1.4545	0.	-22.204
12861	9.6087	1.4545	5.e-002	2.5144e-006
12862	9.6087	1.1818	0.	-15.764
12863	9.5163	1.2727	0.	-19.039
12864	9.6087	1.2727	5.e-002	2.5021e-006
12865	9.6087	1.	0.	-12.428
12866	9.5163	1.0909	0.	-15.621
12867	9.6087	1.0909	5.e-002	2.7831e-006
12868	9.6087	0.81818	0.	-8.8901
12869	9.5163	0.90909	0.	-11.973
12870	9.6087	0.90909	5.e-002	3.209e-006
12871	9.6087	0.63636	0.	-5.1738
12872	9.5163	0.72727	0.	-8.1242
12873	9.6087	0.72727	5.e-002	2.5316e-006
12874	9.6087	0.45455	0.	-1.2746
12875	9.5163	0.54545	0.	-4.0974
12876	9.6087	0.54545	5.e-002	1.7595e-006
12877	9.6087	0.27273	0.	-3.304e-003
12878	9.5163	0.36364	0.	-4.1974e-003
12879	9.6087	0.36364	5.e-002	2.3259e-006
12880	9.5163	0.18182	0.	-1.8424e-002
12881	9.6087	0.18182	5.e-002	2.6419e-005
12882	9.6087	9.0909e-002	0.	-5.0243e-003
12883	9.4239	5.7273	0.	-9.7601e-003
12884	9.3315	5.8182	0.	-2.5506e-002
12885	9.4239	5.8182	5.e-002	-2.1723e-005
12886	9.4239	5.9091	0.	-7.5075e-003
12887	9.4239	5.5455	0.	-2.7043
12888	9.3315	5.6364	0.	-1.0953
12889	9.4239	5.6364	5.e-002	1.1614e-007
12890	9.4239	5.3636	0.	-7.0649
12891	9.3315	5.4545	0.	-5.8112
12892	9.4239	5.4545	5.e-002	2.8543e-007
12893	9.4239	5.1818	0.	-11.224
12894	9.3315	5.2727	0.	-10.305
12895	9.4239	5.2727	5.e-002	-8.6166e-007
12896	9.4239	5.	0.	-15.181
12897	9.3315	5.0909	0.	-14.6
12898	9.4239	5.0909	5.e-002	-7.8966e-007
12899	9.4239	4.8182	0.	-18.91
12900	9.3315	4.9091	0.	-18.667
12901	9.4239	4.9091	5.e-002	-1.6682e-006
12902	9.4239	4.6364	0.	-22.383
12903	9.3315	4.7273	0.	-22.477
12904	9.4239	4.7273	5.e-002	-1.7989e-006
12905	9.4239	4.4545	0.	-25.573
12906	9.3315	4.5455	0.	-26.001
12907	9.4239	4.5455	5.e-002	-1.8031e-006
12908	9.4239	4.2727	0.	-28.455
12909	9.3315	4.3636	0.	-29.212
12910	9.4239	4.3636	5.e-002	-1.9317e-006
12911	9.4239	4.0909	0.	-31.005
12912	9.3315	4.1818	0.	-32.083
12913	9.4239	4.1818	5.e-002	-2.7738e-006
12914	9.4239	3.9091	0.	-33.201
12915	9.3315	4.	0.	-34.592
12916	9.4239	4.	5.e-002	-1.6482e-006
12917	9.4239	3.7273	0.	-35.026
12918	9.3315	3.8182	0.	-36.717
12919	9.4239	3.8182	5.e-002	-1.2126e-006
12920	9.4239	3.5455	0.	-36.462
12921	9.3315	3.6364	0.	-38.439
12922	9.4239	3.6364	5.e-002	-4.9899e-007
12923	9.4239	3.3636	0.	-37.497
12924	9.3315	3.4545	0.	-39.745
12925	9.4239	3.4545	5.e-002	7.2438e-007
12926	9.4239	3.1818	0.	-38.122
12927	9.3315	3.2727	0.	-40.622
12928	9.4239	3.2727	5.e-002	-4.2978e-007
12929	9.4239	3.	0.	-38.331
12930	9.3315	3.0909	0.	-41.062
12931	9.4239	3.0909	5.e-002	1.7617e-006
12932	9.4239	2.8182	0.	-38.122
12933	9.3315	2.9091	0.	-41.062
12934	9.4239	2.9091	5.e-002	1.5758e-006
12935	9.4239	2.6364	0.	-37.497
12936	9.3315	2.7273	0.	-40.622
12937	9.4239	2.7273	5.e-002	1.8621e-006
12938	9.4239	2.4545	0.	-36.462
12939	9.3315	2.5455	0.	-39.745
12940	9.4239	2.5455	5.e-002	2.1361e-006
12941	9.4239	2.2727	0.	-35.026
12942	9.3315	2.3636	0.	-38.439
12943	9.4239	2.3636	5.e-002	1.9378e-006
12944	9.4239	2.0909	0.	-33.201
12945	9.3315	2.1818	0.	-36.717
12946	9.4239	2.1818	5.e-002	1.9442e-006
12947	9.4239	1.9091	0.	-31.005
12948	9.3315	2.	0.	-34.592
12949	9.4239	2.	5.e-002	2.3897e-006
12950	9.4239	1.7273	0.	-28.455
12951	9.3315	1.8182	0.	-32.083
12952	9.4239	1.8182	5.e-002	2.9501e-006
12953	9.4239	1.5455	0.	-25.573
12954	9.3315	1.6364	0.	-29.212
12955	9.4239	1.6364	5.e-002	2.646e-006
12956	9.4239	1.3636	0.	-22.383
12957	9.3315	1.4545	0.	-26.001
12958	9.4239	1.4545	5.e-002	2.7552e-006
12959	9.4239	1.1818	0.	-18.91
12960	9.3315	1.2727	0.	-22.477
12961	9.4239	1.2727	5.e-002	2.7508e-006
12962	9.4239	1.	0.	-15.181
12963	9.3315	1.0909	0.	-18.667
12964	9.4239	1.0909	5.e-002	3.0956e-006
12965	9.4239	0.81818	0.	-11.224
12966	9.3315	0.90909	0.	-14.6
12967	9.4239	0.90909	5.e-002	3.1476e-006
12968	9.4239	0.63636	0.	-7.065
12969	9.3315	0.72727	0.	-10.305
12970	9.4239	0.72727	5.e-002	2.5264e-006
12971	9.4239	0.45455	0.	-2.7043
12972	9.3315	0.54545	0.	-5.8112
12973	9.4239	0.54545	5.e-002	2.5085e-006
12974	9.4239	0.27273	0.	-9.7591e-003
12975	9.3315	0.36364	0.	-1.0953
12976	9.4239	0.36364	5.e-002	2.5062e-006
12977	9.3315	0.18182	0.	-2.5505e-002
12978	9.4239	0.18182	5.e-002	2.8433e-005
12979	9.4239	9.0909e-002	0.	-7.5064e-003
12980	9.2391	5.7273	0.	-3.0295e-002
12981	9.1467	5.8182	0.	-3.6505e-002
12982	9.2391	5.8182	5.e-002	-3.0367e-005
12983	9.2391	5.9091	0.	-1.1329e-002
12984	9.2391	5.5455	0.	-4.2177
12985	9.1467	5.6364	0.	-2.3969
12986	9.2391	5.6364	5.e-002	-3.3521e-007
12987	9.2391	5.3636	0.	-9.0678
12988	9.1467	5.4545	0.	-7.6282
12989	9.2391	5.4545	5.e-002	-1.0515e-007
12990	9.2391	5.1818	0.	-13.696
12991	9.1467	5.2727	0.	-12.618
12992	9.2391	5.2727	5.e-002	-1.5352e-006
12993	9.2391	5.	0.	-18.1
12994	9.1467	5.0909	0.	-17.387
12995	9.2391	5.0909	5.e-002	-1.0993e-006
12996	9.2391	4.8182	0.	-22.248
12997	9.1467	4.9091	0.	-21.902
12998	9.2391	4.9091	5.e-002	-2.0962e-006
12999	9.2391	4.6364	0.	-26.108
13000	9.1467	4.7273	0.	-26.13
13001	9.2391	4.7273	5.e-002	-2.6932e-006
13002	9.2391	4.4545	0.	-29.653
13003	9.1467	4.5455	0.	-30.039
13004	9.2391	4.5455	5.e-002	-1.6761e-006
13005	9.2391	4.2727	0.	-32.852
13006	9.1467	4.3636	0.	-33.599
13007	9.2391	4.3636	5.e-002	-2.1708e-006
13008	9.2391	4.0909	0.	-35.682
13009	9.1467	4.1818	0.	-36.781
13010	9.2391	4.1818	5.e-002	-1.7955e-006
13011	9.2391	3.9091	0.	-38.118
13012	9.1467	4.	0.	-39.56
13013	9.2391	4.	5.e-002	-2.0746e-006
13014	9.2391	3.7273	0.	-40.141
13015	9.1467	3.8182	0.	-41.912
13016	9.2391	3.8182	5.e-002	-1.8236e-006
13017	9.2391	3.5455	0.	-41.733
13018	9.1467	3.6364	0.	-43.819
13019	9.2391	3.6364	5.e-002	-5.8891e-007
13020	9.2391	3.3636	0.	-42.879
13021	9.1467	3.4545	0.	-45.263
13022	9.2391	3.4545	5.e-002	-3.2296e-007
13023	9.2391	3.1818	0.	-43.572
13024	9.1467	3.2727	0.	-46.233
13025	9.2391	3.2727	5.e-002	-2.4575e-009
13026	9.2391	3.	0.	-43.803
13027	9.1467	3.0909	0.	-46.72
13028	9.2391	3.0909	5.e-002	7.9154e-007
13029	9.2391	2.8182	0.	-43.572
13030	9.1467	2.9091	0.	-46.72
13031	9.2391	2.9091	5.e-002	1.5933e-006
13032	9.2391	2.6364	0.	-42.879
13033	9.1467	2.7273	0.	-46.233
13034	9.2391	2.7273	5.e-002	1.4375e-006
13035	9.2391	2.4545	0.	-41.733
13036	9.1467	2.5455	0.	-45.263
13037	9.2391	2.5455	5.e-002	2.2227e-006
13038	9.2391	2.2727	0.	-40.141
13039	9.1467	2.3636	0.	-43.819
13040	9.2391	2.3636	5.e-002	2.0386e-006
13041	9.2391	2.0909	0.	-38.118
13042	9.1467	2.1818	0.	-41.912
13043	9.2391	2.1818	5.e-002	1.8236e-006
13044	9.2391	1.9091	0.	-35.682
13045	9.1467	2.	0.	-39.56
13046	9.2391	2.	5.e-002	2.1047e-006
13047	9.2391	1.7273	0.	-32.852
13048	9.1467	1.8182	0.	-36.781
13049	9.2391	1.8182	5.e-002	2.2716e-006
13050	9.2391	1.5455	0.	-29.653
13051	9.1467	1.6364	0.	-33.599
13052	9.2391	1.6364	5.e-002	2.9633e-006
13053	9.2391	1.3636	0.	-26.108
13054	9.1467	1.4545	0.	-30.039
13055	9.2391	1.4545	5.e-002	3.5558e-006
13056	9.2391	1.1818	0.	-22.248
13057	9.1467	1.2727	0.	-26.13
13058	9.2391	1.2727	5.e-002	3.7381e-006
13059	9.2391	1.	0.	-18.1
13060	9.1467	1.0909	0.	-21.902
13061	9.2391	1.0909	5.e-002	3.3012e-006
13062	9.2391	0.81818	0.	-13.696
13063	9.1467	0.90909	0.	-17.387
13064	9.2391	0.90909	5.e-002	3.1197e-006
13065	9.2391	0.63636	0.	-9.0678
13066	9.1467	0.72727	0.	-12.618
13067	9.2391	0.72727	5.e-002	3.3078e-006
13068	9.2391	0.45455	0.	-4.2177
13069	9.1467	0.54545	0.	-7.6282
13070	9.2391	0.54545	5.e-002	2.4932e-006
13071	9.2391	0.27273	0.	-3.0294e-002
13072	9.1467	0.36364	0.	-2.3969
13073	9.2391	0.36364	5.e-002	2.4758e-006
13074	9.1467	0.18182	0.	-3.6504e-002
13075	9.2391	0.18182	5.e-002	3.0843e-005
13076	9.2391	9.0909e-002	0.	-1.1328e-002
13077	9.0543	5.7273	0.	-0.17514
13078	8.962	5.8182	0.	-5.507e-002
13079	9.0543	5.8182	5.e-002	-3.1608e-005
13080	9.0543	5.9091	0.	-1.7321e-002
13081	9.0543	5.5455	0.	-5.8236
13082	8.962	5.6364	0.	-3.7797
13083	9.0543	5.6364	5.e-002	-8.0775e-007
13084	9.0543	5.3636	0.	-11.195
13085	8.962	5.4545	0.	-9.5591
13086	9.0543	5.4545	5.e-002	-8.0489e-008
13087	9.0543	5.1818	0.	-16.324
13088	8.962	5.2727	0.	-15.078
13089	9.0543	5.2727	5.e-002	-1.2967e-006
13090	9.0543	5.	0.	-21.203
13091	8.962	5.0909	0.	-20.354
13092	9.0543	5.0909	5.e-002	-1.2924e-006
13093	9.0543	4.8182	0.	-25.798
13094	8.962	4.9091	0.	-25.347
13095	9.0543	4.9091	5.e-002	-2.5225e-006
13096	9.0543	4.6364	0.	-30.074
13097	8.962	4.7273	0.	-30.023
13098	9.0543	4.7273	5.e-002	-2.065e-006
13099	9.0543	4.4545	0.	-33.998
13100	8.962	4.5455	0.	-34.344
13101	9.0543	4.5455	5.e-002	-1.5409e-006
13102	9.0543	4.2727	0.	-37.539
13103	8.962	4.3636	0.	-38.279
13104	9.0543	4.3636	5.e-002	-2.2808e-006
13105	9.0543	4.0909	0.	-40.67
13106	8.962	4.1818	0.	-41.795
13107	9.0543	4.1818	5.e-002	-2.5522e-006
13108	9.0543	3.9091	0.	-43.364
13109	8.962	4.	0.	-44.864
13110	9.0543	4.	5.e-002	-1.7979e-006
13111	9.0543	3.7273	0.	-45.6
13112	8.962	3.8182	0.	-47.462
13113	9.0543	3.8182	5.e-002	-1.0333e-006
13114	9.0543	3.5455	0.	-47.359
13115	8.962	3.6364	0.	-49.567
13116	9.0543	3.6364	5.e-002	2.2056e-007
13117	9.0543	3.3636	0.	-48.627
13118	8.962	3.4545	0.	-51.161
13119	9.0543	3.4545	5.e-002	5.6148e-007
13120	9.0543	3.1818	0.	-49.391
13121	8.962	3.2727	0.	-52.232
13122	9.0543	3.2727	5.e-002	-5.7534e-008
13123	9.0543	3.	0.	-49.647
13124	8.962	3.0909	0.	-52.769
13125	9.0543	3.0909	5.e-002	1.2502e-006
13126	9.0543	2.8182	0.	-49.391
13127	8.962	2.9091	0.	-52.769
13128	9.0543	2.9091	5.e-002	1.1348e-006
13129	9.0543	2.6364	0.	-48.627
13130	8.962	2.7273	0.	-52.232
13131	9.0543	2.7273	5.e-002	1.4941e-006
13132	9.0543	2.4545	0.	-47.359
13133	8.962	2.5455	0.	-51.161
13134	9.0543	2.5455	5.e-002	1.83e-006
13135	9.0543	2.2727	0.	-45.6
13136	8.962	2.3636	0.	-49.567
13137	9.0543	2.3636	5.e-002	2.6279e-006
13138	9.0543	2.0909	0.	-43.364
13139	8.962	2.1818	0.	-47.462
13140	9.0543	2.1818	5.e-002	2.9373e-006
13141	9.0543	1.9091	0.	-40.67
13142	8.962	2.	0.	-44.864
13143	9.0543	2.	5.e-002	2.7504e-006
13144	9.0543	1.7273	0.	-37.539
13145	8.962	1.8182	0.	-41.795
13146	9.0543	1.8182	5.e-002	3.9803e-006
13147	9.0543	1.5455	0.	-33.998
13148	8.962	1.6364	0.	-38.279
13149	9.0543	1.6364	5.e-002	4.0083e-006
13150	9.0543	1.3636	0.	-30.074
13151	8.962	1.4545	0.	-34.344
13152	9.0543	1.4545	5.e-002	3.9979e-006
13153	9.0543	1.1818	0.	-25.798
13154	8.962	1.2727	0.	-30.023
13155	9.0543	1.2727	5.e-002	4.0715e-006
13156	9.0543	1.	0.	-21.203
13157	8.962	1.0909	0.	-25.347
13158	9.0543	1.0909	5.e-002	4.1989e-006
13159	9.0543	0.81818	0.	-16.324
13160	8.962	0.90909	0.	-20.354
13161	9.0543	0.90909	5.e-002	4.1424e-006
13162	9.0543	0.63636	0.	-11.195
13163	8.962	0.72727	0.	-15.078
13164	9.0543	0.72727	5.e-002	3.6754e-006
13165	9.0543	0.45455	0.	-5.8236
13166	8.962	0.54545	0.	-9.5591
13167	9.0543	0.54545	5.e-002	2.8106e-006
13168	9.0543	0.27273	0.	-0.17515
13169	8.962	0.36364	0.	-3.7797
13170	9.0543	0.36364	5.e-002	3.0252e-006
13171	8.962	0.18182	0.	-5.5069e-002
13172	9.0543	0.18182	5.e-002	3.2457e-005
13173	9.0543	9.0909e-002	0.	-1.732e-002
13174	8.8696	5.7273	0.	-1.0566
13175	8.7772	5.8182	0.	-9.0859e-002
13176	8.8696	5.8182	5.e-002	-3.4082e-005
13177	8.8696	5.9091	0.	-2.7075e-002
13178	8.8696	5.5455	0.	-7.531
13179	8.7772	5.6364	0.	-5.2502
13180	8.8696	5.6364	5.e-002	-1.5724e-006
13181	8.8696	5.3636	0.	-13.458
13182	8.7772	5.4545	0.	-11.615
13183	8.8696	5.4545	5.e-002	-5.4873e-007
13184	8.8696	5.1818	0.	-19.122
13185	8.7772	5.2727	0.	-17.7
13186	8.8696	5.2727	5.e-002	-1.9963e-006
13187	8.8696	5.	0.	-24.511
13188	8.7772	5.0909	0.	-23.517
13189	8.8696	5.0909	5.e-002	-2.1743e-006
13190	8.8696	4.8182	0.	-29.584
13191	8.7772	4.9091	0.	-29.024
13192	8.8696	4.9091	5.e-002	-1.9761e-006
13193	8.8696	4.6364	0.	-34.305
13194	8.7772	4.7273	0.	-34.179
13195	8.8696	4.7273	5.e-002	-2.2158e-006
13196	8.8696	4.4545	0.	-38.636
13197	8.7772	4.5455	0.	-38.944
13198	8.8696	4.5455	5.e-002	-2.6626e-006
13199	8.8696	4.2727	0.	-42.545
13200	8.7772	4.3636	0.	-43.281
13201	8.8696	4.3636	5.e-002	-2.476e-006
13202	8.8696	4.0909	0.	-45.999
13203	8.7772	4.1818	0.	-47.156
13204	8.8696	4.1818	5.e-002	-2.1865e-006
13205	8.8696	3.9091	0.	-48.972
13206	8.7772	4.	0.	-50.539
13207	8.8696	4.	5.e-002	-1.4907e-006
13208	8.8696	3.7273	0.	-51.438
13209	8.7772	3.8182	0.	-53.401
13210	8.8696	3.8182	5.e-002	-7.3051e-007
13211	8.8696	3.5455	0.	-53.378
13212	8.7772	3.6364	0.	-55.72
13213	8.8696	3.6364	5.e-002	-4.2048e-007
13214	8.8696	3.3636	0.	-54.775
13215	8.7772	3.4545	0.	-57.477
13216	8.8696	3.4545	5.e-002	4.4602e-007
13217	8.8696	3.1818	0.	-55.619
13218	8.7772	3.2727	0.	-58.656
13219	8.8696	3.2727	5.e-002	8.306e-007
13220	8.8696	3.	0.	-55.9
13221	8.7772	3.0909	0.	-59.248
13222	8.8696	3.0909	5.e-002	1.2294e-006
13223	8.8696	2.8182	0.	-55.619
13224	8.7772	2.9091	0.	-59.248
13225	8.8696	2.9091	5.e-002	1.6313e-006
13226	8.8696	2.6364	0.	-54.775
13227	8.7772	2.7273	0.	-58.656
13228	8.8696	2.7273	5.e-002	2.0327e-006
13229	8.8696	2.4545	0.	-53.378
13230	8.7772	2.5455	0.	-57.477
13231	8.8696	2.5455	5.e-002	2.8995e-006
13232	8.8696	2.2727	0.	-51.438
13233	8.7772	2.3636	0.	-55.72
13234	8.8696	2.3636	5.e-002	2.3266e-006
13235	8.8696	2.0909	0.	-48.972
13236	8.7772	2.1818	0.	-53.401
13237	8.8696	2.1818	5.e-002	3.1122e-006
13238	8.8696	1.9091	0.	-45.999
13239	8.7772	2.	0.	-50.539
13240	8.8696	2.	5.e-002	2.9661e-006
13241	8.8696	1.7273	0.	-42.545
13242	8.7772	1.8182	0.	-47.156
13243	8.8696	1.8182	5.e-002	4.1333e-006
13244	8.8696	1.5455	0.	-38.636
13245	8.7772	1.6364	0.	-43.281
13246	8.8696	1.6364	5.e-002	2.9516e-006
13247	8.8696	1.3636	0.	-34.305
13248	8.7772	1.4545	0.	-38.944
13249	8.8696	1.4545	5.e-002	3.9805e-006
13250	8.8696	1.1818	0.	-29.584
13251	8.7772	1.2727	0.	-34.179
13252	8.8696	1.2727	5.e-002	4.2362e-006
13253	8.8696	1.	0.	-24.511
13254	8.7772	1.0909	0.	-29.024
13255	8.8696	1.0909	5.e-002	4.0075e-006
13256	8.8696	0.81818	0.	-19.122
13257	8.7772	0.90909	0.	-23.517
13258	8.8696	0.90909	5.e-002	4.325e-006
13259	8.8696	0.63636	0.	-13.458
13260	8.7772	0.72727	0.	-17.7
13261	8.8696	0.72727	5.e-002	4.3679e-006
13262	8.8696	0.45455	0.	-7.5311
13263	8.7772	0.54545	0.	-11.615
13264	8.8696	0.54545	5.e-002	3.1863e-006
13265	8.8696	0.27273	0.	-1.0566
13266	8.7772	0.36364	0.	-5.2502
13267	8.8696	0.36364	5.e-002	3.4357e-006
13268	8.7772	0.18182	0.	-9.0858e-002
13269	8.8696	0.18182	5.e-002	3.4836e-005
13270	8.8696	9.0909e-002	0.	-2.7074e-002
13271	8.6848	5.7273	0.	-2.2471
13272	8.5924	5.8182	0.	-0.17731
13273	8.6848	5.8182	5.e-002	-3.8305e-005
13274	8.6848	5.9091	0.	-4.4083e-002
13275	8.6848	5.5455	0.	-9.3495
13276	8.5924	5.6364	0.	-6.816
13277	8.6848	5.6364	5.e-002	-1.6824e-006
13278	8.6848	5.3636	0.	-15.872
13279	8.5924	5.4545	0.	-13.808
13280	8.6848	5.4545	5.e-002	-1.6638e-006
13281	8.6848	5.1818	0.	-22.109
13282	8.5924	5.2727	0.	-20.499
13283	8.6848	5.2727	5.e-002	-2.0987e-006
13284	8.6848	5.	0.	-28.043
13285	8.5924	5.0909	0.	-26.897
13286	8.6848	5.0909	5.e-002	-2.8326e-006
13287	8.6848	4.8182	0.	-33.63
13288	8.5924	4.9091	0.	-32.954
13289	8.6848	4.9091	5.e-002	-2.1731e-006
13290	8.6848	4.6364	0.	-38.829
13291	8.5924	4.7273	0.	-38.625
13292	8.6848	4.7273	5.e-002	-2.7851e-006
13293	8.6848	4.4545	0.	-43.598
13294	8.5924	4.5455	0.	-43.867
13295	8.6848	4.5455	5.e-002	-3.0025e-006
13296	8.6848	4.2727	0.	-47.902
13297	8.5924	4.3636	0.	-48.637
13298	8.6848	4.3636	5.e-002	-2.7845e-006
13299	8.6848	4.0909	0.	-51.705
13300	8.5924	4.1818	0.	-52.9
13301	8.6848	4.1818	5.e-002	-2.4938e-006
13302	8.6848	3.9091	0.	-54.977
13303	8.5924	4.	0.	-56.62
13304	8.6848	4.	5.e-002	-2.1894e-006
13305	8.6848	3.7273	0.	-57.692
13306	8.5924	3.8182	0.	-59.768
13307	8.6848	3.8182	5.e-002	-1.9525e-006
13308	8.6848	3.5455	0.	-59.827
13309	8.5924	3.6364	0.	-62.319
13310	8.6848	3.6364	5.e-002	-5.4944e-007
13311	8.6848	3.3636	0.	-61.365
13312	8.5924	3.4545	0.	-64.25
13313	8.6848	3.4545	5.e-002	-6.23e-007
13314	8.6848	3.1818	0.	-62.293
13315	8.5924	3.2727	0.	-65.547
13316	8.6848	3.2727	5.e-002	-6.5618e-007
13317	8.6848	3.	0.	-62.604
13318	8.5924	3.0909	0.	-66.198
13319	8.6848	3.0909	5.e-002	2.5494e-007
13320	8.6848	2.8182	0.	-62.293
13321	8.5924	2.9091	0.	-66.198
13322	8.6848	2.9091	5.e-002	2.6068e-006
13323	8.6848	2.6364	0.	-61.365
13324	8.5924	2.7273	0.	-65.547
13325	8.6848	2.7273	5.e-002	1.6127e-006
13326	8.6848	2.4545	0.	-59.827
13327	8.5924	2.5455	0.	-64.25
13328	8.6848	2.5455	5.e-002	2.0333e-006
13329	8.6848	2.2727	0.	-57.692
13330	8.5924	2.3636	0.	-62.319
13331	8.6848	2.3636	5.e-002	2.9317e-006
13332	8.6848	2.0909	0.	-54.977
13333	8.5924	2.1818	0.	-59.768
13334	8.6848	2.1818	5.e-002	3.3466e-006
13335	8.6848	1.9091	0.	-51.705
13336	8.5924	2.	0.	-56.62
13337	8.6848	2.	5.e-002	3.6172e-006
13338	8.6848	1.7273	0.	-47.902
13339	8.5924	1.8182	0.	-52.9
13340	8.6848	1.8182	5.e-002	3.4931e-006
13341	8.6848	1.5455	0.	-43.598
13342	8.5924	1.6364	0.	-48.637
13343	8.6848	1.6364	5.e-002	4.7942e-006
13344	8.6848	1.3636	0.	-38.829
13345	8.5924	1.4545	0.	-43.867
13346	8.6848	1.4545	5.e-002	3.9524e-006
13347	8.6848	1.1818	0.	-33.63
13348	8.5924	1.2727	0.	-38.625
13349	8.6848	1.2727	5.e-002	4.5995e-006
13350	8.6848	1.	0.	-28.043
13351	8.5924	1.0909	0.	-32.954
13352	8.6848	1.0909	5.e-002	4.1117e-006
13353	8.6848	0.81818	0.	-22.109
13354	8.5924	0.90909	0.	-26.897
13355	8.6848	0.90909	5.e-002	4.4915e-006
13356	8.6848	0.63636	0.	-15.872
13357	8.5924	0.72727	0.	-20.499
13358	8.6848	0.72727	5.e-002	3.9936e-006
13359	8.6848	0.45455	0.	-9.3495
13360	8.5924	0.54545	0.	-13.808
13361	8.6848	0.54545	5.e-002	4.3449e-006
13362	8.6848	0.27273	0.	-2.2471
13363	8.5924	0.36364	0.	-6.816
13364	8.6848	0.36364	5.e-002	3.7161e-006
13365	8.5924	0.18182	0.	-0.17731
13366	8.6848	0.18182	5.e-002	3.7621e-005
13367	8.6848	9.0909e-002	0.	-4.4083e-002
13368	8.5	5.7273	0.	-3.5363
13369	8.4076	5.8182	0.	-0.45992
13370	8.5	5.8182	5.e-002	-3.5836e-005
13371	8.5	5.9091	0.	-7.7181e-002
13372	8.5	5.5455	0.	-11.289
13373	8.4076	5.6364	0.	-8.4848
13374	8.5	5.6364	5.e-002	-2.6589e-006
13375	8.5	5.3636	0.	-18.449
13376	8.4076	5.4545	0.	-16.149
13377	8.5	5.4545	5.e-002	-1.9759e-006
13378	8.5	5.1818	0.	-25.301
13379	8.4076	5.2727	0.	-23.492
13380	8.5	5.2727	5.e-002	-3.5308e-006
13381	8.5	5.	0.	-31.821
13382	8.4076	5.0909	0.	-30.514
13383	8.5	5.0909	5.e-002	-2.8704e-006
13384	8.5	4.8182	0.	-37.96
13385	8.4076	4.9091	0.	-37.163
13386	8.5	4.9091	5.e-002	-3.4697e-006
13387	8.5	4.6364	0.	-43.673
13388	8.4076	4.7273	0.	-43.389
13389	8.5	4.7273	5.e-002	-4.876e-006
13390	8.5	4.4545	0.	-48.915
13391	8.4076	4.5455	0.	-49.144
13392	8.5	4.5455	5.e-002	-3.374e-006
13393	8.5	4.2727	0.	-53.644
13394	8.4076	4.3636	0.	-54.382
13395	8.5	4.3636	5.e-002	-4.5457e-006
13396	8.5	4.0909	0.	-57.823
13397	8.4076	4.1818	0.	-59.062
13398	8.5	4.1818	5.e-002	-3.3497e-006
13399	8.5	3.9091	0.	-61.419
13400	8.4076	4.	0.	-63.147
13401	8.5	4.	5.e-002	-2.9505e-006
13402	8.5	3.7273	0.	-64.403
13403	8.4076	3.8182	0.	-66.604
13404	8.5	3.8182	5.e-002	-2.648e-006
13405	8.5	3.5455	0.	-66.749
13406	8.4076	3.6364	0.	-69.404
13407	8.5	3.6364	5.e-002	-1.1409e-006
13408	8.5	3.3636	0.	-68.439
13409	8.4076	3.4545	0.	-71.525
13410	8.5	3.4545	5.e-002	-1.2139e-006
13411	8.5	3.1818	0.	-69.459
13412	8.4076	3.2727	0.	-72.949
13413	8.5	3.2727	5.e-002	-7.2016e-007
13414	8.5	3.	0.	-69.8
13415	8.4076	3.0909	0.	-73.664
13416	8.5	3.0909	5.e-002	-2.4379e-007
13417	8.5	2.8182	0.	-69.459
13418	8.4076	2.9091	0.	-73.664
13419	8.5	2.9091	5.e-002	1.1974e-006
13420	8.5	2.6364	0.	-68.439
13421	8.4076	2.7273	0.	-72.949
13422	8.5	2.7273	5.e-002	1.6826e-006
13423	8.5	2.4545	0.	-66.749
13424	8.4076	2.5455	0.	-71.525
13425	8.5	2.5455	5.e-002	1.1923e-006
13426	8.5	2.2727	0.	-64.403
13427	8.4076	2.3636	0.	-69.404
13428	8.5	2.3636	5.e-002	2.0937e-006
13429	8.5	2.0909	0.	-61.419
13430	8.4076	2.1818	0.	-66.604
13431	8.5	2.1818	5.e-002	2.648e-006
13432	8.5	1.9091	0.	-57.823
13433	8.4076	2.	0.	-63.147
13434	8.5	2.	5.e-002	3.8562e-006
13435	8.5	1.7273	0.	-53.644
13436	8.4076	1.8182	0.	-59.062
13437	8.5	1.8182	5.e-002	3.3497e-006
13438	8.5	1.5455	0.	-48.915
13439	8.4076	1.6364	0.	-54.382
13440	8.5	1.6364	5.e-002	4.0708e-006
13441	8.5	1.3636	0.	-43.673
13442	8.4076	1.4545	0.	-49.144
13443	8.5	1.4545	5.e-002	4.471e-006
13444	8.5	1.1818	0.	-37.96
13445	8.4076	1.2727	0.	-43.389
13446	8.5	1.2727	5.e-002	4.7321e-006
13447	8.5	1.	0.	-31.821
13448	8.4076	1.0909	0.	-37.163
13449	8.5	1.0909	5.e-002	4.0975e-006
13450	8.5	0.81818	0.	-25.301
13451	8.4076	0.90909	0.	-30.514
13452	8.5	0.90909	5.e-002	4.7637e-006
13453	8.5	0.63636	0.	-18.449
13454	8.4076	0.72727	0.	-23.492
13455	8.5	0.72727	5.e-002	5.3568e-006
13456	8.5	0.45455	0.	-11.289
13457	8.4076	0.54545	0.	-16.149
13458	8.5	0.54545	5.e-002	4.9892e-006
13459	8.5	0.27273	0.	-3.5363
13460	8.4076	0.36364	0.	-8.4848
13461	8.5	0.36364	5.e-002	4.2857e-006
13462	8.4076	0.18182	0.	-0.45992
13463	8.5	0.18182	5.e-002	3.6311e-005
13464	8.5	9.0909e-002	0.	-7.718e-002
13465	8.3152	5.7273	0.	-4.9139
13466	8.2228	5.8182	0.	-1.1991
13467	8.3152	5.8182	5.e-002	-3.8352e-005
13468	8.3152	5.9091	0.	-0.15391
13469	8.3152	5.5455	0.	-13.359
13470	8.2228	5.6364	0.	-10.265
13471	8.3152	5.6364	5.e-002	-2.5645e-006
13472	8.3152	5.3636	0.	-21.205
13473	8.2228	5.4545	0.	-18.652
13474	8.3152	5.4545	5.e-002	-2.3382e-006
13475	8.3152	5.1818	0.	-28.717
13476	8.2228	5.2727	0.	-26.695
13477	8.3152	5.2727	5.e-002	-3.0959e-006
13478	8.3152	5.	0.	-35.868
13479	8.2228	5.0909	0.	-34.39
13480	8.3152	5.0909	5.e-002	-4.1566e-006
13481	8.3152	4.8182	0.	-42.602
13482	8.2228	4.9091	0.	-41.676
13483	8.3152	4.9091	5.e-002	-4.181e-006
13484	8.3152	4.6364	0.	-48.869
13485	8.2228	4.7273	0.	-48.5
13486	8.3152	4.7273	5.e-002	-5.0203e-006
13487	8.3152	4.4545	0.	-54.619
13488	8.2228	4.5455	0.	-54.808
13489	8.3152	4.5455	5.e-002	-3.9936e-006
13490	8.3152	4.2727	0.	-59.808
13491	8.2228	4.3636	0.	-60.551
13492	8.3152	4.3636	5.e-002	-3.4881e-006
13493	8.3152	4.0909	0.	-64.394
13494	8.2228	4.1818	0.	-65.683
13495	8.3152	4.1818	5.e-002	-2.916e-006
13496	8.3152	3.9091	0.	-68.339
13497	8.2228	4.	0.	-70.162
13498	8.3152	4.	5.e-002	-2.7374e-006
13499	8.3152	3.7273	0.	-71.613
13500	8.2228	3.8182	0.	-73.952
13501	8.3152	3.8182	5.e-002	-2.292e-006
13502	8.3152	3.5455	0.	-74.188
13503	8.2228	3.6364	0.	-77.023
13504	8.3152	3.6364	5.e-002	-1.8179e-006
13505	8.3152	3.3636	0.	-76.042
13506	8.2228	3.4545	0.	-79.349
13507	8.3152	3.4545	5.e-002	-1.3314e-006
13508	8.3152	3.1818	0.	-77.161
13509	8.2228	3.2727	0.	-80.91
13510	8.3152	3.2727	5.e-002	-7.8778e-007
13511	8.3152	3.	0.	-77.535
13512	8.2228	3.0909	0.	-81.694
13513	8.3152	3.0909	5.e-002	-2.6546e-007
13514	8.3152	2.8182	0.	-77.161
13515	8.2228	2.9091	0.	-81.694
13516	8.3152	2.9091	5.e-002	2.6516e-007
13517	8.3152	2.6364	0.	-76.042
13518	8.2228	2.7273	0.	-80.911
13519	8.3152	2.7273	5.e-002	1.7448e-006
13520	8.3152	2.4545	0.	-74.188
13521	8.2228	2.5455	0.	-79.349
13522	8.3152	2.5455	5.e-002	2.2845e-006
13523	8.3152	2.2727	0.	-71.613
13524	8.2228	2.3636	0.	-77.023
13525	8.3152	2.3636	5.e-002	2.7539e-006
13526	8.3152	2.0909	0.	-68.339
13527	8.2228	2.1818	0.	-73.952
13528	8.3152	2.1818	5.e-002	2.2084e-006
13529	8.3152	1.9091	0.	-64.394
13530	8.2228	2.	0.	-70.162
13531	8.3152	2.	5.e-002	2.5864e-006
13532	8.3152	1.7273	0.	-59.808
13533	8.2228	1.8182	0.	-65.683
13534	8.3152	1.8182	5.e-002	4.3995e-006
13535	8.3152	1.5455	0.	-54.619
13536	8.2228	1.6364	0.	-60.551
13537	8.3152	1.6364	5.e-002	3.9627e-006
13538	8.3152	1.3636	0.	-48.869
13539	8.2228	1.4545	0.	-54.808
13540	8.3152	1.4545	5.e-002	6.1814e-006
13541	8.3152	1.1818	0.	-42.602
13542	8.2228	1.2727	0.	-48.5
13543	8.3152	1.2727	5.e-002	5.2325e-006
13544	8.3152	1.	0.	-35.868
13545	8.2228	1.0909	0.	-41.676
13546	8.3152	1.0909	5.e-002	4.6541e-006
13547	8.3152	0.81818	0.	-28.717
13548	8.2228	0.90909	0.	-34.39
13549	8.3152	0.90909	5.e-002	4.3928e-006
13550	8.3152	0.63636	0.	-21.205
13551	8.2228	0.72727	0.	-26.695
13552	8.3152	0.72727	5.e-002	4.8122e-006
13553	8.3152	0.45455	0.	-13.359
13554	8.2228	0.54545	0.	-18.652
13555	8.3152	0.54545	5.e-002	4.7373e-006
13556	8.3152	0.27273	0.	-4.9139
13557	8.2228	0.36364	0.	-10.265
13558	8.3152	0.36364	5.e-002	5.0561e-006
13559	8.2228	0.18182	0.	-1.1991
13560	8.3152	0.18182	5.e-002	4.0352e-005
13561	8.3152	9.0909e-002	0.	-0.15391
13562	8.1304	5.7273	0.	-6.3825
13563	8.038	5.8182	0.	-2.2363
13564	8.1304	5.8182	5.e-002	-3.9505e-005
13565	8.1304	5.9091	0.	-0.36493
13566	8.1304	5.5455	0.	-15.571
13567	8.038	5.6364	0.	-12.164
13568	8.1304	5.6364	5.e-002	-4.153e-006
13569	8.1304	5.3636	0.	-24.154
13570	8.038	5.4545	0.	-21.33
13571	8.1304	5.4545	5.e-002	-2.1946e-006
13572	8.1304	5.1818	0.	-32.378
13573	8.038	5.2727	0.	-30.128
13574	8.1304	5.2727	5.e-002	-3.2439e-006
13575	8.1304	5.	0.	-40.208
13576	8.038	5.0909	0.	-38.546
13577	8.1304	5.0909	5.e-002	-4.0006e-006
13578	8.1304	4.8182	0.	-47.583
13579	8.038	4.9091	0.	-46.52
13580	8.1304	4.9091	5.e-002	-4.1617e-006
13581	8.1304	4.6364	0.	-54.448
13582	8.038	4.7273	0.	-53.989
13583	8.1304	4.7273	5.e-002	-5.0588e-006
13584	8.1304	4.4545	0.	-60.748
13585	8.038	4.5455	0.	-60.895
13586	8.1304	4.5455	5.e-002	-4.0249e-006
13587	8.1304	4.2727	0.	-66.433
13588	8.038	4.3636	0.	-67.183
13589	8.1304	4.3636	5.e-002	-3.8896e-006
13590	8.1304	4.0909	0.	-71.457
13591	8.038	4.1818	0.	-72.803
13592	8.1304	4.1818	5.e-002	-3.6276e-006
13593	8.1304	3.9091	0.	-75.781
13594	8.038	4.	0.	-77.709
13595	8.1304	4.	5.e-002	-2.9572e-006
13596	8.1304	3.7273	0.	-79.369
13597	8.038	3.8182	0.	-81.86
13598	8.1304	3.8182	5.e-002	-2.3864e-006
13599	8.1304	3.5455	0.	-82.191
13600	8.038	3.6364	0.	-85.224
13601	8.1304	3.6364	5.e-002	-1.9391e-006
13602	8.1304	3.3636	0.	-84.224
13603	8.038	3.4545	0.	-87.772
13604	8.1304	3.4545	5.e-002	-4.5233e-007
13605	8.1304	3.1818	0.	-85.45
13606	8.038	3.2727	0.	-89.483
13607	8.1304	3.2727	5.e-002	-8.6054e-007
13608	8.1304	3.	0.	-85.86
13609	8.038	3.0909	0.	-90.342
13610	8.1304	3.0909	5.e-002	-2.8955e-007
13611	8.1304	2.8182	0.	-85.45
13612	8.038	2.9091	0.	-90.342
13613	8.1304	2.9091	5.e-002	1.2432e-006
13614	8.1304	2.6364	0.	-84.224
13615	8.038	2.7273	0.	-89.483
13616	8.1304	2.7273	5.e-002	8.7232e-007
13617	8.1304	2.4545	0.	-82.191
13618	8.038	2.5455	0.	-87.772
13619	8.1304	2.5455	5.e-002	1.4053e-006
13620	8.1304	2.2727	0.	-79.369
13621	8.038	2.3636	0.	-85.224
13622	8.1304	2.3636	5.e-002	3.9314e-006
13623	8.1304	2.0909	0.	-75.781
13624	8.038	2.1818	0.	-81.86
13625	8.1304	2.1818	5.e-002	4.36e-006
13626	8.1304	1.9091	0.	-71.457
13627	8.038	2.	0.	-77.709
13628	8.1304	2.	5.e-002	3.0124e-006
13629	8.1304	1.7273	0.	-66.433
13630	8.038	1.8182	0.	-72.803
13631	8.1304	1.8182	5.e-002	4.5129e-006
13632	8.1304	1.5455	0.	-60.748
13633	8.038	1.6364	0.	-67.183
13634	8.1304	1.6364	5.e-002	3.8173e-006
13635	8.1304	1.3636	0.	-54.448
13636	8.038	1.4545	0.	-60.895
13637	8.1304	1.4545	5.e-002	5.4453e-006
13638	8.1304	1.1818	0.	-47.583
13639	8.038	1.2727	0.	-53.989
13640	8.1304	1.2727	5.e-002	4.9669e-006
13641	8.1304	1.	0.	-40.208
13642	8.038	1.0909	0.	-46.52
13643	8.1304	1.0909	5.e-002	5.223e-006
13644	8.1304	0.81818	0.	-32.378
13645	8.038	0.90909	0.	-38.546
13646	8.1304	0.90909	5.e-002	5.0208e-006
13647	8.1304	0.63636	0.	-24.154
13648	8.038	0.72727	0.	-30.128
13649	8.1304	0.72727	5.e-002	6.4337e-006
13650	8.1304	0.45455	0.	-15.571
13651	8.038	0.54545	0.	-21.33
13652	8.1304	0.54545	5.e-002	5.862e-006
13653	8.1304	0.27273	0.	-6.3826
13654	8.038	0.36364	0.	-12.164
13655	8.1304	0.36364	5.e-002	6.0421e-006
13656	8.038	0.18182	0.	-2.2363
13657	8.1304	0.18182	5.e-002	4.9563e-005
13658	8.1304	9.0909e-002	0.	-0.36494
13659	7.9457	5.7273	0.	-7.9472
13660	7.8533	5.8182	0.	-3.4037
13661	7.9457	5.8182	5.e-002	-3.9107e-005
13662	7.9457	5.9091	0.	-0.82625
13663	7.9457	5.5455	0.	-17.935
13664	7.8533	5.6364	0.	-14.192
13665	7.9457	5.6364	5.e-002	-5.0322e-006
13666	7.9457	5.3636	0.	-27.314
13667	7.8533	5.4545	0.	-24.197
13668	7.9457	5.4545	5.e-002	-4.7303e-006
13669	7.9457	5.1818	0.	-36.305
13670	7.8533	5.2727	0.	-33.808
13671	7.9457	5.2727	5.e-002	-4.4028e-006
13672	7.9457	5.	0.	-44.867
13673	7.8533	5.0909	0.	-43.007
13674	7.9457	5.0909	5.e-002	-4.4664e-006
13675	7.9457	4.8182	0.	-52.934
13676	7.8533	4.9091	0.	-51.724
13677	7.9457	4.9091	5.e-002	-5.7402e-006
13678	7.9457	4.6364	0.	-60.444
13679	7.8533	4.7273	0.	-59.89
13680	7.9457	4.7273	5.e-002	-5.2443e-006
13681	7.9457	4.4545	0.	-67.338
13682	7.8533	4.5455	0.	-67.442
13683	7.9457	4.5455	5.e-002	-4.9733e-006
13684	7.9457	4.2727	0.	-73.56
13685	7.8533	4.3636	0.	-74.32
13686	7.9457	4.3636	5.e-002	-4.3289e-006
13687	7.9457	4.0909	0.	-79.06
13688	7.8533	4.1818	0.	-80.468
13689	7.9457	4.1818	5.e-002	-3.9557e-006
13690	7.9457	3.9091	0.	-83.793
13691	7.8533	4.	0.	-85.835
13692	7.9457	4.	5.e-002	-3.2667e-006
13693	7.9457	3.7273	0.	-87.721
13694	7.8533	3.8182	0.	-90.379
13695	7.9457	3.8182	5.e-002	-3.6283e-006
13696	7.9457	3.5455	0.	-90.811
13697	7.8533	3.6364	0.	-94.06
13698	7.9457	3.6364	5.e-002	-2.106e-006
13699	7.9457	3.3636	0.	-93.036
13700	7.8533	3.4545	0.	-96.849
13701	7.9457	3.4545	5.e-002	-1.5573e-006
13702	7.9457	3.1818	0.	-94.379
13703	7.8533	3.2727	0.	-98.721
13704	7.9457	3.2727	5.e-002	-9.4648e-007
13705	7.9457	3.	0.	-94.828
13706	7.8533	3.0909	0.	-99.661
13707	7.9457	3.0909	5.e-002	6.3726e-007
13708	7.9457	2.8182	0.	-94.379
13709	7.8533	2.9091	0.	-99.661
13710	7.9457	2.9091	5.e-002	3.1638e-007
13711	7.9457	2.6364	0.	-93.036
13712	7.8533	2.7273	0.	-98.721
13713	7.9457	2.7273	5.e-002	9.5078e-007
13714	7.9457	2.4545	0.	-90.811
13715	7.8533	2.5455	0.	-96.849
13716	7.9457	2.5455	5.e-002	1.5846e-006
13717	7.9457	2.2727	0.	-87.721
13718	7.8533	2.3636	0.	-94.06
13719	7.9457	2.3636	5.e-002	3.1499e-006
13720	7.9457	2.0909	0.	-83.793
13721	7.8533	2.1818	0.	-90.379
13722	7.9457	2.1818	5.e-002	3.7035e-006
13723	7.9457	1.9091	0.	-79.06
13724	7.8533	2.	0.	-85.835
13725	7.9457	2.	5.e-002	5.2267e-006
13726	7.9457	1.7273	0.	-73.56
13727	7.8533	1.8182	0.	-80.468
13728	7.9457	1.8182	5.e-002	4.0257e-006
13729	7.9457	1.5455	0.	-67.338
13730	7.8533	1.6364	0.	-74.32
13731	7.9457	1.6364	5.e-002	5.1968e-006
13732	7.9457	1.3636	0.	-60.444
13733	7.8533	1.4545	0.	-67.442
13734	7.9457	1.4545	5.e-002	5.7438e-006
13735	7.9457	1.1818	0.	-52.934
13736	7.8533	1.2727	0.	-59.89
13737	7.9457	1.2727	5.e-002	6.0971e-006
13738	7.9457	1.	0.	-44.867
13739	7.8533	1.0909	0.	-51.724
13740	7.9457	1.0909	5.e-002	6.8869e-006
13741	7.9457	0.81818	0.	-36.305
13742	7.8533	0.90909	0.	-43.007
13743	7.9457	0.90909	5.e-002	5.6238e-006
13744	7.9457	0.63636	0.	-27.314
13745	7.8533	0.72727	0.	-33.808
13746	7.9457	0.72727	5.e-002	6.0393e-006
13747	7.9457	0.45455	0.	-17.935
13748	7.8533	0.54545	0.	-24.197
13749	7.9457	0.54545	5.e-002	6.8411e-006
13750	7.9457	0.27273	0.	-7.9472
13751	7.8533	0.36364	0.	-14.192
13752	7.9457	0.36364	5.e-002	6.6367e-006
13753	7.8533	0.18182	0.	-3.4037
13754	7.9457	0.18182	5.e-002	4.0965e-005
13755	7.9457	9.0909e-002	0.	-0.82626
13756	7.7609	5.7273	0.	-9.6135
13757	7.6685	5.8182	0.	-4.6627
13758	7.7609	5.8182	5.e-002	-5.0288e-005
13759	7.7609	5.9091	0.	-1.463
13760	7.7609	5.5455	0.	-20.464
13761	7.6685	5.6364	0.	-16.357
13762	7.7609	5.6364	5.e-002	-5.8745e-006
13763	7.7609	5.3636	0.	-30.7
13764	7.6685	5.4545	0.	-27.267
13765	7.7609	5.4545	5.e-002	-5.3168e-006
13766	7.7609	5.1818	0.	-40.519
13767	7.6685	5.2727	0.	-37.756
13768	7.7609	5.2727	5.e-002	-4.6371e-006
13769	7.7609	5.	0.	-49.872
13770	7.6685	5.0909	0.	-47.799
13771	7.7609	5.0909	5.e-002	-5.9153e-006
13772	7.7609	4.8182	0.	-58.687
13773	7.6685	4.9091	0.	-57.318
13774	7.7609	4.9091	5.e-002	-6.7417e-006
13775	7.7609	4.6364	0.	-66.895
13776	7.6685	4.7273	0.	-66.238
13777	7.7609	4.7273	5.e-002	-6.1478e-006
13778	7.7609	4.4545	0.	-74.43
13779	7.6685	4.5455	0.	-74.49
13780	7.7609	4.5455	5.e-002	-5.1544e-006
13781	7.7609	4.2727	0.	-81.234
13782	7.6685	4.3636	0.	-82.006
13783	7.7609	4.3636	5.e-002	-6.5288e-006
13784	7.7609	4.0909	0.	-87.248
13785	7.6685	4.1818	0.	-88.726
13786	7.7609	4.1818	5.e-002	-4.11e-006
13787	7.7609	3.9091	0.	-92.426
13788	7.6685	4.	0.	-94.594
13789	7.7609	4.	5.e-002	-4.698e-006
13790	7.7609	3.7273	0.	-96.723
13791	7.6685	3.8182	0.	-99.562
13792	7.7609	3.8182	5.e-002	-2.9392e-006
13793	7.7609	3.5455	0.	-100.1
13794	7.6685	3.6364	0.	-103.59
13795	7.7609	3.6364	5.e-002	-2.3256e-006
13796	7.7609	3.3636	0.	-102.54
13797	7.6685	3.4545	0.	-106.64
13798	7.7609	3.4545	5.e-002	-1.7274e-006
13799	7.7609	3.1818	0.	-104.01
13800	7.6685	3.2727	0.	-108.69
13801	7.7609	3.2727	5.e-002	-1.0249e-006
13802	7.7609	3.	0.	-104.5
13803	7.6685	3.0909	0.	-109.71
13804	7.7609	3.0909	5.e-002	-3.4592e-007
13805	7.7609	2.8182	0.	-104.01
13806	7.6685	2.9091	0.	-109.71
13807	7.7609	2.9091	5.e-002	3.4592e-007
13808	7.7609	2.6364	0.	-102.54
13809	7.6685	2.7273	0.	-108.69
13810	7.7609	2.7273	5.e-002	2.9362e-006
13811	7.7609	2.4545	0.	-100.1
13812	7.6685	2.5455	0.	-106.64
13813	7.7609	2.5455	5.e-002	2.6801e-006
13814	7.7609	2.2727	0.	-96.723
13815	7.6685	2.3636	0.	-103.59
13816	7.7609	2.3636	5.e-002	4.3346e-006
13817	7.7609	2.0909	0.	-92.426
13818	7.6685	2.1818	0.	-99.562
13819	7.7609	2.1818	5.e-002	4.9959e-006
13820	7.7609	1.9091	0.	-87.248
13821	7.6685	2.	0.	-94.594
13822	7.7609	2.	5.e-002	6.5962e-006
13823	7.7609	1.7273	0.	-81.234
13824	7.6685	1.8182	0.	-88.726
13825	7.7609	1.8182	5.e-002	4.1865e-006
13826	7.7609	1.5455	0.	-74.43
13827	7.6685	1.6364	0.	-82.006
13828	7.7609	1.6364	5.e-002	5.6694e-006
13829	7.7609	1.3636	0.	-66.895
13830	7.6685	1.4545	0.	-74.49
13831	7.7609	1.4545	5.e-002	6.0029e-006
13832	7.7609	1.1818	0.	-58.687
13833	7.6685	1.2727	0.	-66.238
13834	7.7609	1.2727	5.e-002	6.2517e-006
13835	7.7609	1.	0.	-49.872
13836	7.6685	1.0909	0.	-57.318
13837	7.7609	1.0909	5.e-002	7.4113e-006
13838	7.7609	0.81818	0.	-40.519
13839	7.6685	0.90909	0.	-47.799
13840	7.7609	0.90909	5.e-002	7.0877e-006
13841	7.7609	0.63636	0.	-30.7
13842	7.6685	0.72727	0.	-37.756
13843	7.7609	0.72727	5.e-002	6.9806e-006
13844	7.7609	0.45455	0.	-20.464
13845	7.6685	0.54545	0.	-27.267
13846	7.7609	0.54545	5.e-002	8.2924e-006
13847	7.7609	0.27273	0.	-9.6135
13848	7.6685	0.36364	0.	-16.357
13849	7.7609	0.36364	5.e-002	7.8992e-006
13850	7.6685	0.18182	0.	-4.6627
13851	7.7609	0.18182	5.e-002	5.2539e-005
13852	7.7609	9.0909e-002	0.	-1.463
13853	7.5761	5.7273	0.	-11.387
13854	7.4837	5.8182	0.	-6.0047
13855	7.5761	5.8182	5.e-002	-4.0339e-005
13856	7.5761	5.9091	0.	-2.1868
13857	7.5761	5.5455	0.	-23.17
13858	7.4837	5.6364	0.	-18.669
13859	7.5761	5.6364	5.e-002	-6.6871e-006
13860	7.5761	5.3636	0.	-34.331
13861	7.4837	5.4545	0.	-30.556
13862	7.5761	5.4545	5.e-002	-6.6963e-006
13863	7.5761	5.1818	0.	-45.044
13864	7.4837	5.2727	0.	-41.993
13865	7.5761	5.2727	5.e-002	-7.1067e-006
13866	7.5761	5.	0.	-55.251
13867	7.4837	5.0909	0.	-52.948
13868	7.5761	5.0909	5.e-002	-6.9798e-006
13869	7.5761	4.8182	0.	-64.875
13870	7.4837	4.9091	0.	-63.335
13871	7.5761	4.9091	5.e-002	-6.3887e-006
13872	7.5761	4.6364	0.	-73.838
13873	7.4837	4.7273	0.	-73.071
13874	7.5761	4.7273	5.e-002	-6.798e-006
13875	7.5761	4.4545	0.	-82.07
13876	7.4837	4.5455	0.	-82.08
13877	7.5761	4.5455	5.e-002	-5.6306e-006
13878	7.5761	4.2727	0.	-89.503
13879	7.4837	4.3636	0.	-90.289
13880	7.5761	4.3636	5.e-002	-5.2433e-006
13881	7.5761	4.0909	0.	-96.076
13882	7.4837	4.1818	0.	-97.629
13883	7.5761	4.1818	5.e-002	-5.4808e-006
13884	7.5761	3.9091	0.	-101.73
13885	7.4837	4.	0.	-104.04
13886	7.5761	4.	5.e-002	-3.967e-006
13887	7.5761	3.7273	0.	-106.43
13888	7.4837	3.8182	0.	-109.47
13889	7.5761	3.8182	5.e-002	-3.1317e-006
13890	7.5761	3.5455	0.	-110.13
13891	7.4837	3.6364	0.	-113.87
13892	7.5761	3.6364	5.e-002	-2.614e-006
13893	7.5761	3.3636	0.	-112.79
13894	7.4837	3.4545	0.	-117.2
13895	7.5761	3.4545	5.e-002	-1.0131e-006
13896	7.5761	3.1818	0.	-114.4
13897	7.4837	3.2727	0.	-119.44
13898	7.5761	3.2727	5.e-002	-1.109e-006
13899	7.5761	3.	0.	-114.93
13900	7.4837	3.0909	0.	-120.57
13901	7.5761	3.0909	5.e-002	-3.7338e-007
13902	7.5761	2.8182	0.	-114.4
13903	7.4837	2.9091	0.	-120.57
13904	7.5761	2.9091	5.e-002	1.3286e-006
13905	7.5761	2.6364	0.	-112.79
13906	7.4837	2.7273	0.	-119.44
13907	7.5761	2.7273	5.e-002	2.0597e-006
13908	7.5761	2.4545	0.	-110.13
13909	7.4837	2.5455	0.	-117.2
13910	7.5761	2.5455	5.e-002	1.974e-006
13911	7.5761	2.2727	0.	-106.43
13912	7.4837	2.3636	0.	-113.87
13913	7.5761	2.3636	5.e-002	3.5654e-006
13914	7.5761	2.0909	0.	-101.73
13915	7.4837	2.1818	0.	-109.47
13916	7.5761	2.1818	5.e-002	3.2813e-006
13917	7.5761	1.9091	0.	-96.076
13918	7.4837	2.	0.	-104.04
13919	7.5761	2.	5.e-002	5.125e-006
13920	7.5761	1.7273	0.	-89.503
13921	7.4837	1.8182	0.	-97.629
13922	7.5761	1.8182	5.e-002	5.5641e-006
13923	7.5761	1.5455	0.	-82.07
13924	7.4837	1.6364	0.	-90.289
13925	7.5761	1.6364	5.e-002	6.1876e-006
13926	7.5761	1.3636	0.	-73.838
13927	7.4837	1.4545	0.	-82.08
13928	7.5761	1.4545	5.e-002	7.619e-006
13929	7.5761	1.1818	0.	-64.875
13930	7.4837	1.2727	0.	-73.071
13931	7.5761	1.2727	5.e-002	9.1136e-006
13932	7.5761	1.	0.	-55.251
13933	7.4837	1.0909	0.	-63.335
13934	7.5761	1.0909	5.e-002	6.8577e-006
13935	7.5761	0.81818	0.	-45.044
13936	7.4837	0.90909	0.	-52.948
13937	7.5761	0.90909	5.e-002	8.3839e-006
13938	7.5761	0.63636	0.	-34.331
13939	7.4837	0.72727	0.	-41.993
13940	7.5761	0.72727	5.e-002	8.9753e-006
13941	7.5761	0.45455	0.	-23.17
13942	7.4837	0.54545	0.	-30.556
13943	7.5761	0.54545	5.e-002	9.308e-006
13944	7.5761	0.27273	0.	-11.387
13945	7.4837	0.36364	0.	-18.669
13946	7.5761	0.36364	5.e-002	8.8449e-006
13947	7.4837	0.18182	0.	-6.0047
13948	7.5761	0.18182	5.e-002	4.7997e-005
13949	7.5761	9.0909e-002	0.	-2.1868
13950	7.3913	5.7273	0.	-13.275
13951	7.2989	5.8182	0.	-7.4285
13952	7.3913	5.8182	5.e-002	-4.2884e-005
13953	7.3913	5.9091	0.	-2.9697
13954	7.3913	5.5455	0.	-26.064
13955	7.2989	5.6364	0.	-21.138
13956	7.3913	5.6364	5.e-002	-8.5693e-006
13957	7.3913	5.3636	0.	-38.225
13958	7.2989	5.4545	0.	-34.08
13959	7.3913	5.4545	5.e-002	-8.5843e-006
13960	7.3913	5.1818	0.	-49.904
13961	7.2989	5.2727	0.	-46.542
13962	7.3913	5.2727	5.e-002	-9.3873e-006
13963	7.3913	5.	0.	-61.037
13964	7.2989	5.0909	0.	-58.483
13965	7.3913	5.0909	5.e-002	-6.9786e-006
13966	7.3913	4.8182	0.	-71.535
13967	7.2989	4.9091	0.	-69.809
13968	7.3913	4.9091	5.e-002	-8.9644e-006
13969	7.3913	4.6364	0.	-81.317
13970	7.2989	4.7273	0.	-80.43
13971	7.3913	4.7273	5.e-002	-7.5152e-006
13972	7.3913	4.4545	0.	-90.302
13973	7.2989	4.5455	0.	-90.26
13974	7.3913	4.5455	5.e-002	-7.0164e-006
13975	7.3913	4.2727	0.	-98.418
13976	7.2989	4.3636	0.	-99.219
13977	7.3913	4.3636	5.e-002	-7.6989e-006
13978	7.3913	4.0909	0.	-105.6
13979	7.2989	4.1818	0.	-107.23
13980	7.3913	4.1818	5.e-002	-4.6285e-006
13981	7.3913	3.9091	0.	-111.78
13982	7.2989	4.	0.	-114.23
13983	7.3913	4.	5.e-002	-3.7459e-006
13984	7.3913	3.7273	0.	-116.91
13985	7.2989	3.8182	0.	-120.16
13986	7.3913	3.8182	5.e-002	-3.5263e-006
13987	7.3913	3.5455	0.	-120.95
13988	7.2989	3.6364	0.	-124.97
13989	7.3913	3.6364	5.e-002	-2.8445e-006
13990	7.3913	3.3636	0.	-123.86
13991	7.2989	3.4545	0.	-128.61
13992	7.3913	3.4545	5.e-002	-1.9705e-006
13993	7.3913	3.1818	0.	-125.61
13994	7.2989	3.2727	0.	-131.06
13995	7.3913	3.2727	5.e-002	-1.2037e-006
13996	7.3913	3.	0.	-126.2
13997	7.2989	3.0909	0.	-132.29
13998	7.3913	3.0909	5.e-002	-4.0621e-007
13999	7.3913	2.8182	0.	-125.61
14000	7.2989	2.9091	0.	-132.29
14001	7.3913	2.9091	5.e-002	2.313e-006
14002	7.3913	2.6364	0.	-123.86
14003	7.2989	2.7273	0.	-131.06
14004	7.3913	2.7273	5.e-002	1.2009e-006
14005	7.3913	2.4545	0.	-120.95
14006	7.2989	2.5455	0.	-128.61
14007	7.3913	2.5455	5.e-002	1.9705e-006
14008	7.3913	2.2727	0.	-116.91
14009	7.2989	2.3636	0.	-124.97
14010	7.3913	2.3636	5.e-002	2.8445e-006
14011	7.3913	2.0909	0.	-111.78
14012	7.2989	2.1818	0.	-120.16
14013	7.3913	2.1818	5.e-002	4.508e-006
14014	7.3913	1.9091	0.	-105.6
14015	7.2989	2.	0.	-114.23
14016	7.3913	2.	5.e-002	3.7459e-006
14017	7.3913	1.7273	0.	-98.418
14018	7.2989	1.8182	0.	-107.23
14019	7.3913	1.8182	5.e-002	4.8095e-006
14020	7.3913	1.5455	0.	-90.302
14021	7.2989	1.6364	0.	-99.219
14022	7.3913	1.6364	5.e-002	5.7115e-006
14023	7.3913	1.3636	0.	-81.317
14024	7.2989	1.4545	0.	-90.26
14025	7.3913	1.4545	5.e-002	8.0695e-006
14026	7.3913	1.1818	0.	-71.535
14027	7.2989	1.2727	0.	-80.43
14028	7.3913	1.2727	5.e-002	8.6985e-006
14029	7.3913	1.	0.	-61.037
14030	7.2989	1.0909	0.	-69.809
14031	7.3913	1.0909	5.e-002	9.8995e-006
14032	7.3913	0.81818	0.	-49.904
14033	7.2989	0.90909	0.	-58.483
14034	7.3913	0.90909	5.e-002	8.5652e-006
14035	7.3913	0.63636	0.	-38.226
14036	7.2989	0.72727	0.	-46.542
14037	7.3913	0.72727	5.e-002	1.0318e-005
14038	7.3913	0.45455	0.	-26.064
14039	7.2989	0.54545	0.	-34.08
14040	7.3913	0.54545	5.e-002	9.9774e-006
14041	7.3913	0.27273	0.	-13.275
14042	7.2989	0.36364	0.	-21.138
14043	7.3913	0.36364	5.e-002	1.1581e-005
14044	7.2989	0.18182	0.	-7.4285
14045	7.3913	0.18182	5.e-002	4.3672e-005
14046	7.3913	9.0909e-002	0.	-2.9697
14047	7.2065	5.7273	0.	-15.283
14048	7.1141	5.8182	0.	-8.9348
14049	7.2065	5.8182	5.e-002	-4.1716e-005
14050	7.2065	5.9091	0.	-3.8035
14051	7.2065	5.5455	0.	-29.161
14052	7.1141	5.6364	0.	-23.773
14053	7.2065	5.6364	5.e-002	-1.0252e-005
14054	7.2065	5.3636	0.	-42.403
14055	7.1141	5.4545	0.	-37.856
14056	7.2065	5.4545	5.e-002	-6.8968e-006
14057	7.2065	5.1818	0.	-55.126
14058	7.1141	5.2727	0.	-51.426
14059	7.2065	5.2727	5.e-002	-9.6377e-006
14060	7.2065	5.	0.	-67.26
14061	7.1141	5.0909	0.	-64.435
14062	7.2065	5.0909	5.e-002	-1.0065e-005
14063	7.2065	4.8182	0.	-78.707
14064	7.1141	4.9091	0.	-76.778
14065	7.2065	4.9091	5.e-002	-8.7677e-006
14066	7.2065	4.6364	0.	-89.375
14067	7.1141	4.7273	0.	-88.357
14068	7.2065	4.7273	5.e-002	-6.0103e-006
14069	7.2065	4.4545	0.	-99.178
14070	7.1141	4.5455	0.	-99.078
14071	7.2065	4.5455	5.e-002	-7.9777e-006
14072	7.2065	4.2727	0.	-108.04
14073	7.1141	4.3636	0.	-108.85
14074	7.2065	4.3636	5.e-002	-7.1655e-006
14075	7.2065	4.0909	0.	-115.87
14076	7.1141	4.1818	0.	-117.6
14077	7.2065	4.1818	5.e-002	-5.7288e-006
14078	7.2065	3.9091	0.	-122.62
14079	7.1141	4.	0.	-125.24
14080	7.2065	4.	5.e-002	-4.9939e-006
14081	7.2065	3.7273	0.	-128.23
14082	7.1141	3.8182	0.	-131.71
14083	7.2065	3.8182	5.e-002	-4.2248e-006
14084	7.2065	3.5455	0.	-132.64
14085	7.1141	3.6364	0.	-136.96
14086	7.2065	3.6364	5.e-002	-3.2849e-006
14087	7.2065	3.3636	0.	-135.82
14088	7.1141	3.4545	0.	-140.94
14089	7.2065	3.4545	5.e-002	-2.2278e-006
14090	7.2065	3.1818	0.	-137.73
14091	7.1141	3.2727	0.	-143.61
14092	7.2065	3.2727	5.e-002	-1.2984e-006
14093	7.2065	3.	0.	-138.38
14094	7.1141	3.0909	0.	-144.95
14095	7.2065	3.0909	5.e-002	-4.3926e-007
14096	7.2065	2.8182	0.	-137.73
14097	7.1141	2.9091	0.	-144.95
14098	7.2065	2.9091	5.e-002	4.3926e-007
14099	7.2065	2.6364	0.	-135.82
14100	7.1141	2.7273	0.	-143.61
14101	7.2065	2.7273	5.e-002	1.3015e-006
14102	7.2065	2.4545	0.	-132.64
14103	7.1141	2.5455	0.	-140.94
14104	7.2065	2.5455	5.e-002	2.2278e-006
14105	7.2065	2.2727	0.	-128.23
14106	7.1141	2.3636	0.	-136.96
14107	7.2065	2.3636	5.e-002	3.2849e-006
14108	7.2065	2.0909	0.	-122.62
14109	7.1141	2.1818	0.	-131.71
14110	7.2065	2.1818	5.e-002	4.2248e-006
14111	7.2065	1.9091	0.	-115.87
14112	7.1141	2.	0.	-125.24
14113	7.2065	2.	5.e-002	6.51e-006
14114	7.2065	1.7273	0.	-108.04
14115	7.1141	1.8182	0.	-117.6
14116	7.2065	1.8182	5.e-002	6.8196e-006
14117	7.2065	1.5455	0.	-99.178
14118	7.1141	1.6364	0.	-108.85
14119	7.2065	1.6364	5.e-002	7.2764e-006
14120	7.2065	1.3636	0.	-89.375
14121	7.1141	1.4545	0.	-99.078
14122	7.2065	1.4545	5.e-002	8.7928e-006
14123	7.2065	1.1818	0.	-78.707
14124	7.1141	1.2727	0.	-88.357
14125	7.2065	1.2727	5.e-002	8.8144e-006
14126	7.2065	1.	0.	-67.26
14127	7.1141	1.0909	0.	-76.778
14128	7.2065	1.0909	5.e-002	8.7677e-006
14129	7.2065	0.81818	0.	-55.127
14130	7.1141	0.90909	0.	-64.435
14131	7.2065	0.90909	5.e-002	1.1459e-005
14132	7.2065	0.63636	0.	-42.403
14133	7.1141	0.72727	0.	-51.426
14134	7.2065	0.72727	5.e-002	1.1198e-005
14135	7.2065	0.45455	0.	-29.161
14136	7.1141	0.54545	0.	-37.856
14137	7.2065	0.54545	5.e-002	9.8668e-006
14138	7.2065	0.27273	0.	-15.283
14139	7.1141	0.36364	0.	-23.773
14140	7.2065	0.36364	5.e-002	1.1164e-005
14141	7.1141	0.18182	0.	-8.9348
14142	7.2065	0.18182	5.e-002	4.189e-005
14143	7.2065	9.0909e-002	0.	-3.8035
14144	7.0217	5.7273	0.	-17.417
14145	6.9293	5.8182	0.	-10.525
14146	7.0217	5.8182	5.e-002	-4.1479e-005
14147	7.0217	5.9091	0.	-4.6856
14148	7.0217	5.5455	0.	-32.473
14149	6.9293	5.6364	0.	-26.584
14150	7.0217	5.6364	5.e-002	-1.166e-005
14151	7.0217	5.3636	0.	-46.884
14152	6.9293	5.4545	0.	-41.901
14153	7.0217	5.4545	5.e-002	-1.205e-005
14154	7.0217	5.1818	0.	-60.739
14155	6.9293	5.2727	0.	-56.671
14156	7.0217	5.2727	5.e-002	-1.1794e-005
14157	7.0217	5.	0.	-73.956
14158	6.9293	5.0909	0.	-70.836
14159	7.0217	5.0909	5.e-002	-1.1511e-005
14160	7.0217	4.8182	0.	-86.43
14161	6.9293	4.9091	0.	-84.281
14162	7.0217	4.9091	5.e-002	-9.8742e-006
14163	7.0217	4.6364	0.	-98.061
14164	6.9293	4.7273	0.	-96.899
14165	7.0217	4.7273	5.e-002	-9.6148e-006
14166	7.0217	4.4545	0.	-108.75
14167	6.9293	4.5455	0.	-108.59
14168	7.0217	4.5455	5.e-002	-8.9201e-006
14169	7.0217	4.2727	0.	-118.41
14170	6.9293	4.3636	0.	-119.25
14171	7.0217	4.3636	5.e-002	-7.9912e-006
14172	7.0217	4.0909	0.	-126.97
14173	6.9293	4.1818	0.	-128.79
14174	7.0217	4.1818	5.e-002	-7.2684e-006
14175	7.0217	3.9091	0.	-134.33
14176	6.9293	4.	0.	-137.13
14177	7.0217	4.	5.e-002	-5.5932e-006
14178	7.0217	3.7273	0.	-140.45
14179	6.9293	3.8182	0.	-144.19
14180	7.0217	3.8182	5.e-002	-6.1241e-006
14181	7.0217	3.5455	0.	-145.27
14182	6.9293	3.6364	0.	-149.92
14183	7.0217	3.6364	5.e-002	-3.1277e-006
14184	7.0217	3.3636	0.	-148.74
14185	6.9293	3.4545	0.	-154.27
14186	7.0217	3.4545	5.e-002	-7.8145e-007
14187	7.0217	3.1818	0.	-150.83
14188	6.9293	3.2727	0.	-157.18
14189	7.0217	3.2727	5.e-002	-1.4118e-006
14190	7.0217	3.	0.	-151.53
14191	6.9293	3.0909	0.	-158.65
14192	7.0217	3.0909	5.e-002	-4.7573e-007
14193	7.0217	2.8182	0.	-150.83
14194	6.9293	2.9091	0.	-158.65
14195	7.0217	2.9091	5.e-002	2.3829e-006
14196	7.0217	2.6364	0.	-148.74
14197	6.9293	2.7273	0.	-157.18
14198	7.0217	2.7273	5.e-002	1.4053e-006
14199	7.0217	2.4545	0.	-145.27
14200	6.9293	2.5455	0.	-154.27
14201	7.0217	2.5455	5.e-002	2.6794e-006
14202	7.0217	2.2727	0.	-140.45
14203	6.9293	2.3636	0.	-149.92
14204	7.0217	2.3636	5.e-002	3.1277e-006
14205	7.0217	2.0909	0.	-134.33
14206	6.9293	2.1818	0.	-144.19
14207	7.0217	2.1818	5.e-002	4.229e-006
14208	7.0217	1.9091	0.	-126.97
14209	6.9293	2.	0.	-137.13
14210	7.0217	2.	5.e-002	8.3815e-006
14211	7.0217	1.7273	0.	-118.41
14212	6.9293	1.8182	0.	-128.79
14213	7.0217	1.8182	5.e-002	8.3165e-006
14214	7.0217	1.5455	0.	-108.75
14215	6.9293	1.6364	0.	-119.25
14216	7.0217	1.6364	5.e-002	1.0986e-005
14217	7.0217	1.3636	0.	-98.061
14218	6.9293	1.4545	0.	-108.59
14219	7.0217	1.4545	5.e-002	8.9201e-006
14220	7.0217	1.1818	0.	-86.43
14221	6.9293	1.2727	0.	-96.899
14222	7.0217	1.2727	5.e-002	1.0402e-005
14223	7.0217	1.	0.	-73.956
14224	6.9293	1.0909	0.	-84.281
14225	7.0217	1.0909	5.e-002	1.0802e-005
14226	7.0217	0.81818	0.	-60.739
14227	6.9293	0.90909	0.	-70.836
14228	7.0217	0.90909	5.e-002	1.2572e-005
14229	7.0217	0.63636	0.	-46.884
14230	6.9293	0.72727	0.	-56.671
14231	7.0217	0.72727	5.e-002	1.3637e-005
14232	7.0217	0.45455	0.	-32.473
14233	6.9293	0.54545	0.	-41.901
14234	7.0217	0.54545	5.e-002	1.3785e-005
14235	7.0217	0.27273	0.	-17.417
14236	6.9293	0.36364	0.	-26.584
14237	7.0217	0.36364	5.e-002	1.3342e-005
14238	6.9293	0.18182	0.	-10.525
14239	7.0217	0.18182	5.e-002	4.3531e-005
14240	7.0217	9.0909e-002	0.	-4.6856
14241	6.837	5.7273	0.	-19.683
14242	6.7446	5.8182	0.	-12.2
14243	6.837	5.8182	5.e-002	-4.3221e-005
14244	6.837	5.9091	0.	-5.6148
14245	6.837	5.5455	0.	-36.015
14246	6.7446	5.6364	0.	-29.581
14247	6.837	5.6364	5.e-002	-1.2286e-005
14248	6.837	5.3636	0.	-51.69
14249	6.7446	5.4545	0.	-46.233
14250	6.837	5.4545	5.e-002	-1.198e-005
14251	6.837	5.1818	0.	-66.77
14252	6.7446	5.2727	0.	-62.301
14253	6.837	5.2727	5.e-002	-1.1584e-005
14254	6.837	5.	0.	-81.162
14255	6.7446	5.0909	0.	-77.719
14256	6.837	5.0909	5.e-002	-1.1433e-005
14257	6.837	4.8182	0.	-94.75
14258	6.7446	4.9091	0.	-92.36
14259	6.837	4.9091	5.e-002	-1.3368e-005
14260	6.837	4.6364	0.	-107.42
14261	6.7446	4.7273	0.	-106.11
14262	6.837	4.7273	5.e-002	-1.229e-005
14263	6.837	4.4545	0.	-119.08
14264	6.7446	4.5455	0.	-118.84
14265	6.837	4.5455	5.e-002	-1.1307e-005
14266	6.837	4.2727	0.	-129.62
14267	6.7446	4.3636	0.	-130.46
14268	6.837	4.3636	5.e-002	-7.8197e-006
14269	6.837	4.0909	0.	-138.95
14270	6.7446	4.1818	0.	-140.87
14271	6.837	4.1818	5.e-002	-8.0173e-006
14272	6.837	3.9091	0.	-146.99
14273	6.7446	4.	0.	-149.97
14274	6.837	4.	5.e-002	-5.4617e-006
14275	6.837	3.7273	0.	-153.66
14276	6.7446	3.8182	0.	-157.68
14277	6.837	3.8182	5.e-002	-5.0548e-006
14278	6.837	3.5455	0.	-158.92
14279	6.7446	3.6364	0.	-163.94
14280	6.837	3.6364	5.e-002	-3.6406e-006
14281	6.837	3.3636	0.	-162.71
14282	6.7446	3.4545	0.	-168.68
14283	6.837	3.4545	5.e-002	-7.4872e-007
14284	6.837	3.1818	0.	-165.
14285	6.7446	3.2727	0.	-171.86
14286	6.837	3.2727	5.e-002	-1.5279e-006
14287	6.837	3.	0.	-165.77
14288	6.7446	3.0909	0.	-173.46
14289	6.837	3.0909	5.e-002	-5.1519e-007
14290	6.837	2.8182	0.	-165.
14291	6.7446	2.9091	0.	-173.46
14292	6.837	2.9091	5.e-002	5.1549e-007
14293	6.837	2.6364	0.	-162.71
14294	6.7446	2.7273	0.	-171.86
14295	6.837	2.7273	5.e-002	1.5279e-006
14296	6.837	2.4545	0.	-158.92
14297	6.7446	2.5455	0.	-168.68
14298	6.837	2.5455	5.e-002	2.7942e-006
14299	6.837	2.2727	0.	-153.66
14300	6.7446	2.3636	0.	-163.94
14301	6.837	2.3636	5.e-002	5.5716e-006
14302	6.837	2.0909	0.	-146.99
14303	6.7446	2.1818	0.	-157.68
14304	6.837	2.1818	5.e-002	6.9891e-006
14305	6.837	1.9091	0.	-138.95
14306	6.7446	2.	0.	-149.97
14307	6.837	2.	5.e-002	7.9926e-006
14308	6.837	1.7273	0.	-129.62
14309	6.7446	1.8182	0.	-140.87
14310	6.837	1.8182	5.e-002	8.0748e-006
14311	6.837	1.5455	0.	-119.08
14312	6.7446	1.6364	0.	-130.46
14313	6.837	1.6364	5.e-002	8.8852e-006
14314	6.837	1.3636	0.	-107.42
14315	6.7446	1.4545	0.	-118.84
14316	6.837	1.4545	5.e-002	1.1378e-005
14317	6.837	1.1818	0.	-94.75
14318	6.7446	1.2727	0.	-106.11
14319	6.837	1.2727	5.e-002	1.229e-005
14320	6.837	1.	0.	-81.162
14321	6.7446	1.0909	0.	-92.36
14322	6.837	1.0909	5.e-002	1.3958e-005
14323	6.837	0.81818	0.	-66.77
14324	6.7446	0.90909	0.	-77.719
14325	6.837	0.90909	5.e-002	1.2353e-005
14326	6.837	0.63636	0.	-51.69
14327	6.7446	0.72727	0.	-62.301
14328	6.837	0.72727	5.e-002	1.2042e-005
14329	6.837	0.45455	0.	-36.015
14330	6.7446	0.54545	0.	-46.233
14331	6.837	0.54545	5.e-002	1.685e-005
14332	6.837	0.27273	0.	-19.683
14333	6.7446	0.36364	0.	-29.581
14334	6.837	0.36364	5.e-002	1.5368e-005
14335	6.7446	0.18182	0.	-12.2
14336	6.837	0.18182	5.e-002	4.3899e-005
14337	6.837	9.0909e-002	0.	-5.6148
14338	6.6522	5.7273	0.	-22.087
14339	6.5598	5.8182	0.	-13.961
14340	6.6522	5.8182	5.e-002	-5.2846e-005
14341	6.6522	5.9091	0.	-6.5906
14342	6.6522	5.5455	0.	-39.801
14343	6.5598	5.6364	0.	-32.775
14344	6.6522	5.6364	5.e-002	-1.5582e-005
14345	6.6522	5.3636	0.	-56.845
14346	6.5598	5.4545	0.	-50.872
14347	6.6522	5.4545	5.e-002	-1.4181e-005
14348	6.6522	5.1818	0.	-73.25
14349	6.5598	5.2727	0.	-68.345
14350	6.6522	5.2727	5.e-002	-1.3113e-005
14351	6.6522	5.	0.	-88.916
14352	6.5598	5.0909	0.	-85.12
14353	6.6522	5.0909	5.e-002	-1.037e-005
14354	6.6522	4.8182	0.	-103.71
14355	6.5598	4.9091	0.	-101.06
14356	6.6522	4.9091	5.e-002	-1.0241e-005
14357	6.6522	4.6364	0.	-117.52
14358	6.5598	4.7273	0.	-116.03
14359	6.6522	4.7273	5.e-002	-1.1896e-005
14360	6.6522	4.4545	0.	-130.23
14361	6.5598	4.5455	0.	-129.91
14362	6.6522	4.5455	5.e-002	-1.2778e-005
14363	6.6522	4.2727	0.	-141.72
14364	6.5598	4.3636	0.	-142.58
14365	6.6522	4.3636	5.e-002	-8.716e-006
14366	6.6522	4.0909	0.	-151.89
14367	6.5598	4.1818	0.	-153.92
14368	6.6522	4.1818	5.e-002	-8.8812e-006
14369	6.6522	3.9091	0.	-160.66
14370	6.5598	4.	0.	-163.85
14371	6.6522	4.	5.e-002	-5.9615e-006
14372	6.6522	3.7273	0.	-167.95
14373	6.5598	3.8182	0.	-172.26
14374	6.6522	3.8182	5.e-002	-5.5585e-006
14375	6.6522	3.5455	0.	-173.69
14376	6.5598	3.6364	0.	-179.09
14377	6.6522	3.6364	5.e-002	-4.3246e-006
14378	6.6522	3.3636	0.	-177.83
14379	6.5598	3.4545	0.	-184.27
14380	6.6522	3.4545	5.e-002	-2.7048e-006
14381	6.6522	3.1818	0.	-180.33
14382	6.5598	3.2727	0.	-187.74
14383	6.6522	3.2727	5.e-002	-1.6583e-006
14384	6.6522	3.	0.	-181.16
14385	6.5598	3.0909	0.	-189.49
14386	6.6522	3.0909	5.e-002	-5.5987e-007
14387	6.6522	2.8182	0.	-180.33
14388	6.5598	2.9091	0.	-189.49
14389	6.6522	2.9091	5.e-002	5.5954e-007
14390	6.6522	2.6364	0.	-177.83
14391	6.5598	2.7273	0.	-187.74
14392	6.6522	2.7273	5.e-002	1.6593e-006
14393	6.6522	2.4545	0.	-173.69
14394	6.5598	2.5455	0.	-184.27
14395	6.6522	2.5455	5.e-002	2.7111e-006
14396	6.6522	2.2727	0.	-167.95
14397	6.5598	2.3636	0.	-179.09
14398	6.6522	2.3636	5.e-002	6.2391e-006
14399	6.6522	2.0909	0.	-160.66
14400	6.5598	2.1818	0.	-172.26
14401	6.6522	2.1818	5.e-002	5.5808e-006
14402	6.6522	1.9091	0.	-151.89
14403	6.5598	2.	0.	-163.85
14404	6.6522	2.	5.e-002	5.9347e-006
14405	6.6522	1.7273	0.	-141.72
14406	6.5598	1.8182	0.	-153.92
14407	6.6522	1.8182	5.e-002	8.8812e-006
14408	6.6522	1.5455	0.	-130.23
14409	6.5598	1.6364	0.	-142.58
14410	6.6522	1.6364	5.e-002	1.0651e-005
14411	6.6522	1.3636	0.	-117.52
14412	6.5598	1.4545	0.	-129.91
14413	6.6522	1.4545	5.e-002	1.2778e-005
14414	6.6522	1.1818	0.	-103.71
14415	6.5598	1.2727	0.	-116.03
14416	6.6522	1.2727	5.e-002	1.198e-005
14417	6.6522	1.	0.	-88.916
14418	6.5598	1.0909	0.	-101.06
14419	6.6522	1.0909	5.e-002	1.042e-005
14420	6.6522	0.81818	0.	-73.25
14421	6.5598	0.90909	0.	-85.12
14422	6.6522	0.90909	5.e-002	1.037e-005
14423	6.6522	0.63636	0.	-56.845
14424	6.5598	0.72727	0.	-68.345
14425	6.6522	0.72727	5.e-002	1.7259e-005
14426	6.6522	0.45455	0.	-39.801
14427	6.5598	0.54545	0.	-50.872
14428	6.6522	0.54545	5.e-002	1.6034e-005
14429	6.6522	0.27273	0.	-22.087
14430	6.5598	0.36364	0.	-32.775
14431	6.6522	0.36364	5.e-002	1.7369e-005
14432	6.5598	0.18182	0.	-13.961
14433	6.6522	0.18182	5.e-002	5.2511e-005
14434	6.6522	9.0909e-002	0.	-6.5906
14435	6.4674	5.7273	0.	-24.634
14436	6.375	5.8182	0.	-15.807
14437	6.4674	5.8182	5.e-002	-5.2824e-005
14438	6.4674	5.9091	0.	-7.6121
14439	6.4674	5.5455	0.	-43.845
14440	6.375	5.6364	0.	-36.176
14441	6.4674	5.6364	5.e-002	-2.1733e-005
14442	6.4674	5.3636	0.	-62.371
14443	6.375	5.4545	0.	-55.835
14444	6.4674	5.4545	5.e-002	-1.6889e-005
14445	6.4674	5.1818	0.	-80.213
14446	6.375	5.2727	0.	-74.832
14447	6.4674	5.2727	5.e-002	-1.6939e-005
14448	6.4674	5.	0.	-97.26
14449	6.375	5.0909	0.	-93.079
14450	6.4674	5.0909	5.e-002	-1.7466e-005
14451	6.4674	4.8182	0.	-113.37
14452	6.375	4.9091	0.	-110.42
14453	6.4674	4.9091	5.e-002	-1.6831e-005
14454	6.4674	4.6364	0.	-128.41
14455	6.375	4.7273	0.	-126.73
14456	6.4674	4.7273	5.e-002	-1.1135e-005
14457	6.4674	4.4545	0.	-142.25
14458	6.375	4.5455	0.	-141.85
14459	6.4674	4.5455	5.e-002	-1.4341e-005
14460	6.4674	4.2727	0.	-154.78
14461	6.375	4.3636	0.	-155.65
14462	6.4674	4.3636	5.e-002	-8.0603e-006
14463	6.4674	4.0909	0.	-165.88
14464	6.375	4.1818	0.	-168.02
14465	6.4674	4.1818	5.e-002	-9.856e-006
14466	6.4674	3.9091	0.	-175.45
14467	6.375	4.	0.	-178.85
14468	6.4674	4.	5.e-002	-6.4877e-006
14469	6.4674	3.7273	0.	-183.4
14470	6.375	3.8182	0.	-188.03
14471	6.4674	3.8182	5.e-002	-5.4841e-006
14472	6.4674	3.5455	0.	-189.66
14473	6.375	3.6364	0.	-195.48
14474	6.4674	3.6364	5.e-002	-4.7451e-006
14475	6.4674	3.3636	0.	-194.18
14476	6.375	3.4545	0.	-201.13
14477	6.4674	3.4545	5.e-002	-2.9292e-006
14478	6.4674	3.1818	0.	-196.91
14479	6.375	3.2727	0.	-204.93
14480	6.4674	3.2727	5.e-002	-1.7966e-006
14481	6.4674	3.	0.	-197.82
14482	6.375	3.0909	0.	-206.84
14483	6.4674	3.0909	5.e-002	-6.0629e-007
14484	6.4674	2.8182	0.	-196.91
14485	6.375	2.9091	0.	-206.84
14486	6.4674	2.9091	5.e-002	6.0596e-007
14487	6.4674	2.6364	0.	-194.18
14488	6.375	2.7273	0.	-204.93
14489	6.4674	2.7273	5.e-002	1.7961e-006
14490	6.4674	2.4545	0.	-189.66
14491	6.375	2.5455	0.	-201.13
14492	6.4674	2.5455	5.e-002	2.931e-006
14493	6.4674	2.2727	0.	-183.4
14494	6.375	2.3636	0.	-195.48
14495	6.4674	2.3636	5.e-002	4.7522e-006
14496	6.4674	2.0909	0.	-175.45
14497	6.375	2.1818	0.	-188.03
14498	6.4674	2.1818	5.e-002	5.5022e-006
14499	6.4674	1.9091	0.	-165.88
14500	6.375	2.	0.	-178.85
14501	6.4674	2.	5.e-002	6.5311e-006
14502	6.4674	1.7273	0.	-154.78
14503	6.375	1.8182	0.	-168.02
14504	6.4674	1.8182	5.e-002	1.1725e-005
14505	6.4674	1.5455	0.	-142.25
14506	6.375	1.6364	0.	-155.65
14507	6.4674	1.6364	5.e-002	8.098e-006
14508	6.4674	1.3636	0.	-128.41
14509	6.375	1.4545	0.	-141.85
14510	6.4674	1.4545	5.e-002	1.4425e-005
14511	6.4674	1.1818	0.	-113.37
14512	6.375	1.2727	0.	-126.73
14513	6.4674	1.2727	5.e-002	1.1135e-005
14514	6.4674	1.	0.	-97.26
14515	6.375	1.0909	0.	-110.42
14516	6.4674	1.0909	5.e-002	1.6638e-005
14517	6.4674	0.81818	0.	-80.213
14518	6.375	0.90909	0.	-93.079
14519	6.4674	0.90909	5.e-002	1.7466e-005
14520	6.4674	0.63636	0.	-62.371
14521	6.375	0.72727	0.	-74.832
14522	6.4674	0.72727	5.e-002	1.7842e-005
14523	6.4674	0.45455	0.	-43.845
14524	6.375	0.54545	0.	-55.835
14525	6.4674	0.54545	5.e-002	1.8243e-005
14526	6.4674	0.27273	0.	-24.634
14527	6.375	0.36364	0.	-36.176
14528	6.4674	0.36364	5.e-002	2.311e-005
14529	6.375	0.18182	0.	-15.807
14530	6.4674	0.18182	5.e-002	5.5124e-005
14531	6.4674	9.0909e-002	0.	-7.6121
14532	6.2826	5.7273	0.	-27.329
14533	6.1902	5.8182	0.	-17.738
14534	6.2826	5.8182	5.e-002	-5.2968e-005
14535	6.2826	5.9091	0.	-8.678
14536	6.2826	5.5455	0.	-48.163
14537	6.1902	5.6364	0.	-39.793
14538	6.2826	5.6364	5.e-002	-1.9505e-005
14539	6.2826	5.3636	0.	-68.293
14540	6.1902	5.4545	0.	-61.144
14541	6.2826	5.4545	5.e-002	-1.9862e-005
14542	6.2826	5.1818	0.	-87.693
14543	6.1902	5.2727	0.	-81.79
14544	6.2826	5.2727	5.e-002	-1.9583e-005
14545	6.2826	5.	0.	-106.24
14546	6.1902	5.0909	0.	-101.63
14547	6.2826	5.0909	5.e-002	-1.9864e-005
14548	6.2826	4.8182	0.	-123.77
14549	6.1902	4.9091	0.	-120.51
14550	6.2826	4.9091	5.e-002	-1.8767e-005
14551	6.2826	4.6364	0.	-140.16
14552	6.1902	4.7273	0.	-138.26
14553	6.2826	4.7273	5.e-002	-1.2404e-005
14554	6.2826	4.4545	0.	-155.24
14555	6.1902	4.5455	0.	-154.73
14556	6.2826	4.5455	5.e-002	-1.1644e-005
14557	6.2826	4.2727	0.	-168.89
14558	6.1902	4.3636	0.	-169.77
14559	6.2826	4.3636	5.e-002	-1.0664e-005
14560	6.2826	4.0909	0.	-180.99
14561	6.1902	4.1818	0.	-183.26
14562	6.2826	4.1818	5.e-002	-8.0618e-006
14563	6.2826	3.9091	0.	-191.43
14564	6.1902	4.	0.	-195.07
14565	6.2826	4.	5.e-002	-8.1646e-006
14566	6.2826	3.7273	0.	-200.11
14567	6.1902	3.8182	0.	-205.09
14568	6.2826	3.8182	5.e-002	-7.4395e-006
14569	6.2826	3.5455	0.	-206.95
14570	6.1902	3.6364	0.	-213.22
14571	6.2826	3.6364	5.e-002	-2.3779e-006
14572	6.2826	3.3636	0.	-211.88
14573	6.1902	3.4545	0.	-219.39
14574	6.2826	3.4545	5.e-002	-3.6359e-006
14575	6.2826	3.1818	0.	-214.86
14576	6.1902	3.2727	0.	-223.53
14577	6.2826	3.2727	5.e-002	-3.4807e-008
14578	6.2826	3.	0.	-215.85
14579	6.1902	3.0909	0.	-225.62
14580	6.2826	3.0909	5.e-002	-6.5431e-007
14581	6.2826	2.8182	0.	-214.86
14582	6.1902	2.9091	0.	-225.62
14583	6.2826	2.9091	5.e-002	6.5403e-007
14584	6.2826	2.6364	0.	-211.88
14585	6.1902	2.7273	0.	-223.53
14586	6.2826	2.7273	5.e-002	3.8441e-006
14587	6.2826	2.4545	0.	-206.95
14588	6.1902	2.5455	0.	-219.39
14589	6.2826	2.5455	5.e-002	3.6341e-006
14590	6.2826	2.2727	0.	-200.11
14591	6.1902	2.3636	0.	-213.22
14592	6.2826	2.3636	5.e-002	6.1717e-006
14593	6.2826	2.0909	0.	-191.43
14594	6.1902	2.1818	0.	-205.09
14595	6.2826	2.1818	5.e-002	7.446e-006
14596	6.2826	1.9091	0.	-180.99
14597	6.1902	2.	0.	-195.07
14598	6.2826	2.	5.e-002	1.0048e-005
14599	6.2826	1.7273	0.	-168.89
14600	6.1902	1.8182	0.	-183.26
14601	6.2826	1.8182	5.e-002	1.136e-005
14602	6.2826	1.5455	0.	-155.24
14603	6.1902	1.6364	0.	-169.77
14604	6.2826	1.6364	5.e-002	1.2479e-005
14605	6.2826	1.3636	0.	-140.16
14606	6.1902	1.4545	0.	-154.73
14607	6.2826	1.4545	5.e-002	1.1622e-005
14608	6.2826	1.1818	0.	-123.77
14609	6.1902	1.2727	0.	-138.26
14610	6.2826	1.2727	5.e-002	1.4996e-005
14611	6.2826	1.	0.	-106.24
14612	6.1902	1.0909	0.	-120.51
14613	6.2826	1.0909	5.e-002	1.9673e-005
14614	6.2826	0.81818	0.	-87.693
14615	6.1902	0.90909	0.	-101.63
14616	6.2826	0.90909	5.e-002	2.0436e-005
14617	6.2826	0.63636	0.	-68.293
14618	6.1902	0.72727	0.	-81.79
14619	6.2826	0.72727	5.e-002	2.002e-005
14620	6.2826	0.45455	0.	-48.163
14621	6.1902	0.54545	0.	-61.144
14622	6.2826	0.54545	5.e-002	2.1405e-005
14623	6.2826	0.27273	0.	-27.329
14624	6.1902	0.36364	0.	-39.793
14625	6.2826	0.36364	5.e-002	2.6178e-005
14626	6.1902	0.18182	0.	-17.738
14627	6.2826	0.18182	5.e-002	5.4872e-005
14628	6.2826	9.0909e-002	0.	-8.678
14629	6.0978	5.7273	0.	-30.176
14630	6.0054	5.8182	0.	-19.751
14631	6.0978	5.8182	5.e-002	-4.3557e-005
14632	6.0978	5.9091	0.	-9.7865
14633	6.0978	5.5455	0.	-52.768
14634	6.0054	5.6364	0.	-43.637
14635	6.0978	5.6364	5.e-002	-2.3469e-005
14636	6.0978	5.3636	0.	-74.636
14637	6.0054	5.4545	0.	-66.818
14638	6.0978	5.4545	5.e-002	-2.2938e-005
14639	6.0978	5.1818	0.	-95.725
14640	6.0054	5.2727	0.	-89.252
14641	6.0978	5.2727	5.e-002	-2.294e-005
14642	6.0978	5.	0.	-115.9
14643	6.0054	5.0909	0.	-110.83
14644	6.0978	5.0909	5.e-002	-2.231e-005
14645	6.0978	4.8182	0.	-134.98
14646	6.0054	4.9091	0.	-131.36
14647	6.0978	4.9091	5.e-002	-2.131e-005
14648	6.0978	4.6364	0.	-152.82
14649	6.0054	4.7273	0.	-150.68
14650	6.0978	4.7273	5.e-002	-1.9849e-005
14651	6.0978	4.4545	0.	-169.25
14652	6.0054	4.5455	0.	-168.62
14653	6.0978	4.5455	5.e-002	-1.288e-005
14654	6.0978	4.2727	0.	-184.14
14655	6.0054	4.3636	0.	-185.02
14656	6.0978	4.3636	5.e-002	-9.6201e-006
14657	6.0978	4.0909	0.	-197.33
14658	6.0054	4.1818	0.	-199.73
14659	6.0978	4.1818	5.e-002	-1.0464e-005
14660	6.0978	3.9091	0.	-208.72
14661	6.0054	4.	0.	-212.61
14662	6.0978	4.	5.e-002	-8.972e-006
14663	6.0978	3.7273	0.	-218.19
14664	6.0054	3.8182	0.	-223.54
14665	6.0978	3.8182	5.e-002	-6.4999e-006
14666	6.0978	3.5455	0.	-225.65
14667	6.0054	3.6364	0.	-232.41
14668	6.0978	3.6364	5.e-002	-3.7964e-006
14669	6.0978	3.3636	0.	-231.04
14670	6.0054	3.4545	0.	-239.15
14671	6.0978	3.4545	5.e-002	-3.3997e-006
14672	6.0978	3.1818	0.	-234.29
14673	6.0054	3.2727	0.	-243.67
14674	6.0978	3.2727	5.e-002	-2.09e-006
14675	6.0978	3.	0.	-235.38
14676	6.0054	3.0909	0.	-245.95
14677	6.0978	3.0909	5.e-002	-7.0738e-007
14678	6.0978	2.8182	0.	-234.29
14679	6.0054	2.9091	0.	-245.95
14680	6.0978	2.9091	5.e-002	7.0718e-007
14681	6.0978	2.6364	0.	-231.04
14682	6.0054	2.7273	0.	-243.67
14683	6.0978	2.7273	5.e-002	4.0998e-006
14684	6.0978	2.4545	0.	-225.65
14685	6.0054	2.5455	0.	-239.15
14686	6.0978	2.5455	5.e-002	5.3144e-006
14687	6.0978	2.2727	0.	-218.19
14688	6.0054	2.3636	0.	-232.41
14689	6.0978	2.3636	5.e-002	5.6872e-006
14690	6.0978	2.0909	0.	-208.72
14691	6.0054	2.1818	0.	-223.54
14692	6.0978	2.1818	5.e-002	7.3686e-006
14693	6.0978	1.9091	0.	-197.33
14694	6.0054	2.	0.	-212.61
14695	6.0978	2.	5.e-002	1.0225e-005
14696	6.0978	1.7273	0.	-184.14
14697	6.0054	1.8182	0.	-199.73
14698	6.0978	1.8182	5.e-002	1.0464e-005
14699	6.0978	1.5455	0.	-169.25
14700	6.0054	1.6364	0.	-185.02
14701	6.0978	1.6364	5.e-002	9.6419e-006
14702	6.0978	1.3636	0.	-152.82
14703	6.0054	1.4545	0.	-168.62
14704	6.0978	1.4545	5.e-002	1.285e-005
14705	6.0978	1.1818	0.	-134.98
14706	6.0054	1.2727	0.	-150.68
14707	6.0978	1.2727	5.e-002	1.9784e-005
14708	6.0978	1.	0.	-115.9
14709	6.0054	1.0909	0.	-131.36
14710	6.0978	1.0909	5.e-002	2.1254e-005
14711	6.0978	0.81818	0.	-95.725
14712	6.0054	0.90909	0.	-110.83
14713	6.0978	0.90909	5.e-002	2.231e-005
14714	6.0978	0.63636	0.	-74.636
14715	6.0054	0.72727	0.	-89.252
14716	6.0978	0.72727	5.e-002	2.294e-005
14717	6.0978	0.45455	0.	-52.768
14718	6.0054	0.54545	0.	-66.818
14719	6.0978	0.54545	5.e-002	2.4191e-005
14720	6.0978	0.27273	0.	-30.176
14721	6.0054	0.36364	0.	-43.637
14722	6.0978	0.36364	5.e-002	2.9195e-005
14723	6.0054	0.18182	0.	-19.751
14724	6.0978	0.18182	5.e-002	5.3919e-005
14725	6.0978	9.0909e-002	0.	-9.7865
14726	5.913	5.7273	0.	-33.179
14727	5.8207	5.8182	0.	-21.843
14728	5.913	5.8182	5.e-002	-4.3741e-005
14729	5.913	5.9091	0.	-10.935
14730	5.913	5.5455	0.	-57.677
14731	5.8207	5.6364	0.	-47.715
14732	5.913	5.6364	5.e-002	-2.6751e-005
14733	5.913	5.3636	0.	-81.426
14734	5.8207	5.4545	0.	-72.879
14735	5.913	5.4545	5.e-002	-2.6565e-005
14736	5.913	5.1818	0.	-104.35
14737	5.8207	5.2727	0.	-97.25
14738	5.913	5.2727	5.e-002	-2.5132e-005
14739	5.913	5.	0.	-126.28
14740	5.8207	5.0909	0.	-120.7
14741	5.913	5.0909	5.e-002	-2.5254e-005
14742	5.913	4.8182	0.	-147.05
14743	5.8207	4.9091	0.	-143.04
14744	5.913	4.9091	5.e-002	-2.3969e-005
14745	5.913	4.6364	0.	-166.48
14746	5.8207	4.7273	0.	-164.07
14747	5.913	4.7273	5.e-002	-1.8763e-005
14748	5.913	4.4545	0.	-184.38
14749	5.8207	4.5455	0.	-183.61
14750	5.913	4.5455	5.e-002	-1.4263e-005
14751	5.913	4.2727	0.	-200.6
14752	5.8207	4.3636	0.	-201.48
14753	5.913	4.3636	5.e-002	-1.2376e-005
14754	5.913	4.0909	0.	-214.99
14755	5.8207	4.1818	0.	-217.52
14756	5.913	4.1818	5.e-002	-9.5921e-006
14757	5.913	3.9091	0.	-227.42
14758	5.8207	4.	0.	-231.57
14759	5.913	4.	5.e-002	-1.1734e-005
14760	5.913	3.7273	0.	-237.75
14761	5.8207	3.8182	0.	-243.5
14762	5.913	3.8182	5.e-002	-8.1024e-006
14763	5.913	3.5455	0.	-245.9
14764	5.8207	3.6364	0.	-253.18
14765	5.913	3.6364	5.e-002	-3.709e-006
14766	5.913	3.3636	0.	-251.78
14767	5.8207	3.4545	0.	-260.54
14768	5.913	3.4545	5.e-002	-3.6974e-006
14769	5.913	3.1818	0.	-255.33
14770	5.8207	3.2727	0.	-265.48
14771	5.913	3.2727	5.e-002	-2.3854e-006
14772	5.913	3.	0.	-256.52
14773	5.8207	3.0909	0.	-267.96
14774	5.913	3.0909	5.e-002	-7.6327e-007
14775	5.913	2.8182	0.	-255.33
14776	5.8207	2.9091	0.	-267.96
14777	5.913	2.9091	5.e-002	7.637e-007
14778	5.913	2.6364	0.	-251.78
14779	5.8207	2.7273	0.	-265.48
14780	5.913	2.7273	5.e-002	2.4972e-006
14781	5.913	2.4545	0.	-245.9
14782	5.8207	2.5455	0.	-260.54
14783	5.913	2.5455	5.e-002	4.0094e-006
14784	5.913	2.2727	0.	-237.75
14785	5.8207	2.3636	0.	-253.18
14786	5.913	2.3636	5.e-002	5.5971e-006
14787	5.913	2.0909	0.	-227.42
14788	5.8207	2.1818	0.	-243.5
14789	5.913	2.1818	5.e-002	8.0723e-006
14790	5.913	1.9091	0.	-214.99
14791	5.8207	2.	0.	-231.57
14792	5.913	2.	5.e-002	9.9073e-006
14793	5.913	1.7273	0.	-200.6
14794	5.8207	1.8182	0.	-217.52
14795	5.913	1.8182	5.e-002	9.6337e-006
14796	5.913	1.5455	0.	-184.38
14797	5.8207	1.6364	0.	-201.48
14798	5.913	1.6364	5.e-002	1.2948e-005
14799	5.913	1.3636	0.	-166.48
14800	5.8207	1.4545	0.	-183.61
14801	5.913	1.4545	5.e-002	1.4315e-005
14802	5.913	1.1818	0.	-147.05
14803	5.8207	1.2727	0.	-164.07
14804	5.913	1.2727	5.e-002	1.8707e-005
14805	5.913	1.	0.	-126.28
14806	5.8207	1.0909	0.	-143.04
14807	5.913	1.0909	5.e-002	2.391e-005
14808	5.913	0.81818	0.	-104.35
14809	5.8207	0.90909	0.	-120.7
14810	5.913	0.90909	5.e-002	2.5238e-005
14811	5.913	0.63636	0.	-81.426
14812	5.8207	0.72727	0.	-97.25
14813	5.913	0.72727	5.e-002	2.6269e-005
14814	5.913	0.45455	0.	-57.677
14815	5.8207	0.54545	0.	-72.879
14816	5.913	0.54545	5.e-002	2.643e-005
14817	5.913	0.27273	0.	-33.179
14818	5.8207	0.36364	0.	-47.715
14819	5.913	0.36364	5.e-002	2.7182e-005
14820	5.8207	0.18182	0.	-21.843
14821	5.913	0.18182	5.e-002	4.4669e-005
14822	5.913	9.0909e-002	0.	-10.935
14823	5.7283	5.7273	0.	-36.338
14824	5.6359	5.8182	0.	-24.008
14825	5.7283	5.8182	5.e-002	-5.3848e-005
14826	5.7283	5.9091	0.	-12.119
14827	5.7283	5.5455	0.	-62.903
14828	5.6359	5.6364	0.	-52.036
14829	5.7283	5.6364	5.e-002	-3.6983e-005
14830	5.7283	5.3636	0.	-88.691
14831	5.6359	5.4545	0.	-79.346
14832	5.7283	5.4545	5.e-002	-2.9005e-005
14833	5.7283	5.1818	0.	-113.6
14834	5.6359	5.2727	0.	-105.82
14835	5.7283	5.2727	5.e-002	-2.8496e-005
14836	5.7283	5.	0.	-137.45
14837	5.6359	5.0909	0.	-131.31
14838	5.7283	5.0909	5.e-002	-2.8329e-005
14839	5.7283	4.8182	0.	-160.05
14840	5.6359	4.9091	0.	-155.61
14841	5.7283	4.9091	5.e-002	-2.2205e-005
14842	5.7283	4.6364	0.	-181.2
14843	5.6359	4.7273	0.	-178.5
14844	5.7283	4.7273	5.e-002	-2.0987e-005
14845	5.7283	4.4545	0.	-200.71
14846	5.6359	4.5455	0.	-199.79
14847	5.7283	4.5455	5.e-002	-1.57e-005
14848	5.7283	4.2727	0.	-218.39
14849	5.6359	4.3636	0.	-219.26
14850	5.7283	4.3636	5.e-002	-1.6295e-005
14851	5.7283	4.0909	0.	-234.09
14852	5.6359	4.1818	0.	-236.75
14853	5.7283	4.1818	5.e-002	-1.0357e-005
14854	5.7283	3.9091	0.	-247.64
14855	5.6359	4.	0.	-252.07
14856	5.7283	4.	5.e-002	-9.1777e-006
14857	5.7283	3.7273	0.	-258.92
14858	5.6359	3.8182	0.	-265.09
14859	5.7283	3.8182	5.e-002	-8.8399e-006
14860	5.7283	3.5455	0.	-267.82
14861	5.6359	3.6364	0.	-275.66
14862	5.7283	3.6364	5.e-002	-5.3575e-006
14863	5.7283	3.3636	0.	-274.24
14864	5.6359	3.4545	0.	-283.69
14865	5.7283	3.4545	5.e-002	-4.6768e-006
14866	5.7283	3.1818	0.	-278.11
14867	5.6359	3.2727	0.	-289.09
14868	5.7283	3.2727	5.e-002	-2.437e-006
14869	5.7283	3.	0.	-279.41
14870	5.6359	3.0909	0.	-291.81
14871	5.7283	3.0909	5.e-002	-8.1974e-007
14872	5.7283	2.8182	0.	-278.11
14873	5.6359	2.9091	0.	-291.81
14874	5.7283	2.9091	5.e-002	8.2068e-007
14875	5.7283	2.6364	0.	-274.24
14876	5.6359	2.7273	0.	-289.09
14877	5.7283	2.7273	5.e-002	2.437e-006
14878	5.7283	2.4545	0.	-267.82
14879	5.6359	2.5455	0.	-283.69
14880	5.7283	2.5455	5.e-002	4.6954e-006
14881	5.7283	2.2727	0.	-258.92
14882	5.6359	2.3636	0.	-275.66
14883	5.7283	2.3636	5.e-002	6.0714e-006
14884	5.7283	2.0909	0.	-247.64
14885	5.6359	2.1818	0.	-265.09
14886	5.7283	2.1818	5.e-002	9.9882e-006
14887	5.7283	1.9091	0.	-234.09
14888	5.6359	2.	0.	-252.07
14889	5.7283	2.	5.e-002	9.1002e-006
14890	5.7283	1.7273	0.	-218.39
14891	5.6359	1.8182	0.	-236.75
14892	5.7283	1.8182	5.e-002	1.2195e-005
14893	5.7283	1.5455	0.	-200.71
14894	5.6359	1.6364	0.	-219.26
14895	5.7283	1.6364	5.e-002	1.6195e-005
14896	5.7283	1.3636	0.	-181.2
14897	5.6359	1.4545	0.	-199.79
14898	5.7283	1.4545	5.e-002	1.9148e-005
14899	5.7283	1.1818	0.	-160.05
14900	5.6359	1.2727	0.	-178.5
14901	5.7283	1.2727	5.e-002	2.2529e-005
14902	5.7283	1.	0.	-137.45
14903	5.6359	1.0909	0.	-155.61
14904	5.7283	1.0909	5.e-002	2.2078e-005
14905	5.7283	0.81818	0.	-113.6
14906	5.6359	0.90909	0.	-131.31
14907	5.7283	0.90909	5.e-002	2.8196e-005
14908	5.7283	0.63636	0.	-88.691
14909	5.6359	0.72727	0.	-105.82
14910	5.7283	0.72727	5.e-002	2.9195e-005
14911	5.7283	0.45455	0.	-62.903
14912	5.6359	0.54545	0.	-79.346
14913	5.7283	0.54545	5.e-002	3.0755e-005
14914	5.7283	0.27273	0.	-36.338
14915	5.6359	0.36364	0.	-52.036
14916	5.7283	0.36364	5.e-002	3.8682e-005
14917	5.6359	0.18182	0.	-24.008
14918	5.7283	0.18182	5.e-002	5.4676e-005
14919	5.7283	9.0909e-002	0.	-12.119
14920	5.5435	5.7273	0.	-39.656
14921	5.4511	5.8182	0.	-26.239
14922	5.5435	5.8182	5.e-002	-5.3765e-005
14923	5.5435	5.9091	0.	-13.333
14924	5.5435	5.5455	0.	-68.461
14925	5.4511	5.6364	0.	-56.607
14926	5.5435	5.6364	5.e-002	-4.1551e-005
14927	5.5435	5.3636	0.	-96.457
14928	5.4511	5.4545	0.	-86.241
14929	5.5435	5.4545	5.e-002	-3.3666e-005
14930	5.5435	5.1818	0.	-123.52
14931	5.4511	5.2727	0.	-114.99
14932	5.5435	5.2727	5.e-002	-3.3059e-005
14933	5.5435	5.	0.	-149.46
14934	5.4511	5.0909	0.	-142.7
14935	5.5435	5.0909	5.e-002	-2.5868e-005
14936	5.5435	4.8182	0.	-174.05
14937	5.4511	4.9091	0.	-169.13
14938	5.5435	4.9091	5.e-002	-2.466e-005
14939	5.5435	4.6364	0.	-197.08
14940	5.4511	4.7273	0.	-194.05
14941	5.5435	4.7273	5.e-002	-1.846e-005
14942	5.5435	4.4545	0.	-218.33
14943	5.4511	4.5455	0.	-217.23
14944	5.5435	4.5455	5.e-002	-1.3132e-005
14945	5.5435	4.2727	0.	-237.61
14946	5.4511	4.3636	0.	-238.46
14947	5.5435	4.3636	5.e-002	-1.2366e-005
14948	5.5435	4.0909	0.	-254.73
14949	5.4511	4.1818	0.	-257.52
14950	5.5435	4.1818	5.e-002	-1.3933e-005
14951	5.5435	3.9091	0.	-269.52
14952	5.4511	4.	0.	-274.24
14953	5.5435	4.	5.e-002	-9.8926e-006
14954	5.5435	3.7273	0.	-281.83
14955	5.4511	3.8182	0.	-288.45
14956	5.5435	3.8182	5.e-002	-1.0934e-005
14957	5.5435	3.5455	0.	-291.54
14958	5.4511	3.6364	0.	-300.
14959	5.5435	3.6364	5.e-002	-5.7283e-006
14960	5.5435	3.3636	0.	-298.55
14961	5.4511	3.4545	0.	-308.77
14962	5.5435	3.4545	5.e-002	-4.2288e-006
14963	5.5435	3.1818	0.	-302.79
14964	5.4511	3.2727	0.	-314.66
14965	5.5435	3.2727	5.e-002	-2.6095e-006
14966	5.5435	3.	0.	-304.2
14967	5.4511	3.0909	0.	-317.63
14968	5.5435	3.0909	5.e-002	-8.8105e-007
14969	5.5435	2.8182	0.	-302.79
14970	5.4511	2.9091	0.	-317.63
14971	5.5435	2.9091	5.e-002	8.8004e-007
14972	5.5435	2.6364	0.	-298.55
14973	5.4511	2.7273	0.	-314.66
14974	5.5435	2.7273	5.e-002	2.6095e-006
14975	5.5435	2.4545	0.	-291.54
14976	5.4511	2.5455	0.	-308.77
14977	5.5435	2.5455	5.e-002	4.2488e-006
14978	5.5435	2.2727	0.	-281.83
14979	5.4511	2.3636	0.	-300.
14980	5.5435	2.3636	5.e-002	5.7834e-006
14981	5.5435	2.0909	0.	-269.52
14982	5.4511	2.1818	0.	-288.45
14983	5.5435	2.1818	5.e-002	1.1073e-005
14984	5.5435	1.9091	0.	-254.73
14985	5.4511	2.	0.	-274.24
14986	5.5435	2.	5.e-002	9.8926e-006
14987	5.5435	1.7273	0.	-237.61
14988	5.4511	1.8182	0.	-257.52
14989	5.5435	1.8182	5.e-002	1.3933e-005
14990	5.5435	1.5455	0.	-218.33
14991	5.4511	1.6364	0.	-238.46
14992	5.5435	1.6364	5.e-002	1.258e-005
14993	5.5435	1.3636	0.	-197.08
14994	5.4511	1.4545	0.	-217.23
14995	5.5435	1.4545	5.e-002	1.3367e-005
14996	5.5435	1.1818	0.	-174.05
14997	5.4511	1.2727	0.	-194.05
14998	5.5435	1.2727	5.e-002	1.846e-005
14999	5.5435	1.	0.	-149.46
15000	5.4511	1.0909	0.	-169.13
15001	5.5435	1.0909	5.e-002	3.0005e-005
15002	5.5435	0.81818	0.	-123.52
15003	5.4511	0.90909	0.	-142.7
15004	5.5435	0.90909	5.e-002	3.3565e-005
15005	5.5435	0.63636	0.	-96.457
15006	5.4511	0.72727	0.	-114.99
15007	5.5435	0.72727	5.e-002	3.3763e-005
15008	5.5435	0.45455	0.	-68.461
15009	5.4511	0.54545	0.	-86.241
15010	5.5435	0.54545	5.e-002	3.4509e-005
15011	5.5435	0.27273	0.	-39.656
15012	5.4511	0.36364	0.	-56.607
15013	5.5435	0.36364	5.e-002	4.2446e-005
15014	5.4511	0.18182	0.	-26.239
15015	5.5435	0.18182	5.e-002	5.4179e-005
15016	5.5435	9.0909e-002	0.	-13.333
15017	5.3587	5.7273	0.	-43.13
15018	5.2663	5.8182	0.	-28.525
15019	5.3587	5.8182	5.e-002	-4.3382e-005
15020	5.3587	5.9091	0.	-14.571
15021	5.3587	5.5455	0.	-74.365
15022	5.2663	5.6364	0.	-61.433
15023	5.3587	5.6364	5.e-002	-3.8151e-005
15024	5.3587	5.3636	0.	-104.75
15025	5.2663	5.4545	0.	-93.584
15026	5.3587	5.4545	5.e-002	-3.7161e-005
15027	5.3587	5.1818	0.	-134.15
15028	5.2663	5.2727	0.	-124.8
15029	5.3587	5.2727	5.e-002	-3.7081e-005
15030	5.3587	5.	0.	-162.35
15031	5.2663	5.0909	0.	-154.92
15032	5.3587	5.0909	5.e-002	-3.5433e-005
15033	5.3587	4.8182	0.	-189.11
15034	5.2663	4.9091	0.	-183.66
15035	5.3587	4.9091	5.e-002	-1.5278e-005
15036	5.3587	4.6364	0.	-214.19
15037	5.2663	4.7273	0.	-210.79
15038	5.3587	4.7273	5.e-002	-2.5752e-005
15039	5.3587	4.4545	0.	-237.34
15040	5.2663	4.5455	0.	-236.04
15041	5.3587	4.5455	5.e-002	-1.8867e-005
15042	5.3587	4.2727	0.	-258.36
15043	5.2663	4.3636	0.	-259.18
15044	5.3587	4.3636	5.e-002	-2.0834e-005
15045	5.3587	4.0909	0.	-277.04
15046	5.2663	4.1818	0.	-279.97
15047	5.3587	4.1818	5.e-002	-1.4903e-005
15048	5.3587	3.9091	0.	-293.18
15049	5.2663	4.	0.	-298.22
15050	5.3587	4.	5.e-002	-1.2951e-005
15051	5.3587	3.7273	0.	-306.62
15052	5.2663	3.8182	0.	-313.73
15053	5.3587	3.8182	5.e-002	-8.9835e-006
15054	5.3587	3.5455	0.	-317.22
15055	5.2663	3.6364	0.	-326.33
15056	5.3587	3.6364	5.e-002	-8.0524e-006
15057	5.3587	3.3636	0.	-324.88
15058	5.2663	3.4545	0.	-335.91
15059	5.3587	3.4545	5.e-002	-5.0386e-006
15060	5.3587	3.1818	0.	-329.51
15061	5.2663	3.2727	0.	-342.35
15062	5.3587	3.2727	5.e-002	-2.9858e-006
15063	5.3587	3.	0.	-331.05
15064	5.2663	3.0909	0.	-345.59
15065	5.3587	3.0909	5.e-002	-9.4382e-007
15066	5.3587	2.8182	0.	-329.51
15067	5.2663	2.9091	0.	-345.59
15068	5.3587	2.9091	5.e-002	4.7583e-006
15069	5.3587	2.6364	0.	-324.88
15070	5.2663	2.7273	0.	-342.35
15071	5.3587	2.7273	5.e-002	2.9858e-006
15072	5.3587	2.4545	0.	-317.22
15073	5.2663	2.5455	0.	-335.91
15074	5.3587	2.5455	5.e-002	5.0386e-006
15075	5.3587	2.2727	0.	-306.62
15076	5.2663	2.3636	0.	-326.33
15077	5.3587	2.3636	5.e-002	8.0524e-006
15078	5.3587	2.0909	0.	-293.18
15079	5.2663	2.1818	0.	-313.73
15080	5.3587	2.1818	5.e-002	8.9835e-006
15081	5.3587	1.9091	0.	-277.04
15082	5.2663	2.	0.	-298.22
15083	5.3587	2.	5.e-002	1.2951e-005
15084	5.3587	1.7273	0.	-258.36
15085	5.2663	1.8182	0.	-279.97
15086	5.3587	1.8182	5.e-002	1.5312e-005
15087	5.3587	1.5455	0.	-237.34
15088	5.2663	1.6364	0.	-259.18
15089	5.3587	1.6364	5.e-002	2.6824e-005
15090	5.3587	1.3636	0.	-214.19
15091	5.2663	1.4545	0.	-236.04
15092	5.3587	1.4545	5.e-002	1.9118e-005
15093	5.3587	1.1818	0.	-189.11
15094	5.2663	1.2727	0.	-210.79
15095	5.3587	1.2727	5.e-002	2.5752e-005
15096	5.3587	1.	0.	-162.35
15097	5.2663	1.0909	0.	-183.66
15098	5.3587	1.0909	5.e-002	1.6994e-005
15099	5.3587	0.81818	0.	-134.15
15100	5.2663	0.90909	0.	-154.92
15101	5.3587	0.90909	5.e-002	3.5733e-005
15102	5.3587	0.63636	0.	-104.75
15103	5.2663	0.72727	0.	-124.8
15104	5.3587	0.72727	5.e-002	3.7394e-005
15105	5.3587	0.45455	0.	-74.365
15106	5.2663	0.54545	0.	-93.584
15107	5.3587	0.54545	5.e-002	3.7989e-005
15108	5.3587	0.27273	0.	-43.13
15109	5.2663	0.36364	0.	-61.433
15110	5.3587	0.36364	5.e-002	3.8233e-005
15111	5.2663	0.18182	0.	-28.525
15112	5.3587	0.18182	5.e-002	5.4818e-005
15113	5.3587	9.0909e-002	0.	-14.571
15114	5.1739	5.7273	0.	-46.756
15115	5.0815	5.8182	0.	-30.852
15116	5.1739	5.8182	5.e-002	-5.4093e-005
15117	5.1739	5.9091	0.	-15.824
15118	5.1739	5.5455	0.	-80.626
15119	5.0815	5.6364	0.	-66.52
15120	5.1739	5.6364	5.e-002	-4.256e-005
15121	5.1739	5.3636	0.	-113.61
15122	5.0815	5.4545	0.	-101.4
15123	5.1739	5.4545	5.e-002	-4.1853e-005
15124	5.1739	5.1818	0.	-145.54
15125	5.0815	5.2727	0.	-135.29
15126	5.1739	5.2727	5.e-002	-4.1266e-005
15127	5.1739	5.	0.	-176.2
15128	5.0815	5.0909	0.	-168.02
15129	5.1739	5.0909	5.e-002	-4.0024e-005
15130	5.1739	4.8182	0.	-205.32
15131	5.0815	4.9091	0.	-199.29
15132	5.1739	4.9091	5.e-002	-2.3663e-005
15133	5.1739	4.6364	0.	-232.63
15134	5.0815	4.7273	0.	-228.82
15135	5.1739	4.7273	5.e-002	-1.6417e-005
15136	5.1739	4.4545	0.	-257.86
15137	5.0815	4.5455	0.	-256.33
15138	5.1739	4.5455	5.e-002	-2.1068e-005
15139	5.1739	4.2727	0.	-280.78
15140	5.0815	4.3636	0.	-281.55
15141	5.1739	4.3636	5.e-002	-2.3346e-005
15142	5.1739	4.0909	0.	-301.15
15143	5.0815	4.1818	0.	-304.23
15144	5.1739	4.1818	5.e-002	-2.0422e-005
15145	5.1739	3.9091	0.	-318.77
15146	5.0815	4.	0.	-324.14
15147	5.1739	4.	5.e-002	-9.1305e-006
15148	5.1739	3.7273	0.	-333.44
15149	5.0815	3.8182	0.	-341.07
15150	5.1739	3.8182	5.e-002	-9.8984e-006
15151	5.1739	3.5455	0.	-345.02
15152	5.0815	3.6364	0.	-354.84
15153	5.1739	3.6364	5.e-002	-6.5881e-006
15154	5.1739	3.3636	0.	-353.39
15155	5.0815	3.4545	0.	-365.3
15156	5.1739	3.4545	5.e-002	-4.7802e-006
15157	5.1739	3.1818	0.	-358.44
15158	5.0815	3.2727	0.	-372.33
15159	5.1739	3.2727	5.e-002	-3.0102e-006
15160	5.1739	3.	0.	-360.13
15161	5.0815	3.0909	0.	-375.87
15162	5.1739	3.0909	5.e-002	-1.0158e-006
15163	5.1739	2.8182	0.	-358.44
15164	5.0815	2.9091	0.	-375.87
15165	5.1739	2.9091	5.e-002	1.0135e-006
15166	5.1739	2.6364	0.	-353.39
15167	5.0815	2.7273	0.	-372.33
15168	5.1739	2.7273	5.e-002	3.0102e-006
15169	5.1739	2.4545	0.	-345.02
15170	5.0815	2.5455	0.	-365.3
15171	5.1739	2.5455	5.e-002	4.7802e-006
15172	5.1739	2.2727	0.	-333.44
15173	5.0815	2.3636	0.	-354.84
15174	5.1739	2.3636	5.e-002	6.5881e-006
15175	5.1739	2.0909	0.	-318.77
15176	5.0815	2.1818	0.	-341.07
15177	5.1739	2.1818	5.e-002	9.8984e-006
15178	5.1739	1.9091	0.	-301.15
15179	5.0815	2.	0.	-324.14
15180	5.1739	2.	5.e-002	9.1305e-006
15181	5.1739	1.7273	0.	-280.78
15182	5.0815	1.8182	0.	-304.23
15183	5.1739	1.8182	5.e-002	1.9986e-005
15184	5.1739	1.5455	0.	-257.86
15185	5.0815	1.6364	0.	-281.55
15186	5.1739	1.6364	5.e-002	2.7635e-005
15187	5.1739	1.3636	0.	-232.63
15188	5.0815	1.4545	0.	-256.33
15189	5.1739	1.4545	5.e-002	2.0802e-005
15190	5.1739	1.1818	0.	-205.32
15191	5.0815	1.2727	0.	-228.82
15192	5.1739	1.2727	5.e-002	1.6417e-005
15193	5.1739	1.	0.	-176.2
15194	5.0815	1.0909	0.	-199.29
15195	5.1739	1.0909	5.e-002	2.3967e-005
15196	5.1739	0.81818	0.	-145.54
15197	5.0815	0.90909	0.	-168.02
15198	5.1739	0.90909	5.e-002	4.0024e-005
15199	5.1739	0.63636	0.	-113.61
15200	5.0815	0.72727	0.	-135.29
15201	5.1739	0.72727	5.e-002	4.1596e-005
15202	5.1739	0.45455	0.	-80.626
15203	5.0815	0.54545	0.	-101.4
15204	5.1739	0.54545	5.e-002	4.2324e-005
15205	5.1739	0.27273	0.	-46.756
15206	5.0815	0.36364	0.	-66.52
15207	5.1739	0.36364	5.e-002	4.2733e-005
15208	5.0815	0.18182	0.	-30.852
15209	5.1739	0.18182	5.e-002	5.5081e-005
15210	5.1739	9.0909e-002	0.	-15.824
15211	4.9891	5.7273	0.	-50.531
15212	4.8967	5.8182	0.	-33.205
15213	4.9891	5.8182	5.e-002	-4.3665e-005
15214	4.9891	5.9091	0.	-17.082
15215	4.9891	5.5455	0.	-87.258
15216	4.8967	5.6364	0.	-71.869
15217	4.9891	5.6364	5.e-002	-5.8208e-005
15218	4.9891	5.3636	0.	-123.05
15219	4.8967	5.4545	0.	-109.7
15220	4.9891	5.4545	5.e-002	-5.734e-005
15221	4.9891	5.1818	0.	-157.74
15222	4.8967	5.2727	0.	-146.49
15223	4.9891	5.2727	5.e-002	-4.6906e-005
15224	4.9891	5.	0.	-191.08
15225	4.8967	5.0909	0.	-182.06
15226	4.9891	5.0909	5.e-002	-4.4743e-005
15227	4.9891	4.8182	0.	-222.76
15228	4.8967	4.9091	0.	-216.08
15229	4.9891	4.9091	5.e-002	-3.4077e-005
15230	4.9891	4.6364	0.	-252.5
15231	4.8967	4.7273	0.	-248.23
15232	4.9891	4.7273	5.e-002	-3.1808e-005
15233	4.9891	4.4545	0.	-280.
15234	4.8967	4.5455	0.	-278.2
15235	4.9891	4.5455	5.e-002	-2.3194e-005
15236	4.9891	4.2727	0.	-304.99
15237	4.8967	4.3636	0.	-305.7
15238	4.9891	4.3636	5.e-002	-2.0172e-005
15239	4.9891	4.0909	0.	-327.21
15240	4.8967	4.1818	0.	-330.44
15241	4.9891	4.1818	5.e-002	-2.2099e-005
15242	4.9891	3.9091	0.	-346.44
15243	4.8967	4.	0.	-352.17
15244	4.9891	4.	5.e-002	-1.2648e-005
15245	4.9891	3.7273	0.	-362.47
15246	4.8967	3.8182	0.	-370.65
15247	4.9891	3.8182	5.e-002	-1.2909e-005
15248	4.9891	3.5455	0.	-375.12
15249	4.8967	3.6364	0.	-385.68
15250	4.9891	3.6364	5.e-002	-7.0512e-006
15251	4.9891	3.3636	0.	-384.25
15252	4.8967	3.4545	0.	-397.11
15253	4.9891	3.4545	5.e-002	-2.0059e-006
15254	4.9891	3.1818	0.	-389.78
15255	4.8967	3.2727	0.	-404.8
15256	4.9891	3.2727	5.e-002	-3.468e-006
15257	4.9891	3.	0.	-391.62
15258	4.8967	3.0909	0.	-408.66
15259	4.9891	3.0909	5.e-002	-1.0894e-006
15260	4.9891	2.8182	0.	-389.78
15261	4.8967	2.9091	0.	-408.66
15262	4.9891	2.9091	5.e-002	1.0919e-006
15263	4.9891	2.6364	0.	-384.25
15264	4.8967	2.7273	0.	-404.8
15265	4.9891	2.7273	5.e-002	3.468e-006
15266	4.9891	2.4545	0.	-375.12
15267	4.8967	2.5455	0.	-397.11
15268	4.9891	2.5455	5.e-002	5.9765e-006
15269	4.9891	2.2727	0.	-362.47
15270	4.8967	2.3636	0.	-385.68
15271	4.9891	2.3636	5.e-002	1.0787e-005
15272	4.9891	2.0909	0.	-346.44
15273	4.8967	2.1818	0.	-370.65
15274	4.9891	2.1818	5.e-002	1.2227e-005
15275	4.9891	1.9091	0.	-327.21
15276	4.8967	2.	0.	-352.17
15277	4.9891	2.	5.e-002	1.2851e-005
15278	4.9891	1.7273	0.	-304.99
15279	4.8967	1.8182	0.	-330.44
15280	4.9891	1.8182	5.e-002	2.2564e-005
15281	4.9891	1.5455	0.	-280.
15282	4.8967	1.6364	0.	-305.7
15283	4.9891	1.6364	5.e-002	1.6307e-005
15284	4.9891	1.3636	0.	-252.5
15285	4.8967	1.4545	0.	-278.2
15286	4.9891	1.4545	5.e-002	2.3194e-005
15287	4.9891	1.1818	0.	-222.76
15288	4.8967	1.2727	0.	-248.23
15289	4.9891	1.2727	5.e-002	3.8773e-005
15290	4.9891	1.	0.	-191.08
15291	4.8967	1.0909	0.	-216.08
15292	4.9891	1.0909	5.e-002	4.2014e-005
15293	4.9891	0.81818	0.	-157.74
15294	4.8967	0.90909	0.	-182.06
15295	4.9891	0.90909	5.e-002	4.4071e-005
15296	4.9891	0.63636	0.	-123.05
15297	4.8967	0.72727	0.	-146.49
15298	4.9891	0.72727	5.e-002	4.6906e-005
15299	4.9891	0.45455	0.	-87.258
15300	4.8967	0.54545	0.	-109.7
15301	4.9891	0.54545	5.e-002	5.849e-005
15302	4.9891	0.27273	0.	-50.531
15303	4.8967	0.36364	0.	-71.869
15304	4.9891	0.36364	5.e-002	5.9749e-005
15305	4.8967	0.18182	0.	-33.205
15306	4.9891	0.18182	5.e-002	4.5012e-005
15307	4.9891	9.0909e-002	0.	-17.082
15308	4.8043	5.7273	0.	-54.443
15309	4.712	5.8182	0.	-35.562
15310	4.8043	5.8182	5.e-002	-4.4193e-005
15311	4.8043	5.9091	0.	-18.33
15312	4.8043	5.5455	0.	-94.27
15313	4.712	5.6364	0.	-77.482
15314	4.8043	5.6364	5.e-002	-5.3479e-005
15315	4.8043	5.3636	0.	-133.11
15316	4.712	5.4545	0.	-118.5
15317	4.8043	5.4545	5.e-002	-5.2631e-005
15318	4.8043	5.1818	0.	-170.79
15319	4.712	5.2727	0.	-158.45
15320	4.8043	5.2727	5.e-002	-5.236e-005
15321	4.8043	5.	0.	-207.04
15322	4.712	5.0909	0.	-197.11
15323	4.8043	5.0909	5.e-002	-5.0624e-005
15324	4.8043	4.8182	0.	-241.52
15325	4.712	4.9091	0.	-234.12
15326	4.8043	4.9091	5.e-002	-4.6842e-005
15327	4.8043	4.6364	0.	-273.9
15328	4.712	4.7273	0.	-269.12
15329	4.8043	4.7273	5.e-002	-2.6722e-005
15330	4.8043	4.4545	0.	-303.88
15331	4.712	4.5455	0.	-301.78
15332	4.8043	4.5455	5.e-002	-3.2269e-005
15333	4.8043	4.2727	0.	-331.13
15334	4.712	4.3636	0.	-331.76
15335	4.8043	4.3636	5.e-002	-1.7142e-005
15336	4.8043	4.0909	0.	-355.38
15337	4.712	4.1818	0.	-358.75
15338	4.8043	4.1818	5.e-002	-2.8096e-005
15339	4.8043	3.9091	0.	-376.37
15340	4.712	4.	0.	-382.46
15341	4.8043	4.	5.e-002	-1.0382e-005
15342	4.8043	3.7273	0.	-393.87
15343	4.712	3.8182	0.	-402.64
15344	4.8043	3.8182	5.e-002	-1.3907e-005
15345	4.8043	3.5455	0.	-407.68
15346	4.712	3.6364	0.	-419.06
15347	4.8043	3.6364	5.e-002	-8.9789e-006
15348	4.8043	3.3636	0.	-417.66
15349	4.712	3.4545	0.	-431.53
15350	4.8043	3.4545	5.e-002	-6.339e-006
15351	4.8043	3.1818	0.	-423.7
15352	4.712	3.2727	0.	-439.93
15353	4.8043	3.2727	5.e-002	-3.4554e-006
15354	4.8043	3.	0.	-425.72
15355	4.712	3.0909	0.	-444.16
15356	4.8043	3.0909	5.e-002	-1.1722e-006
15357	4.8043	2.8182	0.	-423.7
15358	4.712	2.9091	0.	-444.16
15359	4.8043	2.9091	5.e-002	1.1749e-006
15360	4.8043	2.6364	0.	-417.66
15361	4.712	2.7273	0.	-439.93
15362	4.8043	2.7273	5.e-002	3.4554e-006
15363	4.8043	2.4545	0.	-407.68
15364	4.712	2.5455	0.	-431.53
15365	4.8043	2.5455	5.e-002	1.1072e-005
15366	4.8043	2.2727	0.	-393.87
15367	4.712	2.3636	0.	-419.06
15368	4.8043	2.3636	5.e-002	8.9789e-006
15369	4.8043	2.0909	0.	-376.37
15370	4.712	2.1818	0.	-402.64
15371	4.8043	2.1818	5.e-002	1.3724e-005
15372	4.8043	1.9091	0.	-355.38
15373	4.712	2.	0.	-382.46
15374	4.8043	2.	5.e-002	1.3702e-005
15375	4.8043	1.7273	0.	-331.13
15376	4.712	1.8182	0.	-358.75
15377	4.8043	1.8182	5.e-002	2.958e-005
15378	4.8043	1.5455	0.	-303.88
15379	4.712	1.6364	0.	-331.76
15380	4.8043	1.6364	5.e-002	1.8242e-005
15381	4.8043	1.3636	0.	-273.9
15382	4.712	1.4545	0.	-301.78
15383	4.8043	1.4545	5.e-002	3.2269e-005
15384	4.8043	1.1818	0.	-241.52
15385	4.712	1.2727	0.	-269.12
15386	4.8043	1.2727	5.e-002	2.8003e-005
15387	4.8043	1.	0.	-207.04
15388	4.712	1.0909	0.	-234.12
15389	4.8043	1.0909	5.e-002	4.6842e-005
15390	4.8043	0.81818	0.	-170.79
15391	4.712	0.90909	0.	-197.11
15392	4.8043	0.90909	5.e-002	4.9211e-005
15393	4.8043	0.63636	0.	-133.11
15394	4.712	0.72727	0.	-158.45
15395	4.8043	0.72727	5.e-002	5.3196e-005
15396	4.8043	0.45455	0.	-94.27
15397	4.712	0.54545	0.	-118.5
15398	4.8043	0.54545	5.e-002	5.4945e-005
15399	4.8043	0.27273	0.	-54.443
15400	4.712	0.36364	0.	-77.482
15401	4.8043	0.36364	5.e-002	5.3479e-005
15402	4.712	0.18182	0.	-35.562
15403	4.8043	0.18182	5.e-002	5.4702e-005
15404	4.8043	9.0909e-002	0.	-18.33
15405	4.6196	5.7273	0.	-58.482
15406	4.5272	5.8182	0.	-37.898
15407	4.6196	5.8182	5.e-002	-7.6004e-005
15408	4.6196	5.9091	0.	-19.552
15409	4.6196	5.5455	0.	-101.67
15410	4.5272	5.6364	0.	-83.355
15411	4.6196	5.6364	5.e-002	-9.7936e-005
15412	4.6196	5.3636	0.	-143.81
15413	4.5272	5.4545	0.	-127.84
15414	4.6196	5.4545	5.e-002	-7.2633e-005
15415	4.6196	5.1818	0.	-184.74
15416	4.5272	5.2727	0.	-171.21
15417	4.6196	5.2727	5.e-002	-5.5261e-005
15418	4.6196	5.	0.	-224.16
15419	4.5272	5.0909	0.	-213.23
15420	4.6196	5.0909	5.e-002	-5.4835e-005
15421	4.6196	4.8182	0.	-261.68
15422	4.5272	4.9091	0.	-253.49
15423	4.6196	4.9091	5.e-002	-5.2126e-005
15424	4.6196	4.6364	0.	-296.96
15425	4.5272	4.7273	0.	-291.6
15426	4.6196	4.7273	5.e-002	-4.803e-005
15427	4.6196	4.4545	0.	-329.63
15428	4.5272	4.5455	0.	-327.19
15429	4.6196	4.5455	5.e-002	-3.5686e-005
15430	4.6196	4.2727	0.	-359.36
15431	4.5272	4.3636	0.	-359.88
15432	4.6196	4.3636	5.e-002	-2.4941e-005
15433	4.6196	4.0909	0.	-385.82
15434	4.5272	4.1818	0.	-389.33
15435	4.6196	4.1818	5.e-002	-2.667e-005
15436	4.6196	3.9091	0.	-408.73
15437	4.5272	4.	0.	-415.2
15438	4.6196	4.	5.e-002	-1.8609e-005
15439	4.6196	3.7273	0.	-427.83
15440	4.5272	3.8182	0.	-437.23
15441	4.6196	3.8182	5.e-002	-2.0247e-005
15442	4.6196	3.5455	0.	-442.92
15443	4.5272	3.6364	0.	-455.16
15444	4.6196	3.6364	5.e-002	-8.0398e-006
15445	4.6196	3.3636	0.	-453.82
15446	4.5272	3.4545	0.	-468.78
15447	4.6196	3.4545	5.e-002	-5.9653e-006
15448	4.6196	3.1818	0.	-460.41
15449	4.5272	3.2727	0.	-477.96
15450	4.6196	3.2727	5.e-002	1.0108e-007
15451	4.6196	3.	0.	-462.62
15452	4.5272	3.0909	0.	-482.57
15453	4.6196	3.0909	5.e-002	-1.2594e-006
15454	4.6196	2.8182	0.	-460.41
15455	4.5272	2.9091	0.	-482.57
15456	4.6196	2.9091	5.e-002	1.2508e-006
15457	4.6196	2.6364	0.	-453.82
15458	4.5272	2.7273	0.	-477.96
15459	4.6196	2.7273	5.e-002	3.6939e-006
15460	4.6196	2.4545	0.	-442.92
15461	4.5272	2.5455	0.	-468.78
15462	4.6196	2.5455	5.e-002	6.0778e-006
15463	4.6196	2.2727	0.	-427.83
15464	4.5272	2.3636	0.	-455.16
15465	4.6196	2.3636	5.e-002	8.0398e-006
15466	4.6196	2.0909	0.	-408.73
15467	4.5272	2.1818	0.	-437.23
15468	4.6196	2.1818	5.e-002	2.0247e-005
15469	4.6196	1.9091	0.	-385.82
15470	4.5272	2.	0.	-415.2
15471	4.6196	2.	5.e-002	1.8609e-005
15472	4.6196	1.7273	0.	-359.36
15473	4.5272	1.8182	0.	-389.33
15474	4.6196	1.8182	5.e-002	2.772e-005
15475	4.6196	1.5455	0.	-329.63
15476	4.5272	1.6364	0.	-359.88
15477	4.6196	1.6364	5.e-002	3.1878e-005
15478	4.6196	1.3636	0.	-296.96
15479	4.5272	1.4545	0.	-327.19
15480	4.6196	1.4545	5.e-002	3.5686e-005
15481	4.6196	1.1818	0.	-261.68
15482	4.5272	1.2727	0.	-291.6
15483	4.6196	1.2727	5.e-002	4.803e-005
15484	4.6196	1.	0.	-224.16
15485	4.5272	1.0909	0.	-253.49
15486	4.6196	1.0909	5.e-002	5.2126e-005
15487	4.6196	0.81818	0.	-184.74
15488	4.5272	0.90909	0.	-213.23
15489	4.6196	0.90909	5.e-002	5.6317e-005
15490	4.6196	0.63636	0.	-143.81
15491	4.5272	0.72727	0.	-171.21
15492	4.6196	0.72727	5.e-002	5.755e-005
15493	4.6196	0.45455	0.	-101.67
15494	4.5272	0.54545	0.	-127.84
15495	4.6196	0.54545	5.e-002	7.185e-005
15496	4.6196	0.27273	0.	-58.482
15497	4.5272	0.36364	0.	-83.355
15498	4.6196	0.36364	5.e-002	9.868e-005
15499	4.5272	0.18182	0.	-37.898
15500	4.6196	0.18182	5.e-002	8.6552e-005
15501	4.6196	9.0909e-002	0.	-19.552
15502	4.4348	5.7273	0.	-62.631
15503	4.3424	5.8182	0.	-40.182
15504	4.4348	5.8182	5.e-002	-6.4118e-005
15505	4.4348	5.9091	0.	-20.729
15506	4.4348	5.5455	0.	-109.47
15507	4.3424	5.6364	0.	-89.484
15508	4.4348	5.6364	5.e-002	-7.8748e-005
15509	4.4348	5.3636	0.	-155.2
15510	4.3424	5.4545	0.	-137.72
15511	4.4348	5.4545	5.e-002	-6.3899e-005
15512	4.4348	5.1818	0.	-199.66
15513	4.3424	5.2727	0.	-184.81
15514	4.4348	5.2727	5.e-002	-6.2523e-005
15515	4.4348	5.	0.	-242.52
15516	4.3424	5.0909	0.	-230.48
15517	4.4348	5.0909	5.e-002	-6.1744e-005
15518	4.4348	4.8182	0.	-283.37
15519	4.3424	4.9091	0.	-274.29
15520	4.4348	4.9091	5.e-002	-5.7892e-005
15521	4.4348	4.6364	0.	-321.8
15522	4.3424	4.7273	0.	-315.8
15523	4.4348	4.7273	5.e-002	-3.3044e-005
15524	4.4348	4.4545	0.	-357.41
15525	4.3424	4.5455	0.	-354.58
15526	4.4348	4.5455	5.e-002	-2.2021e-005
15527	4.4348	4.2727	0.	-389.83
15528	4.3424	4.3636	0.	-390.23
15529	4.4348	4.3636	5.e-002	-3.576e-005
15530	4.4348	4.0909	0.	-418.7
15531	4.3424	4.1818	0.	-422.35
15532	4.4348	4.1818	5.e-002	-2.4783e-005
15533	4.4348	3.9091	0.	-443.71
15534	4.3424	4.	0.	-450.59
15535	4.4348	4.	5.e-002	-2.0317e-005
15536	4.4348	3.7273	0.	-464.57
15537	4.3424	3.8182	0.	-474.63
15538	4.4348	3.8182	5.e-002	-1.2897e-005
15539	4.4348	3.5455	0.	-481.04
15540	4.3424	3.6364	0.	-494.2
15541	4.4348	3.6364	5.e-002	-1.4357e-005
15542	4.4348	3.3636	0.	-492.94
15543	4.3424	3.4545	0.	-509.07
15544	4.4348	3.4545	5.e-002	-7.3428e-006
15545	4.4348	3.1818	0.	-500.14
15546	4.3424	3.2727	0.	-519.09
15547	4.4348	3.2727	5.e-002	-3.9419e-006
15548	4.4348	3.	0.	-502.55
15549	4.3424	3.0909	0.	-524.12
15550	4.4348	3.0909	5.e-002	-1.3476e-006
15551	4.4348	2.8182	0.	-500.14
15552	4.3424	2.9091	0.	-524.12
15553	4.4348	2.9091	5.e-002	1.3476e-006
15554	4.4348	2.6364	0.	-492.94
15555	4.3424	2.7273	0.	-519.09
15556	4.4348	2.7273	5.e-002	3.9419e-006
15557	4.4348	2.4545	0.	-481.04
15558	4.3424	2.5455	0.	-509.07
15559	4.4348	2.5455	5.e-002	7.3428e-006
15560	4.4348	2.2727	0.	-464.57
15561	4.3424	2.3636	0.	-494.2
15562	4.4348	2.3636	5.e-002	1.4193e-005
15563	4.4348	2.0909	0.	-443.71
15564	4.3424	2.1818	0.	-474.63
15565	4.4348	2.1818	5.e-002	1.3722e-005
15566	4.4348	1.9091	0.	-418.7
15567	4.3424	2.	0.	-450.59
15568	4.4348	2.	5.e-002	1.6016e-005
15569	4.4348	1.7273	0.	-389.83
15570	4.3424	1.8182	0.	-422.35
15571	4.4348	1.8182	5.e-002	2.4227e-005
15572	4.4348	1.5455	0.	-357.41
15573	4.3424	1.6364	0.	-390.23
15574	4.4348	1.6364	5.e-002	4.1732e-005
15575	4.4348	1.3636	0.	-321.8
15576	4.3424	1.4545	0.	-354.58
15577	4.4348	1.4545	5.e-002	2.1354e-005
15578	4.4348	1.1818	0.	-283.37
15579	4.3424	1.2727	0.	-315.8
15580	4.4348	1.2727	5.e-002	3.3044e-005
15581	4.4348	1.	0.	-242.52
15582	4.3424	1.0909	0.	-274.29
15583	4.4348	1.0909	5.e-002	3.4911e-005
15584	4.4348	0.81818	0.	-199.66
15585	4.3424	0.90909	0.	-230.48
15586	4.4348	0.90909	5.e-002	6.1744e-005
15587	4.4348	0.63636	0.	-155.2
15588	4.3424	0.72727	0.	-184.81
15589	4.4348	0.72727	5.e-002	6.3999e-005
15590	4.4348	0.45455	0.	-109.47
15591	4.3424	0.54545	0.	-137.72
15592	4.4348	0.54545	5.e-002	6.5347e-005
15593	4.4348	0.27273	0.	-62.631
15594	4.3424	0.36364	0.	-89.484
15595	4.4348	0.36364	5.e-002	7.9469e-005
15596	4.3424	0.18182	0.	-40.182
15597	4.4348	0.18182	5.e-002	5.5555e-005
15598	4.4348	9.0909e-002	0.	-20.729
15599	4.25	5.7273	0.	-66.871
15600	4.1576	5.8182	0.	-42.379
15601	4.25	5.8182	5.e-002	-6.5746e-005
15602	4.25	5.9091	0.	-21.837
15603	4.25	5.5455	0.	-117.68
15604	4.1576	5.6364	0.	-95.862
15605	4.25	5.6364	5.e-002	-8.598e-005
15606	4.25	5.3636	0.	-167.29
15607	4.1576	5.4545	0.	-148.18
15608	4.25	5.4545	5.e-002	-7.2522e-005
15609	4.25	5.1818	0.	-215.59
15610	4.1576	5.2727	0.	-199.31
15611	4.25	5.2727	5.e-002	-7.1835e-005
15612	4.25	5.	0.	-262.21
15613	4.1576	5.0909	0.	-248.95
15614	4.25	5.0909	5.e-002	-6.8447e-005
15615	4.25	4.8182	0.	-306.68
15616	4.1576	4.9091	0.	-296.63
15617	4.25	4.9091	5.e-002	-6.4161e-005
15618	4.25	4.6364	0.	-348.55
15619	4.1576	4.7273	0.	-341.84
15620	4.25	4.7273	5.e-002	-6.0544e-005
15621	4.25	4.4545	0.	-387.37
15622	4.1576	4.5455	0.	-384.11
15623	4.25	4.5455	5.e-002	-3.3619e-005
15624	4.25	4.2727	0.	-422.73
15625	4.1576	4.3636	0.	-422.98
15626	4.25	4.3636	5.e-002	-4.5519e-005
15627	4.25	4.0909	0.	-454.23
15628	4.1576	4.1818	0.	-458.01
15629	4.25	4.1818	5.e-002	-2.6449e-005
15630	4.25	3.9091	0.	-481.52
15631	4.1576	4.	0.	-488.82
15632	4.25	4.	5.e-002	-2.7015e-005
15633	4.25	3.7273	0.	-504.28
15634	4.1576	3.8182	0.	-515.05
15635	4.25	3.8182	5.e-002	-1.0937e-005
15636	4.25	3.5455	0.	-522.26
15637	4.1576	3.6364	0.	-536.4
15638	4.25	3.6364	5.e-002	-1.1577e-005
15639	4.25	3.3636	0.	-535.25
15640	4.1576	3.4545	0.	-552.63
15641	4.25	3.4545	5.e-002	-8.1377e-006
15642	4.25	3.1818	0.	-543.11
15643	4.1576	3.2727	0.	-563.56
15644	4.25	3.2727	5.e-002	-4.6451e-006
15645	4.25	3.	0.	-545.74
15646	4.1576	3.0909	0.	-569.05
15647	4.25	3.0909	5.e-002	-1.4357e-006
15648	4.25	2.8182	0.	-543.11
15649	4.1576	2.9091	0.	-569.05
15650	4.25	2.9091	5.e-002	1.4357e-006
15651	4.25	2.6364	0.	-535.25
15652	4.1576	2.7273	0.	-563.56
15653	4.25	2.7273	5.e-002	4.6451e-006
15654	4.25	2.4545	0.	-522.26
15655	4.1576	2.5455	0.	-552.63
15656	4.25	2.5455	5.e-002	7.7546e-006
15657	4.25	2.2727	0.	-504.28
15658	4.1576	2.3636	0.	-536.4
15659	4.25	2.3636	5.e-002	3.5139e-006
15660	4.25	2.0909	0.	-481.52
15661	4.1576	2.1818	0.	-515.05
15662	4.25	2.1818	5.e-002	1.1375e-005
15663	4.25	1.9091	0.	-454.23
15664	4.1576	2.	0.	-488.82
15665	4.25	2.	5.e-002	2.7015e-005
15666	4.25	1.7273	0.	-422.73
15667	4.1576	1.8182	0.	-458.01
15668	4.25	1.8182	5.e-002	3.2921e-005
15669	4.25	1.5455	0.	-387.37
15670	4.1576	1.6364	0.	-422.98
15671	4.25	1.6364	5.e-002	3.7381e-005
15672	4.25	1.3636	0.	-348.55
15673	4.1576	1.4545	0.	-384.11
15674	4.25	1.4545	5.e-002	3.3619e-005
15675	4.25	1.1818	0.	-306.68
15676	4.1576	1.2727	0.	-341.84
15677	4.25	1.2727	5.e-002	5.9057e-005
15678	4.25	1.	0.	-262.21
15679	4.1576	1.0909	0.	-296.63
15680	4.25	1.0909	5.e-002	6.4161e-005
15681	4.25	0.81818	0.	-215.59
15682	4.1576	0.90909	0.	-248.95
15683	4.25	0.90909	5.e-002	6.6832e-005
15684	4.25	0.63636	0.	-167.29
15685	4.1576	0.72727	0.	-199.31
15686	4.25	0.72727	5.e-002	7.0176e-005
15687	4.25	0.45455	0.	-117.68
15688	4.1576	0.54545	0.	-148.18
15689	4.25	0.54545	5.e-002	1.054e-004
15690	4.25	0.27273	0.	-66.871
15691	4.1576	0.36364	0.	-95.862
15692	4.25	0.36364	5.e-002	8.937e-005
15693	4.1576	0.18182	0.	-42.379
15694	4.25	0.18182	5.e-002	5.4423e-005
15695	4.25	9.0909e-002	0.	-21.837
15696	4.0652	5.7273	0.	-71.176
15697	3.9728	5.8182	0.	-44.445
15698	4.0652	5.8182	5.e-002	-4.4015e-005
15699	4.0652	5.9091	0.	-22.847
15700	4.0652	5.5455	0.	-126.29
15701	3.9728	5.6364	0.	-102.48
15702	4.0652	5.6364	5.e-002	-9.6495e-005
15703	4.0652	5.3636	0.	-180.13
15704	3.9728	5.4545	0.	-159.21
15705	4.0652	5.4545	5.e-002	-8.2036e-005
15706	4.0652	5.1818	0.	-232.61
15707	3.9728	5.2727	0.	-214.74
15708	4.0652	5.2727	5.e-002	-7.9457e-005
15709	4.0652	5.	0.	-283.32
15710	3.9728	5.0909	0.	-268.73
15711	4.0652	5.0909	5.e-002	-7.1219e-005
15712	4.0652	4.8182	0.	-331.74
15713	3.9728	4.9091	0.	-320.62
15714	4.0652	4.9091	5.e-002	-7.0955e-005
15715	4.0652	4.6364	0.	-377.36
15716	3.9728	4.7273	0.	-369.87
15717	4.0652	4.7273	5.e-002	-6.5279e-005
15718	4.0652	4.4545	0.	-419.69
15719	3.9728	4.5455	0.	-415.94
15720	4.0652	4.5455	5.e-002	-4.7762e-005
15721	4.0652	4.2727	0.	-458.25
15722	3.9728	4.3636	0.	-458.32
15723	4.0652	4.3636	5.e-002	-3.9237e-005
15724	4.0652	4.0909	0.	-492.6
15725	3.9728	4.1818	0.	-496.53
15726	4.0652	4.1818	5.e-002	-3.3019e-005
15727	4.0652	3.9091	0.	-522.37
15728	3.9728	4.	0.	-530.12
15729	4.0652	4.	5.e-002	-2.4088e-005
15730	4.0652	3.7273	0.	-547.2
15731	3.9728	3.8182	0.	-558.73
15732	4.0652	3.8182	5.e-002	-1.8789e-005
15733	4.0652	3.5455	0.	-566.81
15734	3.9728	3.6364	0.	-582.01
15735	4.0652	3.6364	5.e-002	-1.4453e-005
15736	4.0652	3.3636	0.	-580.98
15737	3.9728	3.4545	0.	-599.7
15738	4.0652	3.4545	5.e-002	-8.4427e-006
15739	4.0652	3.1818	0.	-589.55
15740	3.9728	3.2727	0.	-611.61
15741	4.0652	3.2727	5.e-002	-4.625e-006
15742	4.0652	3.	0.	-592.42
15743	3.9728	3.0909	0.	-617.59
15744	4.0652	3.0909	5.e-002	-1.526e-006
15745	4.0652	2.8182	0.	-589.55
15746	3.9728	2.9091	0.	-617.59
15747	4.0652	2.9091	5.e-002	1.526e-006
15748	4.0652	2.6364	0.	-580.98
15749	3.9728	2.7273	0.	-611.61
15750	4.0652	2.7273	5.e-002	4.5424e-006
15751	4.0652	2.4545	0.	-566.81
15752	3.9728	2.5455	0.	-599.7
15753	4.0652	2.5455	5.e-002	8.4427e-006
15754	4.0652	2.2727	0.	-547.2
15755	3.9728	2.3636	0.	-582.01
15756	4.0652	2.3636	5.e-002	1.4453e-005
15757	4.0652	2.0909	0.	-522.37
15758	3.9728	2.1818	0.	-558.73
15759	4.0652	2.1818	5.e-002	1.8789e-005
15760	4.0652	1.9091	0.	-492.6
15761	3.9728	2.	0.	-530.12
15762	4.0652	2.	5.e-002	2.4088e-005
15763	4.0652	1.7273	0.	-458.25
15764	3.9728	1.8182	0.	-496.53
15765	4.0652	1.8182	5.e-002	2.9437e-005
15766	4.0652	1.5455	0.	-419.69
15767	3.9728	1.6364	0.	-458.32
15768	4.0652	1.6364	5.e-002	3.4678e-005
15769	4.0652	1.3636	0.	-377.36
15770	3.9728	1.4545	0.	-415.94
15771	4.0652	1.4545	5.e-002	5.879e-005
15772	4.0652	1.1818	0.	-331.74
15773	3.9728	1.2727	0.	-369.87
15774	4.0652	1.2727	5.e-002	6.2265e-005
15775	4.0652	1.	0.	-283.32
15776	3.9728	1.0909	0.	-320.62
15777	4.0652	1.0909	5.e-002	7.0955e-005
15778	4.0652	0.81818	0.	-232.61
15779	3.9728	0.90909	0.	-268.73
15780	4.0652	0.90909	5.e-002	7.5712e-005
15781	4.0652	0.63636	0.	-180.13
15782	3.9728	0.72727	0.	-214.74
15783	4.0652	0.72727	5.e-002	7.7738e-005
15784	4.0652	0.45455	0.	-126.29
15785	3.9728	0.54545	0.	-159.21
15786	4.0652	0.54545	5.e-002	1.1827e-004
15787	4.0652	0.27273	0.	-71.176
15788	3.9728	0.36364	0.	-102.48
15789	4.0652	0.36364	5.e-002	7.9991e-005
15790	3.9728	0.18182	0.	-44.445
15791	4.0652	0.18182	5.e-002	4.6253e-005
15792	4.0652	9.0909e-002	0.	-22.847
15793	3.8804	5.7273	0.	-75.517
15794	3.788	5.8182	0.	-46.33
15795	3.8804	5.8182	5.e-002	-7.7308e-005
15796	3.8804	5.9091	0.	-23.728
15797	3.8804	5.5455	0.	-135.32
15798	3.788	5.6364	0.	-109.32
15799	3.8804	5.6364	5.e-002	-1.0597e-004
15800	3.8804	5.3636	0.	-193.76
15801	3.788	5.4545	0.	-170.86
15802	3.8804	5.4545	5.e-002	-1.0905e-004
15803	3.8804	5.1818	0.	-250.79
15804	3.788	5.2727	0.	-231.18
15805	3.8804	5.2727	5.e-002	-8.7692e-005
15806	3.8804	5.	0.	-305.96
15807	3.788	5.0909	0.	-289.9
15808	3.8804	5.0909	5.e-002	-8.5297e-005
15809	3.8804	4.8182	0.	-358.69
15810	3.788	4.9091	0.	-346.4
15811	3.8804	4.9091	5.e-002	-7.8293e-005
15812	3.8804	4.6364	0.	-408.41
15813	3.788	4.7273	0.	-400.05
15814	3.8804	4.7273	5.e-002	-5.925e-005
15815	3.8804	4.4545	0.	-454.55
15816	3.788	4.5455	0.	-450.27
15817	3.8804	4.5455	5.e-002	-6.1708e-005
15818	3.8804	4.2727	0.	-496.59
15819	3.788	4.3636	0.	-496.47
15820	3.8804	4.3636	5.e-002	-2.7411e-005
15821	3.8804	4.0909	0.	-534.05
15822	3.788	4.1818	0.	-538.12
15823	3.8804	4.1818	5.e-002	-4.0165e-005
15824	3.8804	3.9091	0.	-566.5
15825	3.788	4.	0.	-574.73
15826	3.8804	4.	5.e-002	-2.1118e-005
15827	3.8804	3.7273	0.	-593.57
15828	3.788	3.8182	0.	-605.9
15829	3.8804	3.8182	5.e-002	-1.7506e-005
15830	3.8804	3.5455	0.	-614.94
15831	3.788	3.6364	0.	-631.25
15832	3.8804	3.6364	5.e-002	-1.2506e-005
15833	3.8804	3.3636	0.	-630.38
15834	3.788	3.4545	0.	-650.52
15835	3.8804	3.4545	5.e-002	-7.461e-006
15836	3.8804	3.1818	0.	-639.71
15837	3.788	3.2727	0.	-663.48
15838	3.8804	3.2727	5.e-002	-4.8124e-006
15839	3.8804	3.	0.	-642.83
15840	3.788	3.0909	0.	-670.
15841	3.8804	3.0909	5.e-002	-1.6173e-006
15842	3.8804	2.8182	0.	-639.71
15843	3.788	2.9091	0.	-670.
15844	3.8804	2.9091	5.e-002	1.6173e-006
15845	3.8804	2.6364	0.	-630.38
15846	3.788	2.7273	0.	-663.48
15847	3.8804	2.7273	5.e-002	4.7249e-006
15848	3.8804	2.4545	0.	-614.94
15849	3.788	2.5455	0.	-650.52
15850	3.8804	2.5455	5.e-002	8.0349e-006
15851	3.8804	2.2727	0.	-593.57
15852	3.788	2.3636	0.	-631.25
15853	3.8804	2.3636	5.e-002	1.2898e-005
15854	3.8804	2.0909	0.	-566.5
15855	3.788	2.1818	0.	-605.9
15856	3.8804	2.1818	5.e-002	1.6529e-005
15857	3.8804	1.9091	0.	-534.05
15858	3.788	2.	0.	-574.73
15859	3.8804	2.	5.e-002	1.9968e-005
15860	3.8804	1.7273	0.	-496.59
15861	3.788	1.8182	0.	-538.12
15862	3.8804	1.8182	5.e-002	4.7053e-005
15863	3.8804	1.5455	0.	-454.55
15864	3.788	1.6364	0.	-496.47
15865	3.8804	1.6364	5.e-002	2.5983e-005
15866	3.8804	1.3636	0.	-408.41
15867	3.788	1.4545	0.	-450.27
15868	3.8804	1.4545	5.e-002	6.6307e-005
15869	3.8804	1.1818	0.	-358.69
15870	3.788	1.2727	0.	-400.05
15871	3.8804	1.2727	5.e-002	5.925e-005
15872	3.8804	1.	0.	-305.96
15873	3.788	1.0909	0.	-346.4
15874	3.8804	1.0909	5.e-002	7.8293e-005
15875	3.8804	0.81818	0.	-250.79
15876	3.788	0.90909	0.	-289.9
15877	3.8804	0.90909	5.e-002	8.3562e-005
15878	3.8804	0.63636	0.	-193.76
15879	3.788	0.72727	0.	-231.18
15880	3.8804	0.72727	5.e-002	1.0518e-004
15881	3.8804	0.45455	0.	-135.32
15882	3.788	0.54545	0.	-170.86
15883	3.8804	0.54545	5.e-002	1.0905e-004
15884	3.8804	0.27273	0.	-75.517
15885	3.788	0.36364	0.	-109.32
15886	3.8804	0.36364	5.e-002	1.2789e-004
15887	3.788	0.18182	0.	-46.33
15888	3.8804	0.18182	5.e-002	7.7308e-005
15889	3.8804	9.0909e-002	0.	-23.728
15890	3.6957	5.7273	0.	-79.86
15891	3.6033	5.8182	0.	-47.978
15892	3.6957	5.8182	5.e-002	-4.8218e-005
15893	3.6957	5.9091	0.	-24.441
15894	3.6957	5.5455	0.	-144.77
15895	3.6033	5.6364	0.	-116.37
15896	3.6957	5.6364	5.e-002	-9.5872e-005
15897	3.6957	5.3636	0.	-208.21
15898	3.6033	5.4545	0.	-183.15
15899	3.6957	5.4545	5.e-002	-1.2033e-004
15900	3.6957	5.1818	0.	-270.22
15901	3.6033	5.2727	0.	-248.7
15902	3.6957	5.2727	5.e-002	-1.1798e-004
15903	3.6957	5.	0.	-330.26
15904	3.6033	5.0909	0.	-312.59
15905	3.6957	5.0909	5.e-002	-9.2019e-005
15906	3.6957	4.8182	0.	-387.7
15907	3.6033	4.9091	0.	-374.12
15908	3.6957	4.9091	5.e-002	-8.6186e-005
15909	3.6957	4.6364	0.	-441.87
15910	3.6033	4.7273	0.	-432.59
15911	3.6957	4.7273	5.e-002	-4.5469e-005
15912	3.6957	4.4545	0.	-492.17
15913	3.6033	4.5455	0.	-487.32
15914	3.6957	4.5455	5.e-002	-5.5775e-005
15915	3.6957	4.2727	0.	-537.99
15916	3.6033	4.3636	0.	-537.66
15917	3.6957	4.3636	5.e-002	-5.9359e-005
15918	3.6957	4.0909	0.	-578.81
15919	3.6033	4.1818	0.	-583.03
15920	3.6957	4.1818	5.e-002	-3.464e-005
15921	3.6957	3.9091	0.	-614.16
15922	3.6033	4.	0.	-622.9
15923	3.6957	4.	5.e-002	-4.3271e-005
15924	3.6957	3.7273	0.	-643.63
15925	3.6033	3.8182	0.	-656.82
15926	3.6957	3.8182	5.e-002	-2.7819e-005
15927	3.6957	3.5455	0.	-666.89
15928	3.6033	3.6364	0.	-684.4
15929	3.6957	3.6364	5.e-002	-1.9381e-005
15930	3.6957	3.3636	0.	-683.69
15931	3.6033	3.4545	0.	-705.34
15932	3.6957	3.4545	5.e-002	-1.0057e-005
15933	3.6957	3.1818	0.	-693.84
15934	3.6033	3.2727	0.	-719.43
15935	3.6957	3.2727	5.e-002	-6.2382e-006
15936	3.6957	3.	0.	-697.24
15937	3.6033	3.0909	0.	-726.51
15938	3.6957	3.0909	5.e-002	-1.7084e-006
15939	3.6957	2.8182	0.	-693.84
15940	3.6033	2.9091	0.	-726.51
15941	3.6957	2.9091	5.e-002	1.7162e-006
15942	3.6957	2.6364	0.	-683.69
15943	3.6033	2.7273	0.	-719.43
15944	3.6957	2.7273	5.e-002	6.3306e-006
15945	3.6957	2.4545	0.	-666.89
15946	3.6033	2.5455	0.	-705.34
15947	3.6957	2.5455	5.e-002	9.4514e-006
15948	3.6957	2.2727	0.	-643.63
15949	3.6033	2.3636	0.	-684.4
15950	3.6957	2.3636	5.e-002	2.0208e-005
15951	3.6957	2.0909	0.	-614.16
15952	3.6033	2.1818	0.	-656.82
15953	3.6957	2.1818	5.e-002	2.7819e-005
15954	3.6957	1.9091	0.	-578.81
15955	3.6033	2.	0.	-622.9
15956	3.6957	2.	5.e-002	4.3271e-005
15957	3.6957	1.7273	0.	-537.99
15958	3.6033	1.8182	0.	-583.03
15959	3.6957	1.8182	5.e-002	4.1066e-005
15960	3.6957	1.5455	0.	-492.17
15961	3.6033	1.6364	0.	-537.66
15962	3.6957	1.6364	5.e-002	5.0856e-005
15963	3.6957	1.3636	0.	-441.87
15964	3.6033	1.4545	0.	-487.32
15965	3.6957	1.4545	5.e-002	7.1175e-005
15966	3.6957	1.1818	0.	-387.7
15967	3.6033	1.2727	0.	-432.59
15968	3.6957	1.2727	5.e-002	6.149e-005
15969	3.6957	1.	0.	-330.26
15970	3.6033	1.0909	0.	-374.12
15971	3.6957	1.0909	5.e-002	8.6186e-005
15972	3.6957	0.81818	0.	-270.22
15973	3.6033	0.90909	0.	-312.59
15974	3.6957	0.90909	5.e-002	9.0231e-005
15975	3.6957	0.63636	0.	-208.21
15976	3.6033	0.72727	0.	-248.7
15977	3.6957	0.72727	5.e-002	9.6571e-005
15978	3.6957	0.45455	0.	-144.77
15979	3.6033	0.54545	0.	-183.15
15980	3.6957	0.54545	5.e-002	1.2033e-004
15981	3.6957	0.27273	0.	-79.86
15982	3.6033	0.36364	0.	-116.37
15983	3.6957	0.36364	5.e-002	1.1434e-004
15984	3.6033	0.18182	0.	-47.978
15985	3.6957	0.18182	5.e-002	4.6754e-005
15986	3.6957	9.0909e-002	0.	-24.441
15987	3.5109	5.7273	0.	-84.165
15988	3.4185	5.8182	0.	-49.322
15989	3.5109	5.8182	5.e-002	-7.9221e-005
15990	3.5109	5.9091	0.	-24.939
15991	3.5109	5.5455	0.	-154.65
15992	3.4185	5.6364	0.	-123.62
15993	3.5109	5.6364	5.e-002	-1.2903e-004
15994	3.5109	5.3636	0.	-223.55
15995	3.4185	5.4545	0.	-196.11
15996	3.5109	5.4545	5.e-002	-1.4773e-004
15997	3.5109	5.1818	0.	-290.98
15998	3.4185	5.2727	0.	-267.38
15999	3.5109	5.2727	5.e-002	-1.0612e-004
16000	3.5109	5.	0.	-356.36
16001	3.4185	5.0909	0.	-336.93
16002	3.5109	5.0909	5.e-002	-9.9269e-005
16003	3.5109	4.8182	0.	-418.94
16004	3.4185	4.9091	0.	-403.96
16005	3.5109	4.9091	5.e-002	-9.4641e-005
16006	3.5109	4.6364	0.	-477.98
16007	3.4185	4.7273	0.	-467.68
16008	3.5109	4.7273	5.e-002	-9.0344e-005
16009	3.5109	4.4545	0.	-532.78
16010	3.4185	4.5455	0.	-527.32
16011	3.5109	4.5455	5.e-002	-6.2619e-005
16012	3.5109	4.2727	0.	-582.7
16013	3.4185	4.3636	0.	-582.16
16014	3.5109	4.3636	5.e-002	-5.3842e-005
16015	3.5109	4.0909	0.	-627.14
16016	3.4185	4.1818	0.	-631.55
16017	3.5109	4.1818	5.e-002	-3.7405e-005
16018	3.5109	3.9091	0.	-665.6
16019	3.4185	4.	0.	-674.91
16020	3.5109	4.	5.e-002	-3.0482e-005
16021	3.5109	3.7273	0.	-697.65
16022	3.4185	3.8182	0.	-711.76
16023	3.5109	3.8182	5.e-002	-2.0445e-005
16024	3.5109	3.5455	0.	-722.92
16025	3.4185	3.6364	0.	-741.7
16026	3.5109	3.6364	5.e-002	-1.1721e-005
16027	3.5109	3.3636	0.	-741.17
16028	3.4185	3.4545	0.	-764.42
16029	3.5109	3.4545	5.e-002	-8.5939e-006
16030	3.5109	3.1818	0.	-752.19
16031	3.4185	3.2727	0.	-779.7
16032	3.5109	3.2727	5.e-002	-6.0829e-006
16033	3.5109	3.	0.	-755.88
16034	3.4185	3.0909	0.	-787.37
16035	3.5109	3.0909	5.e-002	-1.8139e-006
16036	3.5109	2.8182	0.	-752.19
16037	3.4185	2.9091	0.	-787.37
16038	3.5109	2.9091	5.e-002	1.8221e-006
16039	3.5109	2.6364	0.	-741.17
16040	3.4185	2.7273	0.	-779.7
16041	3.5109	2.7273	5.e-002	6.0829e-006
16042	3.5109	2.4545	0.	-722.92
16043	3.4185	2.5455	0.	-764.42
16044	3.5109	2.5455	5.e-002	1.0344e-005
16045	3.5109	2.2727	0.	-697.65
16046	3.4185	2.3636	0.	-741.7
16047	3.5109	2.3636	5.e-002	1.5065e-005
16048	3.5109	2.0909	0.	-665.6
16049	3.4185	2.1818	0.	-711.76
16050	3.5109	2.1818	5.e-002	1.9367e-005
16051	3.5109	1.9091	0.	-627.14
16052	3.4185	2.	0.	-674.91
16053	3.5109	2.	5.e-002	3.0482e-005
16054	3.5109	1.7273	0.	-582.7
16055	3.4185	1.8182	0.	-631.55
16056	3.5109	1.8182	5.e-002	4.7577e-005
16057	3.5109	1.5455	0.	-532.78
16058	3.4185	1.6364	0.	-582.16
16059	3.5109	1.6364	5.e-002	6.3512e-005
16060	3.5109	1.3636	0.	-477.98
16061	3.4185	1.4545	0.	-527.32
16062	3.5109	1.4545	5.e-002	7.7974e-005
16063	3.5109	1.1818	0.	-418.94
16064	3.4185	1.2727	0.	-467.68
16065	3.5109	1.2727	5.e-002	9.0344e-005
16066	3.5109	1.	0.	-356.36
16067	3.4185	1.0909	0.	-403.96
16068	3.5109	1.0909	5.e-002	9.4641e-005
16069	3.5109	0.81818	0.	-290.98
16070	3.4185	0.90909	0.	-336.93
16071	3.5109	0.90909	5.e-002	9.5604e-005
16072	3.5109	0.63636	0.	-223.55
16073	3.4185	0.72727	0.	-267.38
16074	3.5109	0.72727	5.e-002	1.2614e-004
16075	3.5109	0.45455	0.	-154.65
16076	3.4185	0.54545	0.	-196.11
16077	3.5109	0.54545	5.e-002	1.6499e-004
16078	3.5109	0.27273	0.	-84.165
16079	3.4185	0.36364	0.	-123.62
16080	3.5109	0.36364	5.e-002	1.0098e-004
16081	3.4185	0.18182	0.	-49.322
16082	3.5109	0.18182	5.e-002	7.9221e-005
16083	3.5109	9.0909e-002	0.	-24.939
16084	3.3261	5.7273	0.	-88.386
16085	3.2337	5.8182	0.	-50.288
16086	3.3261	5.8182	5.e-002	-6.2012e-005
16087	3.3261	5.9091	0.	-25.172
16088	3.3261	5.5455	0.	-164.96
16089	3.2337	5.6364	0.	-131.05
16090	3.3261	5.6364	5.e-002	-1.1047e-004
16091	3.3261	5.3636	0.	-239.83
16092	3.2337	5.4545	0.	-209.79
16093	3.3261	5.4545	5.e-002	-1.18e-004
16094	3.3261	5.1818	0.	-313.22
16095	3.2337	5.2727	0.	-287.33
16096	3.3261	5.2727	5.e-002	-1.3886e-004
16097	3.3261	5.	0.	-384.44
16098	3.2337	5.0909	0.	-363.09
16099	3.3261	5.0909	5.e-002	-1.1269e-004
16100	3.3261	4.8182	0.	-452.63
16101	3.2337	4.9091	0.	-436.15
16102	3.3261	4.9091	5.e-002	-1.0366e-004
16103	3.3261	4.6364	0.	-516.98
16104	3.2337	4.7273	0.	-505.61
16105	3.3261	4.7273	5.e-002	-9.3243e-005
16106	3.3261	4.4545	0.	-576.68
16107	3.2337	4.5455	0.	-570.58
16108	3.3261	4.5455	5.e-002	-6.2625e-005
16109	3.3261	4.2727	0.	-631.01
16110	3.2337	4.3636	0.	-630.28
16111	3.3261	4.3636	5.e-002	-4.4371e-005
16112	3.3261	4.0909	0.	-679.34
16113	3.2337	4.1818	0.	-683.97
16114	3.3261	4.1818	5.e-002	-5.1483e-005
16115	3.3261	3.9091	0.	-721.12
16116	3.2337	4.	0.	-731.05
16117	3.3261	4.	5.e-002	-5.0948e-005
16118	3.3261	3.7273	0.	-755.89
16119	3.2337	3.8182	0.	-771.01
16120	3.3261	3.8182	5.e-002	-1.9412e-005
16121	3.3261	3.5455	0.	-783.29
16122	3.2337	3.6364	0.	-803.43
16123	3.3261	3.6364	5.e-002	-5.0891e-006
16124	3.3261	3.3636	0.	-803.06
16125	3.2337	3.4545	0.	-828.01
16126	3.3261	3.4545	5.e-002	-1.0918e-005
16127	3.3261	3.1818	0.	-814.99
16128	3.2337	3.2727	0.	-844.51
16129	3.3261	3.2727	5.e-002	-5.6989e-006
16130	3.3261	3.	0.	-818.98
16131	3.2337	3.0909	0.	-852.8
16132	3.3261	3.0909	5.e-002	-1.8827e-006
16133	3.3261	2.8182	0.	-814.99
16134	3.2337	2.9091	0.	-852.8
16135	3.3261	2.9091	5.e-002	1.9169e-006
16136	3.3261	2.6364	0.	-803.06
16137	3.2337	2.7273	0.	-844.51
16138	3.3261	2.7273	5.e-002	5.6989e-006
16139	3.3261	2.4545	0.	-783.29
16140	3.2337	2.5455	0.	-828.01
16141	3.3261	2.5455	5.e-002	1.1251e-005
16142	3.3261	2.2727	0.	-755.89
16143	3.2337	2.3636	0.	-803.43
16144	3.3261	2.3636	5.e-002	1.2259e-005
16145	3.3261	2.0909	0.	-721.12
16146	3.2337	2.1818	0.	-771.01
16147	3.3261	2.1818	5.e-002	1.9412e-005
16148	3.3261	1.9091	0.	-679.34
16149	3.2337	2.	0.	-731.05
16150	3.3261	2.	5.e-002	5.2266e-005
16151	3.3261	1.7273	0.	-631.01
16152	3.2337	1.8182	0.	-683.97
16153	3.3261	1.8182	5.e-002	5.1483e-005
16154	3.3261	1.5455	0.	-576.68
16155	3.2337	1.6364	0.	-630.28
16156	3.3261	1.6364	5.e-002	5.8509e-005
16157	3.3261	1.3636	0.	-516.98
16158	3.2337	1.4545	0.	-570.58
16159	3.3261	1.4545	5.e-002	6.8129e-005
16160	3.3261	1.1818	0.	-452.63
16161	3.2337	1.2727	0.	-505.61
16162	3.3261	1.2727	5.e-002	7.3501e-005
16163	3.3261	1.	0.	-384.44
16164	3.2337	1.0909	0.	-436.15
16165	3.3261	1.0909	5.e-002	1.0366e-004
16166	3.3261	0.81818	0.	-313.22
16167	3.2337	0.90909	0.	-363.09
16168	3.3261	0.90909	5.e-002	1.1269e-004
16169	3.3261	0.63636	0.	-239.83
16170	3.2337	0.72727	0.	-287.33
16171	3.3261	0.72727	5.e-002	1.4641e-004
16172	3.3261	0.45455	0.	-164.96
16173	3.2337	0.54545	0.	-209.79
16174	3.3261	0.54545	5.e-002	1.218e-004
16175	3.3261	0.27273	0.	-88.386
16176	3.2337	0.36364	0.	-131.05
16177	3.3261	0.36364	5.e-002	1.1426e-004
16178	3.2337	0.18182	0.	-50.288
16179	3.3261	0.18182	5.e-002	5.6475e-005
16180	3.3261	9.0909e-002	0.	-25.172
16181	3.1413	5.7273	0.	-92.473
16182	3.0489	5.8182	0.	-50.793
16183	3.1413	5.8182	5.e-002	-5.7263e-005
16184	3.1413	5.9091	0.	-25.079
16185	3.1413	5.5455	0.	-175.74
16186	3.0489	5.6364	0.	-138.65
16187	3.1413	5.6364	5.e-002	-1.4619e-004
16188	3.1413	5.3636	0.	-257.16
16189	3.0489	5.4545	0.	-224.25
16190	3.1413	5.4545	5.e-002	-1.2167e-004
16191	3.1413	5.1818	0.	-337.08
16192	3.0489	5.2727	0.	-308.69
16193	3.1413	5.2727	5.e-002	-1.6014e-004
16194	3.1413	5.	0.	-414.71
16195	3.0489	5.0909	0.	-391.28
16196	3.1413	5.0909	5.e-002	-1.5006e-004
16197	3.1413	4.8182	0.	-489.05
16198	3.0489	4.9091	0.	-470.96
16199	3.1413	4.9091	5.e-002	-8.865e-005
16200	3.1413	4.6364	0.	-559.16
16201	3.0489	4.7273	0.	-546.68
16202	3.1413	4.7273	5.e-002	-8.3646e-005
16203	3.1413	4.4545	0.	-624.16
16204	3.0489	4.5455	0.	-617.44
16205	3.1413	4.5455	5.e-002	-7.3857e-005
16206	3.1413	4.2727	0.	-683.24
16207	3.0489	4.3636	0.	-682.35
16208	3.1413	4.3636	5.e-002	-3.3851e-005
16209	3.1413	4.0909	0.	-735.71
16210	3.0489	4.1818	0.	-740.63
16211	3.1413	4.1818	5.e-002	-4.3094e-005
16212	3.1413	3.9091	0.	-781.
16213	3.0489	4.	0.	-791.64
16214	3.1413	4.	5.e-002	-2.9848e-005
16215	3.1413	3.7273	0.	-818.64
16216	3.0489	3.8182	0.	-834.84
16217	3.1413	3.8182	5.e-002	-2.8113e-005
16218	3.1413	3.5455	0.	-848.25
16219	3.0489	3.6364	0.	-869.84
16220	3.1413	3.6364	5.e-002	-2.0313e-005
16221	3.1413	3.3636	0.	-869.59
16222	3.0489	3.4545	0.	-896.32
16223	3.1413	3.4545	5.e-002	-1.1807e-005
16224	3.1413	3.1818	0.	-882.46
16225	3.0489	3.2727	0.	-914.09
16226	3.1413	3.2727	5.e-002	-6.7001e-006
16227	3.1413	3.	0.	-886.76
16228	3.0489	3.0909	0.	-923.01
16229	3.1413	3.0909	5.e-002	-1.9968e-006
16230	3.1413	2.8182	0.	-882.46
16231	3.0489	2.9091	0.	-923.01
16232	3.1413	2.9091	5.e-002	1.9968e-006
16233	3.1413	2.6364	0.	-869.59
16234	3.0489	2.7273	0.	-914.09
16235	3.1413	2.7273	5.e-002	6.7001e-006
16236	3.1413	2.4545	0.	-848.25
16237	3.0489	2.5455	0.	-896.32
16238	3.1413	2.5455	5.e-002	1.3552e-005
16239	3.1413	2.2727	0.	-818.64
16240	3.0489	2.3636	0.	-869.84
16241	3.1413	2.3636	5.e-002	1.9841e-005
16242	3.1413	2.0909	0.	-781.
16243	3.0489	2.1818	0.	-834.84
16244	3.1413	2.1818	5.e-002	3.0457e-005
16245	3.1413	1.9091	0.	-735.71
16246	3.0489	2.	0.	-791.64
16247	3.1413	2.	5.e-002	3.495e-005
16248	3.1413	1.7273	0.	-683.24
16249	3.0489	1.8182	0.	-740.63
16250	3.1413	1.8182	5.e-002	2.921e-005
16251	3.1413	1.5455	0.	-624.16
16252	3.0489	1.6364	0.	-682.35
16253	3.1413	1.6364	5.e-002	3.2189e-005
16254	3.1413	1.3636	0.	-559.16
16255	3.0489	1.4545	0.	-617.44
16256	3.1413	1.4545	5.e-002	7.0337e-005
16257	3.1413	1.1818	0.	-489.05
16258	3.0489	1.2727	0.	-546.68
16259	3.1413	1.2727	5.e-002	1.0544e-004
16260	3.1413	1.	0.	-414.71
16261	3.0489	1.0909	0.	-470.96
16262	3.1413	1.0909	5.e-002	1.1321e-004
16263	3.1413	0.81818	0.	-337.08
16264	3.0489	0.90909	0.	-391.28
16265	3.1413	0.90909	5.e-002	1.2308e-004
16266	3.1413	0.63636	0.	-257.16
16267	3.0489	0.72727	0.	-308.69
16268	3.1413	0.72727	5.e-002	1.3116e-004
16269	3.1413	0.45455	0.	-175.74
16270	3.0489	0.54545	0.	-224.25
16271	3.1413	0.54545	5.e-002	1.3312e-004
16272	3.1413	0.27273	0.	-92.473
16273	3.0489	0.36364	0.	-138.65
16274	3.1413	0.36364	5.e-002	1.8686e-004
16275	3.0489	0.18182	0.	-50.793
16276	3.1413	0.18182	5.e-002	5.765e-005
16277	3.1413	9.0909e-002	0.	-25.079
16278	2.9565	5.7273	0.	-96.373
16279	2.8641	5.8182	0.	-50.746
16280	2.9565	5.8182	5.e-002	-7.0951e-005
16281	2.9565	5.9091	0.	-24.589
16282	2.9565	5.5455	0.	-187.
16283	2.8641	5.6364	0.	-146.41
16284	2.9565	5.6364	5.e-002	-1.6399e-004
16285	2.9565	5.3636	0.	-275.64
16286	2.8641	5.4545	0.	-239.59
16287	2.9565	5.4545	5.e-002	-1.7109e-004
16288	2.9565	5.1818	0.	-362.76
16289	2.8641	5.2727	0.	-331.65
16290	2.9565	5.2727	5.e-002	-1.6714e-004
16291	2.9565	5.	0.	-447.43
16292	2.8641	5.0909	0.	-421.79
16293	2.9565	5.0909	5.e-002	-1.3408e-004
16294	2.9565	4.8182	0.	-528.51
16295	2.8641	4.9091	0.	-508.74
16296	2.9565	4.9091	5.e-002	-9.6242e-005
16297	2.9565	4.6364	0.	-604.9
16298	2.8641	4.7273	0.	-591.28
16299	2.9565	4.7273	5.e-002	-9.047e-005
16300	2.9565	4.4545	0.	-675.61
16301	2.8641	4.5455	0.	-668.29
16302	2.9565	4.5455	5.e-002	-9.6703e-005
16303	2.9565	4.2727	0.	-739.75
16304	2.8641	4.3636	0.	-738.78
16305	2.9565	4.3636	5.e-002	-6.818e-005
16306	2.9565	4.0909	0.	-796.6
16307	2.8641	4.1818	0.	-801.91
16308	2.9565	4.1818	5.e-002	-3.9972e-005
16309	2.9565	3.9091	0.	-845.56
16310	2.8641	4.	0.	-857.01
16311	2.9565	4.	5.e-002	-3.8527e-005
16312	2.9565	3.7273	0.	-886.15
16313	2.8641	3.8182	0.	-903.56
16314	2.9565	3.8182	5.e-002	-1.5772e-005
16315	2.9565	3.5455	0.	-918.04
16316	2.8641	3.6364	0.	-941.17
16317	2.9565	3.6364	5.e-002	-1.9012e-005
16318	2.9565	3.3636	0.	-940.98
16319	2.8641	3.4545	0.	-969.58
16320	2.9565	3.4545	5.e-002	-1.4559e-005
16321	2.9565	3.1818	0.	-954.8
16322	2.8641	3.2727	0.	-988.61
16323	2.9565	3.2727	5.e-002	-6.8561e-006
16324	2.9565	3.	0.	-959.42
16325	2.8641	3.0909	0.	-998.15
16326	2.9565	3.0909	5.e-002	-2.0672e-006
16327	2.9565	2.8182	0.	-954.8
16328	2.8641	2.9091	0.	-998.15
16329	2.9565	2.9091	5.e-002	2.0672e-006
16330	2.9565	2.6364	0.	-940.98
16331	2.8641	2.7273	0.	-988.61
16332	2.9565	2.7273	5.e-002	6.8561e-006
16333	2.9565	2.4545	0.	-918.04
16334	2.8641	2.5455	0.	-969.58
16335	2.9565	2.5455	5.e-002	1.3841e-005
16336	2.9565	2.2727	0.	-886.15
16337	2.8641	2.3636	0.	-941.17
16338	2.9565	2.3636	5.e-002	1.7054e-005
16339	2.9565	2.0909	0.	-845.56
16340	2.8641	2.1818	0.	-903.56
16341	2.9565	2.1818	5.e-002	1.5772e-005
16342	2.9565	1.9091	0.	-796.6
16343	2.8641	2.	0.	-857.01
16344	2.9565	2.	5.e-002	3.7112e-005
16345	2.9565	1.7273	0.	-739.75
16346	2.8641	1.8182	0.	-801.91
16347	2.9565	1.8182	5.e-002	4.5918e-005
16348	2.9565	1.5455	0.	-675.61
16349	2.8641	1.6364	0.	-738.78
16350	2.9565	1.6364	5.e-002	6.4759e-005
16351	2.9565	1.3636	0.	-604.9
16352	2.8641	1.4545	0.	-668.29
16353	2.9565	1.4545	5.e-002	9.6703e-005
16354	2.9565	1.1818	0.	-528.51
16355	2.8641	1.2727	0.	-591.28
16356	2.9565	1.2727	5.e-002	1.1069e-004
16357	2.9565	1.	0.	-447.43
16358	2.8641	1.0909	0.	-508.74
16359	2.9565	1.0909	5.e-002	1.2327e-004
16360	2.9565	0.81818	0.	-362.76
16361	2.8641	0.90909	0.	-421.79
16362	2.9565	0.90909	5.e-002	1.3408e-004
16363	2.9565	0.63636	0.	-275.64
16364	2.8641	0.72727	0.	-331.65
16365	2.9565	0.72727	5.e-002	1.4286e-004
16366	2.9565	0.45455	0.	-187.
16367	2.8641	0.54545	0.	-239.59
16368	2.9565	0.54545	5.e-002	2.1214e-004
16369	2.9565	0.27273	0.	-96.373
16370	2.8641	0.36364	0.	-146.41
16371	2.9565	0.36364	5.e-002	1.6399e-004
16372	2.8641	0.18182	0.	-50.746
16373	2.9565	0.18182	5.e-002	7.0951e-005
16374	2.9565	9.0909e-002	0.	-24.589
16375	2.7717	5.7273	0.	-100.03
16376	2.6793	5.8182	0.	-50.048
16377	2.7717	5.8182	5.e-002	-6.7092e-005
16378	2.7717	5.9091	0.	-23.623
16379	2.7717	5.5455	0.	-198.8
16380	2.6793	5.6364	0.	-154.33
16381	2.7717	5.6364	5.e-002	-1.4038e-004
16382	2.7717	5.3636	0.	-295.44
16383	2.6793	5.4545	0.	-255.92
16384	2.7717	5.4545	5.e-002	-1.9483e-004
16385	2.7717	5.1818	0.	-390.53
16386	2.6793	5.2727	0.	-356.46
16387	2.7717	5.2727	5.e-002	-1.8861e-004
16388	2.7717	5.	0.	-482.98
16389	2.6793	5.0909	0.	-454.96
16390	2.7717	5.0909	5.e-002	-1.4564e-004
16391	2.7717	4.8182	0.	-571.42
16392	2.6793	4.9091	0.	-549.92
16393	2.7717	4.9091	5.e-002	-1.0414e-004
16394	2.7717	4.6364	0.	-654.63
16395	2.6793	4.7273	0.	-639.91
16396	2.7717	4.7273	5.e-002	-9.3697e-005
16397	2.7717	4.4545	0.	-731.46
16398	2.6793	4.5455	0.	-723.65
16399	2.7717	4.5455	5.e-002	-1.0812e-004
16400	2.7717	4.2727	0.	-800.97
16401	2.6793	4.3636	0.	-800.05
16402	2.7717	4.3636	5.e-002	-5.8024e-005
16403	2.7717	4.0909	0.	-862.38
16404	2.6793	4.1818	0.	-868.23
16405	2.7717	4.1818	5.e-002	-5.9944e-005
16406	2.7717	3.9091	0.	-915.11
16407	2.6793	4.	0.	-927.53
16408	2.7717	4.	5.e-002	-2.8311e-005
16409	2.7717	3.7273	0.	-958.71
16410	2.6793	3.8182	0.	-977.44
16411	2.7717	3.8182	5.e-002	-1.4993e-005
16412	2.7717	3.5455	0.	-992.87
16413	2.6793	3.6364	0.	-1017.7
16414	2.7717	3.6364	5.e-002	-2.2321e-005
16415	2.7717	3.3636	0.	-1017.4
16416	2.6793	3.4545	0.	-1048.
16417	2.7717	3.4545	5.e-002	-1.5124e-005
16418	2.7717	3.1818	0.	-1032.2
16419	2.6793	3.2727	0.	-1068.2
16420	2.7717	3.2727	5.e-002	-6.0941e-006
16421	2.7717	3.	0.	-1037.1
16422	2.6793	3.0909	0.	-1078.3
16423	2.7717	3.0909	5.e-002	-2.1247e-006
16424	2.7717	2.8182	0.	-1032.2
16425	2.6793	2.9091	0.	-1078.3
16426	2.7717	2.9091	5.e-002	2.1247e-006
16427	2.7717	2.6364	0.	-1017.4
16428	2.6793	2.7273	0.	-1068.2
16429	2.7717	2.7273	5.e-002	6.0941e-006
16430	2.7717	2.4545	0.	-992.87
16431	2.6793	2.5455	0.	-1048.
16432	2.7717	2.5455	5.e-002	1.7141e-005
16433	2.7717	2.2727	0.	-958.71
16434	2.6793	2.3636	0.	-1017.7
16435	2.7717	2.3636	5.e-002	1.872e-005
16436	2.7717	2.0909	0.	-915.11
16437	2.6793	2.1818	0.	-977.44
16438	2.7717	2.1818	5.e-002	2.6201e-005
16439	2.7717	1.9091	0.	-862.38
16440	2.6793	2.	0.	-927.53
16441	2.7717	2.	5.e-002	2.8311e-005
16442	2.7717	1.7273	0.	-800.97
16443	2.6793	1.8182	0.	-868.23
16444	2.7717	1.8182	5.e-002	5.9944e-005
16445	2.7717	1.5455	0.	-731.46
16446	2.6793	1.6364	0.	-800.05
16447	2.7717	1.6364	5.e-002	7.6517e-005
16448	2.7717	1.3636	0.	-654.63
16449	2.6793	1.4545	0.	-723.65
16450	2.7717	1.4545	5.e-002	1.0445e-004
16451	2.7717	1.1818	0.	-571.42
16452	2.6793	1.2727	0.	-639.91
16453	2.7717	1.2727	5.e-002	1.1989e-004
16454	2.7717	1.	0.	-482.98
16455	2.6793	1.0909	0.	-549.92
16456	2.7717	1.0909	5.e-002	1.3376e-004
16457	2.7717	0.81818	0.	-390.53
16458	2.6793	0.90909	0.	-454.96
16459	2.7717	0.90909	5.e-002	1.7824e-004
16460	2.7717	0.63636	0.	-295.44
16461	2.6793	0.72727	0.	-356.46
16462	2.7717	0.72727	5.e-002	1.5521e-004
16463	2.7717	0.45455	0.	-198.8
16464	2.6793	0.54545	0.	-255.92
16465	2.7717	0.54545	5.e-002	2.3529e-004
16466	2.7717	0.27273	0.	-100.03
16467	2.6793	0.36364	0.	-154.33
16468	2.7717	0.36364	5.e-002	1.7548e-004
16469	2.6793	0.18182	0.	-50.048
16470	2.7717	0.18182	5.e-002	6.7092e-005
16471	2.7717	9.0909e-002	0.	-23.623
16472	2.587	5.7273	0.	-103.39
16473	2.4946	5.8182	0.	-48.6
16474	2.587	5.8182	5.e-002	-6.3363e-005
16475	2.587	5.9091	0.	-22.089
16476	2.587	5.5455	0.	-211.23
16477	2.4946	5.6364	0.	-162.45
16478	2.587	5.6364	5.e-002	-2.3063e-004
16479	2.587	5.3636	0.	-316.77
16480	2.4946	5.4545	0.	-273.45
16481	2.587	5.4545	5.e-002	-2.4487e-004
16482	2.587	5.1818	0.	-420.74
16483	2.4946	5.2727	0.	-383.47
16484	2.587	5.2727	5.e-002	-1.9909e-004
16485	2.587	5.	0.	-521.78
16486	2.4946	5.0909	0.	-491.29
16487	2.587	5.0909	5.e-002	-1.5765e-004
16488	2.587	4.8182	0.	-618.32
16489	2.4946	4.9091	0.	-595.08
16490	2.587	4.9091	5.e-002	-1.4077e-004
16491	2.587	4.6364	0.	-708.89
16492	2.4946	4.7273	0.	-693.17
16493	2.587	4.7273	5.e-002	-1.2925e-004
16494	2.587	4.4545	0.	-792.24
16495	2.4946	4.5455	0.	-784.11
16496	2.587	4.5455	5.e-002	-6.3552e-005
16497	2.587	4.2727	0.	-867.36
16498	2.4946	4.3636	0.	-866.71
16499	2.587	4.3636	5.e-002	-1.0476e-004
16500	2.587	4.0909	0.	-933.47
16501	2.4946	4.1818	0.	-940.07
16502	2.587	4.1818	5.e-002	-4.4498e-005
16503	2.587	3.9091	0.	-989.99
16504	2.4946	4.	0.	-1003.6
16505	2.587	4.	5.e-002	-5.3947e-005
16506	2.587	3.7273	0.	-1036.6
16507	2.4946	3.8182	0.	-1056.8
16508	2.587	3.8182	5.e-002	-3.2393e-005
16509	2.587	3.5455	0.	-1072.9
16510	2.4946	3.6364	0.	-1099.5
16511	2.587	3.6364	5.e-002	-1.721e-005
16512	2.587	3.3636	0.	-1099.
16513	2.4946	3.4545	0.	-1131.5
16514	2.587	3.4545	5.e-002	-1.2311e-005
16515	2.587	3.1818	0.	-1114.6
16516	2.4946	3.2727	0.	-1152.9
16517	2.587	3.2727	5.e-002	-6.4469e-006
16518	2.587	3.	0.	-1119.8
16519	2.4946	3.0909	0.	-1163.6
16520	2.587	3.0909	5.e-002	-2.166e-006
16521	2.587	2.8182	0.	-1114.6
16522	2.4946	2.9091	0.	-1163.6
16523	2.587	2.9091	5.e-002	2.166e-006
16524	2.587	2.6364	0.	-1099.
16525	2.4946	2.7273	0.	-1152.9
16526	2.587	2.7273	5.e-002	6.4469e-006
16527	2.587	2.4545	0.	-1072.9
16528	2.4946	2.5455	0.	-1131.5
16529	2.587	2.5455	5.e-002	1.3066e-005
16530	2.587	2.2727	0.	-1036.6
16531	2.4946	2.3636	0.	-1099.5
16532	2.587	2.3636	5.e-002	1.8241e-005
16533	2.587	2.0909	0.	-989.99
16534	2.4946	2.1818	0.	-1056.8
16535	2.587	2.1818	5.e-002	3.2393e-005
16536	2.587	1.9091	0.	-933.47
16537	2.4946	2.	0.	-1003.6
16538	2.587	2.	5.e-002	5.8645e-005
16539	2.587	1.7273	0.	-867.36
16540	2.4946	1.8182	0.	-940.07
16541	2.587	1.8182	5.e-002	4.7826e-005
16542	2.587	1.5455	0.	-792.24
16543	2.4946	1.6364	0.	-866.71
16544	2.587	1.6364	5.e-002	6.1326e-005
16545	2.587	1.3636	0.	-708.89
16546	2.4946	1.4545	0.	-784.11
16547	2.587	1.4545	5.e-002	6.3552e-005
16548	2.587	1.1818	0.	-618.32
16549	2.4946	1.2727	0.	-693.17
16550	2.587	1.2727	5.e-002	1.2925e-004
16551	2.587	1.	0.	-521.78
16552	2.4946	1.0909	0.	-595.08
16553	2.587	1.0909	5.e-002	1.4458e-004
16554	2.587	0.81818	0.	-420.74
16555	2.4946	0.90909	0.	-491.29
16556	2.587	0.90909	5.e-002	1.933e-004
16557	2.587	0.63636	0.	-316.77
16558	2.4946	0.72727	0.	-383.47
16559	2.587	0.72727	5.e-002	1.5706e-004
16560	2.587	0.45455	0.	-211.23
16561	2.4946	0.54545	0.	-273.45
16562	2.587	0.54545	5.e-002	2.4487e-004
16563	2.587	0.27273	0.	-103.39
16564	2.4946	0.36364	0.	-162.45
16565	2.587	0.36364	5.e-002	1.9219e-004
16566	2.4946	0.18182	0.	-48.6
16567	2.587	0.18182	5.e-002	7.6036e-005
16568	2.587	9.0909e-002	0.	-22.089
16569	2.4022	5.7273	0.	-106.4
16570	2.3098	5.8182	0.	-46.304
16571	2.4022	5.8182	5.e-002	-7.9697e-005
16572	2.4022	5.9091	0.	-19.881
16573	2.4022	5.5455	0.	-224.41
16574	2.3098	5.6364	0.	-170.83
16575	2.4022	5.6364	5.e-002	-2.1742e-004
16576	2.4022	5.3636	0.	-339.95
16577	2.3098	5.4545	0.	-292.44
16578	2.4022	5.4545	5.e-002	-2.7699e-004
16579	2.4022	5.1818	0.	-453.85
16580	2.3098	5.2727	0.	-413.17
16581	2.4022	5.2727	5.e-002	-1.7787e-004
16582	2.4022	5.	0.	-564.45
16583	2.3098	5.0909	0.	-531.42
16584	2.4022	5.0909	5.e-002	-1.6996e-004
16585	2.4022	4.8182	0.	-669.85
16586	2.3098	4.9091	0.	-644.97
16587	2.4022	4.9091	5.e-002	-1.5556e-004
16588	2.4022	4.6364	0.	-768.36
16589	2.3098	4.7273	0.	-751.85
16590	2.4022	4.7273	5.e-002	-1.0775e-004
16591	2.4022	4.4545	0.	-858.6
16592	2.3098	4.5455	0.	-850.42
16593	2.4022	4.5455	5.e-002	-1.1966e-004
16594	2.4022	4.2727	0.	-939.5
16595	2.3098	4.3636	0.	-939.41
16596	2.4022	4.3636	5.e-002	-5.7102e-005
16597	2.4022	4.0909	0.	-1010.3
16598	2.3098	4.1818	0.	-1018.
16599	2.4022	4.1818	5.e-002	-6.649e-005
16600	2.4022	3.9091	0.	-1070.5
16601	2.3098	4.	0.	-1085.5
16602	2.4022	4.	5.e-002	-6.0594e-005
16603	2.4022	3.7273	0.	-1119.9
16604	2.3098	3.8182	0.	-1141.8
16605	2.4022	3.8182	5.e-002	-3.2026e-005
16606	2.4022	3.5455	0.	-1158.3
16607	2.3098	3.6364	0.	-1186.8
16608	2.4022	3.6364	5.e-002	-1.3602e-005
16609	2.4022	3.3636	0.	-1185.7
16610	2.3098	3.4545	0.	-1220.4
16611	2.4022	3.4545	5.e-002	-1.3269e-005
16612	2.4022	3.1818	0.	-1202.2
16613	2.3098	3.2727	0.	-1242.7
16614	2.4022	3.2727	5.e-002	-7.2085e-006
16615	2.4022	3.	0.	-1207.6
16616	2.3098	3.0909	0.	-1253.9
16617	2.4022	3.0909	5.e-002	-2.1878e-006
16618	2.4022	2.8182	0.	-1202.2
16619	2.3098	2.9091	0.	-1253.9
16620	2.4022	2.9091	5.e-002	2.1878e-006
16621	2.4022	2.6364	0.	-1185.7
16622	2.3098	2.7273	0.	-1242.7
16623	2.4022	2.7273	5.e-002	7.4413e-006
16624	2.4022	2.4545	0.	-1158.3
16625	2.3098	2.5455	0.	-1220.4
16626	2.4022	2.5455	5.e-002	1.3269e-005
16627	2.4022	2.2727	0.	-1119.9
16628	2.3098	2.3636	0.	-1186.8
16629	2.4022	2.3636	5.e-002	1.2556e-005
16630	2.4022	2.0909	0.	-1070.5
16631	2.3098	2.1818	0.	-1141.8
16632	2.4022	2.1818	5.e-002	3.3327e-005
16633	2.4022	1.9091	0.	-1010.3
16634	2.3098	2.	0.	-1085.5
16635	2.4022	2.	5.e-002	5.4513e-005
16636	2.4022	1.7273	0.	-939.5
16637	2.3098	1.8182	0.	-1018.
16638	2.4022	1.8182	5.e-002	5.3365e-005
16639	2.4022	1.5455	0.	-858.6
16640	2.3098	1.6364	0.	-939.41
16641	2.4022	1.6364	5.e-002	3.9458e-005
16642	2.4022	1.3636	0.	-768.36
16643	2.3098	1.4545	0.	-850.42
16644	2.4022	1.4545	5.e-002	1.1966e-004
16645	2.4022	1.1818	0.	-669.85
16646	2.3098	1.2727	0.	-751.85
16647	2.4022	1.2727	5.e-002	1.3858e-004
16648	2.4022	1.	0.	-564.45
16649	2.3098	1.0909	0.	-644.97
16650	2.4022	1.0909	5.e-002	1.5556e-004
16651	2.4022	0.81818	0.	-453.85
16652	2.3098	0.90909	0.	-531.42
16653	2.4022	0.90909	5.e-002	2.0878e-004
16654	2.4022	0.63636	0.	-339.95
16655	2.3098	0.72727	0.	-413.17
16656	2.4022	0.72727	5.e-002	2.6149e-004
16657	2.4022	0.45455	0.	-224.41
16658	2.3098	0.54545	0.	-292.44
16659	2.4022	0.54545	5.e-002	2.1939e-004
16660	2.4022	0.27273	0.	-106.4
16661	2.3098	0.36364	0.	-170.83
16662	2.4022	0.36364	5.e-002	2.9451e-004
16663	2.3098	0.18182	0.	-46.304
16664	2.4022	0.18182	5.e-002	6.9563e-005
16665	2.4022	9.0909e-002	0.	-19.881
16666	2.2174	5.7273	0.	-109.02
16667	2.125	5.8182	0.	-43.086
16668	2.2174	5.8182	5.e-002	-9.6589e-005
16669	2.2174	5.9091	0.	-16.886
16670	2.2174	5.5455	0.	-238.55
16671	2.125	5.6364	0.	-179.57
16672	2.2174	5.6364	5.e-002	-2.3643e-004
16673	2.2174	5.3636	0.	-365.43
16674	2.125	5.4545	0.	-313.3
16675	2.2174	5.4545	5.e-002	-1.9694e-004
16676	2.2174	5.1818	0.	-490.54
16677	2.125	5.2727	0.	-446.23
16678	2.2174	5.2727	5.e-002	-2.4583e-004
16679	2.2174	5.	0.	-611.8
16680	2.125	5.0909	0.	-576.23
16681	2.2174	5.0909	5.e-002	-1.7525e-004
16682	2.2174	4.8182	0.	-726.9
16683	2.125	4.9091	0.	-700.59
16684	2.2174	4.9091	5.e-002	-1.6646e-004
16685	2.2174	4.6364	0.	-833.9
16686	2.125	4.7273	0.	-816.95
16687	2.2174	4.7273	5.e-002	-1.1833e-004
16688	2.2174	4.4545	0.	-931.29
16689	2.125	4.5455	0.	-923.48
16690	2.2174	4.5455	5.e-002	-7.4729e-005
16691	2.2174	4.2727	0.	-1018.
16692	2.125	4.3636	0.	-1018.9
16693	2.2174	4.3636	5.e-002	-8.9506e-005
16694	2.2174	4.0909	0.	-1093.3
16695	2.125	4.1818	0.	-1102.5
16696	2.2174	4.1818	5.e-002	-7.5837e-005
16697	2.2174	3.9091	0.	-1157.
16698	2.125	4.	0.	-1173.8
16699	2.2174	4.	5.e-002	-3.0975e-005
16700	2.2174	3.7273	0.	-1208.9
16701	2.125	3.8182	0.	-1232.8
16702	2.2174	3.8182	5.e-002	-2.8928e-005
16703	2.2174	3.5455	0.	-1249.1
16704	2.125	3.6364	0.	-1279.6
16705	2.2174	3.6364	5.e-002	-3.1017e-005
16706	2.2174	3.3636	0.	-1277.7
16707	2.125	3.4545	0.	-1314.4
16708	2.2174	3.4545	5.e-002	-9.5926e-006
16709	2.2174	3.1818	0.	-1294.7
16710	2.125	3.2727	0.	-1337.5
16711	2.2174	3.2727	5.e-002	-6.0587e-006
16712	2.2174	3.	0.	-1300.4
16713	2.125	3.0909	0.	-1349.
16714	2.2174	3.0909	5.e-002	1.3065e-005
16715	2.2174	2.8182	0.	-1294.7
16716	2.125	2.9091	0.	-1349.
16717	2.2174	2.9091	5.e-002	2.1678e-006
16718	2.2174	2.6364	0.	-1277.7
16719	2.125	2.7273	0.	-1337.5
16720	2.2174	2.7273	5.e-002	6.5248e-006
16721	2.2174	2.4545	0.	-1249.1
16722	2.125	2.5455	0.	-1314.4
16723	2.2174	2.5455	5.e-002	1.2172e-005
16724	2.2174	2.2727	0.	-1208.9
16725	2.125	2.3636	0.	-1279.6
16726	2.2174	2.3636	5.e-002	4.1848e-005
16727	2.2174	2.0909	0.	-1157.
16728	2.125	2.1818	0.	-1232.8
16729	2.2174	2.1818	5.e-002	2.5481e-005
16730	2.2174	1.9091	0.	-1093.3
16731	2.125	2.	0.	-1173.8
16732	2.2174	2.	5.e-002	5.5978e-005
16733	2.2174	1.7273	0.	-1018.
16734	2.125	1.8182	0.	-1102.5
16735	2.2174	1.8182	5.e-002	7.2401e-005
16736	2.2174	1.5455	0.	-931.29
16737	2.125	1.6364	0.	-1018.9
16738	2.2174	1.6364	5.e-002	1.083e-004
16739	2.2174	1.3636	0.	-833.9
16740	2.125	1.4545	0.	-923.48
16741	2.2174	1.4545	5.e-002	1.308e-004
16742	2.2174	1.1818	0.	-726.9
16743	2.125	1.2727	0.	-816.95
16744	2.2174	1.2727	5.e-002	1.1453e-004
16745	2.2174	1.	0.	-611.8
16746	2.125	1.0909	0.	-700.59
16747	2.2174	1.0909	5.e-002	1.6646e-004
16748	2.2174	0.81818	0.	-490.54
16749	2.125	0.90909	0.	-576.23
16750	2.2174	0.90909	5.e-002	2.2436e-004
16751	2.2174	0.63636	0.	-365.43
16752	2.125	0.72727	0.	-446.23
16753	2.2174	0.72727	5.e-002	1.8145e-004
16754	2.2174	0.45455	0.	-238.55
16755	2.125	0.54545	0.	-313.3
16756	2.2174	0.54545	5.e-002	1.8979e-004
16757	2.2174	0.27273	0.	-109.02
16758	2.125	0.36364	0.	-179.57
16759	2.2174	0.36364	5.e-002	1.8388e-004
16760	2.125	0.18182	0.	-43.086
16761	2.2174	0.18182	5.e-002	7.039e-005
16762	2.2174	9.0909e-002	0.	-16.886
16763	2.0326	5.7273	0.	-111.24
16764	1.9402	5.8182	0.	-38.929
16765	2.0326	5.8182	5.e-002	-6.0526e-005
16766	2.0326	5.9091	0.	-13.001
16767	2.0326	5.5455	0.	-253.97
16768	1.9402	5.6364	0.	-188.88
16769	2.0326	5.6364	5.e-002	-2.5604e-004
16770	2.0326	5.3636	0.	-393.85
16771	1.9402	5.4545	0.	-336.65
16772	2.0326	5.4545	5.e-002	-3.5983e-004
16773	2.0326	5.1818	0.	-531.72
16774	1.9402	5.2727	0.	-483.64
16775	2.0326	5.2727	5.e-002	-2.4447e-004
16776	2.0326	5.	0.	-664.9
16777	1.9402	5.0909	0.	-626.97
16778	2.0326	5.0909	5.e-002	-1.8098e-004
16779	2.0326	4.8182	0.	-790.59
16780	1.9402	4.9091	0.	-763.26
16781	2.0326	4.9091	5.e-002	-1.8415e-004
16782	2.0326	4.6364	0.	-906.56
16783	1.9402	4.7273	0.	-889.73
16784	2.0326	4.7273	5.e-002	-8.5586e-005
16785	2.0326	4.4545	0.	-1011.2
16786	1.9402	4.5455	0.	-1004.4
16787	2.0326	4.5455	5.e-002	-1.3281e-004
16788	2.0326	4.2727	0.	-1103.5
16789	1.9402	4.3636	0.	-1106.1
16790	2.0326	4.3636	5.e-002	-9.256e-005
16791	2.0326	4.0909	0.	-1183.1
16792	1.9402	4.1818	0.	-1194.2
16793	2.0326	4.1818	5.e-002	-5.6326e-005
16794	2.0326	3.9091	0.	-1249.8
16795	1.9402	4.	0.	-1268.6
16796	2.0326	4.	5.e-002	-4.3366e-005
16797	2.0326	3.7273	0.	-1303.7
16798	1.9402	3.8182	0.	-1329.7
16799	2.0326	3.8182	5.e-002	-3.3967e-005
16800	2.0326	3.5455	0.	-1345.2
16801	1.9402	3.6364	0.	-1377.8
16802	2.0326	3.6364	5.e-002	-2.8766e-005
16803	2.0326	3.3636	0.	-1374.6
16804	1.9402	3.4545	0.	-1413.4
16805	2.0326	3.4545	5.e-002	-1.4733e-005
16806	2.0326	3.1818	0.	-1392.1
16807	1.9402	3.2727	0.	-1436.9
16808	2.0326	3.2727	5.e-002	-7.3661e-006
16809	2.0326	3.	0.	-1397.9
16810	1.9402	3.0909	0.	-1448.6
16811	2.0326	3.0909	5.e-002	-2.1043e-006
16812	2.0326	2.8182	0.	-1392.1
16813	1.9402	2.9091	0.	-1448.6
16814	2.0326	2.9091	5.e-002	2.2045e-006
16815	2.0326	2.6364	0.	-1374.6
16816	1.9402	2.7273	0.	-1436.9
16817	2.0326	2.7273	5.e-002	6.4597e-006
16818	2.0326	2.4545	0.	-1345.2
16819	1.9402	2.5455	0.	-1413.4
16820	2.0326	2.5455	5.e-002	1.143e-005
16821	2.0326	2.2727	0.	-1303.7
16822	1.9402	2.3636	0.	-1377.8
16823	2.0326	2.3636	5.e-002	2.3727e-005
16824	2.0326	2.0909	0.	-1249.8
16825	1.9402	2.1818	0.	-1329.7
16826	2.0326	2.1818	5.e-002	2.5538e-005
16827	2.0326	1.9091	0.	-1183.1
16828	1.9402	2.	0.	-1268.6
16829	2.0326	2.	5.e-002	1.8582e-005
16830	2.0326	1.7273	0.	-1103.5
16831	1.9402	1.8182	0.	-1194.2
16832	2.0326	1.8182	5.e-002	5.6326e-005
16833	2.0326	1.5455	0.	-1011.2
16834	1.9402	1.6364	0.	-1106.1
16835	2.0326	1.6364	5.e-002	6.9128e-005
16836	2.0326	1.3636	0.	-906.56
16837	1.9402	1.4545	0.	-1004.4
16838	2.0326	1.4545	5.e-002	1.2263e-004
16839	2.0326	1.1818	0.	-790.59
16840	1.9402	1.2727	0.	-889.73
16841	2.0326	1.2727	5.e-002	1.561e-004
16842	2.0326	1.	0.	-664.9
16843	1.9402	1.0909	0.	-763.26
16844	2.0326	1.0909	5.e-002	1.7951e-004
16845	2.0326	0.81818	0.	-531.72
16846	1.9402	0.90909	0.	-626.97
16847	2.0326	0.90909	5.e-002	2.3959e-004
16848	2.0326	0.63636	0.	-393.85
16849	1.9402	0.72727	0.	-483.64
16850	2.0326	0.72727	5.e-002	2.1385e-004
16851	2.0326	0.45455	0.	-253.97
16852	1.9402	0.54545	0.	-336.65
16853	2.0326	0.54545	5.e-002	2.6258e-004
16854	2.0326	0.27273	0.	-111.24
16855	1.9402	0.36364	0.	-188.88
16856	2.0326	0.36364	5.e-002	2.0601e-004
16857	1.9402	0.18182	0.	-38.929
16858	2.0326	0.18182	5.e-002	1.0592e-004
16859	2.0326	9.0909e-002	0.	-13.001
16860	1.8478	5.7273	0.	-113.07
16861	1.7554	5.8182	0.	-33.943
16862	1.8478	5.8182	5.e-002	-8.2794e-005
16863	1.8478	5.9091	0.	-8.2394
16864	1.8478	5.5455	0.	-271.15
16865	1.7554	5.6364	0.	-199.08
16866	1.8478	5.6364	5.e-002	-3.243e-004
16867	1.8478	5.3636	0.	-426.15
16868	1.7554	5.4545	0.	-363.41
16869	1.8478	5.4545	5.e-002	-2.7912e-004
16870	1.8478	5.1818	0.	-578.68
16871	1.7554	5.2727	0.	-526.8
16872	1.8478	5.2727	5.e-002	-2.0899e-004
16873	1.8478	5.	0.	-725.23
16874	1.7554	5.0909	0.	-685.34
16875	1.8478	5.0909	5.e-002	-2.5388e-004
16876	1.8478	4.8182	0.	-862.39
16877	1.7554	4.9091	0.	-834.74
16878	1.8478	4.9091	5.e-002	-1.8664e-004
16879	1.8478	4.6364	0.	-987.66
16880	1.7554	4.7273	0.	-971.79
16881	1.8478	4.7273	5.e-002	-1.6651e-004
16882	1.8478	4.4545	0.	-1099.4
16883	1.7554	4.5455	0.	-1094.5
16884	1.8478	4.5455	5.e-002	-7.6473e-005
16885	1.8478	4.2727	0.	-1196.9
16886	1.7554	4.3636	0.	-1201.8
16887	1.8478	4.3636	5.e-002	-9.8239e-005
16888	1.8478	4.0909	0.	-1280.
16889	1.7554	4.1818	0.	-1293.6
16890	1.8478	4.1818	5.e-002	-9.2424e-005
16891	1.8478	3.9091	0.	-1348.9
16892	1.7554	4.	0.	-1370.4
16893	1.8478	4.	5.e-002	-6.5994e-005
16894	1.8478	3.7273	0.	-1404.2
16895	1.7554	3.8182	0.	-1432.7
16896	1.8478	3.8182	5.e-002	-2.3939e-005
16897	1.8478	3.5455	0.	-1446.4
16898	1.7554	3.6364	0.	-1481.3
16899	1.8478	3.6364	5.e-002	-1.2425e-005
16900	1.8478	3.3636	0.	-1476.1
16901	1.7554	3.4545	0.	-1517.1
16902	1.8478	3.4545	5.e-002	-1.047e-005
16903	1.8478	3.1818	0.	-1493.8
16904	1.7554	3.2727	0.	-1540.5
16905	1.8478	3.2727	5.e-002	-6.0926e-006
16906	1.8478	3.	0.	-1499.6
16907	1.7554	3.0909	0.	-1552.2
16908	1.8478	3.0909	5.e-002	-2.0936e-006
16909	1.8478	2.8182	0.	-1493.8
16910	1.7554	2.9091	0.	-1552.2
16911	1.8478	2.9091	5.e-002	2.1124e-006
16912	1.8478	2.6364	0.	-1476.1
16913	1.7554	2.7273	0.	-1540.5
16914	1.8478	2.7273	5.e-002	5.867e-006
16915	1.8478	2.4545	0.	-1446.4
16916	1.7554	2.5455	0.	-1517.1
16917	1.8478	2.5455	5.e-002	2.437e-005
16918	1.8478	2.2727	0.	-1404.2
16919	1.7554	2.3636	0.	-1481.3
16920	1.8478	2.3636	5.e-002	2.7498e-005
16921	1.8478	2.0909	0.	-1348.9
16922	1.7554	2.1818	0.	-1432.7
16923	1.8478	2.1818	5.e-002	2.655e-005
16924	1.8478	1.9091	0.	-1280.
16925	1.7554	2.	0.	-1370.4
16926	1.8478	2.	5.e-002	6.9085e-005
16927	1.8478	1.7273	0.	-1196.9
16928	1.7554	1.8182	0.	-1293.6
16929	1.8478	1.8182	5.e-002	8.1996e-005
16930	1.8478	1.5455	0.	-1099.4
16931	1.7554	1.6364	0.	-1201.8
16932	1.8478	1.6364	5.e-002	1.2781e-004
16933	1.8478	1.3636	0.	-987.66
16934	1.7554	1.4545	0.	-1094.5
16935	1.8478	1.4545	5.e-002	1.3769e-004
16936	1.8478	1.1818	0.	-862.39
16937	1.7554	1.2727	0.	-971.79
16938	1.8478	1.2727	5.e-002	1.6651e-004
16939	1.8478	1.	0.	-725.23
16940	1.7554	1.0909	0.	-834.74
16941	1.8478	1.0909	5.e-002	1.8193e-004
16942	1.8478	0.81818	0.	-578.68
16943	1.7554	0.90909	0.	-685.34
16944	1.8478	0.90909	5.e-002	2.4927e-004
16945	1.8478	0.63636	0.	-426.15
16946	1.7554	0.72727	0.	-526.8
16947	1.8478	0.72727	5.e-002	3.7109e-004
16948	1.8478	0.45455	0.	-271.15
16949	1.7554	0.54545	0.	-363.41
16950	1.8478	0.54545	5.e-002	2.1963e-004
16951	1.8478	0.27273	0.	-113.07
16952	1.7554	0.36364	0.	-199.08
16953	1.8478	0.36364	5.e-002	3.243e-004
16954	1.7554	0.18182	0.	-33.943
16955	1.8478	0.18182	5.e-002	8.2794e-005
16956	1.8478	9.0909e-002	0.	-8.2393
16957	1.663	5.7273	0.	-114.62
16958	1.5707	5.8182	0.	-28.494
16959	1.663	5.8182	5.e-002	-1.2982e-004
16960	1.663	5.9091	0.	-3.4314
16961	1.663	5.5455	0.	-290.86
16962	1.5707	5.6364	0.	-210.77
16963	1.663	5.6364	5.e-002	-3.4573e-004
16964	1.663	5.3636	0.	-463.74
16965	1.5707	5.4545	0.	-395.
16966	1.663	5.4545	5.e-002	-2.8937e-004
16967	1.663	5.1818	0.	-633.26
16968	1.5707	5.2727	0.	-577.83
16969	1.663	5.2727	5.e-002	-2.2093e-004
16970	1.663	5.	0.	-794.79
16971	1.5707	5.0909	0.	-753.74
16972	1.663	5.0909	5.e-002	-2.2804e-004
16973	1.663	4.8182	0.	-944.2
16974	1.5707	4.9091	0.	-917.36
16975	1.663	4.9091	5.e-002	-1.9502e-004
16976	1.663	4.6364	0.	-1078.8
16977	1.5707	4.7273	0.	-1065.1
16978	1.663	4.7273	5.e-002	-1.8407e-004
16979	1.663	4.4545	0.	-1197.1
16980	1.5707	4.5455	0.	-1195.1
16981	1.663	4.5455	5.e-002	-1.0935e-004
16982	1.663	4.2727	0.	-1298.8
16983	1.5707	4.3636	0.	-1307.
16984	1.663	4.3636	5.e-002	-7.0796e-005
16985	1.663	4.0909	0.	-1384.3
16986	1.5707	4.1818	0.	-1401.3
16987	1.663	4.1818	5.e-002	-7.0503e-005
16988	1.663	3.9091	0.	-1454.4
16989	1.5707	4.	0.	-1479.
16990	1.663	4.	5.e-002	-7.9593e-005
16991	1.663	3.7273	0.	-1510.1
16992	1.5707	3.8182	0.	-1541.3
16993	1.663	3.8182	5.e-002	-4.4473e-005
16994	1.663	3.5455	0.	-1552.3
16995	1.5707	3.6364	0.	-1589.6
16996	1.663	3.6364	5.e-002	-1.2107e-005
16997	1.663	3.3636	0.	-1581.8
16998	1.5707	3.4545	0.	-1624.7
16999	1.663	3.4545	5.e-002	-9.4204e-006
17000	1.663	3.1818	0.	-1599.3
17001	1.5707	3.2727	0.	-1647.7
17002	1.663	3.2727	5.e-002	-6.0348e-006
17003	1.663	3.	0.	-1605.
17004	1.5707	3.0909	0.	-1659.1
17005	1.663	3.0909	5.e-002	-1.8707e-006
17006	1.663	2.8182	0.	-1599.3
17007	1.5707	2.9091	0.	-1659.1
17008	1.663	2.9091	5.e-002	1.8889e-006
17009	1.663	2.6364	0.	-1581.8
17010	1.5707	2.7273	0.	-1647.7
17011	1.663	2.7273	5.e-002	6.4705e-006
17012	1.663	2.4545	0.	-1552.3
17013	1.5707	2.5455	0.	-1624.7
17014	1.663	2.5455	5.e-002	1.3997e-005
17015	1.663	2.2727	0.	-1510.1
17016	1.5707	2.3636	0.	-1589.6
17017	1.663	2.3636	5.e-002	1.3115e-005
17018	1.663	2.0909	0.	-1454.4
17019	1.5707	2.1818	0.	-1541.3
17020	1.663	2.1818	5.e-002	2.3282e-005
17021	1.663	1.9091	0.	-1384.3
17022	1.5707	2.	0.	-1479.
17023	1.663	2.	5.e-002	6.4271e-005
17024	1.663	1.7273	0.	-1298.8
17025	1.5707	1.8182	0.	-1401.3
17026	1.663	1.8182	5.e-002	8.8231e-005
17027	1.663	1.5455	0.	-1197.1
17028	1.5707	1.6364	0.	-1307.
17029	1.663	1.6364	5.e-002	1.1341e-004
17030	1.663	1.3636	0.	-1078.8
17031	1.5707	1.4545	0.	-1195.1
17032	1.663	1.4545	5.e-002	1.0935e-004
17033	1.663	1.1818	0.	-944.2
17034	1.5707	1.2727	0.	-1065.1
17035	1.663	1.2727	5.e-002	1.8967e-004
17036	1.663	1.	0.	-794.79
17037	1.5707	1.0909	0.	-917.36
17038	1.663	1.0909	5.e-002	1.9502e-004
17039	1.663	0.81818	0.	-633.26
17040	1.5707	0.90909	0.	-753.74
17041	1.663	0.90909	5.e-002	2.2679e-004
17042	1.663	0.63636	0.	-463.74
17043	1.5707	0.72727	0.	-577.83
17044	1.663	0.72727	5.e-002	2.2093e-004
17045	1.663	0.45455	0.	-290.86
17046	1.5707	0.54545	0.	-395.
17047	1.663	0.54545	5.e-002	2.3507e-004
17048	1.663	0.27273	0.	-114.62
17049	1.5707	0.36364	0.	-210.77
17050	1.663	0.36364	5.e-002	3.4924e-004
17051	1.5707	0.18182	0.	-28.494
17052	1.663	0.18182	5.e-002	9.2729e-005
17053	1.663	9.0909e-002	0.	-3.4313
17054	1.4783	5.7273	0.	-116.12
17055	1.3859	5.8182	0.	-23.241
17056	1.4783	5.8182	5.e-002	-1.0704e-004
17057	1.4783	5.9091	0.	-1.0034
17058	1.4783	5.5455	0.	-314.35
17059	1.3859	5.6364	0.	-224.89
17060	1.4783	5.6364	5.e-002	-3.6463e-004
17061	1.4783	5.3636	0.	-508.76
17062	1.3859	5.4545	0.	-433.66
17063	1.4783	5.4545	5.e-002	-3.5985e-004
17064	1.4783	5.1818	0.	-698.15
17065	1.3859	5.2727	0.	-639.79
17066	1.4783	5.2727	5.e-002	-2.3449e-004
17067	1.4783	5.	0.	-876.33
17068	1.3859	5.0909	0.	-835.46
17069	1.4783	5.0909	5.e-002	-3.3535e-004
17070	1.4783	4.8182	0.	-1038.4
17071	1.3859	4.9091	0.	-1014.
17072	1.4783	4.9091	5.e-002	-2.4864e-004
17073	1.4783	4.6364	0.	-1181.7
17074	1.3859	4.7273	0.	-1171.9
17075	1.4783	4.7273	5.e-002	-1.8019e-004
17076	1.4783	4.4545	0.	-1305.4
17077	1.3859	4.5455	0.	-1307.8
17078	1.4783	4.5455	5.e-002	-1.097e-004
17079	1.4783	4.2727	0.	-1409.9
17080	1.3859	4.3636	0.	-1422.4
17081	1.4783	4.3636	5.e-002	-1.2668e-004
17082	1.4783	4.0909	0.	-1496.3
17083	1.3859	4.1818	0.	-1517.2
17084	1.4783	4.1818	5.e-002	-5.8025e-005
17085	1.4783	3.9091	0.	-1566.2
17086	1.3859	4.	0.	-1594.2
17087	1.4783	4.	5.e-002	-6.2006e-005
17088	1.4783	3.7273	0.	-1621.1
17089	1.3859	3.8182	0.	-1655.1
17090	1.4783	3.8182	5.e-002	-3.6917e-005
17091	1.4783	3.5455	0.	-1662.3
17092	1.3859	3.6364	0.	-1701.8
17093	1.4783	3.6364	5.e-002	-1.5872e-005
17094	1.4783	3.3636	0.	-1691.
17095	1.3859	3.4545	0.	-1735.6
17096	1.4783	3.4545	5.e-002	-1.039e-005
17097	1.4783	3.1818	0.	-1707.8
17098	1.3859	3.2727	0.	-1757.5
17099	1.4783	3.2727	5.e-002	-6.4357e-006
17100	1.4783	3.	0.	-1713.4
17101	1.3859	3.0909	0.	-1768.3
17102	1.4783	3.0909	5.e-002	-1.6909e-006
17103	1.4783	2.8182	0.	-1707.8
17104	1.3859	2.9091	0.	-1768.3
17105	1.4783	2.9091	5.e-002	1.7254e-006
17106	1.4783	2.6364	0.	-1691.
17107	1.3859	2.7273	0.	-1757.5
17108	1.4783	2.7273	5.e-002	6.4357e-006
17109	1.4783	2.4545	0.	-1662.3
17110	1.3859	2.5455	0.	-1735.6
17111	1.4783	2.5455	5.e-002	1.039e-005
17112	1.4783	2.2727	0.	-1621.1
17113	1.3859	2.3636	0.	-1701.8
17114	1.4783	2.3636	5.e-002	3.5278e-005
17115	1.4783	2.0909	0.	-1566.2
17116	1.3859	2.1818	0.	-1655.1
17117	1.4783	2.1818	5.e-002	3.6917e-005
17118	1.4783	1.9091	0.	-1496.3
17119	1.3859	2.	0.	-1594.2
17120	1.4783	2.	5.e-002	6.4191e-005
17121	1.4783	1.7273	0.	-1409.9
17122	1.3859	1.8182	0.	-1517.2
17123	1.4783	1.8182	5.e-002	5.8025e-005
17124	1.4783	1.5455	0.	-1305.4
17125	1.3859	1.6364	0.	-1422.4
17126	1.4783	1.6364	5.e-002	1.1736e-004
17127	1.4783	1.3636	0.	-1181.7
17128	1.3859	1.4545	0.	-1307.8
17129	1.4783	1.4545	5.e-002	1.2471e-004
17130	1.4783	1.1818	0.	-1038.4
17131	1.3859	1.2727	0.	-1171.9
17132	1.4783	1.2727	5.e-002	1.7291e-004
17133	1.4783	1.	0.	-876.33
17134	1.3859	1.0909	0.	-1014.
17135	1.4783	1.0909	5.e-002	2.0494e-004
17136	1.4783	0.81818	0.	-698.15
17137	1.3859	0.90909	0.	-835.46
17138	1.4783	0.90909	5.e-002	2.3368e-004
17139	1.4783	0.63636	0.	-508.76
17140	1.3859	0.72727	0.	-639.79
17141	1.4783	0.72727	5.e-002	2.9171e-004
17142	1.4783	0.45455	0.	-314.35
17143	1.3859	0.54545	0.	-433.66
17144	1.4783	0.54545	5.e-002	3.0187e-004
17145	1.4783	0.27273	0.	-116.12
17146	1.3859	0.36364	0.	-224.89
17147	1.4783	0.36364	5.e-002	3.6463e-004
17148	1.3859	0.18182	0.	-23.241
17149	1.4783	0.18182	5.e-002	1.1432e-004
17150	1.4783	9.0909e-002	0.	-1.0034
17151	1.2935	5.7273	0.	-117.99
17152	1.2011	5.8182	0.	-19.127
17153	1.2935	5.8182	5.e-002	-2.1311e-004
17154	1.2935	5.9091	0.	-0.17822
17155	1.2935	5.5455	0.	-343.54
17156	1.2011	5.6364	0.	-243.36
17157	1.2935	5.6364	5.e-002	-3.6617e-004
17158	1.2935	5.3636	0.	-564.36
17159	1.2011	5.4545	0.	-483.27
17160	1.2935	5.4545	5.e-002	-3.0534e-004
17161	1.2935	5.1818	0.	-777.02
17162	1.2011	5.2727	0.	-717.64
17163	1.2935	5.2727	5.e-002	-3.0424e-004
17164	1.2935	5.	0.	-973.32
17165	1.2011	5.0909	0.	-935.36
17166	1.2935	5.0909	5.e-002	-3.4475e-004
17167	1.2935	4.8182	0.	-1147.8
17168	1.2011	4.9091	0.	-1128.7
17169	1.2935	4.9091	5.e-002	-2.1169e-004
17170	1.2935	4.6364	0.	-1298.3
17171	1.2011	4.7273	0.	-1294.8
17172	1.2935	4.7273	5.e-002	-1.8583e-004
17173	1.2935	4.4545	0.	-1425.2
17174	1.2011	4.5455	0.	-1434.
17175	1.2935	4.5455	5.e-002	-1.4208e-004
17176	1.2935	4.2727	0.	-1530.2
17177	1.2011	4.3636	0.	-1548.5
17178	1.2935	4.3636	5.e-002	-1.0885e-004
17179	1.2935	4.0909	0.	-1615.5
17180	1.2011	4.1818	0.	-1641.4
17181	1.2935	4.1818	5.e-002	-5.1725e-005
17182	1.2935	3.9091	0.	-1683.4
17183	1.2011	4.	0.	-1715.5
17184	1.2935	4.	5.e-002	-5.658e-005
17185	1.2935	3.7273	0.	-1736.1
17186	1.2011	3.8182	0.	-1773.4
17187	1.2935	3.8182	5.e-002	-4.7603e-005
17188	1.2935	3.5455	0.	-1775.3
17189	1.2011	3.6364	0.	-1817.3
17190	1.2935	3.6364	5.e-002	-1.386e-005
17191	1.2935	3.3636	0.	-1802.4
17192	1.2011	3.4545	0.	-1848.8
17193	1.2935	3.4545	5.e-002	-7.4931e-006
17194	1.2935	3.1818	0.	-1818.3
17195	1.2011	3.2727	0.	-1869.2
17196	1.2935	3.2727	5.e-002	-4.4715e-006
17197	1.2935	3.	0.	-1823.5
17198	1.2011	3.0909	0.	-1879.2
17199	1.2935	3.0909	5.e-002	-1.4375e-006
17200	1.2935	2.8182	0.	-1818.3
17201	1.2011	2.9091	0.	-1879.2
17202	1.2935	2.9091	5.e-002	1.4536e-006
17203	1.2935	2.6364	0.	-1802.4
17204	1.2011	2.7273	0.	-1869.2
17205	1.2935	2.7273	5.e-002	4.4715e-006
17206	1.2935	2.4545	0.	-1775.3
17207	1.2011	2.5455	0.	-1848.8
17208	1.2935	2.5455	5.e-002	9.329e-006
17209	1.2935	2.2727	0.	-1736.1
17210	1.2011	2.3636	0.	-1817.3
17211	1.2935	2.3636	5.e-002	3.1942e-005
17212	1.2935	2.0909	0.	-1683.4
17213	1.2011	2.1818	0.	-1773.4
17214	1.2935	2.1818	5.e-002	4.1009e-005
17215	1.2935	1.9091	0.	-1615.5
17216	1.2011	2.	0.	-1715.5
17217	1.2935	2.	5.e-002	4.8924e-005
17218	1.2935	1.7273	0.	-1530.2
17219	1.2011	1.8182	0.	-1641.4
17220	1.2935	1.8182	5.e-002	4.8381e-005
17221	1.2935	1.5455	0.	-1425.2
17222	1.2011	1.6364	0.	-1548.5
17223	1.2935	1.6364	5.e-002	4.4714e-005
17224	1.2935	1.3636	0.	-1298.3
17225	1.2011	1.4545	0.	-1434.
17226	1.2935	1.4545	5.e-002	1.0335e-004
17227	1.2935	1.1818	0.	-1147.8
17228	1.2011	1.2727	0.	-1294.8
17229	1.2935	1.2727	5.e-002	1.3355e-004
17230	1.2935	1.	0.	-973.32
17231	1.2011	1.0909	0.	-1128.7
17232	1.2935	1.0909	5.e-002	1.9906e-004
17233	1.2935	0.81818	0.	-777.02
17234	1.2011	0.90909	0.	-935.36
17235	1.2935	0.90909	5.e-002	2.248e-004
17236	1.2935	0.63636	0.	-564.36
17237	1.2011	0.72727	0.	-717.64
17238	1.2935	0.72727	5.e-002	3.5857e-004
17239	1.2935	0.45455	0.	-343.54
17240	1.2011	0.54545	0.	-483.27
17241	1.2935	0.54545	5.e-002	4.2675e-004
17242	1.2935	0.27273	0.	-117.99
17243	1.2011	0.36364	0.	-243.36
17244	1.2935	0.36364	5.e-002	3.6601e-004
17245	1.2011	0.18182	0.	-19.127
17246	1.2935	0.18182	5.e-002	1.2848e-004
17247	1.2935	9.0909e-002	0.	-0.17822
17248	1.1087	5.7273	0.	-121.5
17249	1.0163	5.8182	0.	-15.964
17250	1.1087	5.8182	5.e-002	-1.6272e-004
17251	1.1087	5.9091	0.	3.3033e-004
17252	1.1087	5.5455	0.	-382.34
17253	1.0163	5.6364	0.	-268.91
17254	1.1087	5.6364	5.e-002	-3.5637e-004
17255	1.1087	5.3636	0.	-636.31
17256	1.0163	5.4545	0.	-549.38
17257	1.1087	5.4545	5.e-002	-4.2498e-004
17258	1.1087	5.1818	0.	-876.09
17259	1.0163	5.2727	0.	-817.73
17260	1.1087	5.2727	5.e-002	-2.4307e-004
17261	1.1087	5.	0.	-1091.1
17262	1.0163	5.0909	0.	-1058.6
17263	1.1087	5.0909	5.e-002	-2.4076e-004
17264	1.1087	4.8182	0.	-1276.2
17265	1.0163	4.9091	0.	-1264.4
17266	1.1087	4.9091	5.e-002	-2.0521e-004
17267	1.1087	4.6364	0.	-1430.9
17268	1.0163	4.7273	0.	-1434.7
17269	1.1087	4.7273	5.e-002	-1.3593e-004
17270	1.1087	4.4545	0.	-1557.7
17271	1.0163	4.5455	0.	-1572.9
17272	1.1087	4.5455	5.e-002	-1.3472e-004
17273	1.1087	4.2727	0.	-1660.1
17274	1.0163	4.3636	0.	-1683.6
17275	1.1087	4.3636	5.e-002	-7.996e-005
17276	1.1087	4.0909	0.	-1741.7
17277	1.0163	4.1818	0.	-1771.5
17278	1.1087	4.1818	5.e-002	-3.3405e-005
17279	1.1087	3.9091	0.	-1805.7
17280	1.0163	4.	0.	-1840.4
17281	1.1087	4.	5.e-002	-3.485e-005
17282	1.1087	3.7273	0.	-1854.8
17283	1.0163	3.8182	0.	-1893.6
17284	1.1087	3.8182	5.e-002	-2.9523e-005
17285	1.1087	3.5455	0.	-1891.
17286	1.0163	3.6364	0.	-1933.6
17287	1.1087	3.6364	5.e-002	-4.4745e-005
17288	1.1087	3.3636	0.	-1915.9
17289	1.0163	3.4545	0.	-1962.1
17290	1.1087	3.4545	5.e-002	-2.2461e-005
17291	1.1087	3.1818	0.	-1930.4
17292	1.0163	3.2727	0.	-1980.5
17293	1.1087	3.2727	5.e-002	-3.5862e-006
17294	1.1087	3.	0.	-1935.1
17295	1.0163	3.0909	0.	-1989.5
17296	1.1087	3.0909	5.e-002	-1.1899e-006
17297	1.1087	2.8182	0.	-1930.4
17298	1.0163	2.9091	0.	-1989.5
17299	1.1087	2.9091	5.e-002	1.1899e-006
17300	1.1087	2.6364	0.	-1915.9
17301	1.0163	2.7273	0.	-1980.5
17302	1.1087	2.7273	5.e-002	3.5862e-006
17303	1.1087	2.4545	0.	-1891.
17304	1.0163	2.5455	0.	-1962.1
17305	1.1087	2.5455	5.e-002	3.6065e-005
17306	1.1087	2.2727	0.	-1854.8
17307	1.0163	2.3636	0.	-1933.6
17308	1.1087	2.3636	5.e-002	1.4134e-005
17309	1.1087	2.0909	0.	-1805.7
17310	1.0163	2.1818	0.	-1893.6
17311	1.1087	2.1818	5.e-002	4.3142e-005
17312	1.1087	1.9091	0.	-1741.7
17313	1.0163	2.	0.	-1840.4
17314	1.1087	2.	5.e-002	5.1528e-005
17315	1.1087	1.7273	0.	-1660.1
17316	1.0163	1.8182	0.	-1771.5
17317	1.1087	1.8182	5.e-002	7.9493e-005
17318	1.1087	1.5455	0.	-1557.7
17319	1.0163	1.6364	0.	-1683.6
17320	1.1087	1.6364	5.e-002	9.0059e-005
17321	1.1087	1.3636	0.	-1430.9
17322	1.0163	1.4545	0.	-1572.9
17323	1.1087	1.4545	5.e-002	8.8724e-005
17324	1.1087	1.1818	0.	-1276.2
17325	1.0163	1.2727	0.	-1434.7
17326	1.1087	1.2727	5.e-002	1.8918e-004
17327	1.1087	1.	0.	-1091.1
17328	1.0163	1.0909	0.	-1264.4
17329	1.1087	1.0909	5.e-002	2.1464e-004
17330	1.1087	0.81818	0.	-876.09
17331	1.0163	0.90909	0.	-1058.6
17332	1.1087	0.90909	5.e-002	2.2647e-004
17333	1.1087	0.63636	0.	-636.31
17334	1.0163	0.72727	0.	-817.73
17335	1.1087	0.72727	5.e-002	3.6681e-004
17336	1.1087	0.45455	0.	-382.34
17337	1.0163	0.54545	0.	-549.38
17338	1.1087	0.54545	5.e-002	2.416e-004
17339	1.1087	0.27273	0.	-121.5
17340	1.0163	0.36364	0.	-268.91
17341	1.1087	0.36364	5.e-002	3.5637e-004
17342	1.0163	0.18182	0.	-15.964
17343	1.1087	0.18182	5.e-002	2.2656e-004
17344	1.1087	9.0909e-002	0.	3.3357e-004
17345	0.92391	5.7273	0.	-127.53
17346	0.83152	5.8182	0.	-16.394
17347	0.92391	5.8182	5.e-002	-2.9892e-004
17348	0.92391	5.9091	0.	1.0331
17349	0.92391	5.5455	0.	-435.15
17350	0.83152	5.6364	0.	-310.55
17351	0.92391	5.6364	5.e-002	-3.3924e-004
17352	0.92391	5.3636	0.	-730.77
17353	0.83152	5.4545	0.	-646.25
17354	0.92391	5.4545	5.e-002	-3.5154e-004
17355	0.92391	5.1818	0.	-1000.7
17356	0.83152	5.2727	0.	-954.36
17357	0.92391	5.2727	5.e-002	-3.0688e-004
17358	0.92391	5.	0.	-1232.5
17359	0.83152	5.0909	0.	-1216.2
17360	0.92391	5.0909	5.e-002	-2.9617e-004
17361	0.92391	4.8182	0.	-1423.6
17362	0.83152	4.9091	0.	-1428.4
17363	0.92391	4.9091	5.e-002	-2.0698e-004
17364	0.92391	4.6364	0.	-1577.3
17365	0.83152	4.7273	0.	-1596.3
17366	0.92391	4.7273	5.e-002	-1.8496e-004
17367	0.92391	4.4545	0.	-1699.2
17368	0.83152	4.5455	0.	-1727.7
17369	0.92391	4.5455	5.e-002	-1.5271e-004
17370	0.92391	4.2727	0.	-1795.3
17371	0.83152	4.3636	0.	-1830.1
17372	0.92391	4.3636	5.e-002	-6.0613e-005
17373	0.92391	4.0909	0.	-1870.4
17374	0.83152	4.1818	0.	-1909.7
17375	0.92391	4.1818	5.e-002	-7.5537e-005
17376	0.92391	3.9091	0.	-1928.5
17377	0.83152	4.	0.	-1971.4
17378	0.92391	4.	5.e-002	-2.9492e-005
17379	0.92391	3.7273	0.	-1972.5
17380	0.83152	3.8182	0.	-2018.5
17381	0.92391	3.8182	5.e-002	-4.3112e-005
17382	0.92391	3.5455	0.	-2004.8
17383	0.83152	3.6364	0.	-2053.6
17384	0.92391	3.6364	5.e-002	-2.6185e-005
17385	0.92391	3.3636	0.	-2026.9
17386	0.83152	3.4545	0.	-2078.6
17387	0.92391	3.4545	5.e-002	-4.6688e-006
17388	0.92391	3.1818	0.	-2039.7
17389	0.83152	3.2727	0.	-2094.6
17390	0.92391	3.2727	5.e-002	-3.2199e-006
17391	0.92391	3.	0.	-2043.9
17392	0.83152	3.0909	0.	-2102.4
17393	0.92391	3.0909	5.e-002	-9.674e-007
17394	0.92391	2.8182	0.	-2039.7
17395	0.83152	2.9091	0.	-2102.4
17396	0.92391	2.9091	5.e-002	9.6741e-007
17397	0.92391	2.6364	0.	-2026.9
17398	0.83152	2.7273	0.	-2094.6
17399	0.92391	2.7273	5.e-002	1.8448e-005
17400	0.92391	2.4545	0.	-2004.8
17401	0.83152	2.5455	0.	-2078.6
17402	0.92391	2.5455	5.e-002	1.9604e-005
17403	0.92391	2.2727	0.	-1972.5
17404	0.83152	2.3636	0.	-2053.6
17405	0.92391	2.3636	5.e-002	2.5853e-005
17406	0.92391	2.0909	0.	-1928.5
17407	0.83152	2.1818	0.	-2018.5
17408	0.92391	2.1818	5.e-002	3.3791e-005
17409	0.92391	1.9091	0.	-1870.4
17410	0.83152	2.	0.	-1971.4
17411	0.92391	2.	5.e-002	6.9104e-005
17412	0.92391	1.7273	0.	-1795.3
17413	0.83152	1.8182	0.	-1909.7
17414	0.92391	1.8182	5.e-002	7.5761e-005
17415	0.92391	1.5455	0.	-1699.2
17416	0.83152	1.6364	0.	-1830.1
17417	0.92391	1.6364	5.e-002	8.2059e-005
17418	0.92391	1.3636	0.	-1577.3
17419	0.83152	1.4545	0.	-1727.7
17420	0.92391	1.4545	5.e-002	1.2639e-004
17421	0.92391	1.1818	0.	-1423.6
17422	0.83152	1.2727	0.	-1596.3
17423	0.92391	1.2727	5.e-002	1.2898e-004
17424	0.92391	1.	0.	-1232.5
17425	0.83152	1.0909	0.	-1428.4
17426	0.92391	1.0909	5.e-002	2.1276e-004
17427	0.92391	0.81818	0.	-1000.7
17428	0.83152	0.90909	0.	-1216.2
17429	0.92391	0.90909	5.e-002	2.3219e-004
17430	0.92391	0.63636	0.	-730.77
17431	0.83152	0.72727	0.	-954.36
17432	0.92391	0.72727	5.e-002	2.4627e-004
17433	0.92391	0.45455	0.	-435.15
17434	0.83152	0.54545	0.	-646.25
17435	0.92391	0.54545	5.e-002	2.9984e-004
17436	0.92391	0.27273	0.	-127.53
17437	0.83152	0.36364	0.	-310.55
17438	0.92391	0.36364	5.e-002	3.398e-004
17439	0.83152	0.18182	0.	-16.394
17440	0.92391	0.18182	5.e-002	2.5622e-004
17441	0.92391	9.0909e-002	0.	1.0331
17442	0.73913	5.7273	0.	-145.52
17443	0.64674	5.8182	0.	-9.7923
17444	0.73913	5.8182	5.e-002	-3.3527e-004
17445	0.73913	5.9091	0.	-1.4116
17446	0.73913	5.5455	0.	-520.97
17447	0.64674	5.6364	0.	-374.21
17448	0.73913	5.6364	5.e-002	-2.5381e-004
17449	0.73913	5.3636	0.	-870.35
17450	0.64674	5.4545	0.	-781.5
17451	0.73913	5.4545	5.e-002	-3.4846e-004
17452	0.73913	5.1818	0.	-1170.9
17453	0.64674	5.2727	0.	-1127.7
17454	0.73913	5.2727	5.e-002	-4.2793e-004
17455	0.73913	5.	0.	-1413.2
17456	0.64674	5.0909	0.	-1399.1
17457	0.73913	5.0909	5.e-002	-2.2248e-004
17458	0.73913	4.8182	0.	-1601.9
17459	0.64674	4.9091	0.	-1604.9
17460	0.73913	4.9091	5.e-002	-2.0768e-004
17461	0.73913	4.6364	0.	-1747.2
17462	0.64674	4.7273	0.	-1759.9
17463	0.73913	4.7273	5.e-002	-1.5057e-004
17464	0.73913	4.4545	0.	-1858.8
17465	0.64674	4.5455	0.	-1877.2
17466	0.73913	4.5455	5.e-002	-9.6265e-005
17467	0.73913	4.2727	0.	-1944.7
17468	0.64674	4.3636	0.	-1966.7
17469	0.73913	4.3636	5.e-002	-7.1399e-005
17470	0.73913	4.0909	0.	-2010.9
17471	0.64674	4.1818	0.	-2035.3
17472	0.73913	4.1818	5.e-002	-7.9776e-005
17473	0.73913	3.9091	0.	-2061.5
17474	0.64674	4.	0.	-2087.9
17475	0.73913	4.	5.e-002	-6.3732e-005
17476	0.73913	3.7273	0.	-2099.7
17477	0.64674	3.8182	0.	-2127.9
17478	0.73913	3.8182	5.e-002	-3.5962e-005
17479	0.73913	3.5455	0.	-2127.5
17480	0.64674	3.6364	0.	-2157.6
17481	0.73913	3.6364	5.e-002	-7.305e-006
17482	0.73913	3.3636	0.	-2146.4
17483	0.64674	3.4545	0.	-2178.7
17484	0.73913	3.4545	5.e-002	-2.9229e-006
17485	0.73913	3.1818	0.	-2157.5
17486	0.64674	3.2727	0.	-2192.2
17487	0.73913	3.2727	5.e-002	-1.9483e-006
17488	0.73913	3.	0.	-2161.1
17489	0.64674	3.0909	0.	-2198.8
17490	0.73913	3.0909	5.e-002	-6.3333e-007
17491	0.73913	2.8182	0.	-2157.5
17492	0.64674	2.9091	0.	-2198.8
17493	0.73913	2.9091	5.e-002	6.4528e-007
17494	0.73913	2.6364	0.	-2146.4
17495	0.64674	2.7273	0.	-2192.2
17496	0.73913	2.7273	5.e-002	2.2997e-006
17497	0.73913	2.4545	0.	-2127.5
17498	0.64674	2.5455	0.	-2178.7
17499	0.73913	2.5455	5.e-002	2.9229e-006
17500	0.73913	2.2727	0.	-2099.7
17501	0.64674	2.3636	0.	-2157.6
17502	0.73913	2.3636	5.e-002	9.4005e-006
17503	0.73913	2.0909	0.	-2061.5
17504	0.64674	2.1818	0.	-2127.9
17505	0.73913	2.1818	5.e-002	3.9692e-005
17506	0.73913	1.9091	0.	-2010.9
17507	0.64674	2.	0.	-2087.9
17508	0.73913	2.	5.e-002	2.2543e-005
17509	0.73913	1.7273	0.	-1944.7
17510	0.64674	1.8182	0.	-2035.3
17511	0.73913	1.8182	5.e-002	4.1172e-005
17512	0.73913	1.5455	0.	-1858.8
17513	0.64674	1.6364	0.	-1966.7
17514	0.73913	1.6364	5.e-002	9.4662e-005
17515	0.73913	1.3636	0.	-1747.2
17516	0.64674	1.4545	0.	-1877.2
17517	0.73913	1.4545	5.e-002	1.2401e-004
17518	0.73913	1.1818	0.	-1601.9
17519	0.64674	1.2727	0.	-1759.9
17520	0.73913	1.2727	5.e-002	1.7321e-004
17521	0.73913	1.	0.	-1413.2
17522	0.64674	1.0909	0.	-1604.9
17523	0.73913	1.0909	5.e-002	2.0768e-004
17524	0.73913	0.81818	0.	-1170.9
17525	0.64674	0.90909	0.	-1399.1
17526	0.73913	0.90909	5.e-002	2.3579e-004
17527	0.73913	0.63636	0.	-870.35
17528	0.64674	0.72727	0.	-1127.7
17529	0.73913	0.72727	5.e-002	2.4785e-004
17530	0.73913	0.45455	0.	-520.97
17531	0.64674	0.54545	0.	-781.5
17532	0.73913	0.54545	5.e-002	2.8898e-004
17533	0.73913	0.27273	0.	-145.52
17534	0.64674	0.36364	0.	-374.21
17535	0.73913	0.36364	5.e-002	3.1697e-004
17536	0.64674	0.18182	0.	-9.7923
17537	0.73913	0.18182	5.e-002	3.9964e-004
17538	0.73913	9.0909e-002	0.	-1.4116
17539	0.55435	5.7273	0.	-168.52
17540	0.46196	5.8182	0.	-41.294
17541	0.55435	5.8182	5.e-002	-3.5738e-004
17542	0.55435	5.9091	0.	9.0903
17543	0.55435	5.5455	0.	-635.
17544	0.46196	5.6364	0.	-534.55
17545	0.55435	5.6364	5.e-002	-3.1376e-004
17546	0.55435	5.3636	0.	-1040.5
17547	0.46196	5.4545	0.	-1037.2
17548	0.55435	5.4545	5.e-002	-2.8883e-004
17549	0.55435	5.1818	0.	-1357.4
17550	0.46196	5.2727	0.	-1405.9
17551	0.55435	5.2727	5.e-002	-3.0822e-004
17552	0.55435	5.	0.	-1591.7
17553	0.46196	5.0909	0.	-1665.9
17554	0.55435	5.0909	5.e-002	-2.2466e-004
17555	0.55435	4.8182	0.	-1763.2
17556	0.46196	4.9091	0.	-1850.
17557	0.55435	4.9091	5.e-002	-1.9057e-004
17558	0.55435	4.6364	0.	-1890.
17559	0.46196	4.7273	0.	-1983.4
17560	0.55435	4.7273	5.e-002	-8.2153e-005
17561	0.55435	4.4545	0.	-1985.
17562	0.46196	4.5455	0.	-2082.3
17563	0.55435	4.5455	5.e-002	-7.2067e-005
17564	0.55435	4.2727	0.	-2057.1
17565	0.46196	4.3636	0.	-2157.
17566	0.55435	4.3636	5.e-002	-8.3512e-005
17567	0.55435	4.0909	0.	-2112.2
17568	0.46196	4.1818	0.	-2214.
17569	0.55435	4.1818	5.e-002	-2.5149e-005
17570	0.55435	3.9091	0.	-2154.2
17571	0.46196	4.	0.	-2257.7
17572	0.55435	4.	5.e-002	-1.3084e-005
17573	0.55435	3.7273	0.	-2185.8
17574	0.46196	3.8182	0.	-2290.9
17575	0.55435	3.8182	5.e-002	-3.6505e-005
17576	0.55435	3.5455	0.	-2208.8
17577	0.46196	3.6364	0.	-2315.6
17578	0.55435	3.6364	5.e-002	-6.7591e-006
17579	0.55435	3.3636	0.	-2224.5
17580	0.46196	3.4545	0.	-2333.2
17581	0.55435	3.4545	5.e-002	-2.9887e-006
17582	0.55435	3.1818	0.	-2233.6
17583	0.46196	3.2727	0.	-2344.4
17584	0.55435	3.2727	5.e-002	-1.0334e-006
17585	0.55435	3.	0.	-2236.6
17586	0.46196	3.0909	0.	-2349.9
17587	0.55435	3.0909	5.e-002	-3.7968e-007
17588	0.55435	2.8182	0.	-2233.6
17589	0.46196	2.9091	0.	-2349.9
17590	0.55435	2.9091	5.e-002	3.7968e-007
17591	0.55435	2.6364	0.	-2224.5
17592	0.46196	2.7273	0.	-2344.4
17593	0.55435	2.7273	5.e-002	1.0979e-006
17594	0.55435	2.4545	0.	-2208.8
17595	0.46196	2.5455	0.	-2333.2
17596	0.55435	2.5455	5.e-002	3.7971e-006
17597	0.55435	2.2727	0.	-2185.8
17598	0.46196	2.3636	0.	-2315.6
17599	0.55435	2.3636	5.e-002	6.4481e-006
17600	0.55435	2.0909	0.	-2154.2
17601	0.46196	2.1818	0.	-2290.9
17602	0.55435	2.1818	5.e-002	3.9875e-005
17603	0.55435	1.9091	0.	-2112.2
17604	0.46196	2.	0.	-2257.7
17605	0.55435	2.	5.e-002	3.809e-005
17606	0.55435	1.7273	0.	-2057.1
17607	0.46196	1.8182	0.	-2214.
17608	0.55435	1.8182	5.e-002	1.1293e-004
17609	0.55435	1.5455	0.	-1985.
17610	0.46196	1.6364	0.	-2157.
17611	0.55435	1.6364	5.e-002	6.0221e-005
17612	0.55435	1.3636	0.	-1890.
17613	0.46196	1.4545	0.	-2082.3
17614	0.55435	1.4545	5.e-002	9.5348e-005
17615	0.55435	1.1818	0.	-1763.2
17616	0.46196	1.2727	0.	-1983.4
17617	0.55435	1.2727	5.e-002	1.596e-004
17618	0.55435	1.	0.	-1591.7
17619	0.46196	1.0909	0.	-1850.
17620	0.55435	1.0909	5.e-002	1.9431e-004
17621	0.55435	0.81818	0.	-1357.4
17622	0.46196	0.90909	0.	-1665.9
17623	0.55435	0.90909	5.e-002	3.2085e-004
17624	0.55435	0.63636	0.	-1040.5
17625	0.46196	0.72727	0.	-1405.9
17626	0.55435	0.72727	5.e-002	3.0822e-004
17627	0.55435	0.45455	0.	-635.
17628	0.46196	0.54545	0.	-1037.2
17629	0.55435	0.54545	5.e-002	3.4875e-004
17630	0.55435	0.27273	0.	-168.52
17631	0.46196	0.36364	0.	-534.55
17632	0.55435	0.36364	5.e-002	2.8698e-004
17633	0.46196	0.18182	0.	-41.294
17634	0.55435	0.18182	5.e-002	3.0085e-004
17635	0.55435	9.0909e-002	0.	9.0903
17636	0.36957	5.7273	0.	-305.14
17637	0.27717	5.8182	0.	-1.9632
17638	0.36957	5.8182	5.e-002	-2.5502e-004
17639	0.36957	5.9091	0.	-23.617
17640	0.36957	5.5455	0.	-939.58
17641	0.27717	5.6364	0.	-740.69
17642	0.36957	5.6364	5.e-002	-3.0484e-004
17643	0.36957	5.3636	0.	-1405.5
17644	0.27717	5.4545	0.	-1242.1
17645	0.36957	5.4545	5.e-002	-3.6764e-004
17646	0.36957	5.1818	0.	-1715.4
17647	0.27717	5.2727	0.	-1552.9
17648	0.36957	5.2727	5.e-002	-3.4819e-004
17649	0.36957	5.	0.	-1924.
17650	0.27717	5.0909	0.	-1754.
17651	0.36957	5.0909	5.e-002	-2.3749e-004
17652	0.36957	4.8182	0.	-2069.5
17653	0.27717	4.9091	0.	-1892.1
17654	0.36957	4.9091	5.e-002	-1.6235e-004
17655	0.36957	4.6364	0.	-2175.1
17656	0.27717	4.7273	0.	-1991.6
17657	0.36957	4.7273	5.e-002	-6.5471e-005
17658	0.36957	4.4545	0.	-2253.8
17659	0.27717	4.5455	0.	-2065.5
17660	0.36957	4.5455	5.e-002	-5.4656e-005
17661	0.36957	4.2727	0.	-2313.5
17662	0.27717	4.3636	0.	-2121.7
17663	0.36957	4.3636	5.e-002	-6.4067e-005
17664	0.36957	4.0909	0.	-2359.3
17665	0.27717	4.1818	0.	-2164.9
17666	0.36957	4.1818	5.e-002	-3.7936e-005
17667	0.36957	3.9091	0.	-2394.3
17668	0.27717	4.	0.	-2198.1
17669	0.36957	4.	5.e-002	-4.4316e-005
17670	0.36957	3.7273	0.	-2420.7
17671	0.27717	3.8182	0.	-2223.5
17672	0.36957	3.8182	5.e-002	-5.6251e-006
17673	0.36957	3.5455	0.	-2440.
17674	0.27717	3.6364	0.	-2242.5
17675	0.36957	3.6364	5.e-002	-3.1478e-005
17676	0.36957	3.3636	0.	-2453.2
17677	0.27717	3.4545	0.	-2256.
17678	0.36957	3.4545	5.e-002	-3.1958e-005
17679	0.36957	3.1818	0.	-2460.8
17680	0.27717	3.2727	0.	-2264.7
17681	0.36957	3.2727	5.e-002	-3.5635e-007
17682	0.36957	3.	0.	-2463.3
17683	0.27717	3.0909	0.	-2269.
17684	0.36957	3.0909	5.e-002	-1.0951e-007
17685	0.36957	2.8182	0.	-2460.8
17686	0.27717	2.9091	0.	-2269.
17687	0.36957	2.9091	5.e-002	1.0951e-007
17688	0.36957	2.6364	0.	-2453.2
17689	0.27717	2.7273	0.	-2264.7
17690	0.36957	2.7273	5.e-002	4.0725e-007
17691	0.36957	2.4545	0.	-2440.
17692	0.27717	2.5455	0.	-2256.
17693	0.36957	2.5455	5.e-002	1.276e-006
17694	0.36957	2.2727	0.	-2420.7
17695	0.27717	2.3636	0.	-2242.5
17696	0.36957	2.3636	5.e-002	2.3892e-006
17697	0.36957	2.0909	0.	-2394.3
17698	0.27717	2.1818	0.	-2223.5
17699	0.36957	2.1818	5.e-002	9.2957e-006
17700	0.36957	1.9091	0.	-2359.3
17701	0.27717	2.	0.	-2198.1
17702	0.36957	2.	5.e-002	1.2299e-005
17703	0.36957	1.7273	0.	-2313.5
17704	0.27717	1.8182	0.	-2164.9
17705	0.36957	1.8182	5.e-002	4.3127e-005
17706	0.36957	1.5455	0.	-2253.8
17707	0.27717	1.6364	0.	-2121.7
17708	0.36957	1.6364	5.e-002	7.7975e-005
17709	0.36957	1.3636	0.	-2175.1
17710	0.27717	1.4545	0.	-2065.5
17711	0.36957	1.4545	5.e-002	1.4591e-004
17712	0.36957	1.1818	0.	-2069.5
17713	0.27717	1.2727	0.	-1991.6
17714	0.36957	1.2727	5.e-002	1.103e-004
17715	0.36957	1.	0.	-1924.
17716	0.27717	1.0909	0.	-1892.1
17717	0.36957	1.0909	5.e-002	1.5156e-004
17718	0.36957	0.81818	0.	-1715.4
17719	0.27717	0.90909	0.	-1754.
17720	0.36957	0.90909	5.e-002	1.9711e-004
17721	0.36957	0.63636	0.	-1405.5
17722	0.27717	0.72727	0.	-1552.9
17723	0.36957	0.72727	5.e-002	3.3493e-004
17724	0.36957	0.45455	0.	-939.58
17725	0.27717	0.54545	0.	-1242.1
17726	0.36957	0.54545	5.e-002	2.4651e-004
17727	0.36957	0.27273	0.	-305.14
17728	0.27717	0.36364	0.	-740.69
17729	0.36957	0.36364	5.e-002	3.9184e-004
17730	0.27717	0.18182	0.	-1.9631
17731	0.36957	0.18182	5.e-002	1.8205e-004
17732	0.36957	9.0909e-002	0.	-23.617
17733	0.18478	5.7273	0.	-409.78
17734	0.18478	5.8182	5.e-002	-2.9649e-004
17735	0.18478	5.9091	0.	88.77
17736	9.2391e-002	5.8182	0.	-571.22
17737	0.18478	5.5455	0.	-1042.8
17738	0.18478	5.6364	5.e-002	-2.8774e-004
17739	9.2391e-002	5.6364	0.	-1563.4
17740	0.18478	5.3636	0.	-1382.2
17741	0.18478	5.4545	5.e-002	-3.0863e-004
17742	9.2391e-002	5.4545	0.	-2040.
17743	0.18478	5.1818	0.	-1584.9
17744	0.18478	5.2727	5.e-002	-3.0996e-004
17745	9.2391e-002	5.2727	0.	-2318.5
17746	0.18478	5.	0.	-1717.6
17747	0.18478	5.0909	5.e-002	-1.7625e-004
17748	9.2391e-002	5.0909	0.	-2500.8
17749	0.18478	4.8182	0.	-1811.2
17750	0.18478	4.9091	5.e-002	-1.5789e-004
17751	9.2391e-002	4.9091	0.	-2629.5
17752	0.18478	4.6364	0.	-1880.1
17753	0.18478	4.7273	5.e-002	-1.0705e-004
17754	9.2391e-002	4.7273	0.	-2724.3
17755	0.18478	4.4545	0.	-1932.2
17756	0.18478	4.5455	5.e-002	-9.3679e-005
17757	9.2391e-002	4.5455	0.	-2796.
17758	0.18478	4.2727	0.	-1972.3
17759	0.18478	4.3636	5.e-002	-5.2299e-005
17760	9.2391e-002	4.3636	0.	-2851.1
17761	0.18478	4.0909	0.	-2003.3
17762	0.18478	4.1818	5.e-002	-6.1428e-005
17763	9.2391e-002	4.1818	0.	-2893.8
17764	0.18478	3.9091	0.	-2027.1
17765	0.18478	4.	5.e-002	-4.3698e-005
17766	9.2391e-002	4.	0.	-2926.9
17767	0.18478	3.7273	0.	-2045.2
17768	0.18478	3.8182	5.e-002	-3.6983e-005
17769	9.2391e-002	3.8182	0.	-2952.3
17770	0.18478	3.5455	0.	-2058.5
17771	0.18478	3.6364	5.e-002	-2.6554e-006
17772	9.2391e-002	3.6364	0.	-2971.3
17773	0.18478	3.3636	0.	-2067.6
17774	0.18478	3.4545	5.e-002	-2.795e-007
17775	9.2391e-002	3.4545	0.	-2984.8
17776	0.18478	3.1818	0.	-2072.9
17777	0.18478	3.2727	5.e-002	1.1066e-007
17778	9.2391e-002	3.2727	0.	-2993.5
17779	0.18478	3.	0.	-2074.6
17780	0.18478	3.0909	5.e-002	1.3476e-007
17781	9.2391e-002	3.0909	0.	-2997.8
17782	0.18478	2.8182	0.	-2072.9
17783	0.18478	2.9091	5.e-002	-1.3345e-007
17784	9.2391e-002	2.9091	0.	-2997.8
17785	0.18478	2.6364	0.	-2067.6
17786	0.18478	2.7273	5.e-002	-3.6182e-007
17787	9.2391e-002	2.7273	0.	-2993.5
17788	0.18478	2.4545	0.	-2058.5
17789	0.18478	2.5455	5.e-002	3.3214e-007
17790	9.2391e-002	2.5455	0.	-2984.8
17791	0.18478	2.2727	0.	-2045.2
17792	0.18478	2.3636	5.e-002	3.0978e-005
17793	9.2391e-002	2.3636	0.	-2971.3
17794	0.18478	2.0909	0.	-2027.1
17795	0.18478	2.1818	5.e-002	1.0633e-005
17796	9.2391e-002	2.1818	0.	-2952.3
17797	0.18478	1.9091	0.	-2003.3
17798	0.18478	2.	5.e-002	5.6277e-005
17799	9.2391e-002	2.	0.	-2926.9
17800	0.18478	1.7273	0.	-1972.3
17801	0.18478	1.8182	5.e-002	4.2272e-005
17802	9.2391e-002	1.8182	0.	-2893.8
17803	0.18478	1.5455	0.	-1932.2
17804	0.18478	1.6364	5.e-002	7.5441e-005
17805	9.2391e-002	1.6364	0.	-2851.1
17806	0.18478	1.3636	0.	-1880.1
17807	0.18478	1.4545	5.e-002	1.0548e-004
17808	9.2391e-002	1.4545	0.	-2796.
17809	0.18478	1.1818	0.	-1811.2
17810	0.18478	1.2727	5.e-002	1.3451e-004
17811	9.2391e-002	1.2727	0.	-2724.3
17812	0.18478	1.	0.	-1717.6
17813	0.18478	1.0909	5.e-002	1.4822e-004
17814	9.2391e-002	1.0909	0.	-2629.5
17815	0.18478	0.81818	0.	-1584.9
17816	0.18478	0.90909	5.e-002	2.1085e-004
17817	9.2391e-002	0.90909	0.	-2500.8
17818	0.18478	0.63636	0.	-1382.2
17819	0.18478	0.72727	5.e-002	2.2838e-004
17820	9.2391e-002	0.72727	0.	-2318.5
17821	0.18478	0.45455	0.	-1042.8
17822	0.18478	0.54545	5.e-002	3.101e-004
17823	9.2391e-002	0.54545	0.	-2040.
17824	0.18478	0.27273	0.	-409.78
17825	0.18478	0.36364	5.e-002	3.4794e-004
17826	9.2391e-002	0.36364	0.	-1563.4
17827	0.18478	0.18182	5.e-002	3.1948e-004
17828	0.18478	9.0909e-002	0.	88.77
17829	9.2391e-002	0.18182	0.	-571.21
17830	17.351	0.27273	0.	-6.3151
17831	17.444	0.18182	0.	-6.4715
17832	17.351	0.18182	5.e-002	-3.5873e-006
17833	17.351	9.0909e-002	0.	-4.9157
17834	17.259	0.18182	0.	-0.55803
17835	17.351	0.45455	0.	-3.7793
17836	17.444	0.36364	0.	-4.1538
17837	17.351	0.36364	5.e-002	8.3338e-007
17838	17.259	0.36364	0.	1.0383
17839	17.351	0.63636	0.	-3.1856
17840	17.444	0.54545	0.	-2.8304
17841	17.351	0.54545	5.e-002	2.1814e-006
17842	17.259	0.54545	0.	0.64772
17843	17.351	0.81818	0.	-3.0553
17844	17.444	0.72727	0.	-2.2646
17845	17.351	0.72727	5.e-002	2.1865e-006
17846	17.259	0.72727	0.	0.64012
17847	17.351	1.	0.	-3.4664
17848	17.444	0.90909	0.	-2.1531
17849	17.351	0.90909	5.e-002	4.5616e-006
17850	17.259	0.90909	0.	0.74603
17851	17.351	1.1818	0.	-3.7445
17852	17.444	1.0909	0.	-2.4755
17853	17.351	1.0909	5.e-002	3.8147e-006
17854	17.259	1.0909	0.	0.24693
17855	17.351	1.3636	0.	-6.7078
17856	17.444	1.2727	0.	-2.4701
17857	17.351	1.2727	5.e-002	1.9166e-005
17858	17.259	1.2727	0.	2.0324
17859	17.351	1.5455	0.	-4.222
17860	17.444	1.4545	0.	-5.8578
17861	17.351	1.4545	5.e-002	4.9888e-005
17862	17.259	1.4545	0.	-5.534
17863	17.351	1.7273	0.	-29.63
17864	17.444	1.6364	0.	8.0529e-002
17865	17.351	1.6364	5.e-002	1.0771e-004
17866	17.259	1.6364	0.	23.728
17867	17.351	1.9091	0.	-135.57
17868	17.444	1.8182	0.	-29.972
17869	17.351	1.8182	5.e-002	3.4049e-004
17870	17.259	1.8182	0.	-107.58
17871	17.351	2.0909	0.	-90.463
17872	17.444	2.	0.	-90.16
17873	17.351	2.	5.e-002	2.3287e-004
17874	17.259	2.	0.	-217.84
17875	17.351	2.2727	0.	-10.835
17876	17.444	2.1818	0.	-6.057
17877	17.351	2.1818	5.e-002	4.3972e-005
17878	17.351	2.4545	0.	-2.6729
17879	17.444	2.3636	0.	-6.6038
17880	17.351	2.3636	5.e-002	5.325e-005
17881	17.351	2.6364	0.	0.40982
17882	17.444	2.5455	0.	0.63442
17883	17.351	2.5455	5.e-002	2.0207e-005
17884	17.351	2.8182	0.	-0.50494
17885	17.444	2.7273	0.	-0.54966
17886	17.351	2.7273	5.e-002	-1.3354e-005
17887	17.351	3.	0.	1.834e-002
17888	17.444	2.9091	0.	2.9491e-002
17889	17.351	2.9091	5.e-002	-6.1329e-006
17890	17.351	3.1818	0.	-0.50494
17891	17.444	3.0909	0.	2.949e-002
17892	17.351	3.0909	5.e-002	1.0121e-005
17893	17.351	3.3636	0.	0.40981
17894	17.444	3.2727	0.	-0.54966
17895	17.351	3.2727	5.e-002	1.6809e-005
17896	17.351	3.5455	0.	-2.6729
17897	17.444	3.4545	0.	0.63442
17898	17.351	3.4545	5.e-002	-1.4206e-005
17899	17.351	3.7273	0.	-10.835
17900	17.444	3.6364	0.	-6.6038
17901	17.351	3.6364	5.e-002	-4.6042e-005
17902	17.351	3.9091	0.	-90.463
17903	17.444	3.8182	0.	-6.0571
17904	17.351	3.8182	5.e-002	-2.9544e-005
17905	17.351	4.0909	0.	-135.57
17906	17.444	4.	0.	-90.16
17907	17.351	4.	5.e-002	-2.0633e-004
17908	17.259	4.	0.	-217.84
17909	17.351	4.2727	0.	-29.63
17910	17.444	4.1818	0.	-29.972
17911	17.351	4.1818	5.e-002	-3.5381e-004
17912	17.259	4.1818	0.	-107.58
17913	17.351	4.4545	0.	-4.222
17914	17.444	4.3636	0.	8.0524e-002
17915	17.351	4.3636	5.e-002	-6.1423e-005
17916	17.259	4.3636	0.	23.728
17917	17.351	4.6364	0.	-6.7078
17918	17.444	4.5455	0.	-5.8578
17919	17.351	4.5455	5.e-002	-1.9859e-005
17920	17.259	4.5455	0.	-5.534
17921	17.351	4.8182	0.	-3.7445
17922	17.444	4.7273	0.	-2.4701
17923	17.351	4.7273	5.e-002	-1.9546e-006
17924	17.259	4.7273	0.	2.0324
17925	17.351	5.	0.	-3.4664
17926	17.444	4.9091	0.	-2.4755
17927	17.351	4.9091	5.e-002	3.6908e-006
17928	17.259	4.9091	0.	0.24693
17929	17.351	5.1818	0.	-3.0553
17930	17.444	5.0909	0.	-2.1531
17931	17.351	5.0909	5.e-002	5.722e-006
17932	17.259	5.0909	0.	0.74603
17933	17.351	5.3636	0.	-3.1856
17934	17.444	5.2727	0.	-2.2646
17935	17.351	5.2727	5.e-002	4.9033e-006
17936	17.259	5.2727	0.	0.64011
17937	17.351	5.5455	0.	-3.7793
17938	17.444	5.4545	0.	-2.8304
17939	17.351	5.4545	5.e-002	1.1335e-005
17940	17.259	5.4545	0.	0.64772
17941	17.351	5.7273	0.	-6.3151
17942	17.444	5.6364	0.	-4.1538
17943	17.351	5.6364	5.e-002	1.1505e-005
17944	17.259	5.6364	0.	1.0383
17945	17.444	5.8182	0.	-6.4715
17946	17.351	5.8182	5.e-002	7.2277e-006
17947	17.351	5.9091	0.	-4.9157
17948	17.259	5.8182	0.	-0.55803
17949	17.536	0.27273	0.	-3.278
17950	17.628	0.18182	0.	-2.4071
17951	17.536	0.18182	5.e-002	-2.5985e-006
17952	17.536	9.0909e-002	0.	-0.27446
17953	17.536	0.45455	0.	-2.2008
17954	17.628	0.36364	0.	-2.6202
17955	17.536	0.36364	5.e-002	2.9698e-006
17956	17.536	0.63636	0.	-1.4212
17957	17.628	0.54545	0.	-1.9911
17958	17.536	0.54545	5.e-002	3.4316e-006
17959	17.536	0.81818	0.	-1.0403
17960	17.628	0.72727	0.	-1.4953
17961	17.536	0.72727	5.e-002	1.2402e-005
17962	17.536	1.	0.	-0.89771
17963	17.628	0.90909	0.	-1.3226
17964	17.536	0.90909	5.e-002	1.3024e-005
17965	17.536	1.1818	0.	-0.95545
17966	17.628	1.0909	0.	-1.3376
17967	17.536	1.0909	5.e-002	1.9635e-005
17968	17.536	1.3636	0.	-1.3601
17969	17.628	1.2727	0.	-1.5553
17970	17.536	1.2727	5.e-002	4.896e-005
17971	17.536	1.5455	0.	-1.244
17972	17.628	1.4545	0.	-2.0564
17973	17.536	1.4545	5.e-002	8.6123e-005
17974	17.536	1.7273	0.	0.23297
17975	17.628	1.6364	0.	-3.0962
17976	17.536	1.6364	5.e-002	1.6263e-004
17977	17.536	1.9091	0.	15.698
17978	17.628	1.8182	0.	-2.4392
17979	17.536	1.8182	5.e-002	2.338e-004
17980	17.536	2.0909	0.	21.887
17981	17.628	2.	0.	11.016
17982	17.536	2.	5.e-002	2.1634e-005
17983	17.536	2.2727	0.	1.4538
17984	17.628	2.1818	0.	-2.414e-002
17985	17.536	2.1818	5.e-002	-4.2293e-006
17986	17.536	2.4545	0.	-3.2528
17987	17.628	2.3636	0.	-5.1233
17988	17.536	2.3636	5.e-002	-2.0487e-005
17989	17.536	2.6364	0.	-0.19054
17990	17.628	2.5455	0.	-0.9221
17991	17.536	2.5455	5.e-002	-3.4909e-005
17992	17.536	2.8182	0.	4.2814e-002
17993	17.628	2.7273	0.	1.1548e-002
17994	17.536	2.7273	5.e-002	-3.3713e-005
17995	17.536	3.	0.	0.10283
17996	17.628	2.9091	0.	0.24681
17997	17.536	2.9091	5.e-002	-1.0421e-005
17998	17.536	3.1818	0.	4.2813e-002
17999	17.628	3.0909	0.	0.24681
18000	17.536	3.0909	5.e-002	1.8295e-005
18001	17.536	3.3636	0.	-0.19054
18002	17.628	3.2727	0.	1.1547e-002
18003	17.536	3.2727	5.e-002	4.1248e-005
18004	17.536	3.5455	0.	-3.2528
18005	17.628	3.4545	0.	-0.92211
18006	17.536	3.4545	5.e-002	3.5174e-005
18007	17.536	3.7273	0.	1.4538
18008	17.628	3.6364	0.	-5.1234
18009	17.536	3.6364	5.e-002	3.1603e-005
18010	17.536	3.9091	0.	21.887
18011	17.628	3.8182	0.	-2.422e-002
18012	17.536	3.8182	5.e-002	1.3144e-005
18013	17.536	4.0909	0.	15.698
18014	17.628	4.	0.	11.016
18015	17.536	4.	5.e-002	-2.1633e-005
18016	17.536	4.2727	0.	0.23296
18017	17.628	4.1818	0.	-2.4392
18018	17.536	4.1818	5.e-002	-2.1884e-004
18019	17.536	4.4545	0.	-1.244
18020	17.628	4.3636	0.	-3.0962
18021	17.536	4.3636	5.e-002	-1.4211e-004
18022	17.536	4.6364	0.	-1.3601
18023	17.628	4.5455	0.	-2.0564
18024	17.536	4.5455	5.e-002	-8.1243e-005
18025	17.536	4.8182	0.	-0.95545
18026	17.628	4.7273	0.	-1.5553
18027	17.536	4.7273	5.e-002	-3.6547e-005
18028	17.536	5.	0.	-0.89771
18029	17.628	4.9091	0.	-1.3376
18030	17.536	4.9091	5.e-002	-1.2657e-005
18031	17.536	5.1818	0.	-1.0403
18032	17.628	5.0909	0.	-1.3226
18033	17.536	5.0909	5.e-002	-8.6445e-006
18034	17.536	5.3636	0.	-1.4212
18035	17.628	5.2727	0.	-1.4953
18036	17.536	5.2727	5.e-002	-1.6498e-006
18037	17.536	5.5455	0.	-2.2008
18038	17.628	5.4545	0.	-1.9911
18039	17.536	5.4545	5.e-002	6.0212e-006
18040	17.536	5.7273	0.	-3.278
18041	17.628	5.6364	0.	-2.6202
18042	17.536	5.6364	5.e-002	5.0271e-006
18043	17.628	5.8182	0.	-2.4071
18044	17.536	5.8182	5.e-002	4.8471e-006
18045	17.536	5.9091	0.	-0.27446
18046	17.721	0.27273	0.	-1.9767
18047	17.813	0.18182	0.	-1.1473
18048	17.721	0.18182	5.e-002	4.6558e-006
18049	17.721	9.0909e-002	0.	-0.11853
18050	17.721	0.45455	0.	-2.0554
18051	17.813	0.36364	0.	-1.6053
18052	17.721	0.36364	5.e-002	1.5962e-006
18053	17.721	0.63636	0.	-1.8316
18054	17.813	0.54545	0.	-1.7363
18055	17.721	0.54545	5.e-002	8.4443e-006
18056	17.721	0.81818	0.	-1.6768
18057	17.813	0.72727	0.	-1.652
18058	17.721	0.72727	5.e-002	1.4107e-005
18059	17.721	1.	0.	-1.7259
18060	17.813	0.90909	0.	-1.6373
18061	17.721	0.90909	5.e-002	3.4523e-005
18062	17.721	1.1818	0.	-1.9461
18063	17.813	1.0909	0.	-1.784
18064	17.721	1.0909	5.e-002	5.3427e-005
18065	17.721	1.3636	0.	-2.2953
18066	17.813	1.2727	0.	-2.1114
18067	17.721	1.2727	5.e-002	7.2047e-005
18068	17.721	1.5455	0.	-3.9927
18069	17.813	1.4545	0.	-2.703
18070	17.721	1.4545	5.e-002	1.1381e-004
18071	17.721	1.7273	0.	-5.4749
18072	17.813	1.6364	0.	-4.9369
18073	17.721	1.6364	5.e-002	1.5536e-004
18074	17.721	1.9091	0.	-9.4791
18075	17.813	1.8182	0.	-12.064
18076	17.721	1.8182	5.e-002	9.5811e-005
18077	17.721	2.0909	0.	-33.189
18078	17.813	2.	0.	-52.631
18079	17.721	2.	5.e-002	4.6885e-005
18080	17.721	2.2727	0.	-36.484
18081	17.813	2.1818	0.	-74.245
18082	17.721	2.1818	5.e-002	-3.4151e-006
18083	17.721	2.4545	0.	-12.688
18084	17.813	2.3636	0.	-59.471
18085	17.721	2.3636	5.e-002	-3.6956e-005
18086	17.721	2.6364	0.	-1.3732
18087	17.813	2.5455	0.	-31.844
18088	17.721	2.5455	5.e-002	-4.3638e-005
18089	17.721	2.8182	0.	0.23804
18090	17.813	2.7273	0.	-9.7895
18091	17.721	2.7273	5.e-002	-3.7174e-005
18092	17.721	3.	0.	0.4791
18093	17.813	2.9091	0.	-8.4163e-002
18094	17.721	2.9091	5.e-002	-1.2356e-005
18095	17.721	3.1818	0.	0.23804
18096	17.813	3.0909	0.	-8.4172e-002
18097	17.721	3.0909	5.e-002	1.8212e-005
18098	17.721	3.3636	0.	-1.3732
18099	17.813	3.2727	0.	-9.7895
18100	17.721	3.2727	5.e-002	4.1468e-005
18101	17.721	3.5455	0.	-12.688
18102	17.813	3.4545	0.	-31.844
18103	17.721	3.4545	5.e-002	4.92e-005
18104	17.721	3.7273	0.	-36.485
18105	17.813	3.6364	0.	-59.471
18106	17.721	3.6364	5.e-002	4.2631e-005
18107	17.721	3.9091	0.	-33.189
18108	17.813	3.8182	0.	-74.245
18109	17.721	3.8182	5.e-002	1.4137e-005
18110	17.721	4.0909	0.	-9.4791
18111	17.813	4.	0.	-52.631
18112	17.721	4.	5.e-002	-4.7393e-005
18113	17.721	4.2727	0.	-5.475
18114	17.813	4.1818	0.	-12.064
18115	17.721	4.1818	5.e-002	-1.1396e-004
18116	17.721	4.4545	0.	-3.9927
18117	17.813	4.3636	0.	-4.9369
18118	17.721	4.3636	5.e-002	-1.634e-004
18119	17.721	4.6364	0.	-2.2953
18120	17.813	4.5455	0.	-2.703
18121	17.721	4.5455	5.e-002	-1.0493e-004
18122	17.721	4.8182	0.	-1.9461
18123	17.813	4.7273	0.	-2.1114
18124	17.721	4.7273	5.e-002	-6.7345e-005
18125	17.721	5.	0.	-1.7259
18126	17.813	4.9091	0.	-1.784
18127	17.721	4.9091	5.e-002	-3.1548e-005
18128	17.721	5.1818	0.	-1.6768
18129	17.813	5.0909	0.	-1.6373
18130	17.721	5.0909	5.e-002	-1.9762e-005
18131	17.721	5.3636	0.	-1.8316
18132	17.813	5.2727	0.	-1.652
18133	17.721	5.2727	5.e-002	-6.5308e-006
18134	17.721	5.5455	0.	-2.0555
18135	17.813	5.4545	0.	-1.7363
18136	17.721	5.4545	5.e-002	-3.7496e-006
18137	17.721	5.7273	0.	-1.9767
18138	17.813	5.6364	0.	-1.6053
18139	17.721	5.6364	5.e-002	1.9606e-006
18140	17.813	5.8182	0.	-1.1473
18141	17.721	5.8182	5.e-002	5.0634e-006
18142	17.721	5.9091	0.	-0.11853
18143	17.905	0.27273	0.	-0.92362
18144	17.998	0.18182	0.	-0.48775
18145	17.905	0.18182	5.e-002	5.7621e-006
18146	17.905	9.0909e-002	0.	8.8179e-002
18147	17.905	0.45455	0.	-1.272
18148	17.998	0.36364	0.	-0.86725
18149	17.905	0.36364	5.e-002	1.1998e-005
18150	17.905	0.63636	0.	-1.4589
18151	17.998	0.54545	0.	-1.2143
18152	17.905	0.54545	5.e-002	1.3562e-005
18153	17.905	0.81818	0.	-1.5575
18154	17.998	0.72727	0.	-1.4569
18155	17.905	0.72727	5.e-002	2.536e-005
18156	17.905	1.	0.	-1.7104
18157	17.998	0.90909	0.	-1.6972
18158	17.905	0.90909	5.e-002	3.3779e-005
18159	17.905	1.1818	0.	-2.0498
18160	17.998	1.0909	0.	-2.0701
18161	17.905	1.0909	5.e-002	5.9684e-005
18162	17.905	1.3636	0.	-2.8044
18163	17.998	1.2727	0.	-2.8905
18164	17.905	1.2727	5.e-002	7.9878e-005
18165	17.905	1.5455	0.	-4.7334
18166	17.998	1.4545	0.	-5.585
18167	17.905	1.4545	5.e-002	1.0199e-004
18168	17.905	1.7273	0.	-19.464
18169	17.998	1.6364	0.	-22.133
18170	17.905	1.6364	5.e-002	1.1019e-004
18171	17.905	1.9091	0.	-61.158
18172	17.998	1.8182	0.	-62.438
18173	17.905	1.8182	5.e-002	8.6798e-005
18174	17.905	2.0909	0.	-93.02
18175	17.998	2.	0.	-100.67
18176	17.905	2.	5.e-002	3.8539e-005
18177	17.905	2.2727	0.	-99.946
18178	17.998	2.1818	0.	-119.53
18179	17.905	2.1818	5.e-002	-5.5421e-006
18180	17.905	2.4545	0.	-86.643
18181	17.998	2.3636	0.	-116.63
18182	17.905	2.3636	5.e-002	-2.3796e-005
18183	17.905	2.6364	0.	-66.796
18184	17.998	2.5455	0.	-101.69
18185	17.905	2.5455	5.e-002	-3.5784e-005
18186	17.905	2.8182	0.	-51.608
18187	17.998	2.7273	0.	-86.386
18188	17.905	2.7273	5.e-002	-3.0247e-005
18189	17.905	3.	0.	-46.134
18190	17.998	2.9091	0.	-77.505
18191	17.905	2.9091	5.e-002	-9.7486e-006
18192	17.905	3.1818	0.	-51.608
18193	17.998	3.0909	0.	-77.505
18194	17.905	3.0909	5.e-002	1.3776e-005
18195	17.905	3.3636	0.	-66.796
18196	17.998	3.2727	0.	-86.386
18197	17.905	3.2727	5.e-002	3.4158e-005
18198	17.905	3.5455	0.	-86.643
18199	17.998	3.4545	0.	-101.69
18200	17.905	3.4545	5.e-002	4.0557e-005
18201	17.905	3.7273	0.	-99.946
18202	17.998	3.6364	0.	-116.63
18203	17.905	3.6364	5.e-002	3.0943e-005
18204	17.905	3.9091	0.	-93.02
18205	17.998	3.8182	0.	-119.53
18206	17.905	3.8182	5.e-002	1.6825e-005
18207	17.905	4.0909	0.	-61.159
18208	17.998	4.	0.	-100.67
18209	17.905	4.	5.e-002	-3.9151e-005
18210	17.905	4.2727	0.	-19.464
18211	17.998	4.1818	0.	-62.438
18212	17.905	4.1818	5.e-002	-7.7278e-005
18213	17.905	4.4545	0.	-4.7334
18214	17.998	4.3636	0.	-22.133
18215	17.905	4.3636	5.e-002	-1.1013e-004
18216	17.905	4.6364	0.	-2.8044
18217	17.998	4.5455	0.	-5.5851
18218	17.905	4.5455	5.e-002	-1.15e-004
18219	17.905	4.8182	0.	-2.0498
18220	17.998	4.7273	0.	-2.8905
18221	17.905	4.7273	5.e-002	-6.3974e-005
18222	17.905	5.	0.	-1.7104
18223	17.998	4.9091	0.	-2.0701
18224	17.905	4.9091	5.e-002	-4.5119e-005
18225	17.905	5.1818	0.	-1.5575
18226	17.998	5.0909	0.	-1.6972
18227	17.905	5.0909	5.e-002	-3.3742e-005
18228	17.905	5.3636	0.	-1.4589
18229	17.998	5.2727	0.	-1.4569
18230	17.905	5.2727	5.e-002	-1.4798e-005
18231	17.905	5.5455	0.	-1.272
18232	17.998	5.4545	0.	-1.2143
18233	17.905	5.4545	5.e-002	-8.0487e-006
18234	17.905	5.7273	0.	-0.92362
18235	17.998	5.6364	0.	-0.86725
18236	17.905	5.6364	5.e-002	1.7602e-006
18237	17.998	5.8182	0.	-0.48775
18238	17.905	5.8182	5.e-002	3.4252e-006
18239	17.905	5.9091	0.	8.818e-002
18240	18.09	0.27273	0.	-0.49512
18241	18.182	0.18182	0.	-0.21967
18242	18.09	0.18182	5.e-002	4.6997e-006
18243	18.09	9.0909e-002	0.	7.5044e-002
18244	18.09	0.45455	0.	-0.8299
18245	18.182	0.36364	0.	-0.52434
18246	18.09	0.36364	5.e-002	1.1263e-005
18247	18.09	0.63636	0.	-1.1819
18248	18.182	0.54545	0.	-0.85607
18249	18.09	0.54545	5.e-002	1.8852e-005
18250	18.09	0.81818	0.	-1.5694
18251	18.182	0.72727	0.	-1.2878
18252	18.09	0.72727	5.e-002	3.2444e-005
18253	18.09	1.	0.	-2.1309
18254	18.182	0.90909	0.	-1.9304
18255	18.09	0.90909	5.e-002	4.1681e-005
18256	18.09	1.1818	0.	-3.3539
18257	18.182	1.0909	0.	-3.3476
18258	18.09	1.0909	5.e-002	5.6006e-005
18259	18.09	1.3636	0.	-8.1746
18260	18.182	1.2727	0.	-8.8659
18261	18.09	1.2727	5.e-002	7.896e-005
18262	18.09	1.5455	0.	-28.891
18263	18.182	1.4545	0.	-27.968
18264	18.09	1.4545	5.e-002	9.7438e-005
18265	18.09	1.7273	0.	-63.794
18266	18.182	1.6364	0.	-59.148
18267	18.09	1.6364	5.e-002	9.9698e-005
18268	18.09	1.9091	0.	-99.966
18269	18.182	1.8182	0.	-94.689
18270	18.09	1.8182	5.e-002	4.9647e-005
18271	18.09	2.0909	0.	-126.3
18272	18.182	2.	0.	-125.55
18273	18.09	2.	5.e-002	4.126e-005
18274	18.09	2.2727	0.	-136.79
18275	18.182	2.1818	0.	-143.99
18276	18.09	2.1818	5.e-002	8.7127e-006
18277	18.09	2.4545	0.	-133.61
18278	18.182	2.3636	0.	-148.46
18279	18.09	2.3636	5.e-002	-1.2882e-005
18280	18.09	2.6364	0.	-124.02
18281	18.182	2.5455	0.	-143.6
18282	18.09	2.5455	5.e-002	-2.161e-005
18283	18.09	2.8182	0.	-115.29
18284	18.182	2.7273	0.	-136.08
18285	18.09	2.7273	5.e-002	-1.7744e-005
18286	18.09	3.	0.	-111.91
18287	18.182	2.9091	0.	-131.08
18288	18.09	2.9091	5.e-002	-5.4542e-006
18289	18.09	3.1818	0.	-115.29
18290	18.182	3.0909	0.	-131.08
18291	18.09	3.0909	5.e-002	1.1176e-005
18292	18.09	3.3636	0.	-124.02
18293	18.182	3.2727	0.	-136.08
18294	18.09	3.2727	5.e-002	2.5312e-005
18295	18.09	3.5455	0.	-133.61
18296	18.182	3.4545	0.	-143.6
18297	18.09	3.4545	5.e-002	2.7623e-005
18298	18.09	3.7273	0.	-136.79
18299	18.182	3.6364	0.	-148.46
18300	18.09	3.6364	5.e-002	2.2125e-005
18301	18.09	3.9091	0.	-126.3
18302	18.182	3.8182	0.	-143.99
18303	18.09	3.8182	5.e-002	-9.2344e-007
18304	18.09	4.0909	0.	-99.966
18305	18.182	4.	0.	-125.55
18306	18.09	4.	5.e-002	-3.2391e-005
18307	18.09	4.2727	0.	-63.794
18308	18.182	4.1818	0.	-94.689
18309	18.09	4.1818	5.e-002	-5.735e-005
18310	18.09	4.4545	0.	-28.891
18311	18.182	4.3636	0.	-59.148
18312	18.09	4.3636	5.e-002	-8.6897e-005
18313	18.09	4.6364	0.	-8.1746
18314	18.182	4.5455	0.	-27.968
18315	18.09	4.5455	5.e-002	-1.1259e-004
18316	18.09	4.8182	0.	-3.3539
18317	18.182	4.7273	0.	-8.866
18318	18.09	4.7273	5.e-002	-8.3159e-005
18319	18.09	5.	0.	-2.1309
18320	18.182	4.9091	0.	-3.3476
18321	18.09	4.9091	5.e-002	-5.6001e-005
18322	18.09	5.1818	0.	-1.5694
18323	18.182	5.0909	0.	-1.9304
18324	18.09	5.0909	5.e-002	-3.3551e-005
18325	18.09	5.3636	0.	-1.1819
18326	18.182	5.2727	0.	-1.2878
18327	18.09	5.2727	5.e-002	-1.8317e-005
18328	18.09	5.5455	0.	-0.8299
18329	18.182	5.4545	0.	-0.85607
18330	18.09	5.4545	5.e-002	-7.3976e-006
18331	18.09	5.7273	0.	-0.49512
18332	18.182	5.6364	0.	-0.52434
18333	18.09	5.6364	5.e-002	-7.6234e-007
18334	18.182	5.8182	0.	-0.21967
18335	18.09	5.8182	5.e-002	4.2633e-006
18336	18.09	5.9091	0.	7.5044e-002
18337	18.275	0.27273	0.	-0.27453
18338	18.367	0.18182	0.	-9.3538e-002
18339	18.275	0.18182	5.e-002	7.0666e-006
18340	18.275	9.0909e-002	0.	7.4977e-002
18341	18.275	0.45455	0.	-0.54689
18342	18.367	0.36364	0.	-0.33969
18343	18.275	0.36364	5.e-002	9.7277e-006
18344	18.275	0.63636	0.	-0.92369
18345	18.367	0.54545	0.	-0.6093
18346	18.275	0.54545	5.e-002	1.4828e-005
18347	18.275	0.81818	0.	-1.5783
18348	18.367	0.72727	0.	-1.1295
18349	18.275	0.72727	5.e-002	3.1833e-005
18350	18.275	1.	0.	-3.2173
18351	18.367	0.90909	0.	-2.4362
18352	18.275	0.90909	5.e-002	4.4303e-005
18353	18.275	1.1818	0.	-10.129
18354	18.367	1.0909	0.	-8.2279
18355	18.275	1.0909	5.e-002	6.8748e-005
18356	18.275	1.3636	0.	-28.918
18357	18.367	1.2727	0.	-24.788
18358	18.275	1.2727	5.e-002	1.0009e-004
18359	18.275	1.5455	0.	-56.404
18360	18.367	1.4545	0.	-49.347
18361	18.275	1.4545	5.e-002	6.5091e-005
18362	18.275	1.7273	0.	-88.255
18363	18.367	1.6364	0.	-78.961
18364	18.275	1.6364	5.e-002	7.1269e-005
18365	18.275	1.9091	0.	-118.88
18366	18.367	1.8182	0.	-109.71
18367	18.275	1.8182	5.e-002	7.2923e-005
18368	18.275	2.0909	0.	-142.43
18369	18.367	2.	0.	-136.4
18370	18.275	2.	5.e-002	2.5104e-005
18371	18.275	2.2727	0.	-155.63
18372	18.367	2.1818	0.	-154.84
18373	18.275	2.1818	5.e-002	6.7531e-006
18374	18.275	2.4545	0.	-159.26
18375	18.367	2.3636	0.	-163.89
18376	18.275	2.3636	5.e-002	-4.8435e-006
18377	18.275	2.6364	0.	-157.14
18378	18.367	2.5455	0.	-165.69
18379	18.275	2.5455	5.e-002	-1.1752e-005
18380	18.275	2.8182	0.	-153.73
18381	18.367	2.7273	0.	-164.01
18382	18.275	2.7273	5.e-002	-9.5027e-006
18383	18.275	3.	0.	-152.22
18384	18.367	2.9091	0.	-162.24
18385	18.275	2.9091	5.e-002	1.1362e-007
18386	18.275	3.1818	0.	-153.73
18387	18.367	3.0909	0.	-162.24
18388	18.275	3.0909	5.e-002	5.6073e-006
18389	18.275	3.3636	0.	-157.14
18390	18.367	3.2727	0.	-164.01
18391	18.275	3.2727	5.e-002	1.1347e-005
18392	18.275	3.5455	0.	-159.26
18393	18.367	3.4545	0.	-165.69
18394	18.275	3.4545	5.e-002	1.2738e-005
18395	18.275	3.7273	0.	-155.63
18396	18.367	3.6364	0.	-163.89
18397	18.275	3.6364	5.e-002	1.0276e-005
18398	18.275	3.9091	0.	-142.43
18399	18.367	3.8182	0.	-154.84
18400	18.275	3.8182	5.e-002	8.7896e-007
18401	18.275	4.0909	0.	-118.88
18402	18.367	4.	0.	-136.4
18403	18.275	4.	5.e-002	-1.3765e-005
18404	18.275	4.2727	0.	-88.255
18405	18.367	4.1818	0.	-109.71
18406	18.275	4.1818	5.e-002	-4.4962e-005
18407	18.275	4.4545	0.	-56.404
18408	18.367	4.3636	0.	-78.961
18409	18.275	4.3636	5.e-002	-4.8213e-005
18410	18.275	4.6364	0.	-28.918
18411	18.367	4.5455	0.	-49.347
18412	18.275	4.5455	5.e-002	-6.3768e-005
18413	18.275	4.8182	0.	-10.129
18414	18.367	4.7273	0.	-24.788
18415	18.275	4.7273	5.e-002	-6.8934e-005
18416	18.275	5.	0.	-3.2173
18417	18.367	4.9091	0.	-8.228
18418	18.275	4.9091	5.e-002	-5.8298e-005
18419	18.275	5.1818	0.	-1.5783
18420	18.367	5.0909	0.	-2.4363
18421	18.275	5.0909	5.e-002	-3.7736e-005
18422	18.275	5.3636	0.	-0.92369
18423	18.367	5.2727	0.	-1.1295
18424	18.275	5.2727	5.e-002	-1.9199e-005
18425	18.275	5.5455	0.	-0.54689
18426	18.367	5.4545	0.	-0.6093
18427	18.275	5.4545	5.e-002	-1.3458e-005
18428	18.275	5.7273	0.	-0.27453
18429	18.367	5.6364	0.	-0.3397
18430	18.275	5.6364	5.e-002	-6.2341e-007
18431	18.367	5.8182	0.	-9.3538e-002
18432	18.275	5.8182	5.e-002	4.0403e-006
18433	18.275	5.9091	0.	7.4977e-002
18434	18.459	0.27273	0.	-0.16793
18435	18.552	0.18182	0.	-3.9517e-002
18436	18.459	0.18182	5.e-002	7.7768e-006
18437	18.459	9.0909e-002	0.	6.6491e-002
18438	18.459	0.45455	0.	-0.38149
18439	18.552	0.36364	0.	-0.23647
18440	18.459	0.36364	5.e-002	1.7315e-005
18441	18.459	0.63636	0.	-0.73796
18442	18.552	0.54545	0.	-0.44969
18443	18.459	0.54545	5.e-002	2.0977e-005
18444	18.459	0.81818	0.	-1.6865
18445	18.552	0.72727	0.	-1.021
18446	18.459	0.72727	5.e-002	3.702e-005
18447	18.459	1.	0.	-6.4094
18448	18.552	0.90909	0.	-3.6486
18449	18.459	0.90909	5.e-002	5.3518e-005
18450	18.459	1.1818	0.	-21.601
18451	18.552	1.0909	0.	-15.841
18452	18.459	1.0909	5.e-002	6.0595e-005
18453	18.459	1.3636	0.	-43.849
18454	18.552	1.2727	0.	-35.746
18455	18.459	1.2727	5.e-002	5.6787e-005
18456	18.459	1.5455	0.	-70.594
18457	18.552	1.4545	0.	-60.255
18458	18.459	1.4545	5.e-002	9.1721e-005
18459	18.459	1.7273	0.	-99.262
18460	18.552	1.6364	0.	-87.517
18461	18.459	1.6364	5.e-002	5.1877e-005
18462	18.459	1.9091	0.	-126.31
18463	18.552	1.8182	0.	-114.79
18464	18.459	1.8182	5.e-002	4.6304e-005
18465	18.459	2.0909	0.	-148.22
18466	18.552	2.	0.	-138.85
18467	18.459	2.	5.e-002	2.6845e-005
18468	18.459	2.2727	0.	-162.94
18469	18.552	2.1818	0.	-157.1
18470	18.459	2.1818	5.e-002	1.199e-005
18471	18.459	2.4545	0.	-170.65
18472	18.552	2.3636	0.	-168.65
18473	18.459	2.3636	5.e-002	4.9963e-006
18474	18.459	2.6364	0.	-173.35
18475	18.552	2.5455	0.	-174.48
18476	18.459	2.5455	5.e-002	-1.9271e-008
18477	18.459	2.8182	0.	-173.61
18478	18.552	2.7273	0.	-176.6
18479	18.459	2.7273	5.e-002	-3.5241e-006
18480	18.459	3.	0.	-173.45
18481	18.552	2.9091	0.	-177.06
18482	18.459	2.9091	5.e-002	-1.1575e-007
18483	18.459	3.1818	0.	-173.61
18484	18.552	3.0909	0.	-177.06
18485	18.459	3.0909	5.e-002	5.8544e-006
18486	18.459	3.3636	0.	-173.35
18487	18.552	3.2727	0.	-176.6
18488	18.459	3.2727	5.e-002	9.2117e-006
18489	18.459	3.5455	0.	-170.65
18490	18.552	3.4545	0.	-174.48
18491	18.459	3.4545	5.e-002	7.538e-006
18492	18.459	3.7273	0.	-162.94
18493	18.552	3.6364	0.	-168.65
18494	18.459	3.6364	5.e-002	3.123e-006
18495	18.459	3.9091	0.	-148.22
18496	18.552	3.8182	0.	-157.1
18497	18.459	3.8182	5.e-002	-7.7607e-006
18498	18.459	4.0909	0.	-126.31
18499	18.552	4.	0.	-138.85
18500	18.459	4.	5.e-002	-1.9693e-005
18501	18.459	4.2727	0.	-99.262
18502	18.552	4.1818	0.	-114.79
18503	18.459	4.1818	5.e-002	-3.6986e-005
18504	18.459	4.4545	0.	-70.594
18505	18.552	4.3636	0.	-87.517
18506	18.459	4.3636	5.e-002	-5.0137e-005
18507	18.459	4.6364	0.	-43.849
18508	18.552	4.5455	0.	-60.255
18509	18.459	4.5455	5.e-002	-5.0592e-005
18510	18.459	4.8182	0.	-21.601
18511	18.552	4.7273	0.	-35.747
18512	18.459	4.7273	5.e-002	-5.7267e-005
18513	18.459	5.	0.	-6.4094
18514	18.552	4.9091	0.	-15.841
18515	18.459	4.9091	5.e-002	-6.1043e-005
18516	18.459	5.1818	0.	-1.6865
18517	18.552	5.0909	0.	-3.6486
18518	18.459	5.0909	5.e-002	-4.2119e-005
18519	18.459	5.3636	0.	-0.73796
18520	18.552	5.2727	0.	-1.021
18521	18.459	5.2727	5.e-002	-2.6019e-005
18522	18.459	5.5455	0.	-0.38149
18523	18.552	5.4545	0.	-0.44969
18524	18.459	5.4545	5.e-002	-1.3735e-005
18525	18.459	5.7273	0.	-0.16794
18526	18.552	5.6364	0.	-0.23647
18527	18.459	5.6364	5.e-002	-3.1402e-006
18528	18.552	5.8182	0.	-3.9517e-002
18529	18.459	5.8182	5.e-002	4.9156e-006
18530	18.459	5.9091	0.	6.6492e-002
18531	18.644	0.27273	0.	-0.10979
18532	18.736	0.18182	0.	-1.6515e-002
18533	18.644	0.18182	5.e-002	9.1251e-006
18534	18.644	9.0909e-002	0.	6.2284e-002
18535	18.644	0.45455	0.	-0.27566
18536	18.736	0.36364	0.	-0.17123
18537	18.644	0.36364	5.e-002	1.3958e-005
18538	18.644	0.63636	0.	-0.60658
18539	18.736	0.54545	0.	-0.34266
18540	18.644	0.54545	5.e-002	2.7614e-005
18541	18.644	0.81818	0.	-1.9961
18542	18.736	0.72727	0.	-0.97393
18543	18.644	0.72727	5.e-002	4.4821e-005
18544	18.644	1.	0.	-11.194
18545	18.736	0.90909	0.	-5.9495
18546	18.644	0.90909	5.e-002	5.9119e-005
18547	18.644	1.1818	0.	-29.071
18548	18.736	1.0909	0.	-21.216
18549	18.644	1.0909	5.e-002	5.2276e-005
18550	18.644	1.3636	0.	-51.316
18551	18.736	1.2727	0.	-41.338
18552	18.644	1.2727	5.e-002	5.9798e-005
18553	18.644	1.5455	0.	-76.389
18554	18.736	1.4545	0.	-64.606
18555	18.644	1.4545	5.e-002	3.2244e-005
18556	18.644	1.7273	0.	-102.34
18557	18.736	1.6364	0.	-89.514
18558	18.644	1.6364	5.e-002	3.8748e-005
18559	18.644	1.9091	0.	-126.75
18560	18.736	1.8182	0.	-114.06
18561	18.644	1.8182	5.e-002	3.9025e-005
18562	18.644	2.0909	0.	-147.33
18563	18.736	2.	0.	-136.06
18564	18.644	2.	5.e-002	2.5467e-005
18565	18.644	2.2727	0.	-162.66
18566	18.736	2.1818	0.	-153.78
18567	18.644	2.1818	5.e-002	1.3891e-005
18568	18.644	2.4545	0.	-172.62
18569	18.736	2.3636	0.	-166.49
18570	18.644	2.3636	5.e-002	4.5314e-006
18571	18.644	2.6364	0.	-178.15
18572	18.736	2.5455	0.	-174.51
18573	18.644	2.5455	5.e-002	2.0939e-006
18574	18.644	2.8182	0.	-180.67
18575	18.736	2.7273	0.	-178.86
18576	18.644	2.7273	5.e-002	3.0863e-006
18577	18.644	3.	0.	-181.36
18578	18.736	2.9091	0.	-180.68
18579	18.644	2.9091	5.e-002	3.5563e-007
18580	18.644	3.1818	0.	-180.67
18581	18.736	3.0909	0.	-180.68
18582	18.644	3.0909	5.e-002	1.5641e-006
18583	18.644	3.3636	0.	-178.15
18584	18.736	3.2727	0.	-178.86
18585	18.644	3.2727	5.e-002	6.4129e-006
18586	18.644	3.5455	0.	-172.62
18587	18.736	3.4545	0.	-174.51
18588	18.644	3.4545	5.e-002	1.8088e-006
18589	18.644	3.7273	0.	-162.66
18590	18.736	3.6364	0.	-166.49
18591	18.644	3.6364	5.e-002	3.9419e-007
18592	18.644	3.9091	0.	-147.33
18593	18.736	3.8182	0.	-153.78
18594	18.644	3.8182	5.e-002	-2.9994e-006
18595	18.644	4.0909	0.	-126.75
18596	18.736	4.	0.	-136.06
18597	18.644	4.	5.e-002	-2.0972e-005
18598	18.644	4.2727	0.	-102.34
18599	18.736	4.1818	0.	-114.06
18600	18.644	4.1818	5.e-002	-3.2711e-005
18601	18.644	4.4545	0.	-76.39
18602	18.736	4.3636	0.	-89.514
18603	18.644	4.3636	5.e-002	-3.0002e-005
18604	18.644	4.6364	0.	-51.316
18605	18.736	4.5455	0.	-64.606
18606	18.644	4.5455	5.e-002	-2.7741e-005
18607	18.644	4.8182	0.	-29.071
18608	18.736	4.7273	0.	-41.338
18609	18.644	4.7273	5.e-002	-4.5221e-005
18610	18.644	5.	0.	-11.194
18611	18.736	4.9091	0.	-21.216
18612	18.644	4.9091	5.e-002	-5.191e-005
18613	18.644	5.1818	0.	-1.9961
18614	18.736	5.0909	0.	-5.9495
18615	18.644	5.0909	5.e-002	-3.7327e-005
18616	18.644	5.3636	0.	-0.60658
18617	18.736	5.2727	0.	-0.97393
18618	18.644	5.2727	5.e-002	-3.8076e-005
18619	18.644	5.5455	0.	-0.27566
18620	18.736	5.4545	0.	-0.34266
18621	18.644	5.4545	5.e-002	-1.9789e-005
18622	18.644	5.7273	0.	-0.10979
18623	18.736	5.6364	0.	-0.17123
18624	18.644	5.6364	5.e-002	-6.0716e-006
18625	18.736	5.8182	0.	-1.6516e-002
18626	18.644	5.8182	5.e-002	3.924e-006
18627	18.644	5.9091	0.	6.2283e-002
18628	18.829	0.27273	0.	-7.6247e-002
18629	18.921	0.18182	0.	-7.637e-003
18630	18.829	0.18182	5.e-002	7.4278e-006
18631	18.829	9.0909e-002	0.	5.9666e-002
18632	18.829	0.45455	0.	-0.20508
18633	18.921	0.36364	0.	-0.12653
18634	18.829	0.36364	5.e-002	1.9281e-005
18635	18.829	0.63636	0.	-0.52022
18636	18.921	0.54545	0.	-0.26941
18637	18.829	0.54545	5.e-002	3.2926e-005
18638	18.829	0.81818	0.	-2.7558
18639	18.921	0.72727	0.	-1.016
18640	18.829	0.72727	5.e-002	4.9519e-005
18641	18.829	1.	0.	-14.982
18642	18.921	0.90909	0.	-8.5419
18643	18.829	0.90909	5.e-002	4.4073e-005
18644	18.829	1.1818	0.	-32.977
18645	18.921	1.0909	0.	-24.286
18646	18.829	1.0909	5.e-002	4.7971e-005
18647	18.829	1.3636	0.	-54.15
18648	18.921	1.2727	0.	-43.525
18649	18.829	1.2727	5.e-002	3.5451e-005
18650	18.829	1.5455	0.	-77.273
18651	18.921	1.4545	0.	-65.091
18652	18.829	1.4545	5.e-002	3.3744e-005
18653	18.829	1.7273	0.	-100.81
18654	18.921	1.6364	0.	-87.723
18655	18.829	1.6364	5.e-002	3.2156e-005
18656	18.829	1.9091	0.	-123.01
18657	18.921	1.8182	0.	-109.9
18658	18.829	1.8182	5.e-002	2.5236e-005
18659	18.829	2.0909	0.	-142.26
18660	18.921	2.	0.	-130.06
18661	18.829	2.	5.e-002	2.2282e-005
18662	18.829	2.2727	0.	-157.5
18663	18.921	2.1818	0.	-146.94
18664	18.829	2.1818	5.e-002	1.6417e-005
18665	18.829	2.4545	0.	-168.44
18666	18.921	2.3636	0.	-159.89
18667	18.829	2.3636	5.e-002	9.3284e-006
18668	18.829	2.6364	0.	-175.44
18669	18.921	2.5455	0.	-168.88
18670	18.829	2.5455	5.e-002	3.894e-006
18671	18.829	2.8182	0.	-179.21
18672	18.921	2.7273	0.	-174.37
18673	18.829	2.7273	5.e-002	2.8611e-007
18674	18.829	3.	0.	-180.38
18675	18.921	2.9091	0.	-176.93
18676	18.829	2.9091	5.e-002	1.7036e-007
18677	18.829	3.1818	0.	-179.21
18678	18.921	3.0909	0.	-176.93
18679	18.829	3.0909	5.e-002	1.711e-006
18680	18.829	3.3636	0.	-175.44
18681	18.921	3.2727	0.	-174.37
18682	18.829	3.2727	5.e-002	-1.3033e-007
18683	18.829	3.5455	0.	-168.44
18684	18.921	3.4545	0.	-168.88
18685	18.829	3.4545	5.e-002	-3.3317e-008
18686	18.829	3.7273	0.	-157.5
18687	18.921	3.6364	0.	-159.89
18688	18.829	3.6364	5.e-002	-1.3283e-006
18689	18.829	3.9091	0.	-142.26
18690	18.921	3.8182	0.	-146.94
18691	18.829	3.8182	5.e-002	-8.5223e-006
18692	18.829	4.0909	0.	-123.01
18693	18.921	4.	0.	-130.06
18694	18.829	4.	5.e-002	-1.4356e-005
18695	18.829	4.2727	0.	-100.81
18696	18.921	4.1818	0.	-109.9
18697	18.829	4.1818	5.e-002	-1.5568e-005
18698	18.829	4.4545	0.	-77.273
18699	18.921	4.3636	0.	-87.723
18700	18.829	4.3636	5.e-002	-2.1255e-005
18701	18.829	4.6364	0.	-54.15
18702	18.921	4.5455	0.	-65.091
18703	18.829	4.5455	5.e-002	-3.2056e-005
18704	18.829	4.8182	0.	-32.977
18705	18.921	4.7273	0.	-43.526
18706	18.829	4.7273	5.e-002	-3.3423e-005
18707	18.829	5.	0.	-14.982
18708	18.921	4.9091	0.	-24.286
18709	18.829	4.9091	5.e-002	-2.5361e-005
18710	18.829	5.1818	0.	-2.7558
18711	18.921	5.0909	0.	-8.5419
18712	18.829	5.0909	5.e-002	-5.1359e-005
18713	18.829	5.3636	0.	-0.52022
18714	18.921	5.2727	0.	-1.016
18715	18.829	5.2727	5.e-002	-3.5148e-005
18716	18.829	5.5455	0.	-0.20508
18717	18.921	5.4545	0.	-0.26941
18718	18.829	5.4545	5.e-002	-2.3332e-005
18719	18.829	5.7273	0.	-7.6247e-002
18720	18.921	5.6364	0.	-0.12653
18721	18.829	5.6364	5.e-002	-1.1746e-005
18722	18.921	5.8182	0.	-7.6364e-003
18723	18.829	5.8182	5.e-002	3.3268e-006
18724	18.829	5.9091	0.	5.9666e-002
18725	19.014	0.27273	0.	-5.4807e-002
18726	19.106	0.18182	0.	-4.5288e-003
18727	19.014	0.18182	5.e-002	4.2081e-006
18728	19.014	9.0909e-002	0.	5.8129e-002
18729	19.014	0.45455	0.	-0.15507
18730	19.106	0.36364	0.	-9.3523e-002
18731	19.014	0.36364	5.e-002	2.8223e-005
18732	19.014	0.63636	0.	-0.47067
18733	19.106	0.54545	0.	-0.21763
18734	19.014	0.54545	5.e-002	4.6663e-005
18735	19.014	0.81818	0.	-4.1626
18736	19.106	0.72727	0.	-1.2198
18737	19.014	0.72727	5.e-002	5.4777e-005
18738	19.014	1.	0.	-17.405
18739	19.106	0.90909	0.	-10.606
18740	19.014	0.90909	5.e-002	3.954e-005
18741	19.014	1.1818	0.	-34.561
18742	19.106	1.0909	0.	-25.732
18743	19.014	1.0909	5.e-002	3.117e-005
18744	19.014	1.3636	0.	-54.202
18745	19.106	1.2727	0.	-43.607
18746	19.014	1.2727	5.e-002	3.4622e-005
18747	19.014	1.5455	0.	-75.285
18748	19.106	1.4545	0.	-63.292
18749	19.014	1.4545	5.e-002	4.6287e-005
18750	19.014	1.7273	0.	-96.576
18751	19.106	1.6364	0.	-83.734
18752	19.014	1.6364	5.e-002	3.0184e-005
18753	19.014	1.9091	0.	-116.75
18754	19.106	1.8182	0.	-103.74
18755	19.014	1.8182	5.e-002	2.2362e-005
18756	19.014	2.0909	0.	-134.59
18757	19.106	2.	0.	-122.13
18758	19.014	2.	5.e-002	1.766e-005
18759	19.014	2.2727	0.	-149.26
18760	19.106	2.1818	0.	-137.92
18761	19.014	2.1818	5.e-002	1.051e-005
18762	19.014	2.4545	0.	-160.36
18763	19.106	2.3636	0.	-150.51
18764	19.014	2.3636	5.e-002	1.1257e-005
18765	19.014	2.6364	0.	-167.93
18766	19.106	2.5455	0.	-159.71
18767	19.014	2.5455	5.e-002	6.5765e-006
18768	19.014	2.8182	0.	-172.27
18769	19.106	2.7273	0.	-165.62
18770	19.014	2.7273	5.e-002	2.4661e-006
18771	19.014	3.	0.	-173.68
18772	19.106	2.9091	0.	-168.49
18773	19.014	2.9091	5.e-002	3.502e-006
18774	19.014	3.1818	0.	-172.27
18775	19.106	3.0909	0.	-168.49
18776	19.014	3.0909	5.e-002	2.2149e-006
18777	19.014	3.3636	0.	-167.93
18778	19.106	3.2727	0.	-165.62
18779	19.014	3.2727	5.e-002	2.701e-006
18780	19.014	3.5455	0.	-160.36
18781	19.106	3.4545	0.	-159.71
18782	19.014	3.4545	5.e-002	1.7895e-006
18783	19.014	3.7273	0.	-149.26
18784	19.106	3.6364	0.	-150.51
18785	19.014	3.6364	5.e-002	-2.7356e-007
18786	19.014	3.9091	0.	-134.59
18787	19.106	3.8182	0.	-137.92
18788	19.014	3.8182	5.e-002	-6.5295e-006
18789	19.014	4.0909	0.	-116.75
18790	19.106	4.	0.	-122.13
18791	19.014	4.	5.e-002	-4.6717e-006
18792	19.014	4.2727	0.	-96.576
18793	19.106	4.1818	0.	-103.74
18794	19.014	4.1818	5.e-002	-9.3134e-006
18795	19.014	4.4545	0.	-75.285
18796	19.106	4.3636	0.	-83.734
18797	19.014	4.3636	5.e-002	-1.1588e-005
18798	19.014	4.6364	0.	-54.202
18799	19.106	4.5455	0.	-63.292
18800	19.014	4.5455	5.e-002	-1.7207e-005
18801	19.014	4.8182	0.	-34.561
18802	19.106	4.7273	0.	-43.607
18803	19.014	4.7273	5.e-002	-1.7911e-005
18804	19.014	5.	0.	-17.405
18805	19.106	4.9091	0.	-25.732
18806	19.014	4.9091	5.e-002	-1.0124e-005
18807	19.014	5.1818	0.	-4.1626
18808	19.106	5.0909	0.	-10.606
18809	19.014	5.0909	5.e-002	-1.7926e-005
18810	19.014	5.3636	0.	-0.47067
18811	19.106	5.2727	0.	-1.2198
18812	19.014	5.2727	5.e-002	-1.6958e-005
18813	19.014	5.5455	0.	-0.15506
18814	19.106	5.4545	0.	-0.21763
18815	19.014	5.4545	5.e-002	-1.6375e-005
18816	19.014	5.7273	0.	-5.4806e-002
18817	19.106	5.6364	0.	-9.3522e-002
18818	19.014	5.6364	5.e-002	-1.6547e-005
18819	19.106	5.8182	0.	-4.5281e-003
18820	19.014	5.8182	5.e-002	4.4499e-006
18821	19.014	5.9091	0.	5.813e-002
18822	19.198	0.27273	0.	-3.989e-002
18823	19.291	0.18182	0.	-3.5897e-003
18824	19.198	0.18182	5.e-002	4.6532e-006
18825	19.198	9.0909e-002	0.	5.652e-002
18826	19.198	0.45455	0.	-0.11777
18827	19.291	0.36364	0.	-6.7884e-002
18828	19.198	0.36364	5.e-002	2.1577e-005
18829	19.198	0.63636	0.	-0.45669
18830	19.291	0.54545	0.	-0.17952
18831	19.198	0.54545	5.e-002	2.9684e-005
18832	19.198	0.81818	0.	-5.7825
18833	19.291	0.72727	0.	-1.7402
18834	19.198	0.72727	5.e-002	2.7488e-005
18835	19.198	1.	0.	-18.729
18836	19.291	0.90909	0.	-11.972
18837	19.198	0.90909	5.e-002	3.5302e-005
18838	19.198	1.1818	0.	-34.637
18839	19.291	1.0909	0.	-26.038
18840	19.198	1.0909	5.e-002	2.8411e-005
18841	19.198	1.3636	0.	-52.559
18842	19.291	1.2727	0.	-42.351
18843	19.198	1.2727	5.e-002	2.1824e-005
18844	19.198	1.5455	0.	-71.606
18845	19.291	1.4545	0.	-60.121
18846	19.198	1.4545	5.e-002	2.1562e-005
18847	19.198	1.7273	0.	-90.772
18848	19.291	1.6364	0.	-78.467
18849	19.198	1.6364	5.e-002	2.18e-005
18850	19.198	1.9091	0.	-109.01
18851	19.291	1.8182	0.	-96.429
18852	19.198	1.8182	5.e-002	2.5905e-005
18853	19.198	2.0909	0.	-125.37
18854	19.291	2.	0.	-113.07
18855	19.198	2.	5.e-002	1.6188e-005
18856	19.198	2.2727	0.	-139.13
18857	19.291	2.1818	0.	-127.61
18858	19.198	2.1818	5.e-002	1.4246e-005
18859	19.198	2.4545	0.	-149.88
18860	19.291	2.3636	0.	-139.48
18861	19.198	2.3636	5.e-002	1.1024e-005
18862	19.198	2.6364	0.	-157.46
18863	19.291	2.5455	0.	-148.4
18864	19.198	2.5455	5.e-002	7.9205e-006
18865	19.198	2.8182	0.	-161.94
18866	19.291	2.7273	0.	-154.3
18867	19.198	2.7273	5.e-002	6.7156e-006
18868	19.198	3.	0.	-163.42
18869	19.291	2.9091	0.	-157.22
18870	19.198	2.9091	5.e-002	4.825e-006
18871	19.198	3.1818	0.	-161.94
18872	19.291	3.0909	0.	-157.22
18873	19.198	3.0909	5.e-002	4.7277e-006
18874	19.198	3.3636	0.	-157.46
18875	19.291	3.2727	0.	-154.3
18876	19.198	3.2727	5.e-002	3.0423e-006
18877	19.198	3.5455	0.	-149.88
18878	19.291	3.4545	0.	-148.4
18879	19.198	3.4545	5.e-002	3.2639e-007
18880	19.198	3.7273	0.	-139.13
18881	19.291	3.6364	0.	-139.48
18882	19.198	3.6364	5.e-002	-1.635e-007
18883	19.198	3.9091	0.	-125.37
18884	19.291	3.8182	0.	-127.61
18885	19.198	3.8182	5.e-002	-3.7591e-006
18886	19.198	4.0909	0.	-109.01
18887	19.291	4.	0.	-113.07
18888	19.198	4.	5.e-002	1.0371e-006
18889	19.198	4.2727	0.	-90.772
18890	19.291	4.1818	0.	-96.429
18891	19.198	4.1818	5.e-002	-4.4455e-006
18892	19.198	4.4545	0.	-71.606
18893	19.291	4.3636	0.	-78.467
18894	19.198	4.3636	5.e-002	-4.1476e-006
18895	19.198	4.6364	0.	-52.559
18896	19.291	4.5455	0.	-60.121
18897	19.198	4.5455	5.e-002	-5.2098e-006
18898	19.198	4.8182	0.	-34.637
18899	19.291	4.7273	0.	-42.351
18900	19.198	4.7273	5.e-002	-1.0149e-005
18901	19.198	5.	0.	-18.729
18902	19.291	4.9091	0.	-26.038
18903	19.198	4.9091	5.e-002	-8.0926e-006
18904	19.198	5.1818	0.	-5.7825
18905	19.291	5.0909	0.	-11.972
18906	19.198	5.0909	5.e-002	-1.4133e-006
18907	19.198	5.3636	0.	-0.45669
18908	19.291	5.2727	0.	-1.7402
18909	19.198	5.2727	5.e-002	-9.1642e-006
18910	19.198	5.5455	0.	-0.11777
18911	19.291	5.4545	0.	-0.17952
18912	19.198	5.4545	5.e-002	9.6202e-006
18913	19.198	5.7273	0.	-3.989e-002
18914	19.291	5.6364	0.	-6.7883e-002
18915	19.198	5.6364	5.e-002	-1.2709e-005
18916	19.291	5.8182	0.	-3.5895e-003
18917	19.198	5.8182	5.e-002	5.2562e-006
18918	19.198	5.9091	0.	5.6522e-002
18919	19.383	0.27273	0.	-2.8704e-002
18920	19.475	0.18182	0.	-3.2661e-003
18921	19.383	0.18182	5.e-002	6.426e-006
18922	19.383	9.0909e-002	0.	5.4123e-002
18923	19.383	0.45455	0.	-8.8312e-002
18924	19.475	0.36364	0.	-4.7227e-002
18925	19.383	0.36364	5.e-002	9.3929e-006
18926	19.383	0.63636	0.	-0.48612
18927	19.475	0.54545	0.	-0.14914
18928	19.383	0.54545	5.e-002	1.5187e-005
18929	19.383	0.81818	0.	-7.0807
18930	19.475	0.72727	0.	-2.5769
18931	19.383	0.72727	5.e-002	1.9286e-005
18932	19.383	1.	0.	-19.189
18933	19.475	0.90909	0.	-12.663
18934	19.383	0.90909	5.e-002	2.0597e-005
18935	19.383	1.1818	0.	-33.686
18936	19.475	1.0909	0.	-25.5
18937	19.383	1.0909	5.e-002	1.8656e-005
18938	19.383	1.3636	0.	-49.847
18939	19.475	1.2727	0.	-40.2
18940	19.383	1.2727	5.e-002	1.7616e-005
18941	19.383	1.5455	0.	-66.916
18942	19.475	1.4545	0.	-56.096
18943	19.383	1.4545	5.e-002	1.7064e-005
18944	19.383	1.7273	0.	-84.062
18945	19.475	1.6364	0.	-72.45
18946	19.383	1.6364	5.e-002	1.8359e-005
18947	19.383	1.9091	0.	-100.44
18948	19.475	1.8182	0.	-88.478
18949	19.383	1.8182	5.e-002	1.5669e-005
18950	19.383	2.0909	0.	-115.27
18951	19.475	2.	0.	-103.42
18952	19.383	2.	5.e-002	1.3565e-005
18953	19.383	2.2727	0.	-127.94
18954	19.475	2.1818	0.	-116.61
18955	19.383	2.1818	5.e-002	1.1247e-005
18956	19.383	2.4545	0.	-138.01
18957	19.475	2.3636	0.	-127.55
18958	19.383	2.3636	5.e-002	1.0937e-005
18959	19.383	2.6364	0.	-145.27
18960	19.475	2.5455	0.	-135.91
18961	19.383	2.5455	5.e-002	6.2646e-006
18962	19.383	2.8182	0.	-149.63
18963	19.475	2.7273	0.	-141.52
18964	19.383	2.7273	5.e-002	1.0426e-005
18965	19.383	3.	0.	-151.08
18966	19.475	2.9091	0.	-144.34
18967	19.383	2.9091	5.e-002	4.1476e-006
18968	19.383	3.1818	0.	-149.63
18969	19.475	3.0909	0.	-144.34
18970	19.383	3.0909	5.e-002	1.5768e-006
18971	19.383	3.3636	0.	-145.27
18972	19.475	3.2727	0.	-141.52
18973	19.383	3.2727	5.e-002	3.2648e-006
18974	19.383	3.5455	0.	-138.01
18975	19.475	3.4545	0.	-135.91
18976	19.383	3.4545	5.e-002	2.2115e-007
18977	19.383	3.7273	0.	-127.94
18978	19.475	3.6364	0.	-127.55
18979	19.383	3.6364	5.e-002	4.3252e-006
18980	19.383	3.9091	0.	-115.27
18981	19.475	3.8182	0.	-116.61
18982	19.383	3.8182	5.e-002	1.4009e-006
18983	19.383	4.0909	0.	-100.44
18984	19.475	4.	0.	-103.42
18985	19.383	4.	5.e-002	-5.3792e-006
18986	19.383	4.2727	0.	-84.062
18987	19.475	4.1818	0.	-88.478
18988	19.383	4.1818	5.e-002	-5.0113e-006
18989	19.383	4.4545	0.	-66.916
18990	19.475	4.3636	0.	-72.45
18991	19.383	4.3636	5.e-002	1.0633e-006
18992	19.383	4.6364	0.	-49.847
18993	19.475	4.5455	0.	-56.096
18994	19.383	4.5455	5.e-002	-3.8258e-006
18995	19.383	4.8182	0.	-33.686
18996	19.475	4.7273	0.	-40.2
18997	19.383	4.7273	5.e-002	1.234e-006
18998	19.383	5.	0.	-19.189
18999	19.475	4.9091	0.	-25.5
19000	19.383	4.9091	5.e-002	-1.0721e-007
19001	19.383	5.1818	0.	-7.0807
19002	19.475	5.0909	0.	-12.663
19003	19.383	5.0909	5.e-002	-2.2956e-006
19004	19.383	5.3636	0.	-0.48612
19005	19.475	5.2727	0.	-2.5769
19006	19.383	5.2727	5.e-002	6.399e-006
19007	19.383	5.5455	0.	-8.8311e-002
19008	19.475	5.4545	0.	-0.14914
19009	19.383	5.4545	5.e-002	5.5392e-007
19010	19.383	5.7273	0.	-2.8703e-002
19011	19.475	5.6364	0.	-4.7225e-002
19012	19.383	5.6364	5.e-002	7.9085e-006
19013	19.475	5.8182	0.	-3.2654e-003
19014	19.383	5.8182	5.e-002	4.945e-006
19015	19.383	5.9091	0.	5.4122e-002
19016	19.568	0.27273	0.	-1.9879e-002
19017	19.66	0.18182	0.	-2.9528e-003
19018	19.568	0.18182	5.e-002	5.4035e-006
19019	19.568	9.0909e-002	0.	5.0545e-002
19020	19.568	0.45455	0.	-6.3533e-002
19021	19.66	0.36364	0.	-3.0251e-002
19022	19.568	0.36364	5.e-002	9.2282e-006
19023	19.568	0.63636	0.	-0.57936
19024	19.66	0.54545	0.	-0.12103
19025	19.568	0.54545	5.e-002	1.2977e-005
19026	19.568	0.81818	0.	-7.8619
19027	19.66	0.72727	0.	-3.321
19028	19.568	0.72727	5.e-002	9.6122e-006
19029	19.568	1.	0.	-18.94
19030	19.66	0.90909	0.	-12.732
19031	19.568	0.90909	5.e-002	1.1656e-005
19032	19.568	1.1818	0.	-31.99
19033	19.66	1.0909	0.	-24.296
19034	19.568	1.0909	5.e-002	1.4655e-005
19035	19.568	1.3636	0.	-46.425
19036	19.66	1.2727	0.	-37.41
19037	19.568	1.2727	5.e-002	1.7596e-005
19038	19.568	1.5455	0.	-61.605
19039	19.66	1.4545	0.	-51.515
19040	19.568	1.4545	5.e-002	1.5805e-005
19041	19.568	1.7273	0.	-76.841
19042	19.66	1.6364	0.	-65.992
19043	19.568	1.6364	5.e-002	1.7379e-005
19044	19.568	1.9091	0.	-91.435
19045	19.66	1.8182	0.	-80.193
19046	19.568	1.8182	5.e-002	1.4933e-005
19047	19.568	2.0909	0.	-104.74
19048	19.66	2.	0.	-93.486
19049	19.568	2.	5.e-002	1.3881e-005
19050	19.568	2.2727	0.	-116.21
19051	19.66	2.1818	0.	-105.31
19052	19.568	2.1818	5.e-002	1.3547e-005
19053	19.568	2.4545	0.	-125.45
19054	19.66	2.3636	0.	-115.21
19055	19.568	2.3636	5.e-002	1.1923e-005
19056	19.568	2.6364	0.	-132.18
19057	19.66	2.5455	0.	-122.85
19058	19.568	2.5455	5.e-002	1.0425e-005
19059	19.568	2.8182	0.	-136.26
19060	19.66	2.7273	0.	-128.04
19061	19.568	2.7273	5.e-002	8.751e-006
19062	19.568	3.	0.	-137.63
19063	19.66	2.9091	0.	-130.66
19064	19.568	2.9091	5.e-002	1.1174e-005
19065	19.568	3.1818	0.	-136.26
19066	19.66	3.0909	0.	-130.66
19067	19.568	3.0909	5.e-002	9.8285e-006
19068	19.568	3.3636	0.	-132.18
19069	19.66	3.2727	0.	-128.04
19070	19.568	3.2727	5.e-002	5.0319e-006
19071	19.568	3.5455	0.	-125.45
19072	19.66	3.4545	0.	-122.85
19073	19.568	3.4545	5.e-002	5.0751e-006
19074	19.568	3.7273	0.	-116.21
19075	19.66	3.6364	0.	-115.21
19076	19.568	3.6364	5.e-002	2.9051e-006
19077	19.568	3.9091	0.	-104.74
19078	19.66	3.8182	0.	-105.31
19079	19.568	3.8182	5.e-002	2.9029e-006
19080	19.568	4.0909	0.	-91.435
19081	19.66	4.	0.	-93.486
19082	19.568	4.	5.e-002	2.6288e-006
19083	19.568	4.2727	0.	-76.841
19084	19.66	4.1818	0.	-80.193
19085	19.568	4.1818	5.e-002	1.9463e-006
19086	19.568	4.4545	0.	-61.605
19087	19.66	4.3636	0.	-65.992
19088	19.568	4.3636	5.e-002	5.8436e-006
19089	19.568	4.6364	0.	-46.425
19090	19.66	4.5455	0.	-51.515
19091	19.568	4.5455	5.e-002	4.6158e-006
19092	19.568	4.8182	0.	-31.99
19093	19.66	4.7273	0.	-37.41
19094	19.568	4.7273	5.e-002	6.3142e-006
19095	19.568	5.	0.	-18.94
19096	19.66	4.9091	0.	-24.296
19097	19.568	4.9091	5.e-002	1.1011e-005
19098	19.568	5.1818	0.	-7.8619
19099	19.66	5.0909	0.	-12.732
19100	19.568	5.0909	5.e-002	8.8503e-006
19101	19.568	5.3636	0.	-0.57935
19102	19.66	5.2727	0.	-3.3209
19103	19.568	5.2727	5.e-002	8.9954e-006
19104	19.568	5.5455	0.	-6.3532e-002
19105	19.66	5.4545	0.	-0.12103
19106	19.568	5.4545	5.e-002	1.0925e-005
19107	19.568	5.7273	0.	-1.9877e-002
19108	19.66	5.6364	0.	-3.025e-002
19109	19.568	5.6364	5.e-002	1.2125e-005
19110	19.66	5.8182	0.	-2.9519e-003
19111	19.568	5.8182	5.e-002	6.386e-006
19112	19.568	5.9091	0.	5.0544e-002
19113	19.752	0.27273	0.	-1.2735e-002
19114	19.845	0.18182	0.	-2.4699e-003
19115	19.752	0.18182	5.e-002	2.249e-005
19116	19.752	9.0909e-002	0.	4.5802e-002
19117	19.752	0.45455	0.	-4.148e-002
19118	19.845	0.36364	0.	-1.6387e-002
19119	19.752	0.36364	5.e-002	4.2412e-006
19120	19.752	0.63636	0.	-0.74044
19121	19.845	0.54545	0.	-8.9787e-002
19122	19.752	0.54545	5.e-002	5.4072e-006
19123	19.752	0.81818	0.	-8.091
19124	19.845	0.72727	0.	-3.6715
19125	19.752	0.72727	5.e-002	4.464e-006
19126	19.752	1.	0.	-18.085
19127	19.845	0.90909	0.	-12.233
19128	19.752	0.90909	5.e-002	8.5382e-006
19129	19.752	1.1818	0.	-29.717
19130	19.845	1.0909	0.	-22.539
19131	19.752	1.0909	5.e-002	1.0442e-005
19132	19.752	1.3636	0.	-42.5
19133	19.845	1.2727	0.	-34.135
19134	19.752	1.2727	5.e-002	1.1561e-005
19135	19.752	1.5455	0.	-55.899
19136	19.845	1.4545	0.	-46.551
19137	19.752	1.4545	5.e-002	1.0321e-005
19138	19.752	1.7273	0.	-69.339
19139	19.845	1.6364	0.	-59.272
19140	19.752	1.6364	5.e-002	1.0918e-005
19141	19.752	1.9091	0.	-82.239
19142	19.845	1.8182	0.	-71.757
19143	19.752	1.8182	5.e-002	9.5679e-006
19144	19.752	2.0909	0.	-94.052
19145	19.845	2.	0.	-83.479
19146	19.752	2.	5.e-002	9.0556e-006
19147	19.752	2.2727	0.	-104.3
19148	19.845	2.1818	0.	-93.955
19149	19.752	2.1818	5.e-002	8.3233e-006
19150	19.752	2.4545	0.	-112.62
19151	19.845	2.3636	0.	-102.78
19152	19.752	2.3636	5.e-002	6.6981e-006
19153	19.752	2.6364	0.	-118.73
19154	19.845	2.5455	0.	-109.65
19155	19.752	2.5455	5.e-002	6.4688e-006
19156	19.752	2.8182	0.	-122.45
19157	19.845	2.7273	0.	-114.33
19158	19.752	2.7273	5.e-002	3.9493e-006
19159	19.752	3.	0.	-123.7
19160	19.845	2.9091	0.	-116.71
19161	19.752	2.9091	5.e-002	5.8033e-006
19162	19.752	3.1818	0.	-122.45
19163	19.845	3.0909	0.	-116.71
19164	19.752	3.0909	5.e-002	3.7381e-006
19165	19.752	3.3636	0.	-118.73
19166	19.845	3.2727	0.	-114.33
19167	19.752	3.2727	5.e-002	2.9101e-006
19168	19.752	3.5455	0.	-112.62
19169	19.845	3.4545	0.	-109.65
19170	19.752	3.4545	5.e-002	2.6561e-006
19171	19.752	3.7273	0.	-104.3
19172	19.845	3.6364	0.	-102.78
19173	19.752	3.6364	5.e-002	-4.1919e-007
19174	19.752	3.9091	0.	-94.052
19175	19.845	3.8182	0.	-93.955
19176	19.752	3.8182	5.e-002	1.6914e-006
19177	19.752	4.0909	0.	-82.239
19178	19.845	4.	0.	-83.479
19179	19.752	4.	5.e-002	2.5034e-006
19180	19.752	4.2727	0.	-69.339
19181	19.845	4.1818	0.	-71.757
19182	19.752	4.1818	5.e-002	9.688e-008
19183	19.752	4.4545	0.	-55.899
19184	19.845	4.3636	0.	-59.272
19185	19.752	4.3636	5.e-002	3.3302e-006
19186	19.752	4.6364	0.	-42.5
19187	19.845	4.5455	0.	-46.551
19188	19.752	4.5455	5.e-002	2.4686e-006
19189	19.752	4.8182	0.	-29.717
19190	19.845	4.7273	0.	-34.134
19191	19.752	4.7273	5.e-002	4.9928e-006
19192	19.752	5.	0.	-18.085
19193	19.845	4.9091	0.	-22.539
19194	19.752	4.9091	5.e-002	7.7477e-006
19195	19.752	5.1818	0.	-8.091
19196	19.845	5.0909	0.	-12.233
19197	19.752	5.0909	5.e-002	6.5337e-006
19198	19.752	5.3636	0.	-0.74041
19199	19.845	5.2727	0.	-3.6714
19200	19.752	5.2727	5.e-002	8.0932e-006
19201	19.752	5.5455	0.	-4.148e-002
19202	19.845	5.4545	0.	-8.9786e-002
19203	19.752	5.4545	5.e-002	7.9291e-006
19204	19.752	5.7273	0.	-1.2734e-002
19205	19.845	5.6364	0.	-1.6385e-002
19206	19.752	5.6364	5.e-002	7.5337e-006
19207	19.845	5.8182	0.	-2.4695e-003
19208	19.752	5.8182	5.e-002	-2.7436e-006
19209	19.752	5.9091	0.	4.5805e-002
19210	19.937	0.27273	0.	-7.036e-003
19211	20.029	0.18182	0.	-1.8471e-003
19212	19.937	0.18182	5.e-002	8.5478e-006
19213	19.937	9.0909e-002	0.	4.0208e-002
19214	19.937	0.45455	0.	-2.1674e-002
19215	20.029	0.36364	0.	-5.6213e-003
19216	19.937	0.36364	5.e-002	4.5852e-006
19217	19.937	0.63636	0.	-0.84375
19218	20.029	0.54545	0.	-5.3128e-002
19219	19.937	0.54545	5.e-002	5.6722e-006
19220	19.937	0.81818	0.	-7.7845
19221	20.029	0.72727	0.	-3.5477
19222	19.937	0.72727	5.e-002	5.3822e-006
19223	19.937	1.	0.	-16.7
19224	20.029	0.90909	0.	-11.213
19225	19.937	0.90909	5.e-002	8.3742e-006
19226	19.937	1.1818	0.	-26.971
19227	20.029	1.0909	0.	-20.306
19228	19.937	1.0909	5.e-002	8.5883e-006
19229	19.937	1.3636	0.	-38.197
19230	20.029	1.2727	0.	-30.467
19231	19.937	1.2727	5.e-002	7.4419e-006
19232	19.937	1.5455	0.	-49.932
19233	20.029	1.4545	0.	-41.306
19234	19.937	1.4545	5.e-002	7.7594e-006
19235	19.937	1.7273	0.	-61.695
19236	20.029	1.6364	0.	-52.394
19237	19.937	1.6364	5.e-002	9.798e-006
19238	19.937	1.9091	0.	-73.001
19239	20.029	1.8182	0.	-63.28
19240	19.937	1.8182	5.e-002	1.0208e-005
19241	19.937	2.0909	0.	-83.385
19242	20.029	2.	0.	-73.521
19243	19.937	2.	5.e-002	9.5046e-006
19244	19.937	2.2727	0.	-92.437
19245	20.029	2.1818	0.	-82.704
19246	19.937	2.1818	5.e-002	7.7951e-006
19247	19.937	2.4545	0.	-99.815
19248	20.029	2.3636	0.	-90.474
19249	19.937	2.3636	5.e-002	7.8498e-006
19250	19.937	2.6364	0.	-105.26
19251	20.029	2.5455	0.	-96.544
19252	19.937	2.5455	5.e-002	7.8728e-006
19253	19.937	2.8182	0.	-108.59
19254	20.029	2.7273	0.	-100.7
19255	19.937	2.7273	5.e-002	6.1977e-006
19256	19.937	3.	0.	-109.72
19257	20.029	2.9091	0.	-102.82
19258	19.937	2.9091	5.e-002	2.4444e-006
19259	19.937	3.1818	0.	-108.59
19260	20.029	3.0909	0.	-102.82
19261	19.937	3.0909	5.e-002	3.3051e-006
19262	19.937	3.3636	0.	-105.26
19263	20.029	3.2727	0.	-100.7
19264	19.937	3.2727	5.e-002	3.4278e-006
19265	19.937	3.5455	0.	-99.815
19266	20.029	3.4545	0.	-96.544
19267	19.937	3.4545	5.e-002	1.4384e-006
19268	19.937	3.7273	0.	-92.437
19269	20.029	3.6364	0.	-90.474
19270	19.937	3.6364	5.e-002	3.1834e-006
19271	19.937	3.9091	0.	-83.385
19272	20.029	3.8182	0.	-82.704
19273	19.937	3.8182	5.e-002	2.7195e-006
19274	19.937	4.0909	0.	-73.001
19275	20.029	4.	0.	-73.521
19276	19.937	4.	5.e-002	1.1733e-006
19277	19.937	4.2727	0.	-61.695
19278	20.029	4.1818	0.	-63.28
19279	19.937	4.1818	5.e-002	1.6782e-006
19280	19.937	4.4545	0.	-49.931
19281	20.029	4.3636	0.	-52.394
19282	19.937	4.3636	5.e-002	4.6535e-006
19283	19.937	4.6364	0.	-38.197
19284	20.029	4.5455	0.	-41.306
19285	19.937	4.5455	5.e-002	3.9256e-006
19286	19.937	4.8182	0.	-26.971
19287	20.029	4.7273	0.	-30.467
19288	19.937	4.7273	5.e-002	5.9033e-006
19289	19.937	5.	0.	-16.7
19290	20.029	4.9091	0.	-20.306
19291	19.937	4.9091	5.e-002	9.3077e-006
19292	19.937	5.1818	0.	-7.7845
19293	20.029	5.0909	0.	-11.213
19294	19.937	5.0909	5.e-002	7.434e-006
19295	19.937	5.3636	0.	-0.84372
19296	20.029	5.2727	0.	-3.5477
19297	19.937	5.2727	5.e-002	6.9071e-006
19298	19.937	5.5455	0.	-2.1671e-002
19299	20.029	5.4545	0.	-5.3126e-002
19300	19.937	5.4545	5.e-002	7.616e-006
19301	19.937	5.7273	0.	-7.0344e-003
19302	20.029	5.6364	0.	-5.6175e-003
19303	19.937	5.6364	5.e-002	7.8308e-006
19304	20.029	5.8182	0.	-1.8471e-003
19305	19.937	5.8182	5.e-002	5.0922e-006
19306	19.937	5.9091	0.	4.0208e-002
19307	20.122	0.27273	0.	-2.7638e-003
19308	20.214	0.18182	0.	-1.2028e-003
19309	20.122	0.18182	5.e-002	6.3164e-006
19310	20.122	9.0909e-002	0.	3.4252e-002
19311	20.122	0.45455	0.	-5.265e-003
19312	20.214	0.36364	0.	1.8165e-003
19313	20.122	0.36364	5.e-002	6.9127e-006
19314	20.122	0.63636	0.	-0.69035
19315	20.214	0.54545	0.	-1.7594e-002
19316	20.122	0.54545	5.e-002	9.8385e-006
19317	20.122	0.81818	0.	-6.9778
19318	20.214	0.72727	0.	-2.9547
19319	20.122	0.72727	5.e-002	7.6468e-006
19320	20.122	1.	0.	-14.843
19321	20.214	0.90909	0.	-9.723
19322	20.122	0.90909	5.e-002	6.3981e-006
19323	20.122	1.1818	0.	-23.824
19324	20.214	1.0909	0.	-17.658
19325	20.122	1.0909	5.e-002	6.2926e-006
19326	20.122	1.3636	0.	-33.594
19327	20.214	1.2727	0.	-26.472
19328	20.122	1.2727	5.e-002	7.6913e-006
19329	20.122	1.5455	0.	-43.782
19330	20.214	1.4545	0.	-35.845
19331	20.122	1.4545	5.e-002	7.4093e-006
19332	20.122	1.7273	0.	-53.989
19333	20.214	1.6364	0.	-45.421
19334	20.122	1.6364	5.e-002	9.1551e-006
19335	20.122	1.9091	0.	-63.808
19336	20.214	1.8182	0.	-54.824
19337	20.122	1.8182	5.e-002	7.4108e-006
19338	20.122	2.0909	0.	-72.846
19339	20.214	2.	0.	-63.683
19340	20.122	2.	5.e-002	6.908e-006
19341	20.122	2.2727	0.	-80.746
19342	20.214	2.1818	0.	-71.646
19343	20.122	2.1818	5.e-002	6.6967e-006
19344	20.122	2.4545	0.	-87.208
19345	20.214	2.3636	0.	-78.403
19346	20.122	2.3636	5.e-002	6.412e-006
19347	20.122	2.6364	0.	-91.992
19348	20.214	2.5455	0.	-83.697
19349	20.122	2.5455	5.e-002	8.1924e-006
19350	20.122	2.8182	0.	-94.929
19351	20.214	2.7273	0.	-87.334
19352	20.122	2.7273	5.e-002	5.7681e-006
19353	20.122	3.	0.	-95.919
19354	20.214	2.9091	0.	-89.185
19355	20.122	2.9091	5.e-002	4.8186e-006
19356	20.122	3.1818	0.	-94.929
19357	20.214	3.0909	0.	-89.185
19358	20.122	3.0909	5.e-002	5.6865e-006
19359	20.122	3.3636	0.	-91.992
19360	20.214	3.2727	0.	-87.334
19361	20.122	3.2727	5.e-002	5.8185e-006
19362	20.122	3.5455	0.	-87.208
19363	20.214	3.4545	0.	-83.697
19364	20.122	3.4545	5.e-002	3.564e-006
19365	20.122	3.7273	0.	-80.746
19366	20.214	3.6364	0.	-78.403
19367	20.122	3.6364	5.e-002	4.0424e-006
19368	20.122	3.9091	0.	-72.846
19369	20.214	3.8182	0.	-71.646
19370	20.122	3.8182	5.e-002	6.2943e-006
19371	20.122	4.0909	0.	-63.808
19372	20.214	4.	0.	-63.683
19373	20.122	4.	5.e-002	4.4868e-006
19374	20.122	4.2727	0.	-53.989
19375	20.214	4.1818	0.	-54.824
19376	20.122	4.1818	5.e-002	4.9371e-006
19377	20.122	4.4545	0.	-43.782
19378	20.214	4.3636	0.	-45.421
19379	20.122	4.3636	5.e-002	6.9245e-006
19380	20.122	4.6364	0.	-33.594
19381	20.214	4.5455	0.	-35.845
19382	20.122	4.5455	5.e-002	6.6981e-006
19383	20.122	4.8182	0.	-23.824
19384	20.214	4.7273	0.	-26.472
19385	20.122	4.7273	5.e-002	8.8719e-006
19386	20.122	5.	0.	-14.843
19387	20.214	4.9091	0.	-17.658
19388	20.122	4.9091	5.e-002	8.6117e-006
19389	20.122	5.1818	0.	-6.9778
19390	20.214	5.0909	0.	-9.7229
19391	20.122	5.0909	5.e-002	7.5614e-006
19392	20.122	5.3636	0.	-0.6903
19393	20.214	5.2727	0.	-2.9546
19394	20.122	5.2727	5.e-002	8.6411e-006
19395	20.122	5.5455	0.	-5.2623e-003
19396	20.214	5.4545	0.	-1.7593e-002
19397	20.122	5.4545	5.e-002	9.1669e-006
19398	20.122	5.7273	0.	-2.7617e-003
19399	20.214	5.6364	0.	1.8205e-003
19400	20.122	5.6364	5.e-002	9.2838e-006
19401	20.214	5.8182	0.	-1.2025e-003
19402	20.122	5.8182	5.e-002	6.7091e-006
19403	20.122	5.9091	0.	3.4251e-002
19404	20.306	0.27273	0.	3.3026e-005
19405	20.399	0.18182	0.	-6.746e-004
19406	20.306	0.18182	5.e-002	2.9931e-006
19407	20.306	9.0909e-002	0.	2.8451e-002
19408	20.306	0.45455	0.	5.9479e-003
19409	20.399	0.36364	0.	5.8844e-003
19410	20.306	0.36364	5.e-002	2.462e-006
19411	20.306	0.63636	0.	-0.26549
19412	20.399	0.54545	0.	5.9823e-003
19413	20.306	0.54545	5.e-002	6.5034e-006
19414	20.306	0.81818	0.	-5.714
19415	20.399	0.72727	0.	-1.9266
19416	20.306	0.72727	5.e-002	5.9593e-006
19417	20.306	1.	0.	-12.566
19418	20.399	0.90909	0.	-7.8082
19419	20.306	0.90909	5.e-002	5.6017e-006
19420	20.306	1.1818	0.	-20.331
19421	20.399	1.0909	0.	-14.642
19422	20.306	1.0909	5.e-002	6.6213e-006
19423	20.306	1.3636	0.	-28.744
19424	20.399	1.2727	0.	-22.196
19425	20.306	1.2727	5.e-002	5.8168e-006
19426	20.306	1.5455	0.	-37.5
19427	20.399	1.4545	0.	-30.209
19428	20.306	1.4545	5.e-002	5.4639e-006
19429	20.306	1.7273	0.	-46.269
19430	20.399	1.6364	0.	-38.389
19431	20.306	1.6364	5.e-002	6.3238e-006
19432	20.306	1.9091	0.	-54.71
19433	20.399	1.8182	0.	-46.424
19434	20.306	1.8182	5.e-002	5.954e-006
19435	20.306	2.0909	0.	-62.491
19436	20.399	2.	0.	-54.004
19437	20.306	2.	5.e-002	6.6214e-006
19438	20.306	2.2727	0.	-69.309
19439	20.399	2.1818	0.	-60.829
19440	20.306	2.1818	5.e-002	6.3482e-006
19441	20.306	2.4545	0.	-74.897
19442	20.399	2.3636	0.	-66.633
19443	20.306	2.3636	5.e-002	5.9273e-006
19444	20.306	2.6364	0.	-79.044
19445	20.399	2.5455	0.	-71.19
19446	20.306	2.5455	5.e-002	7.2368e-006
19447	20.306	2.8182	0.	-81.595
19448	20.399	2.7273	0.	-74.327
19449	20.306	2.7273	5.e-002	4.5406e-006
19450	20.306	3.	0.	-82.455
19451	20.399	2.9091	0.	-75.925
19452	20.306	2.9091	5.e-002	4.405e-006
19453	20.306	3.1818	0.	-81.595
19454	20.399	3.0909	0.	-75.925
19455	20.306	3.0909	5.e-002	3.2344e-006
19456	20.306	3.3636	0.	-79.044
19457	20.399	3.2727	0.	-74.327
19458	20.306	3.2727	5.e-002	3.1863e-006
19459	20.306	3.5455	0.	-74.897
19460	20.399	3.4545	0.	-71.19
19461	20.306	3.4545	5.e-002	5.3977e-006
19462	20.306	3.7273	0.	-69.309
19463	20.399	3.6364	0.	-66.633
19464	20.306	3.6364	5.e-002	4.5799e-006
19465	20.306	3.9091	0.	-62.491
19466	20.399	3.8182	0.	-60.829
19467	20.306	3.8182	5.e-002	7.4525e-006
19468	20.306	4.0909	0.	-54.71
19469	20.399	4.	0.	-54.004
19470	20.306	4.	5.e-002	5.7033e-006
19471	20.306	4.2727	0.	-46.269
19472	20.399	4.1818	0.	-46.424
19473	20.306	4.1818	5.e-002	5.4968e-006
19474	20.306	4.4545	0.	-37.5
19475	20.399	4.3636	0.	-38.389
19476	20.306	4.3636	5.e-002	8.5855e-006
19477	20.306	4.6364	0.	-28.744
19478	20.399	4.5455	0.	-30.209
19479	20.306	4.5455	5.e-002	7.0947e-006
19480	20.306	4.8182	0.	-20.331
19481	20.399	4.7273	0.	-22.196
19482	20.306	4.7273	5.e-002	7.9848e-006
19483	20.306	5.	0.	-12.566
19484	20.399	4.9091	0.	-14.642
19485	20.306	4.9091	5.e-002	8.9747e-006
19486	20.306	5.1818	0.	-5.7139
19487	20.399	5.0909	0.	-7.8081
19488	20.306	5.0909	5.e-002	8.1473e-006
19489	20.306	5.3636	0.	-0.26546
19490	20.399	5.2727	0.	-1.9265
19491	20.306	5.2727	5.e-002	8.4273e-006
19492	20.306	5.5455	0.	5.9497e-003
19493	20.399	5.4545	0.	5.9818e-003
19494	20.306	5.4545	5.e-002	9.3289e-006
19495	20.306	5.7273	0.	3.5176e-005
19496	20.399	5.6364	0.	5.8857e-003
19497	20.306	5.6364	5.e-002	9.5429e-006
19498	20.399	5.8182	0.	-6.7284e-004
19499	20.306	5.8182	5.e-002	6.8228e-006
19500	20.306	5.9091	0.	2.8451e-002
19501	20.491	0.27273	0.	1.3857e-003
19502	20.583	0.18182	0.	-3.9343e-004
19503	20.491	0.18182	5.e-002	3.0416e-006
19504	20.491	9.0909e-002	0.	2.3235e-002
19505	20.491	0.45455	0.	1.1458e-002
19506	20.583	0.36364	0.	6.9739e-003
19507	20.491	0.36364	5.e-002	3.2787e-006
19508	20.491	0.63636	0.	-1.6327e-002
19509	20.583	0.54545	0.	1.5868e-002
19510	20.491	0.54545	5.e-002	5.4322e-006
19511	20.491	0.81818	0.	-4.0385
19512	20.583	0.72727	0.	-0.5299
19513	20.491	0.72727	5.e-002	5.8043e-006
19514	20.491	1.	0.	-9.9148
19515	20.583	0.90909	0.	-5.514
19516	20.491	0.90909	5.e-002	5.3475e-006
19517	20.491	1.1818	0.	-16.534
19518	20.583	1.0909	0.	-11.301
19519	20.491	1.0909	5.e-002	5.004e-006
19520	20.491	1.3636	0.	-23.683
19521	20.583	1.2727	0.	-17.674
19522	20.491	1.2727	5.e-002	4.924e-006
19523	20.491	1.5455	0.	-31.116
19524	20.583	1.4545	0.	-24.426
19525	20.491	1.4545	5.e-002	5.3121e-006
19526	20.491	1.7273	0.	-38.558
19527	20.583	1.6364	0.	-31.318
19528	20.491	1.6364	5.e-002	6.212e-006
19529	20.491	1.9091	0.	-45.729
19530	20.583	1.8182	0.	-38.095
19531	20.491	1.8182	5.e-002	5.5856e-006
19532	20.491	2.0909	0.	-52.349
19533	20.583	2.	0.	-44.495
19534	20.491	2.	5.e-002	5.347e-006
19535	20.491	2.2727	0.	-58.159
19536	20.583	2.1818	0.	-50.269
19537	20.491	2.1818	5.e-002	5.0576e-006
19538	20.491	2.4545	0.	-62.93
19539	20.583	2.3636	0.	-55.188
19540	20.491	2.3636	5.e-002	5.2968e-006
19541	20.491	2.6364	0.	-66.477
19542	20.583	2.5455	0.	-59.057
19543	20.491	2.5455	5.e-002	5.3211e-006
19544	20.491	2.8182	0.	-68.661
19545	20.583	2.7273	0.	-61.724
19546	20.491	2.7273	5.e-002	5.5046e-006
19547	20.491	3.	0.	-69.398
19548	20.583	2.9091	0.	-63.084
19549	20.491	2.9091	5.e-002	4.0844e-006
19550	20.491	3.1818	0.	-68.661
19551	20.583	3.0909	0.	-63.084
19552	20.491	3.0909	5.e-002	3.5621e-006
19553	20.491	3.3636	0.	-66.477
19554	20.583	3.2727	0.	-61.724
19555	20.491	3.2727	5.e-002	4.1313e-006
19556	20.491	3.5455	0.	-62.93
19557	20.583	3.4545	0.	-59.057
19558	20.491	3.4545	5.e-002	5.2011e-006
19559	20.491	3.7273	0.	-58.159
19560	20.583	3.6364	0.	-55.188
19561	20.491	3.6364	5.e-002	5.8251e-006
19562	20.491	3.9091	0.	-52.349
19563	20.583	3.8182	0.	-50.269
19564	20.491	3.8182	5.e-002	5.819e-006
19565	20.491	4.0909	0.	-45.729
19566	20.583	4.	0.	-44.495
19567	20.491	4.	5.e-002	6.4566e-006
19568	20.491	4.2727	0.	-38.558
19569	20.583	4.1818	0.	-38.094
19570	20.491	4.1818	5.e-002	5.1147e-006
19571	20.491	4.4545	0.	-31.115
19572	20.583	4.3636	0.	-31.318
19573	20.491	4.3636	5.e-002	8.4152e-006
19574	20.491	4.6364	0.	-23.683
19575	20.583	4.5455	0.	-24.426
19576	20.491	4.5455	5.e-002	7.3491e-006
19577	20.491	4.8182	0.	-16.534
19578	20.583	4.7273	0.	-17.674
19579	20.491	4.7273	5.e-002	8.4949e-006
19580	20.491	5.	0.	-9.9148
19581	20.583	4.9091	0.	-11.301
19582	20.491	4.9091	5.e-002	9.0482e-006
19583	20.491	5.1818	0.	-4.0384
19584	20.583	5.0909	0.	-5.5139
19585	20.491	5.0909	5.e-002	8.2248e-006
19586	20.491	5.3636	0.	-1.6325e-002
19587	20.583	5.2727	0.	-0.52983
19588	20.491	5.2727	5.e-002	8.5719e-006
19589	20.491	5.5455	0.	1.1457e-002
19590	20.583	5.4545	0.	1.5867e-002
19591	20.491	5.4545	5.e-002	8.6166e-006
19592	20.491	5.7273	0.	1.3866e-003
19593	20.583	5.6364	0.	6.9745e-003
19594	20.491	5.6364	5.e-002	8.8589e-006
19595	20.583	5.8182	0.	-3.921e-004
19596	20.491	5.8182	5.e-002	6.6988e-006
19597	20.491	5.9091	0.	2.3237e-002
19598	20.676	0.27273	0.	1.4033e-003
19599	20.768	0.18182	0.	-4.6809e-004
19600	20.676	0.18182	5.e-002	5.5563e-006
19601	20.676	9.0909e-002	0.	1.8823e-002
19602	20.676	0.45455	0.	1.2515e-002
19603	20.768	0.36364	0.	5.8015e-003
19604	20.676	0.36364	5.e-002	5.8473e-006
19605	20.676	0.63636	0.	1.6807e-002
19606	20.768	0.54545	0.	1.7674e-002
19607	20.676	0.54545	5.e-002	5.8294e-006
19608	20.676	0.81818	0.	-1.9972
19609	20.768	0.72727	0.	1.5753e-002
19610	20.676	0.72727	5.e-002	6.0075e-006
19611	20.676	1.	0.	-6.9312
19612	20.768	0.90909	0.	-2.8825
19613	20.676	0.90909	5.e-002	5.1686e-006
19614	20.676	1.1818	0.	-12.468
19615	20.768	1.0909	0.	-7.6685
19616	20.676	1.0909	5.e-002	5.172e-006
19617	20.676	1.3636	0.	-18.44
19618	20.768	1.2727	0.	-12.934
19619	20.676	1.2727	5.e-002	4.1448e-006
19620	20.676	1.5455	0.	-24.647
19621	20.768	1.4545	0.	-18.514
19622	20.676	1.4545	5.e-002	4.2451e-006
19623	20.676	1.7273	0.	-30.868
19624	20.768	1.6364	0.	-24.218
19625	20.676	1.6364	5.e-002	4.1156e-006
19626	20.676	1.9091	0.	-36.871
19627	20.768	1.8182	0.	-29.836
19628	20.676	1.8182	5.e-002	3.4395e-006
19629	20.676	2.0909	0.	-42.422
19630	20.768	2.	0.	-35.154
19631	20.676	2.	5.e-002	4.0724e-006
19632	20.676	2.2727	0.	-47.303
19633	20.768	2.1818	0.	-39.961
19634	20.676	2.1818	5.e-002	4.0577e-006
19635	20.676	2.4545	0.	-51.319
19636	20.768	2.3636	0.	-44.065
19637	20.676	2.3636	5.e-002	4.1986e-006
19638	20.676	2.6364	0.	-54.308
19639	20.768	2.5455	0.	-47.299
19640	20.676	2.5455	5.e-002	4.5402e-006
19641	20.676	2.8182	0.	-56.15
19642	20.768	2.7273	0.	-49.531
19643	20.676	2.7273	5.e-002	3.8036e-006
19644	20.676	3.	0.	-56.773
19645	20.768	2.9091	0.	-50.671
19646	20.676	2.9091	5.e-002	4.3053e-006
19647	20.676	3.1818	0.	-56.15
19648	20.768	3.0909	0.	-50.671
19649	20.676	3.0909	5.e-002	3.3368e-006
19650	20.676	3.3636	0.	-54.308
19651	20.768	3.2727	0.	-49.531
19652	20.676	3.2727	5.e-002	3.9189e-006
19653	20.676	3.5455	0.	-51.319
19654	20.768	3.4545	0.	-47.299
19655	20.676	3.4545	5.e-002	4.701e-006
19656	20.676	3.7273	0.	-47.303
19657	20.768	3.6364	0.	-44.065
19658	20.676	3.6364	5.e-002	5.381e-006
19659	20.676	3.9091	0.	-42.422
19660	20.768	3.8182	0.	-39.961
19661	20.676	3.8182	5.e-002	6.7163e-006
19662	20.676	4.0909	0.	-36.871
19663	20.768	4.	0.	-35.154
19664	20.676	4.	5.e-002	5.749e-006
19665	20.676	4.2727	0.	-30.868
19666	20.768	4.1818	0.	-29.836
19667	20.676	4.1818	5.e-002	5.1435e-006
19668	20.676	4.4545	0.	-24.647
19669	20.768	4.3636	0.	-24.218
19670	20.676	4.3636	5.e-002	8.2225e-006
19671	20.676	4.6364	0.	-18.44
19672	20.768	4.5455	0.	-18.514
19673	20.676	4.5455	5.e-002	7.5088e-006
19674	20.676	4.8182	0.	-12.468
19675	20.768	4.7273	0.	-12.934
19676	20.676	4.7273	5.e-002	8.7391e-006
19677	20.676	5.	0.	-6.9311
19678	20.768	4.9091	0.	-7.6684
19679	20.676	4.9091	5.e-002	8.3775e-006
19680	20.676	5.1818	0.	-1.9971
19681	20.768	5.0909	0.	-2.8824
19682	20.676	5.0909	5.e-002	7.3278e-006
19683	20.676	5.3636	0.	1.6806e-002
19684	20.768	5.2727	0.	1.5752e-002
19685	20.676	5.2727	5.e-002	8.4594e-006
19686	20.676	5.5455	0.	1.2516e-002
19687	20.768	5.4545	0.	1.7674e-002
19688	20.676	5.4545	5.e-002	7.9409e-006
19689	20.676	5.7273	0.	1.4043e-003
19690	20.768	5.6364	0.	5.8027e-003
19691	20.676	5.6364	5.e-002	8.3985e-006
19692	20.768	5.8182	0.	-4.6768e-004
19693	20.676	5.8182	5.e-002	6.5034e-006
19694	20.676	5.9091	0.	1.8823e-002
19695	20.86	0.27273	0.	2.925e-004
19696	20.953	0.18182	0.	-9.5119e-004
19697	20.86	0.18182	5.e-002	6.9697e-006
19698	20.86	9.0909e-002	0.	1.5279e-002
19699	20.86	0.45455	0.	1.0972e-002
19700	20.953	0.36364	0.	3.1243e-003
19701	20.86	0.36364	5.e-002	8.9219e-006
19702	20.86	0.63636	0.	1.9866e-002
19703	20.953	0.54545	0.	1.6253e-002
19704	20.86	0.54545	5.e-002	6.1583e-006
19705	20.86	0.81818	0.	6.3039e-003
19706	20.953	0.72727	0.	2.1839e-002
19707	20.86	0.72727	5.e-002	4.5426e-006
19708	20.86	1.	0.	-3.6517
19709	20.953	0.90909	0.	-3.9452e-002
19710	20.86	0.90909	5.e-002	3.931e-006
19711	20.86	1.1818	0.	-8.1622
19712	20.953	1.0909	0.	-3.7764
19713	20.86	1.0909	5.e-002	2.5176e-006
19714	20.86	1.3636	0.	-13.032
19715	20.953	1.2727	0.	-7.9965
19716	20.86	1.2727	5.e-002	2.481e-006
19717	20.86	1.5455	0.	-18.104
19718	20.953	1.4545	0.	-12.484
19719	20.86	1.4545	5.e-002	2.7421e-006
19720	20.86	1.7273	0.	-23.2
19721	20.953	1.6364	0.	-17.089
19722	20.86	1.6364	5.e-002	2.9232e-006
19723	20.86	1.9091	0.	-28.129
19724	20.953	1.8182	0.	-21.641
19725	20.86	1.8182	5.e-002	2.3322e-006
19726	20.86	2.0909	0.	-32.7
19727	20.953	2.	0.	-25.965
19728	20.86	2.	5.e-002	2.6351e-006
19729	20.86	2.2727	0.	-36.728
19730	20.953	2.1818	0.	-29.887
19731	20.86	2.1818	5.e-002	3.1459e-006
19732	20.86	2.4545	0.	-40.049
19733	20.953	2.3636	0.	-33.244
19734	20.86	2.3636	5.e-002	2.843e-006
19735	20.86	2.6364	0.	-42.525
19736	20.953	2.5455	0.	-35.895
19737	20.86	2.5455	5.e-002	3.1566e-006
19738	20.86	2.8182	0.	-44.054
19739	20.953	2.7273	0.	-37.728
19740	20.86	2.7273	5.e-002	2.7475e-006
19741	20.86	3.	0.	-44.571
19742	20.953	2.9091	0.	-38.665
19743	20.86	2.9091	5.e-002	3.1518e-006
19744	20.86	3.1818	0.	-44.054
19745	20.953	3.0909	0.	-38.665
19746	20.86	3.0909	5.e-002	3.0518e-006
19747	20.86	3.3636	0.	-42.525
19748	20.953	3.2727	0.	-37.728
19749	20.86	3.2727	5.e-002	3.5043e-006
19750	20.86	3.5455	0.	-40.049
19751	20.953	3.4545	0.	-35.895
19752	20.86	3.4545	5.e-002	3.2228e-006
19753	20.86	3.7273	0.	-36.728
19754	20.953	3.6364	0.	-33.243
19755	20.86	3.6364	5.e-002	5.1164e-006
19756	20.86	3.9091	0.	-32.7
19757	20.953	3.8182	0.	-29.887
19758	20.86	3.8182	5.e-002	5.9027e-006
19759	20.86	4.0909	0.	-28.129
19760	20.953	4.	0.	-25.965
19761	20.86	4.	5.e-002	5.8364e-006
19762	20.86	4.2727	0.	-23.199
19763	20.953	4.1818	0.	-21.641
19764	20.86	4.1818	5.e-002	5.0305e-006
19765	20.86	4.4545	0.	-18.103
19766	20.953	4.3636	0.	-17.089
19767	20.86	4.3636	5.e-002	7.0904e-006
19768	20.86	4.6364	0.	-13.032
19769	20.953	4.5455	0.	-12.484
19770	20.86	4.5455	5.e-002	6.2865e-006
19771	20.86	4.8182	0.	-8.1621
19772	20.953	4.7273	0.	-7.9964
19773	20.86	4.7273	5.e-002	7.867e-006
19774	20.86	5.	0.	-3.6516
19775	20.953	4.9091	0.	-3.7763
19776	20.86	4.9091	5.e-002	8.0514e-006
19777	20.86	5.1818	0.	6.3053e-003
19778	20.953	5.0909	0.	-3.9413e-002
19779	20.86	5.0909	5.e-002	6.0756e-006
19780	20.86	5.3636	0.	1.9866e-002
19781	20.953	5.2727	0.	2.1839e-002
19782	20.86	5.2727	5.e-002	6.9059e-006
19783	20.86	5.5455	0.	1.0973e-002
19784	20.953	5.4545	0.	1.6255e-002
19785	20.86	5.4545	5.e-002	6.9541e-006
19786	20.86	5.7273	0.	2.9306e-004
19787	20.953	5.6364	0.	3.1256e-003
19788	20.86	5.6364	5.e-002	7.6805e-006
19789	20.953	5.8182	0.	-9.5061e-004
19790	20.86	5.8182	5.e-002	5.4949e-006
19791	20.86	5.9091	0.	1.528e-002
19792	21.045	0.27273	0.	-1.709e-003
19793	21.137	0.18182	0.	-1.8744e-003
19794	21.045	0.18182	5.e-002	8.0567e-006
19795	21.045	9.0909e-002	0.	1.2577e-002
19796	21.045	0.45455	0.	8.2387e-003
19797	21.137	0.36364	0.	-4.8174e-004
19798	21.045	0.36364	5.e-002	8.8114e-006
19799	21.045	0.63636	0.	1.8308e-002
19800	21.137	0.54545	0.	1.3967e-002
19801	21.045	0.54545	5.e-002	7.3083e-006
19802	21.045	0.81818	0.	2.3783e-002
19803	21.137	0.72727	0.	2.0447e-002
19804	21.045	0.72727	5.e-002	4.1803e-006
19805	21.045	1.	0.	-0.13014
19806	21.137	0.90909	0.	2.5745e-002
19807	21.045	0.90909	5.e-002	2.3613e-006
19808	21.045	1.1818	0.	-3.6389
19809	21.137	1.0909	0.	1.7517e-002
19810	21.045	1.0909	5.e-002	3.2301e-006
19811	21.045	1.3636	0.	-7.4722
19812	21.137	1.2727	0.	-2.8767
19813	21.045	1.2727	5.e-002	2.5734e-006
19814	21.045	1.5455	0.	-11.488
19815	21.137	1.4545	0.	-6.3407
19816	21.045	1.4545	5.e-002	3.0321e-006
19817	21.045	1.7273	0.	-15.544
19818	21.137	1.6364	0.	-9.9247
19819	21.045	1.6364	5.e-002	3.1136e-006
19820	21.045	1.9091	0.	-19.487
19821	21.137	1.8182	0.	-13.494
19822	21.045	1.8182	5.e-002	2.4821e-006
19823	21.045	2.0909	0.	-23.159
19824	21.137	2.	0.	-16.906
19825	21.045	2.	5.e-002	2.9149e-006
19826	21.045	2.2727	0.	-26.407
19827	21.137	2.1818	0.	-20.017
19828	21.045	2.1818	5.e-002	3.9212e-006
19829	21.045	2.4545	0.	-29.093
19830	21.137	2.3636	0.	-22.691
19831	21.045	2.3636	5.e-002	3.7298e-006
19832	21.045	2.6364	0.	-31.101
19833	21.137	2.5455	0.	-24.81
19834	21.045	2.5455	5.e-002	4.0387e-006
19835	21.045	2.8182	0.	-32.341
19836	21.137	2.7273	0.	-26.279
19837	21.045	2.7273	5.e-002	3.6881e-006
19838	21.045	3.	0.	-32.761
19839	21.137	2.9091	0.	-27.03
19840	21.045	2.9091	5.e-002	4.4187e-006
19841	21.045	3.1818	0.	-32.341
19842	21.137	3.0909	0.	-27.03
19843	21.045	3.0909	5.e-002	3.4533e-006
19844	21.045	3.3636	0.	-31.101
19845	21.137	3.2727	0.	-26.279
19846	21.045	3.2727	5.e-002	4.2268e-006
19847	21.045	3.5455	0.	-29.093
19848	21.137	3.4545	0.	-24.81
19849	21.045	3.4545	5.e-002	5.138e-006
19850	21.045	3.7273	0.	-26.407
19851	21.137	3.6364	0.	-22.691
19852	21.045	3.6364	5.e-002	5.6097e-006
19853	21.045	3.9091	0.	-23.159
19854	21.137	3.8182	0.	-20.017
19855	21.045	3.8182	5.e-002	7.1422e-006
19856	21.045	4.0909	0.	-19.487
19857	21.137	4.	0.	-16.906
19858	21.045	4.	5.e-002	6.9408e-006
19859	21.045	4.2727	0.	-15.544
19860	21.137	4.1818	0.	-13.494
19861	21.045	4.1818	5.e-002	5.8828e-006
19862	21.045	4.4545	0.	-11.488
19863	21.137	4.3636	0.	-9.9247
19864	21.045	4.3636	5.e-002	8.2506e-006
19865	21.045	4.6364	0.	-7.4722
19866	21.137	4.5455	0.	-6.3407
19867	21.045	4.5455	5.e-002	7.0088e-006
19868	21.045	4.8182	0.	-3.6388
19869	21.137	4.7273	0.	-2.8766
19870	21.045	4.7273	5.e-002	8.3042e-006
19871	21.045	5.	0.	-0.13005
19872	21.137	4.9091	0.	1.7518e-002
19873	21.045	4.9091	5.e-002	8.8637e-006
19874	21.045	5.1818	0.	2.3782e-002
19875	21.137	5.0909	0.	2.5742e-002
19876	21.045	5.0909	5.e-002	6.9544e-006
19877	21.045	5.3636	0.	1.831e-002
19878	21.137	5.2727	0.	2.0447e-002
19879	21.045	5.2727	5.e-002	8.1364e-006
19880	21.045	5.5455	0.	8.2409e-003
19881	21.137	5.4545	0.	1.3969e-002
19882	21.045	5.4545	5.e-002	7.774e-006
19883	21.045	5.7273	0.	-1.7079e-003
19884	21.137	5.6364	0.	-4.8064e-004
19885	21.045	5.6364	5.e-002	8.5649e-006
19886	21.137	5.8182	0.	-1.8745e-003
19887	21.045	5.8182	5.e-002	6.5403e-006
19888	21.045	5.9091	0.	1.2577e-002
19889	21.23	0.27273	0.	-4.4243e-003
19890	21.322	0.18182	0.	-3.2661e-003
19891	21.23	0.18182	5.e-002	6.594e-006
19892	21.23	9.0909e-002	0.	1.0601e-002
19893	21.23	0.45455	0.	5.0809e-003
19894	21.322	0.36364	0.	-4.6541e-003
19895	21.23	0.36364	5.e-002	8.4795e-006
19896	21.23	0.63636	0.	1.6192e-002
19897	21.322	0.54545	0.	1.1724e-002
19898	21.23	0.54545	5.e-002	7.9539e-006
19899	21.23	0.81818	0.	2.2536e-002
19900	21.322	0.72727	0.	1.8701e-002
19901	21.23	0.72727	5.e-002	5.9593e-006
19902	21.23	1.	0.	2.7286e-002
19903	21.322	0.90909	0.	2.4972e-002
19904	21.23	0.90909	5.e-002	3.739e-006
19905	21.23	1.1818	0.	2.7805e-002
19906	21.322	1.0909	0.	2.8979e-002
19907	21.23	1.0909	5.e-002	3.0117e-006
19908	21.23	1.3636	0.	-1.7695
19909	21.322	1.2727	0.	3.0584e-002
19910	21.23	1.2727	5.e-002	1.3982e-006
19911	21.23	1.5455	0.	-4.7961
19912	21.322	1.4545	0.	-0.12566
19913	21.23	1.4545	5.e-002	2.2456e-006
19914	21.23	1.7273	0.	-7.8888
19915	21.322	1.6364	0.	-2.7155
19916	21.23	1.6364	5.e-002	2.7103e-006
19917	21.23	1.9091	0.	-10.923
19918	21.322	1.8182	0.	-5.3748
19919	21.23	1.8182	5.e-002	2.0893e-006
19920	21.23	2.0909	0.	-13.771
19921	21.322	2.	0.	-7.9475
19922	21.23	2.	5.e-002	3.0006e-006
19923	21.23	2.2727	0.	-16.306
19924	21.322	2.1818	0.	-10.315
19925	21.23	2.1818	5.e-002	3.6492e-006
19926	21.23	2.4545	0.	-18.412
19927	21.322	2.3636	0.	-12.366
19928	21.23	2.3636	5.e-002	3.6767e-006
19929	21.23	2.6364	0.	-19.992
19930	21.322	2.5455	0.	-14.
19931	21.23	2.5455	5.e-002	4.5317e-006
19932	21.23	2.8182	0.	-20.97
19933	21.322	2.7273	0.	-15.137
19934	21.23	2.7273	5.e-002	3.7364e-006
19935	21.23	3.	0.	-21.302
19936	21.322	2.9091	0.	-15.72
19937	21.23	2.9091	5.e-002	4.7515e-006
19938	21.23	3.1818	0.	-20.97
19939	21.322	3.0909	0.	-15.72
19940	21.23	3.0909	5.e-002	3.835e-006
19941	21.23	3.3636	0.	-19.992
19942	21.322	3.2727	0.	-15.137
19943	21.23	3.2727	5.e-002	4.8809e-006
19944	21.23	3.5455	0.	-18.412
19945	21.322	3.4545	0.	-14.
19946	21.23	3.4545	5.e-002	5.5521e-006
19947	21.23	3.7273	0.	-16.306
19948	21.322	3.6364	0.	-12.366
19949	21.23	3.6364	5.e-002	6.5421e-006
19950	21.23	3.9091	0.	-13.771
19951	21.322	3.8182	0.	-10.315
19952	21.23	3.8182	5.e-002	7.6523e-006
19953	21.23	4.0909	0.	-10.923
19954	21.322	4.	0.	-7.9475
19955	21.23	4.	5.e-002	7.4658e-006
19956	21.23	4.2727	0.	-7.8887
19957	21.322	4.1818	0.	-5.3748
19958	21.23	4.1818	5.e-002	6.6685e-006
19959	21.23	4.4545	0.	-4.7961
19960	21.322	4.3636	0.	-2.7155
19961	21.23	4.3636	5.e-002	9.0047e-006
19962	21.23	4.6364	0.	-1.7694
19963	21.322	4.5455	0.	-0.1256
19964	21.23	4.5455	5.e-002	7.5959e-006
19965	21.23	4.8182	0.	2.7803e-002
19966	21.322	4.7273	0.	3.0585e-002
19967	21.23	4.7273	5.e-002	9.0919e-006
19968	21.23	5.	0.	2.7283e-002
19969	21.322	4.9091	0.	2.8978e-002
19970	21.23	4.9091	5.e-002	8.8029e-006
19971	21.23	5.1818	0.	2.2533e-002
19972	21.322	5.0909	0.	2.4971e-002
19973	21.23	5.0909	5.e-002	6.8656e-006
19974	21.23	5.3636	0.	1.6193e-002
19975	21.322	5.2727	0.	1.8698e-002
19976	21.23	5.2727	5.e-002	8.2297e-006
19977	21.23	5.5455	0.	5.0821e-003
19978	21.322	5.4545	0.	1.1728e-002
19979	21.23	5.4545	5.e-002	7.9956e-006
19980	21.23	5.7273	0.	-4.4246e-003
19981	21.322	5.6364	0.	-4.6535e-003
19982	21.23	5.6364	5.e-002	8.9876e-006
19983	21.322	5.8182	0.	-3.2664e-003
19984	21.23	5.8182	5.e-002	7.1848e-006
19985	21.23	5.9091	0.	1.0602e-002
19986	21.414	0.27273	0.	-7.7139e-003
19987	21.507	0.18182	0.	-5.1474e-003
19988	21.414	0.18182	5.e-002	7.3077e-006
19989	21.414	9.0909e-002	0.	9.2591e-003
19990	21.414	0.45455	0.	1.8659e-003
19991	21.507	0.36364	0.	-9.1818e-003
19992	21.414	0.36364	5.e-002	6.0854e-006
19993	21.414	0.63636	0.	1.4397e-002
19994	21.507	0.54545	0.	9.844e-003
19995	21.414	0.54545	5.e-002	4.7902e-006
19996	21.414	0.81818	0.	2.1353e-002
19997	21.507	0.72727	0.	1.7406e-002
19998	21.414	0.72727	5.e-002	4.9384e-006
19999	21.414	1.	0.	2.6885e-002
20000	21.507	0.90909	0.	2.4419e-002
20001	21.414	0.90909	5.e-002	3.4304e-006
20002	21.414	1.1818	0.	3.0497e-002
20003	21.507	1.0909	0.	2.9106e-002
20004	21.414	1.0909	5.e-002	1.626e-006
20005	21.414	1.3636	0.	3.2398e-002
20006	21.507	1.2727	0.	3.2253e-002
20007	21.414	1.2727	5.e-002	2.6148e-007
20008	21.414	1.5455	0.	3.1536e-002
20009	21.507	1.4545	0.	3.3997e-002
20010	21.414	1.4545	5.e-002	5.3948e-007
20011	21.414	1.7273	0.	-0.24423
20012	21.507	1.6364	0.	3.4515e-002
20013	21.414	1.6364	5.e-002	1.1759e-006
20014	21.414	1.9091	0.	-2.4112
20015	21.507	1.8182	0.	3.3524e-002
20016	21.414	1.8182	5.e-002	5.2607e-007
20017	21.414	2.0909	0.	-4.5003
20018	21.507	2.	0.	2.6704e-002
20019	21.414	2.	5.e-002	1.4186e-006
20020	21.414	2.2727	0.	-6.382
20021	21.507	2.1818	0.	-0.75183
20022	21.414	2.1818	5.e-002	2.4035e-006
20023	21.414	2.4545	0.	-7.9592
20024	21.507	2.3636	0.	-2.2258
20025	21.414	2.3636	5.e-002	2.9413e-006
20026	21.414	2.6364	0.	-9.1496
20027	21.507	2.5455	0.	-3.4169
20028	21.414	2.5455	5.e-002	3.5969e-006
20029	21.414	2.8182	0.	-9.8901
20030	21.507	2.7273	0.	-4.2517
20031	21.414	2.7273	5.e-002	3.1393e-006
20032	21.414	3.	0.	-10.141
20033	21.507	2.9091	0.	-4.6816
20034	21.414	2.9091	5.e-002	3.637e-006
20035	21.414	3.1818	0.	-9.8901
20036	21.507	3.0909	0.	-4.6816
20037	21.414	3.0909	5.e-002	3.8758e-006
20038	21.414	3.3636	0.	-9.1496
20039	21.507	3.2727	0.	-4.2517
20040	21.414	3.2727	5.e-002	5.0459e-006
20041	21.414	3.5455	0.	-7.9592
20042	21.507	3.4545	0.	-3.4169
20043	21.414	3.4545	5.e-002	5.4106e-006
20044	21.414	3.7273	0.	-6.382
20045	21.507	3.6364	0.	-2.2258
20046	21.414	3.6364	5.e-002	6.8911e-006
20047	21.414	3.9091	0.	-4.5003
20048	21.507	3.8182	0.	-0.7518
20049	21.414	3.8182	5.e-002	8.0607e-006
20050	21.414	4.0909	0.	-2.4112
20051	21.507	4.	0.	2.6706e-002
20052	21.414	4.	5.e-002	7.6949e-006
20053	21.414	4.2727	0.	-0.24417
20054	21.507	4.1818	0.	3.3524e-002
20055	21.414	4.1818	5.e-002	7.0108e-006
20056	21.414	4.4545	0.	3.1537e-002
20057	21.507	4.3636	0.	3.4516e-002
20058	21.414	4.3636	5.e-002	9.6271e-006
20059	21.414	4.6364	0.	3.2398e-002
20060	21.507	4.5455	0.	3.3996e-002
20061	21.414	4.5455	5.e-002	7.5988e-006
20062	21.414	4.8182	0.	3.0497e-002
20063	21.507	4.7273	0.	3.2254e-002
20064	21.414	4.7273	5.e-002	9.2407e-006
20065	21.414	5.	0.	2.6886e-002
20066	21.507	4.9091	0.	2.9105e-002
20067	21.414	4.9091	5.e-002	9.1198e-006
20068	21.414	5.1818	0.	2.1352e-002
20069	21.507	5.0909	0.	2.4418e-002
20070	21.414	5.0909	5.e-002	7.1776e-006
20071	21.414	5.3636	0.	1.4398e-002
20072	21.507	5.2727	0.	1.7402e-002
20073	21.414	5.2727	5.e-002	7.9492e-006
20074	21.414	5.5455	0.	1.8689e-003
20075	21.507	5.4545	0.	9.8471e-003
20076	21.414	5.4545	5.e-002	7.9178e-006
20077	21.414	5.7273	0.	-7.7135e-003
20078	21.507	5.6364	0.	-9.18e-003
20079	21.414	5.6364	5.e-002	8.4571e-006
20080	21.507	5.8182	0.	-5.1472e-003
20081	21.414	5.8182	5.e-002	6.1752e-006
20082	21.414	5.9091	0.	9.258e-003
20083	21.599	0.27273	0.	-1.1489e-002
20084	21.691	0.18182	0.	-7.5569e-003
20085	21.599	0.18182	5.e-002	2.9982e-006
20086	21.599	9.0909e-002	0.	8.4644e-003
20087	21.599	0.45455	0.	-1.2434e-003
20088	21.691	0.36364	0.	-1.3947e-002
20089	21.599	0.36364	5.e-002	4.1494e-006
20090	21.599	0.63636	0.	1.3126e-002
20091	21.691	0.54545	0.	8.4325e-003
20092	21.599	0.54545	5.e-002	1.1845e-006
20093	21.599	0.81818	0.	2.0767e-002
20094	21.691	0.72727	0.	1.6713e-002
20095	21.599	0.72727	5.e-002	2.8612e-006
20096	21.599	1.	0.	2.6925e-002
20097	21.691	0.90909	0.	2.4517e-002
20098	21.599	0.90909	5.e-002	3.953e-006
20099	21.599	1.1818	0.	3.1102e-002
20100	21.691	1.0909	0.	2.9726e-002
20101	21.599	1.0909	5.e-002	2.0168e-006
20102	21.599	1.3636	0.	3.3867e-002
20103	21.691	1.2727	0.	3.3387e-002
20104	21.599	1.2727	5.e-002	6.2908e-007
20105	21.599	1.5455	0.	3.5505e-002
20106	21.691	1.4545	0.	3.5745e-002
20107	21.599	1.4545	5.e-002	5.4156e-007
20108	21.599	1.7273	0.	3.6327e-002
20109	21.691	1.6364	0.	3.7185e-002
20110	21.599	1.6364	5.e-002	1.6164e-006
20111	21.599	1.9091	0.	3.6597e-002
20112	21.691	1.8182	0.	3.7996e-002
20113	21.599	1.8182	5.e-002	9.7127e-007
20114	21.599	2.0909	0.	3.6548e-002
20115	21.691	2.	0.	3.843e-002
20116	21.599	2.	5.e-002	1.7795e-006
20117	21.599	2.2727	0.	3.6396e-002
20118	21.691	2.1818	0.	3.8679e-002
20119	21.599	2.1818	5.e-002	2.589e-006
20120	21.599	2.4545	0.	3.6358e-002
20121	21.691	2.3636	0.	3.8881e-002
20122	21.599	2.3636	5.e-002	3.2875e-006
20123	21.599	2.6364	0.	3.6681e-002
20124	21.691	2.5455	0.	3.9098e-002
20125	21.599	2.5455	5.e-002	3.9112e-006
20126	21.599	2.8182	0.	3.7524e-002
20127	21.691	2.7273	0.	3.9314e-002
20128	21.599	2.7273	5.e-002	3.4438e-006
20129	21.599	3.	0.	3.8166e-002
20130	21.691	2.9091	0.	3.9458e-002
20131	21.599	2.9091	5.e-002	4.6862e-006
20132	21.599	3.1818	0.	3.7524e-002
20133	21.691	3.0909	0.	3.9456e-002
20134	21.599	3.0909	5.e-002	4.5537e-006
20135	21.599	3.3636	0.	3.6683e-002
20136	21.691	3.2727	0.	3.9315e-002
20137	21.599	3.2727	5.e-002	5.9469e-006
20138	21.599	3.5455	0.	3.6359e-002
20139	21.691	3.4545	0.	3.9098e-002
20140	21.599	3.4545	5.e-002	6.5597e-006
20141	21.599	3.7273	0.	3.6396e-002
20142	21.691	3.6364	0.	3.888e-002
20143	21.599	3.6364	5.e-002	7.51e-006
20144	21.599	3.9091	0.	3.6548e-002
20145	21.691	3.8182	0.	3.8679e-002
20146	21.599	3.8182	5.e-002	8.7873e-006
20147	21.599	4.0909	0.	3.6597e-002
20148	21.691	4.	0.	3.843e-002
20149	21.599	4.	5.e-002	8.7237e-006
20150	21.599	4.2727	0.	3.6327e-002
20151	21.691	4.1818	0.	3.7997e-002
20152	21.599	4.1818	5.e-002	7.9496e-006
20153	21.599	4.4545	0.	3.5504e-002
20154	21.691	4.3636	0.	3.7185e-002
20155	21.599	4.3636	5.e-002	1.0144e-005
20156	21.599	4.6364	0.	3.3867e-002
20157	21.691	4.5455	0.	3.5744e-002
20158	21.599	4.5455	5.e-002	8.5631e-006
20159	21.599	4.8182	0.	3.1102e-002
20160	21.691	4.7273	0.	3.3387e-002
20161	21.599	4.7273	5.e-002	1.0093e-005
20162	21.599	5.	0.	2.6923e-002
20163	21.691	4.9091	0.	2.9725e-002
20164	21.599	4.9091	5.e-002	9.8073e-006
20165	21.599	5.1818	0.	2.0763e-002
20166	21.691	5.0909	0.	2.4516e-002
20167	21.599	5.0909	5.e-002	7.8274e-006
20168	21.599	5.3636	0.	1.3124e-002
20169	21.691	5.2727	0.	1.6711e-002
20170	21.599	5.2727	5.e-002	9.0671e-006
20171	21.599	5.5455	0.	-1.2414e-003
20172	21.691	5.4545	0.	8.4353e-003
20173	21.599	5.4545	5.e-002	8.5075e-006
20174	21.599	5.7273	0.	-1.1487e-002
20175	21.691	5.6364	0.	-1.3945e-002
20176	21.599	5.6364	5.e-002	9.2188e-006
20177	21.691	5.8182	0.	-7.556e-003
20178	21.599	5.8182	5.e-002	7.4585e-006
20179	21.599	5.9091	0.	8.4641e-003
20180	21.784	0.27273	0.	-1.5705e-002
20181	21.876	0.18182	0.	-1.0568e-002
20182	21.784	0.18182	5.e-002	2.5607e-006
20183	21.784	9.0909e-002	0.	8.1814e-003
20184	21.784	0.45455	0.	-4.1726e-003
20185	21.876	0.36364	0.	-1.8889e-002
20186	21.784	0.36364	5.e-002	1.9209e-007
20187	21.784	0.63636	0.	1.2437e-002
20188	21.876	0.54545	0.	7.5388e-003
20189	21.784	0.54545	5.e-002	2.2068e-006
20190	21.784	0.81818	0.	2.086e-002
20191	21.876	0.72727	0.	1.6679e-002
20192	21.784	0.72727	5.e-002	-1.104e-007
20193	21.784	1.	0.	2.7666e-002
20194	21.876	0.90909	0.	2.5354e-002
20195	21.784	0.90909	5.e-002	-1.4484e-006
20196	21.784	1.1818	0.	3.2306e-002
20197	21.876	1.0909	0.	3.1077e-002
20198	21.784	1.0909	5.e-002	-2.4891e-006
20199	21.784	1.3636	0.	3.5496e-002
20200	21.876	1.2727	0.	3.5162e-002
20201	21.784	1.2727	5.e-002	-1.9788e-006
20202	21.784	1.5455	0.	3.7567e-002
20203	21.876	1.4545	0.	3.7883e-002
20204	21.784	1.4545	5.e-002	-1.1416e-006
20205	21.784	1.7273	0.	3.8863e-002
20206	21.876	1.6364	0.	3.9664e-002
20207	21.784	1.6364	5.e-002	1.4533e-007
20208	21.784	1.9091	0.	3.9641e-002
20209	21.876	1.8182	0.	4.0788e-002
20210	21.784	1.8182	5.e-002	-4.1305e-007
20211	21.784	2.0909	0.	4.0103e-002
20212	21.876	2.	0.	4.1482e-002
20213	21.784	2.	5.e-002	2.7364e-007
20214	21.784	2.2727	0.	4.0391e-002
20215	21.876	2.1818	0.	4.1906e-002
20216	21.784	2.1818	5.e-002	1.6086e-006
20217	21.784	2.4545	0.	4.0591e-002
20218	21.876	2.3636	0.	4.2175e-002
20219	21.784	2.3636	5.e-002	2.021e-006
20220	21.784	2.6364	0.	4.074e-002
20221	21.876	2.5455	0.	4.2349e-002
20222	21.784	2.5455	5.e-002	3.0674e-006
20223	21.784	2.8182	0.	4.0839e-002
20224	21.876	2.7273	0.	4.2459e-002
20225	21.784	2.7273	5.e-002	2.3904e-006
20226	21.784	3.	0.	4.0874e-002
20227	21.876	2.9091	0.	4.2513e-002
20228	21.784	2.9091	5.e-002	4.06e-006
20229	21.784	3.1818	0.	4.0838e-002
20230	21.876	3.0909	0.	4.2512e-002
20231	21.784	3.0909	5.e-002	3.5695e-006
20232	21.784	3.3636	0.	4.0739e-002
20233	21.876	3.2727	0.	4.2458e-002
20234	21.784	3.2727	5.e-002	5.1228e-006
20235	21.784	3.5455	0.	4.0589e-002
20236	21.876	3.4545	0.	4.2347e-002
20237	21.784	3.4545	5.e-002	5.2909e-006
20238	21.784	3.7273	0.	4.039e-002
20239	21.876	3.6364	0.	4.2174e-002
20240	21.784	3.6364	5.e-002	6.9522e-006
20241	21.784	3.9091	0.	4.0103e-002
20242	21.876	3.8182	0.	4.1908e-002
20243	21.784	3.8182	5.e-002	8.556e-006
20244	21.784	4.0909	0.	3.9641e-002
20245	21.876	4.	0.	4.1481e-002
20246	21.784	4.	5.e-002	8.1149e-006
20247	21.784	4.2727	0.	3.8864e-002
20248	21.876	4.1818	0.	4.0787e-002
20249	21.784	4.1818	5.e-002	7.7367e-006
20250	21.784	4.4545	0.	3.7568e-002
20251	21.876	4.3636	0.	3.9664e-002
20252	21.784	4.3636	5.e-002	9.8035e-006
20253	21.784	4.6364	0.	3.5495e-002
20254	21.876	4.5455	0.	3.7883e-002
20255	21.784	4.5455	5.e-002	8.2238e-006
20256	21.784	4.8182	0.	3.2304e-002
20257	21.876	4.7273	0.	3.5159e-002
20258	21.784	4.7273	5.e-002	9.3806e-006
20259	21.784	5.	0.	2.7666e-002
20260	21.876	4.9091	0.	3.1077e-002
20261	21.784	4.9091	5.e-002	9.688e-006
20262	21.784	5.1818	0.	2.086e-002
20263	21.876	5.0909	0.	2.5353e-002
20264	21.784	5.0909	5.e-002	7.6629e-006
20265	21.784	5.3636	0.	1.2439e-002
20266	21.876	5.2727	0.	1.6679e-002
20267	21.784	5.2727	5.e-002	8.6694e-006
20268	21.784	5.5455	0.	-4.1702e-003
20269	21.876	5.4545	0.	7.5414e-003
20270	21.784	5.4545	5.e-002	8.2946e-006
20271	21.784	5.7273	0.	-1.5704e-002
20272	21.876	5.6364	0.	-1.889e-002
20273	21.784	5.6364	5.e-002	8.4115e-006
20274	21.876	5.8182	0.	-1.0567e-002
20275	21.784	5.8182	5.e-002	6.3034e-006
20276	21.784	5.9091	0.	8.1819e-003
20277	21.968	0.27273	0.	-2.037e-002
20278	22.061	0.18182	0.	-1.4289e-002
20279	21.968	0.18182	5.e-002	4.0361e-007
20280	21.968	9.0909e-002	0.	8.4039e-003
20281	21.968	0.45455	0.	-6.877e-003
20282	22.061	0.36364	0.	-2.3973e-002
20283	21.968	0.36364	5.e-002	8.328e-008
20284	21.968	0.63636	0.	1.238e-002
20285	22.061	0.54545	0.	7.2314e-003
20286	21.968	0.54545	5.e-002	2.5096e-006
20287	21.968	0.81818	0.	2.1693e-002
20288	22.061	0.72727	0.	1.7385e-002
20289	21.968	0.72727	5.e-002	-4.2785e-008
20290	21.968	1.	0.	2.9194e-002
20291	22.061	0.90909	0.	2.7026e-002
20292	21.968	0.90909	5.e-002	-3.3463e-006
20293	21.968	1.1818	0.	3.4285e-002
20294	22.061	1.0909	0.	3.3282e-002
20295	21.968	1.0909	5.e-002	-3.4108e-006
20296	21.968	1.3636	0.	3.7838e-002
20297	22.061	1.2727	0.	3.7771e-002
20298	21.968	1.2727	5.e-002	-1.7387e-006
20299	21.968	1.5455	0.	4.0215e-002
20300	22.061	1.4545	0.	4.0802e-002
20301	21.968	1.4545	5.e-002	-6.9011e-008
20302	21.968	1.7273	0.	4.1776e-002
20303	22.061	1.6364	0.	4.2843e-002
20304	21.968	1.6364	5.e-002	8.6362e-007
20305	21.968	1.9091	0.	4.2775e-002
20306	22.061	1.8182	0.	4.4182e-002
20307	21.968	1.8182	5.e-002	1.2743e-006
20308	21.968	2.0909	0.	4.3402e-002
20309	22.061	2.	0.	4.5045e-002
20310	21.968	2.	5.e-002	1.4019e-006
20311	21.968	2.2727	0.	4.3794e-002
20312	22.061	2.1818	0.	4.5595e-002
20313	21.968	2.1818	5.e-002	3.1432e-006
20314	21.968	2.4545	0.	4.4038e-002
20315	22.061	2.3636	0.	4.594e-002
20316	21.968	2.3636	5.e-002	3.6385e-006
20317	21.968	2.6364	0.	4.4187e-002
20318	22.061	2.5455	0.	4.6153e-002
20319	21.968	2.5455	5.e-002	4.7875e-006
20320	21.968	2.8182	0.	4.4268e-002
20321	22.061	2.7273	0.	4.6275e-002
20322	21.968	2.7273	5.e-002	4.2279e-006
20323	21.968	3.	0.	4.4294e-002
20324	22.061	2.9091	0.	4.6332e-002
20325	21.968	2.9091	5.e-002	6.0226e-006
20326	21.968	3.1818	0.	4.4267e-002
20327	22.061	3.0909	0.	4.6332e-002
20328	21.968	3.0909	5.e-002	5.66e-006
20329	21.968	3.3636	0.	4.4186e-002
20330	22.061	3.2727	0.	4.6274e-002
20331	21.968	3.2727	5.e-002	7.2167e-006
20332	21.968	3.5455	0.	4.4037e-002
20333	22.061	3.4545	0.	4.6152e-002
20334	21.968	3.4545	5.e-002	7.6114e-006
20335	21.968	3.7273	0.	4.3794e-002
20336	22.061	3.6364	0.	4.5939e-002
20337	21.968	3.6364	5.e-002	9.2439e-006
20338	21.968	3.9091	0.	4.3403e-002
20339	22.061	3.8182	0.	4.5595e-002
20340	21.968	3.8182	5.e-002	1.0688e-005
20341	21.968	4.0909	0.	4.2773e-002
20342	22.061	4.	0.	4.5046e-002
20343	21.968	4.	5.e-002	1.0765e-005
20344	21.968	4.2727	0.	4.1774e-002
20345	22.061	4.1818	0.	4.4181e-002
20346	21.968	4.1818	5.e-002	9.9357e-006
20347	21.968	4.4545	0.	4.0213e-002
20348	22.061	4.3636	0.	4.2842e-002
20349	21.968	4.3636	5.e-002	1.2005e-005
20350	21.968	4.6364	0.	3.7836e-002
20351	22.061	4.5455	0.	4.0802e-002
20352	21.968	4.5455	5.e-002	1.0751e-005
20353	21.968	4.8182	0.	3.4284e-002
20354	22.061	4.7273	0.	3.7769e-002
20355	21.968	4.7273	5.e-002	1.1397e-005
20356	21.968	5.	0.	2.9193e-002
20357	22.061	4.9091	0.	3.3282e-002
20358	21.968	4.9091	5.e-002	1.1973e-005
20359	21.968	5.1818	0.	2.1691e-002
20360	22.061	5.0909	0.	2.7024e-002
20361	21.968	5.0909	5.e-002	9.9697e-006
20362	21.968	5.3636	0.	1.238e-002
20363	22.061	5.2727	0.	1.7382e-002
20364	21.968	5.2727	5.e-002	1.1264e-005
20365	21.968	5.5455	0.	-6.8773e-003
20366	22.061	5.4545	0.	7.2315e-003
20367	21.968	5.4545	5.e-002	1.0983e-005
20368	21.968	5.7273	0.	-2.0371e-002
20369	22.061	5.6364	0.	-2.3973e-002
20370	21.968	5.6364	5.e-002	1.1134e-005
20371	22.061	5.8182	0.	-1.4288e-002
20372	21.968	5.8182	5.e-002	8.8643e-006
20373	21.968	5.9091	0.	8.4052e-003
20374	22.153	0.27273	0.	-2.5506e-002
20375	22.245	0.18182	0.	-1.8871e-002
20376	22.153	0.18182	5.e-002	-1.597e-006
20377	22.153	9.0909e-002	0.	9.2053e-003
20378	22.153	0.45455	0.	-9.2837e-003
20379	22.245	0.36364	0.	-2.9141e-002
20380	22.153	0.36364	5.e-002	-6.5641e-006
20381	22.153	0.63636	0.	1.3057e-002
20382	22.245	0.54545	0.	7.6394e-003
20383	22.153	0.54545	5.e-002	-4.4404e-006
20384	22.153	0.81818	0.	2.3384e-002
20385	22.245	0.72727	0.	1.8979e-002
20386	22.153	0.72727	5.e-002	-6.996e-006
20387	22.153	1.	0.	3.1643e-002
20388	22.245	0.90909	0.	2.9695e-002
20389	22.153	0.90909	5.e-002	-8.4432e-006
20390	22.153	1.1818	0.	3.7196e-002
20391	22.245	1.0909	0.	3.6518e-002
20392	22.153	1.0909	5.e-002	-6.3956e-006
20393	22.153	1.3636	0.	4.1091e-002
20394	22.245	1.2727	0.	4.1409e-002
20395	22.153	1.2727	5.e-002	-4.7851e-006
20396	22.153	1.5455	0.	4.3733e-002
20397	22.245	1.4545	0.	4.4729e-002
20398	22.153	1.4545	5.e-002	-3.8361e-006
20399	22.153	1.7273	0.	4.5512e-002
20400	22.245	1.6364	0.	4.6996e-002
20401	22.153	1.6364	5.e-002	-2.6323e-006
20402	22.153	1.9091	0.	4.6686e-002
20403	22.245	1.8182	0.	4.8518e-002
20404	22.153	1.8182	5.e-002	-2.6347e-006
20405	22.153	2.0909	0.	4.7451e-002
20406	22.245	2.	0.	4.9527e-002
20407	22.153	2.	5.e-002	-1.0153e-006
20408	22.153	2.2727	0.	4.7943e-002
20409	22.245	2.1818	0.	5.019e-002
20410	22.153	2.1818	5.e-002	7.9987e-007
20411	22.153	2.4545	0.	4.8251e-002
20412	22.245	2.3636	0.	5.0615e-002
20413	22.153	2.3636	5.e-002	1.375e-006
20414	22.153	2.6364	0.	4.8437e-002
20415	22.245	2.5455	0.	5.0882e-002
20416	22.153	2.5455	5.e-002	2.6211e-006
20417	22.153	2.8182	0.	4.8536e-002
20418	22.245	2.7273	0.	5.1036e-002
20419	22.153	2.7273	5.e-002	1.9228e-006
20420	22.153	3.	0.	4.8568e-002
20421	22.245	2.9091	0.	5.1107e-002
20422	22.153	2.9091	5.e-002	3.5843e-006
20423	22.153	3.1818	0.	4.8536e-002
20424	22.245	3.0909	0.	5.1107e-002
20425	22.153	3.0909	5.e-002	3.8066e-006
20426	22.153	3.3636	0.	4.8436e-002
20427	22.245	3.2727	0.	5.1036e-002
20428	22.153	3.2727	5.e-002	5.2296e-006
20429	22.153	3.5455	0.	4.8251e-002
20430	22.245	3.4545	0.	5.0881e-002
20431	22.153	3.4545	5.e-002	5.4851e-006
20432	22.153	3.7273	0.	4.7942e-002
20433	22.245	3.6364	0.	5.0615e-002
20434	22.153	3.6364	5.e-002	7.4466e-006
20435	22.153	3.9091	0.	4.7452e-002
20436	22.245	3.8182	0.	5.0188e-002
20437	22.153	3.8182	5.e-002	8.7391e-006
20438	22.153	4.0909	0.	4.6687e-002
20439	22.245	4.	0.	4.9529e-002
20440	22.153	4.	5.e-002	8.647e-006
20441	22.153	4.2727	0.	4.5511e-002
20442	22.245	4.1818	0.	4.8517e-002
20443	22.153	4.1818	5.e-002	8.3637e-006
20444	22.153	4.4545	0.	4.3733e-002
20445	22.245	4.3636	0.	4.6996e-002
20446	22.153	4.3636	5.e-002	1.0726e-005
20447	22.153	4.6364	0.	4.1091e-002
20448	22.245	4.5455	0.	4.4729e-002
20449	22.153	4.5455	5.e-002	8.7904e-006
20450	22.153	4.8182	0.	3.7196e-002
20451	22.245	4.7273	0.	4.1409e-002
20452	22.153	4.7273	5.e-002	1.0419e-005
20453	22.153	5.	0.	3.1642e-002
20454	22.245	4.9091	0.	3.6517e-002
20455	22.153	4.9091	5.e-002	1.0847e-005
20456	22.153	5.1818	0.	2.3381e-002
20457	22.245	5.0909	0.	2.9693e-002
20458	22.153	5.0909	5.e-002	9.1079e-006
20459	22.153	5.3636	0.	1.3055e-002
20460	22.245	5.2727	0.	1.8975e-002
20461	22.153	5.2727	5.e-002	1.0054e-005
20462	22.153	5.5455	0.	-9.2833e-003
20463	22.245	5.4545	0.	7.6392e-003
20464	22.153	5.4545	5.e-002	9.8779e-006
20465	22.153	5.7273	0.	-2.5505e-002
20466	22.245	5.6364	0.	-2.9138e-002
20467	22.153	5.6364	5.e-002	1.1135e-005
20468	22.245	5.8182	0.	-1.8871e-002
20469	22.153	5.8182	5.e-002	1.0197e-005
20470	22.153	5.9091	0.	9.2045e-003
20471	22.338	0.27273	0.	-3.1146e-002
20472	22.43	0.18182	0.	-2.4526e-002
20473	22.338	0.18182	5.e-002	5.6932e-007
20474	22.338	9.0909e-002	0.	1.0735e-002
20475	22.338	0.45455	0.	-1.1262e-002
20476	22.43	0.36364	0.	-3.4288e-002
20477	22.338	0.36364	5.e-002	-1.2491e-005
20478	22.338	0.63636	0.	1.4652e-002
20479	22.43	0.54545	0.	9.0029e-003
20480	22.338	0.54545	5.e-002	-1.4868e-005
20481	22.338	0.81818	0.	2.6133e-002
20482	22.43	0.72727	0.	2.1733e-002
20483	22.338	0.72727	5.e-002	-1.3539e-005
20484	22.338	1.	0.	3.5226e-002
20485	22.43	0.90909	0.	3.3646e-002
20486	22.338	0.90909	5.e-002	-1.0405e-005
20487	22.338	1.1818	0.	4.126e-002
20488	22.43	1.0909	0.	4.1072e-002
20489	22.338	1.0909	5.e-002	-7.5742e-006
20490	22.338	1.3636	0.	4.5492e-002
20491	22.43	1.2727	0.	4.637e-002
20492	22.338	1.2727	5.e-002	-7.4959e-006
20493	22.338	1.5455	0.	4.838e-002
20494	22.43	1.4545	0.	4.9967e-002
20495	22.338	1.4545	5.e-002	-5.941e-006
20496	22.338	1.7273	0.	5.035e-002
20497	22.43	1.6364	0.	5.2443e-002
20498	22.338	1.6364	5.e-002	-4.7871e-006
20499	22.338	1.9091	0.	5.168e-002
20500	22.43	1.8182	0.	5.4129e-002
20501	22.338	1.8182	5.e-002	-5.5674e-006
20502	22.338	2.0909	0.	5.2569e-002
20503	22.43	2.	0.	5.5272e-002
20504	22.338	2.	5.e-002	-3.9516e-006
20505	22.338	2.2727	0.	5.3154e-002
20506	22.43	2.1818	0.	5.6039e-002
20507	22.338	2.1818	5.e-002	-2.839e-006
20508	22.338	2.4545	0.	5.3531e-002
20509	22.43	2.3636	0.	5.6546e-002
20510	22.338	2.3636	5.e-002	-1.2753e-006
20511	22.338	2.6364	0.	5.3763e-002
20512	22.43	2.5455	0.	5.6869e-002
20513	22.338	2.5455	5.e-002	-1.1618e-006
20514	22.338	2.8182	0.	5.3888e-002
20515	22.43	2.7273	0.	5.706e-002
20516	22.338	2.7273	5.e-002	-1.1634e-007
20517	22.338	3.	0.	5.3926e-002
20518	22.43	2.9091	0.	5.7149e-002
20519	22.338	2.9091	5.e-002	9.1595e-007
20520	22.338	3.1818	0.	5.3888e-002
20521	22.43	3.0909	0.	5.7148e-002
20522	22.338	3.0909	5.e-002	9.9169e-007
20523	22.338	3.3636	0.	5.3763e-002
20524	22.43	3.2727	0.	5.7061e-002
20525	22.338	3.2727	5.e-002	3.9337e-006
20526	22.338	3.5455	0.	5.3531e-002
20527	22.43	3.4545	0.	5.687e-002
20528	22.338	3.4545	5.e-002	4.5071e-006
20529	22.338	3.7273	0.	5.3154e-002
20530	22.43	3.6364	0.	5.6545e-002
20531	22.338	3.6364	5.e-002	5.1037e-006
20532	22.338	3.9091	0.	5.2568e-002
20533	22.43	3.8182	0.	5.6039e-002
20534	22.338	3.8182	5.e-002	7.1602e-006
20535	22.338	4.0909	0.	5.1681e-002
20536	22.43	4.	0.	5.5272e-002
20537	22.338	4.	5.e-002	6.3708e-006
20538	22.338	4.2727	0.	5.0351e-002
20539	22.43	4.1818	0.	5.4129e-002
20540	22.338	4.1818	5.e-002	6.0797e-006
20541	22.338	4.4545	0.	4.838e-002
20542	22.43	4.3636	0.	5.2443e-002
20543	22.338	4.3636	5.e-002	8.6275e-006
20544	22.338	4.6364	0.	4.5492e-002
20545	22.43	4.5455	0.	4.9966e-002
20546	22.338	4.5455	5.e-002	6.3794e-006
20547	22.338	4.8182	0.	4.1259e-002
20548	22.43	4.7273	0.	4.637e-002
20549	22.338	4.7273	5.e-002	7.9588e-006
20550	22.338	5.	0.	3.5223e-002
20551	22.43	4.9091	0.	4.1069e-002
20552	22.338	4.9091	5.e-002	8.2157e-006
20553	22.338	5.1818	0.	2.6131e-002
20554	22.43	5.0909	0.	3.3644e-002
20555	22.338	5.0909	5.e-002	6.0825e-006
20556	22.338	5.3636	0.	1.4651e-002
20557	22.43	5.2727	0.	2.1731e-002
20558	22.338	5.2727	5.e-002	7.3772e-006
20559	22.338	5.5455	0.	-1.126e-002
20560	22.43	5.4545	0.	9.0036e-003
20561	22.338	5.4545	5.e-002	7.6435e-006
20562	22.338	5.7273	0.	-3.1144e-002
20563	22.43	5.6364	0.	-3.4285e-002
20564	22.338	5.6364	5.e-002	9.0818e-006
20565	22.43	5.8182	0.	-2.4527e-002
20566	22.338	5.8182	5.e-002	8.5382e-006
20567	22.338	5.9091	0.	1.0737e-002
20568	22.523	0.27273	0.	-3.7312e-002
20569	22.615	0.18182	0.	-3.1613e-002
20570	22.523	0.18182	5.e-002	4.5238e-006
20571	22.523	9.0909e-002	0.	1.3285e-002
20572	22.523	0.45455	0.	-1.2565e-002
20573	22.615	0.36364	0.	-3.9298e-002
20574	22.523	0.36364	5.e-002	-6.6495e-006
20575	22.523	0.63636	0.	1.7513e-002
20576	22.615	0.54545	0.	1.1649e-002
20577	22.523	0.54545	5.e-002	-1.2886e-005
20578	22.523	0.81818	0.	3.0312e-002
20579	22.615	0.72727	0.	2.6009e-002
20580	22.523	0.72727	5.e-002	-1.2348e-005
20581	22.523	1.	0.	4.0314e-002
20582	22.615	0.90909	0.	3.9254e-002
20583	22.523	0.90909	5.e-002	-9.9248e-006
20584	22.523	1.1818	0.	4.6851e-002
20585	22.615	1.0909	0.	4.7316e-002
20586	22.523	1.0909	5.e-002	-7.246e-006
20587	22.523	1.3636	0.	5.1418e-002
20588	22.615	1.2727	0.	5.3031e-002
20589	22.523	1.2727	5.e-002	-5.5871e-006
20590	22.523	1.5455	0.	5.4542e-002
20591	22.615	1.4545	0.	5.6898e-002
20592	22.523	1.4545	5.e-002	-5.4182e-006
20593	22.523	1.7273	0.	5.6693e-002
20594	22.615	1.6364	0.	5.9576e-002
20595	22.523	1.6364	5.e-002	-4.408e-006
20596	22.523	1.9091	0.	5.8166e-002
20597	22.615	1.8182	0.	6.1418e-002
20598	22.523	1.8182	5.e-002	-3.7623e-006
20599	22.523	2.0909	0.	5.917e-002
20600	22.615	2.	0.	6.2689e-002
20601	22.523	2.	5.e-002	-2.1861e-006
20602	22.523	2.2727	0.	5.9847e-002
20603	22.615	2.1818	0.	6.3558e-002
20604	22.523	2.1818	5.e-002	-2.0463e-006
20605	22.523	2.4545	0.	6.0293e-002
20606	22.615	2.3636	0.	6.4145e-002
20607	22.523	2.3636	5.e-002	-4.6814e-007
20608	22.523	2.6364	0.	6.0572e-002
20609	22.615	2.5455	0.	6.4528e-002
20610	22.523	2.5455	5.e-002	1.5845e-006
20611	22.523	2.8182	0.	6.0725e-002
20612	22.615	2.7273	0.	6.4758e-002
20613	22.523	2.7273	5.e-002	7.6179e-007
20614	22.523	3.	0.	6.0774e-002
20615	22.615	2.9091	0.	6.4865e-002
20616	22.523	2.9091	5.e-002	2.3198e-006
20617	22.523	3.1818	0.	6.0725e-002
20618	22.615	3.0909	0.	6.4865e-002
20619	22.523	3.0909	5.e-002	2.4495e-006
20620	22.523	3.3636	0.	6.0574e-002
20621	22.615	3.2727	0.	6.4758e-002
20622	22.523	3.2727	5.e-002	4.4907e-006
20623	22.523	3.5455	0.	6.0294e-002
20624	22.615	3.4545	0.	6.4529e-002
20625	22.523	3.4545	5.e-002	5.1105e-006
20626	22.523	3.7273	0.	5.9847e-002
20627	22.615	3.6364	0.	6.4145e-002
20628	22.523	3.6364	5.e-002	7.1724e-006
20629	22.523	3.9091	0.	5.917e-002
20630	22.615	3.8182	0.	6.3558e-002
20631	22.523	3.8182	5.e-002	8.3085e-006
20632	22.523	4.0909	0.	5.8166e-002
20633	22.615	4.	0.	6.2689e-002
20634	22.523	4.	5.e-002	8.4822e-006
20635	22.523	4.2727	0.	5.6692e-002
20636	22.615	4.1818	0.	6.1418e-002
20637	22.523	4.1818	5.e-002	7.7069e-006
20638	22.523	4.4545	0.	5.4541e-002
20639	22.615	4.3636	0.	5.9574e-002
20640	22.523	4.3636	5.e-002	9.3152e-006
20641	22.523	4.6364	0.	5.1417e-002
20642	22.615	4.5455	0.	5.6898e-002
20643	22.523	4.5455	5.e-002	8.8872e-006
20644	22.523	4.8182	0.	4.6849e-002
20645	22.615	4.7273	0.	5.303e-002
20646	22.523	4.7273	5.e-002	9.9319e-006
20647	22.523	5.	0.	4.0312e-002
20648	22.615	4.9091	0.	4.7314e-002
20649	22.523	4.9091	5.e-002	9.9388e-006
20650	22.523	5.1818	0.	3.0311e-002
20651	22.615	5.0909	0.	3.9253e-002
20652	22.523	5.0909	5.e-002	8.2707e-006
20653	22.523	5.3636	0.	1.7513e-002
20654	22.615	5.2727	0.	2.6008e-002
20655	22.523	5.2727	5.e-002	9.272e-006
20656	22.523	5.5455	0.	-1.2565e-002
20657	22.615	5.4545	0.	1.165e-002
20658	22.523	5.4545	5.e-002	8.701e-006
20659	22.523	5.7273	0.	-3.7313e-002
20660	22.615	5.6364	0.	-3.9297e-002
20661	22.523	5.6364	5.e-002	9.5763e-006
20662	22.615	5.8182	0.	-3.1614e-002
20663	22.523	5.8182	5.e-002	7.229e-006
20664	22.523	5.9091	0.	1.3285e-002
20665	22.707	0.27273	0.	-4.4147e-002
20666	22.8	0.18182	0.	-4.0416e-002
20667	22.707	0.18182	5.e-002	7.2888e-006
20668	22.707	9.0909e-002	0.	1.7226e-002
20669	22.707	0.45455	0.	-1.2945e-002
20670	22.8	0.36364	0.	-4.3636e-002
20671	22.707	0.36364	5.e-002	-3.028e-006
20672	22.707	0.63636	0.	2.2014e-002
20673	22.8	0.54545	0.	1.6457e-002
20674	22.707	0.54545	5.e-002	-6.4764e-006
20675	22.707	0.81818	0.	3.6315e-002
20676	22.8	0.72727	0.	3.2737e-002
20677	22.707	0.72727	5.e-002	-7.1982e-006
20678	22.707	1.	0.	4.7312e-002
20679	22.8	0.90909	0.	4.7464e-002
20680	22.707	0.90909	5.e-002	-8.0994e-006
20681	22.707	1.1818	0.	5.4371e-002
20682	22.8	1.0909	0.	5.6196e-002
20683	22.707	1.0909	5.e-002	-5.8978e-006
20684	22.707	1.3636	0.	5.9278e-002
20685	22.8	1.2727	0.	6.2341e-002
20686	22.707	1.2727	5.e-002	-5.0936e-006
20687	22.707	1.5455	0.	6.2634e-002
20688	22.8	1.4545	0.	6.6485e-002
20689	22.707	1.4545	5.e-002	-3.2114e-006
20690	22.707	1.7273	0.	6.4963e-002
20691	22.8	1.6364	0.	6.9365e-002
20692	22.707	1.6364	5.e-002	-2.1175e-006
20693	22.707	1.9091	0.	6.6578e-002
20694	22.8	1.8182	0.	7.137e-002
20695	22.707	1.8182	5.e-002	-2.484e-006
20696	22.707	2.0909	0.	6.7697e-002
20697	22.8	2.	0.	7.2773e-002
20698	22.707	2.	5.e-002	-1.3895e-006
20699	22.707	2.2727	0.	6.8467e-002
20700	22.8	2.1818	0.	7.3748e-002
20701	22.707	2.1818	5.e-002	1.9321e-007
20702	22.707	2.4545	0.	6.8984e-002
20703	22.8	2.3636	0.	7.4419e-002
20704	22.707	2.3636	5.e-002	1.7877e-006
20705	22.707	2.6364	0.	6.9314e-002
20706	22.8	2.5455	0.	7.4864e-002
20707	22.707	2.5455	5.e-002	2.9116e-006
20708	22.707	2.8182	0.	6.9496e-002
20709	22.8	2.7273	0.	7.5134e-002
20710	22.707	2.7273	5.e-002	3.0782e-006
20711	22.707	3.	0.	6.9554e-002
20712	22.8	2.9091	0.	7.5262e-002
20713	22.707	2.9091	5.e-002	3.7267e-006
20714	22.707	3.1818	0.	6.9496e-002
20715	22.8	3.0909	0.	7.5263e-002
20716	22.707	3.0909	5.e-002	4.3814e-006
20717	22.707	3.3636	0.	6.9313e-002
20718	22.8	3.2727	0.	7.5135e-002
20719	22.707	3.2727	5.e-002	6.4717e-006
20720	22.707	3.5455	0.	6.8983e-002
20721	22.8	3.4545	0.	7.4863e-002
20722	22.707	3.4545	5.e-002	6.6637e-006
20723	22.707	3.7273	0.	6.8466e-002
20724	22.8	3.6364	0.	7.442e-002
20725	22.707	3.6364	5.e-002	9.2511e-006
20726	22.707	3.9091	0.	6.7697e-002
20727	22.8	3.8182	0.	7.3748e-002
20728	22.707	3.8182	5.e-002	1.1385e-005
20729	22.707	4.0909	0.	6.6577e-002
20730	22.8	4.	0.	7.2772e-002
20731	22.707	4.	5.e-002	1.0644e-005
20732	22.707	4.2727	0.	6.4962e-002
20733	22.8	4.1818	0.	7.137e-002
20734	22.707	4.1818	5.e-002	9.9225e-006
20735	22.707	4.4545	0.	6.2633e-002
20736	22.8	4.3636	0.	6.9365e-002
20737	22.707	4.3636	5.e-002	1.2453e-005
20738	22.707	4.6364	0.	5.9278e-002
20739	22.8	4.5455	0.	6.6483e-002
20740	22.707	4.5455	5.e-002	1.065e-005
20741	22.707	4.8182	0.	5.437e-002
20742	22.8	4.7273	0.	6.2342e-002
20743	22.707	4.7273	5.e-002	1.2238e-005
20744	22.707	5.	0.	4.7311e-002
20745	22.8	4.9091	0.	5.6195e-002
20746	22.707	4.9091	5.e-002	1.1187e-005
20747	22.707	5.1818	0.	3.6314e-002
20748	22.8	5.0909	0.	4.7462e-002
20749	22.707	5.0909	5.e-002	1.0155e-005
20750	22.707	5.3636	0.	2.2014e-002
20751	22.8	5.2727	0.	3.2736e-002
20752	22.707	5.2727	5.e-002	1.1017e-005
20753	22.707	5.5455	0.	-1.2944e-002
20754	22.8	5.4545	0.	1.6459e-002
20755	22.707	5.4545	5.e-002	9.8255e-006
20756	22.707	5.7273	0.	-4.4146e-002
20757	22.8	5.6364	0.	-4.3633e-002
20758	22.707	5.6364	5.e-002	1.0443e-005
20759	22.8	5.8182	0.	-4.0416e-002
20760	22.707	5.8182	5.e-002	7.93e-006
20761	22.707	5.9091	0.	1.7227e-002
20762	22.892	0.27273	0.	-5.1102e-002
20763	22.984	0.18182	0.	-5.2177e-002
20764	22.892	0.18182	5.e-002	5.2332e-006
20765	22.892	9.0909e-002	0.	2.3779e-002
20766	22.892	0.45455	0.	-1.1138e-002
20767	22.984	0.36364	0.	-4.7392e-002
20768	22.892	0.36364	5.e-002	-1.546e-007
20769	22.892	0.63636	0.	2.9652e-002
20770	22.984	0.54545	0.	2.3727e-002
20771	22.892	0.54545	5.e-002	-3.8556e-006
20772	22.892	0.81818	0.	4.5678e-002
20773	22.984	0.72727	0.	4.2221e-002
20774	22.892	0.72727	5.e-002	-6.0302e-006
20775	22.892	1.	0.	5.7761e-002
20776	22.984	0.90909	0.	5.8596e-002
20777	22.892	0.90909	5.e-002	-9.1813e-006
20778	22.892	1.1818	0.	6.5372e-002
20779	22.984	1.0909	0.	6.8042e-002
20780	22.892	1.0909	5.e-002	-8.5266e-006
20781	22.892	1.3636	0.	7.0637e-002
20782	22.984	1.2727	0.	7.4648e-002
20783	22.892	1.2727	5.e-002	-8.1222e-006
20784	22.892	1.5455	0.	7.4239e-002
20785	22.984	1.4545	0.	7.9091e-002
20786	22.892	1.4545	5.e-002	-6.7211e-006
20787	22.892	1.7273	0.	7.6757e-002
20788	22.984	1.6364	0.	8.22e-002
20789	22.892	1.6364	5.e-002	-5.0632e-006
20790	22.892	1.9091	0.	7.8526e-002
20791	22.984	1.8182	0.	8.4386e-002
20792	22.892	1.8182	5.e-002	-5.0081e-006
20793	22.892	2.0909	0.	7.9771e-002
20794	22.984	2.	0.	8.5936e-002
20795	22.892	2.	5.e-002	-3.8957e-006
20796	22.892	2.2727	0.	8.0639e-002
20797	22.984	2.1818	0.	8.7032e-002
20798	22.892	2.1818	5.e-002	7.8608e-008
20799	22.892	2.4545	0.	8.1232e-002
20800	22.984	2.3636	0.	8.7795e-002
20801	22.892	2.3636	5.e-002	-7.0447e-007
20802	22.892	2.6364	0.	8.1615e-002
20803	22.984	2.5455	0.	8.8308e-002
20804	22.892	2.5455	5.e-002	1.3996e-006
20805	22.892	2.8182	0.	8.1829e-002
20806	22.984	2.7273	0.	8.8623e-002
20807	22.892	2.7273	5.e-002	1.5963e-006
20808	22.892	3.	0.	8.1899e-002
20809	22.984	2.9091	0.	8.8774e-002
20810	22.892	2.9091	5.e-002	1.8006e-006
20811	22.892	3.1818	0.	8.1831e-002
20812	22.984	3.0909	0.	8.8775e-002
20813	22.892	3.0909	5.e-002	3.9248e-006
20814	22.892	3.3636	0.	8.1615e-002
20815	22.984	3.2727	0.	8.8623e-002
20816	22.892	3.2727	5.e-002	4.1479e-006
20817	22.892	3.5455	0.	8.1233e-002
20818	22.984	3.4545	0.	8.8308e-002
20819	22.892	3.4545	5.e-002	4.3789e-006
20820	22.892	3.7273	0.	8.0639e-002
20821	22.984	3.6364	0.	8.7795e-002
20822	22.892	3.6364	5.e-002	9.3935e-006
20823	22.892	3.9091	0.	7.977e-002
20824	22.984	3.8182	0.	8.7031e-002
20825	22.892	3.8182	5.e-002	8.7088e-006
20826	22.892	4.0909	0.	7.8526e-002
20827	22.984	4.	0.	8.5936e-002
20828	22.892	4.	5.e-002	7.993e-006
20829	22.892	4.2727	0.	7.6757e-002
20830	22.984	4.1818	0.	8.4386e-002
20831	22.892	4.1818	5.e-002	7.3336e-006
20832	22.892	4.4545	0.	7.4238e-002
20833	22.984	4.3636	0.	8.2201e-002
20834	22.892	4.3636	5.e-002	1.0344e-005
20835	22.892	4.6364	0.	7.0636e-002
20836	22.984	4.5455	0.	7.909e-002
20837	22.892	4.5455	5.e-002	9.1146e-006
20838	22.892	4.8182	0.	6.5373e-002
20839	22.984	4.7273	0.	7.4649e-002
20840	22.892	4.7273	5.e-002	1.1077e-005
20841	22.892	5.	0.	5.776e-002
20842	22.984	4.9091	0.	6.8041e-002
20843	22.892	4.9091	5.e-002	1.0604e-005
20844	22.892	5.1818	0.	4.5676e-002
20845	22.984	5.0909	0.	5.8596e-002
20846	22.892	5.0909	5.e-002	8.6052e-006
20847	22.892	5.3636	0.	2.9652e-002
20848	22.984	5.2727	0.	4.2219e-002
20849	22.892	5.2727	5.e-002	9.5918e-006
20850	22.892	5.5455	0.	-1.1135e-002
20851	22.984	5.4545	0.	2.3727e-002
20852	22.892	5.4545	5.e-002	9.2001e-006
20853	22.892	5.7273	0.	-5.1101e-002
20854	22.984	5.6364	0.	-4.739e-002
20855	22.892	5.6364	5.e-002	8.9234e-006
20856	22.984	5.8182	0.	-5.2176e-002
20857	22.892	5.8182	5.e-002	7.4498e-006
20858	22.892	5.9091	0.	2.3777e-002
20859	23.077	0.27273	0.	-5.9743e-002
20860	23.169	0.18182	0.	-6.5363e-002
20861	23.077	0.18182	5.e-002	1.34e-006
20862	23.077	9.0909e-002	0.	3.2954e-002
20863	23.077	0.45455	0.	-8.0187e-003
20864	23.169	0.36364	0.	-4.6065e-002
20865	23.077	0.36364	5.e-002	-5.9387e-006
20866	23.077	0.63636	0.	3.9664e-002
20867	23.169	0.54545	0.	3.9213e-002
20868	23.077	0.54545	5.e-002	-3.1989e-006
20869	23.077	0.81818	0.	5.7616e-002
20870	23.169	0.72727	0.	6.0292e-002
20871	23.077	0.72727	5.e-002	-3.315e-006
20872	23.077	1.	0.	7.0904e-002
20873	23.169	0.90909	0.	7.8549e-002
20874	23.077	0.90909	5.e-002	-7.5187e-006
20875	23.077	1.1818	0.	7.9117e-002
20876	23.169	1.0909	0.	8.8829e-002
20877	23.077	1.0909	5.e-002	-1.0907e-005
20878	23.077	1.3636	0.	8.4782e-002
20879	23.169	1.2727	0.	9.5986e-002
20880	23.077	1.2727	5.e-002	-1.1107e-005
20881	23.077	1.5455	0.	8.8669e-002
20882	23.169	1.4545	0.	0.1008
20883	23.077	1.4545	5.e-002	-8.5365e-006
20884	23.077	1.7273	0.	9.1413e-002
20885	23.169	1.6364	0.	0.1042
20886	23.077	1.6364	5.e-002	-5.588e-006
20887	23.077	1.9091	0.	9.3361e-002
20888	23.169	1.8182	0.	0.10661
20889	23.077	1.8182	5.e-002	-7.2984e-006
20890	23.077	2.0909	0.	9.4752e-002
20891	23.169	2.	0.	0.10834
20892	23.077	2.	5.e-002	-4.2463e-006
20893	23.077	2.2727	0.	9.5736e-002
20894	23.169	2.1818	0.	0.10958
20895	23.077	2.1818	5.e-002	-3.0875e-006
20896	23.077	2.4545	0.	9.6416e-002
20897	23.169	2.3636	0.	0.11045
20898	23.077	2.3636	5.e-002	-9.342e-007
20899	23.077	2.6364	0.	9.6861e-002
20900	23.169	2.5455	0.	0.11104
20901	23.077	2.5455	5.e-002	-2.5881e-006
20902	23.077	2.8182	0.	9.7111e-002
20903	23.169	2.7273	0.	0.1114
20904	23.077	2.7273	5.e-002	-1.371e-006
20905	23.077	3.	0.	9.7193e-002
20906	23.169	2.9091	0.	0.11158
20907	23.077	2.9091	5.e-002	8.112e-007
20908	23.077	3.1818	0.	9.711e-002
20909	23.169	3.0909	0.	0.11158
20910	23.077	3.0909	5.e-002	1.0995e-006
20911	23.077	3.3636	0.	9.686e-002
20912	23.169	3.2727	0.	0.1114
20913	23.077	3.2727	5.e-002	3.303e-006
20914	23.077	3.5455	0.	9.6416e-002
20915	23.169	3.4545	0.	0.11104
20916	23.077	3.4545	5.e-002	4.5676e-006
20917	23.077	3.7273	0.	9.5735e-002
20918	23.169	3.6364	0.	0.11044
20919	23.077	3.6364	5.e-002	6.7971e-006
20920	23.077	3.9091	0.	9.4752e-002
20921	23.169	3.8182	0.	0.10958
20922	23.077	3.8182	5.e-002	8.0988e-006
20923	23.077	4.0909	0.	9.3362e-002
20924	23.169	4.	0.	0.10834
20925	23.077	4.	5.e-002	9.3964e-006
20926	23.077	4.2727	0.	9.1413e-002
20927	23.169	4.1818	0.	0.10661
20928	23.077	4.1818	5.e-002	7.864e-006
20929	23.077	4.4545	0.	8.8671e-002
20930	23.169	4.3636	0.	0.1042
20931	23.077	4.3636	5.e-002	1.2968e-005
20932	23.077	4.6364	0.	8.4782e-002
20933	23.169	4.5455	0.	0.1008
20934	23.077	4.5455	5.e-002	9.4418e-006
20935	23.077	4.8182	0.	7.9115e-002
20936	23.169	4.7273	0.	9.5986e-002
20937	23.077	4.7273	5.e-002	1.1065e-005
20938	23.077	5.	0.	7.0903e-002
20939	23.169	4.9091	0.	8.8828e-002
20940	23.077	4.9091	5.e-002	1.0813e-005
20941	23.077	5.1818	0.	5.7615e-002
20942	23.169	5.0909	0.	7.855e-002
20943	23.077	5.0909	5.e-002	9.5423e-006
20944	23.077	5.3636	0.	3.9661e-002
20945	23.169	5.2727	0.	6.029e-002
20946	23.077	5.2727	5.e-002	9.6116e-006
20947	23.077	5.5455	0.	-8.0196e-003
20948	23.169	5.4545	0.	3.921e-002
20949	23.077	5.4545	5.e-002	8.9846e-006
20950	23.077	5.7273	0.	-5.9741e-002
20951	23.169	5.6364	0.	-4.6063e-002
20952	23.077	5.6364	5.e-002	9.5882e-006
20953	23.169	5.8182	0.	-6.536e-002
20954	23.077	5.8182	5.e-002	8.1239e-006
20955	23.077	5.9091	0.	3.2956e-002
20956	23.261	0.27273	0.	-6.1729e-002
20957	23.354	0.18182	0.	-9.0077e-002
20958	23.261	0.18182	5.e-002	-5.4169e-006
20959	23.261	9.0909e-002	0.	5.4007e-002
20960	23.261	0.45455	0.	7.9292e-003
20961	23.354	0.36364	0.	-4.8253e-002
20962	23.261	0.36364	5.e-002	-7.7253e-006
20963	23.261	0.63636	0.	6.4723e-002
20964	23.354	0.54545	0.	5.2955e-002
20965	23.261	0.54545	5.e-002	-3.9724e-006
20966	23.261	0.81818	0.	8.4978e-002
20967	23.354	0.72727	0.	7.7664e-002
20968	23.261	0.72727	5.e-002	-2.5191e-006
20969	23.261	1.	0.	9.9722e-002
20970	23.354	0.90909	0.	9.808e-002
20971	23.261	0.90909	5.e-002	-5.5576e-006
20972	23.261	1.1818	0.	0.10872
20973	23.354	1.0909	0.	0.10933
20974	23.261	1.0909	5.e-002	-8.2791e-006
20975	23.261	1.3636	0.	0.11492
20976	23.354	1.2727	0.	0.11721
20977	23.261	1.2727	5.e-002	-8.5448e-006
20978	23.261	1.5455	0.	0.1192
20979	23.354	1.4545	0.	0.12254
20980	23.261	1.4545	5.e-002	-8.6106e-006
20981	23.261	1.7273	0.	0.12224
20982	23.354	1.6364	0.	0.12633
20983	23.261	1.6364	5.e-002	-4.6968e-006
20984	23.261	1.9091	0.	0.12442
20985	23.354	1.8182	0.	0.12905
20986	23.261	1.8182	5.e-002	-3.6401e-006
20987	23.261	2.0909	0.	0.126
20988	23.354	2.	0.	0.13102
20989	23.261	2.	5.e-002	-4.3882e-006
20990	23.261	2.2727	0.	0.12712
20991	23.354	2.1818	0.	0.13244
20992	23.261	2.1818	5.e-002	-1.2975e-006
20993	23.261	2.4545	0.	0.1279
20994	23.354	2.3636	0.	0.13345
20995	23.261	2.3636	5.e-002	-1.0464e-006
20996	23.261	2.6364	0.	0.12841
20997	23.354	2.5455	0.	0.13414
20998	23.261	2.5455	5.e-002	2.029e-007
20999	23.261	2.8182	0.	0.1287
21000	23.354	2.7273	0.	0.13458
21001	23.261	2.7273	5.e-002	1.4436e-006
21002	23.261	3.	0.	0.1288
21003	23.354	2.9091	0.	0.13478
21004	23.261	2.9091	5.e-002	1.7479e-006
21005	23.261	3.1818	0.	0.1287
21006	23.354	3.0909	0.	0.13478
21007	23.261	3.0909	5.e-002	4.9313e-006
21008	23.261	3.3636	0.	0.12841
21009	23.354	3.2727	0.	0.13458
21010	23.261	3.2727	5.e-002	6.2173e-006
21011	23.261	3.5455	0.	0.1279
21012	23.354	3.4545	0.	0.13415
21013	23.261	3.4545	5.e-002	6.5633e-006
21014	23.261	3.7273	0.	0.12712
21015	23.354	3.6364	0.	0.13345
21016	23.261	3.6364	5.e-002	8.8391e-006
21017	23.261	3.9091	0.	0.126
21018	23.354	3.8182	0.	0.13245
21019	23.261	3.8182	5.e-002	1.1139e-005
21020	23.261	4.0909	0.	0.12443
21021	23.354	4.	0.	0.13102
21022	23.261	4.	5.e-002	1.2513e-005
21023	23.261	4.2727	0.	0.12224
21024	23.354	4.1818	0.	0.12905
21025	23.261	4.1818	5.e-002	1.0978e-005
21026	23.261	4.4545	0.	0.1192
21027	23.354	4.3636	0.	0.12633
21028	23.261	4.3636	5.e-002	1.4218e-005
21029	23.261	4.6364	0.	0.11492
21030	23.354	4.5455	0.	0.12254
21031	23.261	4.5455	5.e-002	1.4626e-005
21032	23.261	4.8182	0.	0.10872
21033	23.354	4.7273	0.	0.11721
21034	23.261	4.7273	5.e-002	1.4052e-005
21035	23.261	5.	0.	9.9721e-002
21036	23.354	4.9091	0.	0.10933
21037	23.261	4.9091	5.e-002	1.5635e-005
21038	23.261	5.1818	0.	8.4978e-002
21039	23.354	5.0909	0.	9.808e-002
21040	23.261	5.0909	5.e-002	1.3145e-005
21041	23.261	5.3636	0.	6.4721e-002
21042	23.354	5.2727	0.	7.7663e-002
21043	23.261	5.2727	5.e-002	1.3899e-005
21044	23.261	5.5455	0.	7.9294e-003
21045	23.354	5.4545	0.	5.2955e-002
21046	23.261	5.4545	5.e-002	1.3057e-005
21047	23.261	5.7273	0.	-6.1727e-002
21048	23.354	5.6364	0.	-4.825e-002
21049	23.261	5.6364	5.e-002	1.1854e-005
21050	23.354	5.8182	0.	-9.0076e-002
21051	23.261	5.8182	5.e-002	1.1264e-005
21052	23.261	5.9091	0.	5.4004e-002
21053	23.446	0.27273	0.	-8.2282e-002
21054	23.538	0.18182	0.	-9.3611e-002
21055	23.446	0.18182	5.e-002	6.9508e-006
21056	23.446	9.0909e-002	0.	6.9496e-002
21057	23.446	0.45455	0.	7.7137e-003
21058	23.538	0.36364	0.	1.9738e-003
21059	23.446	0.36364	5.e-002	1.434e-006
21060	23.446	0.63636	0.	7.3946e-002
21061	23.538	0.54545	0.	0.13362
21062	23.446	0.54545	5.e-002	5.6945e-007
21063	23.446	0.81818	0.	9.7495e-002
21064	23.538	0.72727	0.	0.1624
21065	23.446	0.72727	5.e-002	1.0106e-007
21066	23.446	1.	0.	0.11393
21067	23.538	0.90909	0.	0.18676
21068	23.446	0.90909	5.e-002	-2.0561e-006
21069	23.446	1.1818	0.	0.12389
21070	23.538	1.0909	0.	0.19995
21071	23.446	1.0909	5.e-002	-1.276e-006
21072	23.446	1.3636	0.	0.13084
21073	23.538	1.2727	0.	0.20926
21074	23.446	1.2727	5.e-002	-2.5577e-006
21075	23.446	1.5455	0.	0.13567
21076	23.538	1.4545	0.	0.21557
21077	23.446	1.4545	5.e-002	-2.7543e-006
21078	23.446	1.7273	0.	0.13916
21079	23.538	1.6364	0.	0.22006
21080	23.446	1.6364	5.e-002	-9.641e-007
21081	23.446	1.9091	0.	0.14168
21082	23.538	1.8182	0.	0.22328
21083	23.446	1.8182	5.e-002	-1.0545e-006
21084	23.446	2.0909	0.	0.14351
21085	23.538	2.	0.	0.2256
21086	23.446	2.	5.e-002	-3.3794e-008
21087	23.446	2.2727	0.	0.14484
21088	23.538	2.1818	0.	0.22726
21089	23.446	2.1818	5.e-002	1.9646e-006
21090	23.446	2.4545	0.	0.14577
21091	23.538	2.3636	0.	0.22844
21092	23.446	2.3636	5.e-002	2.1123e-006
21093	23.446	2.6364	0.	0.14638
21094	23.538	2.5455	0.	0.22923
21095	23.446	2.5455	5.e-002	3.2636e-006
21096	23.446	2.8182	0.	0.14673
21097	23.538	2.7273	0.	0.22972
21098	23.446	2.7273	5.e-002	2.516e-006
21099	23.446	3.	0.	0.14685
21100	23.538	2.9091	0.	0.22996
21101	23.446	2.9091	5.e-002	4.6472e-006
21102	23.446	3.1818	0.	0.14673
21103	23.538	3.0909	0.	0.22996
21104	23.446	3.0909	5.e-002	4.8936e-006
21105	23.446	3.3636	0.	0.14638
21106	23.538	3.2727	0.	0.22972
21107	23.446	3.2727	5.e-002	8.0105e-006
21108	23.446	3.5455	0.	0.14577
21109	23.538	3.4545	0.	0.22923
21110	23.446	3.4545	5.e-002	8.271e-006
21111	23.446	3.7273	0.	0.14484
21112	23.538	3.6364	0.	0.22844
21113	23.446	3.6364	5.e-002	1.1417e-005
21114	23.446	3.9091	0.	0.14351
21115	23.538	3.8182	0.	0.22726
21116	23.446	3.8182	5.e-002	1.5556e-005
21117	23.446	4.0909	0.	0.14168
21118	23.538	4.	0.	0.2256
21119	23.446	4.	5.e-002	1.2996e-005
21120	23.446	4.2727	0.	0.13916
21121	23.538	4.1818	0.	0.22328
21122	23.446	4.1818	5.e-002	1.5211e-005
21123	23.446	4.4545	0.	0.13568
21124	23.538	4.3636	0.	0.22007
21125	23.446	4.3636	5.e-002	1.7316e-005
21126	23.446	4.6364	0.	0.13084
21127	23.538	4.5455	0.	0.21557
21128	23.446	4.5455	5.e-002	1.4865e-005
21129	23.446	4.8182	0.	0.12389
21130	23.538	4.7273	0.	0.20927
21131	23.446	4.7273	5.e-002	1.7861e-005
21132	23.446	5.	0.	0.11393
21133	23.538	4.9091	0.	0.19995
21134	23.446	4.9091	5.e-002	1.8029e-005
21135	23.446	5.1818	0.	9.7494e-002
21136	23.538	5.0909	0.	0.18676
21137	23.446	5.0909	5.e-002	1.5813e-005
21138	23.446	5.3636	0.	7.3946e-002
21139	23.538	5.2727	0.	0.1624
21140	23.446	5.2727	5.e-002	1.648e-005
21141	23.446	5.5455	0.	7.7161e-003
21142	23.538	5.4545	0.	0.13362
21143	23.446	5.4545	5.e-002	1.5801e-005
21144	23.446	5.7273	0.	-8.228e-002
21145	23.538	5.6364	0.	1.9762e-003
21146	23.446	5.6364	5.e-002	1.4846e-005
21147	23.538	5.8182	0.	-9.3612e-002
21148	23.446	5.8182	5.e-002	1.2197e-005
21149	23.446	5.9091	0.	6.9497e-002
21150	23.631	0.27273	0.	-1.7765e-003
21151	23.723	0.18182	0.	-0.27008
21152	23.631	0.18182	5.e-002	5.9512e-006
21153	23.631	9.0909e-002	0.	0.18294
21154	23.631	0.45455	0.	0.14911
21155	23.723	0.36364	0.	-8.8918e-002
21156	23.631	0.36364	5.e-002	2.3079e-006
21157	23.631	0.63636	0.	0.23949
21158	23.723	0.54545	0.	9.5633e-002
21159	23.631	0.54545	5.e-002	-3.2402e-006
21160	23.631	0.81818	0.	0.26796
21161	23.723	0.72727	0.	0.13151
21162	23.631	0.72727	5.e-002	-2.6945e-006
21163	23.631	1.	0.	0.28888
21164	23.723	0.90909	0.	0.16432
21165	23.631	0.90909	5.e-002	-4.0517e-007
21166	23.631	1.1818	0.	0.30148
21167	23.723	1.0909	0.	0.18251
21168	23.631	1.0909	5.e-002	-1.2942e-006
21169	23.631	1.3636	0.	0.31028
21170	23.723	1.2727	0.	0.19563
21171	23.631	1.2727	5.e-002	-1.532e-006
21172	23.631	1.5455	0.	0.31638
21173	23.723	1.4545	0.	0.20473
21174	23.631	1.4545	5.e-002	-2.0652e-006
21175	23.631	1.7273	0.	0.32073
21176	23.723	1.6364	0.	0.21133
21177	23.631	1.6364	5.e-002	-3.2536e-007
21178	23.631	1.9091	0.	0.32384
21179	23.723	1.8182	0.	0.21613
21180	23.631	1.8182	5.e-002	-4.0713e-006
21181	23.631	2.0909	0.	0.32606
21182	23.723	2.	0.	0.21963
21183	23.631	2.	5.e-002	-2.0775e-006
21184	23.631	2.2727	0.	0.32763
21185	23.723	2.1818	0.	0.22217
21186	23.631	2.1818	5.e-002	-9.7976e-007
21187	23.631	2.4545	0.	0.32871
21188	23.723	2.3636	0.	0.22398
21189	23.631	2.3636	5.e-002	1.0921e-006
21190	23.631	2.6364	0.	0.3294
21191	23.723	2.5455	0.	0.22521
21192	23.631	2.5455	5.e-002	2.2677e-006
21193	23.631	2.8182	0.	0.3298
21194	23.723	2.7273	0.	0.22597
21195	23.631	2.7273	5.e-002	1.5397e-006
21196	23.631	3.	0.	0.32992
21197	23.723	2.9091	0.	0.22634
21198	23.631	2.9091	5.e-002	3.6867e-006
21199	23.631	3.1818	0.	0.3298
21200	23.723	3.0909	0.	0.22634
21201	23.631	3.0909	5.e-002	3.9468e-006
21202	23.631	3.3636	0.	0.3294
21203	23.723	3.2727	0.	0.22597
21204	23.631	3.2727	5.e-002	7.0735e-006
21205	23.631	3.5455	0.	0.3287
21206	23.723	3.4545	0.	0.22521
21207	23.631	3.4545	5.e-002	7.3444e-006
21208	23.631	3.7273	0.	0.32762
21209	23.723	3.6364	0.	0.22398
21210	23.631	3.6364	5.e-002	1.0499e-005
21211	23.631	3.9091	0.	0.32606
21212	23.723	3.8182	0.	0.22217
21213	23.631	3.8182	5.e-002	1.3706e-005
21214	23.631	4.0909	0.	0.32384
21215	23.723	4.	0.	0.21963
21216	23.631	4.	5.e-002	1.3071e-005
21217	23.631	4.2727	0.	0.32073
21218	23.723	4.1818	0.	0.21613
21219	23.631	4.1818	5.e-002	1.343e-005
21220	23.631	4.4545	0.	0.31638
21221	23.723	4.3636	0.	0.21133
21222	23.631	4.3636	5.e-002	1.6655e-005
21223	23.631	4.6364	0.	0.31028
21224	23.723	4.5455	0.	0.20473
21225	23.631	4.5455	5.e-002	1.7925e-005
21226	23.631	4.8182	0.	0.30148
21227	23.723	4.7273	0.	0.19563
21228	23.631	4.7273	5.e-002	1.8196e-005
21229	23.631	5.	0.	0.28888
21230	23.723	4.9091	0.	0.18251
21231	23.631	4.9091	5.e-002	2.0395e-005
21232	23.631	5.1818	0.	0.26796
21233	23.723	5.0909	0.	0.16432
21234	23.631	5.0909	5.e-002	1.7962e-005
21235	23.631	5.3636	0.	0.23949
21236	23.723	5.2727	0.	0.13151
21237	23.631	5.2727	5.e-002	1.7983e-005
21238	23.631	5.5455	0.	0.14911
21239	23.723	5.4545	0.	9.5632e-002
21240	23.631	5.4545	5.e-002	1.755e-005
21241	23.631	5.7273	0.	-1.7762e-003
21242	23.723	5.6364	0.	-8.8915e-002
21243	23.631	5.6364	5.e-002	1.818e-005
21244	23.723	5.8182	0.	-0.27008
21245	23.631	5.8182	5.e-002	1.4605e-005
21246	23.631	5.9091	0.	0.18294
21247	23.815	0.27273	0.	-0.30049
21248	23.815	0.18182	5.e-002	3.2287e-006
21249	23.815	9.0909e-002	0.	-5.8856e-003
21250	23.908	0.18182	0.	9.2091e-003
21251	23.815	0.45455	0.	-7.1379e-002
21252	23.815	0.36364	5.e-002	-2.2155e-006
21253	23.908	0.36364	0.	0.20323
21254	23.815	0.63636	0.	5.8391e-002
21255	23.815	0.54545	5.e-002	-1.5308e-006
21256	23.908	0.54545	0.	0.37142
21257	23.815	0.81818	0.	0.10093
21258	23.815	0.72727	5.e-002	-3.3054e-006
21259	23.908	0.72727	0.	0.38104
21260	23.815	1.	0.	0.13361
21261	23.815	0.90909	5.e-002	-2.8259e-006
21262	23.908	0.90909	0.	0.39999
21263	23.815	1.1818	0.	0.15455
21264	23.815	1.0909	5.e-002	-3.4495e-006
21265	23.908	1.0909	0.	0.40773
21266	23.815	1.3636	0.	0.16979
21267	23.815	1.2727	5.e-002	-1.6046e-006
21268	23.908	1.2727	0.	0.41373
21269	23.815	1.5455	0.	0.18082
21270	23.815	1.4545	5.e-002	-3.0961e-006
21271	23.908	1.4545	0.	0.41757
21272	23.815	1.7273	0.	0.18898
21273	23.815	1.6364	5.e-002	-3.8685e-006
21274	23.908	1.6364	0.	0.42031
21275	23.815	1.9091	0.	0.19503
21276	23.815	1.8182	5.e-002	-5.7218e-006
21277	23.908	1.8182	0.	0.42224
21278	23.815	2.0909	0.	0.1995
21279	23.815	2.	5.e-002	-4.7175e-006
21280	23.908	2.	0.	0.42363
21281	23.815	2.2727	0.	0.20275
21282	23.815	2.1818	5.e-002	-3.6682e-006
21283	23.908	2.1818	0.	0.42463
21284	23.815	2.4545	0.	0.20504
21285	23.815	2.3636	5.e-002	-1.6197e-006
21286	23.908	2.3636	0.	0.42533
21287	23.815	2.6364	0.	0.20656
21288	23.815	2.5455	5.e-002	-4.9495e-007
21289	23.908	2.5455	0.	0.42581
21290	23.815	2.8182	0.	0.20743
21291	23.815	2.7273	5.e-002	-1.2641e-006
21292	23.908	2.7273	0.	0.42611
21293	23.815	3.	0.	0.20771
21294	23.815	2.9091	5.e-002	1.798e-006
21295	23.908	2.9091	0.	0.42625
21296	23.815	3.1818	0.	0.20743
21297	23.815	3.0909	5.e-002	2.0218e-006
21298	23.908	3.0909	0.	0.42625
21299	23.815	3.3636	0.	0.20656
21300	23.815	3.2727	5.e-002	5.104e-006
21301	23.908	3.2727	0.	0.42611
21302	23.815	3.5455	0.	0.20504
21303	23.815	3.4545	5.e-002	4.3712e-006
21304	23.908	3.4545	0.	0.42581
21305	23.815	3.7273	0.	0.20275
21306	23.815	3.6364	5.e-002	8.4343e-006
21307	23.908	3.6364	0.	0.42533
21308	23.815	3.9091	0.	0.1995
21309	23.815	3.8182	5.e-002	1.3499e-005
21310	23.908	3.8182	0.	0.42463
21311	23.815	4.0909	0.	0.19503
21312	23.815	4.	5.e-002	1.3689e-005
21313	23.908	4.	0.	0.42363
21314	23.815	4.2727	0.	0.18898
21315	23.815	4.1818	5.e-002	1.3038e-005
21316	23.908	4.1818	0.	0.42224
21317	23.815	4.4545	0.	0.18082
21318	23.815	4.3636	5.e-002	1.6131e-005
21319	23.908	4.3636	0.	0.42031
21320	23.815	4.6364	0.	0.16978
21321	23.815	4.5455	5.e-002	1.5401e-005
21322	23.908	4.5455	0.	0.41757
21323	23.815	4.8182	0.	0.15455
21324	23.815	4.7273	5.e-002	1.8295e-005
21325	23.908	4.7273	0.	0.41373
21326	23.815	5.	0.	0.13361
21327	23.815	4.9091	5.e-002	1.9376e-005
21328	23.908	4.9091	0.	0.40773
21329	23.815	5.1818	0.	0.10093
21330	23.815	5.0909	5.e-002	1.6987e-005
21331	23.908	5.0909	0.	0.39999
21332	23.815	5.3636	0.	5.8387e-002
21333	23.815	5.2727	5.e-002	1.7642e-005
21334	23.908	5.2727	0.	0.38104
21335	23.815	5.5455	0.	-7.138e-002
21336	23.815	5.4545	5.e-002	1.6383e-005
21337	23.908	5.4545	0.	0.37142
21338	23.815	5.7273	0.	-0.30049
21339	23.815	5.6364	5.e-002	1.6644e-005
21340	23.908	5.6364	0.	0.20323
21341	23.815	5.8182	5.e-002	1.3806e-005
21342	23.908	5.8182	0.	9.2109e-003
21343	23.815	5.9091	0.	-5.8879e-003
21344	23.815	5.7273	0.1	0.30049
21345	23.723	5.8182	0.1	0.27008
21346	23.815	5.9091	0.1	5.8882e-003
21347	23.908	5.8182	0.1	-9.2094e-003
21348	23.815	5.5455	0.1	7.1381e-002
21349	23.723	5.6364	0.1	8.8917e-002
21350	23.908	5.6364	0.1	-0.20323
21351	23.815	5.3636	0.1	-5.8386e-002
21352	23.723	5.4545	0.1	-9.563e-002
21353	23.908	5.4545	0.1	-0.37142
21354	23.815	5.1818	0.1	-0.10093
21355	23.723	5.2727	0.1	-0.13151
21356	23.908	5.2727	0.1	-0.38103
21357	23.815	5.	0.1	-0.13361
21358	23.723	5.0909	0.1	-0.16432
21359	23.908	5.0909	0.1	-0.39999
21360	23.815	4.8182	0.1	-0.15455
21361	23.723	4.9091	0.1	-0.18251
21362	23.908	4.9091	0.1	-0.40773
21363	23.815	4.6364	0.1	-0.16978
21364	23.723	4.7273	0.1	-0.19563
21365	23.908	4.7273	0.1	-0.41373
21366	23.815	4.4545	0.1	-0.18082
21367	23.723	4.5455	0.1	-0.20473
21368	23.908	4.5455	0.1	-0.41757
21369	23.815	4.2727	0.1	-0.18898
21370	23.723	4.3636	0.1	-0.21133
21371	23.908	4.3636	0.1	-0.42031
21372	23.815	4.0909	0.1	-0.19503
21373	23.723	4.1818	0.1	-0.21613
21374	23.908	4.1818	0.1	-0.42224
21375	23.815	3.9091	0.1	-0.1995
21376	23.723	4.	0.1	-0.21963
21377	23.908	4.	0.1	-0.42363
21378	23.815	3.7273	0.1	-0.20275
21379	23.723	3.8182	0.1	-0.22217
21380	23.908	3.8182	0.1	-0.42463
21381	23.815	3.5455	0.1	-0.20504
21382	23.723	3.6364	0.1	-0.22397
21383	23.908	3.6364	0.1	-0.42533
21384	23.815	3.3636	0.1	-0.20656
21385	23.723	3.4545	0.1	-0.22521
21386	23.908	3.4545	0.1	-0.42581
21387	23.815	3.1818	0.1	-0.20743
21388	23.723	3.2727	0.1	-0.22597
21389	23.908	3.2727	0.1	-0.42611
21390	23.815	3.	0.1	-0.20771
21391	23.723	3.0909	0.1	-0.22634
21392	23.908	3.0909	0.1	-0.42625
21393	23.815	2.8182	0.1	-0.20743
21394	23.723	2.9091	0.1	-0.22634
21395	23.908	2.9091	0.1	-0.42625
21396	23.815	2.6364	0.1	-0.20656
21397	23.723	2.7273	0.1	-0.22597
21398	23.908	2.7273	0.1	-0.42611
21399	23.815	2.4545	0.1	-0.20504
21400	23.723	2.5455	0.1	-0.22521
21401	23.908	2.5455	0.1	-0.42581
21402	23.815	2.2727	0.1	-0.20275
21403	23.723	2.3636	0.1	-0.22397
21404	23.908	2.3636	0.1	-0.42533
21405	23.815	2.0909	0.1	-0.1995
21406	23.723	2.1818	0.1	-0.22217
21407	23.908	2.1818	0.1	-0.42463
21408	23.815	1.9091	0.1	-0.19503
21409	23.723	2.	0.1	-0.21963
21410	23.908	2.	0.1	-0.42363
21411	23.815	1.7273	0.1	-0.18898
21412	23.723	1.8182	0.1	-0.21613
21413	23.908	1.8182	0.1	-0.42224
21414	23.815	1.5455	0.1	-0.18082
21415	23.723	1.6364	0.1	-0.21133
21416	23.908	1.6364	0.1	-0.42031
21417	23.815	1.3636	0.1	-0.16979
21418	23.723	1.4545	0.1	-0.20473
21419	23.908	1.4545	0.1	-0.41757
21420	23.815	1.1818	0.1	-0.15455
21421	23.723	1.2727	0.1	-0.19563
21422	23.908	1.2727	0.1	-0.41373
21423	23.815	1.	0.1	-0.13361
21424	23.723	1.0909	0.1	-0.18251
21425	23.908	1.0909	0.1	-0.40773
21426	23.815	0.81818	0.1	-0.10093
21427	23.723	0.90909	0.1	-0.16432
21428	23.908	0.90909	0.1	-0.39999
21429	23.815	0.63636	0.1	-5.8388e-002
21430	23.723	0.72727	0.1	-0.13151
21431	23.908	0.72727	0.1	-0.38104
21432	23.815	0.45455	0.1	7.138e-002
21433	23.723	0.54545	0.1	-9.5632e-002
21434	23.908	0.54545	0.1	-0.37142
21435	23.815	0.27273	0.1	0.30049
21436	23.723	0.36364	0.1	8.8918e-002
21437	23.908	0.36364	0.1	-0.20323
21438	23.723	0.18182	0.1	0.27008
21439	23.908	0.18182	0.1	-9.2099e-003
21440	23.815	9.0909e-002	0.1	5.8857e-003
21441	23.631	5.7273	0.1	1.7775e-003
21442	23.538	5.8182	0.1	9.3612e-002
21443	23.631	5.9091	0.1	-0.18294
21444	23.631	5.5455	0.1	-0.14911
21445	23.538	5.6364	0.1	-1.9738e-003
21446	23.631	5.3636	0.1	-0.23949
21447	23.538	5.4545	0.1	-0.13362
21448	23.631	5.1818	0.1	-0.26796
21449	23.538	5.2727	0.1	-0.1624
21450	23.631	5.	0.1	-0.28888
21451	23.538	5.0909	0.1	-0.18676
21452	23.631	4.8182	0.1	-0.30148
21453	23.538	4.9091	0.1	-0.19995
21454	23.631	4.6364	0.1	-0.31028
21455	23.538	4.7273	0.1	-0.20926
21456	23.631	4.4545	0.1	-0.31638
21457	23.538	4.5455	0.1	-0.21557
21458	23.631	4.2727	0.1	-0.32073
21459	23.538	4.3636	0.1	-0.22007
21460	23.631	4.0909	0.1	-0.32384
21461	23.538	4.1818	0.1	-0.22328
21462	23.631	3.9091	0.1	-0.32606
21463	23.538	4.	0.1	-0.2256
21464	23.631	3.7273	0.1	-0.32762
21465	23.538	3.8182	0.1	-0.22726
21466	23.631	3.5455	0.1	-0.3287
21467	23.538	3.6364	0.1	-0.22843
21468	23.631	3.3636	0.1	-0.3294
21469	23.538	3.4545	0.1	-0.22923
21470	23.631	3.1818	0.1	-0.3298
21471	23.538	3.2727	0.1	-0.22972
21472	23.631	3.	0.1	-0.32992
21473	23.538	3.0909	0.1	-0.22996
21474	23.631	2.8182	0.1	-0.3298
21475	23.538	2.9091	0.1	-0.22996
21476	23.631	2.6364	0.1	-0.3294
21477	23.538	2.7273	0.1	-0.22972
21478	23.631	2.4545	0.1	-0.3287
21479	23.538	2.5455	0.1	-0.22923
21480	23.631	2.2727	0.1	-0.32762
21481	23.538	2.3636	0.1	-0.22843
21482	23.631	2.0909	0.1	-0.32606
21483	23.538	2.1818	0.1	-0.22726
21484	23.631	1.9091	0.1	-0.32384
21485	23.538	2.	0.1	-0.2256
21486	23.631	1.7273	0.1	-0.32073
21487	23.538	1.8182	0.1	-0.22328
21488	23.631	1.5455	0.1	-0.31638
21489	23.538	1.6364	0.1	-0.22006
21490	23.631	1.3636	0.1	-0.31028
21491	23.538	1.4545	0.1	-0.21557
21492	23.631	1.1818	0.1	-0.30148
21493	23.538	1.2727	0.1	-0.20926
21494	23.631	1.	0.1	-0.28888
21495	23.538	1.0909	0.1	-0.19995
21496	23.631	0.81818	0.1	-0.26796
21497	23.538	0.90909	0.1	-0.18676
21498	23.631	0.63636	0.1	-0.23949
21499	23.538	0.72727	0.1	-0.1624
21500	23.631	0.45455	0.1	-0.14911
21501	23.538	0.54545	0.1	-0.13362
21502	23.631	0.27273	0.1	1.7785e-003
21503	23.538	0.36364	0.1	-1.9725e-003
21504	23.538	0.18182	0.1	9.3613e-002
21505	23.631	9.0909e-002	0.1	-0.18294
21506	23.446	5.7273	0.1	8.2282e-002
21507	23.354	5.8182	0.1	9.0078e-002
21508	23.446	5.9091	0.1	-6.9495e-002
21509	23.446	5.5455	0.1	-7.7145e-003
21510	23.354	5.6364	0.1	4.8251e-002
21511	23.446	5.3636	0.1	-7.3945e-002
21512	23.354	5.4545	0.1	-5.2953e-002
21513	23.446	5.1818	0.1	-9.7493e-002
21514	23.354	5.2727	0.1	-7.7663e-002
21515	23.446	5.	0.1	-0.11393
21516	23.354	5.0909	0.1	-9.8079e-002
21517	23.446	4.8182	0.1	-0.12389
21518	23.354	4.9091	0.1	-0.10933
21519	23.446	4.6364	0.1	-0.13084
21520	23.354	4.7273	0.1	-0.11721
21521	23.446	4.4545	0.1	-0.13567
21522	23.354	4.5455	0.1	-0.12254
21523	23.446	4.2727	0.1	-0.13916
21524	23.354	4.3636	0.1	-0.12633
21525	23.446	4.0909	0.1	-0.14168
21526	23.354	4.1818	0.1	-0.12905
21527	23.446	3.9091	0.1	-0.14351
21528	23.354	4.	0.1	-0.13102
21529	23.446	3.7273	0.1	-0.14484
21530	23.354	3.8182	0.1	-0.13244
21531	23.446	3.5455	0.1	-0.14577
21532	23.354	3.6364	0.1	-0.13345
21533	23.446	3.3636	0.1	-0.14638
21534	23.354	3.4545	0.1	-0.13414
21535	23.446	3.1818	0.1	-0.14673
21536	23.354	3.2727	0.1	-0.13458
21537	23.446	3.	0.1	-0.14684
21538	23.354	3.0909	0.1	-0.13478
21539	23.446	2.8182	0.1	-0.14673
21540	23.354	2.9091	0.1	-0.13478
21541	23.446	2.6364	0.1	-0.14638
21542	23.354	2.7273	0.1	-0.13458
21543	23.446	2.4545	0.1	-0.14577
21544	23.354	2.5455	0.1	-0.13415
21545	23.446	2.2727	0.1	-0.14484
21546	23.354	2.3636	0.1	-0.13345
21547	23.446	2.0909	0.1	-0.14351
21548	23.354	2.1818	0.1	-0.13245
21549	23.446	1.9091	0.1	-0.14168
21550	23.354	2.	0.1	-0.13102
21551	23.446	1.7273	0.1	-0.13916
21552	23.354	1.8182	0.1	-0.12905
21553	23.446	1.5455	0.1	-0.13567
21554	23.354	1.6364	0.1	-0.12633
21555	23.446	1.3636	0.1	-0.13084
21556	23.354	1.4545	0.1	-0.12254
21557	23.446	1.1818	0.1	-0.12389
21558	23.354	1.2727	0.1	-0.11721
21559	23.446	1.	0.1	-0.11393
21560	23.354	1.0909	0.1	-0.10933
21561	23.446	0.81818	0.1	-9.7493e-002
21562	23.354	0.90909	0.1	-9.808e-002
21563	23.446	0.63636	0.1	-7.3945e-002
21564	23.354	0.72727	0.1	-7.7663e-002
21565	23.446	0.45455	0.1	-7.7135e-003
21566	23.354	0.54545	0.1	-5.2955e-002
21567	23.446	0.27273	0.1	8.2282e-002
21568	23.354	0.36364	0.1	4.8253e-002
21569	23.354	0.18182	0.1	9.0078e-002
21570	23.446	9.0909e-002	0.1	-6.9496e-002
21571	23.261	5.7273	0.1	6.1727e-002
21572	23.169	5.8182	0.1	6.536e-002
21573	23.261	5.9091	0.1	-5.4003e-002
21574	23.261	5.5455	0.1	-7.9287e-003
21575	23.169	5.6364	0.1	4.6062e-002
21576	23.261	5.3636	0.1	-6.4721e-002
21577	23.169	5.4545	0.1	-3.9209e-002
21578	23.261	5.1818	0.1	-8.4978e-002
21579	23.169	5.2727	0.1	-6.0291e-002
21580	23.261	5.	0.1	-9.9721e-002
21581	23.169	5.0909	0.1	-7.855e-002
21582	23.261	4.8182	0.1	-0.10872
21583	23.169	4.9091	0.1	-8.8828e-002
21584	23.261	4.6364	0.1	-0.11492
21585	23.169	4.7273	0.1	-9.5987e-002
21586	23.261	4.4545	0.1	-0.1192
21587	23.169	4.5455	0.1	-0.1008
21588	23.261	4.2727	0.1	-0.12224
21589	23.169	4.3636	0.1	-0.1042
21590	23.261	4.0909	0.1	-0.12442
21591	23.169	4.1818	0.1	-0.10661
21592	23.261	3.9091	0.1	-0.126
21593	23.169	4.	0.1	-0.10834
21594	23.261	3.7273	0.1	-0.12712
21595	23.169	3.8182	0.1	-0.10958
21596	23.261	3.5455	0.1	-0.1279
21597	23.169	3.6364	0.1	-0.11045
21598	23.261	3.3636	0.1	-0.12841
21599	23.169	3.4545	0.1	-0.11104
21600	23.261	3.1818	0.1	-0.1287
21601	23.169	3.2727	0.1	-0.1114
21602	23.261	3.	0.1	-0.1288
21603	23.169	3.0909	0.1	-0.11158
21604	23.261	2.8182	0.1	-0.1287
21605	23.169	2.9091	0.1	-0.11158
21606	23.261	2.6364	0.1	-0.12841
21607	23.169	2.7273	0.1	-0.1114
21608	23.261	2.4545	0.1	-0.1279
21609	23.169	2.5455	0.1	-0.11104
21610	23.261	2.2727	0.1	-0.12712
21611	23.169	2.3636	0.1	-0.11045
21612	23.261	2.0909	0.1	-0.126
21613	23.169	2.1818	0.1	-0.10958
21614	23.261	1.9091	0.1	-0.12443
21615	23.169	2.	0.1	-0.10834
21616	23.261	1.7273	0.1	-0.12224
21617	23.169	1.8182	0.1	-0.10661
21618	23.261	1.5455	0.1	-0.1192
21619	23.169	1.6364	0.1	-0.1042
21620	23.261	1.3636	0.1	-0.11492
21621	23.169	1.4545	0.1	-0.1008
21622	23.261	1.1818	0.1	-0.10872
21623	23.169	1.2727	0.1	-9.5988e-002
21624	23.261	1.	0.1	-9.9721e-002
21625	23.169	1.0909	0.1	-8.8829e-002
21626	23.261	0.81818	0.1	-8.4978e-002
21627	23.169	0.90909	0.1	-7.855e-002
21628	23.261	0.63636	0.1	-6.4722e-002
21629	23.169	0.72727	0.1	-6.0292e-002
21630	23.261	0.45455	0.1	-7.9286e-003
21631	23.169	0.54545	0.1	-3.9212e-002
21632	23.261	0.27273	0.1	6.1729e-002
21633	23.169	0.36364	0.1	4.6065e-002
21634	23.169	0.18182	0.1	6.5362e-002
21635	23.261	9.0909e-002	0.1	-5.4007e-002
21636	23.077	5.7273	0.1	5.974e-002
21637	22.984	5.8182	0.1	5.2176e-002
21638	23.077	5.9091	0.1	-3.2956e-002
21639	23.077	5.5455	0.1	8.0187e-003
21640	22.984	5.6364	0.1	4.739e-002
21641	23.077	5.3636	0.1	-3.9662e-002
21642	22.984	5.4545	0.1	-2.3728e-002
21643	23.077	5.1818	0.1	-5.7616e-002
21644	22.984	5.2727	0.1	-4.222e-002
21645	23.077	5.	0.1	-7.0904e-002
21646	22.984	5.0909	0.1	-5.8595e-002
21647	23.077	4.8182	0.1	-7.9117e-002
21648	22.984	4.9091	0.1	-6.8042e-002
21649	23.077	4.6364	0.1	-8.4783e-002
21650	22.984	4.7273	0.1	-7.4649e-002
21651	23.077	4.4545	0.1	-8.867e-002
21652	22.984	4.5455	0.1	-7.9091e-002
21653	23.077	4.2727	0.1	-9.1414e-002
21654	22.984	4.3636	0.1	-8.22e-002
21655	23.077	4.0909	0.1	-9.3362e-002
21656	22.984	4.1818	0.1	-8.4387e-002
21657	23.077	3.9091	0.1	-9.4752e-002
21658	22.984	4.	0.1	-8.5936e-002
21659	23.077	3.7273	0.1	-9.5736e-002
21660	22.984	3.8182	0.1	-8.7031e-002
21661	23.077	3.5455	0.1	-9.6417e-002
21662	22.984	3.6364	0.1	-8.7796e-002
21663	23.077	3.3636	0.1	-9.686e-002
21664	22.984	3.4545	0.1	-8.8308e-002
21665	23.077	3.1818	0.1	-9.7111e-002
21666	22.984	3.2727	0.1	-8.8624e-002
21667	23.077	3.	0.1	-9.7193e-002
21668	22.984	3.0909	0.1	-8.8775e-002
21669	23.077	2.8182	0.1	-9.7112e-002
21670	22.984	2.9091	0.1	-8.8774e-002
21671	23.077	2.6364	0.1	-9.6861e-002
21672	22.984	2.7273	0.1	-8.8624e-002
21673	23.077	2.4545	0.1	-9.6417e-002
21674	22.984	2.5455	0.1	-8.8308e-002
21675	23.077	2.2727	0.1	-9.5737e-002
21676	22.984	2.3636	0.1	-8.7795e-002
21677	23.077	2.0909	0.1	-9.4752e-002
21678	22.984	2.1818	0.1	-8.7031e-002
21679	23.077	1.9091	0.1	-9.3361e-002
21680	22.984	2.	0.1	-8.5936e-002
21681	23.077	1.7273	0.1	-9.1413e-002
21682	22.984	1.8182	0.1	-8.4387e-002
21683	23.077	1.5455	0.1	-8.867e-002
21684	22.984	1.6364	0.1	-8.2201e-002
21685	23.077	1.3636	0.1	-8.4783e-002
21686	22.984	1.4545	0.1	-7.9092e-002
21687	23.077	1.1818	0.1	-7.9118e-002
21688	22.984	1.2727	0.1	-7.4649e-002
21689	23.077	1.	0.1	-7.0905e-002
21690	22.984	1.0909	0.1	-6.8042e-002
21691	23.077	0.81818	0.1	-5.7617e-002
21692	22.984	0.90909	0.1	-5.8597e-002
21693	23.077	0.63636	0.1	-3.9664e-002
21694	22.984	0.72727	0.1	-4.2221e-002
21695	23.077	0.45455	0.1	8.0193e-003
21696	22.984	0.54545	0.1	-2.3728e-002
21697	23.077	0.27273	0.1	5.9743e-002
21698	22.984	0.36364	0.1	4.7392e-002
21699	22.984	0.18182	0.1	5.2177e-002
21700	23.077	9.0909e-002	0.1	-3.2956e-002
21701	22.892	5.7273	0.1	5.1102e-002
21702	22.8	5.8182	0.1	4.0416e-002
21703	22.892	5.9091	0.1	-2.3775e-002
21704	22.892	5.5455	0.1	1.1136e-002
21705	22.8	5.6364	0.1	4.3634e-002
21706	22.892	5.3636	0.1	-2.9653e-002
21707	22.8	5.4545	0.1	-1.6458e-002
21708	22.892	5.1818	0.1	-4.5675e-002
21709	22.8	5.2727	0.1	-3.2737e-002
21710	22.892	5.	0.1	-5.7759e-002
21711	22.8	5.0909	0.1	-4.7461e-002
21712	22.892	4.8182	0.1	-6.5372e-002
21713	22.8	4.9091	0.1	-5.6195e-002
21714	22.892	4.6364	0.1	-7.0637e-002
21715	22.8	4.7273	0.1	-6.2341e-002
21716	22.892	4.4545	0.1	-7.4238e-002
21717	22.8	4.5455	0.1	-6.6484e-002
21718	22.892	4.2727	0.1	-7.6757e-002
21719	22.8	4.3636	0.1	-6.9364e-002
21720	22.892	4.0909	0.1	-7.8525e-002
21721	22.8	4.1818	0.1	-7.1369e-002
21722	22.892	3.9091	0.1	-7.977e-002
21723	22.8	4.	0.1	-7.2772e-002
21724	22.892	3.7273	0.1	-8.0639e-002
21725	22.8	3.8182	0.1	-7.3747e-002
21726	22.892	3.5455	0.1	-8.1232e-002
21727	22.8	3.6364	0.1	-7.4419e-002
21728	22.892	3.3636	0.1	-8.1616e-002
21729	22.8	3.4545	0.1	-7.4863e-002
21730	22.892	3.1818	0.1	-8.1831e-002
21731	22.8	3.2727	0.1	-7.5135e-002
21732	22.892	3.	0.1	-8.19e-002
21733	22.8	3.0909	0.1	-7.5263e-002
21734	22.892	2.8182	0.1	-8.183e-002
21735	22.8	2.9091	0.1	-7.5263e-002
21736	22.892	2.6364	0.1	-8.1615e-002
21737	22.8	2.7273	0.1	-7.5133e-002
21738	22.892	2.4545	0.1	-8.1232e-002
21739	22.8	2.5455	0.1	-7.4864e-002
21740	22.892	2.2727	0.1	-8.0638e-002
21741	22.8	2.3636	0.1	-7.4418e-002
21742	22.892	2.0909	0.1	-7.977e-002
21743	22.8	2.1818	0.1	-7.3747e-002
21744	22.892	1.9091	0.1	-7.8526e-002
21745	22.8	2.	0.1	-7.2772e-002
21746	22.892	1.7273	0.1	-7.6757e-002
21747	22.8	1.8182	0.1	-7.137e-002
21748	22.892	1.5455	0.1	-7.4239e-002
21749	22.8	1.6364	0.1	-6.9364e-002
21750	22.892	1.3636	0.1	-7.0638e-002
21751	22.8	1.4545	0.1	-6.6484e-002
21752	22.892	1.1818	0.1	-6.5372e-002
21753	22.8	1.2727	0.1	-6.2341e-002
21754	22.892	1.	0.1	-5.776e-002
21755	22.8	1.0909	0.1	-5.6195e-002
21756	22.892	0.81818	0.1	-4.5677e-002
21757	22.8	0.90909	0.1	-4.7463e-002
21758	22.892	0.63636	0.1	-2.9652e-002
21759	22.8	0.72727	0.1	-3.2737e-002
21760	22.892	0.45455	0.1	1.1137e-002
21761	22.8	0.54545	0.1	-1.6457e-002
21762	22.892	0.27273	0.1	5.1102e-002
21763	22.8	0.36364	0.1	4.3635e-002
21764	22.8	0.18182	0.1	4.0417e-002
21765	22.892	9.0909e-002	0.1	-2.3776e-002
21766	22.707	5.7273	0.1	4.4147e-002
21767	22.615	5.8182	0.1	3.1614e-002
21768	22.707	5.9091	0.1	-1.7225e-002
21769	22.707	5.5455	0.1	1.2944e-002
21770	22.615	5.6364	0.1	3.9297e-002
21771	22.707	5.3636	0.1	-2.2014e-002
21772	22.615	5.4545	0.1	-1.1651e-002
21773	22.707	5.1818	0.1	-3.6314e-002
21774	22.615	5.2727	0.1	-2.6007e-002
21775	22.707	5.	0.1	-4.731e-002
21776	22.615	5.0909	0.1	-3.9254e-002
21777	22.707	4.8182	0.1	-5.4369e-002
21778	22.615	4.9091	0.1	-4.7314e-002
21779	22.707	4.6364	0.1	-5.9277e-002
21780	22.615	4.7273	0.1	-5.303e-002
21781	22.707	4.4545	0.1	-6.2633e-002
21782	22.615	4.5455	0.1	-5.6897e-002
21783	22.707	4.2727	0.1	-6.4961e-002
21784	22.615	4.3636	0.1	-5.9574e-002
21785	22.707	4.0909	0.1	-6.6577e-002
21786	22.615	4.1818	0.1	-6.1418e-002
21787	22.707	3.9091	0.1	-6.7697e-002
21788	22.615	4.	0.1	-6.2689e-002
21789	22.707	3.7273	0.1	-6.8466e-002
21790	22.615	3.8182	0.1	-6.3558e-002
21791	22.707	3.5455	0.1	-6.8983e-002
21792	22.615	3.6364	0.1	-6.4144e-002
21793	22.707	3.3636	0.1	-6.9313e-002
21794	22.615	3.4545	0.1	-6.4529e-002
21795	22.707	3.1818	0.1	-6.9496e-002
21796	22.615	3.2727	0.1	-6.4757e-002
21797	22.707	3.	0.1	-6.9555e-002
21798	22.615	3.0909	0.1	-6.4866e-002
21799	22.707	2.8182	0.1	-6.9495e-002
21800	22.615	2.9091	0.1	-6.4866e-002
21801	22.707	2.6364	0.1	-6.9313e-002
21802	22.615	2.7273	0.1	-6.4757e-002
21803	22.707	2.4545	0.1	-6.8984e-002
21804	22.615	2.5455	0.1	-6.4528e-002
21805	22.707	2.2727	0.1	-6.8466e-002
21806	22.615	2.3636	0.1	-6.4145e-002
21807	22.707	2.0909	0.1	-6.7697e-002
21808	22.615	2.1818	0.1	-6.3558e-002
21809	22.707	1.9091	0.1	-6.6577e-002
21810	22.615	2.	0.1	-6.2688e-002
21811	22.707	1.7273	0.1	-6.4961e-002
21812	22.615	1.8182	0.1	-6.1418e-002
21813	22.707	1.5455	0.1	-6.2632e-002
21814	22.615	1.6364	0.1	-5.9575e-002
21815	22.707	1.3636	0.1	-5.9277e-002
21816	22.615	1.4545	0.1	-5.6897e-002
21817	22.707	1.1818	0.1	-5.437e-002
21818	22.615	1.2727	0.1	-5.3031e-002
21819	22.707	1.	0.1	-4.7312e-002
21820	22.615	1.0909	0.1	-4.7316e-002
21821	22.707	0.81818	0.1	-3.6315e-002
21822	22.615	0.90909	0.1	-3.9254e-002
21823	22.707	0.63636	0.1	-2.2014e-002
21824	22.615	0.72727	0.1	-2.6009e-002
21825	22.707	0.45455	0.1	1.2946e-002
21826	22.615	0.54545	0.1	-1.1649e-002
21827	22.707	0.27273	0.1	4.4148e-002
21828	22.615	0.36364	0.1	3.9299e-002
21829	22.615	0.18182	0.1	3.1614e-002
21830	22.707	9.0909e-002	0.1	-1.7226e-002
21831	22.523	5.7273	0.1	3.7312e-002
21832	22.43	5.8182	0.1	2.4526e-002
21833	22.523	5.9091	0.1	-1.3285e-002
21834	22.523	5.5455	0.1	1.2564e-002
21835	22.43	5.6364	0.1	3.4285e-002
21836	22.523	5.3636	0.1	-1.7513e-002
21837	22.43	5.4545	0.1	-9.004e-003
21838	22.523	5.1818	0.1	-3.0311e-002
21839	22.43	5.2727	0.1	-2.1731e-002
21840	22.523	5.	0.1	-4.0314e-002
21841	22.43	5.0909	0.1	-3.3645e-002
21842	22.523	4.8182	0.1	-4.685e-002
21843	22.43	4.9091	0.1	-4.107e-002
21844	22.523	4.6364	0.1	-5.1417e-002
21845	22.43	4.7273	0.1	-4.637e-002
21846	22.523	4.4545	0.1	-5.4541e-002
21847	22.43	4.5455	0.1	-4.9967e-002
21848	22.523	4.2727	0.1	-5.6693e-002
21849	22.43	4.3636	0.1	-5.2444e-002
21850	22.523	4.0909	0.1	-5.8166e-002
21851	22.43	4.1818	0.1	-5.413e-002
21852	22.523	3.9091	0.1	-5.917e-002
21853	22.43	4.	0.1	-5.5273e-002
21854	22.523	3.7273	0.1	-5.9847e-002
21855	22.43	3.8182	0.1	-5.6039e-002
21856	22.523	3.5455	0.1	-6.0294e-002
21857	22.43	3.6364	0.1	-5.6545e-002
21858	22.523	3.3636	0.1	-6.0573e-002
21859	22.43	3.4545	0.1	-5.687e-002
21860	22.523	3.1818	0.1	-6.0726e-002
21861	22.43	3.2727	0.1	-5.7061e-002
21862	22.523	3.	0.1	-6.0775e-002
21863	22.43	3.0909	0.1	-5.715e-002
21864	22.523	2.8182	0.1	-6.0726e-002
21865	22.43	2.9091	0.1	-5.715e-002
21866	22.523	2.6364	0.1	-6.0572e-002
21867	22.43	2.7273	0.1	-5.706e-002
21868	22.523	2.4545	0.1	-6.0293e-002
21869	22.43	2.5455	0.1	-5.687e-002
21870	22.523	2.2727	0.1	-5.9847e-002
21871	22.43	2.3636	0.1	-5.6546e-002
21872	22.523	2.0909	0.1	-5.917e-002
21873	22.43	2.1818	0.1	-5.6039e-002
21874	22.523	1.9091	0.1	-5.8166e-002
21875	22.43	2.	0.1	-5.5273e-002
21876	22.523	1.7273	0.1	-5.6694e-002
21877	22.43	1.8182	0.1	-5.4131e-002
21878	22.523	1.5455	0.1	-5.4542e-002
21879	22.43	1.6364	0.1	-5.2443e-002
21880	22.523	1.3636	0.1	-5.1418e-002
21881	22.43	1.4545	0.1	-4.9967e-002
21882	22.523	1.1818	0.1	-4.6851e-002
21883	22.43	1.2727	0.1	-4.6371e-002
21884	22.523	1.	0.1	-4.0314e-002
21885	22.43	1.0909	0.1	-4.1072e-002
21886	22.523	0.81818	0.1	-3.0312e-002
21887	22.43	0.90909	0.1	-3.3646e-002
21888	22.523	0.63636	0.1	-1.7513e-002
21889	22.43	0.72727	0.1	-2.1733e-002
21890	22.523	0.45455	0.1	1.2565e-002
21891	22.43	0.54545	0.1	-9.004e-003
21892	22.523	0.27273	0.1	3.7312e-002
21893	22.43	0.36364	0.1	3.4287e-002
21894	22.43	0.18182	0.1	2.4525e-002
21895	22.523	9.0909e-002	0.1	-1.3283e-002
21896	22.338	5.7273	0.1	3.1144e-002
21897	22.245	5.8182	0.1	1.887e-002
21898	22.338	5.9091	0.1	-1.0734e-002
21899	22.338	5.5455	0.1	1.126e-002
21900	22.245	5.6364	0.1	2.9138e-002
21901	22.338	5.3636	0.1	-1.4652e-002
21902	22.245	5.4545	0.1	-7.6398e-003
21903	22.338	5.1818	0.1	-2.6132e-002
21904	22.245	5.2727	0.1	-1.8977e-002
21905	22.338	5.	0.1	-3.5224e-002
21906	22.245	5.0909	0.1	-2.9693e-002
21907	22.338	4.8182	0.1	-4.126e-002
21908	22.245	4.9091	0.1	-3.6517e-002
21909	22.338	4.6364	0.1	-4.5492e-002
21910	22.245	4.7273	0.1	-4.1409e-002
21911	22.338	4.4545	0.1	-4.8381e-002
21912	22.245	4.5455	0.1	-4.4729e-002
21913	22.338	4.2727	0.1	-5.0352e-002
21914	22.245	4.3636	0.1	-4.6997e-002
21915	22.338	4.0909	0.1	-5.1681e-002
21916	22.245	4.1818	0.1	-4.8517e-002
21917	22.338	3.9091	0.1	-5.2569e-002
21918	22.245	4.	0.1	-4.9528e-002
21919	22.338	3.7273	0.1	-5.3154e-002
21920	22.245	3.8182	0.1	-5.0189e-002
21921	22.338	3.5455	0.1	-5.3532e-002
21922	22.245	3.6364	0.1	-5.0615e-002
21923	22.338	3.3636	0.1	-5.3764e-002
21924	22.245	3.4545	0.1	-5.0881e-002
21925	22.338	3.1818	0.1	-5.3889e-002
21926	22.245	3.2727	0.1	-5.1036e-002
21927	22.338	3.	0.1	-5.3928e-002
21928	22.245	3.0909	0.1	-5.1108e-002
21929	22.338	2.8182	0.1	-5.3888e-002
21930	22.245	2.9091	0.1	-5.1107e-002
21931	22.338	2.6364	0.1	-5.3764e-002
21932	22.245	2.7273	0.1	-5.1036e-002
21933	22.338	2.4545	0.1	-5.3532e-002
21934	22.245	2.5455	0.1	-5.0882e-002
21935	22.338	2.2727	0.1	-5.3154e-002
21936	22.245	2.3636	0.1	-5.0615e-002
21937	22.338	2.0909	0.1	-5.2569e-002
21938	22.245	2.1818	0.1	-5.0189e-002
21939	22.338	1.9091	0.1	-5.1682e-002
21940	22.245	2.	0.1	-4.9528e-002
21941	22.338	1.7273	0.1	-5.0352e-002
21942	22.245	1.8182	0.1	-4.8518e-002
21943	22.338	1.5455	0.1	-4.838e-002
21944	22.245	1.6364	0.1	-4.6996e-002
21945	22.338	1.3636	0.1	-4.5493e-002
21946	22.245	1.4545	0.1	-4.4729e-002
21947	22.338	1.1818	0.1	-4.1261e-002
21948	22.245	1.2727	0.1	-4.141e-002
21949	22.338	1.	0.1	-3.5227e-002
21950	22.245	1.0909	0.1	-3.6518e-002
21951	22.338	0.81818	0.1	-2.6134e-002
21952	22.245	0.90909	0.1	-2.9695e-002
21953	22.338	0.63636	0.1	-1.4654e-002
21954	22.245	0.72727	0.1	-1.898e-002
21955	22.338	0.45455	0.1	1.1261e-002
21956	22.245	0.54545	0.1	-7.6402e-003
21957	22.338	0.27273	0.1	3.1144e-002
21958	22.245	0.36364	0.1	2.9141e-002
21959	22.245	0.18182	0.1	1.887e-002
21960	22.338	9.0909e-002	0.1	-1.074e-002
21961	22.153	5.7273	0.1	2.5505e-002
21962	22.061	5.8182	0.1	1.4288e-002
21963	22.153	5.9091	0.1	-9.2051e-003
21964	22.153	5.5455	0.1	9.2826e-003
21965	22.061	5.6364	0.1	2.3973e-002
21966	22.153	5.3636	0.1	-1.3056e-002
21967	22.061	5.4545	0.1	-7.2312e-003
21968	22.153	5.1818	0.1	-2.3381e-002
21969	22.061	5.2727	0.1	-1.7383e-002
21970	22.153	5.	0.1	-3.1642e-002
21971	22.061	5.0909	0.1	-2.7023e-002
21972	22.153	4.8182	0.1	-3.7195e-002
21973	22.061	4.9091	0.1	-3.3281e-002
21974	22.153	4.6364	0.1	-4.109e-002
21975	22.061	4.7273	0.1	-3.7769e-002
21976	22.153	4.4545	0.1	-4.3733e-002
21977	22.061	4.5455	0.1	-4.0802e-002
21978	22.153	4.2727	0.1	-4.551e-002
21979	22.061	4.3636	0.1	-4.2842e-002
21980	22.153	4.0909	0.1	-4.6686e-002
21981	22.061	4.1818	0.1	-4.418e-002
21982	22.153	3.9091	0.1	-4.7451e-002
21983	22.061	4.	0.1	-4.5045e-002
21984	22.153	3.7273	0.1	-4.7942e-002
21985	22.061	3.8182	0.1	-4.5594e-002
21986	22.153	3.5455	0.1	-4.825e-002
21987	22.061	3.6364	0.1	-4.594e-002
21988	22.153	3.3636	0.1	-4.8436e-002
21989	22.061	3.4545	0.1	-4.6151e-002
21990	22.153	3.1818	0.1	-4.8536e-002
21991	22.061	3.2727	0.1	-4.6274e-002
21992	22.153	3.	0.1	-4.8567e-002
21993	22.061	3.0909	0.1	-4.6332e-002
21994	22.153	2.8182	0.1	-4.8536e-002
21995	22.061	2.9091	0.1	-4.6331e-002
21996	22.153	2.6364	0.1	-4.8437e-002
21997	22.061	2.7273	0.1	-4.6275e-002
21998	22.153	2.4545	0.1	-4.825e-002
21999	22.061	2.5455	0.1	-4.6152e-002
22000	22.153	2.2727	0.1	-4.7942e-002
22001	22.061	2.3636	0.1	-4.5939e-002
22002	22.153	2.0909	0.1	-4.7451e-002
22003	22.061	2.1818	0.1	-4.5594e-002
22004	22.153	1.9091	0.1	-4.6686e-002
22005	22.061	2.	0.1	-4.5045e-002
22006	22.153	1.7273	0.1	-4.5511e-002
22007	22.061	1.8182	0.1	-4.4181e-002
22008	22.153	1.5455	0.1	-4.3733e-002
22009	22.061	1.6364	0.1	-4.2843e-002
22010	22.153	1.3636	0.1	-4.109e-002
22011	22.061	1.4545	0.1	-4.0801e-002
22012	22.153	1.1818	0.1	-3.7196e-002
22013	22.061	1.2727	0.1	-3.777e-002
22014	22.153	1.	0.1	-3.1643e-002
22015	22.061	1.0909	0.1	-3.3281e-002
22016	22.153	0.81818	0.1	-2.3384e-002
22017	22.061	0.90909	0.1	-2.7025e-002
22018	22.153	0.63636	0.1	-1.3058e-002
22019	22.061	0.72727	0.1	-1.7385e-002
22020	22.153	0.45455	0.1	9.2844e-003
22021	22.061	0.54545	0.1	-7.2303e-003
22022	22.153	0.27273	0.1	2.5507e-002
22023	22.061	0.36364	0.1	2.3974e-002
22024	22.061	0.18182	0.1	1.4289e-002
22025	22.153	9.0909e-002	0.1	-9.2038e-003
22026	21.968	5.7273	0.1	2.0371e-002
22027	21.876	5.8182	0.1	1.0568e-002
22028	21.968	5.9091	0.1	-8.4046e-003
22029	21.968	5.5455	0.1	6.8783e-003
22030	21.876	5.6364	0.1	1.889e-002
22031	21.968	5.3636	0.1	-1.2378e-002
22032	21.876	5.4545	0.1	-7.5394e-003
22033	21.968	5.1818	0.1	-2.1691e-002
22034	21.876	5.2727	0.1	-1.6678e-002
22035	21.968	5.	0.1	-2.9192e-002
22036	21.876	5.0909	0.1	-2.5352e-002
22037	21.968	4.8182	0.1	-3.4283e-002
22038	21.876	4.9091	0.1	-3.1076e-002
22039	21.968	4.6364	0.1	-3.7836e-002
22040	21.876	4.7273	0.1	-3.5159e-002
22041	21.968	4.4545	0.1	-4.0213e-002
22042	21.876	4.5455	0.1	-3.7883e-002
22043	21.968	4.2727	0.1	-4.1773e-002
22044	21.876	4.3636	0.1	-3.9663e-002
22045	21.968	4.0909	0.1	-4.2772e-002
22046	21.876	4.1818	0.1	-4.0787e-002
22047	21.968	3.9091	0.1	-4.3401e-002
22048	21.876	4.	0.1	-4.148e-002
22049	21.968	3.7273	0.1	-4.3794e-002
22050	21.876	3.8182	0.1	-4.1907e-002
22051	21.968	3.5455	0.1	-4.4037e-002
22052	21.876	3.6364	0.1	-4.2174e-002
22053	21.968	3.3636	0.1	-4.4185e-002
22054	21.876	3.4545	0.1	-4.2348e-002
22055	21.968	3.1818	0.1	-4.4267e-002
22056	21.876	3.2727	0.1	-4.2458e-002
22057	21.968	3.	0.1	-4.4293e-002
22058	21.876	3.0909	0.1	-4.2513e-002
22059	21.968	2.8182	0.1	-4.4267e-002
22060	21.876	2.9091	0.1	-4.2513e-002
22061	21.968	2.6364	0.1	-4.4187e-002
22062	21.876	2.7273	0.1	-4.2459e-002
22063	21.968	2.4545	0.1	-4.4038e-002
22064	21.876	2.5455	0.1	-4.2348e-002
22065	21.968	2.2727	0.1	-4.3793e-002
22066	21.876	2.3636	0.1	-4.2175e-002
22067	21.968	2.0909	0.1	-4.3402e-002
22068	21.876	2.1818	0.1	-4.1906e-002
22069	21.968	1.9091	0.1	-4.2773e-002
22070	21.876	2.	0.1	-4.1482e-002
22071	21.968	1.7273	0.1	-4.1774e-002
22072	21.876	1.8182	0.1	-4.0787e-002
22073	21.968	1.5455	0.1	-4.0213e-002
22074	21.876	1.6364	0.1	-3.9663e-002
22075	21.968	1.3636	0.1	-3.7836e-002
22076	21.876	1.4545	0.1	-3.7883e-002
22077	21.968	1.1818	0.1	-3.4284e-002
22078	21.876	1.2727	0.1	-3.516e-002
22079	21.968	1.	0.1	-2.9193e-002
22080	21.876	1.0909	0.1	-3.1076e-002
22081	21.968	0.81818	0.1	-2.1691e-002
22082	21.876	0.90909	0.1	-2.5354e-002
22083	21.968	0.63636	0.1	-1.2378e-002
22084	21.876	0.72727	0.1	-1.6679e-002
22085	21.968	0.45455	0.1	6.8786e-003
22086	21.876	0.54545	0.1	-7.5379e-003
22087	21.968	0.27273	0.1	2.0371e-002
22088	21.876	0.36364	0.1	1.889e-002
22089	21.876	0.18182	0.1	1.0568e-002
22090	21.968	9.0909e-002	0.1	-8.4037e-003
22091	21.784	5.7273	0.1	1.5705e-002
22092	21.691	5.8182	0.1	7.5575e-003
22093	21.784	5.9091	0.1	-8.1801e-003
22094	21.784	5.5455	0.1	4.1713e-003
22095	21.691	5.6364	0.1	1.3945e-002
22096	21.784	5.3636	0.1	-1.2438e-002
22097	21.691	5.4545	0.1	-8.435e-003
22098	21.784	5.1818	0.1	-2.0859e-002
22099	21.691	5.2727	0.1	-1.6711e-002
22100	21.784	5.	0.1	-2.7665e-002
22101	21.691	5.0909	0.1	-2.4516e-002
22102	21.784	4.8182	0.1	-3.2304e-002
22103	21.691	4.9091	0.1	-2.9725e-002
22104	21.784	4.6364	0.1	-3.5495e-002
22105	21.691	4.7273	0.1	-3.3386e-002
22106	21.784	4.4545	0.1	-3.7567e-002
22107	21.691	4.5455	0.1	-3.5744e-002
22108	21.784	4.2727	0.1	-3.8863e-002
22109	21.691	4.3636	0.1	-3.7184e-002
22110	21.784	4.0909	0.1	-3.9641e-002
22111	21.691	4.1818	0.1	-3.7997e-002
22112	21.784	3.9091	0.1	-4.0103e-002
22113	21.691	4.	0.1	-3.843e-002
22114	21.784	3.7273	0.1	-4.0391e-002
22115	21.691	3.8182	0.1	-3.8679e-002
22116	21.784	3.5455	0.1	-4.059e-002
22117	21.691	3.6364	0.1	-3.8881e-002
22118	21.784	3.3636	0.1	-4.074e-002
22119	21.691	3.4545	0.1	-3.9098e-002
22120	21.784	3.1818	0.1	-4.0839e-002
22121	21.691	3.2727	0.1	-3.9314e-002
22122	21.784	3.	0.1	-4.0874e-002
22123	21.691	3.0909	0.1	-3.9456e-002
22124	21.784	2.8182	0.1	-4.084e-002
22125	21.691	2.9091	0.1	-3.9457e-002
22126	21.784	2.6364	0.1	-4.074e-002
22127	21.691	2.7273	0.1	-3.9315e-002
22128	21.784	2.4545	0.1	-4.059e-002
22129	21.691	2.5455	0.1	-3.9097e-002
22130	21.784	2.2727	0.1	-4.039e-002
22131	21.691	2.3636	0.1	-3.8881e-002
22132	21.784	2.0909	0.1	-4.0103e-002
22133	21.691	2.1818	0.1	-3.8679e-002
22134	21.784	1.9091	0.1	-3.9642e-002
22135	21.691	2.	0.1	-3.843e-002
22136	21.784	1.7273	0.1	-3.8863e-002
22137	21.691	1.8182	0.1	-3.7996e-002
22138	21.784	1.5455	0.1	-3.7568e-002
22139	21.691	1.6364	0.1	-3.7184e-002
22140	21.784	1.3636	0.1	-3.5496e-002
22141	21.691	1.4545	0.1	-3.5745e-002
22142	21.784	1.1818	0.1	-3.2305e-002
22143	21.691	1.2727	0.1	-3.3387e-002
22144	21.784	1.	0.1	-2.7666e-002
22145	21.691	1.0909	0.1	-2.9725e-002
22146	21.784	0.81818	0.1	-2.0861e-002
22147	21.691	0.90909	0.1	-2.4518e-002
22148	21.784	0.63636	0.1	-1.2438e-002
22149	21.691	0.72727	0.1	-1.6713e-002
22150	21.784	0.45455	0.1	4.1725e-003
22151	21.691	0.54545	0.1	-8.4331e-003
22152	21.784	0.27273	0.1	1.5705e-002
22153	21.691	0.36364	0.1	1.3947e-002
22154	21.691	0.18182	0.1	7.556e-003
22155	21.784	9.0909e-002	0.1	-8.1825e-003
22156	21.599	5.7273	0.1	1.1488e-002
22157	21.507	5.8182	0.1	5.1479e-003
22158	21.599	5.9091	0.1	-8.4638e-003
22159	21.599	5.5455	0.1	1.2408e-003
22160	21.507	5.6364	0.1	9.1798e-003
22161	21.599	5.3636	0.1	-1.3125e-002
22162	21.507	5.4545	0.1	-9.8475e-003
22163	21.599	5.1818	0.1	-2.0763e-002
22164	21.507	5.2727	0.1	-1.7402e-002
22165	21.599	5.	0.1	-2.6924e-002
22166	21.507	5.0909	0.1	-2.4419e-002
22167	21.599	4.8182	0.1	-3.1102e-002
22168	21.507	4.9091	0.1	-2.9106e-002
22169	21.599	4.6364	0.1	-3.3867e-002
22170	21.507	4.7273	0.1	-3.2253e-002
22171	21.599	4.4545	0.1	-3.5504e-002
22172	21.507	4.5455	0.1	-3.3997e-002
22173	21.599	4.2727	0.1	-3.6327e-002
22174	21.507	4.3636	0.1	-3.4515e-002
22175	21.599	4.0909	0.1	-3.6597e-002
22176	21.507	4.1818	0.1	-3.3524e-002
22177	21.599	3.9091	0.1	-3.6548e-002
22178	21.507	4.	0.1	-2.6706e-002
22179	21.599	3.7273	0.1	-3.6396e-002
22180	21.507	3.8182	0.1	0.75182
22181	21.599	3.5455	0.1	-3.6358e-002
22182	21.507	3.6364	0.1	2.2258
22183	21.599	3.3636	0.1	-3.6681e-002
22184	21.507	3.4545	0.1	3.4169
22185	21.599	3.1818	0.1	-3.7523e-002
22186	21.507	3.2727	0.1	4.2517
22187	21.599	3.	0.1	-3.8166e-002
22188	21.507	3.0909	0.1	4.6816
22189	21.599	2.8182	0.1	-3.7524e-002
22190	21.507	2.9091	0.1	4.6816
22191	21.599	2.6364	0.1	-3.6682e-002
22192	21.507	2.7273	0.1	4.2517
22193	21.599	2.4545	0.1	-3.6358e-002
22194	21.507	2.5455	0.1	3.417
22195	21.599	2.2727	0.1	-3.6396e-002
22196	21.507	2.3636	0.1	2.2258
22197	21.599	2.0909	0.1	-3.6548e-002
22198	21.507	2.1818	0.1	0.75184
22199	21.599	1.9091	0.1	-3.6596e-002
22200	21.507	2.	0.1	-2.6704e-002
22201	21.599	1.7273	0.1	-3.6326e-002
22202	21.507	1.8182	0.1	-3.3525e-002
22203	21.599	1.5455	0.1	-3.5504e-002
22204	21.507	1.6364	0.1	-3.4515e-002
22205	21.599	1.3636	0.1	-3.3867e-002
22206	21.507	1.4545	0.1	-3.3996e-002
22207	21.599	1.1818	0.1	-3.1102e-002
22208	21.507	1.2727	0.1	-3.2253e-002
22209	21.599	1.	0.1	-2.6925e-002
22210	21.507	1.0909	0.1	-2.9106e-002
22211	21.599	0.81818	0.1	-2.0766e-002
22212	21.507	0.90909	0.1	-2.442e-002
22213	21.599	0.63636	0.1	-1.3126e-002
22214	21.507	0.72727	0.1	-1.7404e-002
22215	21.599	0.45455	0.1	1.2433e-003
22216	21.507	0.54545	0.1	-9.8449e-003
22217	21.599	0.27273	0.1	1.1489e-002
22218	21.507	0.36364	0.1	9.1826e-003
22219	21.507	0.18182	0.1	5.1464e-003
22220	21.599	9.0909e-002	0.1	-8.4647e-003
22221	21.414	5.7273	0.1	7.7134e-003
22222	21.322	5.8182	0.1	3.2662e-003
22223	21.414	5.9091	0.1	-9.2578e-003
22224	21.414	5.5455	0.1	-1.8689e-003
22225	21.322	5.6364	0.1	4.6537e-003
22226	21.414	5.3636	0.1	-1.4398e-002
22227	21.322	5.4545	0.1	-1.1728e-002
22228	21.414	5.1818	0.1	-2.1353e-002
22229	21.322	5.2727	0.1	-1.8699e-002
22230	21.414	5.	0.1	-2.6886e-002
22231	21.322	5.0909	0.1	-2.4972e-002
22232	21.414	4.8182	0.1	-3.0496e-002
22233	21.322	4.9091	0.1	-2.8978e-002
22234	21.414	4.6364	0.1	-3.2398e-002
22235	21.322	4.7273	0.1	-3.0584e-002
22236	21.414	4.4545	0.1	-3.1537e-002
22237	21.322	4.5455	0.1	0.12561
22238	21.414	4.2727	0.1	0.24419
22239	21.322	4.3636	0.1	2.7155
22240	21.414	4.0909	0.1	2.4112
22241	21.322	4.1818	0.1	5.3748
22242	21.414	3.9091	0.1	4.5003
22243	21.322	4.	0.1	7.9475
22244	21.414	3.7273	0.1	6.382
22245	21.322	3.8182	0.1	10.315
22246	21.414	3.5455	0.1	7.9592
22247	21.322	3.6364	0.1	12.366
22248	21.414	3.3636	0.1	9.1496
22249	21.322	3.4545	0.1	14.
22250	21.414	3.1818	0.1	9.8901
22251	21.322	3.2727	0.1	15.137
22252	21.414	3.	0.1	10.141
22253	21.322	3.0909	0.1	15.72
22254	21.414	2.8182	0.1	9.8901
22255	21.322	2.9091	0.1	15.72
22256	21.414	2.6364	0.1	9.1496
22257	21.322	2.7273	0.1	15.137
22258	21.414	2.4545	0.1	7.9592
22259	21.322	2.5455	0.1	14.
22260	21.414	2.2727	0.1	6.382
22261	21.322	2.3636	0.1	12.366
22262	21.414	2.0909	0.1	4.5003
22263	21.322	2.1818	0.1	10.315
22264	21.414	1.9091	0.1	2.4112
22265	21.322	2.	0.1	7.9475
22266	21.414	1.7273	0.1	0.24423
22267	21.322	1.8182	0.1	5.3748
22268	21.414	1.5455	0.1	-3.1536e-002
22269	21.322	1.6364	0.1	2.7155
22270	21.414	1.3636	0.1	-3.2398e-002
22271	21.322	1.4545	0.1	0.12567
22272	21.414	1.1818	0.1	-3.0497e-002
22273	21.322	1.2727	0.1	-3.0586e-002
22274	21.414	1.	0.1	-2.6887e-002
22275	21.322	1.0909	0.1	-2.8979e-002
22276	21.414	0.81818	0.1	-2.1353e-002
22277	21.322	0.90909	0.1	-2.4973e-002
22278	21.414	0.63636	0.1	-1.4396e-002
22279	21.322	0.72727	0.1	-1.87e-002
22280	21.414	0.45455	0.1	-1.866e-003
22281	21.322	0.54545	0.1	-1.1725e-002
22282	21.414	0.27273	0.1	7.7141e-003
22283	21.322	0.36364	0.1	4.6558e-003
22284	21.322	0.18182	0.1	3.2649e-003
22285	21.414	9.0909e-002	0.1	-9.2578e-003
22286	21.23	5.7273	0.1	4.4247e-003
22287	21.137	5.8182	0.1	1.874e-003
22288	21.23	5.9091	0.1	-1.06e-002
22289	21.23	5.5455	0.1	-5.0821e-003
22290	21.137	5.6364	0.1	4.8125e-004
22291	21.23	5.3636	0.1	-1.6193e-002
22292	21.137	5.4545	0.1	-1.397e-002
22293	21.23	5.1818	0.1	-2.2534e-002
22294	21.137	5.2727	0.1	-2.0446e-002
22295	21.23	5.	0.1	-2.7284e-002
22296	21.137	5.0909	0.1	-2.5743e-002
22297	21.23	4.8182	0.1	-2.7804e-002
22298	21.137	4.9091	0.1	-1.7518e-002
22299	21.23	4.6364	0.1	1.7694
22300	21.137	4.7273	0.1	2.8766
22301	21.23	4.4545	0.1	4.7961
22302	21.137	4.5455	0.1	6.3407
22303	21.23	4.2727	0.1	7.8887
22304	21.137	4.3636	0.1	9.9247
22305	21.23	4.0909	0.1	10.923
22306	21.137	4.1818	0.1	13.494
22307	21.23	3.9091	0.1	13.771
22308	21.137	4.	0.1	16.906
22309	21.23	3.7273	0.1	16.306
22310	21.137	3.8182	0.1	20.017
22311	21.23	3.5455	0.1	18.412
22312	21.137	3.6364	0.1	22.691
22313	21.23	3.3636	0.1	19.992
22314	21.137	3.4545	0.1	24.81
22315	21.23	3.1818	0.1	20.97
22316	21.137	3.2727	0.1	26.279
22317	21.23	3.	0.1	21.302
22318	21.137	3.0909	0.1	27.03
22319	21.23	2.8182	0.1	20.97
22320	21.137	2.9091	0.1	27.03
22321	21.23	2.6364	0.1	19.992
22322	21.137	2.7273	0.1	26.279
22323	21.23	2.4545	0.1	18.412
22324	21.137	2.5455	0.1	24.81
22325	21.23	2.2727	0.1	16.306
22326	21.137	2.3636	0.1	22.691
22327	21.23	2.0909	0.1	13.771
22328	21.137	2.1818	0.1	20.017
22329	21.23	1.9091	0.1	10.923
22330	21.137	2.	0.1	16.906
22331	21.23	1.7273	0.1	7.8888
22332	21.137	1.8182	0.1	13.494
22333	21.23	1.5455	0.1	4.7961
22334	21.137	1.6364	0.1	9.9247
22335	21.23	1.3636	0.1	1.7695
22336	21.137	1.4545	0.1	6.3407
22337	21.23	1.1818	0.1	-2.7805e-002
22338	21.137	1.2727	0.1	2.8767
22339	21.23	1.	0.1	-2.7285e-002
22340	21.137	1.0909	0.1	-1.7515e-002
22341	21.23	0.81818	0.1	-2.2536e-002
22342	21.137	0.90909	0.1	-2.5745e-002
22343	21.23	0.63636	0.1	-1.6193e-002
22344	21.137	0.72727	0.1	-2.0447e-002
22345	21.23	0.45455	0.1	-5.0797e-003
22346	21.137	0.54545	0.1	-1.3967e-002
22347	21.23	0.27273	0.1	4.4248e-003
22348	21.137	0.36364	0.1	4.8316e-004
22349	21.137	0.18182	0.1	1.8735e-003
22350	21.23	9.0909e-002	0.1	-1.0602e-002
22351	21.045	5.7273	0.1	1.7079e-003
22352	20.953	5.8182	0.1	9.4912e-004
22353	21.045	5.9091	0.1	-1.2577e-002
22354	21.045	5.5455	0.1	-8.2407e-003
22355	20.953	5.6364	0.1	-3.1252e-003
22356	21.045	5.3636	0.1	-1.8309e-002
22357	20.953	5.4545	0.1	-1.6255e-002
22358	21.045	5.1818	0.1	-2.3782e-002
22359	20.953	5.2727	0.1	-2.1839e-002
22360	21.045	5.	0.1	0.13006
22361	20.953	5.0909	0.1	3.9419e-002
22362	21.045	4.8182	0.1	3.6388
22363	20.953	4.9091	0.1	3.7763
22364	21.045	4.6364	0.1	7.4722
22365	20.953	4.7273	0.1	7.9964
22366	21.045	4.4545	0.1	11.488
22367	20.953	4.5455	0.1	12.484
22368	21.045	4.2727	0.1	15.544
22369	20.953	4.3636	0.1	17.089
22370	21.045	4.0909	0.1	19.487
22371	20.953	4.1818	0.1	21.641
22372	21.045	3.9091	0.1	23.159
22373	20.953	4.	0.1	25.965
22374	21.045	3.7273	0.1	26.407
22375	20.953	3.8182	0.1	29.887
22376	21.045	3.5455	0.1	29.093
22377	20.953	3.6364	0.1	33.244
22378	21.045	3.3636	0.1	31.101
22379	20.953	3.4545	0.1	35.895
22380	21.045	3.1818	0.1	32.341
22381	20.953	3.2727	0.1	37.728
22382	21.045	3.	0.1	32.761
22383	20.953	3.0909	0.1	38.665
22384	21.045	2.8182	0.1	32.341
22385	20.953	2.9091	0.1	38.665
22386	21.045	2.6364	0.1	31.101
22387	20.953	2.7273	0.1	37.728
22388	21.045	2.4545	0.1	29.093
22389	20.953	2.5455	0.1	35.895
22390	21.045	2.2727	0.1	26.407
22391	20.953	2.3636	0.1	33.244
22392	21.045	2.0909	0.1	23.159
22393	20.953	2.1818	0.1	29.887
22394	21.045	1.9091	0.1	19.487
22395	20.953	2.	0.1	25.965
22396	21.045	1.7273	0.1	15.544
22397	20.953	1.8182	0.1	21.641
22398	21.045	1.5455	0.1	11.488
22399	20.953	1.6364	0.1	17.089
22400	21.045	1.3636	0.1	7.4722
22401	20.953	1.4545	0.1	12.484
22402	21.045	1.1818	0.1	3.6389
22403	20.953	1.2727	0.1	7.9965
22404	21.045	1.	0.1	0.13014
22405	20.953	1.0909	0.1	3.7764
22406	21.045	0.81818	0.1	-2.3783e-002
22407	20.953	0.90909	0.1	3.9453e-002
22408	21.045	0.63636	0.1	-1.8308e-002
22409	20.953	0.72727	0.1	-2.184e-002
22410	21.045	0.45455	0.1	-8.2384e-003
22411	20.953	0.54545	0.1	-1.6254e-002
22412	21.045	0.27273	0.1	1.7092e-003
22413	20.953	0.36364	0.1	-3.1238e-003
22414	20.953	0.18182	0.1	9.5099e-004
22415	21.045	9.0909e-002	0.1	-1.2577e-002
22416	20.86	5.7273	0.1	-2.9422e-004
22417	20.768	5.8182	0.1	4.6574e-004
22418	20.86	5.9091	0.1	-1.528e-002
22419	20.86	5.5455	0.1	-1.0973e-002
22420	20.768	5.6364	0.1	-5.8023e-003
22421	20.86	5.3636	0.1	-1.9867e-002
22422	20.768	5.4545	0.1	-1.7674e-002
22423	20.86	5.1818	0.1	-6.3057e-003
22424	20.768	5.2727	0.1	-1.5752e-002
22425	20.86	5.	0.1	3.6516
22426	20.768	5.0909	0.1	2.8824
22427	20.86	4.8182	0.1	8.1621
22428	20.768	4.9091	0.1	7.6684
22429	20.86	4.6364	0.1	13.032
22430	20.768	4.7273	0.1	12.934
22431	20.86	4.4545	0.1	18.103
22432	20.768	4.5455	0.1	18.514
22433	20.86	4.2727	0.1	23.2
22434	20.768	4.3636	0.1	24.218
22435	20.86	4.0909	0.1	28.129
22436	20.768	4.1818	0.1	29.836
22437	20.86	3.9091	0.1	32.7
22438	20.768	4.	0.1	35.154
22439	20.86	3.7273	0.1	36.728
22440	20.768	3.8182	0.1	39.961
22441	20.86	3.5455	0.1	40.049
22442	20.768	3.6364	0.1	44.065
22443	20.86	3.3636	0.1	42.525
22444	20.768	3.4545	0.1	47.299
22445	20.86	3.1818	0.1	44.054
22446	20.768	3.2727	0.1	49.531
22447	20.86	3.	0.1	44.571
22448	20.768	3.0909	0.1	50.671
22449	20.86	2.8182	0.1	44.054
22450	20.768	2.9091	0.1	50.671
22451	20.86	2.6364	0.1	42.525
22452	20.768	2.7273	0.1	49.531
22453	20.86	2.4545	0.1	40.049
22454	20.768	2.5455	0.1	47.299
22455	20.86	2.2727	0.1	36.728
22456	20.768	2.3636	0.1	44.065
22457	20.86	2.0909	0.1	32.7
22458	20.768	2.1818	0.1	39.961
22459	20.86	1.9091	0.1	28.129
22460	20.768	2.	0.1	35.154
22461	20.86	1.7273	0.1	23.2
22462	20.768	1.8182	0.1	29.836
22463	20.86	1.5455	0.1	18.104
22464	20.768	1.6364	0.1	24.218
22465	20.86	1.3636	0.1	13.032
22466	20.768	1.4545	0.1	18.514
22467	20.86	1.1818	0.1	8.1622
22468	20.768	1.2727	0.1	12.934
22469	20.86	1.	0.1	3.6517
22470	20.768	1.0909	0.1	7.6685
22471	20.86	0.81818	0.1	-6.3038e-003
22472	20.768	0.90909	0.1	2.8825
22473	20.86	0.63636	0.1	-1.9867e-002
22474	20.768	0.72727	0.1	-1.5753e-002
22475	20.86	0.45455	0.1	-1.0972e-002
22476	20.768	0.54545	0.1	-1.7673e-002
22477	20.86	0.27273	0.1	-2.923e-004
22478	20.768	0.36364	0.1	-5.8008e-003
22479	20.768	0.18182	0.1	4.6767e-004
22480	20.86	9.0909e-002	0.1	-1.5277e-002
22481	20.676	5.7273	0.1	-1.4047e-003
22482	20.583	5.8182	0.1	3.9198e-004
22483	20.676	5.9091	0.1	-1.8823e-002
22484	20.676	5.5455	0.1	-1.2516e-002
22485	20.583	5.6364	0.1	-6.9742e-003
22486	20.676	5.3636	0.1	-1.6806e-002
22487	20.583	5.4545	0.1	-1.5867e-002
22488	20.676	5.1818	0.1	1.9971
22489	20.583	5.2727	0.1	0.52984
22490	20.676	5.	0.1	6.9311
22491	20.583	5.0909	0.1	5.5139
22492	20.676	4.8182	0.1	12.468
22493	20.583	4.9091	0.1	11.301
22494	20.676	4.6364	0.1	18.44
22495	20.583	4.7273	0.1	17.674
22496	20.676	4.4545	0.1	24.647
22497	20.583	4.5455	0.1	24.426
22498	20.676	4.2727	0.1	30.868
22499	20.583	4.3636	0.1	31.318
22500	20.676	4.0909	0.1	36.871
22501	20.583	4.1818	0.1	38.095
22502	20.676	3.9091	0.1	42.422
22503	20.583	4.	0.1	44.495
22504	20.676	3.7273	0.1	47.303
22505	20.583	3.8182	0.1	50.269
22506	20.676	3.5455	0.1	51.319
22507	20.583	3.6364	0.1	55.188
22508	20.676	3.3636	0.1	54.308
22509	20.583	3.4545	0.1	59.057
22510	20.676	3.1818	0.1	56.15
22511	20.583	3.2727	0.1	61.724
22512	20.676	3.	0.1	56.773
22513	20.583	3.0909	0.1	63.084
22514	20.676	2.8182	0.1	56.15
22515	20.583	2.9091	0.1	63.084
22516	20.676	2.6364	0.1	54.308
22517	20.583	2.7273	0.1	61.724
22518	20.676	2.4545	0.1	51.319
22519	20.583	2.5455	0.1	59.057
22520	20.676	2.2727	0.1	47.303
22521	20.583	2.3636	0.1	55.188
22522	20.676	2.0909	0.1	42.422
22523	20.583	2.1818	0.1	50.269
22524	20.676	1.9091	0.1	36.871
22525	20.583	2.	0.1	44.495
22526	20.676	1.7273	0.1	30.868
22527	20.583	1.8182	0.1	38.095
22528	20.676	1.5455	0.1	24.647
22529	20.583	1.6364	0.1	31.318
22530	20.676	1.3636	0.1	18.44
22531	20.583	1.4545	0.1	24.426
22532	20.676	1.1818	0.1	12.468
22533	20.583	1.2727	0.1	17.674
22534	20.676	1.	0.1	6.9312
22535	20.583	1.0909	0.1	11.301
22536	20.676	0.81818	0.1	1.9972
22537	20.583	0.90909	0.1	5.514
22538	20.676	0.63636	0.1	-1.6806e-002
22539	20.583	0.72727	0.1	0.52991
22540	20.676	0.45455	0.1	-1.2514e-002
22541	20.583	0.54545	0.1	-1.5868e-002
22542	20.676	0.27273	0.1	-1.4031e-003
22543	20.583	0.36364	0.1	-6.9734e-003
22544	20.583	0.18182	0.1	3.929e-004
22545	20.676	9.0909e-002	0.1	-1.8824e-002
22546	20.491	5.7273	0.1	-1.386e-003
22547	20.399	5.8182	0.1	6.7267e-004
22548	20.491	5.9091	0.1	-2.3236e-002
22549	20.491	5.5455	0.1	-1.1457e-002
22550	20.399	5.6364	0.1	-5.8847e-003
22551	20.491	5.3636	0.1	1.6326e-002
22552	20.399	5.4545	0.1	-5.9815e-003
22553	20.491	5.1818	0.1	4.0384
22554	20.399	5.2727	0.1	1.9265
22555	20.491	5.	0.1	9.9148
22556	20.399	5.0909	0.1	7.8081
22557	20.491	4.8182	0.1	16.534
22558	20.399	4.9091	0.1	14.642
22559	20.491	4.6364	0.1	23.683
22560	20.399	4.7273	0.1	22.196
22561	20.491	4.4545	0.1	31.115
22562	20.399	4.5455	0.1	30.209
22563	20.491	4.2727	0.1	38.558
22564	20.399	4.3636	0.1	38.389
22565	20.491	4.0909	0.1	45.729
22566	20.399	4.1818	0.1	46.424
22567	20.491	3.9091	0.1	52.349
22568	20.399	4.	0.1	54.004
22569	20.491	3.7273	0.1	58.159
22570	20.399	3.8182	0.1	60.829
22571	20.491	3.5455	0.1	62.93
22572	20.399	3.6364	0.1	66.633
22573	20.491	3.3636	0.1	66.477
22574	20.399	3.4545	0.1	71.19
22575	20.491	3.1818	0.1	68.661
22576	20.399	3.2727	0.1	74.327
22577	20.491	3.	0.1	69.398
22578	20.399	3.0909	0.1	75.925
22579	20.491	2.8182	0.1	68.661
22580	20.399	2.9091	0.1	75.925
22581	20.491	2.6364	0.1	66.477
22582	20.399	2.7273	0.1	74.327
22583	20.491	2.4545	0.1	62.93
22584	20.399	2.5455	0.1	71.19
22585	20.491	2.2727	0.1	58.159
22586	20.399	2.3636	0.1	66.633
22587	20.491	2.0909	0.1	52.349
22588	20.399	2.1818	0.1	60.829
22589	20.491	1.9091	0.1	45.729
22590	20.399	2.	0.1	54.004
22591	20.491	1.7273	0.1	38.558
22592	20.399	1.8182	0.1	46.424
22593	20.491	1.5455	0.1	31.115
22594	20.399	1.6364	0.1	38.389
22595	20.491	1.3636	0.1	23.683
22596	20.399	1.4545	0.1	30.209
22597	20.491	1.1818	0.1	16.534
22598	20.399	1.2727	0.1	22.196
22599	20.491	1.	0.1	9.9148
22600	20.399	1.0909	0.1	14.642
22601	20.491	0.81818	0.1	4.0385
22602	20.399	0.90909	0.1	7.8082
22603	20.491	0.63636	0.1	1.6327e-002
22604	20.399	0.72727	0.1	1.9266
22605	20.491	0.45455	0.1	-1.1458e-002
22606	20.399	0.54545	0.1	-5.9818e-003
22607	20.491	0.27273	0.1	-1.3859e-003
22608	20.399	0.36364	0.1	-5.8843e-003
22609	20.399	0.18182	0.1	6.7419e-004
22610	20.491	9.0909e-002	0.1	-2.3233e-002
22611	20.306	5.7273	0.1	-3.4948e-005
22612	20.214	5.8182	0.1	1.2008e-003
22613	20.306	5.9091	0.1	-2.8451e-002
22614	20.306	5.5455	0.1	-5.9487e-003
22615	20.214	5.6364	0.1	-1.8193e-003
22616	20.306	5.3636	0.1	0.26546
22617	20.214	5.4545	0.1	1.7593e-002
22618	20.306	5.1818	0.1	5.7139
22619	20.214	5.2727	0.1	2.9546
22620	20.306	5.	0.1	12.566
22621	20.214	5.0909	0.1	9.723
22622	20.306	4.8182	0.1	20.331
22623	20.214	4.9091	0.1	17.658
22624	20.306	4.6364	0.1	28.744
22625	20.214	4.7273	0.1	26.472
22626	20.306	4.4545	0.1	37.5
22627	20.214	4.5455	0.1	35.845
22628	20.306	4.2727	0.1	46.269
22629	20.214	4.3636	0.1	45.421
22630	20.306	4.0909	0.1	54.71
22631	20.214	4.1818	0.1	54.824
22632	20.306	3.9091	0.1	62.491
22633	20.214	4.	0.1	63.683
22634	20.306	3.7273	0.1	69.309
22635	20.214	3.8182	0.1	71.646
22636	20.306	3.5455	0.1	74.897
22637	20.214	3.6364	0.1	78.403
22638	20.306	3.3636	0.1	79.044
22639	20.214	3.4545	0.1	83.697
22640	20.306	3.1818	0.1	81.595
22641	20.214	3.2727	0.1	87.334
22642	20.306	3.	0.1	82.455
22643	20.214	3.0909	0.1	89.185
22644	20.306	2.8182	0.1	81.595
22645	20.214	2.9091	0.1	89.185
22646	20.306	2.6364	0.1	79.044
22647	20.214	2.7273	0.1	87.334
22648	20.306	2.4545	0.1	74.897
22649	20.214	2.5455	0.1	83.697
22650	20.306	2.2727	0.1	69.309
22651	20.214	2.3636	0.1	78.403
22652	20.306	2.0909	0.1	62.491
22653	20.214	2.1818	0.1	71.646
22654	20.306	1.9091	0.1	54.71
22655	20.214	2.	0.1	63.683
22656	20.306	1.7273	0.1	46.269
22657	20.214	1.8182	0.1	54.824
22658	20.306	1.5455	0.1	37.5
22659	20.214	1.6364	0.1	45.421
22660	20.306	1.3636	0.1	28.744
22661	20.214	1.4545	0.1	35.845
22662	20.306	1.1818	0.1	20.331
22663	20.214	1.2727	0.1	26.472
22664	20.306	1.	0.1	12.566
22665	20.214	1.0909	0.1	17.658
22666	20.306	0.81818	0.1	5.714
22667	20.214	0.90909	0.1	9.723
22668	20.306	0.63636	0.1	0.26549
22669	20.214	0.72727	0.1	2.9547
22670	20.306	0.45455	0.1	-5.9474e-003
22671	20.214	0.54545	0.1	1.7595e-002
22672	20.306	0.27273	0.1	-3.3053e-005
22673	20.214	0.36364	0.1	-1.817e-003
22674	20.214	0.18182	0.1	1.2023e-003
22675	20.306	9.0909e-002	0.1	-2.8453e-002
22676	20.122	5.7273	0.1	2.7609e-003
22677	20.029	5.8182	0.1	1.846e-003
22678	20.122	5.9091	0.1	-3.425e-002
22679	20.122	5.5455	0.1	5.2623e-003
22680	20.029	5.6364	0.1	5.6179e-003
22681	20.122	5.3636	0.1	0.69032
22682	20.029	5.4545	0.1	5.3127e-002
22683	20.122	5.1818	0.1	6.9778
22684	20.029	5.2727	0.1	3.5477
22685	20.122	5.	0.1	14.843
22686	20.029	5.0909	0.1	11.213
22687	20.122	4.8182	0.1	23.824
22688	20.029	4.9091	0.1	20.306
22689	20.122	4.6364	0.1	33.594
22690	20.029	4.7273	0.1	30.467
22691	20.122	4.4545	0.1	43.782
22692	20.029	4.5455	0.1	41.306
22693	20.122	4.2727	0.1	53.989
22694	20.029	4.3636	0.1	52.394
22695	20.122	4.0909	0.1	63.808
22696	20.029	4.1818	0.1	63.28
22697	20.122	3.9091	0.1	72.846
22698	20.029	4.	0.1	73.521
22699	20.122	3.7273	0.1	80.746
22700	20.029	3.8182	0.1	82.704
22701	20.122	3.5455	0.1	87.208
22702	20.029	3.6364	0.1	90.474
22703	20.122	3.3636	0.1	91.992
22704	20.029	3.4545	0.1	96.544
22705	20.122	3.1818	0.1	94.929
22706	20.029	3.2727	0.1	100.7
22707	20.122	3.	0.1	95.919
22708	20.029	3.0909	0.1	102.82
22709	20.122	2.8182	0.1	94.929
22710	20.029	2.9091	0.1	102.82
22711	20.122	2.6364	0.1	91.992
22712	20.029	2.7273	0.1	100.7
22713	20.122	2.4545	0.1	87.208
22714	20.029	2.5455	0.1	96.544
22715	20.122	2.2727	0.1	80.746
22716	20.029	2.3636	0.1	90.474
22717	20.122	2.0909	0.1	72.846
22718	20.029	2.1818	0.1	82.704
22719	20.122	1.9091	0.1	63.808
22720	20.029	2.	0.1	73.521
22721	20.122	1.7273	0.1	53.989
22722	20.029	1.8182	0.1	63.28
22723	20.122	1.5455	0.1	43.782
22724	20.029	1.6364	0.1	52.394
22725	20.122	1.3636	0.1	33.594
22726	20.029	1.4545	0.1	41.306
22727	20.122	1.1818	0.1	23.824
22728	20.029	1.2727	0.1	30.467
22729	20.122	1.	0.1	14.843
22730	20.029	1.0909	0.1	20.306
22731	20.122	0.81818	0.1	6.9779
22732	20.029	0.90909	0.1	11.213
22733	20.122	0.63636	0.1	0.69036
22734	20.029	0.72727	0.1	3.5478
22735	20.122	0.45455	0.1	5.2643e-003
22736	20.029	0.54545	0.1	5.3129e-002
22737	20.122	0.27273	0.1	2.7627e-003
22738	20.029	0.36364	0.1	5.6201e-003
22739	20.029	0.18182	0.1	1.8465e-003
22740	20.122	9.0909e-002	0.1	-3.4252e-002
22741	19.937	5.7273	0.1	7.0344e-003
22742	19.845	5.8182	0.1	2.4694e-003
22743	19.937	5.9091	0.1	-4.0208e-002
22744	19.937	5.5455	0.1	2.1672e-002
22745	19.845	5.6364	0.1	1.6385e-002
22746	19.937	5.3636	0.1	0.84373
22747	19.845	5.4545	0.1	8.9786e-002
22748	19.937	5.1818	0.1	7.7845
22749	19.845	5.2727	0.1	3.6714
22750	19.937	5.	0.1	16.7
22751	19.845	5.0909	0.1	12.233
22752	19.937	4.8182	0.1	26.971
22753	19.845	4.9091	0.1	22.539
22754	19.937	4.6364	0.1	38.197
22755	19.845	4.7273	0.1	34.134
22756	19.937	4.4545	0.1	49.932
22757	19.845	4.5455	0.1	46.551
22758	19.937	4.2727	0.1	61.695
22759	19.845	4.3636	0.1	59.272
22760	19.937	4.0909	0.1	73.001
22761	19.845	4.1818	0.1	71.757
22762	19.937	3.9091	0.1	83.385
22763	19.845	4.	0.1	83.479
22764	19.937	3.7273	0.1	92.437
22765	19.845	3.8182	0.1	93.955
22766	19.937	3.5455	0.1	99.815
22767	19.845	3.6364	0.1	102.78
22768	19.937	3.3636	0.1	105.26
22769	19.845	3.4545	0.1	109.65
22770	19.937	3.1818	0.1	108.59
22771	19.845	3.2727	0.1	114.33
22772	19.937	3.	0.1	109.72
22773	19.845	3.0909	0.1	116.71
22774	19.937	2.8182	0.1	108.59
22775	19.845	2.9091	0.1	116.71
22776	19.937	2.6364	0.1	105.26
22777	19.845	2.7273	0.1	114.33
22778	19.937	2.4545	0.1	99.815
22779	19.845	2.5455	0.1	109.65
22780	19.937	2.2727	0.1	92.437
22781	19.845	2.3636	0.1	102.78
22782	19.937	2.0909	0.1	83.385
22783	19.845	2.1818	0.1	93.955
22784	19.937	1.9091	0.1	73.001
22785	19.845	2.	0.1	83.479
22786	19.937	1.7273	0.1	61.695
22787	19.845	1.8182	0.1	71.757
22788	19.937	1.5455	0.1	49.932
22789	19.845	1.6364	0.1	59.272
22790	19.937	1.3636	0.1	38.197
22791	19.845	1.4545	0.1	46.551
22792	19.937	1.1818	0.1	26.971
22793	19.845	1.2727	0.1	34.134
22794	19.937	1.	0.1	16.7
22795	19.845	1.0909	0.1	22.539
22796	19.937	0.81818	0.1	7.7845
22797	19.845	0.90909	0.1	12.233
22798	19.937	0.63636	0.1	0.84376
22799	19.845	0.72727	0.1	3.6715
22800	19.937	0.45455	0.1	2.1673e-002
22801	19.845	0.54545	0.1	8.9787e-002
22802	19.937	0.27273	0.1	7.0355e-003
22803	19.845	0.36364	0.1	1.6387e-002
22804	19.845	0.18182	0.1	2.4701e-003
22805	19.937	9.0909e-002	0.1	-4.0207e-002
22806	19.752	5.7273	0.1	1.2735e-002
22807	19.66	5.8182	0.1	2.9517e-003
22808	19.752	5.9091	0.1	-4.5805e-002
22809	19.752	5.5455	0.1	4.148e-002
22810	19.66	5.6364	0.1	3.0251e-002
22811	19.752	5.3636	0.1	0.74042
22812	19.66	5.4545	0.1	0.12103
22813	19.752	5.1818	0.1	8.091
22814	19.66	5.2727	0.1	3.321
22815	19.752	5.	0.1	18.085
22816	19.66	5.0909	0.1	12.732
22817	19.752	4.8182	0.1	29.717
22818	19.66	4.9091	0.1	24.296
22819	19.752	4.6364	0.1	42.5
22820	19.66	4.7273	0.1	37.41
22821	19.752	4.4545	0.1	55.899
22822	19.66	4.5455	0.1	51.515
22823	19.752	4.2727	0.1	69.339
22824	19.66	4.3636	0.1	65.992
22825	19.752	4.0909	0.1	82.239
22826	19.66	4.1818	0.1	80.193
22827	19.752	3.9091	0.1	94.052
22828	19.66	4.	0.1	93.486
22829	19.752	3.7273	0.1	104.3
22830	19.66	3.8182	0.1	105.31
22831	19.752	3.5455	0.1	112.62
22832	19.66	3.6364	0.1	115.21
22833	19.752	3.3636	0.1	118.73
22834	19.66	3.4545	0.1	122.85
22835	19.752	3.1818	0.1	122.45
22836	19.66	3.2727	0.1	128.04
22837	19.752	3.	0.1	123.7
22838	19.66	3.0909	0.1	130.66
22839	19.752	2.8182	0.1	122.45
22840	19.66	2.9091	0.1	130.66
22841	19.752	2.6364	0.1	118.73
22842	19.66	2.7273	0.1	128.04
22843	19.752	2.4545	0.1	112.62
22844	19.66	2.5455	0.1	122.85
22845	19.752	2.2727	0.1	104.3
22846	19.66	2.3636	0.1	115.21
22847	19.752	2.0909	0.1	94.052
22848	19.66	2.1818	0.1	105.31
22849	19.752	1.9091	0.1	82.239
22850	19.66	2.	0.1	93.486
22851	19.752	1.7273	0.1	69.339
22852	19.66	1.8182	0.1	80.193
22853	19.752	1.5455	0.1	55.899
22854	19.66	1.6364	0.1	65.992
22855	19.752	1.3636	0.1	42.5
22856	19.66	1.4545	0.1	51.515
22857	19.752	1.1818	0.1	29.717
22858	19.66	1.2727	0.1	37.41
22859	19.752	1.	0.1	18.085
22860	19.66	1.0909	0.1	24.296
22861	19.752	0.81818	0.1	8.091
22862	19.66	0.90909	0.1	12.732
22863	19.752	0.63636	0.1	0.74044
22864	19.66	0.72727	0.1	3.321
22865	19.752	0.45455	0.1	4.148e-002
22866	19.66	0.54545	0.1	0.12103
22867	19.752	0.27273	0.1	1.2735e-002
22868	19.66	0.36364	0.1	3.0252e-002
22869	19.66	0.18182	0.1	2.9529e-003
22870	19.752	9.0909e-002	0.1	-4.5804e-002
22871	19.568	5.7273	0.1	1.9878e-002
22872	19.475	5.8182	0.1	3.2649e-003
22873	19.568	5.9091	0.1	-5.0544e-002
22874	19.568	5.5455	0.1	6.3534e-002
22875	19.475	5.6364	0.1	4.7226e-002
22876	19.568	5.3636	0.1	0.57936
22877	19.475	5.4545	0.1	0.14915
22878	19.568	5.1818	0.1	7.8619
22879	19.475	5.2727	0.1	2.5769
22880	19.568	5.	0.1	18.94
22881	19.475	5.0909	0.1	12.663
22882	19.568	4.8182	0.1	31.99
22883	19.475	4.9091	0.1	25.5
22884	19.568	4.6364	0.1	46.425
22885	19.475	4.7273	0.1	40.2
22886	19.568	4.4545	0.1	61.605
22887	19.475	4.5455	0.1	56.096
22888	19.568	4.2727	0.1	76.841
22889	19.475	4.3636	0.1	72.45
22890	19.568	4.0909	0.1	91.435
22891	19.475	4.1818	0.1	88.478
22892	19.568	3.9091	0.1	104.74
22893	19.475	4.	0.1	103.42
22894	19.568	3.7273	0.1	116.21
22895	19.475	3.8182	0.1	116.61
22896	19.568	3.5455	0.1	125.45
22897	19.475	3.6364	0.1	127.55
22898	19.568	3.3636	0.1	132.18
22899	19.475	3.4545	0.1	135.91
22900	19.568	3.1818	0.1	136.26
22901	19.475	3.2727	0.1	141.52
22902	19.568	3.	0.1	137.63
22903	19.475	3.0909	0.1	144.34
22904	19.568	2.8182	0.1	136.26
22905	19.475	2.9091	0.1	144.34
22906	19.568	2.6364	0.1	132.18
22907	19.475	2.7273	0.1	141.52
22908	19.568	2.4545	0.1	125.45
22909	19.475	2.5455	0.1	135.91
22910	19.568	2.2727	0.1	116.21
22911	19.475	2.3636	0.1	127.55
22912	19.568	2.0909	0.1	104.74
22913	19.475	2.1818	0.1	116.61
22914	19.568	1.9091	0.1	91.435
22915	19.475	2.	0.1	103.42
22916	19.568	1.7273	0.1	76.841
22917	19.475	1.8182	0.1	88.478
22918	19.568	1.5455	0.1	61.605
22919	19.475	1.6364	0.1	72.45
22920	19.568	1.3636	0.1	46.425
22921	19.475	1.4545	0.1	56.096
22922	19.568	1.1818	0.1	31.99
22923	19.475	1.2727	0.1	40.2
22924	19.568	1.	0.1	18.94
22925	19.475	1.0909	0.1	25.5
22926	19.568	0.81818	0.1	7.8619
22927	19.475	0.90909	0.1	12.663
22928	19.568	0.63636	0.1	0.57936
22929	19.475	0.72727	0.1	2.5769
22930	19.568	0.45455	0.1	6.3534e-002
22931	19.475	0.54545	0.1	0.14915
22932	19.568	0.27273	0.1	1.9879e-002
22933	19.475	0.36364	0.1	4.7228e-002
22934	19.475	0.18182	0.1	3.2657e-003
22935	19.568	9.0909e-002	0.1	-5.0544e-002
22936	19.383	5.7273	0.1	2.8702e-002
22937	19.291	5.8182	0.1	3.5889e-003
22938	19.383	5.9091	0.1	-5.4122e-002
22939	19.383	5.5455	0.1	8.8311e-002
22940	19.291	5.6364	0.1	6.7883e-002
22941	19.383	5.3636	0.1	0.48612
22942	19.291	5.4545	0.1	0.17952
22943	19.383	5.1818	0.1	7.0807
22944	19.291	5.2727	0.1	1.7402
22945	19.383	5.	0.1	19.189
22946	19.291	5.0909	0.1	11.972
22947	19.383	4.8182	0.1	33.686
22948	19.291	4.9091	0.1	26.038
22949	19.383	4.6364	0.1	49.847
22950	19.291	4.7273	0.1	42.351
22951	19.383	4.4545	0.1	66.916
22952	19.291	4.5455	0.1	60.121
22953	19.383	4.2727	0.1	84.062
22954	19.291	4.3636	0.1	78.467
22955	19.383	4.0909	0.1	100.44
22956	19.291	4.1818	0.1	96.429
22957	19.383	3.9091	0.1	115.27
22958	19.291	4.	0.1	113.07
22959	19.383	3.7273	0.1	127.94
22960	19.291	3.8182	0.1	127.61
22961	19.383	3.5455	0.1	138.01
22962	19.291	3.6364	0.1	139.48
22963	19.383	3.3636	0.1	145.27
22964	19.291	3.4545	0.1	148.4
22965	19.383	3.1818	0.1	149.63
22966	19.291	3.2727	0.1	154.3
22967	19.383	3.	0.1	151.08
22968	19.291	3.0909	0.1	157.22
22969	19.383	2.8182	0.1	149.63
22970	19.291	2.9091	0.1	157.22
22971	19.383	2.6364	0.1	145.27
22972	19.291	2.7273	0.1	154.3
22973	19.383	2.4545	0.1	138.01
22974	19.291	2.5455	0.1	148.4
22975	19.383	2.2727	0.1	127.94
22976	19.291	2.3636	0.1	139.48
22977	19.383	2.0909	0.1	115.27
22978	19.291	2.1818	0.1	127.61
22979	19.383	1.9091	0.1	100.44
22980	19.291	2.	0.1	113.07
22981	19.383	1.7273	0.1	84.062
22982	19.291	1.8182	0.1	96.429
22983	19.383	1.5455	0.1	66.916
22984	19.291	1.6364	0.1	78.467
22985	19.383	1.3636	0.1	49.847
22986	19.291	1.4545	0.1	60.121
22987	19.383	1.1818	0.1	33.686
22988	19.291	1.2727	0.1	42.351
22989	19.383	1.	0.1	19.189
22990	19.291	1.0909	0.1	26.038
22991	19.383	0.81818	0.1	7.0807
22992	19.291	0.90909	0.1	11.972
22993	19.383	0.63636	0.1	0.48612
22994	19.291	0.72727	0.1	1.7402
22995	19.383	0.45455	0.1	8.8312e-002
22996	19.291	0.54545	0.1	0.17952
22997	19.383	0.27273	0.1	2.8704e-002
22998	19.291	0.36364	0.1	6.7884e-002
22999	19.291	0.18182	0.1	3.5899e-003
23000	19.383	9.0909e-002	0.1	-5.4122e-002
23001	19.198	5.7273	0.1	3.989e-002
23002	19.106	5.8182	0.1	4.5283e-003
23003	19.198	5.9091	0.1	-5.6521e-002
23004	19.198	5.5455	0.1	0.11777
23005	19.106	5.6364	0.1	9.3523e-002
23006	19.198	5.3636	0.1	0.45669
23007	19.106	5.4545	0.1	0.21763
23008	19.198	5.1818	0.1	5.7825
23009	19.106	5.2727	0.1	1.2198
23010	19.198	5.	0.1	18.729
23011	19.106	5.0909	0.1	10.606
23012	19.198	4.8182	0.1	34.637
23013	19.106	4.9091	0.1	25.732
23014	19.198	4.6364	0.1	52.559
23015	19.106	4.7273	0.1	43.607
23016	19.198	4.4545	0.1	71.606
23017	19.106	4.5455	0.1	63.292
23018	19.198	4.2727	0.1	90.772
23019	19.106	4.3636	0.1	83.734
23020	19.198	4.0909	0.1	109.01
23021	19.106	4.1818	0.1	103.74
23022	19.198	3.9091	0.1	125.37
23023	19.106	4.	0.1	122.13
23024	19.198	3.7273	0.1	139.13
23025	19.106	3.8182	0.1	137.92
23026	19.198	3.5455	0.1	149.88
23027	19.106	3.6364	0.1	150.51
23028	19.198	3.3636	0.1	157.46
23029	19.106	3.4545	0.1	159.71
23030	19.198	3.1818	0.1	161.94
23031	19.106	3.2727	0.1	165.62
23032	19.198	3.	0.1	163.42
23033	19.106	3.0909	0.1	168.49
23034	19.198	2.8182	0.1	161.94
23035	19.106	2.9091	0.1	168.49
23036	19.198	2.6364	0.1	157.46
23037	19.106	2.7273	0.1	165.62
23038	19.198	2.4545	0.1	149.88
23039	19.106	2.5455	0.1	159.71
23040	19.198	2.2727	0.1	139.13
23041	19.106	2.3636	0.1	150.51
23042	19.198	2.0909	0.1	125.37
23043	19.106	2.1818	0.1	137.92
23044	19.198	1.9091	0.1	109.01
23045	19.106	2.	0.1	122.13
23046	19.198	1.7273	0.1	90.772
23047	19.106	1.8182	0.1	103.74
23048	19.198	1.5455	0.1	71.606
23049	19.106	1.6364	0.1	83.734
23050	19.198	1.3636	0.1	52.559
23051	19.106	1.4545	0.1	63.292
23052	19.198	1.1818	0.1	34.636
23053	19.106	1.2727	0.1	43.607
23054	19.198	1.	0.1	18.729
23055	19.106	1.0909	0.1	25.732
23056	19.198	0.81818	0.1	5.7825
23057	19.106	0.90909	0.1	10.606
23058	19.198	0.63636	0.1	0.45669
23059	19.106	0.72727	0.1	1.2198
23060	19.198	0.45455	0.1	0.11777
23061	19.106	0.54545	0.1	0.21763
23062	19.198	0.27273	0.1	3.9891e-002
23063	19.106	0.36364	0.1	9.3522e-002
23064	19.106	0.18182	0.1	4.5294e-003
23065	19.198	9.0909e-002	0.1	-5.6521e-002
23066	19.014	5.7273	0.1	5.4806e-002
23067	18.921	5.8182	0.1	7.6361e-003
23068	19.014	5.9091	0.1	-5.813e-002
23069	19.014	5.5455	0.1	0.15507
23070	18.921	5.6364	0.1	0.12653
23071	19.014	5.3636	0.1	0.47067
23072	18.921	5.4545	0.1	0.26941
23073	19.014	5.1818	0.1	4.1626
23074	18.921	5.2727	0.1	1.016
23075	19.014	5.	0.1	17.405
23076	18.921	5.0909	0.1	8.542
23077	19.014	4.8182	0.1	34.561
23078	18.921	4.9091	0.1	24.286
23079	19.014	4.6364	0.1	54.202
23080	18.921	4.7273	0.1	43.526
23081	19.014	4.4545	0.1	75.285
23082	18.921	4.5455	0.1	65.091
23083	19.014	4.2727	0.1	96.576
23084	18.921	4.3636	0.1	87.723
23085	19.014	4.0909	0.1	116.75
23086	18.921	4.1818	0.1	109.9
23087	19.014	3.9091	0.1	134.59
23088	18.921	4.	0.1	130.06
23089	19.014	3.7273	0.1	149.26
23090	18.921	3.8182	0.1	146.94
23091	19.014	3.5455	0.1	160.36
23092	18.921	3.6364	0.1	159.89
23093	19.014	3.3636	0.1	167.93
23094	18.921	3.4545	0.1	168.88
23095	19.014	3.1818	0.1	172.27
23096	18.921	3.2727	0.1	174.37
23097	19.014	3.	0.1	173.68
23098	18.921	3.0909	0.1	176.93
23099	19.014	2.8182	0.1	172.27
23100	18.921	2.9091	0.1	176.93
23101	19.014	2.6364	0.1	167.93
23102	18.921	2.7273	0.1	174.37
23103	19.014	2.4545	0.1	160.36
23104	18.921	2.5455	0.1	168.88
23105	19.014	2.2727	0.1	149.26
23106	18.921	2.3636	0.1	159.89
23107	19.014	2.0909	0.1	134.59
23108	18.921	2.1818	0.1	146.94
23109	19.014	1.9091	0.1	116.75
23110	18.921	2.	0.1	130.06
23111	19.014	1.7273	0.1	96.576
23112	18.921	1.8182	0.1	109.9
23113	19.014	1.5455	0.1	75.284
23114	18.921	1.6364	0.1	87.723
23115	19.014	1.3636	0.1	54.202
23116	18.921	1.4545	0.1	65.09
23117	19.014	1.1818	0.1	34.561
23118	18.921	1.2727	0.1	43.525
23119	19.014	1.	0.1	17.405
23120	18.921	1.0909	0.1	24.286
23121	19.014	0.81818	0.1	4.1626
23122	18.921	0.90909	0.1	8.5419
23123	19.014	0.63636	0.1	0.47067
23124	18.921	0.72727	0.1	1.016
23125	19.014	0.45455	0.1	0.15506
23126	18.921	0.54545	0.1	0.26941
23127	19.014	0.27273	0.1	5.4807e-002
23128	18.921	0.36364	0.1	0.12653
23129	18.921	0.18182	0.1	7.6361e-003
23130	19.014	9.0909e-002	0.1	-5.8128e-002
23131	18.829	5.7273	0.1	7.6246e-002
23132	18.736	5.8182	0.1	1.6515e-002
23133	18.829	5.9091	0.1	-5.9666e-002
23134	18.829	5.5455	0.1	0.20508
23135	18.736	5.6364	0.1	0.17123
23136	18.829	5.3636	0.1	0.52022
23137	18.736	5.4545	0.1	0.34266
23138	18.829	5.1818	0.1	2.7558
23139	18.736	5.2727	0.1	0.97393
23140	18.829	5.	0.1	14.982
23141	18.736	5.0909	0.1	5.9495
23142	18.829	4.8182	0.1	32.977
23143	18.736	4.9091	0.1	21.216
23144	18.829	4.6364	0.1	54.15
23145	18.736	4.7273	0.1	41.338
23146	18.829	4.4545	0.1	77.273
23147	18.736	4.5455	0.1	64.606
23148	18.829	4.2727	0.1	100.81
23149	18.736	4.3636	0.1	89.514
23150	18.829	4.0909	0.1	123.01
23151	18.736	4.1818	0.1	114.06
23152	18.829	3.9091	0.1	142.26
23153	18.736	4.	0.1	136.06
23154	18.829	3.7273	0.1	157.5
23155	18.736	3.8182	0.1	153.78
23156	18.829	3.5455	0.1	168.44
23157	18.736	3.6364	0.1	166.49
23158	18.829	3.3636	0.1	175.44
23159	18.736	3.4545	0.1	174.51
23160	18.829	3.1818	0.1	179.21
23161	18.736	3.2727	0.1	178.86
23162	18.829	3.	0.1	180.38
23163	18.736	3.0909	0.1	180.68
23164	18.829	2.8182	0.1	179.21
23165	18.736	2.9091	0.1	180.68
23166	18.829	2.6364	0.1	175.44
23167	18.736	2.7273	0.1	178.86
23168	18.829	2.4545	0.1	168.44
23169	18.736	2.5455	0.1	174.51
23170	18.829	2.2727	0.1	157.5
23171	18.736	2.3636	0.1	166.49
23172	18.829	2.0909	0.1	142.26
23173	18.736	2.1818	0.1	153.78
23174	18.829	1.9091	0.1	123.01
23175	18.736	2.	0.1	136.06
23176	18.829	1.7273	0.1	100.81
23177	18.736	1.8182	0.1	114.06
23178	18.829	1.5455	0.1	77.273
23179	18.736	1.6364	0.1	89.514
23180	18.829	1.3636	0.1	54.15
23181	18.736	1.4545	0.1	64.606
23182	18.829	1.1818	0.1	32.977
23183	18.736	1.2727	0.1	41.338
23184	18.829	1.	0.1	14.982
23185	18.736	1.0909	0.1	21.216
23186	18.829	0.81818	0.1	2.7558
23187	18.736	0.90909	0.1	5.9495
23188	18.829	0.63636	0.1	0.52022
23189	18.736	0.72727	0.1	0.97393
23190	18.829	0.45455	0.1	0.20508
23191	18.736	0.54545	0.1	0.34266
23192	18.829	0.27273	0.1	7.6247e-002
23193	18.736	0.36364	0.1	0.17123
23194	18.736	0.18182	0.1	1.6514e-002
23195	18.829	9.0909e-002	0.1	-5.9666e-002
23196	18.644	5.7273	0.1	0.10979
23197	18.552	5.8182	0.1	3.9518e-002
23198	18.644	5.9091	0.1	-6.2283e-002
23199	18.644	5.5455	0.1	0.27566
23200	18.552	5.6364	0.1	0.23647
23201	18.644	5.3636	0.1	0.60658
23202	18.552	5.4545	0.1	0.44969
23203	18.644	5.1818	0.1	1.9961
23204	18.552	5.2727	0.1	1.021
23205	18.644	5.	0.1	11.194
23206	18.552	5.0909	0.1	3.6486
23207	18.644	4.8182	0.1	29.071
23208	18.552	4.9091	0.1	15.841
23209	18.644	4.6364	0.1	51.316
23210	18.552	4.7273	0.1	35.747
23211	18.644	4.4545	0.1	76.39
23212	18.552	4.5455	0.1	60.255
23213	18.644	4.2727	0.1	102.34
23214	18.552	4.3636	0.1	87.517
23215	18.644	4.0909	0.1	126.75
23216	18.552	4.1818	0.1	114.79
23217	18.644	3.9091	0.1	147.33
23218	18.552	4.	0.1	138.85
23219	18.644	3.7273	0.1	162.66
23220	18.552	3.8182	0.1	157.1
23221	18.644	3.5455	0.1	172.62
23222	18.552	3.6364	0.1	168.65
23223	18.644	3.3636	0.1	178.15
23224	18.552	3.4545	0.1	174.48
23225	18.644	3.1818	0.1	180.67
23226	18.552	3.2727	0.1	176.6
23227	18.644	3.	0.1	181.36
23228	18.552	3.0909	0.1	177.06
23229	18.644	2.8182	0.1	180.67
23230	18.552	2.9091	0.1	177.06
23231	18.644	2.6364	0.1	178.15
23232	18.552	2.7273	0.1	176.6
23233	18.644	2.4545	0.1	172.62
23234	18.552	2.5455	0.1	174.48
23235	18.644	2.2727	0.1	162.66
23236	18.552	2.3636	0.1	168.65
23237	18.644	2.0909	0.1	147.33
23238	18.552	2.1818	0.1	157.1
23239	18.644	1.9091	0.1	126.75
23240	18.552	2.	0.1	138.85
23241	18.644	1.7273	0.1	102.34
23242	18.552	1.8182	0.1	114.79
23243	18.644	1.5455	0.1	76.389
23244	18.552	1.6364	0.1	87.517
23245	18.644	1.3636	0.1	51.316
23246	18.552	1.4545	0.1	60.255
23247	18.644	1.1818	0.1	29.071
23248	18.552	1.2727	0.1	35.746
23249	18.644	1.	0.1	11.194
23250	18.552	1.0909	0.1	15.841
23251	18.644	0.81818	0.1	1.9961
23252	18.552	0.90909	0.1	3.6486
23253	18.644	0.63636	0.1	0.60658
23254	18.552	0.72727	0.1	1.021
23255	18.644	0.45455	0.1	0.27567
23256	18.552	0.54545	0.1	0.44969
23257	18.644	0.27273	0.1	0.10979
23258	18.552	0.36364	0.1	0.23647
23259	18.552	0.18182	0.1	3.9517e-002
23260	18.644	9.0909e-002	0.1	-6.2282e-002
23261	18.459	5.7273	0.1	0.16794
23262	18.367	5.8182	0.1	9.3538e-002
23263	18.459	5.9091	0.1	-6.6491e-002
23264	18.459	5.5455	0.1	0.38149
23265	18.367	5.6364	0.1	0.3397
23266	18.459	5.3636	0.1	0.73796
23267	18.367	5.4545	0.1	0.6093
23268	18.459	5.1818	0.1	1.6865
23269	18.367	5.2727	0.1	1.1295
23270	18.459	5.	0.1	6.4094
23271	18.367	5.0909	0.1	2.4363
23272	18.459	4.8182	0.1	21.601
23273	18.367	4.9091	0.1	8.228
23274	18.459	4.6364	0.1	43.849
23275	18.367	4.7273	0.1	24.788
23276	18.459	4.4545	0.1	70.594
23277	18.367	4.5455	0.1	49.347
23278	18.459	4.2727	0.1	99.262
23279	18.367	4.3636	0.1	78.961
23280	18.459	4.0909	0.1	126.31
23281	18.367	4.1818	0.1	109.71
23282	18.459	3.9091	0.1	148.22
23283	18.367	4.	0.1	136.4
23284	18.459	3.7273	0.1	162.94
23285	18.367	3.8182	0.1	154.84
23286	18.459	3.5455	0.1	170.65
23287	18.367	3.6364	0.1	163.89
23288	18.459	3.3636	0.1	173.35
23289	18.367	3.4545	0.1	165.69
23290	18.459	3.1818	0.1	173.61
23291	18.367	3.2727	0.1	164.01
23292	18.459	3.	0.1	173.45
23293	18.367	3.0909	0.1	162.24
23294	18.459	2.8182	0.1	173.61
23295	18.367	2.9091	0.1	162.24
23296	18.459	2.6364	0.1	173.35
23297	18.367	2.7273	0.1	164.01
23298	18.459	2.4545	0.1	170.65
23299	18.367	2.5455	0.1	165.69
23300	18.459	2.2727	0.1	162.94
23301	18.367	2.3636	0.1	163.89
23302	18.459	2.0909	0.1	148.22
23303	18.367	2.1818	0.1	154.84
23304	18.459	1.9091	0.1	126.31
23305	18.367	2.	0.1	136.4
23306	18.459	1.7273	0.1	99.262
23307	18.367	1.8182	0.1	109.71
23308	18.459	1.5455	0.1	70.594
23309	18.367	1.6364	0.1	78.961
23310	18.459	1.3636	0.1	43.849
23311	18.367	1.4545	0.1	49.347
23312	18.459	1.1818	0.1	21.601
23313	18.367	1.2727	0.1	24.788
23314	18.459	1.	0.1	6.4093
23315	18.367	1.0909	0.1	8.2279
23316	18.459	0.81818	0.1	1.6865
23317	18.367	0.90909	0.1	2.4362
23318	18.459	0.63636	0.1	0.73796
23319	18.367	0.72727	0.1	1.1295
23320	18.459	0.45455	0.1	0.38149
23321	18.367	0.54545	0.1	0.6093
23322	18.459	0.27273	0.1	0.16794
23323	18.367	0.36364	0.1	0.3397
23324	18.367	0.18182	0.1	9.3537e-002
23325	18.459	9.0909e-002	0.1	-6.649e-002
23326	18.275	5.7273	0.1	0.27453
23327	18.182	5.8182	0.1	0.21967
23328	18.275	5.9091	0.1	-7.4977e-002
23329	18.275	5.5455	0.1	0.54689
23330	18.182	5.6364	0.1	0.52434
23331	18.275	5.3636	0.1	0.92369
23332	18.182	5.4545	0.1	0.85607
23333	18.275	5.1818	0.1	1.5783
23334	18.182	5.2727	0.1	1.2878
23335	18.275	5.	0.1	3.2173
23336	18.182	5.0909	0.1	1.9304
23337	18.275	4.8182	0.1	10.129
23338	18.182	4.9091	0.1	3.3476
23339	18.275	4.6364	0.1	28.919
23340	18.182	4.7273	0.1	8.866
23341	18.275	4.4545	0.1	56.404
23342	18.182	4.5455	0.1	27.968
23343	18.275	4.2727	0.1	88.255
23344	18.182	4.3636	0.1	59.148
23345	18.275	4.0909	0.1	118.88
23346	18.182	4.1818	0.1	94.689
23347	18.275	3.9091	0.1	142.43
23348	18.182	4.	0.1	125.55
23349	18.275	3.7273	0.1	155.63
23350	18.182	3.8182	0.1	143.99
23351	18.275	3.5455	0.1	159.26
23352	18.182	3.6364	0.1	148.46
23353	18.275	3.3636	0.1	157.14
23354	18.182	3.4545	0.1	143.6
23355	18.275	3.1818	0.1	153.73
23356	18.182	3.2727	0.1	136.08
23357	18.275	3.	0.1	152.22
23358	18.182	3.0909	0.1	131.08
23359	18.275	2.8182	0.1	153.73
23360	18.182	2.9091	0.1	131.08
23361	18.275	2.6364	0.1	157.14
23362	18.182	2.7273	0.1	136.08
23363	18.275	2.4545	0.1	159.26
23364	18.182	2.5455	0.1	143.6
23365	18.275	2.2727	0.1	155.63
23366	18.182	2.3636	0.1	148.46
23367	18.275	2.0909	0.1	142.43
23368	18.182	2.1818	0.1	143.99
23369	18.275	1.9091	0.1	118.88
23370	18.182	2.	0.1	125.55
23371	18.275	1.7273	0.1	88.255
23372	18.182	1.8182	0.1	94.689
23373	18.275	1.5455	0.1	56.404
23374	18.182	1.6364	0.1	59.148
23375	18.275	1.3636	0.1	28.918
23376	18.182	1.4545	0.1	27.968
23377	18.275	1.1818	0.1	10.129
23378	18.182	1.2727	0.1	8.8659
23379	18.275	1.	0.1	3.2173
23380	18.182	1.0909	0.1	3.3476
23381	18.275	0.81818	0.1	1.5783
23382	18.182	0.90909	0.1	1.9304
23383	18.275	0.63636	0.1	0.92369
23384	18.182	0.72727	0.1	1.2878
23385	18.275	0.45455	0.1	0.54689
23386	18.182	0.54545	0.1	0.85607
23387	18.275	0.27273	0.1	0.27453
23388	18.182	0.36364	0.1	0.52434
23389	18.182	0.18182	0.1	0.21967
23390	18.275	9.0909e-002	0.1	-7.4976e-002
23391	18.09	5.7273	0.1	0.49512
23392	17.998	5.8182	0.1	0.48775
23393	18.09	5.9091	0.1	-7.5043e-002
23394	18.09	5.5455	0.1	0.8299
23395	17.998	5.6364	0.1	0.86726
23396	18.09	5.3636	0.1	1.1819
23397	17.998	5.4545	0.1	1.2143
23398	18.09	5.1818	0.1	1.5694
23399	17.998	5.2727	0.1	1.4569
23400	18.09	5.	0.1	2.1309
23401	17.998	5.0909	0.1	1.6972
23402	18.09	4.8182	0.1	3.3539
23403	17.998	4.9091	0.1	2.0701
23404	18.09	4.6364	0.1	8.1747
23405	17.998	4.7273	0.1	2.8905
23406	18.09	4.4545	0.1	28.891
23407	17.998	4.5455	0.1	5.5851
23408	18.09	4.2727	0.1	63.794
23409	17.998	4.3636	0.1	22.133
23410	18.09	4.0909	0.1	99.966
23411	17.998	4.1818	0.1	62.438
23412	18.09	3.9091	0.1	126.3
23413	17.998	4.	0.1	100.67
23414	18.09	3.7273	0.1	136.79
23415	17.998	3.8182	0.1	119.53
23416	18.09	3.5455	0.1	133.61
23417	17.998	3.6364	0.1	116.63
23418	18.09	3.3636	0.1	124.02
23419	17.998	3.4545	0.1	101.69
23420	18.09	3.1818	0.1	115.29
23421	17.998	3.2727	0.1	86.386
23422	18.09	3.	0.1	111.91
23423	17.998	3.0909	0.1	77.505
23424	18.09	2.8182	0.1	115.29
23425	17.998	2.9091	0.1	77.505
23426	18.09	2.6364	0.1	124.02
23427	17.998	2.7273	0.1	86.386
23428	18.09	2.4545	0.1	133.61
23429	17.998	2.5455	0.1	101.69
23430	18.09	2.2727	0.1	136.79
23431	17.998	2.3636	0.1	116.63
23432	18.09	2.0909	0.1	126.3
23433	17.998	2.1818	0.1	119.53
23434	18.09	1.9091	0.1	99.966
23435	17.998	2.	0.1	100.67
23436	18.09	1.7273	0.1	63.794
23437	17.998	1.8182	0.1	62.438
23438	18.09	1.5455	0.1	28.891
23439	17.998	1.6364	0.1	22.133
23440	18.09	1.3636	0.1	8.1746
23441	17.998	1.4545	0.1	5.585
23442	18.09	1.1818	0.1	3.3539
23443	17.998	1.2727	0.1	2.8905
23444	18.09	1.	0.1	2.1309
23445	17.998	1.0909	0.1	2.0701
23446	18.09	0.81818	0.1	1.5694
23447	17.998	0.90909	0.1	1.6972
23448	18.09	0.63636	0.1	1.1819
23449	17.998	0.72727	0.1	1.4569
23450	18.09	0.45455	0.1	0.8299
23451	17.998	0.54545	0.1	1.2143
23452	18.09	0.27273	0.1	0.49512
23453	17.998	0.36364	0.1	0.86725
23454	17.998	0.18182	0.1	0.48775
23455	18.09	9.0909e-002	0.1	-7.5043e-002
23456	17.905	5.7273	0.1	0.92362
23457	17.813	5.8182	0.1	1.1473
23458	17.905	5.9091	0.1	-8.8179e-002
23459	17.905	5.5455	0.1	1.272
23460	17.813	5.6364	0.1	1.6053
23461	17.905	5.3636	0.1	1.4589
23462	17.813	5.4545	0.1	1.7363
23463	17.905	5.1818	0.1	1.5575
23464	17.813	5.2727	0.1	1.652
23465	17.905	5.	0.1	1.7104
23466	17.813	5.0909	0.1	1.6373
23467	17.905	4.8182	0.1	2.0498
23468	17.813	4.9091	0.1	1.784
23469	17.905	4.6364	0.1	2.8044
23470	17.813	4.7273	0.1	2.1114
23471	17.905	4.4545	0.1	4.7334
23472	17.813	4.5455	0.1	2.703
23473	17.905	4.2727	0.1	19.464
23474	17.813	4.3636	0.1	4.9369
23475	17.905	4.0909	0.1	61.159
23476	17.813	4.1818	0.1	12.064
23477	17.905	3.9091	0.1	93.02
23478	17.813	4.	0.1	52.631
23479	17.905	3.7273	0.1	99.946
23480	17.813	3.8182	0.1	74.245
23481	17.905	3.5455	0.1	86.643
23482	17.813	3.6364	0.1	59.471
23483	17.905	3.3636	0.1	66.796
23484	17.813	3.4545	0.1	31.844
23485	17.905	3.1818	0.1	51.608
23486	17.813	3.2727	0.1	9.7895
23487	17.905	3.	0.1	46.134
23488	17.813	3.0909	0.1	8.4172e-002
23489	17.905	2.8182	0.1	51.608
23490	17.813	2.9091	0.1	8.4163e-002
23491	17.905	2.6364	0.1	66.796
23492	17.813	2.7273	0.1	9.7895
23493	17.905	2.4545	0.1	86.643
23494	17.813	2.5455	0.1	31.844
23495	17.905	2.2727	0.1	99.946
23496	17.813	2.3636	0.1	59.471
23497	17.905	2.0909	0.1	93.02
23498	17.813	2.1818	0.1	74.245
23499	17.905	1.9091	0.1	61.158
23500	17.813	2.	0.1	52.631
23501	17.905	1.7273	0.1	19.464
23502	17.813	1.8182	0.1	12.064
23503	17.905	1.5455	0.1	4.7334
23504	17.813	1.6364	0.1	4.9369
23505	17.905	1.3636	0.1	2.8044
23506	17.813	1.4545	0.1	2.703
23507	17.905	1.1818	0.1	2.0498
23508	17.813	1.2727	0.1	2.1114
23509	17.905	1.	0.1	1.7104
23510	17.813	1.0909	0.1	1.784
23511	17.905	0.81818	0.1	1.5575
23512	17.813	0.90909	0.1	1.6373
23513	17.905	0.63636	0.1	1.4589
23514	17.813	0.72727	0.1	1.652
23515	17.905	0.45455	0.1	1.272
23516	17.813	0.54545	0.1	1.7363
23517	17.905	0.27273	0.1	0.92362
23518	17.813	0.36364	0.1	1.6053
23519	17.813	0.18182	0.1	1.1473
23520	17.905	9.0909e-002	0.1	-8.8179e-002
23521	17.721	5.7273	0.1	1.9767
23522	17.628	5.8182	0.1	2.4071
23523	17.721	5.9091	0.1	0.11853
23524	17.721	5.5455	0.1	2.0555
23525	17.628	5.6364	0.1	2.6202
23526	17.721	5.3636	0.1	1.8316
23527	17.628	5.4545	0.1	1.9911
23528	17.721	5.1818	0.1	1.6768
23529	17.628	5.2727	0.1	1.4953
23530	17.721	5.	0.1	1.7259
23531	17.628	5.0909	0.1	1.3226
23532	17.721	4.8182	0.1	1.9461
23533	17.628	4.9091	0.1	1.3376
23534	17.721	4.6364	0.1	2.2953
23535	17.628	4.7273	0.1	1.5553
23536	17.721	4.4545	0.1	3.9927
23537	17.628	4.5455	0.1	2.0564
23538	17.721	4.2727	0.1	5.475
23539	17.628	4.3636	0.1	3.0962
23540	17.721	4.0909	0.1	9.4791
23541	17.628	4.1818	0.1	2.4392
23542	17.721	3.9091	0.1	33.189
23543	17.628	4.	0.1	-11.016
23544	17.721	3.7273	0.1	36.485
23545	17.628	3.8182	0.1	2.4216e-002
23546	17.721	3.5455	0.1	12.688
23547	17.628	3.6364	0.1	5.1234
23548	17.721	3.3636	0.1	1.3732
23549	17.628	3.4545	0.1	0.92211
23550	17.721	3.1818	0.1	-0.23803
23551	17.628	3.2727	0.1	-1.1547e-002
23552	17.721	3.	0.1	-0.4791
23553	17.628	3.0909	0.1	-0.24681
23554	17.721	2.8182	0.1	-0.23804
23555	17.628	2.9091	0.1	-0.24681
23556	17.721	2.6364	0.1	1.3732
23557	17.628	2.7273	0.1	-1.1548e-002
23558	17.721	2.4545	0.1	12.688
23559	17.628	2.5455	0.1	0.92211
23560	17.721	2.2727	0.1	36.484
23561	17.628	2.3636	0.1	5.1233
23562	17.721	2.0909	0.1	33.189
23563	17.628	2.1818	0.1	2.4153e-002
23564	17.721	1.9091	0.1	9.4791
23565	17.628	2.	0.1	-11.016
23566	17.721	1.7273	0.1	5.4749
23567	17.628	1.8182	0.1	2.4392
23568	17.721	1.5455	0.1	3.9927
23569	17.628	1.6364	0.1	3.0962
23570	17.721	1.3636	0.1	2.2953
23571	17.628	1.4545	0.1	2.0564
23572	17.721	1.1818	0.1	1.9461
23573	17.628	1.2727	0.1	1.5553
23574	17.721	1.	0.1	1.7259
23575	17.628	1.0909	0.1	1.3376
23576	17.721	0.81818	0.1	1.6768
23577	17.628	0.90909	0.1	1.3226
23578	17.721	0.63636	0.1	1.8316
23579	17.628	0.72727	0.1	1.4953
23580	17.721	0.45455	0.1	2.0554
23581	17.628	0.54545	0.1	1.9911
23582	17.721	0.27273	0.1	1.9767
23583	17.628	0.36364	0.1	2.6202
23584	17.628	0.18182	0.1	2.4071
23585	17.721	9.0909e-002	0.1	0.11853
23586	17.536	5.7273	0.1	3.278
23587	17.444	5.8182	0.1	6.4715
23588	17.536	5.9091	0.1	0.27446
23589	17.536	5.5455	0.1	2.2008
23590	17.444	5.6364	0.1	4.1538
23591	17.536	5.3636	0.1	1.4212
23592	17.444	5.4545	0.1	2.8304
23593	17.536	5.1818	0.1	1.0403
23594	17.444	5.2727	0.1	2.2646
23595	17.536	5.	0.1	0.89771
23596	17.444	5.0909	0.1	2.1531
23597	17.536	4.8182	0.1	0.95545
23598	17.444	4.9091	0.1	2.4755
23599	17.536	4.6364	0.1	1.3601
23600	17.444	4.7273	0.1	2.4701
23601	17.536	4.4545	0.1	1.244
23602	17.444	4.5455	0.1	5.8578
23603	17.536	4.2727	0.1	-0.23296
23604	17.444	4.3636	0.1	-8.052e-002
23605	17.536	4.0909	0.1	-15.698
23606	17.444	4.1818	0.1	29.972
23607	17.536	3.9091	0.1	-21.887
23608	17.444	4.	0.1	90.16
23609	17.536	3.7273	0.1	-1.4538
23610	17.444	3.8182	0.1	6.0571
23611	17.536	3.5455	0.1	3.2528
23612	17.444	3.6364	0.1	6.6038
23613	17.536	3.3636	0.1	0.19054
23614	17.444	3.4545	0.1	-0.63442
23615	17.536	3.1818	0.1	-4.2814e-002
23616	17.444	3.2727	0.1	0.54966
23617	17.536	3.	0.1	-0.10283
23618	17.444	3.0909	0.1	-2.9491e-002
23619	17.536	2.8182	0.1	-4.2814e-002
23620	17.444	2.9091	0.1	-2.9491e-002
23621	17.536	2.6364	0.1	0.19054
23622	17.444	2.7273	0.1	0.54966
23623	17.536	2.4545	0.1	3.2528
23624	17.444	2.5455	0.1	-0.63442
23625	17.536	2.2727	0.1	-1.4538
23626	17.444	2.3636	0.1	6.6038
23627	17.536	2.0909	0.1	-21.887
23628	17.444	2.1818	0.1	6.057
23629	17.536	1.9091	0.1	-15.698
23630	17.444	2.	0.1	90.16
23631	17.536	1.7273	0.1	-0.23297
23632	17.444	1.8182	0.1	29.972
23633	17.536	1.5455	0.1	1.244
23634	17.444	1.6364	0.1	-8.0532e-002
23635	17.536	1.3636	0.1	1.3601
23636	17.444	1.4545	0.1	5.8578
23637	17.536	1.1818	0.1	0.95545
23638	17.444	1.2727	0.1	2.4701
23639	17.536	1.	0.1	0.89771
23640	17.444	1.0909	0.1	2.4755
23641	17.536	0.81818	0.1	1.0403
23642	17.444	0.90909	0.1	2.1531
23643	17.536	0.63636	0.1	1.4212
23644	17.444	0.72727	0.1	2.2646
23645	17.536	0.45455	0.1	2.2008
23646	17.444	0.54545	0.1	2.8304
23647	17.536	0.27273	0.1	3.278
23648	17.444	0.36364	0.1	4.1538
23649	17.444	0.18182	0.1	6.4715
23650	17.536	9.0909e-002	0.1	0.27446
23651	17.351	5.7273	0.1	6.3152
23652	17.259	5.8182	0.1	0.55803
23653	17.351	5.9091	0.1	4.9157
23654	17.351	5.5455	0.1	3.7793
23655	17.259	5.6364	0.1	-1.0383
23656	17.351	5.3636	0.1	3.1856
23657	17.259	5.4545	0.1	-0.64771
23658	17.351	5.1818	0.1	3.0553
23659	17.259	5.2727	0.1	-0.64011
23660	17.351	5.	0.1	3.4664
23661	17.259	5.0909	0.1	-0.74603
23662	17.351	4.8182	0.1	3.7445
23663	17.259	4.9091	0.1	-0.24693
23664	17.351	4.6364	0.1	6.7078
23665	17.259	4.7273	0.1	-2.0324
23666	17.351	4.4545	0.1	4.222
23667	17.259	4.5455	0.1	5.534
23668	17.351	4.2727	0.1	29.63
23669	17.259	4.3636	0.1	-23.728
23670	17.351	4.0909	0.1	135.57
23671	17.259	4.1818	0.1	107.58
23672	17.351	3.9091	0.1	90.463
23673	17.259	4.	0.1	217.84
23674	17.351	3.7273	0.1	10.835
23675	17.259	3.8182	0.1	6.9002
23676	17.351	3.5455	0.1	2.6729
23677	17.259	3.6364	0.1	11.157
23678	17.351	3.3636	0.1	-0.40981
23679	17.259	3.4545	0.1	-1.3487
23680	17.351	3.1818	0.1	0.50494
23681	17.259	3.2727	0.1	1.3032
23682	17.351	3.	0.1	-1.834e-002
23683	17.259	3.0909	0.1	0.3592
23684	17.351	2.8182	0.1	0.50494
23685	17.259	2.9091	0.1	0.35919
23686	17.351	2.6364	0.1	-0.40981
23687	17.259	2.7273	0.1	1.3032
23688	17.351	2.4545	0.1	2.6729
23689	17.259	2.5455	0.1	-1.3487
23690	17.351	2.2727	0.1	10.835
23691	17.259	2.3636	0.1	11.157
23692	17.351	2.0909	0.1	90.463
23693	17.259	2.1818	0.1	6.9002
23694	17.351	1.9091	0.1	135.57
23695	17.259	2.	0.1	217.84
23696	17.351	1.7273	0.1	29.63
23697	17.259	1.8182	0.1	107.58
23698	17.351	1.5455	0.1	4.222
23699	17.259	1.6364	0.1	-23.728
23700	17.351	1.3636	0.1	6.7078
23701	17.259	1.4545	0.1	5.534
23702	17.351	1.1818	0.1	3.7445
23703	17.259	1.2727	0.1	-2.0324
23704	17.351	1.	0.1	3.4664
23705	17.259	1.0909	0.1	-0.24693
23706	17.351	0.81818	0.1	3.0553
23707	17.259	0.90909	0.1	-0.74603
23708	17.351	0.63636	0.1	3.1856
23709	17.259	0.72727	0.1	-0.64012
23710	17.351	0.45455	0.1	3.7793
23711	17.259	0.54545	0.1	-0.64771
23712	17.351	0.27273	0.1	6.3151
23713	17.259	0.36364	0.1	-1.0383
23714	17.259	0.18182	0.1	0.55803
23715	17.351	9.0909e-002	0.1	4.9157
23716	0.18478	0.27273	0.1	409.78
23717	0.27717	0.18182	0.1	1.9631
23718	9.2391e-002	0.18182	0.1	571.22
23719	0.18478	9.0909e-002	0.1	-88.77
23720	0.18478	0.45455	0.1	1042.8
23721	0.27717	0.36364	0.1	740.69
23722	9.2391e-002	0.36364	0.1	1563.4
23723	0.18478	0.63636	0.1	1382.2
23724	0.27717	0.54545	0.1	1242.1
23725	9.2391e-002	0.54545	0.1	2040.
23726	0.18478	0.81818	0.1	1584.9
23727	0.27717	0.72727	0.1	1552.9
23728	9.2391e-002	0.72727	0.1	2318.5
23729	0.18478	1.	0.1	1717.6
23730	0.27717	0.90909	0.1	1754.
23731	9.2391e-002	0.90909	0.1	2500.8
23732	0.18478	1.1818	0.1	1811.2
23733	0.27717	1.0909	0.1	1892.1
23734	9.2391e-002	1.0909	0.1	2629.5
23735	0.18478	1.3636	0.1	1880.1
23736	0.27717	1.2727	0.1	1991.6
23737	9.2391e-002	1.2727	0.1	2724.3
23738	0.18478	1.5455	0.1	1932.2
23739	0.27717	1.4545	0.1	2065.5
23740	9.2391e-002	1.4545	0.1	2796.
23741	0.18478	1.7273	0.1	1972.3
23742	0.27717	1.6364	0.1	2121.7
23743	9.2391e-002	1.6364	0.1	2851.1
23744	0.18478	1.9091	0.1	2003.3
23745	0.27717	1.8182	0.1	2164.9
23746	9.2391e-002	1.8182	0.1	2893.8
23747	0.18478	2.0909	0.1	2027.1
23748	0.27717	2.	0.1	2198.1
23749	9.2391e-002	2.	0.1	2926.9
23750	0.18478	2.2727	0.1	2045.2
23751	0.27717	2.1818	0.1	2223.5
23752	9.2391e-002	2.1818	0.1	2952.3
23753	0.18478	2.4545	0.1	2058.5
23754	0.27717	2.3636	0.1	2242.5
23755	9.2391e-002	2.3636	0.1	2971.3
23756	0.18478	2.6364	0.1	2067.6
23757	0.27717	2.5455	0.1	2256.
23758	9.2391e-002	2.5455	0.1	2984.8
23759	0.18478	2.8182	0.1	2072.9
23760	0.27717	2.7273	0.1	2264.7
23761	9.2391e-002	2.7273	0.1	2993.5
23762	0.18478	3.	0.1	2074.6
23763	0.27717	2.9091	0.1	2269.
23764	9.2391e-002	2.9091	0.1	2997.8
23765	0.18478	3.1818	0.1	2072.9
23766	0.27717	3.0909	0.1	2269.
23767	9.2391e-002	3.0909	0.1	2997.8
23768	0.18478	3.3636	0.1	2067.6
23769	0.27717	3.2727	0.1	2264.7
23770	9.2391e-002	3.2727	0.1	2993.5
23771	0.18478	3.5455	0.1	2058.5
23772	0.27717	3.4545	0.1	2256.
23773	9.2391e-002	3.4545	0.1	2984.8
23774	0.18478	3.7273	0.1	2045.2
23775	0.27717	3.6364	0.1	2242.5
23776	9.2391e-002	3.6364	0.1	2971.3
23777	0.18478	3.9091	0.1	2027.1
23778	0.27717	3.8182	0.1	2223.5
23779	9.2391e-002	3.8182	0.1	2952.3
23780	0.18478	4.0909	0.1	2003.3
23781	0.27717	4.	0.1	2198.1
23782	9.2391e-002	4.	0.1	2926.9
23783	0.18478	4.2727	0.1	1972.3
23784	0.27717	4.1818	0.1	2164.9
23785	9.2391e-002	4.1818	0.1	2893.8
23786	0.18478	4.4545	0.1	1932.2
23787	0.27717	4.3636	0.1	2121.7
23788	9.2391e-002	4.3636	0.1	2851.1
23789	0.18478	4.6364	0.1	1880.1
23790	0.27717	4.5455	0.1	2065.5
23791	9.2391e-002	4.5455	0.1	2796.
23792	0.18478	4.8182	0.1	1811.2
23793	0.27717	4.7273	0.1	1991.6
23794	9.2391e-002	4.7273	0.1	2724.3
23795	0.18478	5.	0.1	1717.6
23796	0.27717	4.9091	0.1	1892.1
23797	9.2391e-002	4.9091	0.1	2629.5
23798	0.18478	5.1818	0.1	1584.9
23799	0.27717	5.0909	0.1	1754.
23800	9.2391e-002	5.0909	0.1	2500.8
23801	0.18478	5.3636	0.1	1382.2
23802	0.27717	5.2727	0.1	1552.9
23803	9.2391e-002	5.2727	0.1	2318.5
23804	0.18478	5.5455	0.1	1042.8
23805	0.27717	5.4545	0.1	1242.1
23806	9.2391e-002	5.4545	0.1	2040.
23807	0.18478	5.7273	0.1	409.78
23808	0.27717	5.6364	0.1	740.69
23809	9.2391e-002	5.6364	0.1	1563.4
23810	0.27717	5.8182	0.1	1.9631
23811	9.2391e-002	5.8182	0.1	571.21
23812	0.18478	5.9091	0.1	-88.77
23813	0.36957	0.27273	0.1	305.14
23814	0.46196	0.18182	0.1	41.294
23815	0.36957	9.0909e-002	0.1	23.617
23816	0.36957	0.45455	0.1	939.58
23817	0.46196	0.36364	0.1	534.55
23818	0.36957	0.63636	0.1	1405.5
23819	0.46196	0.54545	0.1	1037.2
23820	0.36957	0.81818	0.1	1715.4
23821	0.46196	0.72727	0.1	1405.9
23822	0.36957	1.	0.1	1924.
23823	0.46196	0.90909	0.1	1665.9
23824	0.36957	1.1818	0.1	2069.5
23825	0.46196	1.0909	0.1	1850.
23826	0.36957	1.3636	0.1	2175.1
23827	0.46196	1.2727	0.1	1983.4
23828	0.36957	1.5455	0.1	2253.8
23829	0.46196	1.4545	0.1	2082.3
23830	0.36957	1.7273	0.1	2313.5
23831	0.46196	1.6364	0.1	2157.
23832	0.36957	1.9091	0.1	2359.3
23833	0.46196	1.8182	0.1	2214.
23834	0.36957	2.0909	0.1	2394.3
23835	0.46196	2.	0.1	2257.7
23836	0.36957	2.2727	0.1	2420.7
23837	0.46196	2.1818	0.1	2290.9
23838	0.36957	2.4545	0.1	2440.
23839	0.46196	2.3636	0.1	2315.6
23840	0.36957	2.6364	0.1	2453.2
23841	0.46196	2.5455	0.1	2333.2
23842	0.36957	2.8182	0.1	2460.8
23843	0.46196	2.7273	0.1	2344.4
23844	0.36957	3.	0.1	2463.3
23845	0.46196	2.9091	0.1	2349.9
23846	0.36957	3.1818	0.1	2460.8
23847	0.46196	3.0909	0.1	2349.9
23848	0.36957	3.3636	0.1	2453.2
23849	0.46196	3.2727	0.1	2344.4
23850	0.36957	3.5455	0.1	2440.
23851	0.46196	3.4545	0.1	2333.2
23852	0.36957	3.7273	0.1	2420.7
23853	0.46196	3.6364	0.1	2315.6
23854	0.36957	3.9091	0.1	2394.3
23855	0.46196	3.8182	0.1	2290.9
23856	0.36957	4.0909	0.1	2359.3
23857	0.46196	4.	0.1	2257.7
23858	0.36957	4.2727	0.1	2313.5
23859	0.46196	4.1818	0.1	2214.
23860	0.36957	4.4545	0.1	2253.8
23861	0.46196	4.3636	0.1	2157.
23862	0.36957	4.6364	0.1	2175.1
23863	0.46196	4.5455	0.1	2082.3
23864	0.36957	4.8182	0.1	2069.5
23865	0.46196	4.7273	0.1	1983.4
23866	0.36957	5.	0.1	1924.
23867	0.46196	4.9091	0.1	1850.
23868	0.36957	5.1818	0.1	1715.4
23869	0.46196	5.0909	0.1	1665.9
23870	0.36957	5.3636	0.1	1405.5
23871	0.46196	5.2727	0.1	1405.9
23872	0.36957	5.5455	0.1	939.58
23873	0.46196	5.4545	0.1	1037.2
23874	0.36957	5.7273	0.1	305.14
23875	0.46196	5.6364	0.1	534.55
23876	0.46196	5.8182	0.1	41.294
23877	0.36957	5.9091	0.1	23.617
23878	0.55435	0.27273	0.1	168.52
23879	0.64674	0.18182	0.1	9.7923
23880	0.55435	9.0909e-002	0.1	-9.0903
23881	0.55435	0.45455	0.1	635.
23882	0.64674	0.36364	0.1	374.21
23883	0.55435	0.63636	0.1	1040.5
23884	0.64674	0.54545	0.1	781.5
23885	0.55435	0.81818	0.1	1357.4
23886	0.64674	0.72727	0.1	1127.7
23887	0.55435	1.	0.1	1591.7
23888	0.64674	0.90909	0.1	1399.1
23889	0.55435	1.1818	0.1	1763.2
23890	0.64674	1.0909	0.1	1604.9
23891	0.55435	1.3636	0.1	1890.
23892	0.64674	1.2727	0.1	1759.9
23893	0.55435	1.5455	0.1	1985.
23894	0.64674	1.4545	0.1	1877.2
23895	0.55435	1.7273	0.1	2057.1
23896	0.64674	1.6364	0.1	1966.7
23897	0.55435	1.9091	0.1	2112.2
23898	0.64674	1.8182	0.1	2035.3
23899	0.55435	2.0909	0.1	2154.2
23900	0.64674	2.	0.1	2087.9
23901	0.55435	2.2727	0.1	2185.8
23902	0.64674	2.1818	0.1	2127.9
23903	0.55435	2.4545	0.1	2208.8
23904	0.64674	2.3636	0.1	2157.6
23905	0.55435	2.6364	0.1	2224.5
23906	0.64674	2.5455	0.1	2178.7
23907	0.55435	2.8182	0.1	2233.6
23908	0.64674	2.7273	0.1	2192.2
23909	0.55435	3.	0.1	2236.6
23910	0.64674	2.9091	0.1	2198.8
23911	0.55435	3.1818	0.1	2233.6
23912	0.64674	3.0909	0.1	2198.8
23913	0.55435	3.3636	0.1	2224.5
23914	0.64674	3.2727	0.1	2192.2
23915	0.55435	3.5455	0.1	2208.8
23916	0.64674	3.4545	0.1	2178.7
23917	0.55435	3.7273	0.1	2185.8
23918	0.64674	3.6364	0.1	2157.6
23919	0.55435	3.9091	0.1	2154.2
23920	0.64674	3.8182	0.1	2127.9
23921	0.55435	4.0909	0.1	2112.2
23922	0.64674	4.	0.1	2087.9
23923	0.55435	4.2727	0.1	2057.1
23924	0.64674	4.1818	0.1	2035.3
23925	0.55435	4.4545	0.1	1985.
23926	0.64674	4.3636	0.1	1966.7
23927	0.55435	4.6364	0.1	1890.
23928	0.64674	4.5455	0.1	1877.2
23929	0.55435	4.8182	0.1	1763.2
23930	0.64674	4.7273	0.1	1759.9
23931	0.55435	5.	0.1	1591.7
23932	0.64674	4.9091	0.1	1604.9
23933	0.55435	5.1818	0.1	1357.4
23934	0.64674	5.0909	0.1	1399.1
23935	0.55435	5.3636	0.1	1040.5
23936	0.64674	5.2727	0.1	1127.7
23937	0.55435	5.5455	0.1	635.
23938	0.64674	5.4545	0.1	781.5
23939	0.55435	5.7273	0.1	168.52
23940	0.64674	5.6364	0.1	374.21
23941	0.64674	5.8182	0.1	9.7923
23942	0.55435	5.9091	0.1	-9.0903
23943	0.73913	0.27273	0.1	145.52
23944	0.83152	0.18182	0.1	16.394
23945	0.73913	9.0909e-002	0.1	1.4116
23946	0.73913	0.45455	0.1	520.97
23947	0.83152	0.36364	0.1	310.55
23948	0.73913	0.63636	0.1	870.35
23949	0.83152	0.54545	0.1	646.25
23950	0.73913	0.81818	0.1	1170.9
23951	0.83152	0.72727	0.1	954.36
23952	0.73913	1.	0.1	1413.2
23953	0.83152	0.90909	0.1	1216.2
23954	0.73913	1.1818	0.1	1601.9
23955	0.83152	1.0909	0.1	1428.4
23956	0.73913	1.3636	0.1	1747.2
23957	0.83152	1.2727	0.1	1596.3
23958	0.73913	1.5455	0.1	1858.8
23959	0.83152	1.4545	0.1	1727.7
23960	0.73913	1.7273	0.1	1944.7
23961	0.83152	1.6364	0.1	1830.1
23962	0.73913	1.9091	0.1	2010.9
23963	0.83152	1.8182	0.1	1909.7
23964	0.73913	2.0909	0.1	2061.5
23965	0.83152	2.	0.1	1971.4
23966	0.73913	2.2727	0.1	2099.7
23967	0.83152	2.1818	0.1	2018.5
23968	0.73913	2.4545	0.1	2127.5
23969	0.83152	2.3636	0.1	2053.6
23970	0.73913	2.6364	0.1	2146.4
23971	0.83152	2.5455	0.1	2078.6
23972	0.73913	2.8182	0.1	2157.5
23973	0.83152	2.7273	0.1	2094.6
23974	0.73913	3.	0.1	2161.1
23975	0.83152	2.9091	0.1	2102.4
23976	0.73913	3.1818	0.1	2157.5
23977	0.83152	3.0909	0.1	2102.4
23978	0.73913	3.3636	0.1	2146.4
23979	0.83152	3.2727	0.1	2094.6
23980	0.73913	3.5455	0.1	2127.5
23981	0.83152	3.4545	0.1	2078.6
23982	0.73913	3.7273	0.1	2099.7
23983	0.83152	3.6364	0.1	2053.6
23984	0.73913	3.9091	0.1	2061.5
23985	0.83152	3.8182	0.1	2018.5
23986	0.73913	4.0909	0.1	2010.9
23987	0.83152	4.	0.1	1971.4
23988	0.73913	4.2727	0.1	1944.7
23989	0.83152	4.1818	0.1	1909.7
23990	0.73913	4.4545	0.1	1858.8
23991	0.83152	4.3636	0.1	1830.1
23992	0.73913	4.6364	0.1	1747.2
23993	0.83152	4.5455	0.1	1727.7
23994	0.73913	4.8182	0.1	1601.9
23995	0.83152	4.7273	0.1	1596.3
23996	0.73913	5.	0.1	1413.2
23997	0.83152	4.9091	0.1	1428.4
23998	0.73913	5.1818	0.1	1170.9
23999	0.83152	5.0909	0.1	1216.2
24000	0.73913	5.3636	0.1	870.35
24001	0.83152	5.2727	0.1	954.36
24002	0.73913	5.5455	0.1	520.97
24003	0.83152	5.4545	0.1	646.25
24004	0.73913	5.7273	0.1	145.52
24005	0.83152	5.6364	0.1	310.55
24006	0.83152	5.8182	0.1	16.394
24007	0.73913	5.9091	0.1	1.4116
24008	0.92391	0.27273	0.1	127.53
24009	1.0163	0.18182	0.1	15.964
24010	0.92391	9.0909e-002	0.1	-1.0331
24011	0.92391	0.45455	0.1	435.15
24012	1.0163	0.36364	0.1	268.91
24013	0.92391	0.63636	0.1	730.77
24014	1.0163	0.54545	0.1	549.38
24015	0.92391	0.81818	0.1	1000.7
24016	1.0163	0.72727	0.1	817.73
24017	0.92391	1.	0.1	1232.5
24018	1.0163	0.90909	0.1	1058.6
24019	0.92391	1.1818	0.1	1423.6
24020	1.0163	1.0909	0.1	1264.4
24021	0.92391	1.3636	0.1	1577.3
24022	1.0163	1.2727	0.1	1434.7
24023	0.92391	1.5455	0.1	1699.2
24024	1.0163	1.4545	0.1	1572.9
24025	0.92391	1.7273	0.1	1795.3
24026	1.0163	1.6364	0.1	1683.6
24027	0.92391	1.9091	0.1	1870.4
24028	1.0163	1.8182	0.1	1771.5
24029	0.92391	2.0909	0.1	1928.5
24030	1.0163	2.	0.1	1840.4
24031	0.92391	2.2727	0.1	1972.5
24032	1.0163	2.1818	0.1	1893.6
24033	0.92391	2.4545	0.1	2004.8
24034	1.0163	2.3636	0.1	1933.6
24035	0.92391	2.6364	0.1	2026.9
24036	1.0163	2.5455	0.1	1962.1
24037	0.92391	2.8182	0.1	2039.7
24038	1.0163	2.7273	0.1	1980.5
24039	0.92391	3.	0.1	2043.9
24040	1.0163	2.9091	0.1	1989.5
24041	0.92391	3.1818	0.1	2039.7
24042	1.0163	3.0909	0.1	1989.5
24043	0.92391	3.3636	0.1	2026.9
24044	1.0163	3.2727	0.1	1980.5
24045	0.92391	3.5455	0.1	2004.8
24046	1.0163	3.4545	0.1	1962.1
24047	0.92391	3.7273	0.1	1972.5
24048	1.0163	3.6364	0.1	1933.6
24049	0.92391	3.9091	0.1	1928.5
24050	1.0163	3.8182	0.1	1893.6
24051	0.92391	4.0909	0.1	1870.4
24052	1.0163	4.	0.1	1840.4
24053	0.92391	4.2727	0.1	1795.3
24054	1.0163	4.1818	0.1	1771.5
24055	0.92391	4.4545	0.1	1699.2
24056	1.0163	4.3636	0.1	1683.6
24057	0.92391	4.6364	0.1	1577.3
24058	1.0163	4.5455	0.1	1572.9
24059	0.92391	4.8182	0.1	1423.6
24060	1.0163	4.7273	0.1	1434.7
24061	0.92391	5.	0.1	1232.5
24062	1.0163	4.9091	0.1	1264.4
24063	0.92391	5.1818	0.1	1000.7
24064	1.0163	5.0909	0.1	1058.6
24065	0.92391	5.3636	0.1	730.77
24066	1.0163	5.2727	0.1	817.73
24067	0.92391	5.5455	0.1	435.15
24068	1.0163	5.4545	0.1	549.38
24069	0.92391	5.7273	0.1	127.53
24070	1.0163	5.6364	0.1	268.91
24071	1.0163	5.8182	0.1	15.964
24072	0.92391	5.9091	0.1	-1.0331
24073	1.1087	0.27273	0.1	121.5
24074	1.2011	0.18182	0.1	19.127
24075	1.1087	9.0909e-002	0.1	-3.3312e-004
24076	1.1087	0.45455	0.1	382.34
24077	1.2011	0.36364	0.1	243.36
24078	1.1087	0.63636	0.1	636.31
24079	1.2011	0.54545	0.1	483.27
24080	1.1087	0.81818	0.1	876.09
24081	1.2011	0.72727	0.1	717.64
24082	1.1087	1.	0.1	1091.1
24083	1.2011	0.90909	0.1	935.36
24084	1.1087	1.1818	0.1	1276.2
24085	1.2011	1.0909	0.1	1128.7
24086	1.1087	1.3636	0.1	1430.9
24087	1.2011	1.2727	0.1	1294.8
24088	1.1087	1.5455	0.1	1557.7
24089	1.2011	1.4545	0.1	1434.
24090	1.1087	1.7273	0.1	1660.1
24091	1.2011	1.6364	0.1	1548.5
24092	1.1087	1.9091	0.1	1741.7
24093	1.2011	1.8182	0.1	1641.4
24094	1.1087	2.0909	0.1	1805.7
24095	1.2011	2.	0.1	1715.5
24096	1.1087	2.2727	0.1	1854.8
24097	1.2011	2.1818	0.1	1773.4
24098	1.1087	2.4545	0.1	1891.
24099	1.2011	2.3636	0.1	1817.3
24100	1.1087	2.6364	0.1	1915.9
24101	1.2011	2.5455	0.1	1848.8
24102	1.1087	2.8182	0.1	1930.4
24103	1.2011	2.7273	0.1	1869.2
24104	1.1087	3.	0.1	1935.1
24105	1.2011	2.9091	0.1	1879.2
24106	1.1087	3.1818	0.1	1930.4
24107	1.2011	3.0909	0.1	1879.2
24108	1.1087	3.3636	0.1	1915.9
24109	1.2011	3.2727	0.1	1869.2
24110	1.1087	3.5455	0.1	1891.
24111	1.2011	3.4545	0.1	1848.8
24112	1.1087	3.7273	0.1	1854.8
24113	1.2011	3.6364	0.1	1817.3
24114	1.1087	3.9091	0.1	1805.7
24115	1.2011	3.8182	0.1	1773.4
24116	1.1087	4.0909	0.1	1741.7
24117	1.2011	4.	0.1	1715.5
24118	1.1087	4.2727	0.1	1660.1
24119	1.2011	4.1818	0.1	1641.4
24120	1.1087	4.4545	0.1	1557.7
24121	1.2011	4.3636	0.1	1548.5
24122	1.1087	4.6364	0.1	1430.9
24123	1.2011	4.5455	0.1	1434.
24124	1.1087	4.8182	0.1	1276.2
24125	1.2011	4.7273	0.1	1294.8
24126	1.1087	5.	0.1	1091.1
24127	1.2011	4.9091	0.1	1128.7
24128	1.1087	5.1818	0.1	876.09
24129	1.2011	5.0909	0.1	935.36
24130	1.1087	5.3636	0.1	636.31
24131	1.2011	5.2727	0.1	717.64
24132	1.1087	5.5455	0.1	382.34
24133	1.2011	5.4545	0.1	483.27
24134	1.1087	5.7273	0.1	121.5
24135	1.2011	5.6364	0.1	243.36
24136	1.2011	5.8182	0.1	19.127
24137	1.1087	5.9091	0.1	-3.3109e-004
24138	1.2935	0.27273	0.1	117.99
24139	1.3859	0.18182	0.1	23.241
24140	1.2935	9.0909e-002	0.1	0.17822
24141	1.2935	0.45455	0.1	343.54
24142	1.3859	0.36364	0.1	224.89
24143	1.2935	0.63636	0.1	564.36
24144	1.3859	0.54545	0.1	433.66
24145	1.2935	0.81818	0.1	777.02
24146	1.3859	0.72727	0.1	639.79
24147	1.2935	1.	0.1	973.32
24148	1.3859	0.90909	0.1	835.46
24149	1.2935	1.1818	0.1	1147.8
24150	1.3859	1.0909	0.1	1014.
24151	1.2935	1.3636	0.1	1298.3
24152	1.3859	1.2727	0.1	1171.9
24153	1.2935	1.5455	0.1	1425.2
24154	1.3859	1.4545	0.1	1307.8
24155	1.2935	1.7273	0.1	1530.2
24156	1.3859	1.6364	0.1	1422.4
24157	1.2935	1.9091	0.1	1615.5
24158	1.3859	1.8182	0.1	1517.2
24159	1.2935	2.0909	0.1	1683.4
24160	1.3859	2.	0.1	1594.2
24161	1.2935	2.2727	0.1	1736.1
24162	1.3859	2.1818	0.1	1655.1
24163	1.2935	2.4545	0.1	1775.3
24164	1.3859	2.3636	0.1	1701.8
24165	1.2935	2.6364	0.1	1802.4
24166	1.3859	2.5455	0.1	1735.6
24167	1.2935	2.8182	0.1	1818.3
24168	1.3859	2.7273	0.1	1757.5
24169	1.2935	3.	0.1	1823.5
24170	1.3859	2.9091	0.1	1768.3
24171	1.2935	3.1818	0.1	1818.3
24172	1.3859	3.0909	0.1	1768.3
24173	1.2935	3.3636	0.1	1802.4
24174	1.3859	3.2727	0.1	1757.5
24175	1.2935	3.5455	0.1	1775.3
24176	1.3859	3.4545	0.1	1735.6
24177	1.2935	3.7273	0.1	1736.1
24178	1.3859	3.6364	0.1	1701.8
24179	1.2935	3.9091	0.1	1683.4
24180	1.3859	3.8182	0.1	1655.1
24181	1.2935	4.0909	0.1	1615.5
24182	1.3859	4.	0.1	1594.2
24183	1.2935	4.2727	0.1	1530.2
24184	1.3859	4.1818	0.1	1517.2
24185	1.2935	4.4545	0.1	1425.2
24186	1.3859	4.3636	0.1	1422.4
24187	1.2935	4.6364	0.1	1298.3
24188	1.3859	4.5455	0.1	1307.8
24189	1.2935	4.8182	0.1	1147.8
24190	1.3859	4.7273	0.1	1171.9
24191	1.2935	5.	0.1	973.32
24192	1.3859	4.9091	0.1	1014.
24193	1.2935	5.1818	0.1	777.02
24194	1.3859	5.0909	0.1	835.46
24195	1.2935	5.3636	0.1	564.36
24196	1.3859	5.2727	0.1	639.79
24197	1.2935	5.5455	0.1	343.54
24198	1.3859	5.4545	0.1	433.66
24199	1.2935	5.7273	0.1	117.99
24200	1.3859	5.6364	0.1	224.89
24201	1.3859	5.8182	0.1	23.241
24202	1.2935	5.9091	0.1	0.17822
24203	1.4783	0.27273	0.1	116.12
24204	1.5707	0.18182	0.1	28.494
24205	1.4783	9.0909e-002	0.1	1.0034
24206	1.4783	0.45455	0.1	314.35
24207	1.5707	0.36364	0.1	210.77
24208	1.4783	0.63636	0.1	508.76
24209	1.5707	0.54545	0.1	395.
24210	1.4783	0.81818	0.1	698.15
24211	1.5707	0.72727	0.1	577.83
24212	1.4783	1.	0.1	876.33
24213	1.5707	0.90909	0.1	753.74
24214	1.4783	1.1818	0.1	1038.4
24215	1.5707	1.0909	0.1	917.36
24216	1.4783	1.3636	0.1	1181.7
24217	1.5707	1.2727	0.1	1065.1
24218	1.4783	1.5455	0.1	1305.4
24219	1.5707	1.4545	0.1	1195.1
24220	1.4783	1.7273	0.1	1409.9
24221	1.5707	1.6364	0.1	1307.
24222	1.4783	1.9091	0.1	1496.3
24223	1.5707	1.8182	0.1	1401.3
24224	1.4783	2.0909	0.1	1566.2
24225	1.5707	2.	0.1	1479.
24226	1.4783	2.2727	0.1	1621.1
24227	1.5707	2.1818	0.1	1541.3
24228	1.4783	2.4545	0.1	1662.3
24229	1.5707	2.3636	0.1	1589.6
24230	1.4783	2.6364	0.1	1691.
24231	1.5707	2.5455	0.1	1624.7
24232	1.4783	2.8182	0.1	1707.8
24233	1.5707	2.7273	0.1	1647.7
24234	1.4783	3.	0.1	1713.4
24235	1.5707	2.9091	0.1	1659.1
24236	1.4783	3.1818	0.1	1707.8
24237	1.5707	3.0909	0.1	1659.1
24238	1.4783	3.3636	0.1	1691.
24239	1.5707	3.2727	0.1	1647.7
24240	1.4783	3.5455	0.1	1662.3
24241	1.5707	3.4545	0.1	1624.7
24242	1.4783	3.7273	0.1	1621.1
24243	1.5707	3.6364	0.1	1589.6
24244	1.4783	3.9091	0.1	1566.2
24245	1.5707	3.8182	0.1	1541.3
24246	1.4783	4.0909	0.1	1496.3
24247	1.5707	4.	0.1	1479.
24248	1.4783	4.2727	0.1	1409.9
24249	1.5707	4.1818	0.1	1401.3
24250	1.4783	4.4545	0.1	1305.4
24251	1.5707	4.3636	0.1	1307.
24252	1.4783	4.6364	0.1	1181.7
24253	1.5707	4.5455	0.1	1195.1
24254	1.4783	4.8182	0.1	1038.4
24255	1.5707	4.7273	0.1	1065.1
24256	1.4783	5.	0.1	876.33
24257	1.5707	4.9091	0.1	917.36
24258	1.4783	5.1818	0.1	698.15
24259	1.5707	5.0909	0.1	753.74
24260	1.4783	5.3636	0.1	508.76
24261	1.5707	5.2727	0.1	577.83
24262	1.4783	5.5455	0.1	314.35
24263	1.5707	5.4545	0.1	395.
24264	1.4783	5.7273	0.1	116.12
24265	1.5707	5.6364	0.1	210.77
24266	1.5707	5.8182	0.1	28.494
24267	1.4783	5.9091	0.1	1.0034
24268	1.663	0.27273	0.1	114.62
24269	1.7554	0.18182	0.1	33.943
24270	1.663	9.0909e-002	0.1	3.4314
24271	1.663	0.45455	0.1	290.86
24272	1.7554	0.36364	0.1	199.08
24273	1.663	0.63636	0.1	463.74
24274	1.7554	0.54545	0.1	363.41
24275	1.663	0.81818	0.1	633.26
24276	1.7554	0.72727	0.1	526.8
24277	1.663	1.	0.1	794.79
24278	1.7554	0.90909	0.1	685.34
24279	1.663	1.1818	0.1	944.2
24280	1.7554	1.0909	0.1	834.74
24281	1.663	1.3636	0.1	1078.8
24282	1.7554	1.2727	0.1	971.79
24283	1.663	1.5455	0.1	1197.1
24284	1.7554	1.4545	0.1	1094.5
24285	1.663	1.7273	0.1	1298.8
24286	1.7554	1.6364	0.1	1201.8
24287	1.663	1.9091	0.1	1384.3
24288	1.7554	1.8182	0.1	1293.6
24289	1.663	2.0909	0.1	1454.4
24290	1.7554	2.	0.1	1370.4
24291	1.663	2.2727	0.1	1510.1
24292	1.7554	2.1818	0.1	1432.7
24293	1.663	2.4545	0.1	1552.3
24294	1.7554	2.3636	0.1	1481.3
24295	1.663	2.6364	0.1	1581.8
24296	1.7554	2.5455	0.1	1517.1
24297	1.663	2.8182	0.1	1599.3
24298	1.7554	2.7273	0.1	1540.5
24299	1.663	3.	0.1	1605.
24300	1.7554	2.9091	0.1	1552.2
24301	1.663	3.1818	0.1	1599.3
24302	1.7554	3.0909	0.1	1552.2
24303	1.663	3.3636	0.1	1581.8
24304	1.7554	3.2727	0.1	1540.5
24305	1.663	3.5455	0.1	1552.3
24306	1.7554	3.4545	0.1	1517.1
24307	1.663	3.7273	0.1	1510.1
24308	1.7554	3.6364	0.1	1481.3
24309	1.663	3.9091	0.1	1454.4
24310	1.7554	3.8182	0.1	1432.7
24311	1.663	4.0909	0.1	1384.3
24312	1.7554	4.	0.1	1370.4
24313	1.663	4.2727	0.1	1298.8
24314	1.7554	4.1818	0.1	1293.6
24315	1.663	4.4545	0.1	1197.1
24316	1.7554	4.3636	0.1	1201.8
24317	1.663	4.6364	0.1	1078.8
24318	1.7554	4.5455	0.1	1094.5
24319	1.663	4.8182	0.1	944.2
24320	1.7554	4.7273	0.1	971.79
24321	1.663	5.	0.1	794.79
24322	1.7554	4.9091	0.1	834.74
24323	1.663	5.1818	0.1	633.26
24324	1.7554	5.0909	0.1	685.34
24325	1.663	5.3636	0.1	463.74
24326	1.7554	5.2727	0.1	526.8
24327	1.663	5.5455	0.1	290.86
24328	1.7554	5.4545	0.1	363.41
24329	1.663	5.7273	0.1	114.62
24330	1.7554	5.6364	0.1	199.08
24331	1.7554	5.8182	0.1	33.943
24332	1.663	5.9091	0.1	3.4314
24333	1.8478	0.27273	0.1	113.07
24334	1.9402	0.18182	0.1	38.929
24335	1.8478	9.0909e-002	0.1	8.2393
24336	1.8478	0.45455	0.1	271.15
24337	1.9402	0.36364	0.1	188.88
24338	1.8478	0.63636	0.1	426.15
24339	1.9402	0.54545	0.1	336.65
24340	1.8478	0.81818	0.1	578.68
24341	1.9402	0.72727	0.1	483.64
24342	1.8478	1.	0.1	725.23
24343	1.9402	0.90909	0.1	626.97
24344	1.8478	1.1818	0.1	862.39
24345	1.9402	1.0909	0.1	763.26
24346	1.8478	1.3636	0.1	987.66
24347	1.9402	1.2727	0.1	889.73
24348	1.8478	1.5455	0.1	1099.4
24349	1.9402	1.4545	0.1	1004.4
24350	1.8478	1.7273	0.1	1196.9
24351	1.9402	1.6364	0.1	1106.1
24352	1.8478	1.9091	0.1	1280.
24353	1.9402	1.8182	0.1	1194.2
24354	1.8478	2.0909	0.1	1348.9
24355	1.9402	2.	0.1	1268.6
24356	1.8478	2.2727	0.1	1404.2
24357	1.9402	2.1818	0.1	1329.7
24358	1.8478	2.4545	0.1	1446.4
24359	1.9402	2.3636	0.1	1377.8
24360	1.8478	2.6364	0.1	1476.1
24361	1.9402	2.5455	0.1	1413.4
24362	1.8478	2.8182	0.1	1493.8
24363	1.9402	2.7273	0.1	1436.9
24364	1.8478	3.	0.1	1499.6
24365	1.9402	2.9091	0.1	1448.6
24366	1.8478	3.1818	0.1	1493.8
24367	1.9402	3.0909	0.1	1448.6
24368	1.8478	3.3636	0.1	1476.1
24369	1.9402	3.2727	0.1	1436.9
24370	1.8478	3.5455	0.1	1446.4
24371	1.9402	3.4545	0.1	1413.4
24372	1.8478	3.7273	0.1	1404.2
24373	1.9402	3.6364	0.1	1377.8
24374	1.8478	3.9091	0.1	1348.9
24375	1.9402	3.8182	0.1	1329.7
24376	1.8478	4.0909	0.1	1280.
24377	1.9402	4.	0.1	1268.6
24378	1.8478	4.2727	0.1	1196.9
24379	1.9402	4.1818	0.1	1194.2
24380	1.8478	4.4545	0.1	1099.4
24381	1.9402	4.3636	0.1	1106.1
24382	1.8478	4.6364	0.1	987.66
24383	1.9402	4.5455	0.1	1004.4
24384	1.8478	4.8182	0.1	862.39
24385	1.9402	4.7273	0.1	889.73
24386	1.8478	5.	0.1	725.23
24387	1.9402	4.9091	0.1	763.26
24388	1.8478	5.1818	0.1	578.68
24389	1.9402	5.0909	0.1	626.97
24390	1.8478	5.3636	0.1	426.15
24391	1.9402	5.2727	0.1	483.64
24392	1.8478	5.5455	0.1	271.15
24393	1.9402	5.4545	0.1	336.65
24394	1.8478	5.7273	0.1	113.07
24395	1.9402	5.6364	0.1	188.88
24396	1.9402	5.8182	0.1	38.929
24397	1.8478	5.9091	0.1	8.2393
24398	2.0326	0.27273	0.1	111.24
24399	2.125	0.18182	0.1	43.086
24400	2.0326	9.0909e-002	0.1	13.001
24401	2.0326	0.45455	0.1	253.97
24402	2.125	0.36364	0.1	179.57
24403	2.0326	0.63636	0.1	393.85
24404	2.125	0.54545	0.1	313.3
24405	2.0326	0.81818	0.1	531.72
24406	2.125	0.72727	0.1	446.23
24407	2.0326	1.	0.1	664.9
24408	2.125	0.90909	0.1	576.23
24409	2.0326	1.1818	0.1	790.59
24410	2.125	1.0909	0.1	700.59
24411	2.0326	1.3636	0.1	906.56
24412	2.125	1.2727	0.1	816.95
24413	2.0326	1.5455	0.1	1011.2
24414	2.125	1.4545	0.1	923.48
24415	2.0326	1.7273	0.1	1103.5
24416	2.125	1.6364	0.1	1018.9
24417	2.0326	1.9091	0.1	1183.1
24418	2.125	1.8182	0.1	1102.5
24419	2.0326	2.0909	0.1	1249.8
24420	2.125	2.	0.1	1173.8
24421	2.0326	2.2727	0.1	1303.7
24422	2.125	2.1818	0.1	1232.8
24423	2.0326	2.4545	0.1	1345.2
24424	2.125	2.3636	0.1	1279.6
24425	2.0326	2.6364	0.1	1374.6
24426	2.125	2.5455	0.1	1314.4
24427	2.0326	2.8182	0.1	1392.1
24428	2.125	2.7273	0.1	1337.5
24429	2.0326	3.	0.1	1397.9
24430	2.125	2.9091	0.1	1349.
24431	2.0326	3.1818	0.1	1392.1
24432	2.125	3.0909	0.1	1349.
24433	2.0326	3.3636	0.1	1374.6
24434	2.125	3.2727	0.1	1337.5
24435	2.0326	3.5455	0.1	1345.2
24436	2.125	3.4545	0.1	1314.4
24437	2.0326	3.7273	0.1	1303.7
24438	2.125	3.6364	0.1	1279.6
24439	2.0326	3.9091	0.1	1249.8
24440	2.125	3.8182	0.1	1232.8
24441	2.0326	4.0909	0.1	1183.1
24442	2.125	4.	0.1	1173.8
24443	2.0326	4.2727	0.1	1103.5
24444	2.125	4.1818	0.1	1102.5
24445	2.0326	4.4545	0.1	1011.2
24446	2.125	4.3636	0.1	1018.9
24447	2.0326	4.6364	0.1	906.56
24448	2.125	4.5455	0.1	923.48
24449	2.0326	4.8182	0.1	790.59
24450	2.125	4.7273	0.1	816.95
24451	2.0326	5.	0.1	664.9
24452	2.125	4.9091	0.1	700.59
24453	2.0326	5.1818	0.1	531.72
24454	2.125	5.0909	0.1	576.23
24455	2.0326	5.3636	0.1	393.85
24456	2.125	5.2727	0.1	446.23
24457	2.0326	5.5455	0.1	253.97
24458	2.125	5.4545	0.1	313.3
24459	2.0326	5.7273	0.1	111.24
24460	2.125	5.6364	0.1	179.57
24461	2.125	5.8182	0.1	43.086
24462	2.0326	5.9091	0.1	13.001
24463	2.2174	0.27273	0.1	109.02
24464	2.3098	0.18182	0.1	46.304
24465	2.2174	9.0909e-002	0.1	16.886
24466	2.2174	0.45455	0.1	238.55
24467	2.3098	0.36364	0.1	170.83
24468	2.2174	0.63636	0.1	365.43
24469	2.3098	0.54545	0.1	292.44
24470	2.2174	0.81818	0.1	490.54
24471	2.3098	0.72727	0.1	413.17
24472	2.2174	1.	0.1	611.8
24473	2.3098	0.90909	0.1	531.42
24474	2.2174	1.1818	0.1	726.9
24475	2.3098	1.0909	0.1	644.97
24476	2.2174	1.3636	0.1	833.9
24477	2.3098	1.2727	0.1	751.85
24478	2.2174	1.5455	0.1	931.29
24479	2.3098	1.4545	0.1	850.42
24480	2.2174	1.7273	0.1	1018.
24481	2.3098	1.6364	0.1	939.41
24482	2.2174	1.9091	0.1	1093.3
24483	2.3098	1.8182	0.1	1018.
24484	2.2174	2.0909	0.1	1157.
24485	2.3098	2.	0.1	1085.5
24486	2.2174	2.2727	0.1	1208.9
24487	2.3098	2.1818	0.1	1141.8
24488	2.2174	2.4545	0.1	1249.1
24489	2.3098	2.3636	0.1	1186.8
24490	2.2174	2.6364	0.1	1277.7
24491	2.3098	2.5455	0.1	1220.4
24492	2.2174	2.8182	0.1	1294.7
24493	2.3098	2.7273	0.1	1242.7
24494	2.2174	3.	0.1	1300.4
24495	2.3098	2.9091	0.1	1253.9
24496	2.2174	3.1818	0.1	1294.7
24497	2.3098	3.0909	0.1	1253.9
24498	2.2174	3.3636	0.1	1277.7
24499	2.3098	3.2727	0.1	1242.7
24500	2.2174	3.5455	0.1	1249.1
24501	2.3098	3.4545	0.1	1220.4
24502	2.2174	3.7273	0.1	1208.9
24503	2.3098	3.6364	0.1	1186.8
24504	2.2174	3.9091	0.1	1157.
24505	2.3098	3.8182	0.1	1141.8
24506	2.2174	4.0909	0.1	1093.3
24507	2.3098	4.	0.1	1085.5
24508	2.2174	4.2727	0.1	1018.
24509	2.3098	4.1818	0.1	1018.
24510	2.2174	4.4545	0.1	931.29
24511	2.3098	4.3636	0.1	939.41
24512	2.2174	4.6364	0.1	833.9
24513	2.3098	4.5455	0.1	850.42
24514	2.2174	4.8182	0.1	726.9
24515	2.3098	4.7273	0.1	751.85
24516	2.2174	5.	0.1	611.8
24517	2.3098	4.9091	0.1	644.97
24518	2.2174	5.1818	0.1	490.54
24519	2.3098	5.0909	0.1	531.42
24520	2.2174	5.3636	0.1	365.43
24521	2.3098	5.2727	0.1	413.17
24522	2.2174	5.5455	0.1	238.55
24523	2.3098	5.4545	0.1	292.44
24524	2.2174	5.7273	0.1	109.02
24525	2.3098	5.6364	0.1	170.83
24526	2.3098	5.8182	0.1	46.304
24527	2.2174	5.9091	0.1	16.886
24528	2.4022	0.27273	0.1	106.4
24529	2.4946	0.18182	0.1	48.6
24530	2.4022	9.0909e-002	0.1	19.881
24531	2.4022	0.45455	0.1	224.41
24532	2.4946	0.36364	0.1	162.45
24533	2.4022	0.63636	0.1	339.95
24534	2.4946	0.54545	0.1	273.45
24535	2.4022	0.81818	0.1	453.85
24536	2.4946	0.72727	0.1	383.47
24537	2.4022	1.	0.1	564.45
24538	2.4946	0.90909	0.1	491.29
24539	2.4022	1.1818	0.1	669.85
24540	2.4946	1.0909	0.1	595.08
24541	2.4022	1.3636	0.1	768.36
24542	2.4946	1.2727	0.1	693.17
24543	2.4022	1.5455	0.1	858.6
24544	2.4946	1.4545	0.1	784.11
24545	2.4022	1.7273	0.1	939.5
24546	2.4946	1.6364	0.1	866.71
24547	2.4022	1.9091	0.1	1010.3
24548	2.4946	1.8182	0.1	940.07
24549	2.4022	2.0909	0.1	1070.5
24550	2.4946	2.	0.1	1003.6
24551	2.4022	2.2727	0.1	1119.9
24552	2.4946	2.1818	0.1	1056.8
24553	2.4022	2.4545	0.1	1158.3
24554	2.4946	2.3636	0.1	1099.5
24555	2.4022	2.6364	0.1	1185.7
24556	2.4946	2.5455	0.1	1131.5
24557	2.4022	2.8182	0.1	1202.2
24558	2.4946	2.7273	0.1	1152.9
24559	2.4022	3.	0.1	1207.6
24560	2.4946	2.9091	0.1	1163.6
24561	2.4022	3.1818	0.1	1202.2
24562	2.4946	3.0909	0.1	1163.6
24563	2.4022	3.3636	0.1	1185.7
24564	2.4946	3.2727	0.1	1152.9
24565	2.4022	3.5455	0.1	1158.3
24566	2.4946	3.4545	0.1	1131.5
24567	2.4022	3.7273	0.1	1119.9
24568	2.4946	3.6364	0.1	1099.5
24569	2.4022	3.9091	0.1	1070.5
24570	2.4946	3.8182	0.1	1056.8
24571	2.4022	4.0909	0.1	1010.3
24572	2.4946	4.	0.1	1003.6
24573	2.4022	4.2727	0.1	939.5
24574	2.4946	4.1818	0.1	940.07
24575	2.4022	4.4545	0.1	858.6
24576	2.4946	4.3636	0.1	866.71
24577	2.4022	4.6364	0.1	768.36
24578	2.4946	4.5455	0.1	784.11
24579	2.4022	4.8182	0.1	669.85
24580	2.4946	4.7273	0.1	693.17
24581	2.4022	5.	0.1	564.45
24582	2.4946	4.9091	0.1	595.08
24583	2.4022	5.1818	0.1	453.85
24584	2.4946	5.0909	0.1	491.29
24585	2.4022	5.3636	0.1	339.95
24586	2.4946	5.2727	0.1	383.47
24587	2.4022	5.5455	0.1	224.41
24588	2.4946	5.4545	0.1	273.45
24589	2.4022	5.7273	0.1	106.4
24590	2.4946	5.6364	0.1	162.45
24591	2.4946	5.8182	0.1	48.6
24592	2.4022	5.9091	0.1	19.881
24593	2.587	0.27273	0.1	103.39
24594	2.6793	0.18182	0.1	50.048
24595	2.587	9.0909e-002	0.1	22.089
24596	2.587	0.45455	0.1	211.23
24597	2.6793	0.36364	0.1	154.33
24598	2.587	0.63636	0.1	316.77
24599	2.6793	0.54545	0.1	255.92
24600	2.587	0.81818	0.1	420.74
24601	2.6793	0.72727	0.1	356.46
24602	2.587	1.	0.1	521.78
24603	2.6793	0.90909	0.1	454.96
24604	2.587	1.1818	0.1	618.32
24605	2.6793	1.0909	0.1	549.92
24606	2.587	1.3636	0.1	708.89
24607	2.6793	1.2727	0.1	639.91
24608	2.587	1.5455	0.1	792.24
24609	2.6793	1.4545	0.1	723.65
24610	2.587	1.7273	0.1	867.36
24611	2.6793	1.6364	0.1	800.05
24612	2.587	1.9091	0.1	933.47
24613	2.6793	1.8182	0.1	868.23
24614	2.587	2.0909	0.1	989.99
24615	2.6793	2.	0.1	927.53
24616	2.587	2.2727	0.1	1036.6
24617	2.6793	2.1818	0.1	977.44
24618	2.587	2.4545	0.1	1072.9
24619	2.6793	2.3636	0.1	1017.7
24620	2.587	2.6364	0.1	1099.
24621	2.6793	2.5455	0.1	1048.
24622	2.587	2.8182	0.1	1114.6
24623	2.6793	2.7273	0.1	1068.2
24624	2.587	3.	0.1	1119.8
24625	2.6793	2.9091	0.1	1078.3
24626	2.587	3.1818	0.1	1114.6
24627	2.6793	3.0909	0.1	1078.3
24628	2.587	3.3636	0.1	1099.
24629	2.6793	3.2727	0.1	1068.2
24630	2.587	3.5455	0.1	1072.9
24631	2.6793	3.4545	0.1	1048.
24632	2.587	3.7273	0.1	1036.6
24633	2.6793	3.6364	0.1	1017.7
24634	2.587	3.9091	0.1	989.99
24635	2.6793	3.8182	0.1	977.44
24636	2.587	4.0909	0.1	933.47
24637	2.6793	4.	0.1	927.53
24638	2.587	4.2727	0.1	867.36
24639	2.6793	4.1818	0.1	868.23
24640	2.587	4.4545	0.1	792.24
24641	2.6793	4.3636	0.1	800.05
24642	2.587	4.6364	0.1	708.89
24643	2.6793	4.5455	0.1	723.65
24644	2.587	4.8182	0.1	618.32
24645	2.6793	4.7273	0.1	639.91
24646	2.587	5.	0.1	521.78
24647	2.6793	4.9091	0.1	549.92
24648	2.587	5.1818	0.1	420.74
24649	2.6793	5.0909	0.1	454.96
24650	2.587	5.3636	0.1	316.77
24651	2.6793	5.2727	0.1	356.46
24652	2.587	5.5455	0.1	211.23
24653	2.6793	5.4545	0.1	255.92
24654	2.587	5.7273	0.1	103.39
24655	2.6793	5.6364	0.1	154.33
24656	2.6793	5.8182	0.1	50.048
24657	2.587	5.9091	0.1	22.089
24658	2.7717	0.27273	0.1	100.03
24659	2.8641	0.18182	0.1	50.746
24660	2.7717	9.0909e-002	0.1	23.623
24661	2.7717	0.45455	0.1	198.8
24662	2.8641	0.36364	0.1	146.41
24663	2.7717	0.63636	0.1	295.44
24664	2.8641	0.54545	0.1	239.59
24665	2.7717	0.81818	0.1	390.53
24666	2.8641	0.72727	0.1	331.65
24667	2.7717	1.	0.1	482.98
24668	2.8641	0.90909	0.1	421.79
24669	2.7717	1.1818	0.1	571.42
24670	2.8641	1.0909	0.1	508.74
24671	2.7717	1.3636	0.1	654.63
24672	2.8641	1.2727	0.1	591.28
24673	2.7717	1.5455	0.1	731.46
24674	2.8641	1.4545	0.1	668.29
24675	2.7717	1.7273	0.1	800.97
24676	2.8641	1.6364	0.1	738.78
24677	2.7717	1.9091	0.1	862.38
24678	2.8641	1.8182	0.1	801.91
24679	2.7717	2.0909	0.1	915.11
24680	2.8641	2.	0.1	857.01
24681	2.7717	2.2727	0.1	958.71
24682	2.8641	2.1818	0.1	903.56
24683	2.7717	2.4545	0.1	992.87
24684	2.8641	2.3636	0.1	941.17
24685	2.7717	2.6364	0.1	1017.4
24686	2.8641	2.5455	0.1	969.58
24687	2.7717	2.8182	0.1	1032.2
24688	2.8641	2.7273	0.1	988.61
24689	2.7717	3.	0.1	1037.1
24690	2.8641	2.9091	0.1	998.15
24691	2.7717	3.1818	0.1	1032.2
24692	2.8641	3.0909	0.1	998.15
24693	2.7717	3.3636	0.1	1017.4
24694	2.8641	3.2727	0.1	988.61
24695	2.7717	3.5455	0.1	992.87
24696	2.8641	3.4545	0.1	969.58
24697	2.7717	3.7273	0.1	958.71
24698	2.8641	3.6364	0.1	941.17
24699	2.7717	3.9091	0.1	915.11
24700	2.8641	3.8182	0.1	903.56
24701	2.7717	4.0909	0.1	862.38
24702	2.8641	4.	0.1	857.01
24703	2.7717	4.2727	0.1	800.97
24704	2.8641	4.1818	0.1	801.91
24705	2.7717	4.4545	0.1	731.46
24706	2.8641	4.3636	0.1	738.78
24707	2.7717	4.6364	0.1	654.63
24708	2.8641	4.5455	0.1	668.29
24709	2.7717	4.8182	0.1	571.42
24710	2.8641	4.7273	0.1	591.28
24711	2.7717	5.	0.1	482.98
24712	2.8641	4.9091	0.1	508.74
24713	2.7717	5.1818	0.1	390.53
24714	2.8641	5.0909	0.1	421.79
24715	2.7717	5.3636	0.1	295.44
24716	2.8641	5.2727	0.1	331.65
24717	2.7717	5.5455	0.1	198.8
24718	2.8641	5.4545	0.1	239.59
24719	2.7717	5.7273	0.1	100.03
24720	2.8641	5.6364	0.1	146.41
24721	2.8641	5.8182	0.1	50.746
24722	2.7717	5.9091	0.1	23.623
24723	2.9565	0.27273	0.1	96.373
24724	3.0489	0.18182	0.1	50.793
24725	2.9565	9.0909e-002	0.1	24.589
24726	2.9565	0.45455	0.1	187.
24727	3.0489	0.36364	0.1	138.65
24728	2.9565	0.63636	0.1	275.64
24729	3.0489	0.54545	0.1	224.25
24730	2.9565	0.81818	0.1	362.76
24731	3.0489	0.72727	0.1	308.69
24732	2.9565	1.	0.1	447.43
24733	3.0489	0.90909	0.1	391.28
24734	2.9565	1.1818	0.1	528.51
24735	3.0489	1.0909	0.1	470.96
24736	2.9565	1.3636	0.1	604.9
24737	3.0489	1.2727	0.1	546.68
24738	2.9565	1.5455	0.1	675.61
24739	3.0489	1.4545	0.1	617.44
24740	2.9565	1.7273	0.1	739.75
24741	3.0489	1.6364	0.1	682.35
24742	2.9565	1.9091	0.1	796.6
24743	3.0489	1.8182	0.1	740.63
24744	2.9565	2.0909	0.1	845.56
24745	3.0489	2.	0.1	791.64
24746	2.9565	2.2727	0.1	886.15
24747	3.0489	2.1818	0.1	834.84
24748	2.9565	2.4545	0.1	918.04
24749	3.0489	2.3636	0.1	869.84
24750	2.9565	2.6364	0.1	940.98
24751	3.0489	2.5455	0.1	896.32
24752	2.9565	2.8182	0.1	954.8
24753	3.0489	2.7273	0.1	914.09
24754	2.9565	3.	0.1	959.42
24755	3.0489	2.9091	0.1	923.01
24756	2.9565	3.1818	0.1	954.8
24757	3.0489	3.0909	0.1	923.01
24758	2.9565	3.3636	0.1	940.98
24759	3.0489	3.2727	0.1	914.09
24760	2.9565	3.5455	0.1	918.04
24761	3.0489	3.4545	0.1	896.32
24762	2.9565	3.7273	0.1	886.15
24763	3.0489	3.6364	0.1	869.84
24764	2.9565	3.9091	0.1	845.56
24765	3.0489	3.8182	0.1	834.84
24766	2.9565	4.0909	0.1	796.6
24767	3.0489	4.	0.1	791.64
24768	2.9565	4.2727	0.1	739.75
24769	3.0489	4.1818	0.1	740.63
24770	2.9565	4.4545	0.1	675.61
24771	3.0489	4.3636	0.1	682.35
24772	2.9565	4.6364	0.1	604.9
24773	3.0489	4.5455	0.1	617.44
24774	2.9565	4.8182	0.1	528.51
24775	3.0489	4.7273	0.1	546.68
24776	2.9565	5.	0.1	447.43
24777	3.0489	4.9091	0.1	470.96
24778	2.9565	5.1818	0.1	362.76
24779	3.0489	5.0909	0.1	391.28
24780	2.9565	5.3636	0.1	275.64
24781	3.0489	5.2727	0.1	308.69
24782	2.9565	5.5455	0.1	187.
24783	3.0489	5.4545	0.1	224.25
24784	2.9565	5.7273	0.1	96.373
24785	3.0489	5.6364	0.1	138.65
24786	3.0489	5.8182	0.1	50.793
24787	2.9565	5.9091	0.1	24.589
24788	3.1413	0.27273	0.1	92.473
24789	3.2337	0.18182	0.1	50.288
24790	3.1413	9.0909e-002	0.1	25.079
24791	3.1413	0.45455	0.1	175.74
24792	3.2337	0.36364	0.1	131.05
24793	3.1413	0.63636	0.1	257.16
24794	3.2337	0.54545	0.1	209.79
24795	3.1413	0.81818	0.1	337.08
24796	3.2337	0.72727	0.1	287.33
24797	3.1413	1.	0.1	414.71
24798	3.2337	0.90909	0.1	363.09
24799	3.1413	1.1818	0.1	489.05
24800	3.2337	1.0909	0.1	436.15
24801	3.1413	1.3636	0.1	559.16
24802	3.2337	1.2727	0.1	505.61
24803	3.1413	1.5455	0.1	624.16
24804	3.2337	1.4545	0.1	570.58
24805	3.1413	1.7273	0.1	683.24
24806	3.2337	1.6364	0.1	630.28
24807	3.1413	1.9091	0.1	735.71
24808	3.2337	1.8182	0.1	683.97
24809	3.1413	2.0909	0.1	781.
24810	3.2337	2.	0.1	731.05
24811	3.1413	2.2727	0.1	818.64
24812	3.2337	2.1818	0.1	771.01
24813	3.1413	2.4545	0.1	848.25
24814	3.2337	2.3636	0.1	803.43
24815	3.1413	2.6364	0.1	869.59
24816	3.2337	2.5455	0.1	828.01
24817	3.1413	2.8182	0.1	882.46
24818	3.2337	2.7273	0.1	844.51
24819	3.1413	3.	0.1	886.76
24820	3.2337	2.9091	0.1	852.8
24821	3.1413	3.1818	0.1	882.46
24822	3.2337	3.0909	0.1	852.8
24823	3.1413	3.3636	0.1	869.59
24824	3.2337	3.2727	0.1	844.51
24825	3.1413	3.5455	0.1	848.25
24826	3.2337	3.4545	0.1	828.01
24827	3.1413	3.7273	0.1	818.64
24828	3.2337	3.6364	0.1	803.43
24829	3.1413	3.9091	0.1	781.
24830	3.2337	3.8182	0.1	771.01
24831	3.1413	4.0909	0.1	735.71
24832	3.2337	4.	0.1	731.05
24833	3.1413	4.2727	0.1	683.24
24834	3.2337	4.1818	0.1	683.97
24835	3.1413	4.4545	0.1	624.16
24836	3.2337	4.3636	0.1	630.28
24837	3.1413	4.6364	0.1	559.16
24838	3.2337	4.5455	0.1	570.58
24839	3.1413	4.8182	0.1	489.05
24840	3.2337	4.7273	0.1	505.61
24841	3.1413	5.	0.1	414.71
24842	3.2337	4.9091	0.1	436.15
24843	3.1413	5.1818	0.1	337.08
24844	3.2337	5.0909	0.1	363.09
24845	3.1413	5.3636	0.1	257.16
24846	3.2337	5.2727	0.1	287.33
24847	3.1413	5.5455	0.1	175.74
24848	3.2337	5.4545	0.1	209.79
24849	3.1413	5.7273	0.1	92.473
24850	3.2337	5.6364	0.1	131.05
24851	3.2337	5.8182	0.1	50.288
24852	3.1413	5.9091	0.1	25.079
24853	3.3261	0.27273	0.1	88.386
24854	3.4185	0.18182	0.1	49.322
24855	3.3261	9.0909e-002	0.1	25.172
24856	3.3261	0.45455	0.1	164.96
24857	3.4185	0.36364	0.1	123.62
24858	3.3261	0.63636	0.1	239.83
24859	3.4185	0.54545	0.1	196.11
24860	3.3261	0.81818	0.1	313.22
24861	3.4185	0.72727	0.1	267.38
24862	3.3261	1.	0.1	384.44
24863	3.4185	0.90909	0.1	336.93
24864	3.3261	1.1818	0.1	452.63
24865	3.4185	1.0909	0.1	403.96
24866	3.3261	1.3636	0.1	516.98
24867	3.4185	1.2727	0.1	467.68
24868	3.3261	1.5455	0.1	576.68
24869	3.4185	1.4545	0.1	527.32
24870	3.3261	1.7273	0.1	631.01
24871	3.4185	1.6364	0.1	582.16
24872	3.3261	1.9091	0.1	679.34
24873	3.4185	1.8182	0.1	631.55
24874	3.3261	2.0909	0.1	721.12
24875	3.4185	2.	0.1	674.91
24876	3.3261	2.2727	0.1	755.89
24877	3.4185	2.1818	0.1	711.76
24878	3.3261	2.4545	0.1	783.29
24879	3.4185	2.3636	0.1	741.7
24880	3.3261	2.6364	0.1	803.06
24881	3.4185	2.5455	0.1	764.42
24882	3.3261	2.8182	0.1	814.99
24883	3.4185	2.7273	0.1	779.7
24884	3.3261	3.	0.1	818.98
24885	3.4185	2.9091	0.1	787.37
24886	3.3261	3.1818	0.1	814.99
24887	3.4185	3.0909	0.1	787.37
24888	3.3261	3.3636	0.1	803.06
24889	3.4185	3.2727	0.1	779.7
24890	3.3261	3.5455	0.1	783.29
24891	3.4185	3.4545	0.1	764.42
24892	3.3261	3.7273	0.1	755.89
24893	3.4185	3.6364	0.1	741.7
24894	3.3261	3.9091	0.1	721.12
24895	3.4185	3.8182	0.1	711.76
24896	3.3261	4.0909	0.1	679.34
24897	3.4185	4.	0.1	674.91
24898	3.3261	4.2727	0.1	631.01
24899	3.4185	4.1818	0.1	631.55
24900	3.3261	4.4545	0.1	576.68
24901	3.4185	4.3636	0.1	582.16
24902	3.3261	4.6364	0.1	516.98
24903	3.4185	4.5455	0.1	527.32
24904	3.3261	4.8182	0.1	452.63
24905	3.4185	4.7273	0.1	467.68
24906	3.3261	5.	0.1	384.44
24907	3.4185	4.9091	0.1	403.96
24908	3.3261	5.1818	0.1	313.22
24909	3.4185	5.0909	0.1	336.93
24910	3.3261	5.3636	0.1	239.83
24911	3.4185	5.2727	0.1	267.38
24912	3.3261	5.5455	0.1	164.96
24913	3.4185	5.4545	0.1	196.11
24914	3.3261	5.7273	0.1	88.386
24915	3.4185	5.6364	0.1	123.62
24916	3.4185	5.8182	0.1	49.322
24917	3.3261	5.9091	0.1	25.172
24918	3.5109	0.27273	0.1	84.165
24919	3.6033	0.18182	0.1	47.978
24920	3.5109	9.0909e-002	0.1	24.939
24921	3.5109	0.45455	0.1	154.65
24922	3.6033	0.36364	0.1	116.37
24923	3.5109	0.63636	0.1	223.55
24924	3.6033	0.54545	0.1	183.15
24925	3.5109	0.81818	0.1	290.98
24926	3.6033	0.72727	0.1	248.7
24927	3.5109	1.	0.1	356.36
24928	3.6033	0.90909	0.1	312.59
24929	3.5109	1.1818	0.1	418.94
24930	3.6033	1.0909	0.1	374.12
24931	3.5109	1.3636	0.1	477.98
24932	3.6033	1.2727	0.1	432.59
24933	3.5109	1.5455	0.1	532.78
24934	3.6033	1.4545	0.1	487.32
24935	3.5109	1.7273	0.1	582.7
24936	3.6033	1.6364	0.1	537.66
24937	3.5109	1.9091	0.1	627.14
24938	3.6033	1.8182	0.1	583.03
24939	3.5109	2.0909	0.1	665.6
24940	3.6033	2.	0.1	622.9
24941	3.5109	2.2727	0.1	697.65
24942	3.6033	2.1818	0.1	656.82
24943	3.5109	2.4545	0.1	722.92
24944	3.6033	2.3636	0.1	684.4
24945	3.5109	2.6364	0.1	741.17
24946	3.6033	2.5455	0.1	705.34
24947	3.5109	2.8182	0.1	752.19
24948	3.6033	2.7273	0.1	719.43
24949	3.5109	3.	0.1	755.88
24950	3.6033	2.9091	0.1	726.51
24951	3.5109	3.1818	0.1	752.19
24952	3.6033	3.0909	0.1	726.51
24953	3.5109	3.3636	0.1	741.17
24954	3.6033	3.2727	0.1	719.43
24955	3.5109	3.5455	0.1	722.92
24956	3.6033	3.4545	0.1	705.34
24957	3.5109	3.7273	0.1	697.65
24958	3.6033	3.6364	0.1	684.4
24959	3.5109	3.9091	0.1	665.6
24960	3.6033	3.8182	0.1	656.82
24961	3.5109	4.0909	0.1	627.14
24962	3.6033	4.	0.1	622.9
24963	3.5109	4.2727	0.1	582.7
24964	3.6033	4.1818	0.1	583.03
24965	3.5109	4.4545	0.1	532.78
24966	3.6033	4.3636	0.1	537.66
24967	3.5109	4.6364	0.1	477.98
24968	3.6033	4.5455	0.1	487.32
24969	3.5109	4.8182	0.1	418.94
24970	3.6033	4.7273	0.1	432.59
24971	3.5109	5.	0.1	356.36
24972	3.6033	4.9091	0.1	374.12
24973	3.5109	5.1818	0.1	290.98
24974	3.6033	5.0909	0.1	312.59
24975	3.5109	5.3636	0.1	223.55
24976	3.6033	5.2727	0.1	248.7
24977	3.5109	5.5455	0.1	154.65
24978	3.6033	5.4545	0.1	183.15
24979	3.5109	5.7273	0.1	84.165
24980	3.6033	5.6364	0.1	116.37
24981	3.6033	5.8182	0.1	47.978
24982	3.5109	5.9091	0.1	24.939
24983	3.6957	0.27273	0.1	79.86
24984	3.788	0.18182	0.1	46.33
24985	3.6957	9.0909e-002	0.1	24.441
24986	3.6957	0.45455	0.1	144.77
24987	3.788	0.36364	0.1	109.32
24988	3.6957	0.63636	0.1	208.21
24989	3.788	0.54545	0.1	170.86
24990	3.6957	0.81818	0.1	270.22
24991	3.788	0.72727	0.1	231.18
24992	3.6957	1.	0.1	330.26
24993	3.788	0.90909	0.1	289.9
24994	3.6957	1.1818	0.1	387.7
24995	3.788	1.0909	0.1	346.4
24996	3.6957	1.3636	0.1	441.87
24997	3.788	1.2727	0.1	400.05
24998	3.6957	1.5455	0.1	492.17
24999	3.788	1.4545	0.1	450.27
25000	3.6957	1.7273	0.1	537.99
25001	3.788	1.6364	0.1	496.47
25002	3.6957	1.9091	0.1	578.81
25003	3.788	1.8182	0.1	538.12
25004	3.6957	2.0909	0.1	614.16
25005	3.788	2.	0.1	574.73
25006	3.6957	2.2727	0.1	643.63
25007	3.788	2.1818	0.1	605.9
25008	3.6957	2.4545	0.1	666.89
25009	3.788	2.3636	0.1	631.25
25010	3.6957	2.6364	0.1	683.69
25011	3.788	2.5455	0.1	650.52
25012	3.6957	2.8182	0.1	693.84
25013	3.788	2.7273	0.1	663.48
25014	3.6957	3.	0.1	697.24
25015	3.788	2.9091	0.1	670.
25016	3.6957	3.1818	0.1	693.84
25017	3.788	3.0909	0.1	670.
25018	3.6957	3.3636	0.1	683.69
25019	3.788	3.2727	0.1	663.48
25020	3.6957	3.5455	0.1	666.89
25021	3.788	3.4545	0.1	650.52
25022	3.6957	3.7273	0.1	643.63
25023	3.788	3.6364	0.1	631.25
25024	3.6957	3.9091	0.1	614.16
25025	3.788	3.8182	0.1	605.9
25026	3.6957	4.0909	0.1	578.81
25027	3.788	4.	0.1	574.73
25028	3.6957	4.2727	0.1	537.99
25029	3.788	4.1818	0.1	538.12
25030	3.6957	4.4545	0.1	492.17
25031	3.788	4.3636	0.1	496.47
25032	3.6957	4.6364	0.1	441.87
25033	3.788	4.5455	0.1	450.27
25034	3.6957	4.8182	0.1	387.7
25035	3.788	4.7273	0.1	400.05
25036	3.6957	5.	0.1	330.26
25037	3.788	4.9091	0.1	346.4
25038	3.6957	5.1818	0.1	270.22
25039	3.788	5.0909	0.1	289.9
25040	3.6957	5.3636	0.1	208.21
25041	3.788	5.2727	0.1	231.18
25042	3.6957	5.5455	0.1	144.77
25043	3.788	5.4545	0.1	170.86
25044	3.6957	5.7273	0.1	79.86
25045	3.788	5.6364	0.1	109.32
25046	3.788	5.8182	0.1	46.33
25047	3.6957	5.9091	0.1	24.441
25048	3.8804	0.27273	0.1	75.517
25049	3.9728	0.18182	0.1	44.445
25050	3.8804	9.0909e-002	0.1	23.728
25051	3.8804	0.45455	0.1	135.32
25052	3.9728	0.36364	0.1	102.48
25053	3.8804	0.63636	0.1	193.76
25054	3.9728	0.54545	0.1	159.21
25055	3.8804	0.81818	0.1	250.79
25056	3.9728	0.72727	0.1	214.74
25057	3.8804	1.	0.1	305.96
25058	3.9728	0.90909	0.1	268.73
25059	3.8804	1.1818	0.1	358.69
25060	3.9728	1.0909	0.1	320.62
25061	3.8804	1.3636	0.1	408.41
25062	3.9728	1.2727	0.1	369.87
25063	3.8804	1.5455	0.1	454.55
25064	3.9728	1.4545	0.1	415.94
25065	3.8804	1.7273	0.1	496.59
25066	3.9728	1.6364	0.1	458.32
25067	3.8804	1.9091	0.1	534.05
25068	3.9728	1.8182	0.1	496.53
25069	3.8804	2.0909	0.1	566.5
25070	3.9728	2.	0.1	530.12
25071	3.8804	2.2727	0.1	593.57
25072	3.9728	2.1818	0.1	558.73
25073	3.8804	2.4545	0.1	614.94
25074	3.9728	2.3636	0.1	582.01
25075	3.8804	2.6364	0.1	630.38
25076	3.9728	2.5455	0.1	599.7
25077	3.8804	2.8182	0.1	639.71
25078	3.9728	2.7273	0.1	611.61
25079	3.8804	3.	0.1	642.83
25080	3.9728	2.9091	0.1	617.59
25081	3.8804	3.1818	0.1	639.71
25082	3.9728	3.0909	0.1	617.59
25083	3.8804	3.3636	0.1	630.38
25084	3.9728	3.2727	0.1	611.61
25085	3.8804	3.5455	0.1	614.94
25086	3.9728	3.4545	0.1	599.7
25087	3.8804	3.7273	0.1	593.57
25088	3.9728	3.6364	0.1	582.01
25089	3.8804	3.9091	0.1	566.5
25090	3.9728	3.8182	0.1	558.73
25091	3.8804	4.0909	0.1	534.05
25092	3.9728	4.	0.1	530.12
25093	3.8804	4.2727	0.1	496.59
25094	3.9728	4.1818	0.1	496.53
25095	3.8804	4.4545	0.1	454.55
25096	3.9728	4.3636	0.1	458.32
25097	3.8804	4.6364	0.1	408.41
25098	3.9728	4.5455	0.1	415.94
25099	3.8804	4.8182	0.1	358.69
25100	3.9728	4.7273	0.1	369.87
25101	3.8804	5.	0.1	305.96
25102	3.9728	4.9091	0.1	320.62
25103	3.8804	5.1818	0.1	250.79
25104	3.9728	5.0909	0.1	268.73
25105	3.8804	5.3636	0.1	193.76
25106	3.9728	5.2727	0.1	214.74
25107	3.8804	5.5455	0.1	135.32
25108	3.9728	5.4545	0.1	159.21
25109	3.8804	5.7273	0.1	75.517
25110	3.9728	5.6364	0.1	102.48
25111	3.9728	5.8182	0.1	44.445
25112	3.8804	5.9091	0.1	23.728
25113	4.0652	0.27273	0.1	71.176
25114	4.1576	0.18182	0.1	42.379
25115	4.0652	9.0909e-002	0.1	22.847
25116	4.0652	0.45455	0.1	126.29
25117	4.1576	0.36364	0.1	95.862
25118	4.0652	0.63636	0.1	180.13
25119	4.1576	0.54545	0.1	148.18
25120	4.0652	0.81818	0.1	232.61
25121	4.1576	0.72727	0.1	199.31
25122	4.0652	1.	0.1	283.32
25123	4.1576	0.90909	0.1	248.95
25124	4.0652	1.1818	0.1	331.74
25125	4.1576	1.0909	0.1	296.63
25126	4.0652	1.3636	0.1	377.36
25127	4.1576	1.2727	0.1	341.84
25128	4.0652	1.5455	0.1	419.69
25129	4.1576	1.4545	0.1	384.11
25130	4.0652	1.7273	0.1	458.25
25131	4.1576	1.6364	0.1	422.98
25132	4.0652	1.9091	0.1	492.6
25133	4.1576	1.8182	0.1	458.01
25134	4.0652	2.0909	0.1	522.37
25135	4.1576	2.	0.1	488.82
25136	4.0652	2.2727	0.1	547.2
25137	4.1576	2.1818	0.1	515.05
25138	4.0652	2.4545	0.1	566.81
25139	4.1576	2.3636	0.1	536.4
25140	4.0652	2.6364	0.1	580.98
25141	4.1576	2.5455	0.1	552.63
25142	4.0652	2.8182	0.1	589.55
25143	4.1576	2.7273	0.1	563.56
25144	4.0652	3.	0.1	592.42
25145	4.1576	2.9091	0.1	569.05
25146	4.0652	3.1818	0.1	589.55
25147	4.1576	3.0909	0.1	569.05
25148	4.0652	3.3636	0.1	580.98
25149	4.1576	3.2727	0.1	563.56
25150	4.0652	3.5455	0.1	566.81
25151	4.1576	3.4545	0.1	552.63
25152	4.0652	3.7273	0.1	547.2
25153	4.1576	3.6364	0.1	536.4
25154	4.0652	3.9091	0.1	522.37
25155	4.1576	3.8182	0.1	515.05
25156	4.0652	4.0909	0.1	492.6
25157	4.1576	4.	0.1	488.82
25158	4.0652	4.2727	0.1	458.25
25159	4.1576	4.1818	0.1	458.01
25160	4.0652	4.4545	0.1	419.69
25161	4.1576	4.3636	0.1	422.98
25162	4.0652	4.6364	0.1	377.36
25163	4.1576	4.5455	0.1	384.11
25164	4.0652	4.8182	0.1	331.74
25165	4.1576	4.7273	0.1	341.84
25166	4.0652	5.	0.1	283.32
25167	4.1576	4.9091	0.1	296.63
25168	4.0652	5.1818	0.1	232.61
25169	4.1576	5.0909	0.1	248.95
25170	4.0652	5.3636	0.1	180.13
25171	4.1576	5.2727	0.1	199.31
25172	4.0652	5.5455	0.1	126.29
25173	4.1576	5.4545	0.1	148.18
25174	4.0652	5.7273	0.1	71.176
25175	4.1576	5.6364	0.1	95.862
25176	4.1576	5.8182	0.1	42.379
25177	4.0652	5.9091	0.1	22.847
25178	4.25	0.27273	0.1	66.871
25179	4.3424	0.18182	0.1	40.182
25180	4.25	9.0909e-002	0.1	21.837
25181	4.25	0.45455	0.1	117.68
25182	4.3424	0.36364	0.1	89.484
25183	4.25	0.63636	0.1	167.29
25184	4.3424	0.54545	0.1	137.72
25185	4.25	0.81818	0.1	215.59
25186	4.3424	0.72727	0.1	184.81
25187	4.25	1.	0.1	262.21
25188	4.3424	0.90909	0.1	230.48
25189	4.25	1.1818	0.1	306.68
25190	4.3424	1.0909	0.1	274.29
25191	4.25	1.3636	0.1	348.55
25192	4.3424	1.2727	0.1	315.8
25193	4.25	1.5455	0.1	387.37
25194	4.3424	1.4545	0.1	354.58
25195	4.25	1.7273	0.1	422.73
25196	4.3424	1.6364	0.1	390.23
25197	4.25	1.9091	0.1	454.23
25198	4.3424	1.8182	0.1	422.35
25199	4.25	2.0909	0.1	481.52
25200	4.3424	2.	0.1	450.59
25201	4.25	2.2727	0.1	504.28
25202	4.3424	2.1818	0.1	474.63
25203	4.25	2.4545	0.1	522.26
25204	4.3424	2.3636	0.1	494.2
25205	4.25	2.6364	0.1	535.25
25206	4.3424	2.5455	0.1	509.07
25207	4.25	2.8182	0.1	543.11
25208	4.3424	2.7273	0.1	519.09
25209	4.25	3.	0.1	545.74
25210	4.3424	2.9091	0.1	524.12
25211	4.25	3.1818	0.1	543.11
25212	4.3424	3.0909	0.1	524.12
25213	4.25	3.3636	0.1	535.25
25214	4.3424	3.2727	0.1	519.09
25215	4.25	3.5455	0.1	522.26
25216	4.3424	3.4545	0.1	509.07
25217	4.25	3.7273	0.1	504.28
25218	4.3424	3.6364	0.1	494.2
25219	4.25	3.9091	0.1	481.52
25220	4.3424	3.8182	0.1	474.63
25221	4.25	4.0909	0.1	454.23
25222	4.3424	4.	0.1	450.59
25223	4.25	4.2727	0.1	422.73
25224	4.3424	4.1818	0.1	422.35
25225	4.25	4.4545	0.1	387.37
25226	4.3424	4.3636	0.1	390.23
25227	4.25	4.6364	0.1	348.55
25228	4.3424	4.5455	0.1	354.58
25229	4.25	4.8182	0.1	306.68
25230	4.3424	4.7273	0.1	315.8
25231	4.25	5.	0.1	262.21
25232	4.3424	4.9091	0.1	274.29
25233	4.25	5.1818	0.1	215.59
25234	4.3424	5.0909	0.1	230.48
25235	4.25	5.3636	0.1	167.29
25236	4.3424	5.2727	0.1	184.81
25237	4.25	5.5455	0.1	117.68
25238	4.3424	5.4545	0.1	137.72
25239	4.25	5.7273	0.1	66.871
25240	4.3424	5.6364	0.1	89.484
25241	4.3424	5.8182	0.1	40.182
25242	4.25	5.9091	0.1	21.837
25243	4.4348	0.27273	0.1	62.631
25244	4.5272	0.18182	0.1	37.898
25245	4.4348	9.0909e-002	0.1	20.729
25246	4.4348	0.45455	0.1	109.47
25247	4.5272	0.36364	0.1	83.355
25248	4.4348	0.63636	0.1	155.2
25249	4.5272	0.54545	0.1	127.84
25250	4.4348	0.81818	0.1	199.66
25251	4.5272	0.72727	0.1	171.21
25252	4.4348	1.	0.1	242.52
25253	4.5272	0.90909	0.1	213.23
25254	4.4348	1.1818	0.1	283.37
25255	4.5272	1.0909	0.1	253.49
25256	4.4348	1.3636	0.1	321.8
25257	4.5272	1.2727	0.1	291.6
25258	4.4348	1.5455	0.1	357.41
25259	4.5272	1.4545	0.1	327.19
25260	4.4348	1.7273	0.1	389.83
25261	4.5272	1.6364	0.1	359.88
25262	4.4348	1.9091	0.1	418.7
25263	4.5272	1.8182	0.1	389.33
25264	4.4348	2.0909	0.1	443.71
25265	4.5272	2.	0.1	415.2
25266	4.4348	2.2727	0.1	464.57
25267	4.5272	2.1818	0.1	437.23
25268	4.4348	2.4545	0.1	481.04
25269	4.5272	2.3636	0.1	455.16
25270	4.4348	2.6364	0.1	492.94
25271	4.5272	2.5455	0.1	468.78
25272	4.4348	2.8182	0.1	500.14
25273	4.5272	2.7273	0.1	477.96
25274	4.4348	3.	0.1	502.55
25275	4.5272	2.9091	0.1	482.57
25276	4.4348	3.1818	0.1	500.14
25277	4.5272	3.0909	0.1	482.57
25278	4.4348	3.3636	0.1	492.94
25279	4.5272	3.2727	0.1	477.96
25280	4.4348	3.5455	0.1	481.04
25281	4.5272	3.4545	0.1	468.78
25282	4.4348	3.7273	0.1	464.57
25283	4.5272	3.6364	0.1	455.16
25284	4.4348	3.9091	0.1	443.71
25285	4.5272	3.8182	0.1	437.23
25286	4.4348	4.0909	0.1	418.7
25287	4.5272	4.	0.1	415.2
25288	4.4348	4.2727	0.1	389.83
25289	4.5272	4.1818	0.1	389.33
25290	4.4348	4.4545	0.1	357.41
25291	4.5272	4.3636	0.1	359.88
25292	4.4348	4.6364	0.1	321.8
25293	4.5272	4.5455	0.1	327.19
25294	4.4348	4.8182	0.1	283.37
25295	4.5272	4.7273	0.1	291.6
25296	4.4348	5.	0.1	242.52
25297	4.5272	4.9091	0.1	253.49
25298	4.4348	5.1818	0.1	199.66
25299	4.5272	5.0909	0.1	213.23
25300	4.4348	5.3636	0.1	155.2
25301	4.5272	5.2727	0.1	171.21
25302	4.4348	5.5455	0.1	109.47
25303	4.5272	5.4545	0.1	127.84
25304	4.4348	5.7273	0.1	62.631
25305	4.5272	5.6364	0.1	83.355
25306	4.5272	5.8182	0.1	37.898
25307	4.4348	5.9091	0.1	20.729
25308	4.6196	0.27273	0.1	58.482
25309	4.712	0.18182	0.1	35.562
25310	4.6196	9.0909e-002	0.1	19.552
25311	4.6196	0.45455	0.1	101.67
25312	4.712	0.36364	0.1	77.482
25313	4.6196	0.63636	0.1	143.81
25314	4.712	0.54545	0.1	118.5
25315	4.6196	0.81818	0.1	184.74
25316	4.712	0.72727	0.1	158.45
25317	4.6196	1.	0.1	224.16
25318	4.712	0.90909	0.1	197.11
25319	4.6196	1.1818	0.1	261.68
25320	4.712	1.0909	0.1	234.12
25321	4.6196	1.3636	0.1	296.96
25322	4.712	1.2727	0.1	269.12
25323	4.6196	1.5455	0.1	329.63
25324	4.712	1.4545	0.1	301.78
25325	4.6196	1.7273	0.1	359.36
25326	4.712	1.6364	0.1	331.76
25327	4.6196	1.9091	0.1	385.82
25328	4.712	1.8182	0.1	358.75
25329	4.6196	2.0909	0.1	408.73
25330	4.712	2.	0.1	382.46
25331	4.6196	2.2727	0.1	427.83
25332	4.712	2.1818	0.1	402.64
25333	4.6196	2.4545	0.1	442.92
25334	4.712	2.3636	0.1	419.06
25335	4.6196	2.6364	0.1	453.82
25336	4.712	2.5455	0.1	431.53
25337	4.6196	2.8182	0.1	460.41
25338	4.712	2.7273	0.1	439.93
25339	4.6196	3.	0.1	462.62
25340	4.712	2.9091	0.1	444.16
25341	4.6196	3.1818	0.1	460.41
25342	4.712	3.0909	0.1	444.16
25343	4.6196	3.3636	0.1	453.82
25344	4.712	3.2727	0.1	439.93
25345	4.6196	3.5455	0.1	442.92
25346	4.712	3.4545	0.1	431.53
25347	4.6196	3.7273	0.1	427.83
25348	4.712	3.6364	0.1	419.06
25349	4.6196	3.9091	0.1	408.73
25350	4.712	3.8182	0.1	402.64
25351	4.6196	4.0909	0.1	385.82
25352	4.712	4.	0.1	382.46
25353	4.6196	4.2727	0.1	359.36
25354	4.712	4.1818	0.1	358.75
25355	4.6196	4.4545	0.1	329.63
25356	4.712	4.3636	0.1	331.76
25357	4.6196	4.6364	0.1	296.96
25358	4.712	4.5455	0.1	301.78
25359	4.6196	4.8182	0.1	261.68
25360	4.712	4.7273	0.1	269.12
25361	4.6196	5.	0.1	224.16
25362	4.712	4.9091	0.1	234.12
25363	4.6196	5.1818	0.1	184.74
25364	4.712	5.0909	0.1	197.11
25365	4.6196	5.3636	0.1	143.81
25366	4.712	5.2727	0.1	158.45
25367	4.6196	5.5455	0.1	101.67
25368	4.712	5.4545	0.1	118.5
25369	4.6196	5.7273	0.1	58.482
25370	4.712	5.6364	0.1	77.482
25371	4.712	5.8182	0.1	35.562
25372	4.6196	5.9091	0.1	19.552
25373	4.8043	0.27273	0.1	54.443
25374	4.8967	0.18182	0.1	33.205
25375	4.8043	9.0909e-002	0.1	18.33
25376	4.8043	0.45455	0.1	94.27
25377	4.8967	0.36364	0.1	71.869
25378	4.8043	0.63636	0.1	133.11
25379	4.8967	0.54545	0.1	109.7
25380	4.8043	0.81818	0.1	170.79
25381	4.8967	0.72727	0.1	146.49
25382	4.8043	1.	0.1	207.04
25383	4.8967	0.90909	0.1	182.06
25384	4.8043	1.1818	0.1	241.52
25385	4.8967	1.0909	0.1	216.08
25386	4.8043	1.3636	0.1	273.9
25387	4.8967	1.2727	0.1	248.23
25388	4.8043	1.5455	0.1	303.88
25389	4.8967	1.4545	0.1	278.2
25390	4.8043	1.7273	0.1	331.13
25391	4.8967	1.6364	0.1	305.7
25392	4.8043	1.9091	0.1	355.38
25393	4.8967	1.8182	0.1	330.44
25394	4.8043	2.0909	0.1	376.37
25395	4.8967	2.	0.1	352.17
25396	4.8043	2.2727	0.1	393.87
25397	4.8967	2.1818	0.1	370.65
25398	4.8043	2.4545	0.1	407.68
25399	4.8967	2.3636	0.1	385.68
25400	4.8043	2.6364	0.1	417.66
25401	4.8967	2.5455	0.1	397.11
25402	4.8043	2.8182	0.1	423.7
25403	4.8967	2.7273	0.1	404.8
25404	4.8043	3.	0.1	425.72
25405	4.8967	2.9091	0.1	408.66
25406	4.8043	3.1818	0.1	423.7
25407	4.8967	3.0909	0.1	408.66
25408	4.8043	3.3636	0.1	417.66
25409	4.8967	3.2727	0.1	404.8
25410	4.8043	3.5455	0.1	407.68
25411	4.8967	3.4545	0.1	397.11
25412	4.8043	3.7273	0.1	393.87
25413	4.8967	3.6364	0.1	385.68
25414	4.8043	3.9091	0.1	376.37
25415	4.8967	3.8182	0.1	370.65
25416	4.8043	4.0909	0.1	355.38
25417	4.8967	4.	0.1	352.17
25418	4.8043	4.2727	0.1	331.13
25419	4.8967	4.1818	0.1	330.44
25420	4.8043	4.4545	0.1	303.88
25421	4.8967	4.3636	0.1	305.7
25422	4.8043	4.6364	0.1	273.9
25423	4.8967	4.5455	0.1	278.2
25424	4.8043	4.8182	0.1	241.52
25425	4.8967	4.7273	0.1	248.23
25426	4.8043	5.	0.1	207.04
25427	4.8967	4.9091	0.1	216.08
25428	4.8043	5.1818	0.1	170.79
25429	4.8967	5.0909	0.1	182.06
25430	4.8043	5.3636	0.1	133.11
25431	4.8967	5.2727	0.1	146.49
25432	4.8043	5.5455	0.1	94.27
25433	4.8967	5.4545	0.1	109.7
25434	4.8043	5.7273	0.1	54.443
25435	4.8967	5.6364	0.1	71.869
25436	4.8967	5.8182	0.1	33.205
25437	4.8043	5.9091	0.1	18.33
25438	4.9891	0.27273	0.1	50.531
25439	5.0815	0.18182	0.1	30.852
25440	4.9891	9.0909e-002	0.1	17.082
25441	4.9891	0.45455	0.1	87.258
25442	5.0815	0.36364	0.1	66.52
25443	4.9891	0.63636	0.1	123.05
25444	5.0815	0.54545	0.1	101.4
25445	4.9891	0.81818	0.1	157.74
25446	5.0815	0.72727	0.1	135.29
25447	4.9891	1.	0.1	191.08
25448	5.0815	0.90909	0.1	168.02
25449	4.9891	1.1818	0.1	222.76
25450	5.0815	1.0909	0.1	199.29
25451	4.9891	1.3636	0.1	252.5
25452	5.0815	1.2727	0.1	228.82
25453	4.9891	1.5455	0.1	280.
25454	5.0815	1.4545	0.1	256.33
25455	4.9891	1.7273	0.1	304.99
25456	5.0815	1.6364	0.1	281.55
25457	4.9891	1.9091	0.1	327.21
25458	5.0815	1.8182	0.1	304.23
25459	4.9891	2.0909	0.1	346.44
25460	5.0815	2.	0.1	324.14
25461	4.9891	2.2727	0.1	362.47
25462	5.0815	2.1818	0.1	341.07
25463	4.9891	2.4545	0.1	375.12
25464	5.0815	2.3636	0.1	354.84
25465	4.9891	2.6364	0.1	384.25
25466	5.0815	2.5455	0.1	365.3
25467	4.9891	2.8182	0.1	389.78
25468	5.0815	2.7273	0.1	372.33
25469	4.9891	3.	0.1	391.62
25470	5.0815	2.9091	0.1	375.87
25471	4.9891	3.1818	0.1	389.78
25472	5.0815	3.0909	0.1	375.87
25473	4.9891	3.3636	0.1	384.25
25474	5.0815	3.2727	0.1	372.33
25475	4.9891	3.5455	0.1	375.12
25476	5.0815	3.4545	0.1	365.3
25477	4.9891	3.7273	0.1	362.47
25478	5.0815	3.6364	0.1	354.84
25479	4.9891	3.9091	0.1	346.44
25480	5.0815	3.8182	0.1	341.07
25481	4.9891	4.0909	0.1	327.21
25482	5.0815	4.	0.1	324.14
25483	4.9891	4.2727	0.1	304.99
25484	5.0815	4.1818	0.1	304.23
25485	4.9891	4.4545	0.1	280.
25486	5.0815	4.3636	0.1	281.55
25487	4.9891	4.6364	0.1	252.5
25488	5.0815	4.5455	0.1	256.33
25489	4.9891	4.8182	0.1	222.76
25490	5.0815	4.7273	0.1	228.82
25491	4.9891	5.	0.1	191.08
25492	5.0815	4.9091	0.1	199.29
25493	4.9891	5.1818	0.1	157.74
25494	5.0815	5.0909	0.1	168.02
25495	4.9891	5.3636	0.1	123.05
25496	5.0815	5.2727	0.1	135.29
25497	4.9891	5.5455	0.1	87.258
25498	5.0815	5.4545	0.1	101.4
25499	4.9891	5.7273	0.1	50.531
25500	5.0815	5.6364	0.1	66.52
25501	5.0815	5.8182	0.1	30.852
25502	4.9891	5.9091	0.1	17.082
25503	5.1739	0.27273	0.1	46.756
25504	5.2663	0.18182	0.1	28.525
25505	5.1739	9.0909e-002	0.1	15.824
25506	5.1739	0.45455	0.1	80.626
25507	5.2663	0.36364	0.1	61.433
25508	5.1739	0.63636	0.1	113.61
25509	5.2663	0.54545	0.1	93.584
25510	5.1739	0.81818	0.1	145.54
25511	5.2663	0.72727	0.1	124.8
25512	5.1739	1.	0.1	176.2
25513	5.2663	0.90909	0.1	154.92
25514	5.1739	1.1818	0.1	205.32
25515	5.2663	1.0909	0.1	183.66
25516	5.1739	1.3636	0.1	232.63
25517	5.2663	1.2727	0.1	210.79
25518	5.1739	1.5455	0.1	257.86
25519	5.2663	1.4545	0.1	236.04
25520	5.1739	1.7273	0.1	280.78
25521	5.2663	1.6364	0.1	259.18
25522	5.1739	1.9091	0.1	301.15
25523	5.2663	1.8182	0.1	279.97
25524	5.1739	2.0909	0.1	318.77
25525	5.2663	2.	0.1	298.22
25526	5.1739	2.2727	0.1	333.44
25527	5.2663	2.1818	0.1	313.73
25528	5.1739	2.4545	0.1	345.02
25529	5.2663	2.3636	0.1	326.33
25530	5.1739	2.6364	0.1	353.39
25531	5.2663	2.5455	0.1	335.91
25532	5.1739	2.8182	0.1	358.44
25533	5.2663	2.7273	0.1	342.35
25534	5.1739	3.	0.1	360.13
25535	5.2663	2.9091	0.1	345.59
25536	5.1739	3.1818	0.1	358.44
25537	5.2663	3.0909	0.1	345.59
25538	5.1739	3.3636	0.1	353.39
25539	5.2663	3.2727	0.1	342.35
25540	5.1739	3.5455	0.1	345.02
25541	5.2663	3.4545	0.1	335.91
25542	5.1739	3.7273	0.1	333.44
25543	5.2663	3.6364	0.1	326.33
25544	5.1739	3.9091	0.1	318.77
25545	5.2663	3.8182	0.1	313.73
25546	5.1739	4.0909	0.1	301.15
25547	5.2663	4.	0.1	298.22
25548	5.1739	4.2727	0.1	280.78
25549	5.2663	4.1818	0.1	279.97
25550	5.1739	4.4545	0.1	257.86
25551	5.2663	4.3636	0.1	259.18
25552	5.1739	4.6364	0.1	232.63
25553	5.2663	4.5455	0.1	236.04
25554	5.1739	4.8182	0.1	205.32
25555	5.2663	4.7273	0.1	210.79
25556	5.1739	5.	0.1	176.2
25557	5.2663	4.9091	0.1	183.66
25558	5.1739	5.1818	0.1	145.54
25559	5.2663	5.0909	0.1	154.92
25560	5.1739	5.3636	0.1	113.61
25561	5.2663	5.2727	0.1	124.8
25562	5.1739	5.5455	0.1	80.626
25563	5.2663	5.4545	0.1	93.584
25564	5.1739	5.7273	0.1	46.756
25565	5.2663	5.6364	0.1	61.433
25566	5.2663	5.8182	0.1	28.525
25567	5.1739	5.9091	0.1	15.824
25568	5.3587	0.27273	0.1	43.13
25569	5.4511	0.18182	0.1	26.239
25570	5.3587	9.0909e-002	0.1	14.571
25571	5.3587	0.45455	0.1	74.365
25572	5.4511	0.36364	0.1	56.607
25573	5.3587	0.63636	0.1	104.75
25574	5.4511	0.54545	0.1	86.241
25575	5.3587	0.81818	0.1	134.15
25576	5.4511	0.72727	0.1	114.99
25577	5.3587	1.	0.1	162.35
25578	5.4511	0.90909	0.1	142.7
25579	5.3587	1.1818	0.1	189.11
25580	5.4511	1.0909	0.1	169.13
25581	5.3587	1.3636	0.1	214.19
25582	5.4511	1.2727	0.1	194.05
25583	5.3587	1.5455	0.1	237.34
25584	5.4511	1.4545	0.1	217.23
25585	5.3587	1.7273	0.1	258.36
25586	5.4511	1.6364	0.1	238.46
25587	5.3587	1.9091	0.1	277.04
25588	5.4511	1.8182	0.1	257.52
25589	5.3587	2.0909	0.1	293.18
25590	5.4511	2.	0.1	274.24
25591	5.3587	2.2727	0.1	306.62
25592	5.4511	2.1818	0.1	288.45
25593	5.3587	2.4545	0.1	317.22
25594	5.4511	2.3636	0.1	300.
25595	5.3587	2.6364	0.1	324.88
25596	5.4511	2.5455	0.1	308.77
25597	5.3587	2.8182	0.1	329.51
25598	5.4511	2.7273	0.1	314.66
25599	5.3587	3.	0.1	331.05
25600	5.4511	2.9091	0.1	317.63
25601	5.3587	3.1818	0.1	329.51
25602	5.4511	3.0909	0.1	317.63
25603	5.3587	3.3636	0.1	324.88
25604	5.4511	3.2727	0.1	314.66
25605	5.3587	3.5455	0.1	317.22
25606	5.4511	3.4545	0.1	308.77
25607	5.3587	3.7273	0.1	306.62
25608	5.4511	3.6364	0.1	300.
25609	5.3587	3.9091	0.1	293.18
25610	5.4511	3.8182	0.1	288.45
25611	5.3587	4.0909	0.1	277.04
25612	5.4511	4.	0.1	274.24
25613	5.3587	4.2727	0.1	258.36
25614	5.4511	4.1818	0.1	257.52
25615	5.3587	4.4545	0.1	237.34
25616	5.4511	4.3636	0.1	238.46
25617	5.3587	4.6364	0.1	214.19
25618	5.4511	4.5455	0.1	217.23
25619	5.3587	4.8182	0.1	189.11
25620	5.4511	4.7273	0.1	194.05
25621	5.3587	5.	0.1	162.35
25622	5.4511	4.9091	0.1	169.13
25623	5.3587	5.1818	0.1	134.15
25624	5.4511	5.0909	0.1	142.7
25625	5.3587	5.3636	0.1	104.75
25626	5.4511	5.2727	0.1	114.99
25627	5.3587	5.5455	0.1	74.365
25628	5.4511	5.4545	0.1	86.241
25629	5.3587	5.7273	0.1	43.13
25630	5.4511	5.6364	0.1	56.607
25631	5.4511	5.8182	0.1	26.239
25632	5.3587	5.9091	0.1	14.571
25633	5.5435	0.27273	0.1	39.656
25634	5.6359	0.18182	0.1	24.008
25635	5.5435	9.0909e-002	0.1	13.333
25636	5.5435	0.45455	0.1	68.461
25637	5.6359	0.36364	0.1	52.036
25638	5.5435	0.63636	0.1	96.457
25639	5.6359	0.54545	0.1	79.346
25640	5.5435	0.81818	0.1	123.52
25641	5.6359	0.72727	0.1	105.82
25642	5.5435	1.	0.1	149.46
25643	5.6359	0.90909	0.1	131.31
25644	5.5435	1.1818	0.1	174.05
25645	5.6359	1.0909	0.1	155.61
25646	5.5435	1.3636	0.1	197.08
25647	5.6359	1.2727	0.1	178.5
25648	5.5435	1.5455	0.1	218.33
25649	5.6359	1.4545	0.1	199.79
25650	5.5435	1.7273	0.1	237.61
25651	5.6359	1.6364	0.1	219.26
25652	5.5435	1.9091	0.1	254.73
25653	5.6359	1.8182	0.1	236.75
25654	5.5435	2.0909	0.1	269.52
25655	5.6359	2.	0.1	252.07
25656	5.5435	2.2727	0.1	281.83
25657	5.6359	2.1818	0.1	265.09
25658	5.5435	2.4545	0.1	291.54
25659	5.6359	2.3636	0.1	275.66
25660	5.5435	2.6364	0.1	298.55
25661	5.6359	2.5455	0.1	283.69
25662	5.5435	2.8182	0.1	302.79
25663	5.6359	2.7273	0.1	289.09
25664	5.5435	3.	0.1	304.2
25665	5.6359	2.9091	0.1	291.81
25666	5.5435	3.1818	0.1	302.79
25667	5.6359	3.0909	0.1	291.81
25668	5.5435	3.3636	0.1	298.55
25669	5.6359	3.2727	0.1	289.09
25670	5.5435	3.5455	0.1	291.54
25671	5.6359	3.4545	0.1	283.69
25672	5.5435	3.7273	0.1	281.83
25673	5.6359	3.6364	0.1	275.66
25674	5.5435	3.9091	0.1	269.52
25675	5.6359	3.8182	0.1	265.09
25676	5.5435	4.0909	0.1	254.73
25677	5.6359	4.	0.1	252.07
25678	5.5435	4.2727	0.1	237.61
25679	5.6359	4.1818	0.1	236.75
25680	5.5435	4.4545	0.1	218.33
25681	5.6359	4.3636	0.1	219.26
25682	5.5435	4.6364	0.1	197.08
25683	5.6359	4.5455	0.1	199.79
25684	5.5435	4.8182	0.1	174.05
25685	5.6359	4.7273	0.1	178.5
25686	5.5435	5.	0.1	149.46
25687	5.6359	4.9091	0.1	155.61
25688	5.5435	5.1818	0.1	123.52
25689	5.6359	5.0909	0.1	131.31
25690	5.5435	5.3636	0.1	96.457
25691	5.6359	5.2727	0.1	105.82
25692	5.5435	5.5455	0.1	68.461
25693	5.6359	5.4545	0.1	79.346
25694	5.5435	5.7273	0.1	39.656
25695	5.6359	5.6364	0.1	52.036
25696	5.6359	5.8182	0.1	24.008
25697	5.5435	5.9091	0.1	13.333
25698	5.7283	0.27273	0.1	36.338
25699	5.8207	0.18182	0.1	21.843
25700	5.7283	9.0909e-002	0.1	12.119
25701	5.7283	0.45455	0.1	62.903
25702	5.8207	0.36364	0.1	47.715
25703	5.7283	0.63636	0.1	88.691
25704	5.8207	0.54545	0.1	72.879
25705	5.7283	0.81818	0.1	113.6
25706	5.8207	0.72727	0.1	97.25
25707	5.7283	1.	0.1	137.45
25708	5.8207	0.90909	0.1	120.7
25709	5.7283	1.1818	0.1	160.05
25710	5.8207	1.0909	0.1	143.04
25711	5.7283	1.3636	0.1	181.2
25712	5.8207	1.2727	0.1	164.07
25713	5.7283	1.5455	0.1	200.71
25714	5.8207	1.4545	0.1	183.61
25715	5.7283	1.7273	0.1	218.39
25716	5.8207	1.6364	0.1	201.48
25717	5.7283	1.9091	0.1	234.09
25718	5.8207	1.8182	0.1	217.52
25719	5.7283	2.0909	0.1	247.64
25720	5.8207	2.	0.1	231.57
25721	5.7283	2.2727	0.1	258.92
25722	5.8207	2.1818	0.1	243.5
25723	5.7283	2.4545	0.1	267.82
25724	5.8207	2.3636	0.1	253.18
25725	5.7283	2.6364	0.1	274.24
25726	5.8207	2.5455	0.1	260.54
25727	5.7283	2.8182	0.1	278.11
25728	5.8207	2.7273	0.1	265.48
25729	5.7283	3.	0.1	279.41
25730	5.8207	2.9091	0.1	267.96
25731	5.7283	3.1818	0.1	278.11
25732	5.8207	3.0909	0.1	267.96
25733	5.7283	3.3636	0.1	274.24
25734	5.8207	3.2727	0.1	265.48
25735	5.7283	3.5455	0.1	267.82
25736	5.8207	3.4545	0.1	260.54
25737	5.7283	3.7273	0.1	258.92
25738	5.8207	3.6364	0.1	253.18
25739	5.7283	3.9091	0.1	247.64
25740	5.8207	3.8182	0.1	243.5
25741	5.7283	4.0909	0.1	234.09
25742	5.8207	4.	0.1	231.57
25743	5.7283	4.2727	0.1	218.39
25744	5.8207	4.1818	0.1	217.52
25745	5.7283	4.4545	0.1	200.71
25746	5.8207	4.3636	0.1	201.48
25747	5.7283	4.6364	0.1	181.2
25748	5.8207	4.5455	0.1	183.61
25749	5.7283	4.8182	0.1	160.05
25750	5.8207	4.7273	0.1	164.07
25751	5.7283	5.	0.1	137.45
25752	5.8207	4.9091	0.1	143.04
25753	5.7283	5.1818	0.1	113.6
25754	5.8207	5.0909	0.1	120.7
25755	5.7283	5.3636	0.1	88.691
25756	5.8207	5.2727	0.1	97.25
25757	5.7283	5.5455	0.1	62.903
25758	5.8207	5.4545	0.1	72.879
25759	5.7283	5.7273	0.1	36.338
25760	5.8207	5.6364	0.1	47.715
25761	5.8207	5.8182	0.1	21.843
25762	5.7283	5.9091	0.1	12.119
25763	5.913	0.27273	0.1	33.179
25764	6.0054	0.18182	0.1	19.751
25765	5.913	9.0909e-002	0.1	10.935
25766	5.913	0.45455	0.1	57.677
25767	6.0054	0.36364	0.1	43.637
25768	5.913	0.63636	0.1	81.426
25769	6.0054	0.54545	0.1	66.818
25770	5.913	0.81818	0.1	104.35
25771	6.0054	0.72727	0.1	89.252
25772	5.913	1.	0.1	126.28
25773	6.0054	0.90909	0.1	110.83
25774	5.913	1.1818	0.1	147.05
25775	6.0054	1.0909	0.1	131.36
25776	5.913	1.3636	0.1	166.48
25777	6.0054	1.2727	0.1	150.68
25778	5.913	1.5455	0.1	184.38
25779	6.0054	1.4545	0.1	168.62
25780	5.913	1.7273	0.1	200.6
25781	6.0054	1.6364	0.1	185.02
25782	5.913	1.9091	0.1	214.99
25783	6.0054	1.8182	0.1	199.73
25784	5.913	2.0909	0.1	227.42
25785	6.0054	2.	0.1	212.61
25786	5.913	2.2727	0.1	237.75
25787	6.0054	2.1818	0.1	223.54
25788	5.913	2.4545	0.1	245.9
25789	6.0054	2.3636	0.1	232.41
25790	5.913	2.6364	0.1	251.78
25791	6.0054	2.5455	0.1	239.15
25792	5.913	2.8182	0.1	255.33
25793	6.0054	2.7273	0.1	243.67
25794	5.913	3.	0.1	256.52
25795	6.0054	2.9091	0.1	245.95
25796	5.913	3.1818	0.1	255.33
25797	6.0054	3.0909	0.1	245.95
25798	5.913	3.3636	0.1	251.78
25799	6.0054	3.2727	0.1	243.67
25800	5.913	3.5455	0.1	245.9
25801	6.0054	3.4545	0.1	239.15
25802	5.913	3.7273	0.1	237.75
25803	6.0054	3.6364	0.1	232.41
25804	5.913	3.9091	0.1	227.42
25805	6.0054	3.8182	0.1	223.54
25806	5.913	4.0909	0.1	214.99
25807	6.0054	4.	0.1	212.61
25808	5.913	4.2727	0.1	200.6
25809	6.0054	4.1818	0.1	199.73
25810	5.913	4.4545	0.1	184.38
25811	6.0054	4.3636	0.1	185.02
25812	5.913	4.6364	0.1	166.48
25813	6.0054	4.5455	0.1	168.62
25814	5.913	4.8182	0.1	147.05
25815	6.0054	4.7273	0.1	150.68
25816	5.913	5.	0.1	126.28
25817	6.0054	4.9091	0.1	131.36
25818	5.913	5.1818	0.1	104.35
25819	6.0054	5.0909	0.1	110.83
25820	5.913	5.3636	0.1	81.426
25821	6.0054	5.2727	0.1	89.252
25822	5.913	5.5455	0.1	57.677
25823	6.0054	5.4545	0.1	66.818
25824	5.913	5.7273	0.1	33.179
25825	6.0054	5.6364	0.1	43.637
25826	6.0054	5.8182	0.1	19.751
25827	5.913	5.9091	0.1	10.935
25828	6.0978	0.27273	0.1	30.176
25829	6.1902	0.18182	0.1	17.738
25830	6.0978	9.0909e-002	0.1	9.7865
25831	6.0978	0.45455	0.1	52.768
25832	6.1902	0.36364	0.1	39.793
25833	6.0978	0.63636	0.1	74.636
25834	6.1902	0.54545	0.1	61.144
25835	6.0978	0.81818	0.1	95.725
25836	6.1902	0.72727	0.1	81.79
25837	6.0978	1.	0.1	115.9
25838	6.1902	0.90909	0.1	101.63
25839	6.0978	1.1818	0.1	134.98
25840	6.1902	1.0909	0.1	120.51
25841	6.0978	1.3636	0.1	152.82
25842	6.1902	1.2727	0.1	138.26
25843	6.0978	1.5455	0.1	169.25
25844	6.1902	1.4545	0.1	154.73
25845	6.0978	1.7273	0.1	184.14
25846	6.1902	1.6364	0.1	169.77
25847	6.0978	1.9091	0.1	197.33
25848	6.1902	1.8182	0.1	183.26
25849	6.0978	2.0909	0.1	208.72
25850	6.1902	2.	0.1	195.07
25851	6.0978	2.2727	0.1	218.19
25852	6.1902	2.1818	0.1	205.09
25853	6.0978	2.4545	0.1	225.65
25854	6.1902	2.3636	0.1	213.22
25855	6.0978	2.6364	0.1	231.04
25856	6.1902	2.5455	0.1	219.39
25857	6.0978	2.8182	0.1	234.29
25858	6.1902	2.7273	0.1	223.53
25859	6.0978	3.	0.1	235.38
25860	6.1902	2.9091	0.1	225.62
25861	6.0978	3.1818	0.1	234.29
25862	6.1902	3.0909	0.1	225.62
25863	6.0978	3.3636	0.1	231.04
25864	6.1902	3.2727	0.1	223.53
25865	6.0978	3.5455	0.1	225.65
25866	6.1902	3.4545	0.1	219.39
25867	6.0978	3.7273	0.1	218.19
25868	6.1902	3.6364	0.1	213.22
25869	6.0978	3.9091	0.1	208.72
25870	6.1902	3.8182	0.1	205.09
25871	6.0978	4.0909	0.1	197.33
25872	6.1902	4.	0.1	195.07
25873	6.0978	4.2727	0.1	184.14
25874	6.1902	4.1818	0.1	183.26
25875	6.0978	4.4545	0.1	169.25
25876	6.1902	4.3636	0.1	169.77
25877	6.0978	4.6364	0.1	152.82
25878	6.1902	4.5455	0.1	154.73
25879	6.0978	4.8182	0.1	134.98
25880	6.1902	4.7273	0.1	138.26
25881	6.0978	5.	0.1	115.9
25882	6.1902	4.9091	0.1	120.51
25883	6.0978	5.1818	0.1	95.725
25884	6.1902	5.0909	0.1	101.63
25885	6.0978	5.3636	0.1	74.636
25886	6.1902	5.2727	0.1	81.79
25887	6.0978	5.5455	0.1	52.768
25888	6.1902	5.4545	0.1	61.144
25889	6.0978	5.7273	0.1	30.176
25890	6.1902	5.6364	0.1	39.793
25891	6.1902	5.8182	0.1	17.738
25892	6.0978	5.9091	0.1	9.7865
25893	6.2826	0.27273	0.1	27.329
25894	6.375	0.18182	0.1	15.807
25895	6.2826	9.0909e-002	0.1	8.678
25896	6.2826	0.45455	0.1	48.163
25897	6.375	0.36364	0.1	36.176
25898	6.2826	0.63636	0.1	68.293
25899	6.375	0.54545	0.1	55.835
25900	6.2826	0.81818	0.1	87.693
25901	6.375	0.72727	0.1	74.832
25902	6.2826	1.	0.1	106.24
25903	6.375	0.90909	0.1	93.079
25904	6.2826	1.1818	0.1	123.77
25905	6.375	1.0909	0.1	110.42
25906	6.2826	1.3636	0.1	140.16
25907	6.375	1.2727	0.1	126.73
25908	6.2826	1.5455	0.1	155.24
25909	6.375	1.4545	0.1	141.85
25910	6.2826	1.7273	0.1	168.89
25911	6.375	1.6364	0.1	155.65
25912	6.2826	1.9091	0.1	180.99
25913	6.375	1.8182	0.1	168.02
25914	6.2826	2.0909	0.1	191.43
25915	6.375	2.	0.1	178.85
25916	6.2826	2.2727	0.1	200.11
25917	6.375	2.1818	0.1	188.03
25918	6.2826	2.4545	0.1	206.95
25919	6.375	2.3636	0.1	195.48
25920	6.2826	2.6364	0.1	211.88
25921	6.375	2.5455	0.1	201.13
25922	6.2826	2.8182	0.1	214.86
25923	6.375	2.7273	0.1	204.93
25924	6.2826	3.	0.1	215.85
25925	6.375	2.9091	0.1	206.84
25926	6.2826	3.1818	0.1	214.86
25927	6.375	3.0909	0.1	206.84
25928	6.2826	3.3636	0.1	211.88
25929	6.375	3.2727	0.1	204.93
25930	6.2826	3.5455	0.1	206.95
25931	6.375	3.4545	0.1	201.13
25932	6.2826	3.7273	0.1	200.11
25933	6.375	3.6364	0.1	195.48
25934	6.2826	3.9091	0.1	191.43
25935	6.375	3.8182	0.1	188.03
25936	6.2826	4.0909	0.1	180.99
25937	6.375	4.	0.1	178.85
25938	6.2826	4.2727	0.1	168.89
25939	6.375	4.1818	0.1	168.02
25940	6.2826	4.4545	0.1	155.24
25941	6.375	4.3636	0.1	155.65
25942	6.2826	4.6364	0.1	140.16
25943	6.375	4.5455	0.1	141.85
25944	6.2826	4.8182	0.1	123.77
25945	6.375	4.7273	0.1	126.73
25946	6.2826	5.	0.1	106.24
25947	6.375	4.9091	0.1	110.42
25948	6.2826	5.1818	0.1	87.693
25949	6.375	5.0909	0.1	93.079
25950	6.2826	5.3636	0.1	68.293
25951	6.375	5.2727	0.1	74.832
25952	6.2826	5.5455	0.1	48.163
25953	6.375	5.4545	0.1	55.835
25954	6.2826	5.7273	0.1	27.329
25955	6.375	5.6364	0.1	36.176
25956	6.375	5.8182	0.1	15.807
25957	6.2826	5.9091	0.1	8.678
25958	6.4674	0.27273	0.1	24.634
25959	6.5598	0.18182	0.1	13.961
25960	6.4674	9.0909e-002	0.1	7.6121
25961	6.4674	0.45455	0.1	43.845
25962	6.5598	0.36364	0.1	32.775
25963	6.4674	0.63636	0.1	62.371
25964	6.5598	0.54545	0.1	50.872
25965	6.4674	0.81818	0.1	80.213
25966	6.5598	0.72727	0.1	68.345
25967	6.4674	1.	0.1	97.26
25968	6.5598	0.90909	0.1	85.12
25969	6.4674	1.1818	0.1	113.37
25970	6.5598	1.0909	0.1	101.06
25971	6.4674	1.3636	0.1	128.41
25972	6.5598	1.2727	0.1	116.03
25973	6.4674	1.5455	0.1	142.25
25974	6.5598	1.4545	0.1	129.91
25975	6.4674	1.7273	0.1	154.78
25976	6.5598	1.6364	0.1	142.58
25977	6.4674	1.9091	0.1	165.88
25978	6.5598	1.8182	0.1	153.92
25979	6.4674	2.0909	0.1	175.45
25980	6.5598	2.	0.1	163.85
25981	6.4674	2.2727	0.1	183.4
25982	6.5598	2.1818	0.1	172.26
25983	6.4674	2.4545	0.1	189.66
25984	6.5598	2.3636	0.1	179.09
25985	6.4674	2.6364	0.1	194.18
25986	6.5598	2.5455	0.1	184.27
25987	6.4674	2.8182	0.1	196.91
25988	6.5598	2.7273	0.1	187.74
25989	6.4674	3.	0.1	197.82
25990	6.5598	2.9091	0.1	189.49
25991	6.4674	3.1818	0.1	196.91
25992	6.5598	3.0909	0.1	189.49
25993	6.4674	3.3636	0.1	194.18
25994	6.5598	3.2727	0.1	187.74
25995	6.4674	3.5455	0.1	189.66
25996	6.5598	3.4545	0.1	184.27
25997	6.4674	3.7273	0.1	183.4
25998	6.5598	3.6364	0.1	179.09
25999	6.4674	3.9091	0.1	175.45
26000	6.5598	3.8182	0.1	172.26
26001	6.4674	4.0909	0.1	165.88
26002	6.5598	4.	0.1	163.85
26003	6.4674	4.2727	0.1	154.78
26004	6.5598	4.1818	0.1	153.92
26005	6.4674	4.4545	0.1	142.25
26006	6.5598	4.3636	0.1	142.58
26007	6.4674	4.6364	0.1	128.41
26008	6.5598	4.5455	0.1	129.91
26009	6.4674	4.8182	0.1	113.37
26010	6.5598	4.7273	0.1	116.03
26011	6.4674	5.	0.1	97.26
26012	6.5598	4.9091	0.1	101.06
26013	6.4674	5.1818	0.1	80.213
26014	6.5598	5.0909	0.1	85.12
26015	6.4674	5.3636	0.1	62.371
26016	6.5598	5.2727	0.1	68.345
26017	6.4674	5.5455	0.1	43.845
26018	6.5598	5.4545	0.1	50.872
26019	6.4674	5.7273	0.1	24.634
26020	6.5598	5.6364	0.1	32.775
26021	6.5598	5.8182	0.1	13.961
26022	6.4674	5.9091	0.1	7.6121
26023	6.6522	0.27273	0.1	22.087
26024	6.7446	0.18182	0.1	12.2
26025	6.6522	9.0909e-002	0.1	6.5906
26026	6.6522	0.45455	0.1	39.801
26027	6.7446	0.36364	0.1	29.581
26028	6.6522	0.63636	0.1	56.845
26029	6.7446	0.54545	0.1	46.233
26030	6.6522	0.81818	0.1	73.25
26031	6.7446	0.72727	0.1	62.301
26032	6.6522	1.	0.1	88.916
26033	6.7446	0.90909	0.1	77.719
26034	6.6522	1.1818	0.1	103.71
26035	6.7446	1.0909	0.1	92.36
26036	6.6522	1.3636	0.1	117.52
26037	6.7446	1.2727	0.1	106.11
26038	6.6522	1.5455	0.1	130.23
26039	6.7446	1.4545	0.1	118.84
26040	6.6522	1.7273	0.1	141.72
26041	6.7446	1.6364	0.1	130.46
26042	6.6522	1.9091	0.1	151.89
26043	6.7446	1.8182	0.1	140.87
26044	6.6522	2.0909	0.1	160.66
26045	6.7446	2.	0.1	149.97
26046	6.6522	2.2727	0.1	167.95
26047	6.7446	2.1818	0.1	157.68
26048	6.6522	2.4545	0.1	173.69
26049	6.7446	2.3636	0.1	163.94
26050	6.6522	2.6364	0.1	177.83
26051	6.7446	2.5455	0.1	168.68
26052	6.6522	2.8182	0.1	180.33
26053	6.7446	2.7273	0.1	171.86
26054	6.6522	3.	0.1	181.16
26055	6.7446	2.9091	0.1	173.46
26056	6.6522	3.1818	0.1	180.33
26057	6.7446	3.0909	0.1	173.46
26058	6.6522	3.3636	0.1	177.83
26059	6.7446	3.2727	0.1	171.86
26060	6.6522	3.5455	0.1	173.69
26061	6.7446	3.4545	0.1	168.68
26062	6.6522	3.7273	0.1	167.95
26063	6.7446	3.6364	0.1	163.94
26064	6.6522	3.9091	0.1	160.66
26065	6.7446	3.8182	0.1	157.68
26066	6.6522	4.0909	0.1	151.89
26067	6.7446	4.	0.1	149.97
26068	6.6522	4.2727	0.1	141.72
26069	6.7446	4.1818	0.1	140.87
26070	6.6522	4.4545	0.1	130.23
26071	6.7446	4.3636	0.1	130.46
26072	6.6522	4.6364	0.1	117.52
26073	6.7446	4.5455	0.1	118.84
26074	6.6522	4.8182	0.1	103.71
26075	6.7446	4.7273	0.1	106.11
26076	6.6522	5.	0.1	88.916
26077	6.7446	4.9091	0.1	92.36
26078	6.6522	5.1818	0.1	73.25
26079	6.7446	5.0909	0.1	77.719
26080	6.6522	5.3636	0.1	56.845
26081	6.7446	5.2727	0.1	62.301
26082	6.6522	5.5455	0.1	39.801
26083	6.7446	5.4545	0.1	46.233
26084	6.6522	5.7273	0.1	22.087
26085	6.7446	5.6364	0.1	29.581
26086	6.7446	5.8182	0.1	12.2
26087	6.6522	5.9091	0.1	6.5906
26088	6.837	0.27273	0.1	19.683
26089	6.9293	0.18182	0.1	10.525
26090	6.837	9.0909e-002	0.1	5.6148
26091	6.837	0.45455	0.1	36.015
26092	6.9293	0.36364	0.1	26.584
26093	6.837	0.63636	0.1	51.69
26094	6.9293	0.54545	0.1	41.901
26095	6.837	0.81818	0.1	66.77
26096	6.9293	0.72727	0.1	56.671
26097	6.837	1.	0.1	81.162
26098	6.9293	0.90909	0.1	70.836
26099	6.837	1.1818	0.1	94.75
26100	6.9293	1.0909	0.1	84.281
26101	6.837	1.3636	0.1	107.42
26102	6.9293	1.2727	0.1	96.899
26103	6.837	1.5455	0.1	119.08
26104	6.9293	1.4545	0.1	108.59
26105	6.837	1.7273	0.1	129.62
26106	6.9293	1.6364	0.1	119.25
26107	6.837	1.9091	0.1	138.95
26108	6.9293	1.8182	0.1	128.79
26109	6.837	2.0909	0.1	146.99
26110	6.9293	2.	0.1	137.13
26111	6.837	2.2727	0.1	153.66
26112	6.9293	2.1818	0.1	144.19
26113	6.837	2.4545	0.1	158.92
26114	6.9293	2.3636	0.1	149.92
26115	6.837	2.6364	0.1	162.71
26116	6.9293	2.5455	0.1	154.27
26117	6.837	2.8182	0.1	165.
26118	6.9293	2.7273	0.1	157.18
26119	6.837	3.	0.1	165.77
26120	6.9293	2.9091	0.1	158.65
26121	6.837	3.1818	0.1	165.
26122	6.9293	3.0909	0.1	158.65
26123	6.837	3.3636	0.1	162.71
26124	6.9293	3.2727	0.1	157.18
26125	6.837	3.5455	0.1	158.92
26126	6.9293	3.4545	0.1	154.27
26127	6.837	3.7273	0.1	153.66
26128	6.9293	3.6364	0.1	149.92
26129	6.837	3.9091	0.1	146.99
26130	6.9293	3.8182	0.1	144.19
26131	6.837	4.0909	0.1	138.95
26132	6.9293	4.	0.1	137.13
26133	6.837	4.2727	0.1	129.62
26134	6.9293	4.1818	0.1	128.79
26135	6.837	4.4545	0.1	119.08
26136	6.9293	4.3636	0.1	119.25
26137	6.837	4.6364	0.1	107.42
26138	6.9293	4.5455	0.1	108.59
26139	6.837	4.8182	0.1	94.75
26140	6.9293	4.7273	0.1	96.899
26141	6.837	5.	0.1	81.162
26142	6.9293	4.9091	0.1	84.281
26143	6.837	5.1818	0.1	66.77
26144	6.9293	5.0909	0.1	70.836
26145	6.837	5.3636	0.1	51.69
26146	6.9293	5.2727	0.1	56.671
26147	6.837	5.5455	0.1	36.015
26148	6.9293	5.4545	0.1	41.901
26149	6.837	5.7273	0.1	19.683
26150	6.9293	5.6364	0.1	26.584
26151	6.9293	5.8182	0.1	10.525
26152	6.837	5.9091	0.1	5.6148
26153	7.0217	0.27273	0.1	17.417
26154	7.1141	0.18182	0.1	8.9348
26155	7.0217	9.0909e-002	0.1	4.6856
26156	7.0217	0.45455	0.1	32.473
26157	7.1141	0.36364	0.1	23.773
26158	7.0217	0.63636	0.1	46.884
26159	7.1141	0.54545	0.1	37.856
26160	7.0217	0.81818	0.1	60.739
26161	7.1141	0.72727	0.1	51.426
26162	7.0217	1.	0.1	73.956
26163	7.1141	0.90909	0.1	64.435
26164	7.0217	1.1818	0.1	86.43
26165	7.1141	1.0909	0.1	76.778
26166	7.0217	1.3636	0.1	98.061
26167	7.1141	1.2727	0.1	88.357
26168	7.0217	1.5455	0.1	108.75
26169	7.1141	1.4545	0.1	99.078
26170	7.0217	1.7273	0.1	118.41
26171	7.1141	1.6364	0.1	108.85
26172	7.0217	1.9091	0.1	126.97
26173	7.1141	1.8182	0.1	117.6
26174	7.0217	2.0909	0.1	134.33
26175	7.1141	2.	0.1	125.24
26176	7.0217	2.2727	0.1	140.45
26177	7.1141	2.1818	0.1	131.71
26178	7.0217	2.4545	0.1	145.27
26179	7.1141	2.3636	0.1	136.96
26180	7.0217	2.6364	0.1	148.74
26181	7.1141	2.5455	0.1	140.94
26182	7.0217	2.8182	0.1	150.83
26183	7.1141	2.7273	0.1	143.61
26184	7.0217	3.	0.1	151.53
26185	7.1141	2.9091	0.1	144.95
26186	7.0217	3.1818	0.1	150.83
26187	7.1141	3.0909	0.1	144.95
26188	7.0217	3.3636	0.1	148.74
26189	7.1141	3.2727	0.1	143.61
26190	7.0217	3.5455	0.1	145.27
26191	7.1141	3.4545	0.1	140.94
26192	7.0217	3.7273	0.1	140.45
26193	7.1141	3.6364	0.1	136.96
26194	7.0217	3.9091	0.1	134.33
26195	7.1141	3.8182	0.1	131.71
26196	7.0217	4.0909	0.1	126.97
26197	7.1141	4.	0.1	125.24
26198	7.0217	4.2727	0.1	118.41
26199	7.1141	4.1818	0.1	117.6
26200	7.0217	4.4545	0.1	108.75
26201	7.1141	4.3636	0.1	108.85
26202	7.0217	4.6364	0.1	98.061
26203	7.1141	4.5455	0.1	99.078
26204	7.0217	4.8182	0.1	86.43
26205	7.1141	4.7273	0.1	88.357
26206	7.0217	5.	0.1	73.956
26207	7.1141	4.9091	0.1	76.778
26208	7.0217	5.1818	0.1	60.739
26209	7.1141	5.0909	0.1	64.435
26210	7.0217	5.3636	0.1	46.884
26211	7.1141	5.2727	0.1	51.426
26212	7.0217	5.5455	0.1	32.473
26213	7.1141	5.4545	0.1	37.856
26214	7.0217	5.7273	0.1	17.417
26215	7.1141	5.6364	0.1	23.773
26216	7.1141	5.8182	0.1	8.9348
26217	7.0217	5.9091	0.1	4.6856
26218	7.2065	0.27273	0.1	15.283
26219	7.2989	0.18182	0.1	7.4285
26220	7.2065	9.0909e-002	0.1	3.8035
26221	7.2065	0.45455	0.1	29.161
26222	7.2989	0.36364	0.1	21.138
26223	7.2065	0.63636	0.1	42.403
26224	7.2989	0.54545	0.1	34.08
26225	7.2065	0.81818	0.1	55.127
26226	7.2989	0.72727	0.1	46.542
26227	7.2065	1.	0.1	67.26
26228	7.2989	0.90909	0.1	58.483
26229	7.2065	1.1818	0.1	78.707
26230	7.2989	1.0909	0.1	69.809
26231	7.2065	1.3636	0.1	89.375
26232	7.2989	1.2727	0.1	80.43
26233	7.2065	1.5455	0.1	99.178
26234	7.2989	1.4545	0.1	90.26
26235	7.2065	1.7273	0.1	108.04
26236	7.2989	1.6364	0.1	99.219
26237	7.2065	1.9091	0.1	115.87
26238	7.2989	1.8182	0.1	107.23
26239	7.2065	2.0909	0.1	122.62
26240	7.2989	2.	0.1	114.23
26241	7.2065	2.2727	0.1	128.23
26242	7.2989	2.1818	0.1	120.16
26243	7.2065	2.4545	0.1	132.64
26244	7.2989	2.3636	0.1	124.97
26245	7.2065	2.6364	0.1	135.82
26246	7.2989	2.5455	0.1	128.61
26247	7.2065	2.8182	0.1	137.73
26248	7.2989	2.7273	0.1	131.06
26249	7.2065	3.	0.1	138.38
26250	7.2989	2.9091	0.1	132.29
26251	7.2065	3.1818	0.1	137.73
26252	7.2989	3.0909	0.1	132.29
26253	7.2065	3.3636	0.1	135.82
26254	7.2989	3.2727	0.1	131.06
26255	7.2065	3.5455	0.1	132.64
26256	7.2989	3.4545	0.1	128.61
26257	7.2065	3.7273	0.1	128.23
26258	7.2989	3.6364	0.1	124.97
26259	7.2065	3.9091	0.1	122.62
26260	7.2989	3.8182	0.1	120.16
26261	7.2065	4.0909	0.1	115.87
26262	7.2989	4.	0.1	114.23
26263	7.2065	4.2727	0.1	108.04
26264	7.2989	4.1818	0.1	107.23
26265	7.2065	4.4545	0.1	99.178
26266	7.2989	4.3636	0.1	99.219
26267	7.2065	4.6364	0.1	89.375
26268	7.2989	4.5455	0.1	90.26
26269	7.2065	4.8182	0.1	78.707
26270	7.2989	4.7273	0.1	80.43
26271	7.2065	5.	0.1	67.26
26272	7.2989	4.9091	0.1	69.809
26273	7.2065	5.1818	0.1	55.126
26274	7.2989	5.0909	0.1	58.483
26275	7.2065	5.3636	0.1	42.403
26276	7.2989	5.2727	0.1	46.542
26277	7.2065	5.5455	0.1	29.161
26278	7.2989	5.4545	0.1	34.08
26279	7.2065	5.7273	0.1	15.283
26280	7.2989	5.6364	0.1	21.138
26281	7.2989	5.8182	0.1	7.4285
26282	7.2065	5.9091	0.1	3.8035
26283	7.3913	0.27273	0.1	13.275
26284	7.4837	0.18182	0.1	6.0047
26285	7.3913	9.0909e-002	0.1	2.9697
26286	7.3913	0.45455	0.1	26.064
26287	7.4837	0.36364	0.1	18.669
26288	7.3913	0.63636	0.1	38.226
26289	7.4837	0.54545	0.1	30.556
26290	7.3913	0.81818	0.1	49.904
26291	7.4837	0.72727	0.1	41.993
26292	7.3913	1.	0.1	61.037
26293	7.4837	0.90909	0.1	52.948
26294	7.3913	1.1818	0.1	71.535
26295	7.4837	1.0909	0.1	63.335
26296	7.3913	1.3636	0.1	81.317
26297	7.4837	1.2727	0.1	73.071
26298	7.3913	1.5455	0.1	90.302
26299	7.4837	1.4545	0.1	82.08
26300	7.3913	1.7273	0.1	98.418
26301	7.4837	1.6364	0.1	90.289
26302	7.3913	1.9091	0.1	105.6
26303	7.4837	1.8182	0.1	97.629
26304	7.3913	2.0909	0.1	111.78
26305	7.4837	2.	0.1	104.04
26306	7.3913	2.2727	0.1	116.91
26307	7.4837	2.1818	0.1	109.47
26308	7.3913	2.4545	0.1	120.95
26309	7.4837	2.3636	0.1	113.87
26310	7.3913	2.6364	0.1	123.86
26311	7.4837	2.5455	0.1	117.2
26312	7.3913	2.8182	0.1	125.61
26313	7.4837	2.7273	0.1	119.44
26314	7.3913	3.	0.1	126.2
26315	7.4837	2.9091	0.1	120.57
26316	7.3913	3.1818	0.1	125.61
26317	7.4837	3.0909	0.1	120.57
26318	7.3913	3.3636	0.1	123.86
26319	7.4837	3.2727	0.1	119.44
26320	7.3913	3.5455	0.1	120.95
26321	7.4837	3.4545	0.1	117.2
26322	7.3913	3.7273	0.1	116.91
26323	7.4837	3.6364	0.1	113.87
26324	7.3913	3.9091	0.1	111.78
26325	7.4837	3.8182	0.1	109.47
26326	7.3913	4.0909	0.1	105.6
26327	7.4837	4.	0.1	104.04
26328	7.3913	4.2727	0.1	98.418
26329	7.4837	4.1818	0.1	97.629
26330	7.3913	4.4545	0.1	90.302
26331	7.4837	4.3636	0.1	90.289
26332	7.3913	4.6364	0.1	81.317
26333	7.4837	4.5455	0.1	82.08
26334	7.3913	4.8182	0.1	71.535
26335	7.4837	4.7273	0.1	73.071
26336	7.3913	5.	0.1	61.037
26337	7.4837	4.9091	0.1	63.335
26338	7.3913	5.1818	0.1	49.904
26339	7.4837	5.0909	0.1	52.948
26340	7.3913	5.3636	0.1	38.225
26341	7.4837	5.2727	0.1	41.993
26342	7.3913	5.5455	0.1	26.064
26343	7.4837	5.4545	0.1	30.556
26344	7.3913	5.7273	0.1	13.275
26345	7.4837	5.6364	0.1	18.669
26346	7.4837	5.8182	0.1	6.0047
26347	7.3913	5.9091	0.1	2.9697
26348	7.5761	0.27273	0.1	11.387
26349	7.6685	0.18182	0.1	4.6627
26350	7.5761	9.0909e-002	0.1	2.1868
26351	7.5761	0.45455	0.1	23.17
26352	7.6685	0.36364	0.1	16.357
26353	7.5761	0.63636	0.1	34.331
26354	7.6685	0.54545	0.1	27.267
26355	7.5761	0.81818	0.1	45.044
26356	7.6685	0.72727	0.1	37.756
26357	7.5761	1.	0.1	55.251
26358	7.6685	0.90909	0.1	47.799
26359	7.5761	1.1818	0.1	64.875
26360	7.6685	1.0909	0.1	57.318
26361	7.5761	1.3636	0.1	73.838
26362	7.6685	1.2727	0.1	66.238
26363	7.5761	1.5455	0.1	82.07
26364	7.6685	1.4545	0.1	74.49
26365	7.5761	1.7273	0.1	89.503
26366	7.6685	1.6364	0.1	82.006
26367	7.5761	1.9091	0.1	96.076
26368	7.6685	1.8182	0.1	88.726
26369	7.5761	2.0909	0.1	101.73
26370	7.6685	2.	0.1	94.594
26371	7.5761	2.2727	0.1	106.43
26372	7.6685	2.1818	0.1	99.562
26373	7.5761	2.4545	0.1	110.13
26374	7.6685	2.3636	0.1	103.59
26375	7.5761	2.6364	0.1	112.79
26376	7.6685	2.5455	0.1	106.64
26377	7.5761	2.8182	0.1	114.4
26378	7.6685	2.7273	0.1	108.69
26379	7.5761	3.	0.1	114.93
26380	7.6685	2.9091	0.1	109.71
26381	7.5761	3.1818	0.1	114.4
26382	7.6685	3.0909	0.1	109.71
26383	7.5761	3.3636	0.1	112.79
26384	7.6685	3.2727	0.1	108.69
26385	7.5761	3.5455	0.1	110.13
26386	7.6685	3.4545	0.1	106.64
26387	7.5761	3.7273	0.1	106.43
26388	7.6685	3.6364	0.1	103.59
26389	7.5761	3.9091	0.1	101.73
26390	7.6685	3.8182	0.1	99.562
26391	7.5761	4.0909	0.1	96.076
26392	7.6685	4.	0.1	94.594
26393	7.5761	4.2727	0.1	89.503
26394	7.6685	4.1818	0.1	88.726
26395	7.5761	4.4545	0.1	82.07
26396	7.6685	4.3636	0.1	82.006
26397	7.5761	4.6364	0.1	73.838
26398	7.6685	4.5455	0.1	74.49
26399	7.5761	4.8182	0.1	64.875
26400	7.6685	4.7273	0.1	66.238
26401	7.5761	5.	0.1	55.251
26402	7.6685	4.9091	0.1	57.318
26403	7.5761	5.1818	0.1	45.044
26404	7.6685	5.0909	0.1	47.799
26405	7.5761	5.3636	0.1	34.331
26406	7.6685	5.2727	0.1	37.756
26407	7.5761	5.5455	0.1	23.17
26408	7.6685	5.4545	0.1	27.267
26409	7.5761	5.7273	0.1	11.387
26410	7.6685	5.6364	0.1	16.357
26411	7.6685	5.8182	0.1	4.6627
26412	7.5761	5.9091	0.1	2.1868
26413	7.7609	0.27273	0.1	9.6135
26414	7.8533	0.18182	0.1	3.4037
26415	7.7609	9.0909e-002	0.1	1.463
26416	7.7609	0.45455	0.1	20.464
26417	7.8533	0.36364	0.1	14.192
26418	7.7609	0.63636	0.1	30.7
26419	7.8533	0.54545	0.1	24.197
26420	7.7609	0.81818	0.1	40.519
26421	7.8533	0.72727	0.1	33.808
26422	7.7609	1.	0.1	49.872
26423	7.8533	0.90909	0.1	43.007
26424	7.7609	1.1818	0.1	58.687
26425	7.8533	1.0909	0.1	51.724
26426	7.7609	1.3636	0.1	66.895
26427	7.8533	1.2727	0.1	59.89
26428	7.7609	1.5455	0.1	74.43
26429	7.8533	1.4545	0.1	67.442
26430	7.7609	1.7273	0.1	81.234
26431	7.8533	1.6364	0.1	74.32
26432	7.7609	1.9091	0.1	87.248
26433	7.8533	1.8182	0.1	80.468
26434	7.7609	2.0909	0.1	92.426
26435	7.8533	2.	0.1	85.835
26436	7.7609	2.2727	0.1	96.723
26437	7.8533	2.1818	0.1	90.379
26438	7.7609	2.4545	0.1	100.1
26439	7.8533	2.3636	0.1	94.06
26440	7.7609	2.6364	0.1	102.54
26441	7.8533	2.5455	0.1	96.849
26442	7.7609	2.8182	0.1	104.01
26443	7.8533	2.7273	0.1	98.721
26444	7.7609	3.	0.1	104.5
26445	7.8533	2.9091	0.1	99.661
26446	7.7609	3.1818	0.1	104.01
26447	7.8533	3.0909	0.1	99.661
26448	7.7609	3.3636	0.1	102.54
26449	7.8533	3.2727	0.1	98.721
26450	7.7609	3.5455	0.1	100.1
26451	7.8533	3.4545	0.1	96.849
26452	7.7609	3.7273	0.1	96.723
26453	7.8533	3.6364	0.1	94.06
26454	7.7609	3.9091	0.1	92.426
26455	7.8533	3.8182	0.1	90.379
26456	7.7609	4.0909	0.1	87.248
26457	7.8533	4.	0.1	85.835
26458	7.7609	4.2727	0.1	81.234
26459	7.8533	4.1818	0.1	80.468
26460	7.7609	4.4545	0.1	74.43
26461	7.8533	4.3636	0.1	74.32
26462	7.7609	4.6364	0.1	66.895
26463	7.8533	4.5455	0.1	67.442
26464	7.7609	4.8182	0.1	58.687
26465	7.8533	4.7273	0.1	59.89
26466	7.7609	5.	0.1	49.872
26467	7.8533	4.9091	0.1	51.724
26468	7.7609	5.1818	0.1	40.519
26469	7.8533	5.0909	0.1	43.007
26470	7.7609	5.3636	0.1	30.7
26471	7.8533	5.2727	0.1	33.808
26472	7.7609	5.5455	0.1	20.464
26473	7.8533	5.4545	0.1	24.197
26474	7.7609	5.7273	0.1	9.6135
26475	7.8533	5.6364	0.1	14.192
26476	7.8533	5.8182	0.1	3.4037
26477	7.7609	5.9091	0.1	1.463
26478	7.9457	0.27273	0.1	7.9472
26479	8.038	0.18182	0.1	2.2363
26480	7.9457	9.0909e-002	0.1	0.82626
26481	7.9457	0.45455	0.1	17.935
26482	8.038	0.36364	0.1	12.164
26483	7.9457	0.63636	0.1	27.314
26484	8.038	0.54545	0.1	21.33
26485	7.9457	0.81818	0.1	36.305
26486	8.038	0.72727	0.1	30.128
26487	7.9457	1.	0.1	44.867
26488	8.038	0.90909	0.1	38.546
26489	7.9457	1.1818	0.1	52.934
26490	8.038	1.0909	0.1	46.52
26491	7.9457	1.3636	0.1	60.444
26492	8.038	1.2727	0.1	53.989
26493	7.9457	1.5455	0.1	67.338
26494	8.038	1.4545	0.1	60.895
26495	7.9457	1.7273	0.1	73.56
26496	8.038	1.6364	0.1	67.183
26497	7.9457	1.9091	0.1	79.06
26498	8.038	1.8182	0.1	72.803
26499	7.9457	2.0909	0.1	83.793
26500	8.038	2.	0.1	77.709
26501	7.9457	2.2727	0.1	87.721
26502	8.038	2.1818	0.1	81.86
26503	7.9457	2.4545	0.1	90.811
26504	8.038	2.3636	0.1	85.224
26505	7.9457	2.6364	0.1	93.036
26506	8.038	2.5455	0.1	87.772
26507	7.9457	2.8182	0.1	94.379
26508	8.038	2.7273	0.1	89.483
26509	7.9457	3.	0.1	94.828
26510	8.038	2.9091	0.1	90.342
26511	7.9457	3.1818	0.1	94.379
26512	8.038	3.0909	0.1	90.342
26513	7.9457	3.3636	0.1	93.036
26514	8.038	3.2727	0.1	89.483
26515	7.9457	3.5455	0.1	90.811
26516	8.038	3.4545	0.1	87.772
26517	7.9457	3.7273	0.1	87.721
26518	8.038	3.6364	0.1	85.224
26519	7.9457	3.9091	0.1	83.793
26520	8.038	3.8182	0.1	81.86
26521	7.9457	4.0909	0.1	79.06
26522	8.038	4.	0.1	77.709
26523	7.9457	4.2727	0.1	73.56
26524	8.038	4.1818	0.1	72.803
26525	7.9457	4.4545	0.1	67.338
26526	8.038	4.3636	0.1	67.183
26527	7.9457	4.6364	0.1	60.444
26528	8.038	4.5455	0.1	60.895
26529	7.9457	4.8182	0.1	52.934
26530	8.038	4.7273	0.1	53.989
26531	7.9457	5.	0.1	44.867
26532	8.038	4.9091	0.1	46.52
26533	7.9457	5.1818	0.1	36.305
26534	8.038	5.0909	0.1	38.546
26535	7.9457	5.3636	0.1	27.314
26536	8.038	5.2727	0.1	30.128
26537	7.9457	5.5455	0.1	17.935
26538	8.038	5.4545	0.1	21.33
26539	7.9457	5.7273	0.1	7.9472
26540	8.038	5.6364	0.1	12.164
26541	8.038	5.8182	0.1	2.2363
26542	7.9457	5.9091	0.1	0.82625
26543	8.1304	0.27273	0.1	6.3826
26544	8.2228	0.18182	0.1	1.1991
26545	8.1304	9.0909e-002	0.1	0.36494
26546	8.1304	0.45455	0.1	15.571
26547	8.2228	0.36364	0.1	10.265
26548	8.1304	0.63636	0.1	24.154
26549	8.2228	0.54545	0.1	18.652
26550	8.1304	0.81818	0.1	32.378
26551	8.2228	0.72727	0.1	26.696
26552	8.1304	1.	0.1	40.208
26553	8.2228	0.90909	0.1	34.39
26554	8.1304	1.1818	0.1	47.583
26555	8.2228	1.0909	0.1	41.676
26556	8.1304	1.3636	0.1	54.448
26557	8.2228	1.2727	0.1	48.5
26558	8.1304	1.5455	0.1	60.748
26559	8.2228	1.4545	0.1	54.808
26560	8.1304	1.7273	0.1	66.433
26561	8.2228	1.6364	0.1	60.551
26562	8.1304	1.9091	0.1	71.457
26563	8.2228	1.8182	0.1	65.683
26564	8.1304	2.0909	0.1	75.781
26565	8.2228	2.	0.1	70.162
26566	8.1304	2.2727	0.1	79.369
26567	8.2228	2.1818	0.1	73.952
26568	8.1304	2.4545	0.1	82.191
26569	8.2228	2.3636	0.1	77.023
26570	8.1304	2.6364	0.1	84.224
26571	8.2228	2.5455	0.1	79.349
26572	8.1304	2.8182	0.1	85.45
26573	8.2228	2.7273	0.1	80.911
26574	8.1304	3.	0.1	85.86
26575	8.2228	2.9091	0.1	81.694
26576	8.1304	3.1818	0.1	85.45
26577	8.2228	3.0909	0.1	81.694
26578	8.1304	3.3636	0.1	84.224
26579	8.2228	3.2727	0.1	80.91
26580	8.1304	3.5455	0.1	82.191
26581	8.2228	3.4545	0.1	79.349
26582	8.1304	3.7273	0.1	79.369
26583	8.2228	3.6364	0.1	77.023
26584	8.1304	3.9091	0.1	75.781
26585	8.2228	3.8182	0.1	73.952
26586	8.1304	4.0909	0.1	71.457
26587	8.2228	4.	0.1	70.162
26588	8.1304	4.2727	0.1	66.433
26589	8.2228	4.1818	0.1	65.683
26590	8.1304	4.4545	0.1	60.748
26591	8.2228	4.3636	0.1	60.551
26592	8.1304	4.6364	0.1	54.448
26593	8.2228	4.5455	0.1	54.808
26594	8.1304	4.8182	0.1	47.583
26595	8.2228	4.7273	0.1	48.5
26596	8.1304	5.	0.1	40.208
26597	8.2228	4.9091	0.1	41.676
26598	8.1304	5.1818	0.1	32.378
26599	8.2228	5.0909	0.1	34.39
26600	8.1304	5.3636	0.1	24.154
26601	8.2228	5.2727	0.1	26.695
26602	8.1304	5.5455	0.1	15.571
26603	8.2228	5.4545	0.1	18.652
26604	8.1304	5.7273	0.1	6.3825
26605	8.2228	5.6364	0.1	10.265
26606	8.2228	5.8182	0.1	1.1991
26607	8.1304	5.9091	0.1	0.36494
26608	8.3152	0.27273	0.1	4.9139
26609	8.4076	0.18182	0.1	0.45992
26610	8.3152	9.0909e-002	0.1	0.15391
26611	8.3152	0.45455	0.1	13.359
26612	8.4076	0.36364	0.1	8.4848
26613	8.3152	0.63636	0.1	21.205
26614	8.4076	0.54545	0.1	16.149
26615	8.3152	0.81818	0.1	28.717
26616	8.4076	0.72727	0.1	23.492
26617	8.3152	1.	0.1	35.868
26618	8.4076	0.90909	0.1	30.514
26619	8.3152	1.1818	0.1	42.602
26620	8.4076	1.0909	0.1	37.163
26621	8.3152	1.3636	0.1	48.869
26622	8.4076	1.2727	0.1	43.389
26623	8.3152	1.5455	0.1	54.619
26624	8.4076	1.4545	0.1	49.144
26625	8.3152	1.7273	0.1	59.808
26626	8.4076	1.6364	0.1	54.382
26627	8.3152	1.9091	0.1	64.394
26628	8.4076	1.8182	0.1	59.062
26629	8.3152	2.0909	0.1	68.339
26630	8.4076	2.	0.1	63.147
26631	8.3152	2.2727	0.1	71.613
26632	8.4076	2.1818	0.1	66.604
26633	8.3152	2.4545	0.1	74.188
26634	8.4076	2.3636	0.1	69.404
26635	8.3152	2.6364	0.1	76.042
26636	8.4076	2.5455	0.1	71.525
26637	8.3152	2.8182	0.1	77.161
26638	8.4076	2.7273	0.1	72.949
26639	8.3152	3.	0.1	77.535
26640	8.4076	2.9091	0.1	73.664
26641	8.3152	3.1818	0.1	77.161
26642	8.4076	3.0909	0.1	73.664
26643	8.3152	3.3636	0.1	76.042
26644	8.4076	3.2727	0.1	72.949
26645	8.3152	3.5455	0.1	74.188
26646	8.4076	3.4545	0.1	71.525
26647	8.3152	3.7273	0.1	71.613
26648	8.4076	3.6364	0.1	69.404
26649	8.3152	3.9091	0.1	68.339
26650	8.4076	3.8182	0.1	66.604
26651	8.3152	4.0909	0.1	64.394
26652	8.4076	4.	0.1	63.147
26653	8.3152	4.2727	0.1	59.808
26654	8.4076	4.1818	0.1	59.062
26655	8.3152	4.4545	0.1	54.619
26656	8.4076	4.3636	0.1	54.382
26657	8.3152	4.6364	0.1	48.869
26658	8.4076	4.5455	0.1	49.144
26659	8.3152	4.8182	0.1	42.602
26660	8.4076	4.7273	0.1	43.389
26661	8.3152	5.	0.1	35.868
26662	8.4076	4.9091	0.1	37.163
26663	8.3152	5.1818	0.1	28.717
26664	8.4076	5.0909	0.1	30.514
26665	8.3152	5.3636	0.1	21.205
26666	8.4076	5.2727	0.1	23.492
26667	8.3152	5.5455	0.1	13.359
26668	8.4076	5.4545	0.1	16.149
26669	8.3152	5.7273	0.1	4.9139
26670	8.4076	5.6364	0.1	8.4848
26671	8.4076	5.8182	0.1	0.45992
26672	8.3152	5.9091	0.1	0.15391
26673	8.5	0.27273	0.1	3.5363
26674	8.5924	0.18182	0.1	0.17731
26675	8.5	9.0909e-002	0.1	7.718e-002
26676	8.5	0.45455	0.1	11.289
26677	8.5924	0.36364	0.1	6.816
26678	8.5	0.63636	0.1	18.449
26679	8.5924	0.54545	0.1	13.808
26680	8.5	0.81818	0.1	25.301
26681	8.5924	0.72727	0.1	20.499
26682	8.5	1.	0.1	31.821
26683	8.5924	0.90909	0.1	26.897
26684	8.5	1.1818	0.1	37.96
26685	8.5924	1.0909	0.1	32.954
26686	8.5	1.3636	0.1	43.673
26687	8.5924	1.2727	0.1	38.625
26688	8.5	1.5455	0.1	48.915
26689	8.5924	1.4545	0.1	43.867
26690	8.5	1.7273	0.1	53.644
26691	8.5924	1.6364	0.1	48.637
26692	8.5	1.9091	0.1	57.823
26693	8.5924	1.8182	0.1	52.9
26694	8.5	2.0909	0.1	61.419
26695	8.5924	2.	0.1	56.62
26696	8.5	2.2727	0.1	64.403
26697	8.5924	2.1818	0.1	59.768
26698	8.5	2.4545	0.1	66.749
26699	8.5924	2.3636	0.1	62.319
26700	8.5	2.6364	0.1	68.439
26701	8.5924	2.5455	0.1	64.25
26702	8.5	2.8182	0.1	69.459
26703	8.5924	2.7273	0.1	65.547
26704	8.5	3.	0.1	69.8
26705	8.5924	2.9091	0.1	66.198
26706	8.5	3.1818	0.1	69.459
26707	8.5924	3.0909	0.1	66.198
26708	8.5	3.3636	0.1	68.439
26709	8.5924	3.2727	0.1	65.547
26710	8.5	3.5455	0.1	66.749
26711	8.5924	3.4545	0.1	64.25
26712	8.5	3.7273	0.1	64.403
26713	8.5924	3.6364	0.1	62.319
26714	8.5	3.9091	0.1	61.419
26715	8.5924	3.8182	0.1	59.768
26716	8.5	4.0909	0.1	57.823
26717	8.5924	4.	0.1	56.62
26718	8.5	4.2727	0.1	53.644
26719	8.5924	4.1818	0.1	52.9
26720	8.5	4.4545	0.1	48.915
26721	8.5924	4.3636	0.1	48.637
26722	8.5	4.6364	0.1	43.673
26723	8.5924	4.5455	0.1	43.867
26724	8.5	4.8182	0.1	37.96
26725	8.5924	4.7273	0.1	38.625
26726	8.5	5.	0.1	31.821
26727	8.5924	4.9091	0.1	32.954
26728	8.5	5.1818	0.1	25.301
26729	8.5924	5.0909	0.1	26.897
26730	8.5	5.3636	0.1	18.449
26731	8.5924	5.2727	0.1	20.499
26732	8.5	5.5455	0.1	11.289
26733	8.5924	5.4545	0.1	13.808
26734	8.5	5.7273	0.1	3.5363
26735	8.5924	5.6364	0.1	6.816
26736	8.5924	5.8182	0.1	0.17731
26737	8.5	5.9091	0.1	7.7181e-002
26738	8.6848	0.27273	0.1	2.2471
26739	8.7772	0.18182	0.1	9.0858e-002
26740	8.6848	9.0909e-002	0.1	4.4083e-002
26741	8.6848	0.45455	0.1	9.3495
26742	8.7772	0.36364	0.1	5.2502
26743	8.6848	0.63636	0.1	15.872
26744	8.7772	0.54545	0.1	11.615
26745	8.6848	0.81818	0.1	22.109
26746	8.7772	0.72727	0.1	17.7
26747	8.6848	1.	0.1	28.043
26748	8.7772	0.90909	0.1	23.517
26749	8.6848	1.1818	0.1	33.63
26750	8.7772	1.0909	0.1	29.024
26751	8.6848	1.3636	0.1	38.829
26752	8.7772	1.2727	0.1	34.179
26753	8.6848	1.5455	0.1	43.598
26754	8.7772	1.4545	0.1	38.944
26755	8.6848	1.7273	0.1	47.902
26756	8.7772	1.6364	0.1	43.281
26757	8.6848	1.9091	0.1	51.705
26758	8.7772	1.8182	0.1	47.156
26759	8.6848	2.0909	0.1	54.977
26760	8.7772	2.	0.1	50.539
26761	8.6848	2.2727	0.1	57.692
26762	8.7772	2.1818	0.1	53.401
26763	8.6848	2.4545	0.1	59.827
26764	8.7772	2.3636	0.1	55.72
26765	8.6848	2.6364	0.1	61.365
26766	8.7772	2.5455	0.1	57.477
26767	8.6848	2.8182	0.1	62.293
26768	8.7772	2.7273	0.1	58.656
26769	8.6848	3.	0.1	62.604
26770	8.7772	2.9091	0.1	59.248
26771	8.6848	3.1818	0.1	62.293
26772	8.7772	3.0909	0.1	59.248
26773	8.6848	3.3636	0.1	61.365
26774	8.7772	3.2727	0.1	58.656
26775	8.6848	3.5455	0.1	59.827
26776	8.7772	3.4545	0.1	57.477
26777	8.6848	3.7273	0.1	57.692
26778	8.7772	3.6364	0.1	55.72
26779	8.6848	3.9091	0.1	54.977
26780	8.7772	3.8182	0.1	53.401
26781	8.6848	4.0909	0.1	51.705
26782	8.7772	4.	0.1	50.539
26783	8.6848	4.2727	0.1	47.902
26784	8.7772	4.1818	0.1	47.156
26785	8.6848	4.4545	0.1	43.598
26786	8.7772	4.3636	0.1	43.281
26787	8.6848	4.6364	0.1	38.829
26788	8.7772	4.5455	0.1	38.944
26789	8.6848	4.8182	0.1	33.63
26790	8.7772	4.7273	0.1	34.179
26791	8.6848	5.	0.1	28.043
26792	8.7772	4.9091	0.1	29.024
26793	8.6848	5.1818	0.1	22.109
26794	8.7772	5.0909	0.1	23.517
26795	8.6848	5.3636	0.1	15.872
26796	8.7772	5.2727	0.1	17.7
26797	8.6848	5.5455	0.1	9.3495
26798	8.7772	5.4545	0.1	11.615
26799	8.6848	5.7273	0.1	2.2471
26800	8.7772	5.6364	0.1	5.2502
26801	8.7772	5.8182	0.1	9.0858e-002
26802	8.6848	5.9091	0.1	4.4083e-002
26803	8.8696	0.27273	0.1	1.0567
26804	8.962	0.18182	0.1	5.5069e-002
26805	8.8696	9.0909e-002	0.1	2.7074e-002
26806	8.8696	0.45455	0.1	7.5311
26807	8.962	0.36364	0.1	3.7797
26808	8.8696	0.63636	0.1	13.458
26809	8.962	0.54545	0.1	9.5591
26810	8.8696	0.81818	0.1	19.122
26811	8.962	0.72727	0.1	15.078
26812	8.8696	1.	0.1	24.511
26813	8.962	0.90909	0.1	20.354
26814	8.8696	1.1818	0.1	29.584
26815	8.962	1.0909	0.1	25.347
26816	8.8696	1.3636	0.1	34.305
26817	8.962	1.2727	0.1	30.023
26818	8.8696	1.5455	0.1	38.636
26819	8.962	1.4545	0.1	34.344
26820	8.8696	1.7273	0.1	42.545
26821	8.962	1.6364	0.1	38.279
26822	8.8696	1.9091	0.1	45.999
26823	8.962	1.8182	0.1	41.795
26824	8.8696	2.0909	0.1	48.972
26825	8.962	2.	0.1	44.864
26826	8.8696	2.2727	0.1	51.438
26827	8.962	2.1818	0.1	47.462
26828	8.8696	2.4545	0.1	53.378
26829	8.962	2.3636	0.1	49.567
26830	8.8696	2.6364	0.1	54.775
26831	8.962	2.5455	0.1	51.161
26832	8.8696	2.8182	0.1	55.619
26833	8.962	2.7273	0.1	52.232
26834	8.8696	3.	0.1	55.9
26835	8.962	2.9091	0.1	52.769
26836	8.8696	3.1818	0.1	55.619
26837	8.962	3.0909	0.1	52.769
26838	8.8696	3.3636	0.1	54.775
26839	8.962	3.2727	0.1	52.232
26840	8.8696	3.5455	0.1	53.378
26841	8.962	3.4545	0.1	51.161
26842	8.8696	3.7273	0.1	51.438
26843	8.962	3.6364	0.1	49.567
26844	8.8696	3.9091	0.1	48.972
26845	8.962	3.8182	0.1	47.462
26846	8.8696	4.0909	0.1	45.999
26847	8.962	4.	0.1	44.864
26848	8.8696	4.2727	0.1	42.545
26849	8.962	4.1818	0.1	41.795
26850	8.8696	4.4545	0.1	38.636
26851	8.962	4.3636	0.1	38.279
26852	8.8696	4.6364	0.1	34.305
26853	8.962	4.5455	0.1	34.344
26854	8.8696	4.8182	0.1	29.584
26855	8.962	4.7273	0.1	30.023
26856	8.8696	5.	0.1	24.511
26857	8.962	4.9091	0.1	25.347
26858	8.8696	5.1818	0.1	19.122
26859	8.962	5.0909	0.1	20.354
26860	8.8696	5.3636	0.1	13.458
26861	8.962	5.2727	0.1	15.078
26862	8.8696	5.5455	0.1	7.531
26863	8.962	5.4545	0.1	9.5591
26864	8.8696	5.7273	0.1	1.0566
26865	8.962	5.6364	0.1	3.7797
26866	8.962	5.8182	0.1	5.5069e-002
26867	8.8696	5.9091	0.1	2.7075e-002
26868	9.0543	0.27273	0.1	0.17515
26869	9.1467	0.18182	0.1	3.6504e-002
26870	9.0543	9.0909e-002	0.1	1.732e-002
26871	9.0543	0.45455	0.1	5.8236
26872	9.1467	0.36364	0.1	2.3969
26873	9.0543	0.63636	0.1	11.195
26874	9.1467	0.54545	0.1	7.6282
26875	9.0543	0.81818	0.1	16.324
26876	9.1467	0.72727	0.1	12.618
26877	9.0543	1.	0.1	21.203
26878	9.1467	0.90909	0.1	17.387
26879	9.0543	1.1818	0.1	25.798
26880	9.1467	1.0909	0.1	21.902
26881	9.0543	1.3636	0.1	30.074
26882	9.1467	1.2727	0.1	26.13
26883	9.0543	1.5455	0.1	33.998
26884	9.1467	1.4545	0.1	30.039
26885	9.0543	1.7273	0.1	37.539
26886	9.1467	1.6364	0.1	33.599
26887	9.0543	1.9091	0.1	40.67
26888	9.1467	1.8182	0.1	36.781
26889	9.0543	2.0909	0.1	43.364
26890	9.1467	2.	0.1	39.56
26891	9.0543	2.2727	0.1	45.6
26892	9.1467	2.1818	0.1	41.912
26893	9.0543	2.4545	0.1	47.359
26894	9.1467	2.3636	0.1	43.819
26895	9.0543	2.6364	0.1	48.627
26896	9.1467	2.5455	0.1	45.263
26897	9.0543	2.8182	0.1	49.391
26898	9.1467	2.7273	0.1	46.233
26899	9.0543	3.	0.1	49.647
26900	9.1467	2.9091	0.1	46.72
26901	9.0543	3.1818	0.1	49.391
26902	9.1467	3.0909	0.1	46.72
26903	9.0543	3.3636	0.1	48.627
26904	9.1467	3.2727	0.1	46.233
26905	9.0543	3.5455	0.1	47.359
26906	9.1467	3.4545	0.1	45.263
26907	9.0543	3.7273	0.1	45.6
26908	9.1467	3.6364	0.1	43.819
26909	9.0543	3.9091	0.1	43.364
26910	9.1467	3.8182	0.1	41.912
26911	9.0543	4.0909	0.1	40.67
26912	9.1467	4.	0.1	39.56
26913	9.0543	4.2727	0.1	37.539
26914	9.1467	4.1818	0.1	36.781
26915	9.0543	4.4545	0.1	33.998
26916	9.1467	4.3636	0.1	33.599
26917	9.0543	4.6364	0.1	30.074
26918	9.1467	4.5455	0.1	30.039
26919	9.0543	4.8182	0.1	25.798
26920	9.1467	4.7273	0.1	26.13
26921	9.0543	5.	0.1	21.203
26922	9.1467	4.9091	0.1	21.902
26923	9.0543	5.1818	0.1	16.324
26924	9.1467	5.0909	0.1	17.387
26925	9.0543	5.3636	0.1	11.195
26926	9.1467	5.2727	0.1	12.618
26927	9.0543	5.5455	0.1	5.8236
26928	9.1467	5.4545	0.1	7.6282
26929	9.0543	5.7273	0.1	0.17514
26930	9.1467	5.6364	0.1	2.3969
26931	9.1467	5.8182	0.1	3.6505e-002
26932	9.0543	5.9091	0.1	1.7321e-002
26933	9.2391	0.27273	0.1	3.0294e-002
26934	9.3315	0.18182	0.1	2.5504e-002
26935	9.2391	9.0909e-002	0.1	1.1328e-002
26936	9.2391	0.45455	0.1	4.2177
26937	9.3315	0.36364	0.1	1.0953
26938	9.2391	0.63636	0.1	9.0678
26939	9.3315	0.54545	0.1	5.8112
26940	9.2391	0.81818	0.1	13.696
26941	9.3315	0.72727	0.1	10.305
26942	9.2391	1.	0.1	18.1
26943	9.3315	0.90909	0.1	14.6
26944	9.2391	1.1818	0.1	22.248
26945	9.3315	1.0909	0.1	18.667
26946	9.2391	1.3636	0.1	26.108
26947	9.3315	1.2727	0.1	22.477
26948	9.2391	1.5455	0.1	29.653
26949	9.3315	1.4545	0.1	26.001
26950	9.2391	1.7273	0.1	32.852
26951	9.3315	1.6364	0.1	29.212
26952	9.2391	1.9091	0.1	35.682
26953	9.3315	1.8182	0.1	32.083
26954	9.2391	2.0909	0.1	38.118
26955	9.3315	2.	0.1	34.592
26956	9.2391	2.2727	0.1	40.141
26957	9.3315	2.1818	0.1	36.717
26958	9.2391	2.4545	0.1	41.733
26959	9.3315	2.3636	0.1	38.439
26960	9.2391	2.6364	0.1	42.879
26961	9.3315	2.5455	0.1	39.745
26962	9.2391	2.8182	0.1	43.572
26963	9.3315	2.7273	0.1	40.622
26964	9.2391	3.	0.1	43.803
26965	9.3315	2.9091	0.1	41.062
26966	9.2391	3.1818	0.1	43.572
26967	9.3315	3.0909	0.1	41.062
26968	9.2391	3.3636	0.1	42.879
26969	9.3315	3.2727	0.1	40.622
26970	9.2391	3.5455	0.1	41.733
26971	9.3315	3.4545	0.1	39.745
26972	9.2391	3.7273	0.1	40.141
26973	9.3315	3.6364	0.1	38.439
26974	9.2391	3.9091	0.1	38.118
26975	9.3315	3.8182	0.1	36.717
26976	9.2391	4.0909	0.1	35.682
26977	9.3315	4.	0.1	34.592
26978	9.2391	4.2727	0.1	32.852
26979	9.3315	4.1818	0.1	32.083
26980	9.2391	4.4545	0.1	29.653
26981	9.3315	4.3636	0.1	29.212
26982	9.2391	4.6364	0.1	26.108
26983	9.3315	4.5455	0.1	26.001
26984	9.2391	4.8182	0.1	22.248
26985	9.3315	4.7273	0.1	22.477
26986	9.2391	5.	0.1	18.1
26987	9.3315	4.9091	0.1	18.667
26988	9.2391	5.1818	0.1	13.696
26989	9.3315	5.0909	0.1	14.6
26990	9.2391	5.3636	0.1	9.0678
26991	9.3315	5.2727	0.1	10.305
26992	9.2391	5.5455	0.1	4.2177
26993	9.3315	5.4545	0.1	5.8112
26994	9.2391	5.7273	0.1	3.0295e-002
26995	9.3315	5.6364	0.1	1.0953
26996	9.3315	5.8182	0.1	2.5506e-002
26997	9.2391	5.9091	0.1	1.1329e-002
26998	9.4239	0.27273	0.1	9.7589e-003
26999	9.5163	0.18182	0.1	1.8423e-002
27000	9.4239	9.0909e-002	0.1	7.5064e-003
27001	9.4239	0.45455	0.1	2.7043
27002	9.5163	0.36364	0.1	4.1982e-003
27003	9.4239	0.63636	0.1	7.065
27004	9.5163	0.54545	0.1	4.0974
27005	9.4239	0.81818	0.1	11.224
27006	9.5163	0.72727	0.1	8.1242
27007	9.4239	1.	0.1	15.181
27008	9.5163	0.90909	0.1	11.973
27009	9.4239	1.1818	0.1	18.91
27010	9.5163	1.0909	0.1	15.621
27011	9.4239	1.3636	0.1	22.383
27012	9.5163	1.2727	0.1	19.039
27013	9.4239	1.5455	0.1	25.573
27014	9.5163	1.4545	0.1	22.204
27015	9.4239	1.7273	0.1	28.455
27016	9.5163	1.6364	0.1	25.089
27017	9.4239	1.9091	0.1	31.005
27018	9.5163	1.8182	0.1	27.671
27019	9.4239	2.0909	0.1	33.201
27020	9.5163	2.	0.1	29.929
27021	9.4239	2.2727	0.1	35.026
27022	9.5163	2.1818	0.1	31.842
27023	9.4239	2.4545	0.1	36.462
27024	9.5163	2.3636	0.1	33.394
27025	9.4239	2.6364	0.1	37.497
27026	9.5163	2.5455	0.1	34.571
27027	9.4239	2.8182	0.1	38.122
27028	9.5163	2.7273	0.1	35.362
27029	9.4239	3.	0.1	38.331
27030	9.5163	2.9091	0.1	35.759
27031	9.4239	3.1818	0.1	38.122
27032	9.5163	3.0909	0.1	35.759
27033	9.4239	3.3636	0.1	37.497
27034	9.5163	3.2727	0.1	35.362
27035	9.4239	3.5455	0.1	36.462
27036	9.5163	3.4545	0.1	34.571
27037	9.4239	3.7273	0.1	35.026
27038	9.5163	3.6364	0.1	33.394
27039	9.4239	3.9091	0.1	33.201
27040	9.5163	3.8182	0.1	31.842
27041	9.4239	4.0909	0.1	31.005
27042	9.5163	4.	0.1	29.929
27043	9.4239	4.2727	0.1	28.455
27044	9.5163	4.1818	0.1	27.671
27045	9.4239	4.4545	0.1	25.573
27046	9.5163	4.3636	0.1	25.089
27047	9.4239	4.6364	0.1	22.383
27048	9.5163	4.5455	0.1	22.204
27049	9.4239	4.8182	0.1	18.91
27050	9.5163	4.7273	0.1	19.039
27051	9.4239	5.	0.1	15.181
27052	9.5163	4.9091	0.1	15.621
27053	9.4239	5.1818	0.1	11.224
27054	9.5163	5.0909	0.1	11.973
27055	9.4239	5.3636	0.1	7.0649
27056	9.5163	5.2727	0.1	8.1242
27057	9.4239	5.5455	0.1	2.7043
27058	9.5163	5.4545	0.1	4.0974
27059	9.4239	5.7273	0.1	9.7602e-003
27060	9.5163	5.6364	0.1	4.1985e-003
27061	9.5163	5.8182	0.1	1.8424e-002
27062	9.4239	5.9091	0.1	7.5077e-003
27063	9.6087	0.27273	0.1	3.304e-003
27064	9.7011	0.18182	0.1	1.3605e-002
27065	9.6087	9.0909e-002	0.1	5.0247e-003
27066	9.6087	0.45455	0.1	1.2746
27067	9.7011	0.36364	0.1	-1.1228e-002
27068	9.6087	0.63636	0.1	5.1738
27069	9.7011	0.54545	0.1	2.4763
27070	9.6087	0.81818	0.1	8.8901
27071	9.7011	0.72727	0.1	6.0621
27072	9.6087	1.	0.1	12.428
27073	9.7011	0.90909	0.1	9.4914
27074	9.6087	1.1818	0.1	15.764
27075	9.7011	1.0909	0.1	12.743
27076	9.6087	1.3636	0.1	18.874
27077	9.7011	1.2727	0.1	15.795
27078	9.6087	1.5455	0.1	21.733
27079	9.7011	1.4545	0.1	18.622
27080	9.6087	1.7273	0.1	24.318
27081	9.7011	1.6364	0.1	21.203
27082	9.6087	1.9091	0.1	26.607
27083	9.7011	1.8182	0.1	23.516
27084	9.6087	2.0909	0.1	28.581
27085	9.7011	2.	0.1	25.54
27086	9.6087	2.2727	0.1	30.222
27087	9.7011	2.1818	0.1	27.257
27088	9.6087	2.4545	0.1	31.514
27089	9.7011	2.3636	0.1	28.651
27090	9.6087	2.6364	0.1	32.446
27091	9.7011	2.5455	0.1	29.709
27092	9.6087	2.8182	0.1	33.009
27093	9.7011	2.7273	0.1	30.42
27094	9.6087	3.	0.1	33.197
27095	9.7011	2.9091	0.1	30.777
27096	9.6087	3.1818	0.1	33.009
27097	9.7011	3.0909	0.1	30.777
27098	9.6087	3.3636	0.1	32.446
27099	9.7011	3.2727	0.1	30.42
27100	9.6087	3.5455	0.1	31.514
27101	9.7011	3.4545	0.1	29.709
27102	9.6087	3.7273	0.1	30.222
27103	9.7011	3.6364	0.1	28.651
27104	9.6087	3.9091	0.1	28.581
27105	9.7011	3.8182	0.1	27.257
27106	9.6087	4.0909	0.1	26.607
27107	9.7011	4.	0.1	25.54
27108	9.6087	4.2727	0.1	24.318
27109	9.7011	4.1818	0.1	23.516
27110	9.6087	4.4545	0.1	21.733
27111	9.7011	4.3636	0.1	21.203
27112	9.6087	4.6364	0.1	18.874
27113	9.7011	4.5455	0.1	18.622
27114	9.6087	4.8182	0.1	15.764
27115	9.7011	4.7273	0.1	15.795
27116	9.6087	5.	0.1	12.428
27117	9.7011	4.9091	0.1	12.743
27118	9.6087	5.1818	0.1	8.89
27119	9.7011	5.0909	0.1	9.4914
27120	9.6087	5.3636	0.1	5.1738
27121	9.7011	5.2727	0.1	6.0621
27122	9.6087	5.5455	0.1	1.2746
27123	9.7011	5.4545	0.1	2.4763
27124	9.6087	5.7273	0.1	3.305e-003
27125	9.7011	5.6364	0.1	-1.1227e-002
27126	9.7011	5.8182	0.1	1.3606e-002
27127	9.6087	5.9091	0.1	5.0254e-003
27128	9.7935	0.27273	0.1	8.3974e-004
27129	9.8859	0.18182	0.1	1.0191e-002
27130	9.7935	9.0909e-002	0.1	3.4152e-003
27131	9.7935	0.45455	0.1	-5.1763e-003
27132	9.8859	0.36364	0.1	-9.5363e-003
27133	9.7935	0.63636	0.1	3.3825
27134	9.8859	0.54545	0.1	0.939
27135	9.7935	0.81818	0.1	6.6802
27136	9.8859	0.72727	0.1	4.1054
27137	9.7935	1.	0.1	9.8226
27138	9.8859	0.90909	0.1	7.1371
27139	9.7935	1.1818	0.1	12.789
27140	9.8859	1.0909	0.1	10.016
27141	9.7935	1.3636	0.1	15.558
27142	9.8859	1.2727	0.1	12.722
27143	9.7935	1.5455	0.1	18.107
27144	9.8859	1.4545	0.1	15.233
27145	9.7935	1.7273	0.1	20.414
27146	9.8859	1.6364	0.1	17.529
27147	9.7935	1.9091	0.1	22.461
27148	9.8859	1.8182	0.1	19.59
27149	9.7935	2.0909	0.1	24.228
27150	9.8859	2.	0.1	21.397
27151	9.7935	2.2727	0.1	25.698
27152	9.8859	2.1818	0.1	22.932
27153	9.7935	2.4545	0.1	26.857
27154	9.8859	2.3636	0.1	24.18
27155	9.7935	2.6364	0.1	27.694
27156	9.8859	2.5455	0.1	25.127
27157	9.7935	2.8182	0.1	28.2
27158	9.8859	2.7273	0.1	25.765
27159	9.7935	3.	0.1	28.369
27160	9.8859	2.9091	0.1	26.086
27161	9.7935	3.1818	0.1	28.2
27162	9.8859	3.0909	0.1	26.086
27163	9.7935	3.3636	0.1	27.694
27164	9.8859	3.2727	0.1	25.765
27165	9.7935	3.5455	0.1	26.857
27166	9.8859	3.4545	0.1	25.127
27167	9.7935	3.7273	0.1	25.698
27168	9.8859	3.6364	0.1	24.18
27169	9.7935	3.9091	0.1	24.228
27170	9.8859	3.8182	0.1	22.932
27171	9.7935	4.0909	0.1	22.461
27172	9.8859	4.	0.1	21.397
27173	9.7935	4.2727	0.1	20.414
27174	9.8859	4.1818	0.1	19.59
27175	9.7935	4.4545	0.1	18.107
27176	9.8859	4.3636	0.1	17.529
27177	9.7935	4.6364	0.1	15.558
27178	9.8859	4.5455	0.1	15.233
27179	9.7935	4.8182	0.1	12.789
27180	9.8859	4.7273	0.1	12.722
27181	9.7935	5.	0.1	9.8226
27182	9.8859	4.9091	0.1	10.016
27183	9.7935	5.1818	0.1	6.6802
27184	9.8859	5.0909	0.1	7.1371
27185	9.7935	5.3636	0.1	3.3825
27186	9.8859	5.2727	0.1	4.1053
27187	9.7935	5.5455	0.1	-5.1765e-003
27188	9.8859	5.4545	0.1	0.93896
27189	9.7935	5.7273	0.1	8.4087e-004
27190	9.8859	5.6364	0.1	-9.5354e-003
27191	9.8859	5.8182	0.1	1.0193e-002
27192	9.7935	5.9091	0.1	3.4162e-003
27193	9.9783	0.27273	0.1	-7.6788e-006
27194	10.071	0.18182	0.1	7.6863e-003
27195	9.9783	9.0909e-002	0.1	2.3819e-003
27196	9.9783	0.45455	0.1	-4.9991e-003
27197	10.071	0.36364	0.1	-7.3182e-003
27198	9.9783	0.63636	0.1	1.6802
27199	10.071	0.54545	0.1	3.7887e-003
27200	9.9783	0.81818	0.1	4.5796
27201	10.071	0.72727	0.1	2.2414
27202	9.9783	1.	0.1	7.3471
27203	10.071	0.90909	0.1	4.8945
27204	9.9783	1.1818	0.1	9.9645
27205	10.071	1.0909	0.1	7.42
27206	9.9783	1.3636	0.1	12.412
27207	10.071	1.2727	0.1	9.7991
27208	9.9783	1.5455	0.1	14.67
27209	10.071	1.4545	0.1	12.013
27210	9.9783	1.7273	0.1	16.719
27211	10.071	1.6364	0.1	14.043
27212	9.9783	1.9091	0.1	18.54
27213	10.071	1.8182	0.1	15.869
27214	9.9783	2.0909	0.1	20.114
27215	10.071	2.	0.1	17.474
27216	9.9783	2.2727	0.1	21.426
27217	10.071	2.1818	0.1	18.84
27218	9.9783	2.4545	0.1	22.463
27219	10.071	2.3636	0.1	19.952
27220	9.9783	2.6364	0.1	23.211
27221	10.071	2.5455	0.1	20.799
27222	9.9783	2.8182	0.1	23.664
27223	10.071	2.7273	0.1	21.369
27224	9.9783	3.	0.1	23.815
27225	10.071	2.9091	0.1	21.655
27226	9.9783	3.1818	0.1	23.664
27227	10.071	3.0909	0.1	21.655
27228	9.9783	3.3636	0.1	23.211
27229	10.071	3.2727	0.1	21.369
27230	9.9783	3.5455	0.1	22.463
27231	10.071	3.4545	0.1	20.799
27232	9.9783	3.7273	0.1	21.426
27233	10.071	3.6364	0.1	19.952
27234	9.9783	3.9091	0.1	20.114
27235	10.071	3.8182	0.1	18.84
27236	9.9783	4.0909	0.1	18.54
27237	10.071	4.	0.1	17.474
27238	9.9783	4.2727	0.1	16.719
27239	10.071	4.1818	0.1	15.869
27240	9.9783	4.4545	0.1	14.67
27241	10.071	4.3636	0.1	14.043
27242	9.9783	4.6364	0.1	12.412
27243	10.071	4.5455	0.1	12.013
27244	9.9783	4.8182	0.1	9.9644
27245	10.071	4.7273	0.1	9.7991
27246	9.9783	5.	0.1	7.3471
27247	10.071	4.9091	0.1	7.4199
27248	9.9783	5.1818	0.1	4.5796
27249	10.071	5.0909	0.1	4.8945
27250	9.9783	5.3636	0.1	1.6802
27251	10.071	5.2727	0.1	2.2413
27252	9.9783	5.5455	0.1	-4.9984e-003
27253	10.071	5.4545	0.1	3.7886e-003
27254	9.9783	5.7273	0.1	-6.5328e-006
27255	10.071	5.6364	0.1	-7.3173e-003
27256	10.071	5.8182	0.1	7.6874e-003
27257	9.9783	5.9091	0.1	2.3828e-003
27258	10.163	0.27273	0.1	-8.2743e-005
27259	10.255	0.18182	0.1	5.8038e-003
27260	10.163	9.0909e-002	0.1	1.7231e-003
27261	10.163	0.45455	0.1	-3.4924e-003
27262	10.255	0.36364	0.1	-5.0403e-003
27263	10.163	0.63636	0.1	0.10562
27264	10.255	0.54545	0.1	5.0571e-004
27265	10.163	0.81818	0.1	2.5742
27266	10.255	0.72727	0.1	0.46874
27267	10.163	1.	0.1	4.9844
27268	10.255	0.90909	0.1	2.7484
27269	10.163	1.1818	0.1	7.2709
27270	10.255	1.0909	0.1	4.9368
27271	10.163	1.3636	0.1	9.4157
27272	10.255	1.2727	0.1	7.0066
27273	10.163	1.5455	0.1	11.401
27274	10.255	1.4545	0.1	8.9403
27275	10.163	1.7273	0.1	13.207
27276	10.255	1.6364	0.1	10.72
27277	10.163	1.9091	0.1	14.817
27278	10.255	1.8182	0.1	12.327
27279	10.163	2.0909	0.1	16.213
27280	10.255	2.	0.1	13.744
27281	10.163	2.2727	0.1	17.379
27282	10.255	2.1818	0.1	14.954
27283	10.163	2.4545	0.1	18.302
27284	10.255	2.3636	0.1	15.942
27285	10.163	2.6364	0.1	18.969
27286	10.255	2.5455	0.1	16.696
27287	10.163	2.8182	0.1	19.373
27288	10.255	2.7273	0.1	17.204
27289	10.163	3.	0.1	19.509
27290	10.255	2.9091	0.1	17.459
27291	10.163	3.1818	0.1	19.373
27292	10.255	3.0909	0.1	17.459
27293	10.163	3.3636	0.1	18.969
27294	10.255	3.2727	0.1	17.203
27295	10.163	3.5455	0.1	18.302
27296	10.255	3.4545	0.1	16.696
27297	10.163	3.7273	0.1	17.379
27298	10.255	3.6364	0.1	15.942
27299	10.163	3.9091	0.1	16.213
27300	10.255	3.8182	0.1	14.954
27301	10.163	4.0909	0.1	14.817
27302	10.255	4.	0.1	13.744
27303	10.163	4.2727	0.1	13.207
27304	10.255	4.1818	0.1	12.327
27305	10.163	4.4545	0.1	11.401
27306	10.255	4.3636	0.1	10.72
27307	10.163	4.6364	0.1	9.4157
27308	10.255	4.5455	0.1	8.9403
27309	10.163	4.8182	0.1	7.2709
27310	10.255	4.7273	0.1	7.0066
27311	10.163	5.	0.1	4.9844
27312	10.255	4.9091	0.1	4.9367
27313	10.163	5.1818	0.1	2.5742
27314	10.255	5.0909	0.1	2.7483
27315	10.163	5.3636	0.1	0.1056
27316	10.255	5.2727	0.1	0.46871
27317	10.163	5.5455	0.1	-3.4916e-003
27318	10.255	5.4545	0.1	5.0603e-004
27319	10.163	5.7273	0.1	-8.1756e-005
27320	10.255	5.6364	0.1	-5.0392e-003
27321	10.255	5.8182	0.1	5.8046e-003
27322	10.163	5.9091	0.1	1.7241e-003
27323	10.348	0.27273	0.1	2.8183e-004
27324	10.44	0.18182	0.1	4.3733e-003
27325	10.348	9.0909e-002	0.1	1.3429e-003
27326	10.348	0.45455	0.1	-2.0317e-003
27327	10.44	0.36364	0.1	-2.7775e-003
27328	10.348	0.63636	0.1	2.7835e-003
27329	10.44	0.54545	0.1	4.6685e-004
27330	10.348	0.81818	0.1	0.6585
27331	10.44	0.72727	0.1	5.1086e-003
27332	10.348	1.	0.1	2.7183
27333	10.44	0.90909	0.1	0.69203
27334	10.348	1.1818	0.1	4.6893
27335	10.44	1.0909	0.1	2.5491
27336	10.348	1.3636	0.1	6.5474
27337	10.44	1.2727	0.1	4.3242
27338	10.348	1.5455	0.1	8.2752
27339	10.44	1.4545	0.1	5.993
27340	10.348	1.7273	0.1	9.8549
27341	10.44	1.6364	0.1	7.5379
27342	10.348	1.9091	0.1	11.269
27343	10.44	1.8182	0.1	8.9409
27344	10.348	2.0909	0.1	12.5
27345	10.44	2.	0.1	10.184
27346	10.348	2.2727	0.1	13.531
27347	10.44	2.1818	0.1	11.251
27348	10.348	2.4545	0.1	14.35
27349	10.44	2.3636	0.1	12.125
27350	10.348	2.6364	0.1	14.943
27351	10.44	2.5455	0.1	12.793
27352	10.348	2.8182	0.1	15.303
27353	10.44	2.7273	0.1	13.245
27354	10.348	3.	0.1	15.423
27355	10.44	2.9091	0.1	13.472
27356	10.348	3.1818	0.1	15.303
27357	10.44	3.0909	0.1	13.472
27358	10.348	3.3636	0.1	14.943
27359	10.44	3.2727	0.1	13.245
27360	10.348	3.5455	0.1	14.35
27361	10.44	3.4545	0.1	12.793
27362	10.348	3.7273	0.1	13.531
27363	10.44	3.6364	0.1	12.125
27364	10.348	3.9091	0.1	12.5
27365	10.44	3.8182	0.1	11.251
27366	10.348	4.0909	0.1	11.269
27367	10.44	4.	0.1	10.184
27368	10.348	4.2727	0.1	9.8549
27369	10.44	4.1818	0.1	8.9409
27370	10.348	4.4545	0.1	8.2751
27371	10.44	4.3636	0.1	7.5379
27372	10.348	4.6364	0.1	6.5473
27373	10.44	4.5455	0.1	5.993
27374	10.348	4.8182	0.1	4.6893
27375	10.44	4.7273	0.1	4.3242
27376	10.348	5.	0.1	2.7183
27377	10.44	4.9091	0.1	2.5491
27378	10.348	5.1818	0.1	0.65846
27379	10.44	5.0909	0.1	0.69199
27380	10.348	5.3636	0.1	2.784e-003
27381	10.44	5.2727	0.1	5.1095e-003
27382	10.348	5.5455	0.1	-2.0311e-003
27383	10.44	5.4545	0.1	4.6729e-004
27384	10.348	5.7273	0.1	2.8274e-004
27385	10.44	5.6364	0.1	-2.7767e-003
27386	10.44	5.8182	0.1	4.3742e-003
27387	10.348	5.9091	0.1	1.344e-003
27388	10.533	0.27273	0.1	9.1082e-004
27389	10.625	0.18182	0.1	3.2936e-003
27390	10.533	9.0909e-002	0.1	1.1568e-003
27391	10.533	0.45455	0.1	-6.3049e-004
27392	10.625	0.36364	0.1	-5.3139e-004
27393	10.533	0.63636	0.1	1.2322e-003
27394	10.625	0.54545	0.1	7.5503e-004
27395	10.533	0.81818	0.1	6.6046e-003
27396	10.625	0.72727	0.1	1.6273e-003
27397	10.533	1.	0.1	0.54568
27398	10.625	0.90909	0.1	6.1649e-003
27399	10.533	1.1818	0.1	2.2017
27400	10.625	1.0909	0.1	0.27271
27401	10.533	1.3636	0.1	3.7866
27402	10.625	1.2727	0.1	1.7338
27403	10.533	1.5455	0.1	5.2718
27404	10.625	1.4545	0.1	3.1502
27405	10.533	1.7273	0.1	6.6395
27406	10.625	1.6364	0.1	4.4746
27407	10.533	1.9091	0.1	7.8714
27408	10.625	1.8182	0.1	5.6875
27409	10.533	2.0909	0.1	8.95
27410	10.625	2.	0.1	6.7705
27411	10.533	2.2727	0.1	9.8586
27412	10.625	2.1818	0.1	7.7055
27413	10.533	2.4545	0.1	10.582
27414	10.625	2.3636	0.1	8.476
27415	10.533	2.6364	0.1	11.108
27416	10.625	2.5455	0.1	9.0676
27417	10.533	2.8182	0.1	11.428
27418	10.625	2.7273	0.1	9.4686
27419	10.533	3.	0.1	11.535
27420	10.625	2.9091	0.1	9.6712
27421	10.533	3.1818	0.1	11.428
27422	10.625	3.0909	0.1	9.6712
27423	10.533	3.3636	0.1	11.108
27424	10.625	3.2727	0.1	9.4686
27425	10.533	3.5455	0.1	10.582
27426	10.625	3.4545	0.1	9.0675
27427	10.533	3.7273	0.1	9.8586
27428	10.625	3.6364	0.1	8.476
27429	10.533	3.9091	0.1	8.95
27430	10.625	3.8182	0.1	7.7055
27431	10.533	4.0909	0.1	7.8714
27432	10.625	4.	0.1	6.7705
27433	10.533	4.2727	0.1	6.6394
27434	10.625	4.1818	0.1	5.6875
27435	10.533	4.4545	0.1	5.2718
27436	10.625	4.3636	0.1	4.4745
27437	10.533	4.6364	0.1	3.7865
27438	10.625	4.5455	0.1	3.1502
27439	10.533	4.8182	0.1	2.2017
27440	10.625	4.7273	0.1	1.7338
27441	10.533	5.	0.1	0.54565
27442	10.625	4.9091	0.1	0.27268
27443	10.533	5.1818	0.1	6.6056e-003
27444	10.625	5.0909	0.1	6.1658e-003
27445	10.533	5.3636	0.1	1.2332e-003
27446	10.625	5.2727	0.1	1.6285e-003
27447	10.533	5.5455	0.1	-6.2983e-004
27448	10.625	5.4545	0.1	7.5557e-004
27449	10.533	5.7273	0.1	9.1165e-004
27450	10.625	5.6364	0.1	-5.3058e-004
27451	10.625	5.8182	0.1	3.2944e-003
27452	10.533	5.9091	0.1	1.1579e-003
27453	10.717	0.27273	0.1	1.7466e-003
27454	10.81	0.18182	0.1	2.5015e-003
27455	10.717	9.0909e-002	0.1	1.1387e-003
27456	10.717	0.45455	0.1	7.5015e-004
27457	10.81	0.36364	0.1	1.7177e-003
27458	10.717	0.63636	0.1	1.0172e-003
27459	10.81	0.54545	0.1	1.1354e-003
27460	10.717	0.81818	0.1	1.6979e-003
27461	10.81	0.72727	0.1	9.5257e-004
27462	10.717	1.	0.1	4.5032e-003
27463	10.81	0.90909	0.1	1.1469e-003
27464	10.717	1.1818	0.1	3.9341e-002
27465	10.81	1.0909	0.1	2.3587e-003
27466	10.717	1.3636	0.1	1.1167
27467	10.81	1.2727	0.1	8.6575e-003
27468	10.717	1.5455	0.1	2.3698
27469	10.81	1.4545	0.1	0.4059
27470	10.717	1.7273	0.1	3.5387
27471	10.81	1.6364	0.1	1.5094
27472	10.717	1.9091	0.1	4.6022
27473	10.81	1.8182	0.1	2.5449
27474	10.717	2.0909	0.1	5.5413
27475	10.81	2.	0.1	3.4807
27476	10.717	2.2727	0.1	6.338
27477	10.81	2.1818	0.1	4.2965
27478	10.717	2.4545	0.1	6.9762
27479	10.81	2.3636	0.1	4.974
27480	10.717	2.6364	0.1	7.4423
27481	10.81	2.5455	0.1	5.4974
27482	10.717	2.8182	0.1	7.7263
27483	10.81	2.7273	0.1	5.8538
27484	10.717	3.	0.1	7.8217
27485	10.81	2.9091	0.1	6.0342
27486	10.717	3.1818	0.1	7.7263
27487	10.81	3.0909	0.1	6.0342
27488	10.717	3.3636	0.1	7.4423
27489	10.81	3.2727	0.1	5.8537
27490	10.717	3.5455	0.1	6.9762
27491	10.81	3.4545	0.1	5.4974
27492	10.717	3.7273	0.1	6.3379
27493	10.81	3.6364	0.1	4.974
27494	10.717	3.9091	0.1	5.5412
27495	10.81	3.8182	0.1	4.2965
27496	10.717	4.0909	0.1	4.6021
27497	10.81	4.	0.1	3.4806
27498	10.717	4.2727	0.1	3.5386
27499	10.81	4.1818	0.1	2.5448
27500	10.717	4.4545	0.1	2.3698
27501	10.81	4.3636	0.1	1.5094
27502	10.717	4.6364	0.1	1.1167
27503	10.81	4.5455	0.1	0.40587
27504	10.717	4.8182	0.1	3.9336e-002
27505	10.81	4.7273	0.1	8.6574e-003
27506	10.717	5.	0.1	4.5039e-003
27507	10.81	4.9091	0.1	2.3592e-003
27508	10.717	5.1818	0.1	1.6991e-003
27509	10.81	5.0909	0.1	1.148e-003
27510	10.717	5.3636	0.1	1.018e-003
27511	10.81	5.2727	0.1	9.5384e-004
27512	10.717	5.5455	0.1	7.5085e-004
27513	10.81	5.4545	0.1	1.1357e-003
27514	10.717	5.7273	0.1	1.7475e-003
27515	10.81	5.6364	0.1	1.7187e-003
27516	10.81	5.8182	0.1	2.5026e-003
27517	10.717	5.9091	0.1	1.1392e-003
27518	10.902	0.27273	0.1	2.7386e-003
27519	10.995	0.18182	0.1	1.9409e-003
27520	10.902	9.0909e-002	0.1	1.2424e-003
27521	10.902	0.45455	0.1	2.1149e-003
27522	10.995	0.36364	0.1	3.9767e-003
27523	10.902	0.63636	0.1	1.1063e-003
27524	10.995	0.54545	0.1	1.5347e-003
27525	10.902	0.81818	0.1	6.3242e-004
27526	10.995	0.72727	0.1	8.0409e-004
27527	10.902	1.	0.1	3.4563e-004
27528	10.995	0.90909	0.1	-7.1803e-005
27529	10.902	1.1818	0.1	5.122e-004
27530	10.995	1.0909	0.1	-6.9722e-004
27531	10.902	1.3636	0.1	1.8058e-003
27532	10.995	1.2727	0.1	-1.1205e-003
27533	10.902	1.5455	0.1	1.0694e-002
27534	10.995	1.4545	0.1	-1.221e-003
27535	10.902	1.7273	0.1	0.53733
27536	10.995	1.6364	0.1	-6.6253e-004
27537	10.902	1.9091	0.1	1.44
27538	10.995	1.8182	0.1	3.0866e-003
27539	10.902	2.0909	0.1	2.2516
27540	10.995	2.	0.1	0.30037
27541	10.902	2.2727	0.1	2.948
27542	10.995	2.1818	0.1	1.0029
27543	10.902	2.4545	0.1	3.5104
27544	10.995	2.3636	0.1	1.598
27545	10.902	2.6364	0.1	3.9238
27546	10.995	2.5455	0.1	2.0619
27547	10.902	2.8182	0.1	4.1767
27548	10.995	2.7273	0.1	2.3798
27549	10.902	3.	0.1	4.2618
27550	10.995	2.9091	0.1	2.5414
27551	10.902	3.1818	0.1	4.1767
27552	10.995	3.0909	0.1	2.5414
27553	10.902	3.3636	0.1	3.9238
27554	10.995	3.2727	0.1	2.3798
27555	10.902	3.5455	0.1	3.5104
27556	10.995	3.4545	0.1	2.0619
27557	10.902	3.7273	0.1	2.9479
27558	10.995	3.6364	0.1	1.598
27559	10.902	3.9091	0.1	2.2516
27560	10.995	3.8182	0.1	1.0029
27561	10.902	4.0909	0.1	1.4399
27562	10.995	4.	0.1	0.30035
27563	10.902	4.2727	0.1	0.53731
27564	10.995	4.1818	0.1	3.087e-003
27565	10.902	4.4545	0.1	1.0694e-002
27566	10.995	4.3636	0.1	-6.6238e-004
27567	10.902	4.6364	0.1	1.8064e-003
27568	10.995	4.5455	0.1	-1.2205e-003
27569	10.902	4.8182	0.1	5.1259e-004
27570	10.995	4.7273	0.1	-1.1199e-003
27571	10.902	5.	0.1	3.4643e-004
27572	10.995	4.9091	0.1	-6.9664e-004
27573	10.902	5.1818	0.1	6.3367e-004
27574	10.995	5.0909	0.1	-7.0456e-005
27575	10.902	5.3636	0.1	1.107e-003
27576	10.995	5.2727	0.1	8.0552e-004
27577	10.902	5.5455	0.1	2.1155e-003
27578	10.995	5.4545	0.1	1.5346e-003
27579	10.902	5.7273	0.1	2.74e-003
27580	10.995	5.6364	0.1	3.9774e-003
27581	10.995	5.8182	0.1	1.9421e-003
27582	10.902	5.9091	0.1	1.2437e-003
27583	11.087	0.27273	0.1	3.8557e-003
27584	11.179	0.18182	0.1	1.5733e-003
27585	11.087	9.0909e-002	0.1	1.4279e-003
27586	11.087	0.45455	0.1	3.4608e-003
27587	11.179	0.36364	0.1	6.2549e-003
27588	11.087	0.63636	0.1	1.2836e-003
27589	11.179	0.54545	0.1	1.9159e-003
27590	11.087	0.81818	0.1	2.2155e-004
27591	11.179	0.72727	0.1	8.108e-004
27592	11.087	1.	0.1	-8.2981e-004
27593	11.179	0.90909	0.1	-6.445e-004
27594	11.087	1.1818	0.1	-1.6646e-003
27595	11.179	1.0909	0.1	-1.7412e-003
27596	11.087	1.3636	0.1	-2.3321e-003
27597	11.179	1.2727	0.1	-2.6604e-003
27598	11.087	1.5455	0.1	-2.8232e-003
27599	11.179	1.4545	0.1	-3.3754e-003
27600	11.087	1.7273	0.1	-3.1427e-003
27601	11.179	1.6364	0.1	-3.919e-003
27602	11.087	1.9091	0.1	-3.269e-003
27603	11.179	1.8182	0.1	-4.3209e-003
27604	11.087	2.0909	0.1	-3.077e-003
27605	11.179	2.	0.1	-4.6122e-003
27606	11.087	2.2727	0.1	-1.5254e-003
27607	11.179	2.1818	0.1	-4.825e-003
27608	11.087	2.4545	0.1	0.16824
27609	11.179	2.3636	0.1	-4.9925e-003
27610	11.087	2.6364	0.1	0.53364
27611	11.179	2.5455	0.1	-5.1446e-003
27612	11.087	2.8182	0.1	0.75994
27613	11.179	2.7273	0.1	-5.2868e-003
27614	11.087	3.	0.1	0.83637
27615	11.179	2.9091	0.1	-5.3882e-003
27616	11.087	3.1818	0.1	0.75994
27617	11.179	3.0909	0.1	-5.388e-003
27618	11.087	3.3636	0.1	0.53363
27619	11.179	3.2727	0.1	-5.2868e-003
27620	11.087	3.5455	0.1	0.16823
27621	11.179	3.4545	0.1	-5.1441e-003
27622	11.087	3.7273	0.1	-1.5253e-003
27623	11.179	3.6364	0.1	-4.9923e-003
27624	11.087	3.9091	0.1	-3.0768e-003
27625	11.179	3.8182	0.1	-4.8243e-003
27626	11.087	4.0909	0.1	-3.2687e-003
27627	11.179	4.	0.1	-4.612e-003
27628	11.087	4.2727	0.1	-3.1423e-003
27629	11.179	4.1818	0.1	-4.3205e-003
27630	11.087	4.4545	0.1	-2.8231e-003
27631	11.179	4.3636	0.1	-3.9188e-003
27632	11.087	4.6364	0.1	-2.3317e-003
27633	11.179	4.5455	0.1	-3.3747e-003
27634	11.087	4.8182	0.1	-1.6638e-003
27635	11.179	4.7273	0.1	-2.6597e-003
27636	11.087	5.	0.1	-8.2869e-004
27637	11.179	4.9091	0.1	-1.7405e-003
27638	11.087	5.1818	0.1	2.2307e-004
27639	11.179	5.0909	0.1	-6.4308e-004
27640	11.087	5.3636	0.1	1.2842e-003
27641	11.179	5.2727	0.1	8.1205e-004
27642	11.087	5.5455	0.1	3.4608e-003
27643	11.179	5.4545	0.1	1.9163e-003
27644	11.087	5.7273	0.1	3.8563e-003
27645	11.179	5.6364	0.1	6.2555e-003
27646	11.179	5.8182	0.1	1.5739e-003
27647	11.087	5.9091	0.1	1.4292e-003
27648	11.272	0.27273	0.1	5.083e-003
27649	11.364	0.18182	0.1	1.3549e-003
27650	11.272	9.0909e-002	0.1	1.6674e-003
27651	11.272	0.45455	0.1	4.7886e-003
27652	11.364	0.36364	0.1	8.5446e-003
27653	11.272	0.63636	0.1	1.4706e-003
27654	11.364	0.54545	0.1	2.2356e-003
27655	11.272	0.81818	0.1	-9.8568e-007
27656	11.364	0.72727	0.1	8.2804e-004
27657	11.272	1.	0.1	-1.4563e-003
27658	11.364	0.90909	0.1	-1.0623e-003
27659	11.272	1.1818	0.1	-2.5779e-003
27660	11.364	1.0909	0.1	-2.4016e-003
27661	11.272	1.3636	0.1	-3.4693e-003
27662	11.364	1.2727	0.1	-3.4813e-003
27663	11.272	1.5455	0.1	-4.1383e-003
27664	11.364	1.4545	0.1	-4.2747e-003
27665	11.272	1.7273	0.1	-4.6242e-003
27666	11.364	1.6364	0.1	-4.8383e-003
27667	11.272	1.9091	0.1	-4.9628e-003
27668	11.364	1.8182	0.1	-5.2148e-003
27669	11.272	2.0909	0.1	-5.1881e-003
27670	11.364	2.	0.1	-5.4471e-003
27671	11.272	2.2727	0.1	-5.3314e-003
27672	11.364	2.1818	0.1	-5.5737e-003
27673	11.272	2.4545	0.1	-5.4209e-003
27674	11.364	2.3636	0.1	-5.6297e-003
27675	11.272	2.6364	0.1	-5.4748e-003
27676	11.364	2.5455	0.1	-5.6468e-003
27677	11.272	2.8182	0.1	-5.5038e-003
27678	11.364	2.7273	0.1	-5.6436e-003
27679	11.272	3.	0.1	-5.5133e-003
27680	11.364	2.9091	0.1	-5.6385e-003
27681	11.272	3.1818	0.1	-5.5039e-003
27682	11.364	3.0909	0.1	-5.6385e-003
27683	11.272	3.3636	0.1	-5.4746e-003
27684	11.364	3.2727	0.1	-5.6439e-003
27685	11.272	3.5455	0.1	-5.4203e-003
27686	11.364	3.4545	0.1	-5.6463e-003
27687	11.272	3.7273	0.1	-5.3307e-003
27688	11.364	3.6364	0.1	-5.6294e-003
27689	11.272	3.9091	0.1	-5.1873e-003
27690	11.364	3.8182	0.1	-5.5729e-003
27691	11.272	4.0909	0.1	-4.9625e-003
27692	11.364	4.	0.1	-5.4469e-003
27693	11.272	4.2727	0.1	-4.6239e-003
27694	11.364	4.1818	0.1	-5.2148e-003
27695	11.272	4.4545	0.1	-4.1375e-003
27696	11.364	4.3636	0.1	-4.8379e-003
27697	11.272	4.6364	0.1	-3.4683e-003
27698	11.364	4.5455	0.1	-4.274e-003
27699	11.272	4.8182	0.1	-2.5773e-003
27700	11.364	4.7273	0.1	-3.4804e-003
27701	11.272	5.	0.1	-1.4553e-003
27702	11.364	4.9091	0.1	-2.4013e-003
27703	11.272	5.1818	0.1	1.7108e-007
27704	11.364	5.0909	0.1	-1.0608e-003
27705	11.272	5.3636	0.1	1.4716e-003
27706	11.364	5.2727	0.1	8.2916e-004
27707	11.272	5.5455	0.1	4.7896e-003
27708	11.364	5.4545	0.1	2.2361e-003
27709	11.272	5.7273	0.1	5.0836e-003
27710	11.364	5.6364	0.1	8.5454e-003
27711	11.364	5.8182	0.1	1.3552e-003
27712	11.272	5.9091	0.1	1.6677e-003
27713	11.457	0.27273	0.1	6.3747e-003
27714	11.549	0.18182	0.1	1.2927e-003
27715	11.457	9.0909e-002	0.1	1.8903e-003
27716	11.457	0.45455	0.1	6.0576e-003
27717	11.549	0.36364	0.1	1.088e-002
27718	11.457	0.63636	0.1	1.5818e-003
27719	11.549	0.54545	0.1	2.4899e-003
27720	11.457	0.81818	0.1	-2.2991e-004
27721	11.549	0.72727	0.1	8.1146e-004
27722	11.457	1.	0.1	-1.983e-003
27723	11.549	0.90909	0.1	-1.4607e-003
27724	11.457	1.1818	0.1	-3.2605e-003
27725	11.549	1.0909	0.1	-2.9741e-003
27726	11.457	1.3636	0.1	-4.2267e-003
27727	11.549	1.2727	0.1	-4.1465e-003
27728	11.457	1.5455	0.1	-4.9046e-003
27729	11.549	1.4545	0.1	-4.9575e-003
27730	11.457	1.7273	0.1	-5.3546e-003
27731	11.549	1.6364	0.1	-5.4939e-003
27732	11.457	1.9091	0.1	-5.6267e-003
27733	11.549	1.8182	0.1	-5.8127e-003
27734	11.457	2.0909	0.1	-5.7684e-003
27735	11.549	2.	0.1	-5.9722e-003
27736	11.457	2.2727	0.1	-5.8216e-003
27737	11.549	2.1818	0.1	-6.0223e-003
27738	11.457	2.4545	0.1	-5.8237e-003
27739	11.549	2.3636	0.1	-6.0074e-003
27740	11.457	2.6364	0.1	-5.8034e-003
27741	11.549	2.5455	0.1	-5.9651e-003
27742	11.457	2.8182	0.1	-5.7818e-003
27743	11.549	2.7273	0.1	-5.9203e-003
27744	11.457	3.	0.1	-5.7732e-003
27745	11.549	2.9091	0.1	-5.8931e-003
27746	11.457	3.1818	0.1	-5.782e-003
27747	11.549	3.0909	0.1	-5.8929e-003
27748	11.457	3.3636	0.1	-5.8034e-003
27749	11.549	3.2727	0.1	-5.9204e-003
27750	11.457	3.5455	0.1	-5.8235e-003
27751	11.549	3.4545	0.1	-5.9649e-003
27752	11.457	3.7273	0.1	-5.8213e-003
27753	11.549	3.6364	0.1	-6.0072e-003
27754	11.457	3.9091	0.1	-5.7682e-003
27755	11.549	3.8182	0.1	-6.022e-003
27756	11.457	4.0909	0.1	-5.6267e-003
27757	11.549	4.	0.1	-5.9723e-003
27758	11.457	4.2727	0.1	-5.3544e-003
27759	11.549	4.1818	0.1	-5.8124e-003
27760	11.457	4.4545	0.1	-4.9043e-003
27761	11.549	4.3636	0.1	-5.4934e-003
27762	11.457	4.6364	0.1	-4.2261e-003
27763	11.549	4.5455	0.1	-4.9575e-003
27764	11.457	4.8182	0.1	-3.26e-003
27765	11.549	4.7273	0.1	-4.1459e-003
27766	11.457	5.	0.1	-1.9821e-003
27767	11.549	4.9091	0.1	-2.9738e-003
27768	11.457	5.1818	0.1	-2.2839e-004
27769	11.549	5.0909	0.1	-1.4591e-003
27770	11.457	5.3636	0.1	1.5824e-003
27771	11.549	5.2727	0.1	8.1265e-004
27772	11.457	5.5455	0.1	6.0578e-003
27773	11.549	5.4545	0.1	2.4902e-003
27774	11.457	5.7273	0.1	6.3752e-003
27775	11.549	5.6364	0.1	1.0881e-002
27776	11.549	5.8182	0.1	1.2936e-003
27777	11.457	5.9091	0.1	1.8912e-003
27778	11.641	0.27273	0.1	7.8123e-003
27779	11.734	0.18182	0.1	1.437e-003
27780	11.641	9.0909e-002	0.1	2.1499e-003
27781	11.641	0.45455	0.1	7.343e-003
27782	11.734	0.36364	0.1	1.3328e-002
27783	11.641	0.63636	0.1	1.6612e-003
27784	11.734	0.54545	0.1	2.7046e-003
27785	11.641	0.81818	0.1	-4.594e-004
27786	11.734	0.72727	0.1	7.6899e-004
27787	11.641	1.	0.1	-2.4713e-003
27788	11.734	0.90909	0.1	-1.8667e-003
27789	11.641	1.1818	0.1	-3.8634e-003
27790	11.734	1.0909	0.1	-3.5268e-003
27791	11.641	1.3636	0.1	-4.87e-003
27792	11.734	1.2727	0.1	-4.7679e-003
27793	11.641	1.5455	0.1	-5.5336e-003
27794	11.734	1.4545	0.1	-5.58e-003
27795	11.641	1.7273	0.1	-5.9368e-003
27796	11.734	1.6364	0.1	-6.0788e-003
27797	11.641	1.9091	0.1	-6.1442e-003
27798	11.734	1.8182	0.1	-6.3381e-003
27799	11.641	2.0909	0.1	-6.2153e-003
27800	11.734	2.	0.1	-6.4294e-003
27801	11.641	2.2727	0.1	-6.2016e-003
27802	11.734	2.1818	0.1	-6.412e-003
27803	11.641	2.4545	0.1	-6.1468e-003
27804	11.734	2.3636	0.1	-6.3384e-003
27805	11.641	2.6364	0.1	-6.0838e-003
27806	11.734	2.5455	0.1	-6.249e-003
27807	11.641	2.8182	0.1	-6.0361e-003
27808	11.734	2.7273	0.1	-6.1729e-003
27809	11.641	3.	0.1	-6.0182e-003
27810	11.734	2.9091	0.1	-6.1296e-003
27811	11.641	3.1818	0.1	-6.0358e-003
27812	11.734	3.0909	0.1	-6.1295e-003
27813	11.641	3.3636	0.1	-6.0838e-003
27814	11.734	3.2727	0.1	-6.1727e-003
27815	11.641	3.5455	0.1	-6.1467e-003
27816	11.734	3.4545	0.1	-6.2491e-003
27817	11.641	3.7273	0.1	-6.2014e-003
27818	11.734	3.6364	0.1	-6.3381e-003
27819	11.641	3.9091	0.1	-6.2153e-003
27820	11.734	3.8182	0.1	-6.4118e-003
27821	11.641	4.0909	0.1	-6.144e-003
27822	11.734	4.	0.1	-6.4292e-003
27823	11.641	4.2727	0.1	-5.9362e-003
27824	11.734	4.1818	0.1	-6.3377e-003
27825	11.641	4.4545	0.1	-5.5333e-003
27826	11.734	4.3636	0.1	-6.0784e-003
27827	11.641	4.6364	0.1	-4.87e-003
27828	11.734	4.5455	0.1	-5.5798e-003
27829	11.641	4.8182	0.1	-3.863e-003
27830	11.734	4.7273	0.1	-4.7676e-003
27831	11.641	5.	0.1	-2.4702e-003
27832	11.734	4.9091	0.1	-3.5261e-003
27833	11.641	5.1818	0.1	-4.5811e-004
27834	11.734	5.0909	0.1	-1.8655e-003
27835	11.641	5.3636	0.1	1.6621e-003
27836	11.734	5.2727	0.1	7.7003e-004
27837	11.641	5.5455	0.1	7.344e-003
27838	11.734	5.4545	0.1	2.705e-003
27839	11.641	5.7273	0.1	7.8137e-003
27840	11.734	5.6364	0.1	1.3329e-002
27841	11.734	5.8182	0.1	1.438e-003
27842	11.641	5.9091	0.1	2.1505e-003
27843	11.826	0.27273	0.1	9.4272e-003
27844	11.918	0.18182	0.1	1.8008e-003
27845	11.826	9.0909e-002	0.1	2.4404e-003
27846	11.826	0.45455	0.1	8.6642e-003
27847	11.918	0.36364	0.1	1.5908e-002
27848	11.826	0.63636	0.1	1.7001e-003
27849	11.918	0.54545	0.1	2.8538e-003
27850	11.826	0.81818	0.1	-7.1872e-004
27851	11.918	0.72727	0.1	6.627e-004
27852	11.826	1.	0.1	-2.974e-003
27853	11.918	0.90909	0.1	-2.3345e-003
27854	11.826	1.1818	0.1	-4.4621e-003
27855	11.918	1.0909	0.1	-4.1267e-003
27856	11.826	1.3636	0.1	-5.4947e-003
27857	11.918	1.2727	0.1	-5.4228e-003
27858	11.826	1.5455	0.1	-6.1332e-003
27859	11.918	1.4545	0.1	-6.2245e-003
27860	11.826	1.7273	0.1	-6.483e-003
27861	11.918	1.6364	0.1	-6.676e-003
27862	11.826	1.9091	0.1	-6.6236e-003
27863	11.918	1.8182	0.1	-6.869e-003
27864	11.826	2.0909	0.1	-6.626e-003
27865	11.918	2.	0.1	-6.8881e-003
27866	11.826	2.2727	0.1	-6.5491e-003
27867	11.918	2.1818	0.1	-6.8016e-003
27868	11.826	2.4545	0.1	-6.4419e-003
27869	11.918	2.3636	0.1	-6.6684e-003
27870	11.826	2.6364	0.1	-6.3404e-003
27871	11.918	2.5455	0.1	-6.5329e-003
27872	11.826	2.8182	0.1	-6.2695e-003
27873	11.918	2.7273	0.1	-6.4257e-003
27874	11.826	3.	0.1	-6.2443e-003
27875	11.918	2.9091	0.1	-6.367e-003
27876	11.826	3.1818	0.1	-6.2695e-003
27877	11.918	3.0909	0.1	-6.3672e-003
27878	11.826	3.3636	0.1	-6.3403e-003
27879	11.918	3.2727	0.1	-6.4256e-003
27880	11.826	3.5455	0.1	-6.4417e-003
27881	11.918	3.4545	0.1	-6.533e-003
27882	11.826	3.7273	0.1	-6.5487e-003
27883	11.918	3.6364	0.1	-6.6681e-003
27884	11.826	3.9091	0.1	-6.6255e-003
27885	11.918	3.8182	0.1	-6.8011e-003
27886	11.826	4.0909	0.1	-6.6234e-003
27887	11.918	4.	0.1	-6.8877e-003
27888	11.826	4.2727	0.1	-6.4827e-003
27889	11.918	4.1818	0.1	-6.8687e-003
27890	11.826	4.4545	0.1	-6.1328e-003
27891	11.918	4.3636	0.1	-6.6758e-003
27892	11.826	4.6364	0.1	-5.4942e-003
27893	11.918	4.5455	0.1	-6.2238e-003
27894	11.826	4.8182	0.1	-4.4616e-003
27895	11.918	4.7273	0.1	-5.4224e-003
27896	11.826	5.	0.1	-2.9732e-003
27897	11.918	4.9091	0.1	-4.1259e-003
27898	11.826	5.1818	0.1	-7.1776e-004
27899	11.918	5.0909	0.1	-2.3334e-003
27900	11.826	5.3636	0.1	1.7006e-003
27901	11.918	5.2727	0.1	6.6378e-004
27902	11.826	5.5455	0.1	8.6644e-003
27903	11.918	5.4545	0.1	2.8541e-003
27904	11.826	5.7273	0.1	9.4277e-003
27905	11.918	5.6364	0.1	1.5908e-002
27906	11.918	5.8182	0.1	1.8013e-003
27907	11.826	5.9091	0.1	2.4407e-003
27908	12.011	0.27273	0.1	1.1212e-002
27909	12.103	0.18182	0.1	2.433e-003
27910	12.011	9.0909e-002	0.1	2.7188e-003
27911	12.011	0.45455	0.1	9.9923e-003
27912	12.103	0.36364	0.1	1.8662e-002
27913	12.011	0.63636	0.1	1.6431e-003
27914	12.103	0.54545	0.1	2.9302e-003
27915	12.011	0.81818	0.1	-1.073e-003
27916	12.103	0.72727	0.1	4.7993e-004
27917	12.011	1.	0.1	-3.5661e-003
27918	12.103	0.90909	0.1	-2.886e-003
27919	12.011	1.1818	0.1	-5.1378e-003
27920	12.103	1.0909	0.1	-4.7997e-003
27921	12.011	1.3636	0.1	-6.1838e-003
27922	12.103	1.2727	0.1	-6.1391e-003
27923	12.011	1.5455	0.1	-6.7857e-003
27924	12.103	1.4545	0.1	-6.9167e-003
27925	12.011	1.7273	0.1	-7.0722e-003
27926	12.103	1.6364	0.1	-7.3084e-003
27927	12.011	1.9091	0.1	-7.1386e-003
27928	12.103	1.8182	0.1	-7.4237e-003
27929	12.011	2.0909	0.1	-7.066e-003
27930	12.103	2.	0.1	-7.3608e-003
27931	12.011	2.2727	0.1	-6.9219e-003
27932	12.103	2.1818	0.1	-7.1984e-003
27933	12.011	2.4545	0.1	-6.7603e-003
27934	12.103	2.3636	0.1	-7.0009e-003
27935	12.011	2.6364	0.1	-6.6194e-003
27936	12.103	2.5455	0.1	-6.8174e-003
27937	12.011	2.8182	0.1	-6.5249e-003
27938	12.103	2.7273	0.1	-6.678e-003
27939	12.011	3.	0.1	-6.4917e-003
27940	12.103	2.9091	0.1	-6.6034e-003
27941	12.011	3.1818	0.1	-6.5249e-003
27942	12.103	3.0909	0.1	-6.6035e-003
27943	12.011	3.3636	0.1	-6.6195e-003
27944	12.103	3.2727	0.1	-6.6779e-003
27945	12.011	3.5455	0.1	-6.7603e-003
27946	12.103	3.4545	0.1	-6.8173e-003
27947	12.011	3.7273	0.1	-6.9216e-003
27948	12.103	3.6364	0.1	-7.0008e-003
27949	12.011	3.9091	0.1	-7.0656e-003
27950	12.103	3.8182	0.1	-7.198e-003
27951	12.011	4.0909	0.1	-7.1382e-003
27952	12.103	4.	0.1	-7.3607e-003
27953	12.011	4.2727	0.1	-7.0719e-003
27954	12.103	4.1818	0.1	-7.4235e-003
27955	12.011	4.4545	0.1	-6.7852e-003
27956	12.103	4.3636	0.1	-7.3081e-003
27957	12.011	4.6364	0.1	-6.1831e-003
27958	12.103	4.5455	0.1	-6.9162e-003
27959	12.011	4.8182	0.1	-5.137e-003
27960	12.103	4.7273	0.1	-6.1385e-003
27961	12.011	5.	0.1	-3.5649e-003
27962	12.103	4.9091	0.1	-4.7989e-003
27963	12.011	5.1818	0.1	-1.0718e-003
27964	12.103	5.0909	0.1	-2.8847e-003
27965	12.011	5.3636	0.1	1.644e-003
27966	12.103	5.2727	0.1	4.814e-004
27967	12.011	5.5455	0.1	9.993e-003
27968	12.103	5.4545	0.1	2.9308e-003
27969	12.011	5.7273	0.1	1.1212e-002
27970	12.103	5.6364	0.1	1.8663e-002
27971	12.103	5.8182	0.1	2.4334e-003
27972	12.011	5.9091	0.1	2.7199e-003
27973	12.196	0.27273	0.1	1.3255e-002
27974	12.288	0.18182	0.1	3.417e-003
27975	12.196	9.0909e-002	0.1	3.0259e-003
27976	12.196	0.45455	0.1	1.1391e-002
27977	12.288	0.36364	0.1	2.1656e-002
27978	12.196	0.63636	0.1	1.5248e-003
27979	12.288	0.54545	0.1	2.9392e-003
27980	12.196	0.81818	0.1	-1.4936e-003
27981	12.288	0.72727	0.1	2.2419e-004
27982	12.196	1.	0.1	-4.2235e-003
27983	12.288	0.90909	0.1	-3.5239e-003
27984	12.196	1.1818	0.1	-5.8672e-003
27985	12.288	1.0909	0.1	-5.5489e-003
27986	12.196	1.3636	0.1	-6.9131e-003
27987	12.288	1.2727	0.1	-6.9184e-003
27988	12.196	1.5455	0.1	-7.4637e-003
27989	12.288	1.4545	0.1	-7.6545e-003
27990	12.196	1.7273	0.1	-7.6731e-003
27991	12.288	1.6364	0.1	-7.9699e-003
27992	12.196	1.9091	0.1	-7.652e-003
27993	12.288	1.8182	0.1	-7.9919e-003
27994	12.196	2.0909	0.1	-7.4951e-003
27995	12.288	2.	0.1	-7.8342e-003
27996	12.196	2.2727	0.1	-7.2773e-003
27997	12.288	2.1818	0.1	-7.587e-003
27998	12.196	2.4545	0.1	-7.0575e-003
27999	12.288	2.3636	0.1	-7.3201e-003
28000	12.196	2.6364	0.1	-6.8759e-003
28001	12.288	2.5455	0.1	-7.0859e-003
28002	12.196	2.8182	0.1	-6.757e-003
28003	12.288	2.7273	0.1	-6.914e-003
28004	12.196	3.	0.1	-6.7159e-003
28005	12.288	2.9091	0.1	-6.8237e-003
28006	12.196	3.1818	0.1	-6.757e-003
28007	12.288	3.0909	0.1	-6.8238e-003
28008	12.196	3.3636	0.1	-6.8756e-003
28009	12.288	3.2727	0.1	-6.9139e-003
28010	12.196	3.5455	0.1	-7.0573e-003
28011	12.288	3.4545	0.1	-7.0857e-003
28012	12.196	3.7273	0.1	-7.2772e-003
28013	12.288	3.6364	0.1	-7.3201e-003
28014	12.196	3.9091	0.1	-7.4949e-003
28015	12.288	3.8182	0.1	-7.5865e-003
28016	12.196	4.0909	0.1	-7.6521e-003
28017	12.288	4.	0.1	-7.8341e-003
28018	12.196	4.2727	0.1	-7.6729e-003
28019	12.288	4.1818	0.1	-7.9915e-003
28020	12.196	4.4545	0.1	-7.4634e-003
28021	12.288	4.3636	0.1	-7.9697e-003
28022	12.196	4.6364	0.1	-6.9126e-003
28023	12.288	4.5455	0.1	-7.6541e-003
28024	12.196	4.8182	0.1	-5.8665e-003
28025	12.288	4.7273	0.1	-6.9176e-003
28026	12.196	5.	0.1	-4.2225e-003
28027	12.288	4.9091	0.1	-5.5484e-003
28028	12.196	5.1818	0.1	-1.4921e-003
28029	12.288	5.0909	0.1	-3.5228e-003
28030	12.196	5.3636	0.1	1.526e-003
28031	12.288	5.2727	0.1	2.2577e-004
28032	12.196	5.5455	0.1	1.1391e-002
28033	12.288	5.4545	0.1	2.9399e-003
28034	12.196	5.7273	0.1	1.3256e-002
28035	12.288	5.6364	0.1	2.1656e-002
28036	12.288	5.8182	0.1	3.4171e-003
28037	12.196	5.9091	0.1	3.0265e-003
28038	12.38	0.27273	0.1	1.5596e-002
28039	12.473	0.18182	0.1	4.8302e-003
28040	12.38	9.0909e-002	0.1	3.3497e-003
28041	12.38	0.45455	0.1	1.2861e-002
28042	12.473	0.36364	0.1	2.4927e-002
28043	12.38	0.63636	0.1	1.3179e-003
28044	12.473	0.54545	0.1	2.8545e-003
28045	12.38	0.81818	0.1	-2.0096e-003
28046	12.473	0.72727	0.1	-1.3109e-004
28047	12.38	1.	0.1	-4.9777e-003
28048	12.473	0.90909	0.1	-4.2779e-003
28049	12.38	1.1818	0.1	-6.6804e-003
28050	12.473	1.0909	0.1	-6.4023e-003
28051	12.38	1.3636	0.1	-7.7086e-003
28052	12.473	1.2727	0.1	-7.7842e-003
28053	12.38	1.5455	0.1	-8.1886e-003
28054	12.473	1.4545	0.1	-8.4575e-003
28055	12.38	1.7273	0.1	-8.3026e-003
28056	12.473	1.6364	0.1	-8.6752e-003
28057	12.38	1.9091	0.1	-8.1791e-003
28058	12.473	1.8182	0.1	-8.5843e-003
28059	12.38	2.0909	0.1	-7.9259e-003
28060	12.473	2.	0.1	-8.3178e-003
28061	12.38	2.2727	0.1	-7.6273e-003
28062	12.473	2.1818	0.1	-7.9755e-003
28063	12.38	2.4545	0.1	-7.3459e-003
28064	12.473	2.3636	0.1	-7.6352e-003
28065	12.38	2.6364	0.1	-7.1225e-003
28066	12.473	2.5455	0.1	-7.3499e-003
28067	12.38	2.8182	0.1	-6.9805e-003
28068	12.473	2.7273	0.1	-7.1473e-003
28069	12.38	3.	0.1	-6.9319e-003
28070	12.473	2.9091	0.1	-7.043e-003
28071	12.38	3.1818	0.1	-6.9804e-003
28072	12.473	3.0909	0.1	-7.0431e-003
28073	12.38	3.3636	0.1	-7.1225e-003
28074	12.473	3.2727	0.1	-7.1472e-003
28075	12.38	3.5455	0.1	-7.3459e-003
28076	12.473	3.4545	0.1	-7.3497e-003
28077	12.38	3.7273	0.1	-7.627e-003
28078	12.473	3.6364	0.1	-7.6351e-003
28079	12.38	3.9091	0.1	-7.9255e-003
28080	12.473	3.8182	0.1	-7.9752e-003
28081	12.38	4.0909	0.1	-8.1785e-003
28082	12.473	4.	0.1	-8.3173e-003
28083	12.38	4.2727	0.1	-8.3023e-003
28084	12.473	4.1818	0.1	-8.584e-003
28085	12.38	4.4545	0.1	-8.1883e-003
28086	12.473	4.3636	0.1	-8.6748e-003
28087	12.38	4.6364	0.1	-7.7079e-003
28088	12.473	4.5455	0.1	-8.4566e-003
28089	12.38	4.8182	0.1	-6.6799e-003
28090	12.473	4.7273	0.1	-7.7836e-003
28091	12.38	5.	0.1	-4.977e-003
28092	12.473	4.9091	0.1	-6.4018e-003
28093	12.38	5.1818	0.1	-2.0084e-003
28094	12.473	5.0909	0.1	-4.2766e-003
28095	12.38	5.3636	0.1	1.3191e-003
28096	12.473	5.2727	0.1	-1.2967e-004
28097	12.38	5.5455	0.1	1.2861e-002
28098	12.473	5.4545	0.1	2.8548e-003
28099	12.38	5.7273	0.1	1.5597e-002
28100	12.473	5.6364	0.1	2.4927e-002
28101	12.473	5.8182	0.1	4.8305e-003
28102	12.38	5.9091	0.1	3.3502e-003
28103	12.565	0.27273	0.1	1.8284e-002
28104	12.658	0.18182	0.1	6.779e-003
28105	12.565	9.0909e-002	0.1	3.6779e-003
28106	12.565	0.45455	0.1	1.4407e-002
28107	12.658	0.36364	0.1	2.8521e-002
28108	12.565	0.63636	0.1	9.9506e-004
28109	12.658	0.54545	0.1	2.647e-003
28110	12.565	0.81818	0.1	-2.6494e-003
28111	12.658	0.72727	0.1	-6.1186e-004
28112	12.565	1.	0.1	-5.8562e-003
28113	12.658	0.90909	0.1	-5.1988e-003
28114	12.565	1.1818	0.1	-7.6e-003
28115	12.658	1.0909	0.1	-7.3815e-003
28116	12.565	1.3636	0.1	-8.5848e-003
28117	12.658	1.2727	0.1	-8.7532e-003
28118	12.565	1.5455	0.1	-8.974e-003
28119	12.658	1.4545	0.1	-9.3363e-003
28120	12.565	1.7273	0.1	-8.9699e-003
28121	12.658	1.6364	0.1	-9.43e-003
28122	12.565	1.9091	0.1	-8.7252e-003
28123	12.658	1.8182	0.1	-9.2037e-003
28124	12.565	2.0909	0.1	-8.3636e-003
28125	12.658	2.	0.1	-8.8114e-003
28126	12.565	2.2727	0.1	-7.9776e-003
28127	12.658	2.1818	0.1	-8.366e-003
28128	12.565	2.4545	0.1	-7.6343e-003
28129	12.658	2.3636	0.1	-7.9512e-003
28130	12.565	2.6364	0.1	-7.3722e-003
28131	12.658	2.5455	0.1	-7.6192e-003
28132	12.565	2.8182	0.1	-7.2097e-003
28133	12.658	2.7273	0.1	-7.3921e-003
28134	12.565	3.	0.1	-7.1551e-003
28135	12.658	2.9091	0.1	-7.278e-003
28136	12.565	3.1818	0.1	-7.2098e-003
28137	12.658	3.0909	0.1	-7.2782e-003
28138	12.565	3.3636	0.1	-7.372e-003
28139	12.658	3.2727	0.1	-7.392e-003
28140	12.565	3.5455	0.1	-7.634e-003
28141	12.658	3.4545	0.1	-7.6191e-003
28142	12.565	3.7273	0.1	-7.9776e-003
28143	12.658	3.6364	0.1	-7.9509e-003
28144	12.565	3.9091	0.1	-8.3633e-003
28145	12.658	3.8182	0.1	-8.3657e-003
28146	12.565	4.0909	0.1	-8.7251e-003
28147	12.658	4.	0.1	-8.8113e-003
28148	12.565	4.2727	0.1	-8.9696e-003
28149	12.658	4.1818	0.1	-9.2034e-003
28150	12.565	4.4545	0.1	-8.9731e-003
28151	12.658	4.3636	0.1	-9.4292e-003
28152	12.565	4.6364	0.1	-8.5848e-003
28153	12.658	4.5455	0.1	-9.3357e-003
28154	12.565	4.8182	0.1	-7.5995e-003
28155	12.658	4.7273	0.1	-8.7527e-003
28156	12.565	5.	0.1	-5.8552e-003
28157	12.658	4.9091	0.1	-7.3812e-003
28158	12.565	5.1818	0.1	-2.6479e-003
28159	12.658	5.0909	0.1	-5.1988e-003
28160	12.565	5.3636	0.1	9.9567e-004
28161	12.658	5.2727	0.1	-6.1017e-004
28162	12.565	5.5455	0.1	1.4408e-002
28163	12.658	5.4545	0.1	2.6471e-003
28164	12.565	5.7273	0.1	1.8284e-002
28165	12.658	5.6364	0.1	2.8522e-002
28166	12.658	5.8182	0.1	6.7798e-003
28167	12.565	5.9091	0.1	3.6786e-003
28168	12.75	0.27273	0.1	2.1375e-002
28169	12.842	0.18182	0.1	9.3871e-003
28170	12.75	9.0909e-002	0.1	4.0054e-003
28171	12.75	0.45455	0.1	1.6035e-002
28172	12.842	0.36364	0.1	3.2472e-002
28173	12.75	0.63636	0.1	5.2635e-004
28174	12.842	0.54545	0.1	2.2662e-003
28175	12.75	0.81818	0.1	-3.4381e-003
28176	12.842	0.72727	0.1	-1.2601e-003
28177	12.75	1.	0.1	-6.8803e-003
28178	12.842	0.90909	0.1	-6.255e-003
28179	12.75	1.1818	0.1	-8.6425e-003
28180	12.842	1.0909	0.1	-8.5212e-003
28181	12.75	1.3636	0.1	-9.5625e-003
28182	12.842	1.2727	0.1	-9.8524e-003
28183	12.75	1.5455	0.1	-9.823e-003
28184	12.842	1.4545	0.1	-1.0312e-002
28185	12.75	1.7273	0.1	-9.6743e-003
28186	12.842	1.6364	0.1	-1.0247e-002
28187	12.75	1.9091	0.1	-9.2883e-003
28188	12.842	1.8182	0.1	-9.8595e-003
28189	12.75	2.0909	0.1	-8.8052e-003
28190	12.842	2.	0.1	-9.3247e-003
28191	12.75	2.2727	0.1	-8.3297e-003
28192	12.842	2.1818	0.1	-8.7708e-003
28193	12.75	2.4545	0.1	-7.9289e-003
28194	12.842	2.3636	0.1	-8.2865e-003
28195	12.75	2.6364	0.1	-7.6365e-003
28196	12.842	2.5455	0.1	-7.9197e-003
28197	12.75	2.8182	0.1	-7.4621e-003
28198	12.842	2.7273	0.1	-7.6815e-003
28199	12.75	3.	0.1	-7.4045e-003
28200	12.842	2.9091	0.1	-7.5666e-003
28201	12.75	3.1818	0.1	-7.4621e-003
28202	12.842	3.0909	0.1	-7.5669e-003
28203	12.75	3.3636	0.1	-7.6366e-003
28204	12.842	3.2727	0.1	-7.6815e-003
28205	12.75	3.5455	0.1	-7.9287e-003
28206	12.842	3.4545	0.1	-7.9197e-003
28207	12.75	3.7273	0.1	-8.329e-003
28208	12.842	3.6364	0.1	-8.2862e-003
28209	12.75	3.9091	0.1	-8.805e-003
28210	12.842	3.8182	0.1	-8.7704e-003
28211	12.75	4.0909	0.1	-9.2883e-003
28212	12.842	4.	0.1	-9.3246e-003
28213	12.75	4.2727	0.1	-9.6736e-003
28214	12.842	4.1818	0.1	-9.859e-003
28215	12.75	4.4545	0.1	-9.8227e-003
28216	12.842	4.3636	0.1	-1.0247e-002
28217	12.75	4.6364	0.1	-9.5622e-003
28218	12.842	4.5455	0.1	-1.0311e-002
28219	12.75	4.8182	0.1	-8.6423e-003
28220	12.842	4.7273	0.1	-9.8523e-003
28221	12.75	5.	0.1	-6.8797e-003
28222	12.842	4.9091	0.1	-8.5208e-003
28223	12.75	5.1818	0.1	-3.4365e-003
28224	12.842	5.0909	0.1	-6.2535e-003
28225	12.75	5.3636	0.1	5.2754e-004
28226	12.842	5.2727	0.1	-1.2583e-003
28227	12.75	5.5455	0.1	1.6035e-002
28228	12.842	5.4545	0.1	2.267e-003
28229	12.75	5.7273	0.1	2.1376e-002
28230	12.842	5.6364	0.1	3.2473e-002
28231	12.842	5.8182	0.1	9.3871e-003
28232	12.75	5.9091	0.1	4.0066e-003
28233	12.935	0.27273	0.1	2.4902e-002
28234	13.027	0.18182	0.1	1.2837e-002
28235	12.935	9.0909e-002	0.1	4.2963e-003
28236	12.935	0.45455	0.1	1.7713e-002
28237	13.027	0.36364	0.1	3.6844e-002
28238	12.935	0.63636	0.1	-1.5368e-004
28239	13.027	0.54545	0.1	1.6873e-003
28240	12.935	0.81818	0.1	-4.4359e-003
28241	13.027	0.72727	0.1	-2.0904e-003
28242	12.935	1.	0.1	-8.106e-003
28243	13.027	0.90909	0.1	-7.5308e-003
28244	12.935	1.1818	0.1	-9.8536e-003
28245	13.027	1.0909	0.1	-9.8227e-003
28246	12.935	1.3636	0.1	-1.0669e-002
28247	13.027	1.2727	0.1	-1.1073e-002
28248	12.935	1.5455	0.1	-1.0767e-002
28249	13.027	1.4545	0.1	-1.1364e-002
28250	12.935	1.7273	0.1	-1.0439e-002
28251	13.027	1.6364	0.1	-1.1102e-002
28252	12.935	1.9091	0.1	-9.888e-003
28253	13.027	1.8182	0.1	-1.0521e-002
28254	12.935	2.0909	0.1	-9.2749e-003
28255	13.027	2.	0.1	-9.8275e-003
28256	12.935	2.2727	0.1	-8.7124e-003
28257	13.027	2.1818	0.1	-9.1642e-003
28258	12.935	2.4545	0.1	-8.2679e-003
28259	13.027	2.3636	0.1	-8.6251e-003
28260	12.935	2.6364	0.1	-7.9635e-003
28261	13.027	2.5455	0.1	-8.2483e-003
28262	12.935	2.8182	0.1	-7.7923e-003
28263	13.027	2.7273	0.1	-8.0241e-003
28264	12.935	3.	0.1	-7.7382e-003
28265	13.027	2.9091	0.1	-7.924e-003
28266	12.935	3.1818	0.1	-7.7926e-003
28267	13.027	3.0909	0.1	-7.9242e-003
28268	12.935	3.3636	0.1	-7.9635e-003
28269	13.027	3.2727	0.1	-8.0244e-003
28270	12.935	3.5455	0.1	-8.2677e-003
28271	13.027	3.4545	0.1	-8.2483e-003
28272	12.935	3.7273	0.1	-8.7124e-003
28273	13.027	3.6364	0.1	-8.6248e-003
28274	12.935	3.9091	0.1	-9.2747e-003
28275	13.027	3.8182	0.1	-9.164e-003
28276	12.935	4.0909	0.1	-9.8877e-003
28277	13.027	4.	0.1	-9.8269e-003
28278	12.935	4.2727	0.1	-1.0439e-002
28279	13.027	4.1818	0.1	-1.0521e-002
28280	12.935	4.4545	0.1	-1.0766e-002
28281	13.027	4.3636	0.1	-1.1102e-002
28282	12.935	4.6364	0.1	-1.0668e-002
28283	13.027	4.5455	0.1	-1.1363e-002
28284	12.935	4.8182	0.1	-9.8533e-003
28285	13.027	4.7273	0.1	-1.1073e-002
28286	12.935	5.	0.1	-8.1049e-003
28287	13.027	4.9091	0.1	-9.822e-003
28288	12.935	5.1818	0.1	-4.4342e-003
28289	13.027	5.0909	0.1	-7.5294e-003
28290	12.935	5.3636	0.1	-1.523e-004
28291	13.027	5.2727	0.1	-2.0892e-003
28292	12.935	5.5455	0.1	1.7714e-002
28293	13.027	5.4545	0.1	1.6872e-003
28294	12.935	5.7273	0.1	2.4902e-002
28295	13.027	5.6364	0.1	3.6845e-002
28296	13.027	5.8182	0.1	1.2838e-002
28297	12.935	5.9091	0.1	4.2962e-003
28298	13.12	0.27273	0.1	2.8985e-002
28299	13.212	0.18182	0.1	1.7377e-002
28300	13.12	9.0909e-002	0.1	4.5976e-003
28301	13.12	0.45455	0.1	1.95e-002
28302	13.212	0.36364	0.1	4.1727e-002
28303	13.12	0.63636	0.1	-1.0217e-003
28304	13.212	0.54545	0.1	9.0476e-004
28305	13.12	0.81818	0.1	-5.6095e-003
28306	13.212	0.72727	0.1	-3.0912e-003
28307	13.12	1.	0.1	-9.4907e-003
28308	13.212	0.90909	0.1	-8.9799e-003
28309	13.12	1.1818	0.1	-1.1181e-002
28310	13.212	1.0909	0.1	-1.1251e-002
28311	13.12	1.3636	0.1	-1.1842e-002
28312	13.212	1.2727	0.1	-1.2368e-002
28313	13.12	1.5455	0.1	-1.1729e-002
28314	13.212	1.4545	0.1	-1.2433e-002
28315	13.12	1.7273	0.1	-1.1185e-002
28316	13.212	1.6364	0.1	-1.1924e-002
28317	13.12	1.9091	0.1	-1.0444e-002
28318	13.212	1.8182	0.1	-1.1114e-002
28319	13.12	2.0909	0.1	-9.6925e-003
28320	13.212	2.	0.1	-1.0244e-002
28321	13.12	2.2727	0.1	-9.0551e-003
28322	13.212	2.1818	0.1	-9.4791e-003
28323	13.12	2.4545	0.1	-8.594e-003
28324	13.212	2.3636	0.1	-8.9157e-003
28325	13.12	2.6364	0.1	-8.3117e-003
28326	13.212	2.5455	0.1	-8.5722e-003
28327	13.12	2.8182	0.1	-8.1711e-003
28328	13.212	2.7273	0.1	-8.4055e-003
28329	13.12	3.	0.1	-8.1302e-003
28330	13.212	2.9091	0.1	-8.3465e-003
28331	13.12	3.1818	0.1	-8.1713e-003
28332	13.212	3.0909	0.1	-8.3467e-003
28333	13.12	3.3636	0.1	-8.312e-003
28334	13.212	3.2727	0.1	-8.4054e-003
28335	13.12	3.5455	0.1	-8.594e-003
28336	13.212	3.4545	0.1	-8.5721e-003
28337	13.12	3.7273	0.1	-9.0547e-003
28338	13.212	3.6364	0.1	-8.915e-003
28339	13.12	3.9091	0.1	-9.6919e-003
28340	13.212	3.8182	0.1	-9.4788e-003
28341	13.12	4.0909	0.1	-1.0443e-002
28342	13.212	4.	0.1	-1.0244e-002
28343	13.12	4.2727	0.1	-1.1185e-002
28344	13.212	4.1818	0.1	-1.1114e-002
28345	13.12	4.4545	0.1	-1.1729e-002
28346	13.212	4.3636	0.1	-1.1924e-002
28347	13.12	4.6364	0.1	-1.1842e-002
28348	13.212	4.5455	0.1	-1.2433e-002
28349	13.12	4.8182	0.1	-1.1181e-002
28350	13.212	4.7273	0.1	-1.2368e-002
28351	13.12	5.	0.1	-9.4898e-003
28352	13.212	4.9091	0.1	-1.125e-002
28353	13.12	5.1818	0.1	-5.6086e-003
28354	13.212	5.0909	0.1	-8.9787e-003
28355	13.12	5.3636	0.1	-1.0219e-003
28356	13.212	5.2727	0.1	-3.0899e-003
28357	13.12	5.5455	0.1	1.95e-002
28358	13.212	5.4545	0.1	9.0367e-004
28359	13.12	5.7273	0.1	2.8986e-002
28360	13.212	5.6364	0.1	4.1728e-002
28361	13.212	5.8182	0.1	1.7378e-002
28362	13.12	5.9091	0.1	4.5992e-003
28363	13.304	0.27273	0.1	3.3711e-002
28364	13.397	0.18182	0.1	2.3267e-002
28365	13.304	9.0909e-002	0.1	4.9337e-003
28366	13.304	0.45455	0.1	2.1413e-002
28367	13.397	0.36364	0.1	4.7192e-002
28368	13.304	0.63636	0.1	-2.0983e-003
28369	13.397	0.54545	0.1	-1.1211e-004
28370	13.304	0.81818	0.1	-6.9604e-003
28371	13.397	0.72727	0.1	-4.2641e-003
28372	13.304	1.	0.1	-1.1021e-002
28373	13.397	0.90909	0.1	-1.0592e-002
28374	13.304	1.1818	0.1	-1.2595e-002
28375	13.397	1.0909	0.1	-1.2775e-002
28376	13.304	1.3636	0.1	-1.3039e-002
28377	13.397	1.2727	0.1	-1.369e-002
28378	13.304	1.5455	0.1	-1.2656e-002
28379	13.397	1.4545	0.1	-1.3458e-002
28380	13.304	1.7273	0.1	-1.1846e-002
28381	13.397	1.6364	0.1	-1.2639e-002
28382	13.304	1.9091	0.1	-1.0886e-002
28383	13.397	1.8182	0.1	-1.1556e-002
28384	13.304	2.0909	0.1	-9.9949e-003
28385	13.397	2.	0.1	-1.0495e-002
28386	13.304	2.2727	0.1	-9.3096e-003
28387	13.397	2.1818	0.1	-9.6476e-003
28388	13.304	2.4545	0.1	-8.8812e-003
28389	13.397	2.3636	0.1	-9.1109e-003
28390	13.304	2.6364	0.1	-8.6768e-003
28391	13.397	2.5455	0.1	-8.8735e-003
28392	13.304	2.8182	0.1	-8.6121e-003
28393	13.397	2.7273	0.1	-8.8337e-003
28394	13.304	3.	0.1	-8.6024e-003
28395	13.397	2.9091	0.1	-8.8602e-003
28396	13.304	3.1818	0.1	-8.6121e-003
28397	13.397	3.0909	0.1	-8.8605e-003
28398	13.304	3.3636	0.1	-8.6763e-003
28399	13.397	3.2727	0.1	-8.8338e-003
28400	13.304	3.5455	0.1	-8.8805e-003
28401	13.397	3.4545	0.1	-8.8731e-003
28402	13.304	3.7273	0.1	-9.3089e-003
28403	13.397	3.6364	0.1	-9.1106e-003
28404	13.304	3.9091	0.1	-9.9947e-003
28405	13.397	3.8182	0.1	-9.6474e-003
28406	13.304	4.0909	0.1	-1.0886e-002
28407	13.397	4.	0.1	-1.0495e-002
28408	13.304	4.2727	0.1	-1.1846e-002
28409	13.397	4.1818	0.1	-1.1556e-002
28410	13.304	4.4545	0.1	-1.2656e-002
28411	13.397	4.3636	0.1	-1.2638e-002
28412	13.304	4.6364	0.1	-1.3038e-002
28413	13.397	4.5455	0.1	-1.3458e-002
28414	13.304	4.8182	0.1	-1.2594e-002
28415	13.397	4.7273	0.1	-1.369e-002
28416	13.304	5.	0.1	-1.102e-002
28417	13.397	4.9091	0.1	-1.2774e-002
28418	13.304	5.1818	0.1	-6.9588e-003
28419	13.397	5.0909	0.1	-1.0591e-002
28420	13.304	5.3636	0.1	-2.0978e-003
28421	13.397	5.2727	0.1	-4.2625e-003
28422	13.304	5.5455	0.1	2.1412e-002
28423	13.397	5.4545	0.1	-1.1228e-004
28424	13.304	5.7273	0.1	3.3712e-002
28425	13.397	5.6364	0.1	4.7192e-002
28426	13.397	5.8182	0.1	2.3268e-002
28427	13.304	5.9091	0.1	4.9344e-003
28428	13.489	0.27273	0.1	3.9148e-002
28429	13.582	0.18182	0.1	3.0776e-002
28430	13.489	9.0909e-002	0.1	5.3249e-003
28431	13.489	0.45455	0.1	2.346e-002
28432	13.582	0.36364	0.1	5.3295e-002
28433	13.489	0.63636	0.1	-3.3987e-003
28434	13.582	0.54545	0.1	-1.3954e-003
28435	13.489	0.81818	0.1	-8.4802e-003
28436	13.582	0.72727	0.1	-5.6041e-003
28437	13.489	1.	0.1	-1.267e-002
28438	13.582	0.90909	0.1	-1.2343e-002
28439	13.489	1.1818	0.1	-1.4048e-002
28440	13.582	1.0909	0.1	-1.4348e-002
28441	13.489	1.3636	0.1	-1.4195e-002
28442	13.582	1.2727	0.1	-1.4969e-002
28443	13.489	1.5455	0.1	-1.3466e-002
28444	13.582	1.4545	0.1	-1.4348e-002
28445	13.489	1.7273	0.1	-1.2332e-002
28446	13.582	1.6364	0.1	-1.3141e-002
28447	13.489	1.9091	0.1	-1.1122e-002
28448	13.582	1.8182	0.1	-1.1733e-002
28449	13.489	2.0909	0.1	-1.0096e-002
28450	13.582	2.	0.1	-1.0467e-002
28451	13.489	2.2727	0.1	-9.4081e-003
28452	13.582	2.1818	0.1	-9.5721e-003
28453	13.489	2.4545	0.1	-9.0906e-003
28454	13.582	2.3636	0.1	-9.1443e-003
28455	13.489	2.6364	0.1	-9.0556e-003
28456	13.582	2.5455	0.1	-9.1262e-003
28457	13.489	2.8182	0.1	-9.1401e-003
28458	13.582	2.7273	0.1	-9.3251e-003
28459	13.489	3.	0.1	-9.1898e-003
28460	13.582	2.9091	0.1	-9.5065e-003
28461	13.489	3.1818	0.1	-9.1405e-003
28462	13.582	3.0909	0.1	-9.5065e-003
28463	13.489	3.3636	0.1	-9.0558e-003
28464	13.582	3.2727	0.1	-9.3256e-003
28465	13.489	3.5455	0.1	-9.0906e-003
28466	13.582	3.4545	0.1	-9.1261e-003
28467	13.489	3.7273	0.1	-9.4082e-003
28468	13.582	3.6364	0.1	-9.1445e-003
28469	13.489	3.9091	0.1	-1.0097e-002
28470	13.582	3.8182	0.1	-9.5719e-003
28471	13.489	4.0909	0.1	-1.1122e-002
28472	13.582	4.	0.1	-1.0467e-002
28473	13.489	4.2727	0.1	-1.2331e-002
28474	13.582	4.1818	0.1	-1.1732e-002
28475	13.489	4.4545	0.1	-1.3465e-002
28476	13.582	4.3636	0.1	-1.314e-002
28477	13.489	4.6364	0.1	-1.4195e-002
28478	13.582	4.5455	0.1	-1.4348e-002
28479	13.489	4.8182	0.1	-1.4048e-002
28480	13.582	4.7273	0.1	-1.4969e-002
28481	13.489	5.	0.1	-1.267e-002
28482	13.582	4.9091	0.1	-1.4347e-002
28483	13.489	5.1818	0.1	-8.479e-003
28484	13.582	5.0909	0.1	-1.2341e-002
28485	13.489	5.3636	0.1	-3.3978e-003
28486	13.582	5.2727	0.1	-5.6029e-003
28487	13.489	5.5455	0.1	2.3461e-002
28488	13.582	5.4545	0.1	-1.3951e-003
28489	13.489	5.7273	0.1	3.9148e-002
28490	13.582	5.6364	0.1	5.3295e-002
28491	13.582	5.8182	0.1	3.0776e-002
28492	13.489	5.9091	0.1	5.3249e-003
28493	13.674	0.27273	0.1	4.5333e-002
28494	13.766	0.18182	0.1	4.0127e-002
28495	13.674	9.0909e-002	0.1	5.7957e-003
28496	13.674	0.45455	0.1	2.5645e-002
28497	13.766	0.36364	0.1	6.0052e-002
28498	13.674	0.63636	0.1	-4.9385e-003
28499	13.766	0.54545	0.1	-3.0061e-003
28500	13.674	0.81818	0.1	-1.015e-002
28501	13.766	0.72727	0.1	-7.1207e-003
28502	13.674	1.	0.1	-1.4395e-002
28503	13.766	0.90909	0.1	-1.4211e-002
28504	13.674	1.1818	0.1	-1.5471e-002
28505	13.766	1.0909	0.1	-1.5917e-002
28506	13.674	1.3636	0.1	-1.5217e-002
28507	13.766	1.2727	0.1	-1.6126e-002
28508	13.674	1.5455	0.1	-1.4044e-002
28509	13.766	1.4545	0.1	-1.5e-002
28510	13.674	1.7273	0.1	-1.2511e-002
28511	13.766	1.6364	0.1	-1.3304e-002
28512	13.674	1.9091	0.1	-1.1015e-002
28513	13.766	1.8182	0.1	-1.1505e-002
28514	13.674	2.0909	0.1	-9.8708e-003
28515	13.766	2.	0.1	-1.0022e-002
28516	13.674	2.2727	0.1	-9.2539e-003
28517	13.766	2.1818	0.1	-9.1361e-003
28518	13.674	2.4545	0.1	-9.1695e-003
28519	13.766	2.3636	0.1	-8.9456e-003
28520	13.674	2.6364	0.1	-9.445e-003
28521	13.766	2.5455	0.1	-9.3202e-003
28522	13.674	2.8182	0.1	-9.7938e-003
28523	13.766	2.7273	0.1	-9.9297e-003
28524	13.674	3.	0.1	-9.9469e-003
28525	13.766	2.9091	0.1	-1.0373e-002
28526	13.674	3.1818	0.1	-9.7939e-003
28527	13.766	3.0909	0.1	-1.0373e-002
28528	13.674	3.3636	0.1	-9.4452e-003
28529	13.766	3.2727	0.1	-9.9297e-003
28530	13.674	3.5455	0.1	-9.1696e-003
28531	13.766	3.4545	0.1	-9.3201e-003
28532	13.674	3.7273	0.1	-9.2539e-003
28533	13.766	3.6364	0.1	-8.9455e-003
28534	13.674	3.9091	0.1	-9.8703e-003
28535	13.766	3.8182	0.1	-9.1362e-003
28536	13.674	4.0909	0.1	-1.1014e-002
28537	13.766	4.	0.1	-1.0022e-002
28538	13.674	4.2727	0.1	-1.2511e-002
28539	13.766	4.1818	0.1	-1.1504e-002
28540	13.674	4.4545	0.1	-1.4043e-002
28541	13.766	4.3636	0.1	-1.3304e-002
28542	13.674	4.6364	0.1	-1.5216e-002
28543	13.766	4.5455	0.1	-1.5e-002
28544	13.674	4.8182	0.1	-1.5471e-002
28545	13.766	4.7273	0.1	-1.6125e-002
28546	13.674	5.	0.1	-1.4394e-002
28547	13.766	4.9091	0.1	-1.5917e-002
28548	13.674	5.1818	0.1	-1.0149e-002
28549	13.766	5.0909	0.1	-1.4209e-002
28550	13.674	5.3636	0.1	-4.9379e-003
28551	13.766	5.2727	0.1	-7.1192e-003
28552	13.674	5.5455	0.1	2.5645e-002
28553	13.766	5.4545	0.1	-3.006e-003
28554	13.674	5.7273	0.1	4.5333e-002
28555	13.766	5.6364	0.1	6.0052e-002
28556	13.766	5.8182	0.1	4.0127e-002
28557	13.674	5.9091	0.1	5.7962e-003
28558	13.859	0.27273	0.1	5.2203e-002
28559	13.951	0.18182	0.1	5.1462e-002
28560	13.859	9.0909e-002	0.1	6.3311e-003
28561	13.859	0.45455	0.1	2.7907e-002
28562	13.951	0.36364	0.1	6.7447e-002
28563	13.859	0.63636	0.1	-6.7759e-003
28564	13.951	0.54545	0.1	-4.9987e-003
28565	13.859	0.81818	0.1	-1.1979e-002
28566	13.951	0.72727	0.1	-8.7939e-003
28567	13.859	1.	0.1	-1.6167e-002
28568	13.951	0.90909	0.1	-1.6135e-002
28569	13.859	1.1818	0.1	-1.6804e-002
28570	13.951	1.0909	0.1	-1.7383e-002
28571	13.859	1.3636	0.1	-1.6015e-002
28572	13.951	1.2727	0.1	-1.7029e-002
28573	13.859	1.5455	0.1	-1.4277e-002
28574	13.951	1.4545	0.1	-1.525e-002
28575	13.859	1.7273	0.1	-1.2251e-002
28576	13.951	1.6364	0.1	-1.2939e-002
28577	13.859	1.9091	0.1	-1.0425e-002
28578	13.951	1.8182	0.1	-1.0663e-002
28579	13.859	2.0909	0.1	-9.1897e-003
28580	13.951	2.	0.1	-8.9518e-003
28581	13.859	2.2727	0.1	-8.7562e-003
28582	13.951	2.1818	0.1	-8.1592e-003
28583	13.859	2.4545	0.1	-9.0912e-003
28584	13.951	2.3636	0.1	-8.393e-003
28585	13.859	2.6364	0.1	-9.8926e-003
28586	13.951	2.5455	0.1	-9.421e-003
28587	13.859	2.8182	0.1	-1.0681e-002
28588	13.951	2.7273	0.1	-1.0701e-002
28589	13.859	3.	0.1	-1.1005e-002
28590	13.951	2.9091	0.1	-1.157e-002
28591	13.859	3.1818	0.1	-1.0681e-002
28592	13.951	3.0909	0.1	-1.157e-002
28593	13.859	3.3636	0.1	-9.8923e-003
28594	13.951	3.2727	0.1	-1.07e-002
28595	13.859	3.5455	0.1	-9.0909e-003
28596	13.951	3.4545	0.1	-9.4208e-003
28597	13.859	3.7273	0.1	-8.7563e-003
28598	13.951	3.6364	0.1	-8.3927e-003
28599	13.859	3.9091	0.1	-9.1899e-003
28600	13.951	3.8182	0.1	-8.1591e-003
28601	13.859	4.0909	0.1	-1.0425e-002
28602	13.951	4.	0.1	-8.9515e-003
28603	13.859	4.2727	0.1	-1.2251e-002
28604	13.951	4.1818	0.1	-1.0663e-002
28605	13.859	4.4545	0.1	-1.4277e-002
28606	13.951	4.3636	0.1	-1.2939e-002
28607	13.859	4.6364	0.1	-1.6015e-002
28608	13.951	4.5455	0.1	-1.525e-002
28609	13.859	4.8182	0.1	-1.6804e-002
28610	13.951	4.7273	0.1	-1.7028e-002
28611	13.859	5.	0.1	-1.6166e-002
28612	13.951	4.9091	0.1	-1.7383e-002
28613	13.859	5.1818	0.1	-1.1977e-002
28614	13.951	5.0909	0.1	-1.6132e-002
28615	13.859	5.3636	0.1	-6.7749e-003
28616	13.951	5.2727	0.1	-8.7924e-003
28617	13.859	5.5455	0.1	2.7907e-002
28618	13.951	5.4545	0.1	-4.9984e-003
28619	13.859	5.7273	0.1	5.2203e-002
28620	13.951	5.6364	0.1	6.7447e-002
28621	13.951	5.8182	0.1	5.1462e-002
28622	13.859	5.9091	0.1	6.3315e-003
28623	14.043	0.27273	0.1	5.9657e-002
28624	14.136	0.18182	0.1	6.4729e-002
28625	14.043	9.0909e-002	0.1	6.9678e-003
28626	14.043	0.45455	0.1	3.0228e-002
28627	14.136	0.36364	0.1	7.5417e-002
28628	14.043	0.63636	0.1	-8.8898e-003
28629	14.136	0.54545	0.1	-7.4109e-003
28630	14.043	0.81818	0.1	-1.3877e-002
28631	14.136	0.72727	0.1	-1.0561e-002
28632	14.043	1.	0.1	-1.7852e-002
28633	14.136	0.90909	0.1	-1.7991e-002
28634	14.043	1.1818	0.1	-1.7874e-002
28635	14.136	1.0909	0.1	-1.8576e-002
28636	14.043	1.3636	0.1	-1.6382e-002
28637	14.136	1.2727	0.1	-1.7469e-002
28638	14.043	1.5455	0.1	-1.3925e-002
28639	14.136	1.4545	0.1	-1.4854e-002
28640	14.043	1.7273	0.1	-1.1286e-002
28641	14.136	1.6364	0.1	-1.1767e-002
28642	14.043	1.9091	0.1	-9.0738e-003
28643	14.136	1.8182	0.1	-8.9057e-003
28644	14.043	2.0909	0.1	-7.7905e-003
28645	14.136	2.	0.1	-6.9495e-003
28646	14.043	2.2727	0.1	-7.7028e-003
28647	14.136	2.1818	0.1	-6.3715e-003
28648	14.043	2.4545	0.1	-8.728e-003
28649	14.136	2.3636	0.1	-7.2996e-003
28650	14.043	2.6364	0.1	-1.0376e-002
28651	14.136	2.5455	0.1	-9.3622e-003
28652	14.043	2.8182	0.1	-1.1869e-002
28653	14.136	2.7273	0.1	-1.1698e-002
28654	14.043	3.	0.1	-1.2469e-002
28655	14.136	2.9091	0.1	-1.3241e-002
28656	14.043	3.1818	0.1	-1.1869e-002
28657	14.136	3.0909	0.1	-1.3241e-002
28658	14.043	3.3636	0.1	-1.0376e-002
28659	14.136	3.2727	0.1	-1.1698e-002
28660	14.043	3.5455	0.1	-8.7278e-003
28661	14.136	3.4545	0.1	-9.3622e-003
28662	14.043	3.7273	0.1	-7.7024e-003
28663	14.136	3.6364	0.1	-7.2993e-003
28664	14.043	3.9091	0.1	-7.7899e-003
28665	14.136	3.8182	0.1	-6.3709e-003
28666	14.043	4.0909	0.1	-9.0733e-003
28667	14.136	4.	0.1	-6.9491e-003
28668	14.043	4.2727	0.1	-1.1286e-002
28669	14.136	4.1818	0.1	-8.9056e-003
28670	14.043	4.4545	0.1	-1.3925e-002
28671	14.136	4.3636	0.1	-1.1767e-002
28672	14.043	4.6364	0.1	-1.6382e-002
28673	14.136	4.5455	0.1	-1.4854e-002
28674	14.043	4.8182	0.1	-1.7874e-002
28675	14.136	4.7273	0.1	-1.7469e-002
28676	14.043	5.	0.1	-1.785e-002
28677	14.136	4.9091	0.1	-1.8576e-002
28678	14.043	5.1818	0.1	-1.3875e-002
28679	14.136	5.0909	0.1	-1.7989e-002
28680	14.043	5.3636	0.1	-8.889e-003
28681	14.136	5.2727	0.1	-1.0559e-002
28682	14.043	5.5455	0.1	3.0228e-002
28683	14.136	5.4545	0.1	-7.4108e-003
28684	14.043	5.7273	0.1	5.9657e-002
28685	14.136	5.6364	0.1	7.5417e-002
28686	14.136	5.8182	0.1	6.4729e-002
28687	14.043	5.9091	0.1	6.969e-003
28688	14.228	0.27273	0.1	6.7399e-002
28689	14.321	0.18182	0.1	7.9447e-002
28690	14.228	9.0909e-002	0.1	7.6988e-003
28691	14.228	0.45455	0.1	3.252e-002
28692	14.321	0.36364	0.1	8.3749e-002
28693	14.228	0.63636	0.1	-1.1277e-002
28694	14.321	0.54545	0.1	-1.032e-002
28695	14.228	0.81818	0.1	-1.5749e-002
28696	14.321	0.72727	0.1	-1.2361e-002
28697	14.228	1.	0.1	-1.9294e-002
28698	14.321	0.90909	0.1	-1.9639e-002
28699	14.228	1.1818	0.1	-1.8479e-002
28700	14.321	1.0909	0.1	-1.9298e-002
28701	14.228	1.3636	0.1	-1.6077e-002
28702	14.321	1.2727	0.1	-1.7207e-002
28703	14.228	1.5455	0.1	-1.2707e-002
28704	14.321	1.4545	0.1	-1.3532e-002
28705	14.228	1.7273	0.1	-9.3016e-003
28706	14.321	1.6364	0.1	-9.4662e-003
28707	14.228	1.9091	0.1	-6.6306e-003
28708	14.321	1.8182	0.1	-5.8752e-003
28709	14.228	2.0909	0.1	-5.3596e-003
28710	14.321	2.	0.1	-3.6543e-003
28711	14.228	2.2727	0.1	-5.849e-003
28712	14.321	2.1818	0.1	-3.4578e-003
28713	14.228	2.4545	0.1	-7.957e-003
28714	14.321	2.3636	0.1	-5.4644e-003
28715	14.228	2.6364	0.1	-1.0921e-002
28716	14.321	2.5455	0.1	-9.1115e-003
28717	14.228	2.8182	0.1	-1.3512e-002
28718	14.321	2.7273	0.1	-1.3067e-002
28719	14.228	3.	0.1	-1.4542e-002
28720	14.321	2.9091	0.1	-1.5648e-002
28721	14.228	3.1818	0.1	-1.3513e-002
28722	14.321	3.0909	0.1	-1.5648e-002
28723	14.228	3.3636	0.1	-1.0922e-002
28724	14.321	3.2727	0.1	-1.3067e-002
28725	14.228	3.5455	0.1	-7.9569e-003
28726	14.321	3.4545	0.1	-9.1115e-003
28727	14.228	3.7273	0.1	-5.8485e-003
28728	14.321	3.6364	0.1	-5.4638e-003
28729	14.228	3.9091	0.1	-5.3592e-003
28730	14.321	3.8182	0.1	-3.4576e-003
28731	14.228	4.0909	0.1	-6.6305e-003
28732	14.321	4.	0.1	-3.6541e-003
28733	14.228	4.2727	0.1	-9.3018e-003
28734	14.321	4.1818	0.1	-5.8754e-003
28735	14.228	4.4545	0.1	-1.2707e-002
28736	14.321	4.3636	0.1	-9.466e-003
28737	14.228	4.6364	0.1	-1.6076e-002
28738	14.321	4.5455	0.1	-1.3532e-002
28739	14.228	4.8182	0.1	-1.8479e-002
28740	14.321	4.7273	0.1	-1.7207e-002
28741	14.228	5.	0.1	-1.9293e-002
28742	14.321	4.9091	0.1	-1.9297e-002
28743	14.228	5.1818	0.1	-1.5748e-002
28744	14.321	5.0909	0.1	-1.9637e-002
28745	14.228	5.3636	0.1	-1.1276e-002
28746	14.321	5.2727	0.1	-1.236e-002
28747	14.228	5.5455	0.1	3.252e-002
28748	14.321	5.4545	0.1	-1.032e-002
28749	14.228	5.7273	0.1	6.7399e-002
28750	14.321	5.6364	0.1	8.375e-002
28751	14.321	5.8182	0.1	7.9447e-002
28752	14.228	5.9091	0.1	7.6994e-003
28753	14.413	0.27273	0.1	7.4834e-002
28754	14.505	0.18182	0.1	9.4503e-002
28755	14.413	9.0909e-002	0.1	8.4278e-003
28756	14.413	0.45455	0.1	3.459e-002
28757	14.505	0.36364	0.1	9.2085e-002
28758	14.413	0.63636	0.1	-1.3955e-002
28759	14.505	0.54545	0.1	-1.3779e-002
28760	14.413	0.81818	0.1	-1.7489e-002
28761	14.505	0.72727	0.1	-1.4063e-002
28762	14.413	1.	0.1	-2.0309e-002
28763	14.505	0.90909	0.1	-2.0834e-002
28764	14.413	1.1818	0.1	-1.8382e-002
28765	14.505	1.0909	0.1	-1.9236e-002
28766	14.413	1.3636	0.1	-1.482e-002
28767	14.505	1.2727	0.1	-1.5887e-002
28768	14.413	1.5455	0.1	-1.0302e-002
28769	14.505	1.4545	0.1	-1.0885e-002
28770	14.413	1.7273	0.1	-5.9359e-003
28771	14.505	1.6364	0.1	-5.5897e-003
28772	14.413	1.9091	0.1	-2.7114e-003
28773	14.505	1.8182	0.1	-1.0833e-003
28774	14.413	2.0909	0.1	-1.5362e-003
28775	14.505	2.	0.1	1.4318e-003
28776	14.413	2.2727	0.1	-2.9251e-003
28777	14.505	2.1818	0.1	1.0169e-003
28778	14.413	2.4545	0.1	-6.6731e-003
28779	14.505	2.3636	0.1	-2.6093e-003
28780	14.413	2.6364	0.1	-1.163e-002
28781	14.505	2.5455	0.1	-8.6238e-003
28782	14.413	2.8182	0.1	-1.5891e-002
28783	14.505	2.7273	0.1	-1.501e-002
28784	14.413	3.	0.1	-1.7577e-002
28785	14.505	2.9091	0.1	-1.9153e-002
28786	14.413	3.1818	0.1	-1.5891e-002
28787	14.505	3.0909	0.1	-1.9153e-002
28788	14.413	3.3636	0.1	-1.163e-002
28789	14.505	3.2727	0.1	-1.5009e-002
28790	14.413	3.5455	0.1	-6.6726e-003
28791	14.505	3.4545	0.1	-8.6239e-003
28792	14.413	3.7273	0.1	-2.9248e-003
28793	14.505	3.6364	0.1	-2.6084e-003
28794	14.413	3.9091	0.1	-1.5362e-003
28795	14.505	3.8182	0.1	1.0166e-003
28796	14.413	4.0909	0.1	-2.7113e-003
28797	14.505	4.	0.1	1.4323e-003
28798	14.413	4.2727	0.1	-5.9356e-003
28799	14.505	4.1818	0.1	-1.083e-003
28800	14.413	4.4545	0.1	-1.0302e-002
28801	14.505	4.3636	0.1	-5.5892e-003
28802	14.413	4.6364	0.1	-1.4819e-002
28803	14.505	4.5455	0.1	-1.0885e-002
28804	14.413	4.8182	0.1	-1.8381e-002
28805	14.505	4.7273	0.1	-1.5887e-002
28806	14.413	5.	0.1	-2.0307e-002
28807	14.505	4.9091	0.1	-1.9236e-002
28808	14.413	5.1818	0.1	-1.7487e-002
28809	14.505	5.0909	0.1	-2.0832e-002
28810	14.413	5.3636	0.1	-1.3955e-002
28811	14.505	5.2727	0.1	-1.4061e-002
28812	14.413	5.5455	0.1	3.4591e-002
28813	14.505	5.4545	0.1	-1.3779e-002
28814	14.413	5.7273	0.1	7.4834e-002
28815	14.505	5.6364	0.1	9.2085e-002
28816	14.505	5.8182	0.1	9.4504e-002
28817	14.413	5.9091	0.1	8.4283e-003
28818	14.598	0.27273	0.1	8.1076e-002
28819	14.69	0.18182	0.1	0.10781
28820	14.598	9.0909e-002	0.1	9.0687e-003
28821	14.598	0.45455	0.1	3.6241e-002
28822	14.69	0.36364	0.1	9.9828e-002
28823	14.598	0.63636	0.1	-1.6821e-002
28824	14.69	0.54545	0.1	-1.7815e-002
28825	14.598	0.81818	0.1	-1.8821e-002
28826	14.69	0.72727	0.1	-1.5437e-002
28827	14.598	1.	0.1	-2.052e-002
28828	14.69	0.90909	0.1	-2.1189e-002
28829	14.598	1.1818	0.1	-1.7149e-002
28830	14.69	1.0909	0.1	-1.7929e-002
28831	14.598	1.3636	0.1	-1.2136e-002
28832	14.69	1.2727	0.1	-1.3007e-002
28833	14.598	1.5455	0.1	-6.1904e-003
28834	14.69	1.4545	0.1	-6.3797e-003
28835	14.598	1.7273	0.1	-6.1978e-004
28836	14.69	1.6364	0.1	4.4345e-004
28837	14.598	1.9091	0.1	3.2813e-003
28838	14.69	1.8182	0.1	6.0988e-003
28839	14.598	2.0909	0.1	4.2464e-003
28840	14.69	2.	0.1	8.9402e-003
28841	14.598	2.2727	0.1	1.5063e-003
28842	14.69	2.1818	0.1	7.5918e-003
28843	14.598	2.4545	0.1	-4.6683e-003
28844	14.69	2.3636	0.1	1.593e-003
28845	14.598	2.6364	0.1	-1.2577e-002
28846	14.69	2.5455	0.1	-7.8887e-003
28847	14.598	2.8182	0.1	-1.9321e-002
28848	14.69	2.7273	0.1	-1.7839e-002
28849	14.598	3.	0.1	-2.1985e-002
28850	14.69	2.9091	0.1	-2.4278e-002
28851	14.598	3.1818	0.1	-1.9321e-002
28852	14.69	3.0909	0.1	-2.4278e-002
28853	14.598	3.3636	0.1	-1.2577e-002
28854	14.69	3.2727	0.1	-1.7839e-002
28855	14.598	3.5455	0.1	-4.668e-003
28856	14.69	3.4545	0.1	-7.8885e-003
28857	14.598	3.7273	0.1	1.5067e-003
28858	14.69	3.6364	0.1	1.5933e-003
28859	14.598	3.9091	0.1	4.2467e-003
28860	14.69	3.8182	0.1	7.5919e-003
28861	14.598	4.0909	0.1	3.2821e-003
28862	14.69	4.	0.1	8.941e-003
28863	14.598	4.2727	0.1	-6.1923e-004
28864	14.69	4.1818	0.1	6.0993e-003
28865	14.598	4.4545	0.1	-6.1902e-003
28866	14.69	4.3636	0.1	4.4351e-004
28867	14.598	4.6364	0.1	-1.2136e-002
28868	14.69	4.5455	0.1	-6.3794e-003
28869	14.598	4.8182	0.1	-1.7148e-002
28870	14.69	4.7273	0.1	-1.3007e-002
28871	14.598	5.	0.1	-2.0519e-002
28872	14.69	4.9091	0.1	-1.793e-002
28873	14.598	5.1818	0.1	-1.8819e-002
28874	14.69	5.0909	0.1	-2.1187e-002
28875	14.598	5.3636	0.1	-1.682e-002
28876	14.69	5.2727	0.1	-1.5436e-002
28877	14.598	5.5455	0.1	3.6241e-002
28878	14.69	5.4545	0.1	-1.7815e-002
28879	14.598	5.7273	0.1	8.1075e-002
28880	14.69	5.6364	0.1	9.9828e-002
28881	14.69	5.8182	0.1	0.10781
28882	14.598	5.9091	0.1	9.0687e-003
28883	14.783	0.27273	0.1	8.4661e-002
28884	14.875	0.18182	0.1	0.11586
28885	14.783	9.0909e-002	0.1	9.3741e-003
28886	14.783	0.45455	0.1	3.7098e-002
28887	14.875	0.36364	0.1	0.10598
28888	14.783	0.63636	0.1	-1.9758e-002
28889	14.875	0.54545	0.1	-2.2474e-002
28890	14.783	0.81818	0.1	-1.9394e-002
28891	14.875	0.72727	0.1	-1.6184e-002
28892	14.783	1.	0.1	-1.9448e-002
28893	14.875	0.90909	0.1	-2.018e-002
28894	14.783	1.1818	0.1	-1.4246e-002
28895	14.875	1.0909	0.1	-1.476e-002
28896	14.783	1.3636	0.1	-7.4645e-003
28897	14.875	1.2727	0.1	-7.921e-003
28898	14.783	1.5455	0.1	2.1993e-004
28899	14.875	1.4545	0.1	6.4641e-004
28900	14.783	1.7273	0.1	7.2791e-003
28901	14.875	1.6364	0.1	9.3366e-003
28902	14.783	1.9091	0.1	1.1999e-002
28903	14.875	1.8182	0.1	1.6432e-002
28904	14.783	2.0909	0.1	1.2581e-002
28905	14.875	2.	0.1	1.9643e-002
28906	14.783	2.2727	0.1	7.8611e-003
28907	14.875	2.1818	0.1	1.6888e-002
28908	14.783	2.4545	0.1	-1.8317e-003
28909	14.875	2.3636	0.1	7.4124e-003
28910	14.783	2.6364	0.1	-1.402e-002
28911	14.875	2.5455	0.1	-7.0828e-003
28912	14.783	2.8182	0.1	-2.4365e-002
28913	14.875	2.7273	0.1	-2.2138e-002
28914	14.783	3.	0.1	-2.8447e-002
28915	14.875	2.9091	0.1	-3.1845e-002
28916	14.783	3.1818	0.1	-2.4364e-002
28917	14.875	3.0909	0.1	-3.1845e-002
28918	14.783	3.3636	0.1	-1.402e-002
28919	14.875	3.2727	0.1	-2.2138e-002
28920	14.783	3.5455	0.1	-1.8316e-003
28921	14.875	3.4545	0.1	-7.0822e-003
28922	14.783	3.7273	0.1	7.8611e-003
28923	14.875	3.6364	0.1	7.4124e-003
28924	14.783	3.9091	0.1	1.2581e-002
28925	14.875	3.8182	0.1	1.6889e-002
28926	14.783	4.0909	0.1	1.2e-002
28927	14.875	4.	0.1	1.9643e-002
28928	14.783	4.2727	0.1	7.2791e-003
28929	14.875	4.1818	0.1	1.6433e-002
28930	14.783	4.4545	0.1	2.2012e-004
28931	14.875	4.3636	0.1	9.3368e-003
28932	14.783	4.6364	0.1	-7.4638e-003
28933	14.875	4.5455	0.1	6.4689e-004
28934	14.783	4.8182	0.1	-1.4245e-002
28935	14.875	4.7273	0.1	-7.9205e-003
28936	14.783	5.	0.1	-1.9447e-002
28937	14.875	4.9091	0.1	-1.4759e-002
28938	14.783	5.1818	0.1	-1.9393e-002
28939	14.875	5.0909	0.1	-2.0178e-002
28940	14.783	5.3636	0.1	-1.9758e-002
28941	14.875	5.2727	0.1	-1.6183e-002
28942	14.783	5.5455	0.1	3.7098e-002
28943	14.875	5.4545	0.1	-2.2474e-002
28944	14.783	5.7273	0.1	8.4661e-002
28945	14.875	5.6364	0.1	0.10598
28946	14.875	5.8182	0.1	0.11586
28947	14.783	5.9091	0.1	9.3741e-003
28948	14.967	0.27273	0.1	8.3402e-002
28949	15.06	0.18182	0.1	0.11334
28950	14.967	9.0909e-002	0.1	8.9045e-003
28951	14.967	0.45455	0.1	3.6581e-002
28952	15.06	0.36364	0.1	0.109
28953	14.967	0.63636	0.1	-2.2598e-002
28954	15.06	0.54545	0.1	-2.7833e-002
28955	14.967	0.81818	0.1	-1.8716e-002
28956	15.06	0.72727	0.1	-1.5915e-002
28957	14.967	1.	0.1	-1.6415e-002
28958	15.06	0.90909	0.1	-1.7089e-002
28959	14.967	1.1818	0.1	-8.9332e-003
28960	15.06	1.0909	0.1	-8.8843e-003
28961	14.967	1.3636	0.1	-5.4964e-005
28962	15.06	1.2727	0.1	2.1299e-004
28963	14.967	1.5455	0.1	9.6975e-003
28964	15.06	1.4545	0.1	1.0979e-002
28965	14.967	1.7273	0.1	1.858e-002
28966	15.06	1.6364	0.1	2.183e-002
28967	14.967	1.9091	0.1	2.4306e-002
28968	15.06	1.8182	0.1	3.065e-002
28969	14.967	2.0909	0.1	2.4245e-002
28970	15.06	2.	0.1	3.415e-002
28971	14.967	2.2727	0.1	1.6588e-002
28972	15.06	2.1818	0.1	2.9266e-002
28973	14.967	2.4545	0.1	1.7842e-003
28974	15.06	2.3636	0.1	1.4818e-002
28975	14.967	2.6364	0.1	-1.6506e-002
28976	15.06	2.5455	0.1	-6.7774e-003
28977	14.967	2.8182	0.1	-3.1916e-002
28978	15.06	2.7273	0.1	-2.8934e-002
28979	14.967	3.	0.1	-3.7981e-002
28980	15.06	2.9091	0.1	-4.3097e-002
28981	14.967	3.1818	0.1	-3.1916e-002
28982	15.06	3.0909	0.1	-4.3098e-002
28983	14.967	3.3636	0.1	-1.6506e-002
28984	15.06	3.2727	0.1	-2.8934e-002
28985	14.967	3.5455	0.1	1.7845e-003
28986	15.06	3.4545	0.1	-6.7771e-003
28987	14.967	3.7273	0.1	1.6588e-002
28988	15.06	3.6364	0.1	1.4819e-002
28989	14.967	3.9091	0.1	2.4246e-002
28990	15.06	3.8182	0.1	2.9266e-002
28991	14.967	4.0909	0.1	2.4306e-002
28992	15.06	4.	0.1	3.415e-002
28993	14.967	4.2727	0.1	1.8581e-002
28994	15.06	4.1818	0.1	3.065e-002
28995	14.967	4.4545	0.1	9.6979e-003
28996	15.06	4.3636	0.1	2.1831e-002
28997	14.967	4.6364	0.1	-5.4694e-005
28998	15.06	4.5455	0.1	1.0979e-002
28999	14.967	4.8182	0.1	-8.9323e-003
29000	15.06	4.7273	0.1	2.1323e-004
29001	14.967	5.	0.1	-1.6414e-002
29002	15.06	4.9091	0.1	-8.8836e-003
29003	14.967	5.1818	0.1	-1.8714e-002
29004	15.06	5.0909	0.1	-1.7087e-002
29005	14.967	5.3636	0.1	-2.2597e-002
29006	15.06	5.2727	0.1	-1.5913e-002
29007	14.967	5.5455	0.1	3.6581e-002
29008	15.06	5.4545	0.1	-2.7834e-002
29009	14.967	5.7273	0.1	8.3402e-002
29010	15.06	5.6364	0.1	0.109
29011	15.06	5.8182	0.1	0.11334
29012	14.967	5.9091	0.1	8.9038e-003
29013	15.152	0.27273	0.1	7.4173e-002
29014	15.245	0.18182	0.1	9.2959e-002
29015	15.152	9.0909e-002	0.1	6.9177e-003
29016	15.152	0.45455	0.1	3.3789e-002
29017	15.245	0.36364	0.1	0.10662
29018	15.152	0.63636	0.1	-2.5141e-002
29019	15.245	0.54545	0.1	-3.4011e-002
29020	15.152	0.81818	0.1	-1.6137e-002
29021	15.245	0.72727	0.1	-1.4135e-002
29022	15.152	1.	0.1	-1.0513e-002
29023	15.245	0.90909	0.1	-1.0931e-002
29024	15.152	1.1818	0.1	-2.473e-004
29025	15.245	1.0909	0.1	8.8932e-004
29026	15.152	1.3636	0.1	1.0978e-002
29027	15.245	1.2727	0.1	1.263e-002
29028	15.152	1.5455	0.1	2.2993e-002
29029	15.245	1.4545	0.1	2.5797e-002
29030	15.152	1.7273	0.1	3.3916e-002
29031	15.245	1.6364	0.1	3.9143e-002
29032	15.152	1.9091	0.1	4.0649e-002
29033	15.245	1.8182	0.1	4.998e-002
29034	15.152	2.0909	0.1	3.9394e-002
29035	15.245	2.	0.1	5.3829e-002
29036	15.152	2.2727	0.1	2.752e-002
29037	15.245	2.1818	0.1	4.5574e-002
29038	15.152	2.4545	0.1	5.569e-003
29039	15.245	2.3636	0.1	2.3358e-002
29040	15.152	2.6364	0.1	-2.1149e-002
29041	15.245	2.5455	0.1	-8.3867e-003
29042	15.152	2.8182	0.1	-4.3396e-002
29043	15.245	2.7273	0.1	-4.0002e-002
29044	15.152	3.	0.1	-5.2086e-002
29045	15.245	2.9091	0.1	-5.9839e-002
29046	15.152	3.1818	0.1	-4.3396e-002
29047	15.245	3.0909	0.1	-5.9839e-002
29048	15.152	3.3636	0.1	-2.1149e-002
29049	15.245	3.2727	0.1	-4.0003e-002
29050	15.152	3.5455	0.1	5.57e-003
29051	15.245	3.4545	0.1	-8.3865e-003
29052	15.152	3.7273	0.1	2.752e-002
29053	15.245	3.6364	0.1	2.3359e-002
29054	15.152	3.9091	0.1	3.9393e-002
29055	15.245	3.8182	0.1	4.5573e-002
29056	15.152	4.0909	0.1	4.0649e-002
29057	15.245	4.	0.1	5.3829e-002
29058	15.152	4.2727	0.1	3.3916e-002
29059	15.245	4.1818	0.1	4.998e-002
29060	15.152	4.4545	0.1	2.2993e-002
29061	15.245	4.3636	0.1	3.9143e-002
29062	15.152	4.6364	0.1	1.0978e-002
29063	15.245	4.5455	0.1	2.5797e-002
29064	15.152	4.8182	0.1	-2.4721e-004
29065	15.245	4.7273	0.1	1.263e-002
29066	15.152	5.	0.1	-1.0511e-002
29067	15.245	4.9091	0.1	8.9019e-004
29068	15.152	5.1818	0.1	-1.6135e-002
29069	15.245	5.0909	0.1	-1.0928e-002
29070	15.152	5.3636	0.1	-2.514e-002
29071	15.245	5.2727	0.1	-1.4133e-002
29072	15.152	5.5455	0.1	3.3788e-002
29073	15.245	5.4545	0.1	-3.4011e-002
29074	15.152	5.7273	0.1	7.4173e-002
29075	15.245	5.6364	0.1	0.10662
29076	15.245	5.8182	0.1	9.2959e-002
29077	15.152	5.9091	0.1	6.918e-003
29078	15.337	0.27273	0.1	5.2906e-002
29079	15.429	0.18182	0.1	4.5895e-002
29080	15.337	9.0909e-002	0.1	2.3552e-003
29081	15.337	0.45455	0.1	2.7463e-002
29082	15.429	0.36364	0.1	9.5655e-002
29083	15.337	0.63636	0.1	-2.7117e-002
29084	15.429	0.54545	0.1	-4.1334e-002
29085	15.337	0.81818	0.1	-1.0768e-002
29086	15.429	0.72727	0.1	-1.0456e-002
29087	15.337	1.	0.1	-4.2673e-004
29088	15.429	0.90909	0.1	-5.9005e-004
29089	15.337	1.1818	0.1	1.331e-002
29090	15.429	1.0909	0.1	1.612e-002
29091	15.337	1.3636	0.1	2.718e-002
29092	15.429	1.2727	0.1	3.0883e-002
29093	15.337	1.5455	0.1	4.1746e-002
29094	15.429	1.4545	0.1	4.6136e-002
29095	15.337	1.7273	0.1	5.507e-002
29096	15.429	1.6364	0.1	6.127e-002
29097	15.337	1.9091	0.1	6.3132e-002
29098	15.429	1.8182	0.1	7.3985e-002
29099	15.337	2.0909	0.1	6.0034e-002
29100	15.429	2.	0.1	7.6393e-002
29101	15.337	2.2727	0.1	4.1143e-002
29102	15.429	2.1818	0.1	6.2439e-002
29103	15.337	2.4545	0.1	8.1656e-003
29104	15.429	2.3636	0.1	3.0384e-002
29105	15.337	2.6364	0.1	-3.0108e-002
29106	15.429	2.5455	0.1	-1.4755e-002
29107	15.337	2.8182	0.1	-6.0975e-002
29108	15.429	2.7273	0.1	-5.8233e-002
29109	15.337	3.	0.1	-7.2836e-002
29110	15.429	2.9091	0.1	-8.4466e-002
29111	15.337	3.1818	0.1	-6.0974e-002
29112	15.429	3.0909	0.1	-8.4465e-002
29113	15.337	3.3636	0.1	-3.0108e-002
29114	15.429	3.2727	0.1	-5.8233e-002
29115	15.337	3.5455	0.1	8.1656e-003
29116	15.429	3.4545	0.1	-1.4754e-002
29117	15.337	3.7273	0.1	4.1143e-002
29118	15.429	3.6364	0.1	3.0384e-002
29119	15.337	3.9091	0.1	6.0035e-002
29120	15.429	3.8182	0.1	6.2439e-002
29121	15.337	4.0909	0.1	6.3132e-002
29122	15.429	4.	0.1	7.6393e-002
29123	15.337	4.2727	0.1	5.507e-002
29124	15.429	4.1818	0.1	7.3985e-002
29125	15.337	4.4545	0.1	4.1747e-002
29126	15.429	4.3636	0.1	6.127e-002
29127	15.337	4.6364	0.1	2.718e-002
29128	15.429	4.5455	0.1	4.6136e-002
29129	15.337	4.8182	0.1	1.331e-002
29130	15.429	4.7273	0.1	3.0883e-002
29131	15.337	5.	0.1	-4.247e-004
29132	15.429	4.9091	0.1	1.612e-002
29133	15.337	5.1818	0.1	-1.0766e-002
29134	15.429	5.0909	0.1	-5.8873e-004
29135	15.337	5.3636	0.1	-2.7116e-002
29136	15.429	5.2727	0.1	-1.0455e-002
29137	15.337	5.5455	0.1	2.7463e-002
29138	15.429	5.4545	0.1	-4.1333e-002
29139	15.337	5.7273	0.1	5.2907e-002
29140	15.429	5.6364	0.1	9.5655e-002
29141	15.429	5.8182	0.1	4.5895e-002
29142	15.337	5.9091	0.1	2.3558e-003
29143	15.522	0.27273	0.1	1.4647e-002
29144	15.614	0.18182	0.1	-3.5881e-002
29145	15.522	9.0909e-002	0.1	-6.4916e-003
29146	15.522	0.45455	0.1	1.5683e-002
29147	15.614	0.36364	0.1	7.2595e-002
29148	15.522	0.63636	0.1	-2.8581e-002
29149	15.614	0.54545	0.1	-4.986e-002
29150	15.522	0.81818	0.1	-1.9036e-003
29151	15.614	0.72727	0.1	-4.2664e-003
29152	15.522	1.	0.1	1.527e-002
29153	15.614	0.90909	0.1	1.5602e-002
29154	15.522	1.1818	0.1	3.3408e-002
29155	15.614	1.0909	0.1	3.9286e-002
29156	15.522	1.3636	0.1	4.9636e-002
29157	15.614	1.2727	0.1	5.8185e-002
29158	15.522	1.5455	0.1	6.5357e-002
29159	15.614	1.4545	0.1	7.6538e-002
29160	15.522	1.7273	0.1	7.9778e-002
29161	15.614	1.6364	0.1	9.5286e-002
29162	15.522	1.9091	0.1	8.6857e-002
29163	15.614	1.8182	0.1	0.10799
29164	15.522	2.0909	0.1	7.8411e-002
29165	15.614	2.	0.1	0.1116
29166	15.522	2.2727	0.1	5.0827e-002
29167	15.614	2.1818	0.1	8.8481e-002
29168	15.522	2.4545	0.1	5.2814e-003
29169	15.614	2.3636	0.1	3.2887e-002
29170	15.522	2.6364	0.1	-4.7046e-002
29171	15.614	2.5455	0.1	-3.2493e-002
29172	15.522	2.8182	0.1	-8.7687e-002
29173	15.614	2.7273	0.1	-8.7862e-002
29174	15.522	3.	0.1	-0.10278
29175	15.614	2.9091	0.1	-0.11947
29176	15.522	3.1818	0.1	-8.7687e-002
29177	15.614	3.0909	0.1	-0.11947
29178	15.522	3.3636	0.1	-4.7046e-002
29179	15.614	3.2727	0.1	-8.7862e-002
29180	15.522	3.5455	0.1	5.2819e-003
29181	15.614	3.4545	0.1	-3.2492e-002
29182	15.522	3.7273	0.1	5.0827e-002
29183	15.614	3.6364	0.1	3.2888e-002
29184	15.522	3.9091	0.1	7.8411e-002
29185	15.614	3.8182	0.1	8.8481e-002
29186	15.522	4.0909	0.1	8.6857e-002
29187	15.614	4.	0.1	0.1116
29188	15.522	4.2727	0.1	7.9778e-002
29189	15.614	4.1818	0.1	0.10799
29190	15.522	4.4545	0.1	6.5357e-002
29191	15.614	4.3636	0.1	9.5286e-002
29192	15.522	4.6364	0.1	4.9636e-002
29193	15.614	4.5455	0.1	7.6539e-002
29194	15.522	4.8182	0.1	3.3408e-002
29195	15.614	4.7273	0.1	5.8185e-002
29196	15.522	5.	0.1	1.527e-002
29197	15.614	4.9091	0.1	3.9286e-002
29198	15.522	5.1818	0.1	-1.9027e-003
29199	15.614	5.0909	0.1	1.5603e-002
29200	15.522	5.3636	0.1	-2.8579e-002
29201	15.614	5.2727	0.1	-4.2644e-003
29202	15.522	5.5455	0.1	1.5684e-002
29203	15.614	5.4545	0.1	-4.9859e-002
29204	15.522	5.7273	0.1	1.4647e-002
29205	15.614	5.6364	0.1	7.2595e-002
29206	15.614	5.8182	0.1	-3.588e-002
29207	15.522	5.9091	0.1	-6.4916e-003
29208	15.707	0.27273	0.1	-4.3999e-002
29209	15.799	0.18182	0.1	-0.15616
29210	15.707	9.0909e-002	0.1	-2.0624e-002
29211	15.707	0.45455	0.1	-2.6573e-003
29212	15.799	0.36364	0.1	3.3291e-002
29213	15.707	0.63636	0.1	-2.8666e-002
29214	15.799	0.54545	0.1	-6.0795e-002
29215	15.707	0.81818	0.1	1.2163e-002
29216	15.799	0.72727	0.1	3.0079e-003
29217	15.707	1.	0.1	3.9376e-002
29218	15.799	0.90909	0.1	3.6692e-002
29219	15.707	1.1818	0.1	6.415e-002
29220	15.799	1.0909	0.1	7.1294e-002
29221	15.707	1.3636	0.1	8.5108e-002
29222	15.799	1.2727	0.1	9.8681e-002
29223	15.707	1.5455	0.1	0.10609
29224	15.799	1.4545	0.1	0.11587
29225	15.707	1.7273	0.1	0.12266
29226	15.799	1.6364	0.1	0.12187
29227	15.707	1.9091	0.1	0.1317
29228	15.799	1.8182	0.1	0.13878
29229	15.707	2.0909	0.1	0.12053
29230	15.799	2.	0.1	0.11612
29231	15.707	2.2727	0.1	6.8596e-002
29232	15.799	2.1818	0.1	6.6559e-002
29233	15.707	2.4545	0.1	-8.6586e-003
29234	15.799	2.3636	0.1	1.2772e-002
29235	15.707	2.6364	0.1	-7.9176e-002
29236	15.799	2.5455	0.1	-6.764e-002
29237	15.707	2.8182	0.1	-0.12694
29238	15.799	2.7273	0.1	-0.13483
29239	15.707	3.	0.1	-0.14393
29240	15.799	2.9091	0.1	-0.16549
29241	15.707	3.1818	0.1	-0.12694
29242	15.799	3.0909	0.1	-0.16549
29243	15.707	3.3636	0.1	-7.9176e-002
29244	15.799	3.2727	0.1	-0.13483
29245	15.707	3.5455	0.1	-8.6578e-003
29246	15.799	3.4545	0.1	-6.764e-002
29247	15.707	3.7273	0.1	6.8597e-002
29248	15.799	3.6364	0.1	1.2774e-002
29249	15.707	3.9091	0.1	0.12053
29250	15.799	3.8182	0.1	6.656e-002
29251	15.707	4.0909	0.1	0.13171
29252	15.799	4.	0.1	0.11612
29253	15.707	4.2727	0.1	0.12266
29254	15.799	4.1818	0.1	0.13878
29255	15.707	4.4545	0.1	0.10609
29256	15.799	4.3636	0.1	0.12187
29257	15.707	4.6364	0.1	8.5108e-002
29258	15.799	4.5455	0.1	0.11587
29259	15.707	4.8182	0.1	6.415e-002
29260	15.799	4.7273	0.1	9.868e-002
29261	15.707	5.	0.1	3.9377e-002
29262	15.799	4.9091	0.1	7.1294e-002
29263	15.707	5.1818	0.1	1.2166e-002
29264	15.799	5.0909	0.1	3.6694e-002
29265	15.707	5.3636	0.1	-2.8665e-002
29266	15.799	5.2727	0.1	3.01e-003
29267	15.707	5.5455	0.1	-2.6575e-003
29268	15.799	5.4545	0.1	-6.0796e-002
29269	15.707	5.7273	0.1	-4.3998e-002
29270	15.799	5.6364	0.1	3.329e-002
29271	15.799	5.8182	0.1	-0.15615
29272	15.707	5.9091	0.1	-2.0622e-002
29273	15.891	0.27273	0.1	-0.12518
29274	15.984	0.18182	0.1	-0.29632
29275	15.891	9.0909e-002	0.1	-4.4436e-002
29276	15.891	0.45455	0.1	-3.0924e-002
29277	15.984	0.36364	0.1	-1.5967e-002
29278	15.891	0.63636	0.1	-3.0433e-002
29279	15.984	0.54545	0.1	-6.6918e-002
29280	15.891	0.81818	0.1	2.751e-002
29281	15.984	0.72727	0.1	1.5397e-002
29282	15.891	1.	0.1	6.909e-002
29283	15.984	0.90909	0.1	6.8083e-002
29284	15.891	1.1818	0.1	0.10656
29285	15.984	1.0909	0.1	0.12148
29286	15.891	1.3636	0.1	0.13001
29287	15.984	1.2727	0.1	0.15917
29288	15.891	1.5455	0.1	0.13141
29289	15.984	1.4545	0.1	0.19504
29290	15.891	1.7273	0.1	0.13659
29291	15.984	1.6364	0.1	0.26647
29292	15.891	1.9091	0.1	0.12111
29293	15.984	1.8182	0.1	0.2163
29294	15.891	2.0909	0.1	5.9663e-002
29295	15.984	2.	0.1	0.24291
29296	15.891	2.2727	0.1	6.7267e-003
29297	15.984	2.1818	0.1	0.18521
29298	15.891	2.4545	0.1	-5.2582e-002
29299	15.984	2.3636	0.1	-5.026e-002
29300	15.891	2.6364	0.1	-0.13106
29301	15.984	2.5455	0.1	-0.1534
29302	15.891	2.8182	0.1	-0.1813
29303	15.984	2.7273	0.1	-0.19584
29304	15.891	3.	0.1	-0.19489
29305	15.984	2.9091	0.1	-0.21666
29306	15.891	3.1818	0.1	-0.1813
29307	15.984	3.0909	0.1	-0.21666
29308	15.891	3.3636	0.1	-0.13106
29309	15.984	3.2727	0.1	-0.19584
29310	15.891	3.5455	0.1	-5.2581e-002
29311	15.984	3.4545	0.1	-0.1534
29312	15.891	3.7273	0.1	6.7275e-003
29313	15.984	3.6364	0.1	-5.0259e-002
29314	15.891	3.9091	0.1	5.9663e-002
29315	15.984	3.8182	0.1	0.18521
29316	15.891	4.0909	0.1	0.12111
29317	15.984	4.	0.1	0.24291
29318	15.891	4.2727	0.1	0.13659
29319	15.984	4.1818	0.1	0.2163
29320	15.891	4.4545	0.1	0.13141
29321	15.984	4.3636	0.1	0.26647
29322	15.891	4.6364	0.1	0.13001
29323	15.984	4.5455	0.1	0.19504
29324	15.891	4.8182	0.1	0.10656
29325	15.984	4.7273	0.1	0.15917
29326	15.891	5.	0.1	6.9091e-002
29327	15.984	4.9091	0.1	0.12148
29328	15.891	5.1818	0.1	2.7512e-002
29329	15.984	5.0909	0.1	6.8085e-002
29330	15.891	5.3636	0.1	-3.0433e-002
29331	15.984	5.2727	0.1	1.5399e-002
29332	15.891	5.5455	0.1	-3.0925e-002
29333	15.984	5.4545	0.1	-6.6918e-002
29334	15.891	5.7273	0.1	-0.12518
29335	15.984	5.6364	0.1	-1.5967e-002
29336	15.984	5.8182	0.1	-0.29632
29337	15.891	5.9091	0.1	-4.4435e-002
29338	16.076	0.27273	0.1	-0.20131
29339	16.168	0.18182	0.1	-0.41853
29340	16.076	9.0909e-002	0.1	-6.3108e-002
29341	16.076	0.45455	0.1	-5.0632e-002
29342	16.168	0.36364	0.1	-7.4267e-002
29343	16.076	0.63636	0.1	-1.8852e-002
29344	16.168	0.54545	0.1	-7.7102e-002
29345	16.076	0.81818	0.1	5.7645e-002
29346	16.168	0.72727	0.1	1.2371e-002
29347	16.076	1.	0.1	0.12185
29348	16.168	0.90909	0.1	7.9448e-002
29349	16.076	1.1818	0.1	0.17563
29350	16.168	1.0909	0.1	0.14563
29351	16.076	1.3636	0.1	0.22584
29352	16.168	1.2727	0.1	0.23568
29353	16.076	1.5455	0.1	0.33068
29354	16.168	1.4545	0.1	0.33302
29355	16.076	1.7273	0.1	0.34431
29356	16.168	1.6364	0.1	5.6757e-002
29357	16.076	1.9091	0.1	0.33428
29358	16.168	1.8182	0.1	0.22477
29359	16.076	2.0909	0.1	0.36336
29360	16.168	2.	0.1	-0.23192
29361	16.076	2.2727	0.1	0.11994
29362	16.168	2.1818	0.1	-0.52778
29363	16.076	2.4545	0.1	-0.16165
29364	16.168	2.3636	0.1	-0.12983
29365	16.076	2.6364	0.1	-0.22706
29366	16.168	2.5455	0.1	-0.2803
29367	16.076	2.8182	0.1	-0.23799
29368	16.168	2.7273	0.1	-0.26683
29369	16.076	3.	0.1	-0.24463
29370	16.168	2.9091	0.1	-0.24683
29371	16.076	3.1818	0.1	-0.23799
29372	16.168	3.0909	0.1	-0.24683
29373	16.076	3.3636	0.1	-0.22705
29374	16.168	3.2727	0.1	-0.26683
29375	16.076	3.5455	0.1	-0.16165
29376	16.168	3.4545	0.1	-0.2803
29377	16.076	3.7273	0.1	0.11995
29378	16.168	3.6364	0.1	-0.12983
29379	16.076	3.9091	0.1	0.36336
29380	16.168	3.8182	0.1	-0.52778
29381	16.076	4.0909	0.1	0.33428
29382	16.168	4.	0.1	-0.23192
29383	16.076	4.2727	0.1	0.34431
29384	16.168	4.1818	0.1	0.22477
29385	16.076	4.4545	0.1	0.33068
29386	16.168	4.3636	0.1	5.6756e-002
29387	16.076	4.6364	0.1	0.22584
29388	16.168	4.5455	0.1	0.33302
29389	16.076	4.8182	0.1	0.17563
29390	16.168	4.7273	0.1	0.23568
29391	16.076	5.	0.1	0.12185
29392	16.168	4.9091	0.1	0.14563
29393	16.076	5.1818	0.1	5.7646e-002
29394	16.168	5.0909	0.1	7.9449e-002
29395	16.076	5.3636	0.1	-1.8851e-002
29396	16.168	5.2727	0.1	1.2372e-002
29397	16.076	5.5455	0.1	-5.0631e-002
29398	16.168	5.4545	0.1	-7.7102e-002
29399	16.076	5.7273	0.1	-0.20131
29400	16.168	5.6364	0.1	-7.4267e-002
29401	16.168	5.8182	0.1	-0.41853
29402	16.076	5.9091	0.1	-6.3109e-002
29403	16.261	0.27273	0.1	-0.26213
29404	16.353	0.18182	0.1	-0.2821
29405	16.261	9.0909e-002	0.1	-0.11404
29406	16.261	0.45455	0.1	-8.5651e-002
29407	16.353	0.36364	0.1	9.0502e-003
29408	16.261	0.63636	0.1	-3.7708e-002
29409	16.353	0.54545	0.1	1.9926e-002
29410	16.261	0.81818	0.1	3.8172e-002
29411	16.353	0.72727	0.1	9.0452e-002
29412	16.261	1.	0.1	0.10531
29413	16.353	0.90909	0.1	0.15459
29414	16.261	1.1818	0.1	0.20744
29415	16.353	1.0909	0.1	0.2789
29416	16.261	1.3636	0.1	0.34543
29417	16.353	1.2727	0.1	0.39545
29418	16.261	1.5455	0.1	6.2102e-002
29419	16.353	1.4545	0.1	0.45419
29420	16.261	1.7273	0.1	-6.3568e-002
29421	16.353	1.6364	0.1	1.6562
29422	16.261	1.9091	0.1	-0.34741
29423	16.353	1.8182	0.1	0.93065
29424	16.261	2.0909	0.1	-1.1339
29425	16.353	2.	0.1	2.066
29426	16.261	2.2727	0.1	-0.795
29427	16.353	2.1818	0.1	1.1263
29428	16.261	2.4545	0.1	-0.26507
29429	16.353	2.3636	0.1	-1.1254
29430	16.261	2.6364	0.1	-0.32667
29431	16.353	2.5455	0.1	-0.30155
29432	16.261	2.8182	0.1	-0.27883
29433	16.353	2.7273	0.1	-0.28738
29434	16.261	3.	0.1	-0.252
29435	16.353	2.9091	0.1	-0.20657
29436	16.261	3.1818	0.1	-0.27883
29437	16.353	3.0909	0.1	-0.20657
29438	16.261	3.3636	0.1	-0.32667
29439	16.353	3.2727	0.1	-0.28738
29440	16.261	3.5455	0.1	-0.26507
29441	16.353	3.4545	0.1	-0.30155
29442	16.261	3.7273	0.1	-0.795
29443	16.353	3.6364	0.1	-1.1254
29444	16.261	3.9091	0.1	-1.1339
29445	16.353	3.8182	0.1	1.1263
29446	16.261	4.0909	0.1	-0.34741
29447	16.353	4.	0.1	2.066
29448	16.261	4.2727	0.1	-6.357e-002
29449	16.353	4.1818	0.1	0.93065
29450	16.261	4.4545	0.1	6.2101e-002
29451	16.353	4.3636	0.1	1.6562
29452	16.261	4.6364	0.1	0.34543
29453	16.353	4.5455	0.1	0.45419
29454	16.261	4.8182	0.1	0.20744
29455	16.353	4.7273	0.1	0.39545
29456	16.261	5.	0.1	0.10531
29457	16.353	4.9091	0.1	0.2789
29458	16.261	5.1818	0.1	3.8172e-002
29459	16.353	5.0909	0.1	0.15459
29460	16.261	5.3636	0.1	-3.7708e-002
29461	16.353	5.2727	0.1	9.0452e-002
29462	16.261	5.5455	0.1	-8.5651e-002
29463	16.353	5.4545	0.1	1.9926e-002
29464	16.261	5.7273	0.1	-0.26213
29465	16.353	5.6364	0.1	9.0489e-003
29466	16.353	5.8182	0.1	-0.2821
29467	16.261	5.9091	0.1	-0.11404
29468	16.446	0.27273	0.1	7.3157e-002
29469	16.538	0.18182	0.1	0.1813
29470	16.446	9.0909e-002	0.1	7.8963e-002
29471	16.446	0.45455	0.1	0.14798
29472	16.538	0.36364	0.1	4.2203e-002
29473	16.446	0.63636	0.1	0.16179
29474	16.538	0.54545	0.1	-8.6543e-002
29475	16.446	0.81818	0.1	0.21288
29476	16.538	0.72727	0.1	-0.17058
29477	16.446	1.	0.1	0.33034
29478	16.538	0.90909	0.1	-0.18951
29479	16.446	1.1818	0.1	0.46768
29480	16.538	1.0909	0.1	-0.1796
29481	16.446	1.3636	0.1	0.50599
29482	16.538	1.2727	0.1	-9.0335e-002
29483	16.446	1.5455	0.1	2.0488
29484	16.538	1.4545	0.1	-6.1137e-002
29485	16.446	1.7273	0.1	2.6657
29486	16.538	1.6364	0.1	0.36981
29487	16.446	1.9091	0.1	3.3329
29488	16.538	1.8182	0.1	-2.8666
29489	16.446	2.0909	0.1	4.2974
29490	16.538	2.	0.1	-11.075
29491	16.446	2.2727	0.1	0.73706
29492	16.538	2.1818	0.1	-5.087
29493	16.446	2.4545	0.1	-1.1744
29494	16.538	2.3636	0.1	1.4664e-002
29495	16.446	2.6364	0.1	-0.25925
29496	16.538	2.5455	0.1	-0.39363
29497	16.446	2.8182	0.1	-0.21353
29498	16.538	2.7273	0.1	-9.8113e-002
29499	16.446	3.	0.1	-0.16137
29500	16.538	2.9091	0.1	-2.7345e-002
29501	16.446	3.1818	0.1	-0.21353
29502	16.538	3.0909	0.1	-2.7346e-002
29503	16.446	3.3636	0.1	-0.25925
29504	16.538	3.2727	0.1	-9.8113e-002
29505	16.446	3.5455	0.1	-1.1744
29506	16.538	3.4545	0.1	-0.39363
29507	16.446	3.7273	0.1	0.73706
29508	16.538	3.6364	0.1	1.4663e-002
29509	16.446	3.9091	0.1	4.2974
29510	16.538	3.8182	0.1	-5.087
29511	16.446	4.0909	0.1	3.3329
29512	16.538	4.	0.1	-11.075
29513	16.446	4.2727	0.1	2.6657
29514	16.538	4.1818	0.1	-2.8666
29515	16.446	4.4545	0.1	2.0488
29516	16.538	4.3636	0.1	0.36981
29517	16.446	4.6364	0.1	0.50599
29518	16.538	4.5455	0.1	-6.114e-002
29519	16.446	4.8182	0.1	0.46768
29520	16.538	4.7273	0.1	-9.0335e-002
29521	16.446	5.	0.1	0.33034
29522	16.538	4.9091	0.1	-0.17961
29523	16.446	5.1818	0.1	0.21288
29524	16.538	5.0909	0.1	-0.18951
29525	16.446	5.3636	0.1	0.16179
29526	16.538	5.2727	0.1	-0.17058
29527	16.446	5.5455	0.1	0.14797
29528	16.538	5.4545	0.1	-8.6543e-002
29529	16.446	5.7273	0.1	7.3155e-002
29530	16.538	5.6364	0.1	4.22e-002
29531	16.538	5.8182	0.1	0.18129
29532	16.446	5.9091	0.1	7.8963e-002
29533	16.63	0.27273	0.1	0.26516
29534	16.723	0.18182	0.1	4.0807
29535	16.63	9.0909e-002	0.1	-7.8236e-002
29536	16.63	0.45455	0.1	-0.1857
29537	16.723	0.36364	0.1	1.7846
29538	16.63	0.63636	0.1	-0.41577
29539	16.723	0.54545	0.1	1.1829
29540	16.63	0.81818	0.1	-0.56669
29541	16.723	0.72727	0.1	0.9059
29542	16.63	1.	0.1	-0.69155
29543	16.723	0.90909	0.1	0.81699
29544	16.63	1.1818	0.1	-0.73275
29545	16.723	1.0909	0.1	1.0718
29546	16.63	1.3636	0.1	-0.6616
29547	16.723	1.2727	0.1	0.55422
29548	16.63	1.5455	0.1	-1.7265
29549	16.723	1.4545	0.1	4.1561
29550	16.63	1.7273	0.1	-5.1827
29551	16.723	1.6364	0.1	-6.0474
29552	16.63	1.9091	0.1	-17.221
29553	16.723	1.8182	0.1	21.576
29554	16.63	2.0909	0.1	-20.551
29555	16.723	2.	0.1	98.607
29556	16.63	2.2727	0.1	-5.947
29557	16.723	2.1818	0.1	-13.279
29558	16.63	2.4545	0.1	0.82399
29559	16.723	2.3636	0.1	4.4392
29560	16.63	2.6364	0.1	-0.21448
29561	16.723	2.5455	0.1	-1.3475
29562	16.63	2.8182	0.1	9.0075e-002
29563	16.723	2.7273	0.1	0.72578
29564	16.63	3.	0.1	0.10478
29565	16.723	2.9091	0.1	0.21466
29566	16.63	3.1818	0.1	9.0075e-002
29567	16.723	3.0909	0.1	0.21466
29568	16.63	3.3636	0.1	-0.21448
29569	16.723	3.2727	0.1	0.72578
29570	16.63	3.5455	0.1	0.82399
29571	16.723	3.4545	0.1	-1.3475
29572	16.63	3.7273	0.1	-5.947
29573	16.723	3.6364	0.1	4.4392
29574	16.63	3.9091	0.1	-20.551
29575	16.723	3.8182	0.1	-13.279
29576	16.63	4.0909	0.1	-17.221
29577	16.723	4.	0.1	98.607
29578	16.63	4.2727	0.1	-5.1827
29579	16.723	4.1818	0.1	21.576
29580	16.63	4.4545	0.1	-1.7265
29581	16.723	4.3636	0.1	-6.0474
29582	16.63	4.6364	0.1	-0.66161
29583	16.723	4.5455	0.1	4.1561
29584	16.63	4.8182	0.1	-0.73275
29585	16.723	4.7273	0.1	0.55422
29586	16.63	5.	0.1	-0.69155
29587	16.723	4.9091	0.1	1.0718
29588	16.63	5.1818	0.1	-0.56669
29589	16.723	5.0909	0.1	0.81699
29590	16.63	5.3636	0.1	-0.41577
29591	16.723	5.2727	0.1	0.9059
29592	16.63	5.5455	0.1	-0.1857
29593	16.723	5.4545	0.1	1.1829
29594	16.63	5.7273	0.1	0.26515
29595	16.723	5.6364	0.1	1.7846
29596	16.723	5.8182	0.1	4.0807
29597	16.63	5.9091	0.1	-7.8237e-002
29598	16.815	0.27273	0.1	4.6781
29599	16.908	0.18182	0.1	-1.0594
29600	16.815	9.0909e-002	0.1	4.7816
29601	16.815	0.45455	0.1	2.7506
29602	16.908	0.36364	0.1	-1.2502
29603	16.815	0.63636	0.1	2.3748
29604	16.908	0.54545	0.1	-0.80917
29605	16.815	0.81818	0.1	2.2573
29606	16.908	0.72727	0.1	-0.78657
29607	16.815	1.	0.1	2.6032
29608	16.908	0.90909	0.1	-0.9375
29609	16.815	1.1818	0.1	2.447
29610	16.908	1.0909	0.1	-0.25983
29611	16.815	1.3636	0.1	5.4948
29612	16.908	1.2727	0.1	-2.6645
29613	16.815	1.5455	0.1	9.9488e-002
29614	16.908	1.4545	0.1	7.3651
29615	16.815	1.7273	0.1	20.748
29616	16.908	1.6364	0.1	-29.261
29617	16.815	1.9091	0.1	139.96
29618	16.908	1.8182	0.1	130.73
29619	16.815	2.0909	0.1	100.57
29620	16.908	2.	0.1	133.13
29621	16.815	2.2727	0.1	-2.1845
29622	16.908	2.1818	0.1	-45.76
29623	16.815	2.4545	0.1	2.3384
29624	16.908	2.3636	0.1	10.322
29625	16.815	2.6364	0.1	-0.40195
29626	16.908	2.5455	0.1	-1.2384
29627	16.815	2.8182	0.1	0.84258
29628	16.908	2.7273	0.1	1.4639
29629	16.815	3.	0.1	0.31471
29630	16.908	2.9091	0.1	0.57458
29631	16.815	3.1818	0.1	0.84258
29632	16.908	3.0909	0.1	0.57458
29633	16.815	3.3636	0.1	-0.40196
29634	16.908	3.2727	0.1	1.4639
29635	16.815	3.5455	0.1	2.3384
29636	16.908	3.4545	0.1	-1.2384
29637	16.815	3.7273	0.1	-2.1845
29638	16.908	3.6364	0.1	10.322
29639	16.815	3.9091	0.1	100.57
29640	16.908	3.8182	0.1	-45.76
29641	16.815	4.0909	0.1	139.96
29642	16.908	4.	0.1	133.13
29643	16.815	4.2727	0.1	20.747
29644	16.908	4.1818	0.1	130.73
29645	16.815	4.4545	0.1	9.9486e-002
29646	16.908	4.3636	0.1	-29.261
29647	16.815	4.6364	0.1	5.4948
29648	16.908	4.5455	0.1	7.3651
29649	16.815	4.8182	0.1	2.447
29650	16.908	4.7273	0.1	-2.6645
29651	16.815	5.	0.1	2.6032
29652	16.908	4.9091	0.1	-0.25983
29653	16.815	5.1818	0.1	2.2573
29654	16.908	5.0909	0.1	-0.9375
29655	16.815	5.3636	0.1	2.3748
29656	16.908	5.2727	0.1	-0.78656
29657	16.815	5.5455	0.1	2.7506
29658	16.908	5.4545	0.1	-0.80917
29659	16.815	5.7273	0.1	4.6781
29660	16.908	5.6364	0.1	-1.2502
29661	16.908	5.8182	0.1	-1.0594
29662	16.815	5.9091	0.1	4.7816
29663	17.167	3.7273	0.1	-1.1323
29664	17.083	3.8182	0.1	-50.253
29665	17.167	3.9091	0.1	284.2
29666	17.167	3.5455	0.1	7.0784
29667	17.083	3.6364	0.1	14.522
29668	17.167	3.3636	0.1	0.35029
29669	17.083	3.4545	0.1	-0.56436
29670	17.167	3.1818	0.1	1.1115
29671	17.083	3.2727	0.1	1.5535
29672	17.167	3.	0.1	0.69136
29673	17.083	3.0909	0.1	0.76734
29674	17.167	2.8182	0.1	1.1115
29675	17.083	2.9091	0.1	0.76734
29676	17.167	2.6364	0.1	0.35029
29677	17.083	2.7273	0.1	1.5535
29678	17.167	2.4545	0.1	7.0784
29679	17.083	2.5455	0.1	-0.56437
29680	17.167	2.2727	0.1	-1.1323
29681	17.083	2.3636	0.1	14.522
29682	17.083	2.1818	0.1	-50.253
29683	17.167	2.0909	0.1	284.2
29684	17.	3.7273	0.1	-31.901
29685	17.	3.9091	0.1	102.92
29686	17.	3.5455	0.1	6.714
29687	17.	3.3636	0.1	0.60206
29688	17.	3.1818	0.1	1.1737
29689	17.	3.	0.1	0.81365
29690	17.	2.8182	0.1	1.1737
29691	17.	2.6364	0.1	0.60206
29692	17.	2.4545	0.1	6.714
29693	17.	2.2727	0.1	-31.901
29694	17.	2.0909	0.1	102.92
29695	17.167	5.7273	0.1	-4.2583
29696	17.167	5.9091	0.1	0.64689
29697	17.167	5.8182	5.e-002	3.0148e-006
29698	17.167	5.5455	0.1	-4.9588
29699	17.167	5.6364	5.e-002	3.4524e-006
29700	17.167	5.3636	0.1	-5.3076
29701	17.167	5.4545	5.e-002	3.7026e-006
29702	17.167	5.1818	0.1	-6.1234
29703	17.167	5.2727	5.e-002	3.6606e-006
29704	17.167	5.	0.1	-7.0845
29705	17.167	5.0909	5.e-002	2.7708e-006
29706	17.167	4.8182	0.1	-9.3861
29707	17.167	4.9091	5.e-002	4.4306e-006
29708	17.167	4.6364	0.1	-10.743
29709	17.167	4.7273	5.e-002	1.2362e-007
29710	17.167	4.4545	0.1	-26.256
29711	17.167	4.5455	5.e-002	1.2848e-005
29712	17.167	4.2727	0.1	-22.051
29713	17.167	4.3636	5.e-002	-1.2376e-005
29714	17.167	4.0909	0.1	522.5
29715	17.167	4.1818	5.e-002	1.6244e-004
29716	17.083	4.	0.1	730.72
29717	17.167	4.	5.e-002	-1.4183e-003
29718	17.	4.0909	0.1	387.23
29719	17.	4.	5.e-002	-9.261e-004
29720	17.	4.2727	0.1	-21.492
29721	17.	4.1818	5.e-002	1.6844e-004
29722	17.	4.4545	0.1	-30.314
29723	17.	4.3636	5.e-002	-2.4431e-005
29724	17.	4.6364	0.1	-13.281
29725	17.	4.5455	5.e-002	1.8396e-005
29726	17.	4.8182	0.1	-12.21
29727	17.	4.7273	5.e-002	-8.3027e-014
29728	17.	5.	0.1	-9.5625
29729	17.	4.9091	5.e-002	6.2136e-006
29730	17.	5.1818	0.1	-8.5446
29731	17.	5.0909	5.e-002	5.0487e-006
29732	17.	5.3636	0.1	-7.6219
29733	17.	5.2727	5.e-002	5.1249e-006
29734	17.	5.5455	0.1	-7.2048
29735	17.	5.4545	5.e-002	5.1899e-006
29736	17.	5.7273	0.1	-6.4769
29737	17.	5.6364	5.e-002	5.4585e-006
29738	17.	5.9091	0.1	-2.4454
29739	17.	5.8182	5.e-002	5.5422e-006
29740	17.167	0.27273	0.1	-4.2583
29741	17.167	9.0909e-002	0.1	0.64689
29742	17.167	0.18182	5.e-002	2.1412e-006
29743	17.167	0.45455	0.1	-4.9588
29744	17.167	0.36364	5.e-002	-1.1713e-006
29745	17.167	0.63636	0.1	-5.3076
29746	17.167	0.54545	5.e-002	5.4233e-006
29747	17.167	0.81818	0.1	-6.1234
29748	17.167	0.72727	5.e-002	2.7303e-006
29749	17.167	1.	0.1	-7.0845
29750	17.167	0.90909	5.e-002	3.4242e-006
29751	17.167	1.1818	0.1	-9.3861
29752	17.167	1.0909	5.e-002	2.9616e-006
29753	17.167	1.3636	0.1	-10.743
29754	17.167	1.2727	5.e-002	5.6962e-006
29755	17.167	1.5455	0.1	-26.256
29756	17.167	1.4545	5.e-002	-5.2711e-006
29757	17.167	1.7273	0.1	-22.051
29758	17.167	1.6364	5.e-002	2.9392e-005
29759	17.167	1.9091	0.1	522.5
29760	17.167	1.8182	5.e-002	-1.4731e-004
29761	17.083	2.	0.1	730.72
29762	17.167	2.	5.e-002	1.4183e-003
29763	17.	1.9091	0.1	387.23
29764	17.	2.	5.e-002	9.2682e-004
29765	17.	1.7273	0.1	-21.492
29766	17.	1.8182	5.e-002	-1.6464e-004
29767	17.	1.5455	0.1	-30.314
29768	17.	1.6364	5.e-002	2.9881e-005
29769	17.	1.3636	0.1	-13.281
29770	17.	1.4545	5.e-002	-1.0075e-005
29771	17.	1.1818	0.1	-12.21
29772	17.	1.2727	5.e-002	7.2296e-006
29773	17.	1.	0.1	-9.5625
29774	17.	1.0909	5.e-002	-1.6807e-008
29775	17.	0.81818	0.1	-8.5446
29776	17.	0.90909	5.e-002	5.0636e-006
29777	17.	0.63636	0.1	-7.6219
29778	17.	0.72727	5.e-002	4.95e-006
29779	17.	0.45455	0.1	-7.2048
29780	17.	0.54545	5.e-002	4.1695e-006
29781	17.	0.27273	0.1	-6.4769
29782	17.	0.36364	5.e-002	6.235e-006
29783	17.	9.0909e-002	0.1	-2.4454
29784	17.	0.18182	5.e-002	1.6288e-006
29785	17.259	6.	0.1	5.9818
29786	17.167	6.	5.e-002	-8.6069e-007
29787	17.444	6.	0.1	-0.34517
29788	17.351	6.	5.e-002	-3.7024e-007
29789	17.628	6.	0.1	-0.87101
29790	17.536	6.	5.e-002	5.826e-006
29791	17.813	6.	0.1	-0.36445
29792	17.721	6.	5.e-002	5.0209e-006
29793	17.998	6.	0.1	-0.14678
29794	17.905	6.	5.e-002	4.2155e-006
29795	18.182	6.	0.1	3.3973e-002
29796	18.09	6.	5.e-002	5.8413e-006
29797	18.367	6.	0.1	0.13049
29798	18.275	6.	5.e-002	5.3652e-006
29799	18.552	6.	0.1	0.17527
29800	18.459	6.	5.e-002	5.4986e-006
29801	18.736	6.	0.1	0.18258
29802	18.644	6.	5.e-002	4.3653e-006
29803	18.921	6.	0.1	0.16801
29804	18.829	6.	5.e-002	4.5442e-006
29805	19.106	6.	0.1	0.14222
29806	19.014	6.	5.e-002	4.8748e-006
29807	19.291	6.	0.1	0.11268
29808	19.198	6.	5.e-002	4.9934e-006
29809	19.475	6.	0.1	8.4069e-002
29810	19.383	6.	5.e-002	5.5109e-006
29811	19.66	6.	0.1	5.9096e-002
29812	19.568	6.	5.e-002	7.0217e-006
29813	19.845	6.	0.1	3.9123e-002
29814	19.752	6.	5.e-002	3.3906e-006
29815	20.029	6.	0.1	2.4655e-002
29816	19.937	6.	5.e-002	6.3002e-006
29817	20.214	6.	0.1	1.5668e-002
29818	20.122	6.	5.e-002	6.7267e-006
29819	20.399	6.	0.1	1.1845e-002
29820	20.306	6.	5.e-002	5.2718e-006
29821	20.583	6.	0.1	1.2736e-002
29822	20.491	6.	5.e-002	5.6001e-006
29823	20.768	6.	0.1	1.7855e-002
29824	20.676	6.	5.e-002	6.5591e-006
29825	20.953	6.	0.1	2.6726e-002
29826	20.86	6.	5.e-002	4.2648e-006
29827	21.137	6.	0.1	3.8932e-002
29828	21.045	6.	5.e-002	6.8843e-006
29829	21.322	6.	0.1	5.4131e-002
29830	21.23	6.	5.e-002	6.3529e-006
29831	21.507	6.	0.1	7.2062e-002
29832	21.414	6.	5.e-002	6.4672e-006
29833	21.691	6.	0.1	9.2558e-002
29834	21.599	6.	5.e-002	6.5481e-006
29835	21.876	6.	0.1	0.11556
29836	21.784	6.	5.e-002	5.5218e-006
29837	22.061	6.	0.1	0.14112
29838	21.968	6.	5.e-002	8.5569e-006
29839	22.245	6.	0.1	0.16941
29840	22.153	6.	5.e-002	5.818e-006
29841	22.43	6.	0.1	0.20078
29842	22.338	6.	5.e-002	8.2865e-006
29843	22.615	6.	0.1	0.23583
29844	22.523	6.	5.e-002	6.896e-006
29845	22.8	6.	0.1	0.27534
29846	22.707	6.	5.e-002	7.2744e-006
29847	22.984	6.	0.1	0.32111
29848	22.892	6.	5.e-002	7.4368e-006
29849	23.169	6.	0.1	0.37357
29850	23.077	6.	5.e-002	6.7514e-006
29851	23.354	6.	0.1	0.44456
29852	23.261	6.	5.e-002	7.9557e-006
29853	23.538	6.	0.1	0.5196
29854	23.446	6.	5.e-002	7.3338e-006
29855	23.723	6.	0.1	0.74048
29856	23.631	6.	5.e-002	8.4758e-006
29857	23.908	6.	0.1	0.53141
29858	23.815	6.	5.e-002	7.3926e-006
29859	24.	5.9091	0.1	-2.4334
29860	24.	6.	5.e-002	3.2344e-005
29861	24.	5.7273	0.1	-2.2541
29862	24.	5.8182	5.e-002	1.6277e-005
29863	24.	5.5455	0.1	-2.3295
29864	24.	5.6364	5.e-002	1.5347e-005
29865	24.	5.3636	0.1	-2.4238
29866	24.	5.4545	5.e-002	1.5365e-005
29867	24.	5.1818	0.1	-2.4471
29868	24.	5.2727	5.e-002	1.6689e-005
29869	24.	5.	0.1	-2.466
29870	24.	5.0909	5.e-002	1.4574e-005
29871	24.	4.8182	0.1	-2.4767
29872	24.	4.9091	5.e-002	1.4309e-005
29873	24.	4.6364	0.1	-2.4839
29874	24.	4.7273	5.e-002	1.6756e-005
29875	24.	4.4545	0.1	-2.4883
29876	24.	4.5455	5.e-002	1.3645e-005
29877	24.	4.2727	0.1	-2.491
29878	24.	4.3636	5.e-002	1.2679e-005
29879	24.	4.0909	0.1	-2.4925
29880	24.	4.1818	5.e-002	9.4353e-006
29881	24.	3.9091	0.1	-2.4933
29882	24.	4.	5.e-002	5.8213e-006
29883	24.	3.7273	0.1	-2.4935
29884	24.	3.8182	5.e-002	1.3789e-005
29885	24.	3.5455	0.1	-2.4935
29886	24.	3.6364	5.e-002	6.8537e-006
29887	24.	3.3636	0.1	-2.4934
29888	24.	3.4545	5.e-002	3.201e-006
29889	24.	3.1818	0.1	-2.4933
29890	24.	3.2727	5.e-002	3.4715e-006
29891	24.	3.	0.1	-2.4933
29892	24.	3.0909	5.e-002	3.6912e-006
29893	24.	2.8182	0.1	-2.4933
29894	24.	2.9091	5.e-002	1.3269e-007
29895	24.	2.6364	0.1	-2.4934
29896	24.	2.7273	5.e-002	4.472e-007
29897	24.	2.4545	0.1	-2.4935
29898	24.	2.5455	5.e-002	-2.9171e-006
29899	24.	2.2727	0.1	-2.4935
29900	24.	2.3636	5.e-002	-6.2312e-006
29901	24.	2.0909	0.1	-2.4933
29902	24.	2.1818	5.e-002	1.4897e-006
29903	24.	1.9091	0.1	-2.4925
29904	24.	2.	5.e-002	-1.921e-006
29905	24.	1.7273	0.1	-2.491
29906	24.	1.8182	5.e-002	-4.445e-006
29907	24.	1.5455	0.1	-2.4883
29908	24.	1.6364	5.e-002	1.3041e-006
29909	24.	1.3636	0.1	-2.4839
29910	24.	1.4545	5.e-002	1.3307e-006
29911	24.	1.1818	0.1	-2.4767
29912	24.	1.2727	5.e-002	1.7617e-006
29913	24.	1.	0.1	-2.466
29914	24.	1.0909	5.e-002	5.1915e-006
29915	24.	0.81818	0.1	-2.4471
29916	24.	0.90909	5.e-002	1.5507e-006
29917	24.	0.63636	0.1	-2.4238
29918	24.	0.72727	5.e-002	3.5676e-006
29919	24.	0.45455	0.1	-2.3295
29920	24.	0.54545	5.e-002	4.6287e-006
29921	24.	0.27273	0.1	-2.2541
29922	24.	0.36364	5.e-002	7.6896e-006
29923	24.	9.0909e-002	0.1	-2.4334
29924	24.	0.18182	5.e-002	1.003e-005
29925	2.3842e-015	0.27273	0.1	1764.1
29926	7.9472e-016	9.0909e-002	0.1	379.06
29927	1.6109e-015	0.18182	5.e-002	1.9878e-004
29928	3.9736e-015	0.45455	0.1	2566.8
29929	3.2219e-015	0.36364	5.e-002	3.5614e-004
29930	5.563e-015	0.63636	0.1	2979.8
29931	4.8328e-015	0.54545	5.e-002	2.2431e-004
29932	7.1525e-015	0.81818	0.1	3238.1
29933	6.4438e-015	0.72727	5.e-002	1.5982e-004
29934	8.7419e-015	1.	0.1	3416.1
29935	8.0547e-015	0.90909	5.e-002	1.4506e-004
29936	1.0331e-014	1.1818	0.1	3545.6
29937	9.6657e-015	1.0909	5.e-002	1.3239e-004
29938	1.1921e-014	1.3636	0.1	3642.6
29939	1.1277e-014	1.2727	5.e-002	1.2866e-004
29940	1.351e-014	1.5455	0.1	3716.8
29941	1.2888e-014	1.4545	5.e-002	1.2629e-004
29942	1.51e-014	1.7273	0.1	3774.2
29943	1.4498e-014	1.6364	5.e-002	6.4649e-005
29944	1.6689e-014	1.9091	0.1	3818.7
29945	1.6109e-014	1.8182	5.e-002	-4.5155e-007
29946	1.8279e-014	2.0909	0.1	3853.
29947	1.772e-014	2.	5.e-002	1.1988e-004
29948	1.9868e-014	2.2727	0.1	3879.
29949	1.9331e-014	2.1818	5.e-002	5.9473e-005
29950	2.1457e-014	2.4545	0.1	3898.1
29951	2.0942e-014	2.3636	5.e-002	-4.9336e-007
29952	2.3047e-014	2.6364	0.1	3911.1
29953	2.2553e-014	2.5455	5.e-002	-5.8854e-007
29954	2.4636e-014	2.8182	0.1	3918.6
29955	2.4164e-014	2.7273	5.e-002	-4.8045e-007
29956	2.6226e-014	3.	0.1	3921.
29957	2.5775e-014	2.9091	5.e-002	-2.0936e-007
29958	2.7815e-014	3.1818	0.1	3918.6
29959	2.7386e-014	3.0909	5.e-002	2.1022e-007
29960	2.9405e-014	3.3636	0.1	3911.1
29961	2.8997e-014	3.2727	5.e-002	6.0657e-007
29962	3.0994e-014	3.5455	0.1	3898.1
29963	3.0608e-014	3.4545	5.e-002	6.0966e-007
29964	3.2583e-014	3.7273	0.1	3879.
29965	3.2219e-014	3.6364	5.e-002	-5.9621e-005
29966	3.4173e-014	3.9091	0.1	3853.
29967	3.383e-014	3.8182	5.e-002	-5.9422e-005
29968	3.5762e-014	4.0909	0.1	3818.7
29969	3.5441e-014	4.	5.e-002	-6.1971e-005
29970	3.7352e-014	4.2727	0.1	3774.2
29971	3.7052e-014	4.1818	5.e-002	-1.2321e-004
29972	3.8941e-014	4.4545	0.1	3716.8
29973	3.8663e-014	4.3636	5.e-002	-6.4489e-005
29974	4.0531e-014	4.6364	0.1	3642.6
29975	4.0274e-014	4.5455	5.e-002	-1.1526e-006
29976	4.212e-014	4.8182	0.1	3545.6
29977	4.1885e-014	4.7273	5.e-002	-1.0003e-005
29978	4.371e-014	5.	0.1	3416.1
29979	4.3495e-014	4.9091	5.e-002	-1.3211e-004
29980	4.5299e-014	5.1818	0.1	3238.1
29981	4.5106e-014	5.0909	5.e-002	-1.3791e-004
29982	4.6888e-014	5.3636	0.1	2979.8
29983	4.6717e-014	5.2727	5.e-002	-1.5874e-004
29984	4.8478e-014	5.5455	0.1	2566.8
29985	4.8328e-014	5.4545	5.e-002	-2.2286e-004
29986	5.0067e-014	5.7273	0.1	1764.1
29987	4.9939e-014	5.6364	5.e-002	-2.6943e-004
29988	5.1657e-014	5.9091	0.1	379.06
29989	5.155e-014	5.8182	5.e-002	-2.4491e-004
29990	23.908	0.	0.1	0.53141
29991	24.	0.	5.e-002	2.1251e-005
29992	23.723	0.	0.1	0.74048
29993	23.815	0.	5.e-002	4.2701e-006
29994	23.538	0.	0.1	0.5196
29995	23.631	0.	5.e-002	9.7428e-006
29996	23.354	0.	0.1	0.44456
29997	23.446	0.	5.e-002	9.2614e-006
29998	23.169	0.	0.1	0.37357
29999	23.261	0.	5.e-002	6.8528e-006
30000	22.984	0.	0.1	0.32111
30001	23.077	0.	5.e-002	8.9017e-006
30002	22.8	0.	0.1	0.27534
30003	22.892	0.	5.e-002	6.3668e-006
30004	22.615	0.	0.1	0.23583
30005	22.707	0.	5.e-002	8.6432e-006
30006	22.43	0.	0.1	0.20078
30007	22.523	0.	5.e-002	7.772e-006
30008	22.245	0.	0.1	0.16941
30009	22.338	0.	5.e-002	1.0182e-005
30010	22.061	0.	0.1	0.14112
30011	22.153	0.	5.e-002	6.733e-006
30012	21.876	0.	0.1	0.11556
30013	21.968	0.	5.e-002	6.4053e-006
30014	21.691	0.	0.1	9.2559e-002
30015	21.784	0.	5.e-002	8.0071e-006
30016	21.507	0.	0.1	7.2062e-002
30017	21.599	0.	5.e-002	5.5735e-006
30018	21.322	0.	0.1	5.4131e-002
30019	21.414	0.	5.e-002	5.7124e-006
30020	21.137	0.	0.1	3.8932e-002
30021	21.23	0.	5.e-002	5.5385e-006
30022	20.953	0.	0.1	2.6726e-002
30023	21.045	0.	5.e-002	4.8022e-006
30024	20.768	0.	0.1	1.7856e-002
30025	20.86	0.	5.e-002	5.6954e-006
30026	20.583	0.	0.1	1.2738e-002
30027	20.676	0.	5.e-002	6.0175e-006
30028	20.399	0.	0.1	1.1847e-002
30029	20.491	0.	5.e-002	6.5566e-006
30030	20.214	0.	0.1	1.5668e-002
30031	20.306	0.	5.e-002	5.2357e-006
30032	20.029	0.	0.1	2.4656e-002
30033	20.122	0.	5.e-002	5.6882e-006
30034	19.845	0.	0.1	3.9126e-002
30035	19.937	0.	5.e-002	6.9088e-006
30036	19.66	0.	0.1	5.9098e-002
30037	19.752	0.	5.e-002	5.2744e-006
30038	19.475	0.	0.1	8.407e-002
30039	19.568	0.	5.e-002	4.497e-006
30040	19.291	0.	0.1	0.11268
30041	19.383	0.	5.e-002	6.3531e-006
30042	19.106	0.	0.1	0.14223
30043	19.198	0.	5.e-002	6.5064e-006
30044	18.921	0.	0.1	0.16801
30045	19.014	0.	5.e-002	4.8338e-006
30046	18.736	0.	0.1	0.18258
30047	18.829	0.	5.e-002	4.8294e-006
30048	18.552	0.	0.1	0.17528
30049	18.644	0.	5.e-002	3.6353e-006
30050	18.367	0.	0.1	0.13049
30051	18.459	0.	5.e-002	4.3071e-006
30052	18.182	0.	0.1	3.3974e-002
30053	18.275	0.	5.e-002	5.219e-006
30054	17.998	0.	0.1	-0.14678
30055	18.09	0.	5.e-002	5.1334e-006
30056	17.813	0.	0.1	-0.36444
30057	17.905	0.	5.e-002	4.6465e-006
30058	17.628	0.	0.1	-0.87101
30059	17.721	0.	5.e-002	4.2856e-006
30060	17.444	0.	0.1	-0.34517
30061	17.536	0.	5.e-002	5.7822e-006
30062	17.259	0.	0.1	5.9818
30063	17.351	0.	5.e-002	2.3679e-006
30064	17.167	0.	5.e-002	-2.7301e-006
30065	16.908	6.9982e-030	0.1	7.5593
30066	17.	7.0365e-030	5.e-002	6.0454e-006
30067	16.723	6.9217e-030	0.1	0.43442
30068	16.815	0.	5.e-002	4.5256e-007
30069	16.538	6.8453e-030	0.1	-0.23168
30070	16.63	0.	5.e-002	4.0019e-006
30071	16.353	6.7688e-030	0.1	0.43413
30072	16.446	0.	5.e-002	4.1301e-006
30073	16.168	6.6923e-030	0.1	0.72848
30074	16.261	0.	5.e-002	2.33e-006
30075	15.984	6.6158e-030	0.1	0.97146
30076	16.076	0.	5.e-002	3.3792e-006
30077	15.799	6.5393e-030	0.1	1.0936
30078	15.891	0.	5.e-002	2.8207e-005
30079	15.614	6.4628e-030	0.1	1.1343
30080	15.707	0.	5.e-002	8.0542e-006
30081	15.429	6.3864e-030	0.1	1.112
30082	15.522	0.	5.e-002	5.6025e-006
30083	15.245	6.3099e-030	0.1	1.0493
30084	15.337	0.	5.e-002	4.9336e-006
30085	15.06	6.2334e-030	0.1	0.96353
30086	15.152	0.	5.e-002	4.123e-006
30087	14.875	6.1569e-030	0.1	0.8679
30088	14.967	0.	5.e-002	3.8912e-006
30089	14.69	6.0804e-030	0.1	0.77115
30090	14.783	0.	5.e-002	3.9158e-006
30091	14.505	6.0039e-030	0.1	0.67868
30092	14.598	0.	5.e-002	3.589e-006
30093	14.321	5.9275e-030	0.1	0.59339
30094	14.413	0.	5.e-002	4.3144e-006
30095	14.136	5.851e-030	0.1	0.51654
30096	14.228	0.	5.e-002	2.8615e-006
30097	13.951	5.7745e-030	0.1	0.44836
30098	14.043	0.	5.e-002	3.8501e-006
30099	13.766	5.698e-030	0.1	0.38851
30100	13.859	0.	5.e-002	2.9624e-006
30101	13.582	5.6215e-030	0.1	0.3363
30102	13.674	0.	5.e-002	2.6987e-006
30103	13.397	5.545e-030	0.1	0.29092
30104	13.489	0.	5.e-002	3.2135e-006
30105	13.212	5.4686e-030	0.1	0.25153
30106	13.304	0.	5.e-002	3.3228e-006
30107	13.027	5.3921e-030	0.1	0.21728
30108	13.12	0.	5.e-002	3.1108e-006
30109	12.842	5.3156e-030	0.1	0.18742
30110	12.935	0.	5.e-002	2.9266e-006
30111	12.658	5.2391e-030	0.1	0.16124
30112	12.75	0.	5.e-002	2.5687e-006
30113	12.473	5.1626e-030	0.1	0.13811
30114	12.565	0.	5.e-002	2.0306e-006
30115	12.288	5.0861e-030	0.1	0.11753
30116	12.38	0.	5.e-002	1.9691e-006
30117	12.103	5.0097e-030	0.1	9.9041e-002
30118	12.196	0.	5.e-002	2.9226e-006
30119	11.918	4.9332e-030	0.1	8.2255e-002
30120	12.011	0.	5.e-002	1.8582e-006
30121	11.734	4.8567e-030	0.1	6.6808e-002
30122	11.826	0.	5.e-002	2.5115e-006
30123	11.549	4.7802e-030	0.1	5.2398e-002
30124	11.641	0.	5.e-002	1.7887e-006
30125	11.364	4.7037e-030	0.1	3.878e-002
30126	11.457	0.	5.e-002	2.2057e-006
30127	11.179	4.6272e-030	0.1	2.5701e-002
30128	11.272	0.	5.e-002	1.5499e-006
30129	10.995	4.5508e-030	0.1	1.2956e-002
30130	11.087	0.	5.e-002	2.3842e-006
30131	10.81	4.4743e-030	0.1	3.9744e-004
30132	10.902	0.	5.e-002	2.324e-006
30133	10.625	4.3978e-030	0.1	-1.2124e-002
30134	10.717	0.	5.e-002	2.0272e-006
30135	10.44	4.3213e-030	0.1	-2.4742e-002
30136	10.533	0.	5.e-002	1.9652e-006
30137	10.255	4.2448e-030	0.1	-3.7602e-002
30138	10.348	0.	5.e-002	2.0832e-006
30139	10.071	4.1683e-030	0.1	-5.0837e-002
30140	10.163	0.	5.e-002	1.55e-006
30141	9.8859	4.0919e-030	0.1	-6.4577e-002
30142	9.9783	0.	5.e-002	1.6638e-006
30143	9.7011	4.0154e-030	0.1	-7.8937e-002
30144	9.7935	0.	5.e-002	1.498e-006
30145	9.5163	3.9389e-030	0.1	-9.4016e-002
30146	9.6087	0.	5.e-002	1.6105e-006
30147	9.3315	3.8624e-030	0.1	-0.10993
30148	9.4239	0.	5.e-002	1.4221e-006
30149	9.1467	3.7859e-030	0.1	-0.12678
30150	9.2391	0.	5.e-002	1.4216e-006
30151	8.962	3.7094e-030	0.1	-0.14472
30152	9.0543	0.	5.e-002	1.4337e-006
30153	8.7772	3.633e-030	0.1	-0.16386
30154	8.8696	0.	5.e-002	1.5698e-006
30155	8.5924	3.5565e-030	0.1	-0.18432
30156	8.6848	0.	5.e-002	1.3182e-006
30157	8.4076	3.48e-030	0.1	-0.20624
30158	8.5	0.	5.e-002	1.2995e-006
30159	8.2228	3.4035e-030	0.1	-0.22978
30160	8.3152	0.	5.e-002	1.0609e-006
30161	8.038	3.327e-030	0.1	-0.25507
30162	8.1304	0.	5.e-002	1.1207e-006
30163	7.8533	3.2505e-030	0.1	-0.28229
30164	7.9457	0.	5.e-002	1.0924e-006
30165	7.6685	3.1741e-030	0.1	-0.31161
30166	7.7609	0.	5.e-002	9.194e-007
30167	7.4837	3.0976e-030	0.1	-0.3432
30168	7.5761	0.	5.e-002	1.0727e-006
30169	7.2989	3.0211e-030	0.1	-0.37725
30170	7.3913	0.	5.e-002	8.2352e-007
30171	7.1141	2.9446e-030	0.1	-0.41388
30172	7.2065	0.	5.e-002	9.3941e-007
30173	6.9293	2.8681e-030	0.1	-0.31837
30174	7.0217	0.	5.e-002	9.8521e-007
30175	6.7446	2.7916e-030	0.1	2.8104e-002
30176	6.837	0.	5.e-002	7.9677e-007
30177	6.5598	2.7152e-030	0.1	0.38082
30178	6.6522	0.	5.e-002	7.6761e-007
30179	6.375	2.6387e-030	0.1	0.73706
30180	6.4674	0.	5.e-002	8.725e-007
30181	6.1902	2.5622e-030	0.1	1.0938
30182	6.2826	0.	5.e-002	9.3913e-007
30183	6.0054	2.4857e-030	0.1	1.4472
30184	6.0978	0.	5.e-002	8.2015e-007
30185	5.8207	2.4092e-030	0.1	1.7927
30186	5.913	0.	5.e-002	1.1433e-006
30187	5.6359	2.3327e-030	0.1	2.1247
30188	5.7283	0.	5.e-002	1.4264e-006
30189	5.4511	2.2563e-030	0.1	2.4362
30190	5.5435	0.	5.e-002	2.2795e-006
30191	5.2663	2.1798e-030	0.1	2.7192
30192	5.3587	0.	5.e-002	5.2743e-006
30193	5.0815	2.1033e-030	0.1	2.9638
30194	5.1739	0.	5.e-002	2.356e-005
30195	4.8967	2.0268e-030	0.1	3.1584
30196	4.9891	0.	5.e-002	2.8211e-004
30197	4.712	1.9503e-030	0.1	3.2893
30198	4.8043	0.	5.e-002	1.546e-005
30199	4.5272	1.8738e-030	0.1	3.3403
30200	4.6196	0.	5.e-002	7.3555e-006
30201	4.3424	1.7974e-030	0.1	3.2925
30202	4.4348	0.	5.e-002	4.1102e-006
30203	4.1576	1.7209e-030	0.1	3.1239
30204	4.25	0.	5.e-002	2.3228e-006
30205	3.9728	1.6444e-030	0.1	2.8092
30206	4.0652	0.	5.e-002	1.0835e-006
30207	3.788	1.5679e-030	0.1	2.3198
30208	3.8804	0.	5.e-002	8.1647e-007
30209	3.6033	1.4914e-030	0.1	1.6251
30210	3.6957	0.	5.e-002	6.4777e-007
30211	3.4185	1.4149e-030	0.1	0.69806
30212	3.5109	0.	5.e-002	8.0052e-007
30213	3.2337	1.3385e-030	0.1	-0.45593
30214	3.3261	0.	5.e-002	9.0502e-007
30215	3.0489	1.262e-030	0.1	-1.6392
30216	3.1413	0.	5.e-002	3.9247e-007
30217	2.8641	1.1855e-030	0.1	-2.3578
30218	2.9565	0.	5.e-002	5.2002e-007
30219	2.6793	1.109e-030	0.1	-2.7499
30220	2.7717	0.	5.e-002	4.6636e-007
30221	2.4946	1.0325e-030	0.1	-3.0672
30222	2.587	0.	5.e-002	4.2365e-007
30223	2.3098	9.5604e-031	0.1	-3.3776
30224	2.4022	0.	5.e-002	2.5944e-007
30225	2.125	8.7956e-031	0.1	-3.7039
30226	2.2174	0.	5.e-002	3.6102e-007
30227	1.9402	8.0308e-031	0.1	-4.0582
30228	2.0326	0.	5.e-002	4.5053e-007
30229	1.7554	7.2659e-031	0.1	-4.4528
30230	1.8478	0.	5.e-002	4.2515e-007
30231	1.5707	6.5011e-031	0.1	-4.8952
30232	1.663	0.	5.e-002	4.0423e-007
30233	1.3859	5.7363e-031	0.1	-5.4175
30234	1.4783	0.	5.e-002	2.9023e-007
30235	1.2011	4.9714e-031	0.1	-5.9865
30236	1.2935	0.	5.e-002	3.7257e-007
30237	1.0163	4.2066e-031	0.1	-6.8045
30238	1.1087	0.	5.e-002	2.698e-007
30239	0.83152	3.4418e-031	0.1	-7.4245
30240	0.92391	0.	5.e-002	2.6064e-007
30241	0.64674	2.6769e-031	0.1	-8.9035
30242	0.73913	0.	5.e-002	3.263e-007
30243	0.46196	1.9121e-031	0.1	-13.43
30244	0.55435	0.	5.e-002	3.0545e-007
30245	0.27717	1.1473e-031	0.1	18.932
30246	0.36957	0.	5.e-002	1.017e-006
30247	9.2391e-002	3.8242e-032	0.1	-164.66
30248	0.18478	0.	5.e-002	-4.0054e-005
30249	0.	0.	5.e-002	3.2786e-004
30250	9.2391e-002	6.	0.1	-164.66
30251	5.2451e-014	6.	5.e-002	-3.2786e-004
30252	0.27717	6.	0.1	18.932
30253	0.18478	6.	5.e-002	4.0054e-005
30254	0.46196	6.	0.1	-13.43
30255	0.36957	6.	5.e-002	-2.1209e-007
30256	0.64674	6.	0.1	-8.9035
30257	0.55435	6.	5.e-002	-3.0545e-007
30258	0.83152	6.	0.1	-7.4245
30259	0.73913	6.	5.e-002	-3.263e-007
30260	1.0163	6.	0.1	-6.8045
30261	0.92391	6.	5.e-002	-2.6064e-007
30262	1.2011	6.	0.1	-5.9865
30263	1.1087	6.	5.e-002	-3.5973e-007
30264	1.3859	6.	0.1	-5.4175
30265	1.2935	6.	5.e-002	-1.8628e-007
30266	1.5707	6.	0.1	-4.8952
30267	1.4783	6.	5.e-002	-3.8697e-007
30268	1.7554	6.	0.1	-4.4528
30269	1.663	6.	5.e-002	-3.0317e-007
30270	1.9402	6.	0.1	-4.0582
30271	1.8478	6.	5.e-002	-3.1886e-007
30272	2.125	6.	0.1	-3.7039
30273	2.0326	6.	5.e-002	-2.2527e-007
30274	2.3098	6.	0.1	-3.3776
30275	2.2174	6.	5.e-002	-2.4068e-007
30276	2.4946	6.	0.1	-3.0672
30277	2.4022	6.	5.e-002	-3.8916e-007
30278	2.6793	6.	0.1	-2.7499
30279	2.587	6.	5.e-002	-4.2365e-007
30280	2.8641	6.	0.1	-2.3578
30281	2.7717	6.	5.e-002	-4.6636e-007
30282	3.0489	6.	0.1	-1.6392
30283	2.9565	6.	5.e-002	-5.2002e-007
30284	3.2337	6.	0.1	-0.45592
30285	3.1413	6.	5.e-002	-3.9247e-007
30286	3.4185	6.	0.1	0.69806
30287	3.3261	6.	5.e-002	-6.7877e-007
30288	3.6033	6.	0.1	1.6251
30289	3.5109	6.	5.e-002	-8.0053e-007
30290	3.788	6.	0.1	2.3198
30291	3.6957	6.	5.e-002	-6.4778e-007
30292	3.9728	6.	0.1	2.8092
30293	3.8804	6.	5.e-002	-8.1647e-007
30294	4.1576	6.	0.1	3.1239
30295	4.0652	6.	5.e-002	-1.0835e-006
30296	4.3424	6.	0.1	3.2925
30297	4.25	6.	5.e-002	-2.3228e-006
30298	4.5272	6.	0.1	3.3403
30299	4.4348	6.	5.e-002	-3.1518e-006
30300	4.712	6.	0.1	3.2893
30301	4.6196	6.	5.e-002	-7.0678e-006
30302	4.8967	6.	0.1	3.1584
30303	4.8043	6.	5.e-002	-1.4447e-005
30304	5.0815	6.	0.1	2.9638
30305	4.9891	6.	5.e-002	-1.8787e-004
30306	5.2663	6.	0.1	2.7192
30307	5.1739	6.	5.e-002	-2.275e-005
30308	5.4511	6.	0.1	2.4362
30309	5.3587	6.	5.e-002	-4.3687e-006
30310	5.6359	6.	0.1	2.1247
30311	5.5435	6.	5.e-002	-1.4167e-006
30312	5.8207	6.	0.1	1.7927
30313	5.7283	6.	5.e-002	-3.577e-007
30314	6.0054	6.	0.1	1.4472
30315	5.913	6.	5.e-002	1.7507e-008
30316	6.1902	6.	0.1	1.0938
30317	6.0978	6.	5.e-002	3.8229e-007
30318	6.375	6.	0.1	0.73705
30319	6.2826	6.	5.e-002	4.8633e-007
30320	6.5598	6.	0.1	0.38081
30321	6.4674	6.	5.e-002	4.9752e-007
30322	6.7446	6.	0.1	2.8099e-002
30323	6.6522	6.	5.e-002	6.0266e-007
30324	6.9293	6.	0.1	-0.31838
30325	6.837	6.	5.e-002	7.0306e-007
30326	7.1141	6.	0.1	-0.41388
30327	7.0217	6.	5.e-002	6.838e-007
30328	7.2989	6.	0.1	-0.37725
30329	7.2065	6.	5.e-002	6.7714e-007
30330	7.4837	6.	0.1	-0.3432
30331	7.3913	6.	5.e-002	8.4518e-007
30332	7.6685	6.	0.1	-0.31161
30333	7.5761	6.	5.e-002	9.2715e-007
30334	7.8533	6.	0.1	-0.28229
30335	7.7609	6.	5.e-002	9.5299e-007
30336	8.038	6.	0.1	-0.25507
30337	7.9457	6.	5.e-002	9.936e-007
30338	8.2228	6.	0.1	-0.22978
30339	8.1304	6.	5.e-002	1.1173e-006
30340	8.4076	6.	0.1	-0.20624
30341	8.3152	6.	5.e-002	1.1231e-006
30342	8.5924	6.	0.1	-0.18432
30343	8.5	6.	5.e-002	1.183e-006
30344	8.7772	6.	0.1	-0.16386
30345	8.6848	6.	5.e-002	1.1269e-006
30346	8.962	6.	0.1	-0.14472
30347	8.8696	6.	5.e-002	1.307e-006
30348	9.1467	6.	0.1	-0.12678
30349	9.0543	6.	5.e-002	1.2485e-006
30350	9.3315	6.	0.1	-0.10992
30351	9.2391	6.	5.e-002	1.4758e-006
30352	9.5163	6.	0.1	-9.4016e-002
30353	9.4239	6.	5.e-002	1.4186e-006
30354	9.7011	6.	0.1	-7.8937e-002
30355	9.6087	6.	5.e-002	1.4293e-006
30356	9.8859	6.	0.1	-6.4577e-002
30357	9.7935	6.	5.e-002	1.4893e-006
30358	10.071	6.	0.1	-5.0837e-002
30359	9.9783	6.	5.e-002	1.6144e-006
30360	10.255	6.	0.1	-3.7601e-002
30361	10.163	6.	5.e-002	1.7835e-006
30362	10.44	6.	0.1	-2.4742e-002
30363	10.348	6.	5.e-002	1.8445e-006
30364	10.625	6.	0.1	-1.2123e-002
30365	10.533	6.	5.e-002	1.8459e-006
30366	10.81	6.	0.1	3.9786e-004
30367	10.717	6.	5.e-002	1.6093e-006
30368	10.995	6.	0.1	1.2956e-002
30369	10.902	6.	5.e-002	1.8471e-006
30370	11.179	6.	0.1	2.5701e-002
30371	11.087	6.	5.e-002	2.1457e-006
30372	11.364	6.	0.1	3.8781e-002
30373	11.272	6.	5.e-002	2.4437e-006
30374	11.549	6.	0.1	5.2399e-002
30375	11.457	6.	5.e-002	1.7327e-006
30376	11.734	6.	0.1	6.6808e-002
30377	11.641	6.	5.e-002	2.1991e-006
30378	11.918	6.	0.1	8.2255e-002
30379	11.826	6.	5.e-002	2.1374e-006
30380	12.103	6.	0.1	9.9042e-002
30381	12.011	6.	5.e-002	2.5623e-006
30382	12.288	6.	0.1	0.11753
30383	12.196	6.	5.e-002	2.562e-006
30384	12.473	6.	0.1	0.13811
30385	12.38	6.	5.e-002	2.6793e-006
30386	12.658	6.	0.1	0.16124
30387	12.565	6.	5.e-002	2.1437e-006
30388	12.842	6.	0.1	0.18742
30389	12.75	6.	5.e-002	2.5004e-006
30390	13.027	6.	0.1	0.21728
30391	12.935	6.	5.e-002	2.4992e-006
30392	13.212	6.	0.1	0.25153
30393	13.12	6.	5.e-002	2.7359e-006
30394	13.397	6.	0.1	0.29092
30395	13.304	6.	5.e-002	2.5547e-006
30396	13.582	6.	0.1	0.3363
30397	13.489	6.	5.e-002	2.7837e-006
30398	13.766	6.	0.1	0.38851
30399	13.674	6.	5.e-002	3.3654e-006
30400	13.951	6.	0.1	0.44836
30401	13.859	6.	5.e-002	1.9892e-006
30402	14.136	6.	0.1	0.51654
30403	14.043	6.	5.e-002	3.1033e-006
30404	14.321	6.	0.1	0.59339
30405	14.228	6.	5.e-002	3.1619e-006
30406	14.505	6.	0.1	0.67868
30407	14.413	6.	5.e-002	3.0027e-006
30408	14.69	6.	0.1	0.77115
30409	14.598	6.	5.e-002	3.0281e-006
30410	14.875	6.	0.1	0.8679
30411	14.783	6.	5.e-002	3.2273e-006
30412	15.06	6.	0.1	0.96353
30413	14.967	6.	5.e-002	2.9193e-006
30414	15.245	6.	0.1	1.0493
30415	15.152	6.	5.e-002	3.3304e-006
30416	15.429	6.	0.1	1.112
30417	15.337	6.	5.e-002	2.8388e-006
30418	15.614	6.	0.1	1.1343
30419	15.522	6.	5.e-002	3.3151e-006
30420	15.799	6.	0.1	1.0936
30421	15.707	6.	5.e-002	7.8684e-007
30422	15.984	6.	0.1	0.97146
30423	15.891	6.	5.e-002	-1.9443e-007
30424	16.168	6.	0.1	0.72848
30425	16.076	6.	5.e-002	3.2816e-006
30426	16.353	6.	0.1	0.43414
30427	16.261	6.	5.e-002	3.9969e-006
30428	16.538	6.	0.1	-0.23168
30429	16.446	6.	5.e-002	4.606e-006
30430	16.723	6.	0.1	0.43442
30431	16.63	6.	5.e-002	3.8406e-006
30432	16.908	6.	0.1	7.5593
30433	16.815	6.	5.e-002	2.6299e-006
30434	17.	6.	5.e-002	1.5943e-006
30435	16.723	6.	0.	-0.43442
30436	16.908	6.	0.	-7.5592
30437	16.538	6.	0.	0.23168
30438	16.353	6.	0.	-0.43414
30439	16.168	6.	0.	-0.72848
30440	15.984	6.	0.	-0.97146
30441	15.799	6.	0.	-1.0936
30442	15.614	6.	0.	-1.1343
30443	15.429	6.	0.	-1.112
30444	15.245	6.	0.	-1.0493
30445	15.06	6.	0.	-0.96353
30446	14.875	6.	0.	-0.8679
30447	14.69	6.	0.	-0.77115
30448	14.505	6.	0.	-0.67868
30449	14.321	6.	0.	-0.59339
30450	14.136	6.	0.	-0.51654
30451	13.951	6.	0.	-0.44836
30452	13.766	6.	0.	-0.38851
30453	13.582	6.	0.	-0.3363
30454	13.397	6.	0.	-0.29092
30455	13.212	6.	0.	-0.25153
30456	13.027	6.	0.	-0.21728
30457	12.842	6.	0.	-0.18742
30458	12.658	6.	0.	-0.16124
30459	12.473	6.	0.	-0.13811
30460	12.288	6.	0.	-0.11753
30461	12.103	6.	0.	-9.9041e-002
30462	11.918	6.	0.	-8.2255e-002
30463	11.734	6.	0.	-6.6808e-002
30464	11.549	6.	0.	-5.2398e-002
30465	11.364	6.	0.	-3.8781e-002
30466	11.179	6.	0.	-2.57e-002
30467	10.995	6.	0.	-1.2956e-002
30468	10.81	6.	0.	-3.9751e-004
30469	10.625	6.	0.	1.2124e-002
30470	10.44	6.	0.	2.4742e-002
30471	10.255	6.	0.	3.7602e-002
30472	10.071	6.	0.	5.0838e-002
30473	9.8859	6.	0.	6.4577e-002
30474	9.7011	6.	0.	7.8937e-002
30475	9.5163	6.	0.	9.4016e-002
30476	9.3315	6.	0.	0.10993
30477	9.1467	6.	0.	0.12678
30478	8.962	6.	0.	0.14472
30479	8.7772	6.	0.	0.16386
30480	8.5924	6.	0.	0.18432
30481	8.4076	6.	0.	0.20624
30482	8.2228	6.	0.	0.22978
30483	8.038	6.	0.	0.25507
30484	7.8533	6.	0.	0.28229
30485	7.6685	6.	0.	0.31161
30486	7.4837	6.	0.	0.3432
30487	7.2989	6.	0.	0.37725
30488	7.1141	6.	0.	0.41388
30489	6.9293	6.	0.	0.31838
30490	6.7446	6.	0.	-2.8098e-002
30491	6.5598	6.	0.	-0.38081
30492	6.375	6.	0.	-0.73705
30493	6.1902	6.	0.	-1.0938
30494	6.0054	6.	0.	-1.4472
30495	5.8207	6.	0.	-1.7927
30496	5.6359	6.	0.	-2.1247
30497	5.4511	6.	0.	-2.4362
30498	5.2663	6.	0.	-2.7192
30499	5.0815	6.	0.	-2.9638
30500	4.8967	6.	0.	-3.1584
30501	4.712	6.	0.	-3.2893
30502	4.5272	6.	0.	-3.3403
30503	4.3424	6.	0.	-3.2925
30504	4.1576	6.	0.	-3.1239
30505	3.9728	6.	0.	-2.8092
30506	3.788	6.	0.	-2.3198
30507	3.6033	6.	0.	-1.6251
30508	3.4185	6.	0.	-0.69806
30509	3.2337	6.	0.	0.45592
30510	3.0489	6.	0.	1.6392
30511	2.8641	6.	0.	2.3578
30512	2.6793	6.	0.	2.7499
30513	2.4946	6.	0.	3.0672
30514	2.3098	6.	0.	3.3776
30515	2.125	6.	0.	3.7039
30516	1.9402	6.	0.	4.0582
30517	1.7554	6.	0.	4.4528
30518	1.5707	6.	0.	4.8952
30519	1.3859	6.	0.	5.4175
30520	1.2011	6.	0.	5.9865
30521	1.0163	6.	0.	6.8045
30522	0.83152	6.	0.	7.4245
30523	0.64674	6.	0.	8.9036
30524	0.46196	6.	0.	13.43
30525	0.27717	6.	0.	-18.932
30526	9.2391e-002	6.	0.	164.66
30527	17.	5.9091	0.	2.4454
30528	5.1657e-014	5.9091	0.	-379.06
30529	0.27717	1.1473e-031	0.	-18.932
30530	9.2391e-002	3.8242e-032	0.	164.66
30531	0.46196	1.9121e-031	0.	13.43
30532	0.64674	2.6769e-031	0.	8.9035
30533	0.83152	3.4418e-031	0.	7.4245
30534	1.0163	4.2066e-031	0.	6.8045
30535	1.2011	4.9714e-031	0.	5.9865
30536	1.3859	5.7363e-031	0.	5.4175
30537	1.5707	6.5011e-031	0.	4.8952
30538	1.7554	7.2659e-031	0.	4.4528
30539	1.9402	8.0308e-031	0.	4.0582
30540	2.125	8.7956e-031	0.	3.7039
30541	2.3098	9.5604e-031	0.	3.3776
30542	2.4946	1.0325e-030	0.	3.0672
30543	2.6793	1.109e-030	0.	2.7499
30544	2.8641	1.1855e-030	0.	2.3578
30545	3.0489	1.262e-030	0.	1.6392
30546	3.2337	1.3385e-030	0.	0.45593
30547	3.4185	1.4149e-030	0.	-0.69806
30548	3.6033	1.4914e-030	0.	-1.6251
30549	3.788	1.5679e-030	0.	-2.3198
30550	3.9728	1.6444e-030	0.	-2.8092
30551	4.1576	1.7209e-030	0.	-3.1239
30552	4.3424	1.7974e-030	0.	-3.2925
30553	4.5272	1.8738e-030	0.	-3.3403
30554	4.712	1.9503e-030	0.	-3.2893
30555	4.8967	2.0268e-030	0.	-3.1584
30556	5.0815	2.1033e-030	0.	-2.9638
30557	5.2663	2.1798e-030	0.	-2.7192
30558	5.4511	2.2563e-030	0.	-2.4362
30559	5.6359	2.3327e-030	0.	-2.1247
30560	5.8207	2.4092e-030	0.	-1.7927
30561	6.0054	2.4857e-030	0.	-1.4472
30562	6.1902	2.5622e-030	0.	-1.0938
30563	6.375	2.6387e-030	0.	-0.73706
30564	6.5598	2.7152e-030	0.	-0.38082
30565	6.7446	2.7916e-030	0.	-2.8102e-002
30566	6.9293	2.8681e-030	0.	0.31838
30567	7.1141	2.9446e-030	0.	0.41388
30568	7.2989	3.0211e-030	0.	0.37725
30569	7.4837	3.0976e-030	0.	0.3432
30570	7.6685	3.1741e-030	0.	0.31161
30571	7.8533	3.2505e-030	0.	0.28229
30572	8.038	3.327e-030	0.	0.25507
30573	8.2228	3.4035e-030	0.	0.22978
30574	8.4076	3.48e-030	0.	0.20624
30575	8.5924	3.5565e-030	0.	0.18432
30576	8.7772	3.633e-030	0.	0.16386
30577	8.962	3.7094e-030	0.	0.14472
30578	9.1467	3.7859e-030	0.	0.12679
30579	9.3315	3.8624e-030	0.	0.10993
30580	9.5163	3.9389e-030	0.	9.4016e-002
30581	9.7011	4.0154e-030	0.	7.8937e-002
30582	9.8859	4.0919e-030	0.	6.4577e-002
30583	10.071	4.1683e-030	0.	5.0838e-002
30584	10.255	4.2448e-030	0.	3.7602e-002
30585	10.44	4.3213e-030	0.	2.4743e-002
30586	10.625	4.3978e-030	0.	1.2124e-002
30587	10.81	4.4743e-030	0.	-3.9664e-004
30588	10.995	4.5508e-030	0.	-1.2955e-002
30589	11.179	4.6272e-030	0.	-2.57e-002
30590	11.364	4.7037e-030	0.	-3.878e-002
30591	11.549	4.7802e-030	0.	-5.2398e-002
30592	11.734	4.8567e-030	0.	-6.6808e-002
30593	11.918	4.9332e-030	0.	-8.2255e-002
30594	12.103	5.0097e-030	0.	-9.9041e-002
30595	12.288	5.0861e-030	0.	-0.11753
30596	12.473	5.1626e-030	0.	-0.13811
30597	12.658	5.2391e-030	0.	-0.16124
30598	12.842	5.3156e-030	0.	-0.18742
30599	13.027	5.3921e-030	0.	-0.21728
30600	13.212	5.4686e-030	0.	-0.25153
30601	13.397	5.545e-030	0.	-0.29092
30602	13.582	5.6215e-030	0.	-0.3363
30603	13.766	5.698e-030	0.	-0.38851
30604	13.951	5.7745e-030	0.	-0.44836
30605	14.136	5.851e-030	0.	-0.51654
30606	14.321	5.9275e-030	0.	-0.59339
30607	14.505	6.0039e-030	0.	-0.67868
30608	14.69	6.0804e-030	0.	-0.77115
30609	14.875	6.1569e-030	0.	-0.8679
30610	15.06	6.2334e-030	0.	-0.96353
30611	15.245	6.3099e-030	0.	-1.0493
30612	15.429	6.3864e-030	0.	-1.112
30613	15.614	6.4628e-030	0.	-1.1343
30614	15.799	6.5393e-030	0.	-1.0936
30615	15.984	6.6158e-030	0.	-0.97146
30616	16.168	6.6923e-030	0.	-0.72848
30617	16.353	6.7688e-030	0.	-0.43413
30618	16.538	6.8453e-030	0.	0.23168
30619	16.723	6.9217e-030	0.	-0.43442
30620	16.908	6.9982e-030	0.	-7.5592
30621	17.	9.0909e-002	0.	2.4454
30622	7.9472e-016	9.0909e-002	0.	-379.06
30623	17.444	0.	0.	0.34517
30624	17.259	0.	0.	-5.9818
30625	17.628	0.	0.	0.87101
30626	17.813	0.	0.	0.36444
30627	17.998	0.	0.	0.14678
30628	18.182	0.	0.	-3.3974e-002
30629	18.367	0.	0.	-0.13049
30630	18.552	0.	0.	-0.17528
30631	18.736	0.	0.	-0.18258
30632	18.921	0.	0.	-0.16801
30633	19.106	0.	0.	-0.14222
30634	19.291	0.	0.	-0.11268
30635	19.475	0.	0.	-8.4069e-002
30636	19.66	0.	0.	-5.9097e-002
30637	19.845	0.	0.	-3.9125e-002
30638	20.029	0.	0.	-2.4654e-002
30639	20.214	0.	0.	-1.5666e-002
30640	20.399	0.	0.	-1.1844e-002
30641	20.583	0.	0.	-1.2736e-002
30642	20.768	0.	0.	-1.7856e-002
30643	20.953	0.	0.	-2.6728e-002
30644	21.137	0.	0.	-3.8934e-002
30645	21.322	0.	0.	-5.4133e-002
30646	21.507	0.	0.	-7.2063e-002
30647	21.691	0.	0.	-9.2557e-002
30648	21.876	0.	0.	-0.11556
30649	22.061	0.	0.	-0.14112
30650	22.245	0.	0.	-0.16941
30651	22.43	0.	0.	-0.20078
30652	22.615	0.	0.	-0.23583
30653	22.8	0.	0.	-0.27534
30654	22.984	0.	0.	-0.32111
30655	23.169	0.	0.	-0.37357
30656	23.354	0.	0.	-0.44456
30657	23.538	0.	0.	-0.5196
30658	23.723	0.	0.	-0.74048
30659	23.908	0.	0.	-0.5314
30660	17.167	9.0909e-002	0.	-0.64688
30661	24.	9.0909e-002	0.	2.4334
30662	5.0067e-014	5.7273	0.	-1764.1
30663	4.8478e-014	5.5455	0.	-2566.8
30664	4.6888e-014	5.3636	0.	-2979.8
30665	4.5299e-014	5.1818	0.	-3238.1
30666	4.371e-014	5.	0.	-3416.1
30667	4.212e-014	4.8182	0.	-3545.6
30668	4.0531e-014	4.6364	0.	-3642.6
30669	3.8941e-014	4.4545	0.	-3716.8
30670	3.7352e-014	4.2727	0.	-3774.2
30671	3.5762e-014	4.0909	0.	-3818.7
30672	3.4173e-014	3.9091	0.	-3853.
30673	3.2583e-014	3.7273	0.	-3879.
30674	3.0994e-014	3.5455	0.	-3898.1
30675	2.9405e-014	3.3636	0.	-3911.1
30676	2.7815e-014	3.1818	0.	-3918.6
30677	2.6226e-014	3.	0.	-3921.
30678	2.4636e-014	2.8182	0.	-3918.6
30679	2.3047e-014	2.6364	0.	-3911.1
30680	2.1457e-014	2.4545	0.	-3898.1
30681	1.9868e-014	2.2727	0.	-3879.
30682	1.8279e-014	2.0909	0.	-3853.
30683	1.6689e-014	1.9091	0.	-3818.7
30684	1.51e-014	1.7273	0.	-3774.2
30685	1.351e-014	1.5455	0.	-3716.8
30686	1.1921e-014	1.3636	0.	-3642.6
30687	1.0331e-014	1.1818	0.	-3545.6
30688	8.7419e-015	1.	0.	-3416.1
30689	7.1525e-015	0.81818	0.	-3238.1
30690	5.563e-015	0.63636	0.	-2979.8
30691	3.9736e-015	0.45455	0.	-2566.8
30692	2.3842e-015	0.27273	0.	-1764.1
30693	24.	0.27273	0.	2.2541
30694	24.	0.45455	0.	2.3295
30695	24.	0.63636	0.	2.4238
30696	24.	0.81818	0.	2.4471
30697	24.	1.	0.	2.466
30698	24.	1.1818	0.	2.4767
30699	24.	1.3636	0.	2.4839
30700	24.	1.5455	0.	2.4883
30701	24.	1.7273	0.	2.491
30702	24.	1.9091	0.	2.4925
30703	24.	2.0909	0.	2.4933
30704	24.	2.2727	0.	2.4935
30705	24.	2.4545	0.	2.4935
30706	24.	2.6364	0.	2.4934
30707	24.	2.8182	0.	2.4933
30708	24.	3.	0.	2.4933
30709	24.	3.1818	0.	2.4933
30710	24.	3.3636	0.	2.4934
30711	24.	3.5455	0.	2.4935
30712	24.	3.7273	0.	2.4935
30713	24.	3.9091	0.	2.4933
30714	24.	4.0909	0.	2.4925
30715	24.	4.2727	0.	2.491
30716	24.	4.4545	0.	2.4883
30717	24.	4.6364	0.	2.4839
30718	24.	4.8182	0.	2.4767
30719	24.	5.	0.	2.466
30720	24.	5.1818	0.	2.4471
30721	24.	5.3636	0.	2.4238
30722	24.	5.5455	0.	2.3295
30723	24.	5.7273	0.	2.2541
30724	24.	5.9091	0.	2.4334
30725	23.908	6.	0.	-0.53141
30726	23.723	6.	0.	-0.74048
30727	23.538	6.	0.	-0.5196
30728	23.354	6.	0.	-0.44457
30729	23.169	6.	0.	-0.37357
30730	22.984	6.	0.	-0.32111
30731	22.8	6.	0.	-0.27534
30732	22.615	6.	0.	-0.23583
30733	22.43	6.	0.	-0.20078
30734	22.245	6.	0.	-0.16941
30735	22.061	6.	0.	-0.14111
30736	21.876	6.	0.	-0.11556
30737	21.691	6.	0.	-9.2558e-002
30738	21.507	6.	0.	-7.2062e-002
30739	21.322	6.	0.	-5.4131e-002
30740	21.137	6.	0.	-3.8932e-002
30741	20.953	6.	0.	-2.6725e-002
30742	20.768	6.	0.	-1.7855e-002
30743	20.583	6.	0.	-1.2736e-002
30744	20.399	6.	0.	-1.1846e-002
30745	20.214	6.	0.	-1.5668e-002
30746	20.029	6.	0.	-2.4654e-002
30747	19.845	6.	0.	-3.9124e-002
30748	19.66	6.	0.	-5.9096e-002
30749	19.475	6.	0.	-8.4069e-002
30750	19.291	6.	0.	-0.11268
30751	19.106	6.	0.	-0.14222
30752	18.921	6.	0.	-0.16801
30753	18.736	6.	0.	-0.18258
30754	18.552	6.	0.	-0.17528
30755	18.367	6.	0.	-0.13049
30756	18.182	6.	0.	-3.3972e-002
30757	17.998	6.	0.	0.14678
30758	17.813	6.	0.	0.36445
30759	17.628	6.	0.	0.87101
30760	17.444	6.	0.	0.34517
30761	17.259	6.	0.	-5.9818
30762	17.167	5.9091	0.	-0.64688
30763	17.	1.7273	0.	21.492
30764	17.	1.9091	0.	-387.23
30765	17.	1.5455	0.	30.314
30766	17.	1.3636	0.	13.281
30767	17.	1.1818	0.	12.21
30768	17.	1.	0.	9.5625
30769	17.	0.81818	0.	8.5446
30770	17.	0.63636	0.	7.6219
30771	17.	0.45455	0.	7.2048
30772	17.	0.27273	0.	6.4769
30773	17.083	2.	0.	-730.72
30774	17.167	0.27273	0.	4.2583
30775	17.167	0.45455	0.	4.9588
30776	17.167	0.63636	0.	5.3076
30777	17.167	0.81818	0.	6.1234
30778	17.167	1.	0.	7.0845
30779	17.167	1.1818	0.	9.3861
30780	17.167	1.3636	0.	10.743
30781	17.167	1.5455	0.	26.256
30782	17.167	1.7273	0.	22.051
30783	17.167	1.9091	0.	-522.5
30784	17.	4.2727	0.	21.492
30785	17.	4.0909	0.	-387.23
30786	17.	4.4545	0.	30.314
30787	17.	4.6364	0.	13.281
30788	17.	4.8182	0.	12.21
30789	17.	5.	0.	9.5625
30790	17.	5.1818	0.	8.5446
30791	17.	5.3636	0.	7.6219
30792	17.	5.5455	0.	7.2048
30793	17.	5.7273	0.	6.4769
30794	17.083	4.	0.	-730.72
30795	17.167	5.7273	0.	4.2583
30796	17.167	5.5455	0.	4.9588
30797	17.167	5.3636	0.	5.3076
30798	17.167	5.1818	0.	6.1234
30799	17.167	5.	0.	7.0845
30800	17.167	4.8182	0.	9.3861
30801	17.167	4.6364	0.	10.743
30802	17.167	4.4545	0.	26.256
30803	17.167	4.2727	0.	22.051
30804	17.167	4.0909	0.	-522.5
