Node Number	X Location (in)	Y Location (in)	Z Location (in)	Equivalent (von-Mises) Stress (psi)
1	19.4	2.1818	0.	3782.1
2	19.4	2.3636	0.	2951.2
3	19.4	2.5455	0.	2604.4
4	19.4	2.7273	0.	2425.1
5	19.4	2.9091	0.	2348.9
6	19.4	3.0909	0.	2348.9
7	19.4	3.2727	0.	2425.1
8	19.4	3.4545	0.	2604.4
9	19.4	3.6364	0.	2951.2
10	19.4	3.8182	0.	3782.1
11	19.567	2.1818	0.	3656.9
12	19.567	2.3636	0.	2908.5
13	19.567	2.5455	0.	2554.8
14	19.567	2.7273	0.	2374.8
15	19.567	2.9091	0.	2297.7
16	19.567	3.0909	0.	2297.7
17	19.567	3.2727	0.	2374.8
18	19.567	3.4545	0.	2554.8
19	19.567	3.6364	0.	2908.5
20	19.567	3.8182	0.	3656.9
21	19.215	5.8182	0.	224.55
22	19.215	5.6364	0.	332.37
23	19.215	5.4545	0.	470.6
24	19.215	5.2727	0.	627.83
25	19.215	5.0909	0.	806.83
26	19.215	4.9091	0.	1015.4
27	19.215	4.7273	0.	1268.
28	19.215	4.5455	0.	1592.
29	19.215	4.3636	0.	2043.3
30	19.215	4.1818	0.	2709.2
31	19.215	4.	0.	3129.
32	19.215	3.8182	0.	2855.2
33	19.215	3.6364	0.	2641.9
34	19.215	3.4545	0.	2454.6
35	19.215	3.2727	0.	2347.7
36	19.215	3.0909	0.	2297.1
37	19.215	2.9091	0.	2297.1
38	19.215	2.7273	0.	2347.7
39	19.215	2.5455	0.	2454.6
40	19.215	2.3636	0.	2641.9
41	19.215	2.1818	0.	2855.2
42	19.215	2.	0.	3129.
43	19.215	1.8182	0.	2709.2
44	19.215	1.6364	0.	2043.3
45	19.215	1.4545	0.	1592.
46	19.215	1.2727	0.	1268.
47	19.215	1.0909	0.	1015.4
48	19.215	0.90909	0.	806.83
49	19.215	0.72727	0.	627.83
50	19.215	0.54545	0.	470.6
51	19.215	0.36364	0.	332.37
52	19.215	0.18182	0.	224.55
53	19.03	5.8182	0.	354.37
54	19.03	5.6364	0.	417.43
55	19.03	5.4545	0.	518.31
56	19.03	5.2727	0.	646.42
57	19.03	5.0909	0.	799.
58	19.03	4.9091	0.	978.25
59	19.03	4.7273	0.	1191.
60	19.03	4.5455	0.	1441.5
61	19.03	4.3636	0.	1739.3
62	19.03	4.1818	0.	2023.1
63	19.03	4.	0.	2171.2
64	19.03	3.8182	0.	2242.3
65	19.03	3.6364	0.	2246.
66	19.03	3.4545	0.	2221.1
67	19.03	3.2727	0.	2190.1
68	19.03	3.0909	0.	2171.8
69	19.03	2.9091	0.	2171.8
70	19.03	2.7273	0.	2190.1
71	19.03	2.5455	0.	2221.1
72	19.03	2.3636	0.	2246.
73	19.03	2.1818	0.	2242.3
74	19.03	2.	0.	2171.2
75	19.03	1.8182	0.	2023.1
76	19.03	1.6364	0.	1739.3
77	19.03	1.4545	0.	1441.5
78	19.03	1.2727	0.	1191.
79	19.03	1.0909	0.	978.25
80	19.03	0.90909	0.	799.
81	19.03	0.72727	0.	646.42
82	19.03	0.54545	0.	518.31
83	19.03	0.36364	0.	417.43
84	19.03	0.18182	0.	354.37
85	18.846	5.8182	0.	496.61
86	18.846	5.6364	0.	547.83
87	18.846	5.4545	0.	627.94
88	18.846	5.2727	0.	734.11
89	18.846	5.0909	0.	864.09
90	18.846	4.9091	0.	1017.
91	18.846	4.7273	0.	1191.8
92	18.846	4.5455	0.	1385.6
93	18.846	4.3636	0.	1579.8
94	18.846	4.1818	0.	1746.6
95	18.846	4.	0.	1862.5
96	18.846	3.8182	0.	1933.8
97	18.846	3.6364	0.	1984.9
98	18.846	3.4545	0.	2011.6
99	18.846	3.2727	0.	2021.8
100	18.846	3.0909	0.	2024.3
101	18.846	2.9091	0.	2024.3
102	18.846	2.7273	0.	2021.8
103	18.846	2.5455	0.	2011.6
104	18.846	2.3636	0.	1984.9
105	18.846	2.1818	0.	1933.8
106	18.846	2.	0.	1862.5
107	18.846	1.8182	0.	1746.6
108	18.846	1.6364	0.	1579.8
109	18.846	1.4545	0.	1385.6
110	18.846	1.2727	0.	1191.8
111	18.846	1.0909	0.	1017.
112	18.846	0.90909	0.	864.09
113	18.846	0.72727	0.	734.11
114	18.846	0.54545	0.	627.94
115	18.846	0.36364	0.	547.83
116	18.846	0.18182	0.	496.61
117	18.661	5.8182	0.	633.48
118	18.661	5.6364	0.	680.74
119	18.661	5.4545	0.	748.64
120	18.661	5.2727	0.	837.39
121	18.661	5.0909	0.	945.83
122	18.661	4.9091	0.	1071.7
123	18.661	4.7273	0.	1211.2
124	18.661	4.5455	0.	1356.9
125	18.661	4.3636	0.	1496.7
126	18.661	4.1818	0.	1614.1
127	18.661	4.	0.	1703.9
128	18.661	3.8182	0.	1770.2
129	18.661	3.6364	0.	1820.1
130	18.661	3.4545	0.	1856.8
131	18.661	3.2727	0.	1879.7
132	18.661	3.0909	0.	1890.2
133	18.661	2.9091	0.	1890.2
134	18.661	2.7273	0.	1879.7
135	18.661	2.5455	0.	1856.8
136	18.661	2.3636	0.	1820.1
137	18.661	2.1818	0.	1770.2
138	18.661	2.	0.	1703.9
139	18.661	1.8182	0.	1614.1
140	18.661	1.6364	0.	1496.7
141	18.661	1.4545	0.	1356.9
142	18.661	1.2727	0.	1211.2
143	18.661	1.0909	0.	1071.7
144	18.661	0.90909	0.	945.83
145	18.661	0.72727	0.	837.39
146	18.661	0.54545	0.	748.64
147	18.661	0.36364	0.	680.74
148	18.661	0.18182	0.	633.48
149	18.476	5.8182	0.	761.48
150	18.476	5.6364	0.	806.23
151	18.476	5.4545	0.	865.59
152	18.476	5.2727	0.	940.47
153	18.476	5.0909	0.	1030.1
154	18.476	4.9091	0.	1131.8
155	18.476	4.7273	0.	1241.5
156	18.476	4.5455	0.	1352.3
157	18.476	4.3636	0.	1455.7
158	18.476	4.1818	0.	1544.4
159	18.476	4.	0.	1615.3
160	18.476	3.8182	0.	1671.
161	18.476	3.6364	0.	1715.4
162	18.476	3.4545	0.	1749.4
163	18.476	3.2727	0.	1772.5
164	18.476	3.0909	0.	1784.1
165	18.476	2.9091	0.	1784.1
166	18.476	2.7273	0.	1772.5
167	18.476	2.5455	0.	1749.4
168	18.476	2.3636	0.	1715.4
169	18.476	2.1818	0.	1671.
170	18.476	2.	0.	1615.3
171	18.476	1.8182	0.	1544.4
172	18.476	1.6364	0.	1455.7
173	18.476	1.4545	0.	1352.3
174	18.476	1.2727	0.	1241.5
175	18.476	1.0909	0.	1131.8
176	18.476	0.90909	0.	1030.1
177	18.476	0.72727	0.	940.47
178	18.476	0.54545	0.	865.59
179	18.476	0.36364	0.	806.23
180	18.476	0.18182	0.	761.48
181	18.291	5.8182	0.	879.53
182	18.291	5.6364	0.	921.47
183	18.291	5.4545	0.	973.74
184	18.291	5.2727	0.	1037.1
185	18.291	5.0909	0.	1110.8
186	18.291	4.9091	0.	1192.6
187	18.291	4.7273	0.	1278.5
188	18.291	4.5455	0.	1363.6
189	18.291	4.3636	0.	1442.4
190	18.291	4.1818	0.	1510.8
191	18.291	4.	0.	1567.2
192	18.291	3.8182	0.	1612.8
193	18.291	3.6364	0.	1649.3
194	18.291	3.4545	0.	1677.7
195	18.291	3.2727	0.	1697.3
196	18.291	3.0909	0.	1707.4
197	18.291	2.9091	0.	1707.4
198	18.291	2.7273	0.	1697.3
199	18.291	2.5455	0.	1677.7
200	18.291	2.3636	0.	1649.3
201	18.291	2.1818	0.	1612.8
202	18.291	2.	0.	1567.2
203	18.291	1.8182	0.	1510.8
204	18.291	1.6364	0.	1442.4
205	18.291	1.4545	0.	1363.6
206	18.291	1.2727	0.	1278.5
207	18.291	1.0909	0.	1192.6
208	18.291	0.90909	0.	1110.8
209	18.291	0.72727	0.	1037.1
210	18.291	0.54545	0.	973.74
211	18.291	0.36364	0.	921.47
212	18.291	0.18182	0.	879.53
213	18.107	5.8182	0.	987.49
214	18.107	5.6364	0.	1026.
215	18.107	5.4545	0.	1071.9
216	18.107	5.2727	0.	1125.5
217	18.107	5.0909	0.	1186.
218	18.107	4.9091	0.	1251.6
219	18.107	4.7273	0.	1319.2
220	18.107	4.5455	0.	1385.1
221	18.107	4.3636	0.	1446.
222	18.107	4.1818	0.	1499.3
223	18.107	4.	0.	1544.
224	18.107	3.8182	0.	1580.6
225	18.107	3.6364	0.	1610.1
226	18.107	3.4545	0.	1632.7
227	18.107	3.2727	0.	1648.4
228	18.107	3.0909	0.	1656.4
229	18.107	2.9091	0.	1656.4
230	18.107	2.7273	0.	1648.4
231	18.107	2.5455	0.	1632.7
232	18.107	2.3636	0.	1610.1
233	18.107	2.1818	0.	1580.6
234	18.107	2.	0.	1544.
235	18.107	1.8182	0.	1499.3
236	18.107	1.6364	0.	1446.
237	18.107	1.4545	0.	1385.1
238	18.107	1.2727	0.	1319.2
239	18.107	1.0909	0.	1251.6
240	18.107	0.90909	0.	1186.
241	18.107	0.72727	0.	1125.5
242	18.107	0.54545	0.	1071.9
243	18.107	0.36364	0.	1026.
244	18.107	0.18182	0.	987.49
245	17.922	5.8182	0.	1085.9
246	17.922	5.6364	0.	1120.6
247	17.922	5.4545	0.	1160.5
248	17.922	5.2727	0.	1205.8
249	17.922	5.0909	0.	1255.5
250	17.922	4.9091	0.	1308.2
251	17.922	4.7273	0.	1361.6
252	17.922	4.5455	0.	1413.1
253	17.922	4.3636	0.	1460.6
254	17.922	4.1818	0.	1502.3
255	17.922	4.	0.	1537.7
256	17.922	3.8182	0.	1566.8
257	17.922	3.6364	0.	1590.1
258	17.922	3.4545	0.	1607.9
259	17.922	3.2727	0.	1620.
260	17.922	3.0909	0.	1626.2
261	17.922	2.9091	0.	1626.2
262	17.922	2.7273	0.	1620.
263	17.922	2.5455	0.	1607.9
264	17.922	2.3636	0.	1590.1
265	17.922	2.1818	0.	1566.8
266	17.922	2.	0.	1537.7
267	17.922	1.8182	0.	1502.3
268	17.922	1.6364	0.	1460.6
269	17.922	1.4545	0.	1413.1
270	17.922	1.2727	0.	1361.6
271	17.922	1.0909	0.	1308.2
272	17.922	0.90909	0.	1255.5
273	17.922	0.72727	0.	1205.8
274	17.922	0.54545	0.	1160.5
275	17.922	0.36364	0.	1120.6
276	17.922	0.18182	0.	1085.9
277	17.737	5.8182	0.	1175.5
278	17.737	5.6364	0.	1206.3
279	17.737	5.4545	0.	1240.8
280	17.737	5.2727	0.	1278.9
281	17.737	5.0909	0.	1319.8
282	17.737	4.9091	0.	1362.3
283	17.737	4.7273	0.	1404.7
284	17.737	4.5455	0.	1445.3
285	17.737	4.3636	0.	1482.5
286	17.737	4.1818	0.	1515.3
287	17.737	4.	0.	1543.1
288	17.737	3.8182	0.	1566.1
289	17.737	3.6364	0.	1584.4
290	17.737	3.4545	0.	1598.3
291	17.737	3.2727	0.	1607.6
292	17.737	3.0909	0.	1612.3
293	17.737	2.9091	0.	1612.3
294	17.737	2.7273	0.	1607.6
295	17.737	2.5455	0.	1598.3
296	17.737	2.3636	0.	1584.4
297	17.737	2.1818	0.	1566.1
298	17.737	2.	0.	1543.1
299	17.737	1.8182	0.	1515.3
300	17.737	1.6364	0.	1482.5
301	17.737	1.4545	0.	1445.3
302	17.737	1.2727	0.	1404.7
303	17.737	1.0909	0.	1362.3
304	17.737	0.90909	0.	1319.8
305	17.737	0.72727	0.	1278.9
306	17.737	0.54545	0.	1240.8
307	17.737	0.36364	0.	1206.3
308	17.737	0.18182	0.	1175.5
309	17.552	5.8182	0.	1257.6
310	17.552	5.6364	0.	1284.3
311	17.552	5.4545	0.	1314.
312	17.552	5.2727	0.	1346.
313	17.552	5.0909	0.	1379.7
314	17.552	4.9091	0.	1414.1
315	17.552	4.7273	0.	1448.
316	17.552	4.5455	0.	1480.1
317	17.552	4.3636	0.	1509.4
318	17.552	4.1818	0.	1535.3
319	17.552	4.	0.	1557.2
320	17.552	3.8182	0.	1575.3
321	17.552	3.6364	0.	1589.6
322	17.552	3.4545	0.	1600.4
323	17.552	3.2727	0.	1607.5
324	17.552	3.0909	0.	1611.1
325	17.552	2.9091	0.	1611.1
326	17.552	2.7273	0.	1607.5
327	17.552	2.5455	0.	1600.4
328	17.552	2.3636	0.	1589.6
329	17.552	2.1818	0.	1575.3
330	17.552	2.	0.	1557.2
331	17.552	1.8182	0.	1535.3
332	17.552	1.6364	0.	1509.4
333	17.552	1.4545	0.	1480.1
334	17.552	1.2727	0.	1448.
335	17.552	1.0909	0.	1414.1
336	17.552	0.90909	0.	1379.7
337	17.552	0.72727	0.	1346.
338	17.552	0.54545	0.	1314.
339	17.552	0.36364	0.	1284.3
340	17.552	0.18182	0.	1257.6
341	17.368	5.8182	0.	1333.
342	17.368	5.6364	0.	1356.1
343	17.368	5.4545	0.	1381.4
344	17.368	5.2727	0.	1408.3
345	17.368	5.0909	0.	1436.1
346	17.368	4.9091	0.	1464.1
347	17.368	4.7273	0.	1491.2
348	17.368	4.5455	0.	1516.8
349	17.368	4.3636	0.	1540.
350	17.368	4.1818	0.	1560.4
351	17.368	4.	0.	1577.8
352	17.368	3.8182	0.	1592.
353	17.368	3.6364	0.	1603.2
354	17.368	3.4545	0.	1611.5
355	17.368	3.2727	0.	1617.
356	17.368	3.0909	0.	1619.7
357	17.368	2.9091	0.	1619.7
358	17.368	2.7273	0.	1617.
359	17.368	2.5455	0.	1611.5
360	17.368	2.3636	0.	1603.2
361	17.368	2.1818	0.	1592.
362	17.368	2.	0.	1577.8
363	17.368	1.8182	0.	1560.4
364	17.368	1.6364	0.	1540.
365	17.368	1.4545	0.	1516.8
366	17.368	1.2727	0.	1491.2
367	17.368	1.0909	0.	1464.1
368	17.368	0.90909	0.	1436.1
369	17.368	0.72727	0.	1408.3
370	17.368	0.54545	0.	1381.4
371	17.368	0.36364	0.	1356.1
372	17.368	0.18182	0.	1333.
373	17.183	5.8182	0.	1403.
374	17.183	5.6364	0.	1422.6
375	17.183	5.4545	0.	1444.2
376	17.183	5.2727	0.	1466.7
377	17.183	5.0909	0.	1489.7
378	17.183	4.9091	0.	1512.5
379	17.183	4.7273	0.	1534.4
380	17.183	4.5455	0.	1554.9
381	17.183	4.3636	0.	1573.4
382	17.183	4.1818	0.	1589.5
383	17.183	4.	0.	1603.2
384	17.183	3.8182	0.	1614.4
385	17.183	3.6364	0.	1623.2
386	17.183	3.4545	0.	1629.6
387	17.183	3.2727	0.	1633.9
388	17.183	3.0909	0.	1636.
389	17.183	2.9091	0.	1636.
390	17.183	2.7273	0.	1633.9
391	17.183	2.5455	0.	1629.6
392	17.183	2.3636	0.	1623.2
393	17.183	2.1818	0.	1614.4
394	17.183	2.	0.	1603.2
395	17.183	1.8182	0.	1589.5
396	17.183	1.6364	0.	1573.4
397	17.183	1.4545	0.	1554.9
398	17.183	1.2727	0.	1534.4
399	17.183	1.0909	0.	1512.5
400	17.183	0.90909	0.	1489.7
401	17.183	0.72727	0.	1466.7
402	17.183	0.54545	0.	1444.2
403	17.183	0.36364	0.	1422.6
404	17.183	0.18182	0.	1403.
405	16.998	5.8182	0.	1468.4
406	16.998	5.6364	0.	1484.9
407	16.998	5.4545	0.	1503.2
408	16.998	5.2727	0.	1522.1
409	16.998	5.0909	0.	1541.2
410	16.998	4.9091	0.	1559.8
411	16.998	4.7273	0.	1577.6
412	16.998	4.5455	0.	1594.
413	16.998	4.3636	0.	1608.8
414	16.998	4.1818	0.	1621.7
415	16.998	4.	0.	1632.5
416	16.998	3.8182	0.	1641.3
417	16.998	3.6364	0.	1648.2
418	16.998	3.4545	0.	1653.3
419	16.998	3.2727	0.	1656.6
420	16.998	3.0909	0.	1658.2
421	16.998	2.9091	0.	1658.2
422	16.998	2.7273	0.	1656.6
423	16.998	2.5455	0.	1653.3
424	16.998	2.3636	0.	1648.2
425	16.998	2.1818	0.	1641.3
426	16.998	2.	0.	1632.5
427	16.998	1.8182	0.	1621.7
428	16.998	1.6364	0.	1608.8
429	16.998	1.4545	0.	1594.
430	16.998	1.2727	0.	1577.6
431	16.998	1.0909	0.	1559.8
432	16.998	0.90909	0.	1541.2
433	16.998	0.72727	0.	1522.1
434	16.998	0.54545	0.	1503.2
435	16.998	0.36364	0.	1484.9
436	16.998	0.18182	0.	1468.4
437	16.813	5.8182	0.	1530.
438	16.813	5.6364	0.	1543.8
439	16.813	5.4545	0.	1559.3
440	16.813	5.2727	0.	1575.2
441	16.813	5.0909	0.	1591.
442	16.813	4.9091	0.	1606.3
443	16.813	4.7273	0.	1620.8
444	16.813	4.5455	0.	1634.1
445	16.813	4.3636	0.	1645.9
446	16.813	4.1818	0.	1656.2
447	16.813	4.	0.	1664.8
448	16.813	3.8182	0.	1671.8
449	16.813	3.6364	0.	1677.2
450	16.813	3.4545	0.	1681.2
451	16.813	3.2727	0.	1683.8
452	16.813	3.0909	0.	1685.
453	16.813	2.9091	0.	1685.
454	16.813	2.7273	0.	1683.8
455	16.813	2.5455	0.	1681.2
456	16.813	2.3636	0.	1677.2
457	16.813	2.1818	0.	1671.8
458	16.813	2.	0.	1664.8
459	16.813	1.8182	0.	1656.2
460	16.813	1.6364	0.	1645.9
461	16.813	1.4545	0.	1634.1
462	16.813	1.2727	0.	1620.8
463	16.813	1.0909	0.	1606.3
464	16.813	0.90909	0.	1591.
465	16.813	0.72727	0.	1575.2
466	16.813	0.54545	0.	1559.3
467	16.813	0.36364	0.	1543.8
468	16.813	0.18182	0.	1530.
469	16.629	5.8182	0.	1588.6
470	16.629	5.6364	0.	1600.
471	16.629	5.4545	0.	1613.1
472	16.629	5.2727	0.	1626.4
473	16.629	5.0909	0.	1639.6
474	16.629	4.9091	0.	1652.2
475	16.629	4.7273	0.	1664.
476	16.629	4.5455	0.	1674.8
477	16.629	4.3636	0.	1684.4
478	16.629	4.1818	0.	1692.7
479	16.629	4.	0.	1699.5
480	16.629	3.8182	0.	1705.1
481	16.629	3.6364	0.	1709.4
482	16.629	3.4545	0.	1712.5
483	16.629	3.2727	0.	1714.6
484	16.629	3.0909	0.	1715.6
485	16.629	2.9091	0.	1715.6
486	16.629	2.7273	0.	1714.6
487	16.629	2.5455	0.	1712.5
488	16.629	2.3636	0.	1709.4
489	16.629	2.1818	0.	1705.1
490	16.629	2.	0.	1699.5
491	16.629	1.8182	0.	1692.7
492	16.629	1.6364	0.	1684.4
493	16.629	1.4545	0.	1674.8
494	16.629	1.2727	0.	1664.
495	16.629	1.0909	0.	1652.2
496	16.629	0.90909	0.	1639.6
497	16.629	0.72727	0.	1626.4
498	16.629	0.54545	0.	1613.1
499	16.629	0.36364	0.	1600.
500	16.629	0.18182	0.	1588.6
501	16.444	5.8182	0.	1644.8
502	16.444	5.6364	0.	1654.1
503	16.444	5.4545	0.	1665.1
504	16.444	5.2727	0.	1676.3
505	16.444	5.0909	0.	1687.2
506	16.444	4.9091	0.	1697.7
507	16.444	4.7273	0.	1707.4
508	16.444	4.5455	0.	1716.2
509	16.444	4.3636	0.	1724.
510	16.444	4.1818	0.	1730.7
511	16.444	4.	0.	1736.2
512	16.444	3.8182	0.	1740.7
513	16.444	3.6364	0.	1744.1
514	16.444	3.4545	0.	1746.6
515	16.444	3.2727	0.	1748.2
516	16.444	3.0909	0.	1749.
517	16.444	2.9091	0.	1749.
518	16.444	2.7273	0.	1748.2
519	16.444	2.5455	0.	1746.6
520	16.444	2.3636	0.	1744.1
521	16.444	2.1818	0.	1740.7
522	16.444	2.	0.	1736.2
523	16.444	1.8182	0.	1730.7
524	16.444	1.6364	0.	1724.
525	16.444	1.4545	0.	1716.2
526	16.444	1.2727	0.	1707.4
527	16.444	1.0909	0.	1697.7
528	16.444	0.90909	0.	1687.2
529	16.444	0.72727	0.	1676.3
530	16.444	0.54545	0.	1665.1
531	16.444	0.36364	0.	1654.1
532	16.444	0.18182	0.	1644.8
533	16.259	5.8182	0.	1699.
534	16.259	5.6364	0.	1706.5
535	16.259	5.4545	0.	1715.8
536	16.259	5.2727	0.	1725.2
537	16.259	5.0909	0.	1734.3
538	16.259	4.9091	0.	1743.
539	16.259	4.7273	0.	1751.
540	16.259	4.5455	0.	1758.2
541	16.259	4.3636	0.	1764.6
542	16.259	4.1818	0.	1770.
543	16.259	4.	0.	1774.5
544	16.259	3.8182	0.	1778.1
545	16.259	3.6364	0.	1780.8
546	16.259	3.4545	0.	1782.8
547	16.259	3.2727	0.	1784.1
548	16.259	3.0909	0.	1784.7
549	16.259	2.9091	0.	1784.7
550	16.259	2.7273	0.	1784.1
551	16.259	2.5455	0.	1782.8
552	16.259	2.3636	0.	1780.8
553	16.259	2.1818	0.	1778.1
554	16.259	2.	0.	1774.5
555	16.259	1.8182	0.	1770.
556	16.259	1.6364	0.	1764.6
557	16.259	1.4545	0.	1758.2
558	16.259	1.2727	0.	1751.
559	16.259	1.0909	0.	1743.
560	16.259	0.90909	0.	1734.3
561	16.259	0.72727	0.	1725.2
562	16.259	0.54545	0.	1715.8
563	16.259	0.36364	0.	1706.5
564	16.259	0.18182	0.	1699.
565	16.074	5.8182	0.	1751.7
566	16.074	5.6364	0.	1757.7
567	16.074	5.4545	0.	1765.4
568	16.074	5.2727	0.	1773.3
569	16.074	5.0909	0.	1780.9
570	16.074	4.9091	0.	1788.1
571	16.074	4.7273	0.	1794.8
572	16.074	4.5455	0.	1800.7
573	16.074	4.3636	0.	1805.9
574	16.074	4.1818	0.	1810.4
575	16.074	4.	0.	1814.
576	16.074	3.8182	0.	1816.9
577	16.074	3.6364	0.	1819.2
578	16.074	3.4545	0.	1820.8
579	16.074	3.2727	0.	1821.8
580	16.074	3.0909	0.	1822.3
581	16.074	2.9091	0.	1822.3
582	16.074	2.7273	0.	1821.8
583	16.074	2.5455	0.	1820.8
584	16.074	2.3636	0.	1819.2
585	16.074	2.1818	0.	1816.9
586	16.074	2.	0.	1814.
587	16.074	1.8182	0.	1810.4
588	16.074	1.6364	0.	1805.9
589	16.074	1.4545	0.	1800.7
590	16.074	1.2727	0.	1794.8
591	16.074	1.0909	0.	1788.1
592	16.074	0.90909	0.	1780.9
593	16.074	0.72727	0.	1773.3
594	16.074	0.54545	0.	1765.4
595	16.074	0.36364	0.	1757.7
596	16.074	0.18182	0.	1751.7
597	15.89	5.8182	0.	1803.2
598	15.89	5.6364	0.	1807.8
599	15.89	5.4545	0.	1814.3
600	15.89	5.2727	0.	1820.9
601	15.89	5.0909	0.	1827.3
602	15.89	4.9091	0.	1833.3
603	15.89	4.7273	0.	1838.8
604	15.89	4.5455	0.	1843.7
605	15.89	4.3636	0.	1848.
606	15.89	4.1818	0.	1851.7
607	15.89	4.	0.	1854.7
608	15.89	3.8182	0.	1857.
609	15.89	3.6364	0.	1858.9
610	15.89	3.4545	0.	1860.2
611	15.89	3.2727	0.	1861.
612	15.89	3.0909	0.	1861.4
613	15.89	2.9091	0.	1861.4
614	15.89	2.7273	0.	1861.
615	15.89	2.5455	0.	1860.2
616	15.89	2.3636	0.	1858.9
617	15.89	2.1818	0.	1857.
618	15.89	2.	0.	1854.7
619	15.89	1.8182	0.	1851.7
620	15.89	1.6364	0.	1848.
621	15.89	1.4545	0.	1843.7
622	15.89	1.2727	0.	1838.8
623	15.89	1.0909	0.	1833.3
624	15.89	0.90909	0.	1827.3
625	15.89	0.72727	0.	1820.9
626	15.89	0.54545	0.	1814.3
627	15.89	0.36364	0.	1807.8
628	15.89	0.18182	0.	1803.2
629	15.705	5.8182	0.	1853.8
630	15.705	5.6364	0.	1857.2
631	15.705	5.4545	0.	1862.7
632	15.705	5.2727	0.	1868.2
633	15.705	5.0909	0.	1873.5
634	15.705	4.9091	0.	1878.5
635	15.705	4.7273	0.	1883.1
636	15.705	4.5455	0.	1887.2
637	15.705	4.3636	0.	1890.7
638	15.705	4.1818	0.	1893.7
639	15.705	4.	0.	1896.2
640	15.705	3.8182	0.	1898.2
641	15.705	3.6364	0.	1899.6
642	15.705	3.4545	0.	1900.7
643	15.705	3.2727	0.	1901.4
644	15.705	3.0909	0.	1901.7
645	15.705	2.9091	0.	1901.7
646	15.705	2.7273	0.	1901.4
647	15.705	2.5455	0.	1900.7
648	15.705	2.3636	0.	1899.6
649	15.705	2.1818	0.	1898.2
650	15.705	2.	0.	1896.2
651	15.705	1.8182	0.	1893.7
652	15.705	1.6364	0.	1890.7
653	15.705	1.4545	0.	1887.2
654	15.705	1.2727	0.	1883.1
655	15.705	1.0909	0.	1878.5
656	15.705	0.90909	0.	1873.5
657	15.705	0.72727	0.	1868.2
658	15.705	0.54545	0.	1862.7
659	15.705	0.36364	0.	1857.2
660	15.705	0.18182	0.	1853.8
661	15.52	5.8182	0.	1903.6
662	15.52	5.6364	0.	1906.1
663	15.52	5.4545	0.	1910.6
664	15.52	5.2727	0.	1915.2
665	15.52	5.0909	0.	1919.7
666	15.52	4.9091	0.	1923.8
667	15.52	4.7273	0.	1927.6
668	15.52	4.5455	0.	1931.
669	15.52	4.3636	0.	1934.
670	15.52	4.1818	0.	1936.5
671	15.52	4.	0.	1938.5
672	15.52	3.8182	0.	1940.1
673	15.52	3.6364	0.	1941.4
674	15.52	3.4545	0.	1942.3
675	15.52	3.2727	0.	1942.8
676	15.52	3.0909	0.	1943.1
677	15.52	2.9091	0.	1943.1
678	15.52	2.7273	0.	1942.8
679	15.52	2.5455	0.	1942.3
680	15.52	2.3636	0.	1941.4
681	15.52	2.1818	0.	1940.1
682	15.52	2.	0.	1938.5
683	15.52	1.8182	0.	1936.5
684	15.52	1.6364	0.	1934.
685	15.52	1.4545	0.	1931.
686	15.52	1.2727	0.	1927.6
687	15.52	1.0909	0.	1923.8
688	15.52	0.90909	0.	1919.7
689	15.52	0.72727	0.	1915.2
690	15.52	0.54545	0.	1910.6
691	15.52	0.36364	0.	1906.1
692	15.52	0.18182	0.	1903.6
693	15.335	5.8182	0.	1952.9
694	15.335	5.6364	0.	1954.6
695	15.335	5.4545	0.	1958.3
696	15.335	5.2727	0.	1962.1
697	15.335	5.0909	0.	1965.8
698	15.335	4.9091	0.	1969.3
699	15.335	4.7273	0.	1972.5
700	15.335	4.5455	0.	1975.3
701	15.335	4.3636	0.	1977.7
702	15.335	4.1818	0.	1979.8
703	15.335	4.	0.	1981.5
704	15.335	3.8182	0.	1982.8
705	15.335	3.6364	0.	1983.9
706	15.335	3.4545	0.	1984.6
707	15.335	3.2727	0.	1985.1
708	15.335	3.0909	0.	1985.3
709	15.335	2.9091	0.	1985.3
710	15.335	2.7273	0.	1985.1
711	15.335	2.5455	0.	1984.6
712	15.335	2.3636	0.	1983.9
713	15.335	2.1818	0.	1982.8
714	15.335	2.	0.	1981.5
715	15.335	1.8182	0.	1979.8
716	15.335	1.6364	0.	1977.7
717	15.335	1.4545	0.	1975.3
718	15.335	1.2727	0.	1972.5
719	15.335	1.0909	0.	1969.3
720	15.335	0.90909	0.	1965.8
721	15.335	0.72727	0.	1962.1
722	15.335	0.54545	0.	1958.3
723	15.335	0.36364	0.	1954.6
724	15.335	0.18182	0.	1952.9
725	15.15	5.8182	0.	2001.8
726	15.15	5.6364	0.	2002.7
727	15.15	5.4545	0.	2005.8
728	15.15	5.2727	0.	2009.
729	15.15	5.0909	0.	2012.
730	15.15	4.9091	0.	2014.9
731	15.15	4.7273	0.	2017.6
732	15.15	4.5455	0.	2019.9
733	15.15	4.3636	0.	2021.9
734	15.15	4.1818	0.	2023.7
735	15.15	4.	0.	2025.1
736	15.15	3.8182	0.	2026.2
737	15.15	3.6364	0.	2027.
738	15.15	3.4545	0.	2027.7
739	15.15	3.2727	0.	2028.
740	15.15	3.0909	0.	2028.2
741	15.15	2.9091	0.	2028.2
742	15.15	2.7273	0.	2028.
743	15.15	2.5455	0.	2027.7
744	15.15	2.3636	0.	2027.
745	15.15	2.1818	0.	2026.2
746	15.15	2.	0.	2025.1
747	15.15	1.8182	0.	2023.7
748	15.15	1.6364	0.	2021.9
749	15.15	1.4545	0.	2019.9
750	15.15	1.2727	0.	2017.6
751	15.15	1.0909	0.	2014.9
752	15.15	0.90909	0.	2012.
753	15.15	0.72727	0.	2009.
754	15.15	0.54545	0.	2005.8
755	15.15	0.36364	0.	2002.7
756	15.15	0.18182	0.	2001.8
757	14.966	5.8182	0.	2050.4
758	14.966	5.6364	0.	2050.8
759	14.966	5.4545	0.	2053.2
760	14.966	5.2727	0.	2055.8
761	14.966	5.0909	0.	2058.4
762	14.966	4.9091	0.	2060.8
763	14.966	4.7273	0.	2062.9
764	14.966	4.5455	0.	2064.9
765	14.966	4.3636	0.	2066.6
766	14.966	4.1818	0.	2068.
767	14.966	4.	0.	2069.1
768	14.966	3.8182	0.	2070.1
769	14.966	3.6364	0.	2070.8
770	14.966	3.4545	0.	2071.3
771	14.966	3.2727	0.	2071.6
772	14.966	3.0909	0.	2071.8
773	14.966	2.9091	0.	2071.8
774	14.966	2.7273	0.	2071.6
775	14.966	2.5455	0.	2071.3
776	14.966	2.3636	0.	2070.8
777	14.966	2.1818	0.	2070.1
778	14.966	2.	0.	2069.1
779	14.966	1.8182	0.	2068.
780	14.966	1.6364	0.	2066.6
781	14.966	1.4545	0.	2064.9
782	14.966	1.2727	0.	2062.9
783	14.966	1.0909	0.	2060.8
784	14.966	0.90909	0.	2058.4
785	14.966	0.72727	0.	2055.8
786	14.966	0.54545	0.	2053.2
787	14.966	0.36364	0.	2050.8
788	14.966	0.18182	0.	2050.4
789	14.781	5.8182	0.	2098.9
790	14.781	5.6364	0.	2098.7
791	14.781	5.4545	0.	2100.7
792	14.781	5.2727	0.	2102.8
793	14.781	5.0909	0.	2104.8
794	14.781	4.9091	0.	2106.8
795	14.781	4.7273	0.	2108.6
796	14.781	4.5455	0.	2110.2
797	14.781	4.3636	0.	2111.5
798	14.781	4.1818	0.	2112.7
799	14.781	4.	0.	2113.7
800	14.781	3.8182	0.	2114.4
801	14.781	3.6364	0.	2115.
802	14.781	3.4545	0.	2115.5
803	14.781	3.2727	0.	2115.7
804	14.781	3.0909	0.	2115.9
805	14.781	2.9091	0.	2115.9
806	14.781	2.7273	0.	2115.7
807	14.781	2.5455	0.	2115.5
808	14.781	2.3636	0.	2115.
809	14.781	2.1818	0.	2114.4
810	14.781	2.	0.	2113.7
811	14.781	1.8182	0.	2112.7
812	14.781	1.6364	0.	2111.5
813	14.781	1.4545	0.	2110.2
814	14.781	1.2727	0.	2108.6
815	14.781	1.0909	0.	2106.8
816	14.781	0.90909	0.	2104.8
817	14.781	0.72727	0.	2102.8
818	14.781	0.54545	0.	2100.7
819	14.781	0.36364	0.	2098.7
820	14.781	0.18182	0.	2098.9
821	14.596	5.8182	0.	2147.2
822	14.596	5.6364	0.	2146.5
823	14.596	5.4545	0.	2148.1
824	14.596	5.2727	0.	2149.8
825	14.596	5.0909	0.	2151.4
826	14.596	4.9091	0.	2153.
827	14.596	4.7273	0.	2154.5
828	14.596	4.5455	0.	2155.7
829	14.596	4.3636	0.	2156.9
830	14.596	4.1818	0.	2157.8
831	14.596	4.	0.	2158.6
832	14.596	3.8182	0.	2159.3
833	14.596	3.6364	0.	2159.7
834	14.596	3.4545	0.	2160.1
835	14.596	3.2727	0.	2160.3
836	14.596	3.0909	0.	2160.4
837	14.596	2.9091	0.	2160.4
838	14.596	2.7273	0.	2160.3
839	14.596	2.5455	0.	2160.1
840	14.596	2.3636	0.	2159.7
841	14.596	2.1818	0.	2159.3
842	14.596	2.	0.	2158.6
843	14.596	1.8182	0.	2157.8
844	14.596	1.6364	0.	2156.9
845	14.596	1.4545	0.	2155.7
846	14.596	1.2727	0.	2154.5
847	14.596	1.0909	0.	2153.
848	14.596	0.90909	0.	2151.4
849	14.596	0.72727	0.	2149.8
850	14.596	0.54545	0.	2148.1
851	14.596	0.36364	0.	2146.5
852	14.596	0.18182	0.	2147.2
853	14.411	5.8182	0.	2195.5
854	14.411	5.6364	0.	2194.4
855	14.411	5.4545	0.	2195.6
856	14.411	5.2727	0.	2196.9
857	14.411	5.0909	0.	2198.2
858	14.411	4.9091	0.	2199.4
859	14.411	4.7273	0.	2200.6
860	14.411	4.5455	0.	2201.6
861	14.411	4.3636	0.	2202.5
862	14.411	4.1818	0.	2203.3
863	14.411	4.	0.	2203.9
864	14.411	3.8182	0.	2204.4
865	14.411	3.6364	0.	2204.8
866	14.411	3.4545	0.	2205.1
867	14.411	3.2727	0.	2205.3
868	14.411	3.0909	0.	2205.4
869	14.411	2.9091	0.	2205.4
870	14.411	2.7273	0.	2205.3
871	14.411	2.5455	0.	2205.1
872	14.411	2.3636	0.	2204.8
873	14.411	2.1818	0.	2204.4
874	14.411	2.	0.	2203.9
875	14.411	1.8182	0.	2203.3
876	14.411	1.6364	0.	2202.5
877	14.411	1.4545	0.	2201.6
878	14.411	1.2727	0.	2200.6
879	14.411	1.0909	0.	2199.4
880	14.411	0.90909	0.	2198.2
881	14.411	0.72727	0.	2196.9
882	14.411	0.54545	0.	2195.6
883	14.411	0.36364	0.	2194.4
884	14.411	0.18182	0.	2195.5
885	14.227	5.8182	0.	2243.7
886	14.227	5.6364	0.	2242.3
887	14.227	5.4545	0.	2243.2
888	14.227	5.2727	0.	2244.1
889	14.227	5.0909	0.	2245.1
890	14.227	4.9091	0.	2246.1
891	14.227	4.7273	0.	2247.
892	14.227	4.5455	0.	2247.8
893	14.227	4.3636	0.	2248.5
894	14.227	4.1818	0.	2249.1
895	14.227	4.	0.	2249.6
896	14.227	3.8182	0.	2250.
897	14.227	3.6364	0.	2250.3
898	14.227	3.4545	0.	2250.5
899	14.227	3.2727	0.	2250.6
900	14.227	3.0909	0.	2250.7
901	14.227	2.9091	0.	2250.7
902	14.227	2.7273	0.	2250.6
903	14.227	2.5455	0.	2250.5
904	14.227	2.3636	0.	2250.3
905	14.227	2.1818	0.	2250.
906	14.227	2.	0.	2249.6
907	14.227	1.8182	0.	2249.1
908	14.227	1.6364	0.	2248.5
909	14.227	1.4545	0.	2247.8
910	14.227	1.2727	0.	2247.
911	14.227	1.0909	0.	2246.1
912	14.227	0.90909	0.	2245.1
913	14.227	0.72727	0.	2244.1
914	14.227	0.54545	0.	2243.2
915	14.227	0.36364	0.	2242.3
916	14.227	0.18182	0.	2243.7
917	14.042	5.8182	0.	2292.1
918	14.042	5.6364	0.	2290.3
919	14.042	5.4545	0.	2290.9
920	14.042	5.2727	0.	2291.6
921	14.042	5.0909	0.	2292.3
922	14.042	4.9091	0.	2293.
923	14.042	4.7273	0.	2293.6
924	14.042	4.5455	0.	2294.2
925	14.042	4.3636	0.	2294.7
926	14.042	4.1818	0.	2295.2
927	14.042	4.	0.	2295.6
928	14.042	3.8182	0.	2295.9
929	14.042	3.6364	0.	2296.1
930	14.042	3.4545	0.	2296.2
931	14.042	3.2727	0.	2296.3
932	14.042	3.0909	0.	2296.4
933	14.042	2.9091	0.	2296.4
934	14.042	2.7273	0.	2296.3
935	14.042	2.5455	0.	2296.2
936	14.042	2.3636	0.	2296.1
937	14.042	2.1818	0.	2295.9
938	14.042	2.	0.	2295.6
939	14.042	1.8182	0.	2295.2
940	14.042	1.6364	0.	2294.7
941	14.042	1.4545	0.	2294.2
942	14.042	1.2727	0.	2293.6
943	14.042	1.0909	0.	2293.
944	14.042	0.90909	0.	2292.3
945	14.042	0.72727	0.	2291.6
946	14.042	0.54545	0.	2290.9
947	14.042	0.36364	0.	2290.3
948	14.042	0.18182	0.	2292.1
949	13.857	5.8182	0.	2340.4
950	13.857	5.6364	0.	2338.4
951	13.857	5.4545	0.	2338.7
952	13.857	5.2727	0.	2339.1
953	13.857	5.0909	0.	2339.6
954	13.857	4.9091	0.	2340.
955	13.857	4.7273	0.	2340.5
956	13.857	4.5455	0.	2340.9
957	13.857	4.3636	0.	2341.3
958	13.857	4.1818	0.	2341.6
959	13.857	4.	0.	2341.8
960	13.857	3.8182	0.	2342.
961	13.857	3.6364	0.	2342.2
962	13.857	3.4545	0.	2342.3
963	13.857	3.2727	0.	2342.4
964	13.857	3.0909	0.	2342.4
965	13.857	2.9091	0.	2342.4
966	13.857	2.7273	0.	2342.4
967	13.857	2.5455	0.	2342.3
968	13.857	2.3636	0.	2342.2
969	13.857	2.1818	0.	2342.
970	13.857	2.	0.	2341.8
971	13.857	1.8182	0.	2341.6
972	13.857	1.6364	0.	2341.3
973	13.857	1.4545	0.	2340.9
974	13.857	1.2727	0.	2340.5
975	13.857	1.0909	0.	2340.
976	13.857	0.90909	0.	2339.6
977	13.857	0.72727	0.	2339.1
978	13.857	0.54545	0.	2338.7
979	13.857	0.36364	0.	2338.4
980	13.857	0.18182	0.	2340.4
981	13.672	5.8182	0.	2388.9
982	13.672	5.6364	0.	2386.7
983	13.672	5.4545	0.	2386.7
984	13.672	5.2727	0.	2386.8
985	13.672	5.0909	0.	2387.1
986	13.672	4.9091	0.	2387.3
987	13.672	4.7273	0.	2387.6
988	13.672	4.5455	0.	2387.8
989	13.672	4.3636	0.	2388.
990	13.672	4.1818	0.	2388.2
991	13.672	4.	0.	2388.4
992	13.672	3.8182	0.	2388.5
993	13.672	3.6364	0.	2388.6
994	13.672	3.4545	0.	2388.6
995	13.672	3.2727	0.	2388.7
996	13.672	3.0909	0.	2388.7
997	13.672	2.9091	0.	2388.7
998	13.672	2.7273	0.	2388.7
999	13.672	2.5455	0.	2388.6
1000	13.672	2.3636	0.	2388.6
1001	13.672	2.1818	0.	2388.5
1002	13.672	2.	0.	2388.4
1003	13.672	1.8182	0.	2388.2
1004	13.672	1.6364	0.	2388.
1005	13.672	1.4545	0.	2387.8
1006	13.672	1.2727	0.	2387.6
1007	13.672	1.0909	0.	2387.3
1008	13.672	0.90909	0.	2387.1
1009	13.672	0.72727	0.	2386.8
1010	13.672	0.54545	0.	2386.7
1011	13.672	0.36364	0.	2386.7
1012	13.672	0.18182	0.	2388.9
1013	13.488	5.8182	0.	2437.4
1014	13.488	5.6364	0.	2435.
1015	13.488	5.4545	0.	2434.8
1016	13.488	5.2727	0.	2434.8
1017	13.488	5.0909	0.	2434.8
1018	13.488	4.9091	0.	2434.8
1019	13.488	4.7273	0.	2434.9
1020	13.488	4.5455	0.	2435.
1021	13.488	4.3636	0.	2435.1
1022	13.488	4.1818	0.	2435.1
1023	13.488	4.	0.	2435.2
1024	13.488	3.8182	0.	2435.2
1025	13.488	3.6364	0.	2435.2
1026	13.488	3.4545	0.	2435.2
1027	13.488	3.2727	0.	2435.2
1028	13.488	3.0909	0.	2435.2
1029	13.488	2.9091	0.	2435.2
1030	13.488	2.7273	0.	2435.2
1031	13.488	2.5455	0.	2435.2
1032	13.488	2.3636	0.	2435.2
1033	13.488	2.1818	0.	2435.2
1034	13.488	2.	0.	2435.2
1035	13.488	1.8182	0.	2435.1
1036	13.488	1.6364	0.	2435.1
1037	13.488	1.4545	0.	2435.
1038	13.488	1.2727	0.	2434.9
1039	13.488	1.0909	0.	2434.8
1040	13.488	0.90909	0.	2434.8
1041	13.488	0.72727	0.	2434.8
1042	13.488	0.54545	0.	2434.8
1043	13.488	0.36364	0.	2435.
1044	13.488	0.18182	0.	2437.4
1045	13.303	5.8182	0.	2486.1
1046	13.303	5.6364	0.	2483.5
1047	13.303	5.4545	0.	2483.1
1048	13.303	5.2727	0.	2482.8
1049	13.303	5.0909	0.	2482.7
1050	13.303	4.9091	0.	2482.5
1051	13.303	4.7273	0.	2482.5
1052	13.303	4.5455	0.	2482.4
1053	13.303	4.3636	0.	2482.3
1054	13.303	4.1818	0.	2482.3
1055	13.303	4.	0.	2482.2
1056	13.303	3.8182	0.	2482.2
1057	13.303	3.6364	0.	2482.1
1058	13.303	3.4545	0.	2482.1
1059	13.303	3.2727	0.	2482.1
1060	13.303	3.0909	0.	2482.1
1061	13.303	2.9091	0.	2482.1
1062	13.303	2.7273	0.	2482.1
1063	13.303	2.5455	0.	2482.1
1064	13.303	2.3636	0.	2482.1
1065	13.303	2.1818	0.	2482.2
1066	13.303	2.	0.	2482.2
1067	13.303	1.8182	0.	2482.3
1068	13.303	1.6364	0.	2482.3
1069	13.303	1.4545	0.	2482.4
1070	13.303	1.2727	0.	2482.5
1071	13.303	1.0909	0.	2482.5
1072	13.303	0.90909	0.	2482.7
1073	13.303	0.72727	0.	2482.8
1074	13.303	0.54545	0.	2483.1
1075	13.303	0.36364	0.	2483.5
1076	13.303	0.18182	0.	2486.1
1077	13.118	5.8182	0.	2535.
1078	13.118	5.6364	0.	2532.1
1079	13.118	5.4545	0.	2531.5
1080	13.118	5.2727	0.	2531.1
1081	13.118	5.0909	0.	2530.8
1082	13.118	4.9091	0.	2530.5
1083	13.118	4.7273	0.	2530.2
1084	13.118	4.5455	0.	2530.
1085	13.118	4.3636	0.	2529.8
1086	13.118	4.1818	0.	2529.6
1087	13.118	4.	0.	2529.5
1088	13.118	3.8182	0.	2529.4
1089	13.118	3.6364	0.	2529.3
1090	13.118	3.4545	0.	2529.2
1091	13.118	3.2727	0.	2529.1
1092	13.118	3.0909	0.	2529.1
1093	13.118	2.9091	0.	2529.1
1094	13.118	2.7273	0.	2529.1
1095	13.118	2.5455	0.	2529.2
1096	13.118	2.3636	0.	2529.3
1097	13.118	2.1818	0.	2529.4
1098	13.118	2.	0.	2529.5
1099	13.118	1.8182	0.	2529.6
1100	13.118	1.6364	0.	2529.8
1101	13.118	1.4545	0.	2530.
1102	13.118	1.2727	0.	2530.2
1103	13.118	1.0909	0.	2530.5
1104	13.118	0.90909	0.	2530.8
1105	13.118	0.72727	0.	2531.1
1106	13.118	0.54545	0.	2531.5
1107	13.118	0.36364	0.	2532.1
1108	13.118	0.18182	0.	2535.
1109	12.933	5.8182	0.	2583.9
1110	12.933	5.6364	0.	2581.
1111	12.933	5.4545	0.	2580.1
1112	12.933	5.2727	0.	2579.5
1113	12.933	5.0909	0.	2579.
1114	12.933	4.9091	0.	2578.6
1115	12.933	4.7273	0.	2578.2
1116	12.933	4.5455	0.	2577.8
1117	12.933	4.3636	0.	2577.5
1118	12.933	4.1818	0.	2577.2
1119	12.933	4.	0.	2577.
1120	12.933	3.8182	0.	2576.8
1121	12.933	3.6364	0.	2576.6
1122	12.933	3.4545	0.	2576.5
1123	12.933	3.2727	0.	2576.4
1124	12.933	3.0909	0.	2576.4
1125	12.933	2.9091	0.	2576.4
1126	12.933	2.7273	0.	2576.4
1127	12.933	2.5455	0.	2576.5
1128	12.933	2.3636	0.	2576.6
1129	12.933	2.1818	0.	2576.8
1130	12.933	2.	0.	2577.
1131	12.933	1.8182	0.	2577.2
1132	12.933	1.6364	0.	2577.5
1133	12.933	1.4545	0.	2577.8
1134	12.933	1.2727	0.	2578.2
1135	12.933	1.0909	0.	2578.6
1136	12.933	0.90909	0.	2579.
1137	12.933	0.72727	0.	2579.5
1138	12.933	0.54545	0.	2580.1
1139	12.933	0.36364	0.	2581.
1140	12.933	0.18182	0.	2583.9
1141	12.749	5.8182	0.	2633.1
1142	12.749	5.6364	0.	2629.9
1143	12.749	5.4545	0.	2628.9
1144	12.749	5.2727	0.	2628.2
1145	12.749	5.0909	0.	2627.5
1146	12.749	4.9091	0.	2626.9
1147	12.749	4.7273	0.	2626.3
1148	12.749	4.5455	0.	2625.8
1149	12.749	4.3636	0.	2625.4
1150	12.749	4.1818	0.	2625.
1151	12.749	4.	0.	2624.7
1152	12.749	3.8182	0.	2624.4
1153	12.749	3.6364	0.	2624.2
1154	12.749	3.4545	0.	2624.
1155	12.749	3.2727	0.	2623.9
1156	12.749	3.0909	0.	2623.9
1157	12.749	2.9091	0.	2623.9
1158	12.749	2.7273	0.	2623.9
1159	12.749	2.5455	0.	2624.
1160	12.749	2.3636	0.	2624.2
1161	12.749	2.1818	0.	2624.4
1162	12.749	2.	0.	2624.7
1163	12.749	1.8182	0.	2625.
1164	12.749	1.6364	0.	2625.4
1165	12.749	1.4545	0.	2625.8
1166	12.749	1.2727	0.	2626.3
1167	12.749	1.0909	0.	2626.9
1168	12.749	0.90909	0.	2627.5
1169	12.749	0.72727	0.	2628.2
1170	12.749	0.54545	0.	2628.9
1171	12.749	0.36364	0.	2629.9
1172	12.749	0.18182	0.	2633.1
1173	12.564	5.8182	0.	2682.4
1174	12.564	5.6364	0.	2679.1
1175	12.564	5.4545	0.	2677.9
1176	12.564	5.2727	0.	2677.
1177	12.564	5.0909	0.	2676.1
1178	12.564	4.9091	0.	2675.4
1179	12.564	4.7273	0.	2674.7
1180	12.564	4.5455	0.	2674.1
1181	12.564	4.3636	0.	2673.5
1182	12.564	4.1818	0.	2673.
1183	12.564	4.	0.	2672.6
1184	12.564	3.8182	0.	2672.3
1185	12.564	3.6364	0.	2672.
1186	12.564	3.4545	0.	2671.8
1187	12.564	3.2727	0.	2671.6
1188	12.564	3.0909	0.	2671.6
1189	12.564	2.9091	0.	2671.6
1190	12.564	2.7273	0.	2671.6
1191	12.564	2.5455	0.	2671.8
1192	12.564	2.3636	0.	2672.
1193	12.564	2.1818	0.	2672.3
1194	12.564	2.	0.	2672.6
1195	12.564	1.8182	0.	2673.
1196	12.564	1.6364	0.	2673.5
1197	12.564	1.4545	0.	2674.1
1198	12.564	1.2727	0.	2674.7
1199	12.564	1.0909	0.	2675.4
1200	12.564	0.90909	0.	2676.1
1201	12.564	0.72727	0.	2677.
1202	12.564	0.54545	0.	2677.9
1203	12.564	0.36364	0.	2679.1
1204	12.564	0.18182	0.	2682.4
1205	12.379	5.8182	0.	2731.9
1206	12.379	5.6364	0.	2728.4
1207	12.379	5.4545	0.	2727.1
1208	12.379	5.2727	0.	2726.
1209	12.379	5.0909	0.	2725.
1210	12.379	4.9091	0.	2724.1
1211	12.379	4.7273	0.	2723.2
1212	12.379	4.5455	0.	2722.5
1213	12.379	4.3636	0.	2721.8
1214	12.379	4.1818	0.	2721.2
1215	12.379	4.	0.	2720.7
1216	12.379	3.8182	0.	2720.3
1217	12.379	3.6364	0.	2720.
1218	12.379	3.4545	0.	2719.7
1219	12.379	3.2727	0.	2719.6
1220	12.379	3.0909	0.	2719.5
1221	12.379	2.9091	0.	2719.5
1222	12.379	2.7273	0.	2719.6
1223	12.379	2.5455	0.	2719.7
1224	12.379	2.3636	0.	2720.
1225	12.379	2.1818	0.	2720.3
1226	12.379	2.	0.	2720.7
1227	12.379	1.8182	0.	2721.2
1228	12.379	1.6364	0.	2721.8
1229	12.379	1.4545	0.	2722.5
1230	12.379	1.2727	0.	2723.2
1231	12.379	1.0909	0.	2724.1
1232	12.379	0.90909	0.	2725.
1233	12.379	0.72727	0.	2726.
1234	12.379	0.54545	0.	2727.1
1235	12.379	0.36364	0.	2728.4
1236	12.379	0.18182	0.	2731.9
1237	12.194	5.8182	0.	2781.5
1238	12.194	5.6364	0.	2777.9
1239	12.194	5.4545	0.	2776.4
1240	12.194	5.2727	0.	2775.2
1241	12.194	5.0909	0.	2774.
1242	12.194	4.9091	0.	2772.9
1243	12.194	4.7273	0.	2772.
1244	12.194	4.5455	0.	2771.1
1245	12.194	4.3636	0.	2770.3
1246	12.194	4.1818	0.	2769.6
1247	12.194	4.	0.	2769.
1248	12.194	3.8182	0.	2768.5
1249	12.194	3.6364	0.	2768.1
1250	12.194	3.4545	0.	2767.8
1251	12.194	3.2727	0.	2767.6
1252	12.194	3.0909	0.	2767.5
1253	12.194	2.9091	0.	2767.5
1254	12.194	2.7273	0.	2767.6
1255	12.194	2.5455	0.	2767.8
1256	12.194	2.3636	0.	2768.1
1257	12.194	2.1818	0.	2768.5
1258	12.194	2.	0.	2769.
1259	12.194	1.8182	0.	2769.6
1260	12.194	1.6364	0.	2770.3
1261	12.194	1.4545	0.	2771.1
1262	12.194	1.2727	0.	2772.
1263	12.194	1.0909	0.	2772.9
1264	12.194	0.90909	0.	2774.
1265	12.194	0.72727	0.	2775.2
1266	12.194	0.54545	0.	2776.4
1267	12.194	0.36364	0.	2777.9
1268	12.194	0.18182	0.	2781.5
1269	12.01	5.8182	0.	2831.4
1270	12.01	5.6364	0.	2827.6
1271	12.01	5.4545	0.	2826.
1272	12.01	5.2727	0.	2824.5
1273	12.01	5.0909	0.	2823.2
1274	12.01	4.9091	0.	2822.
1275	12.01	4.7273	0.	2820.9
1276	12.01	4.5455	0.	2819.9
1277	12.01	4.3636	0.	2819.
1278	12.01	4.1818	0.	2818.2
1279	12.01	4.	0.	2817.5
1280	12.01	3.8182	0.	2816.9
1281	12.01	3.6364	0.	2816.5
1282	12.01	3.4545	0.	2816.1
1283	12.01	3.2727	0.	2815.9
1284	12.01	3.0909	0.	2815.8
1285	12.01	2.9091	0.	2815.8
1286	12.01	2.7273	0.	2815.9
1287	12.01	2.5455	0.	2816.1
1288	12.01	2.3636	0.	2816.5
1289	12.01	2.1818	0.	2816.9
1290	12.01	2.	0.	2817.5
1291	12.01	1.8182	0.	2818.2
1292	12.01	1.6364	0.	2819.
1293	12.01	1.4545	0.	2819.9
1294	12.01	1.2727	0.	2820.9
1295	12.01	1.0909	0.	2822.
1296	12.01	0.90909	0.	2823.2
1297	12.01	0.72727	0.	2824.5
1298	12.01	0.54545	0.	2826.
1299	12.01	0.36364	0.	2827.6
1300	12.01	0.18182	0.	2831.4
1301	11.825	5.8182	0.	2881.4
1302	11.825	5.6364	0.	2877.5
1303	11.825	5.4545	0.	2875.7
1304	11.825	5.2727	0.	2874.1
1305	11.825	5.0909	0.	2872.6
1306	11.825	4.9091	0.	2871.2
1307	11.825	4.7273	0.	2870.
1308	11.825	4.5455	0.	2868.9
1309	11.825	4.3636	0.	2867.8
1310	11.825	4.1818	0.	2866.9
1311	11.825	4.	0.	2866.2
1312	11.825	3.8182	0.	2865.5
1313	11.825	3.6364	0.	2865.
1314	11.825	3.4545	0.	2864.6
1315	11.825	3.2727	0.	2864.3
1316	11.825	3.0909	0.	2864.2
1317	11.825	2.9091	0.	2864.2
1318	11.825	2.7273	0.	2864.3
1319	11.825	2.5455	0.	2864.6
1320	11.825	2.3636	0.	2865.
1321	11.825	2.1818	0.	2865.5
1322	11.825	2.	0.	2866.2
1323	11.825	1.8182	0.	2866.9
1324	11.825	1.6364	0.	2867.8
1325	11.825	1.4545	0.	2868.9
1326	11.825	1.2727	0.	2870.
1327	11.825	1.0909	0.	2871.2
1328	11.825	0.90909	0.	2872.6
1329	11.825	0.72727	0.	2874.1
1330	11.825	0.54545	0.	2875.7
1331	11.825	0.36364	0.	2877.5
1332	11.825	0.18182	0.	2881.4
1333	11.64	5.8182	0.	2931.6
1334	11.64	5.6364	0.	2927.6
1335	11.64	5.4545	0.	2925.6
1336	11.64	5.2727	0.	2923.8
1337	11.64	5.0909	0.	2922.2
1338	11.64	4.9091	0.	2920.7
1339	11.64	4.7273	0.	2919.3
1340	11.64	4.5455	0.	2918.
1341	11.64	4.3636	0.	2916.8
1342	11.64	4.1818	0.	2915.8
1343	11.64	4.	0.	2915.
1344	11.64	3.8182	0.	2914.2
1345	11.64	3.6364	0.	2913.6
1346	11.64	3.4545	0.	2913.2
1347	11.64	3.2727	0.	2912.9
1348	11.64	3.0909	0.	2912.8
1349	11.64	2.9091	0.	2912.8
1350	11.64	2.7273	0.	2912.9
1351	11.64	2.5455	0.	2913.2
1352	11.64	2.3636	0.	2913.6
1353	11.64	2.1818	0.	2914.2
1354	11.64	2.	0.	2915.
1355	11.64	1.8182	0.	2915.8
1356	11.64	1.6364	0.	2916.8
1357	11.64	1.4545	0.	2918.
1358	11.64	1.2727	0.	2919.3
1359	11.64	1.0909	0.	2920.7
1360	11.64	0.90909	0.	2922.2
1361	11.64	0.72727	0.	2923.8
1362	11.64	0.54545	0.	2925.6
1363	11.64	0.36364	0.	2927.6
1364	11.64	0.18182	0.	2931.6
1365	11.455	5.8182	0.	2982.
1366	11.455	5.6364	0.	2977.9
1367	11.455	5.4545	0.	2975.7
1368	11.455	5.2727	0.	2973.7
1369	11.455	5.0909	0.	2971.9
1370	11.455	4.9091	0.	2970.2
1371	11.455	4.7273	0.	2968.7
1372	11.455	4.5455	0.	2967.3
1373	11.455	4.3636	0.	2966.
1374	11.455	4.1818	0.	2964.9
1375	11.455	4.	0.	2963.9
1376	11.455	3.8182	0.	2963.1
1377	11.455	3.6364	0.	2962.5
1378	11.455	3.4545	0.	2962.
1379	11.455	3.2727	0.	2961.6
1380	11.455	3.0909	0.	2961.5
1381	11.455	2.9091	0.	2961.5
1382	11.455	2.7273	0.	2961.6
1383	11.455	2.5455	0.	2962.
1384	11.455	2.3636	0.	2962.5
1385	11.455	2.1818	0.	2963.1
1386	11.455	2.	0.	2963.9
1387	11.455	1.8182	0.	2964.9
1388	11.455	1.6364	0.	2966.
1389	11.455	1.4545	0.	2967.3
1390	11.455	1.2727	0.	2968.7
1391	11.455	1.0909	0.	2970.2
1392	11.455	0.90909	0.	2971.9
1393	11.455	0.72727	0.	2973.7
1394	11.455	0.54545	0.	2975.7
1395	11.455	0.36364	0.	2977.9
1396	11.455	0.18182	0.	2982.
1397	11.27	5.8182	0.	3032.6
1398	11.27	5.6364	0.	3028.3
1399	11.27	5.4545	0.	3026.
1400	11.27	5.2727	0.	3023.8
1401	11.27	5.0909	0.	3021.8
1402	11.27	4.9091	0.	3020.
1403	11.27	4.7273	0.	3018.3
1404	11.27	4.5455	0.	3016.7
1405	11.27	4.3636	0.	3015.3
1406	11.27	4.1818	0.	3014.1
1407	11.27	4.	0.	3013.
1408	11.27	3.8182	0.	3012.1
1409	11.27	3.6364	0.	3011.4
1410	11.27	3.4545	0.	3010.8
1411	11.27	3.2727	0.	3010.5
1412	11.27	3.0909	0.	3010.3
1413	11.27	2.9091	0.	3010.3
1414	11.27	2.7273	0.	3010.5
1415	11.27	2.5455	0.	3010.8
1416	11.27	2.3636	0.	3011.4
1417	11.27	2.1818	0.	3012.1
1418	11.27	2.	0.	3013.
1419	11.27	1.8182	0.	3014.1
1420	11.27	1.6364	0.	3015.3
1421	11.27	1.4545	0.	3016.7
1422	11.27	1.2727	0.	3018.3
1423	11.27	1.0909	0.	3020.
1424	11.27	0.90909	0.	3021.8
1425	11.27	0.72727	0.	3023.8
1426	11.27	0.54545	0.	3026.
1427	11.27	0.36364	0.	3028.3
1428	11.27	0.18182	0.	3032.6
1429	11.086	5.8182	0.	3083.5
1430	11.086	5.6364	0.	3079.
1431	11.086	5.4545	0.	3076.4
1432	11.086	5.2727	0.	3074.1
1433	11.086	5.0909	0.	3071.9
1434	11.086	4.9091	0.	3069.9
1435	11.086	4.7273	0.	3068.
1436	11.086	4.5455	0.	3066.3
1437	11.086	4.3636	0.	3064.8
1438	11.086	4.1818	0.	3063.4
1439	11.086	4.	0.	3062.3
1440	11.086	3.8182	0.	3061.3
1441	11.086	3.6364	0.	3060.5
1442	11.086	3.4545	0.	3059.9
1443	11.086	3.2727	0.	3059.5
1444	11.086	3.0909	0.	3059.3
1445	11.086	2.9091	0.	3059.3
1446	11.086	2.7273	0.	3059.5
1447	11.086	2.5455	0.	3059.9
1448	11.086	2.3636	0.	3060.5
1449	11.086	2.1818	0.	3061.3
1450	11.086	2.	0.	3062.3
1451	11.086	1.8182	0.	3063.4
1452	11.086	1.6364	0.	3064.8
1453	11.086	1.4545	0.	3066.3
1454	11.086	1.2727	0.	3068.
1455	11.086	1.0909	0.	3069.9
1456	11.086	0.90909	0.	3071.9
1457	11.086	0.72727	0.	3074.1
1458	11.086	0.54545	0.	3076.4
1459	11.086	0.36364	0.	3079.
1460	11.086	0.18182	0.	3083.5
1461	10.901	5.8182	0.	3134.5
1462	10.901	5.6364	0.	3129.8
1463	10.901	5.4545	0.	3127.1
1464	10.901	5.2727	0.	3124.6
1465	10.901	5.0909	0.	3122.2
1466	10.901	4.9091	0.	3120.
1467	10.901	4.7273	0.	3117.9
1468	10.901	4.5455	0.	3116.1
1469	10.901	4.3636	0.	3114.4
1470	10.901	4.1818	0.	3112.9
1471	10.901	4.	0.	3111.6
1472	10.901	3.8182	0.	3110.5
1473	10.901	3.6364	0.	3109.6
1474	10.901	3.4545	0.	3109.
1475	10.901	3.2727	0.	3108.5
1476	10.901	3.0909	0.	3108.3
1477	10.901	2.9091	0.	3108.3
1478	10.901	2.7273	0.	3108.5
1479	10.901	2.5455	0.	3109.
1480	10.901	2.3636	0.	3109.6
1481	10.901	2.1818	0.	3110.5
1482	10.901	2.	0.	3111.6
1483	10.901	1.8182	0.	3112.9
1484	10.901	1.6364	0.	3114.4
1485	10.901	1.4545	0.	3116.1
1486	10.901	1.2727	0.	3117.9
1487	10.901	1.0909	0.	3120.
1488	10.901	0.90909	0.	3122.2
1489	10.901	0.72727	0.	3124.6
1490	10.901	0.54545	0.	3127.1
1491	10.901	0.36364	0.	3129.8
1492	10.901	0.18182	0.	3134.5
1493	10.716	5.8182	0.	3185.7
1494	10.716	5.6364	0.	3180.9
1495	10.716	5.4545	0.	3177.9
1496	10.716	5.2727	0.	3175.2
1497	10.716	5.0909	0.	3172.6
1498	10.716	4.9091	0.	3170.2
1499	10.716	4.7273	0.	3168.
1500	10.716	4.5455	0.	3166.
1501	10.716	4.3636	0.	3164.1
1502	10.716	4.1818	0.	3162.5
1503	10.716	4.	0.	3161.1
1504	10.716	3.8182	0.	3159.9
1505	10.716	3.6364	0.	3158.9
1506	10.716	3.4545	0.	3158.2
1507	10.716	3.2727	0.	3157.7
1508	10.716	3.0909	0.	3157.5
1509	10.716	2.9091	0.	3157.5
1510	10.716	2.7273	0.	3157.7
1511	10.716	2.5455	0.	3158.2
1512	10.716	2.3636	0.	3158.9
1513	10.716	2.1818	0.	3159.9
1514	10.716	2.	0.	3161.1
1515	10.716	1.8182	0.	3162.5
1516	10.716	1.6364	0.	3164.1
1517	10.716	1.4545	0.	3166.
1518	10.716	1.2727	0.	3168.
1519	10.716	1.0909	0.	3170.2
1520	10.716	0.90909	0.	3172.6
1521	10.716	0.72727	0.	3175.2
1522	10.716	0.54545	0.	3177.9
1523	10.716	0.36364	0.	3180.9
1524	10.716	0.18182	0.	3185.7
1525	10.531	5.8182	0.	3237.2
1526	10.531	5.6364	0.	3232.1
1527	10.531	5.4545	0.	3228.9
1528	10.531	5.2727	0.	3226.
1529	10.531	5.0909	0.	3223.2
1530	10.531	4.9091	0.	3220.6
1531	10.531	4.7273	0.	3218.2
1532	10.531	4.5455	0.	3216.
1533	10.531	4.3636	0.	3214.
1534	10.531	4.1818	0.	3212.2
1535	10.531	4.	0.	3210.7
1536	10.531	3.8182	0.	3209.4
1537	10.531	3.6364	0.	3208.3
1538	10.531	3.4545	0.	3207.5
1539	10.531	3.2727	0.	3207.
1540	10.531	3.0909	0.	3206.7
1541	10.531	2.9091	0.	3206.7
1542	10.531	2.7273	0.	3207.
1543	10.531	2.5455	0.	3207.5
1544	10.531	2.3636	0.	3208.3
1545	10.531	2.1818	0.	3209.4
1546	10.531	2.	0.	3210.7
1547	10.531	1.8182	0.	3212.2
1548	10.531	1.6364	0.	3214.
1549	10.531	1.4545	0.	3216.
1550	10.531	1.2727	0.	3218.2
1551	10.531	1.0909	0.	3220.6
1552	10.531	0.90909	0.	3223.2
1553	10.531	0.72727	0.	3226.
1554	10.531	0.54545	0.	3228.9
1555	10.531	0.36364	0.	3232.1
1556	10.531	0.18182	0.	3237.2
1557	10.347	5.8182	0.	3288.8
1558	10.347	5.6364	0.	3283.6
1559	10.347	5.4545	0.	3280.1
1560	10.347	5.2727	0.	3277.
1561	10.347	5.0909	0.	3274.
1562	10.347	4.9091	0.	3271.1
1563	10.347	4.7273	0.	3268.5
1564	10.347	4.5455	0.	3266.1
1565	10.347	4.3636	0.	3263.9
1566	10.347	4.1818	0.	3262.
1567	10.347	4.	0.	3260.3
1568	10.347	3.8182	0.	3258.9
1569	10.347	3.6364	0.	3257.8
1570	10.347	3.4545	0.	3256.9
1571	10.347	3.2727	0.	3256.4
1572	10.347	3.0909	0.	3256.1
1573	10.347	2.9091	0.	3256.1
1574	10.347	2.7273	0.	3256.4
1575	10.347	2.5455	0.	3256.9
1576	10.347	2.3636	0.	3257.8
1577	10.347	2.1818	0.	3258.9
1578	10.347	2.	0.	3260.3
1579	10.347	1.8182	0.	3262.
1580	10.347	1.6364	0.	3263.9
1581	10.347	1.4545	0.	3266.1
1582	10.347	1.2727	0.	3268.5
1583	10.347	1.0909	0.	3271.1
1584	10.347	0.90909	0.	3274.
1585	10.347	0.72727	0.	3277.
1586	10.347	0.54545	0.	3280.1
1587	10.347	0.36364	0.	3283.6
1588	10.347	0.18182	0.	3288.8
1589	10.162	5.8182	0.	3340.7
1590	10.162	5.6364	0.	3335.2
1591	10.162	5.4545	0.	3331.5
1592	10.162	5.2727	0.	3328.1
1593	10.162	5.0909	0.	3324.9
1594	10.162	4.9091	0.	3321.8
1595	10.162	4.7273	0.	3319.
1596	10.162	4.5455	0.	3316.4
1597	10.162	4.3636	0.	3314.
1598	10.162	4.1818	0.	3311.9
1599	10.162	4.	0.	3310.1
1600	10.162	3.8182	0.	3308.6
1601	10.162	3.6364	0.	3307.3
1602	10.162	3.4545	0.	3306.4
1603	10.162	3.2727	0.	3305.8
1604	10.162	3.0909	0.	3305.4
1605	10.162	2.9091	0.	3305.4
1606	10.162	2.7273	0.	3305.8
1607	10.162	2.5455	0.	3306.4
1608	10.162	2.3636	0.	3307.3
1609	10.162	2.1818	0.	3308.6
1610	10.162	2.	0.	3310.1
1611	10.162	1.8182	0.	3311.9
1612	10.162	1.6364	0.	3314.
1613	10.162	1.4545	0.	3316.4
1614	10.162	1.2727	0.	3319.
1615	10.162	1.0909	0.	3321.8
1616	10.162	0.90909	0.	3324.9
1617	10.162	0.72727	0.	3328.1
1618	10.162	0.54545	0.	3331.5
1619	10.162	0.36364	0.	3335.2
1620	10.162	0.18182	0.	3340.7
1621	9.9771	5.8182	0.	3392.8
1622	9.9771	5.6364	0.	3387.1
1623	9.9771	5.4545	0.	3383.1
1624	9.9771	5.2727	0.	3379.4
1625	9.9771	5.0909	0.	3375.9
1626	9.9771	4.9091	0.	3372.6
1627	9.9771	4.7273	0.	3369.5
1628	9.9771	4.5455	0.	3366.7
1629	9.9771	4.3636	0.	3364.2
1630	9.9771	4.1818	0.	3361.9
1631	9.9771	4.	0.	3359.9
1632	9.9771	3.8182	0.	3358.3
1633	9.9771	3.6364	0.	3356.9
1634	9.9771	3.4545	0.	3355.9
1635	9.9771	3.2727	0.	3355.2
1636	9.9771	3.0909	0.	3354.9
1637	9.9771	2.9091	0.	3354.9
1638	9.9771	2.7273	0.	3355.2
1639	9.9771	2.5455	0.	3355.9
1640	9.9771	2.3636	0.	3356.9
1641	9.9771	2.1818	0.	3358.3
1642	9.9771	2.	0.	3359.9
1643	9.9771	1.8182	0.	3361.9
1644	9.9771	1.6364	0.	3364.2
1645	9.9771	1.4545	0.	3366.7
1646	9.9771	1.2727	0.	3369.5
1647	9.9771	1.0909	0.	3372.6
1648	9.9771	0.90909	0.	3375.9
1649	9.9771	0.72727	0.	3379.4
1650	9.9771	0.54545	0.	3383.1
1651	9.9771	0.36364	0.	3387.1
1652	9.9771	0.18182	0.	3392.8
1653	9.7924	5.8182	0.	3445.1
1654	9.7924	5.6364	0.	3439.1
1655	9.7924	5.4545	0.	3434.9
1656	9.7924	5.2727	0.	3430.9
1657	9.7924	5.0909	0.	3427.1
1658	9.7924	4.9091	0.	3423.5
1659	9.7924	4.7273	0.	3420.2
1660	9.7924	4.5455	0.	3417.2
1661	9.7924	4.3636	0.	3414.4
1662	9.7924	4.1818	0.	3412.
1663	9.7924	4.	0.	3409.8
1664	9.7924	3.8182	0.	3408.
1665	9.7924	3.6364	0.	3406.6
1666	9.7924	3.4545	0.	3405.4
1667	9.7924	3.2727	0.	3404.7
1668	9.7924	3.0909	0.	3404.3
1669	9.7924	2.9091	0.	3404.3
1670	9.7924	2.7273	0.	3404.7
1671	9.7924	2.5455	0.	3405.4
1672	9.7924	2.3636	0.	3406.6
1673	9.7924	2.1818	0.	3408.
1674	9.7924	2.	0.	3409.8
1675	9.7924	1.8182	0.	3412.
1676	9.7924	1.6364	0.	3414.4
1677	9.7924	1.4545	0.	3417.2
1678	9.7924	1.2727	0.	3420.2
1679	9.7924	1.0909	0.	3423.5
1680	9.7924	0.90909	0.	3427.1
1681	9.7924	0.72727	0.	3430.9
1682	9.7924	0.54545	0.	3434.9
1683	9.7924	0.36364	0.	3439.1
1684	9.7924	0.18182	0.	3445.1
1685	9.6076	5.8182	0.	3497.6
1686	9.6076	5.6364	0.	3491.4
1687	9.6076	5.4545	0.	3486.8
1688	9.6076	5.2727	0.	3482.5
1689	9.6076	5.0909	0.	3478.4
1690	9.6076	4.9091	0.	3474.6
1691	9.6076	4.7273	0.	3471.
1692	9.6076	4.5455	0.	3467.7
1693	9.6076	4.3636	0.	3464.7
1694	9.6076	4.1818	0.	3462.1
1695	9.6076	4.	0.	3459.7
1696	9.6076	3.8182	0.	3457.8
1697	9.6076	3.6364	0.	3456.2
1698	9.6076	3.4545	0.	3455.
1699	9.6076	3.2727	0.	3454.2
1700	9.6076	3.0909	0.	3453.8
1701	9.6076	2.9091	0.	3453.8
1702	9.6076	2.7273	0.	3454.2
1703	9.6076	2.5455	0.	3455.
1704	9.6076	2.3636	0.	3456.2
1705	9.6076	2.1818	0.	3457.8
1706	9.6076	2.	0.	3459.7
1707	9.6076	1.8182	0.	3462.1
1708	9.6076	1.6364	0.	3464.7
1709	9.6076	1.4545	0.	3467.7
1710	9.6076	1.2727	0.	3471.
1711	9.6076	1.0909	0.	3474.6
1712	9.6076	0.90909	0.	3478.4
1713	9.6076	0.72727	0.	3482.5
1714	9.6076	0.54545	0.	3486.8
1715	9.6076	0.36364	0.	3491.4
1716	9.6076	0.18182	0.	3497.6
1717	9.4229	5.8182	0.	3550.4
1718	9.4229	5.6364	0.	3543.9
1719	9.4229	5.4545	0.	3539.
1720	9.4229	5.2727	0.	3534.3
1721	9.4229	5.0909	0.	3529.9
1722	9.4229	4.9091	0.	3525.8
1723	9.4229	4.7273	0.	3521.9
1724	9.4229	4.5455	0.	3518.3
1725	9.4229	4.3636	0.	3515.1
1726	9.4229	4.1818	0.	3512.2
1727	9.4229	4.	0.	3509.7
1728	9.4229	3.8182	0.	3507.6
1729	9.4229	3.6364	0.	3505.9
1730	9.4229	3.4545	0.	3504.6
1731	9.4229	3.2727	0.	3503.7
1732	9.4229	3.0909	0.	3503.3
1733	9.4229	2.9091	0.	3503.3
1734	9.4229	2.7273	0.	3503.7
1735	9.4229	2.5455	0.	3504.6
1736	9.4229	2.3636	0.	3505.9
1737	9.4229	2.1818	0.	3507.6
1738	9.4229	2.	0.	3509.7
1739	9.4229	1.8182	0.	3512.2
1740	9.4229	1.6364	0.	3515.1
1741	9.4229	1.4545	0.	3518.3
1742	9.4229	1.2727	0.	3521.9
1743	9.4229	1.0909	0.	3525.8
1744	9.4229	0.90909	0.	3529.9
1745	9.4229	0.72727	0.	3534.3
1746	9.4229	0.54545	0.	3539.
1747	9.4229	0.36364	0.	3543.9
1748	9.4229	0.18182	0.	3550.4
1749	9.2381	5.8182	0.	3603.4
1750	9.2381	5.6364	0.	3596.6
1751	9.2381	5.4545	0.	3591.3
1752	9.2381	5.2727	0.	3586.3
1753	9.2381	5.0909	0.	3581.5
1754	9.2381	4.9091	0.	3577.1
1755	9.2381	4.7273	0.	3572.9
1756	9.2381	4.5455	0.	3569.
1757	9.2381	4.3636	0.	3565.5
1758	9.2381	4.1818	0.	3562.4
1759	9.2381	4.	0.	3559.7
1760	9.2381	3.8182	0.	3557.4
1761	9.2381	3.6364	0.	3555.5
1762	9.2381	3.4545	0.	3554.1
1763	9.2381	3.2727	0.	3553.2
1764	9.2381	3.0909	0.	3552.7
1765	9.2381	2.9091	0.	3552.7
1766	9.2381	2.7273	0.	3553.2
1767	9.2381	2.5455	0.	3554.1
1768	9.2381	2.3636	0.	3555.5
1769	9.2381	2.1818	0.	3557.4
1770	9.2381	2.	0.	3559.7
1771	9.2381	1.8182	0.	3562.4
1772	9.2381	1.6364	0.	3565.5
1773	9.2381	1.4545	0.	3569.
1774	9.2381	1.2727	0.	3572.9
1775	9.2381	1.0909	0.	3577.1
1776	9.2381	0.90909	0.	3581.5
1777	9.2381	0.72727	0.	3586.3
1778	9.2381	0.54545	0.	3591.3
1779	9.2381	0.36364	0.	3596.6
1780	9.2381	0.18182	0.	3603.4
1781	9.0533	5.8182	0.	3656.7
1782	9.0533	5.6364	0.	3649.5
1783	9.0533	5.4545	0.	3643.8
1784	9.0533	5.2727	0.	3638.4
1785	9.0533	5.0909	0.	3633.3
1786	9.0533	4.9091	0.	3628.4
1787	9.0533	4.7273	0.	3623.9
1788	9.0533	4.5455	0.	3619.8
1789	9.0533	4.3636	0.	3616.
1790	9.0533	4.1818	0.	3612.6
1791	9.0533	4.	0.	3609.7
1792	9.0533	3.8182	0.	3607.2
1793	9.0533	3.6364	0.	3605.2
1794	9.0533	3.4545	0.	3603.7
1795	9.0533	3.2727	0.	3602.6
1796	9.0533	3.0909	0.	3602.1
1797	9.0533	2.9091	0.	3602.1
1798	9.0533	2.7273	0.	3602.6
1799	9.0533	2.5455	0.	3603.7
1800	9.0533	2.3636	0.	3605.2
1801	9.0533	2.1818	0.	3607.2
1802	9.0533	2.	0.	3609.7
1803	9.0533	1.8182	0.	3612.6
1804	9.0533	1.6364	0.	3616.
1805	9.0533	1.4545	0.	3619.8
1806	9.0533	1.2727	0.	3623.9
1807	9.0533	1.0909	0.	3628.4
1808	9.0533	0.90909	0.	3633.3
1809	9.0533	0.72727	0.	3638.4
1810	9.0533	0.54545	0.	3643.8
1811	9.0533	0.36364	0.	3649.5
1812	9.0533	0.18182	0.	3656.7
1813	8.8686	5.8182	0.	3710.2
1814	8.8686	5.6364	0.	3702.6
1815	8.8686	5.4545	0.	3696.5
1816	8.8686	5.2727	0.	3690.7
1817	8.8686	5.0909	0.	3685.1
1818	8.8686	4.9091	0.	3679.9
1819	8.8686	4.7273	0.	3675.
1820	8.8686	4.5455	0.	3670.5
1821	8.8686	4.3636	0.	3666.4
1822	8.8686	4.1818	0.	3662.8
1823	8.8686	4.	0.	3659.6
1824	8.8686	3.8182	0.	3656.9
1825	8.8686	3.6364	0.	3654.8
1826	8.8686	3.4545	0.	3653.1
1827	8.8686	3.2727	0.	3652.
1828	8.8686	3.0909	0.	3651.5
1829	8.8686	2.9091	0.	3651.5
1830	8.8686	2.7273	0.	3652.
1831	8.8686	2.5455	0.	3653.1
1832	8.8686	2.3636	0.	3654.8
1833	8.8686	2.1818	0.	3656.9
1834	8.8686	2.	0.	3659.6
1835	8.8686	1.8182	0.	3662.8
1836	8.8686	1.6364	0.	3666.4
1837	8.8686	1.4545	0.	3670.5
1838	8.8686	1.2727	0.	3675.
1839	8.8686	1.0909	0.	3679.9
1840	8.8686	0.90909	0.	3685.1
1841	8.8686	0.72727	0.	3690.7
1842	8.8686	0.54545	0.	3696.5
1843	8.8686	0.36364	0.	3702.6
1844	8.8686	0.18182	0.	3710.2
1845	8.6838	5.8182	0.	3763.9
1846	8.6838	5.6364	0.	3755.9
1847	8.6838	5.4545	0.	3749.4
1848	8.6838	5.2727	0.	3743.1
1849	8.6838	5.0909	0.	3737.1
1850	8.6838	4.9091	0.	3731.5
1851	8.6838	4.7273	0.	3726.2
1852	8.6838	4.5455	0.	3721.3
1853	8.6838	4.3636	0.	3716.9
1854	8.6838	4.1818	0.	3713.
1855	8.6838	4.	0.	3709.5
1856	8.6838	3.8182	0.	3706.6
1857	8.6838	3.6364	0.	3704.3
1858	8.6838	3.4545	0.	3702.5
1859	8.6838	3.2727	0.	3701.3
1860	8.6838	3.0909	0.	3700.7
1861	8.6838	2.9091	0.	3700.7
1862	8.6838	2.7273	0.	3701.3
1863	8.6838	2.5455	0.	3702.5
1864	8.6838	2.3636	0.	3704.3
1865	8.6838	2.1818	0.	3706.6
1866	8.6838	2.	0.	3709.5
1867	8.6838	1.8182	0.	3713.
1868	8.6838	1.6364	0.	3716.9
1869	8.6838	1.4545	0.	3721.3
1870	8.6838	1.2727	0.	3726.2
1871	8.6838	1.0909	0.	3731.5
1872	8.6838	0.90909	0.	3737.1
1873	8.6838	0.72727	0.	3743.1
1874	8.6838	0.54545	0.	3749.4
1875	8.6838	0.36364	0.	3755.9
1876	8.6838	0.18182	0.	3763.9
1877	8.499	5.8182	0.	3818.
1878	8.499	5.6364	0.	3809.5
1879	8.499	5.4545	0.	3802.4
1880	8.499	5.2727	0.	3795.7
1881	8.499	5.0909	0.	3789.2
1882	8.499	4.9091	0.	3783.1
1883	8.499	4.7273	0.	3777.4
1884	8.499	4.5455	0.	3772.2
1885	8.499	4.3636	0.	3767.4
1886	8.499	4.1818	0.	3763.1
1887	8.499	4.	0.	3759.4
1888	8.499	3.8182	0.	3756.3
1889	8.499	3.6364	0.	3753.7
1890	8.499	3.4545	0.	3751.8
1891	8.499	3.2727	0.	3750.5
1892	8.499	3.0909	0.	3749.9
1893	8.499	2.9091	0.	3749.9
1894	8.499	2.7273	0.	3750.5
1895	8.499	2.5455	0.	3751.8
1896	8.499	2.3636	0.	3753.7
1897	8.499	2.1818	0.	3756.3
1898	8.499	2.	0.	3759.4
1899	8.499	1.8182	0.	3763.1
1900	8.499	1.6364	0.	3767.4
1901	8.499	1.4545	0.	3772.2
1902	8.499	1.2727	0.	3777.4
1903	8.499	1.0909	0.	3783.1
1904	8.499	0.90909	0.	3789.2
1905	8.499	0.72727	0.	3795.7
1906	8.499	0.54545	0.	3802.4
1907	8.499	0.36364	0.	3809.5
1908	8.499	0.18182	0.	3818.
1909	8.3143	5.8182	0.	3872.2
1910	8.3143	5.6364	0.	3863.3
1911	8.3143	5.4545	0.	3855.7
1912	8.3143	5.2727	0.	3848.4
1913	8.3143	5.0909	0.	3841.4
1914	8.3143	4.9091	0.	3834.8
1915	8.3143	4.7273	0.	3828.7
1916	8.3143	4.5455	0.	3823.
1917	8.3143	4.3636	0.	3817.8
1918	8.3143	4.1818	0.	3813.2
1919	8.3143	4.	0.	3809.2
1920	8.3143	3.8182	0.	3805.8
1921	8.3143	3.6364	0.	3803.
1922	8.3143	3.4545	0.	3801.
1923	8.3143	3.2727	0.	3799.6
1924	8.3143	3.0909	0.	3798.9
1925	8.3143	2.9091	0.	3798.9
1926	8.3143	2.7273	0.	3799.6
1927	8.3143	2.5455	0.	3801.
1928	8.3143	2.3636	0.	3803.
1929	8.3143	2.1818	0.	3805.8
1930	8.3143	2.	0.	3809.2
1931	8.3143	1.8182	0.	3813.2
1932	8.3143	1.6364	0.	3817.8
1933	8.3143	1.4545	0.	3823.
1934	8.3143	1.2727	0.	3828.7
1935	8.3143	1.0909	0.	3834.8
1936	8.3143	0.90909	0.	3841.4
1937	8.3143	0.72727	0.	3848.4
1938	8.3143	0.54545	0.	3855.7
1939	8.3143	0.36364	0.	3863.3
1940	8.3143	0.18182	0.	3872.2
1941	8.1295	5.8182	0.	3926.8
1942	8.1295	5.6364	0.	3917.3
1943	8.1295	5.4545	0.	3909.1
1944	8.1295	5.2727	0.	3901.2
1945	8.1295	5.0909	0.	3893.7
1946	8.1295	4.9091	0.	3886.6
1947	8.1295	4.7273	0.	3880.
1948	8.1295	4.5455	0.	3873.8
1949	8.1295	4.3636	0.	3868.2
1950	8.1295	4.1818	0.	3863.2
1951	8.1295	4.	0.	3858.9
1952	8.1295	3.8182	0.	3855.2
1953	8.1295	3.6364	0.	3852.2
1954	8.1295	3.4545	0.	3850.
1955	8.1295	3.2727	0.	3848.5
1956	8.1295	3.0909	0.	3847.7
1957	8.1295	2.9091	0.	3847.7
1958	8.1295	2.7273	0.	3848.5
1959	8.1295	2.5455	0.	3850.
1960	8.1295	2.3636	0.	3852.2
1961	8.1295	2.1818	0.	3855.2
1962	8.1295	2.	0.	3858.9
1963	8.1295	1.8182	0.	3863.2
1964	8.1295	1.6364	0.	3868.2
1965	8.1295	1.4545	0.	3873.8
1966	8.1295	1.2727	0.	3880.
1967	8.1295	1.0909	0.	3886.6
1968	8.1295	0.90909	0.	3893.7
1969	8.1295	0.72727	0.	3901.2
1970	8.1295	0.54545	0.	3909.1
1971	8.1295	0.36364	0.	3917.3
1972	8.1295	0.18182	0.	3926.8
1973	7.9448	5.8182	0.	3981.7
1974	7.9448	5.6364	0.	3971.6
1975	7.9448	5.4545	0.	3962.7
1976	7.9448	5.2727	0.	3954.2
1977	7.9448	5.0909	0.	3946.1
1978	7.9448	4.9091	0.	3938.5
1979	7.9448	4.7273	0.	3931.3
1980	7.9448	4.5455	0.	3924.6
1981	7.9448	4.3636	0.	3918.6
1982	7.9448	4.1818	0.	3913.2
1983	7.9448	4.	0.	3908.5
1984	7.9448	3.8182	0.	3904.5
1985	7.9448	3.6364	0.	3901.2
1986	7.9448	3.4545	0.	3898.8
1987	7.9448	3.2727	0.	3897.2
1988	7.9448	3.0909	0.	3896.3
1989	7.9448	2.9091	0.	3896.3
1990	7.9448	2.7273	0.	3897.2
1991	7.9448	2.5455	0.	3898.8
1992	7.9448	2.3636	0.	3901.2
1993	7.9448	2.1818	0.	3904.5
1994	7.9448	2.	0.	3908.5
1995	7.9448	1.8182	0.	3913.2
1996	7.9448	1.6364	0.	3918.6
1997	7.9448	1.4545	0.	3924.6
1998	7.9448	1.2727	0.	3931.3
1999	7.9448	1.0909	0.	3938.5
2000	7.9448	0.90909	0.	3946.1
2001	7.9448	0.72727	0.	3954.2
2002	7.9448	0.54545	0.	3962.7
2003	7.9448	0.36364	0.	3971.6
2004	7.9448	0.18182	0.	3981.7
2005	7.76	5.8182	0.	4036.8
2006	7.76	5.6364	0.	4026.1
2007	7.76	5.4545	0.	4016.5
2008	7.76	5.2727	0.	4007.4
2009	7.76	5.0909	0.	3998.6
2010	7.76	4.9091	0.	3990.3
2011	7.76	4.7273	0.	3982.5
2012	7.76	4.5455	0.	3975.4
2013	7.76	4.3636	0.	3968.8
2014	7.76	4.1818	0.	3963.
2015	7.76	4.	0.	3957.9
2016	7.76	3.8182	0.	3953.6
2017	7.76	3.6364	0.	3950.1
2018	7.76	3.4545	0.	3947.4
2019	7.76	3.2727	0.	3945.6
2020	7.76	3.0909	0.	3944.7
2021	7.76	2.9091	0.	3944.7
2022	7.76	2.7273	0.	3945.6
2023	7.76	2.5455	0.	3947.4
2024	7.76	2.3636	0.	3950.1
2025	7.76	2.1818	0.	3953.6
2026	7.76	2.	0.	3957.9
2027	7.76	1.8182	0.	3963.
2028	7.76	1.6364	0.	3968.8
2029	7.76	1.4545	0.	3975.4
2030	7.76	1.2727	0.	3982.5
2031	7.76	1.0909	0.	3990.3
2032	7.76	0.90909	0.	3998.6
2033	7.76	0.72727	0.	4007.4
2034	7.76	0.54545	0.	4016.5
2035	7.76	0.36364	0.	4026.1
2036	7.76	0.18182	0.	4036.8
2037	7.5752	5.8182	0.	4092.2
2038	7.5752	5.6364	0.	4080.8
2039	7.5752	5.4545	0.	4070.5
2040	7.5752	5.2727	0.	4060.7
2041	7.5752	5.0909	0.	4051.2
2042	7.5752	4.9091	0.	4042.2
2043	7.5752	4.7273	0.	4033.8
2044	7.5752	4.5455	0.	4026.
2045	7.5752	4.3636	0.	4019.
2046	7.5752	4.1818	0.	4012.6
2047	7.5752	4.	0.	4007.1
2048	7.5752	3.8182	0.	4002.4
2049	7.5752	3.6364	0.	3998.6
2050	7.5752	3.4545	0.	3995.8
2051	7.5752	3.2727	0.	3993.9
2052	7.5752	3.0909	0.	3992.9
2053	7.5752	2.9091	0.	3992.9
2054	7.5752	2.7273	0.	3993.9
2055	7.5752	2.5455	0.	3995.8
2056	7.5752	2.3636	0.	3998.6
2057	7.5752	2.1818	0.	4002.4
2058	7.5752	2.	0.	4007.1
2059	7.5752	1.8182	0.	4012.6
2060	7.5752	1.6364	0.	4019.
2061	7.5752	1.4545	0.	4026.
2062	7.5752	1.2727	0.	4033.8
2063	7.5752	1.0909	0.	4042.2
2064	7.5752	0.90909	0.	4051.2
2065	7.5752	0.72727	0.	4060.7
2066	7.5752	0.54545	0.	4070.5
2067	7.5752	0.36364	0.	4080.8
2068	7.5752	0.18182	0.	4092.2
2069	7.3905	5.8182	0.	4148.
2070	7.3905	5.6364	0.	4135.8
2071	7.3905	5.4545	0.	4124.7
2072	7.3905	5.2727	0.	4114.1
2073	7.3905	5.0909	0.	4103.8
2074	7.3905	4.9091	0.	4094.1
2075	7.3905	4.7273	0.	4085.
2076	7.3905	4.5455	0.	4076.6
2077	7.3905	4.3636	0.	4069.
2078	7.3905	4.1818	0.	4062.1
2079	7.3905	4.	0.	4056.1
2080	7.3905	3.8182	0.	4051.1
2081	7.3905	3.6364	0.	4047.
2082	7.3905	3.4545	0.	4043.9
2083	7.3905	3.2727	0.	4041.8
2084	7.3905	3.0909	0.	4040.7
2085	7.3905	2.9091	0.	4040.7
2086	7.3905	2.7273	0.	4041.8
2087	7.3905	2.5455	0.	4043.9
2088	7.3905	2.3636	0.	4047.
2089	7.3905	2.1818	0.	4051.1
2090	7.3905	2.	0.	4056.1
2091	7.3905	1.8182	0.	4062.1
2092	7.3905	1.6364	0.	4069.
2093	7.3905	1.4545	0.	4076.6
2094	7.3905	1.2727	0.	4085.
2095	7.3905	1.0909	0.	4094.1
2096	7.3905	0.90909	0.	4103.8
2097	7.3905	0.72727	0.	4114.1
2098	7.3905	0.54545	0.	4124.7
2099	7.3905	0.36364	0.	4135.8
2100	7.3905	0.18182	0.	4148.
2101	7.2057	5.8182	0.	4204.1
2102	7.2057	5.6364	0.	4191.1
2103	7.2057	5.4545	0.	4179.1
2104	7.2057	5.2727	0.	4167.6
2105	7.2057	5.0909	0.	4156.5
2106	7.2057	4.9091	0.	4146.1
2107	7.2057	4.7273	0.	4136.2
2108	7.2057	4.5455	0.	4127.1
2109	7.2057	4.3636	0.	4118.8
2110	7.2057	4.1818	0.	4111.4
2111	7.2057	4.	0.	4104.9
2112	7.2057	3.8182	0.	4099.5
2113	7.2057	3.6364	0.	4095.
2114	7.2057	3.4545	0.	4091.6
2115	7.2057	3.2727	0.	4089.4
2116	7.2057	3.0909	0.	4088.2
2117	7.2057	2.9091	0.	4088.2
2118	7.2057	2.7273	0.	4089.4
2119	7.2057	2.5455	0.	4091.6
2120	7.2057	2.3636	0.	4095.
2121	7.2057	2.1818	0.	4099.5
2122	7.2057	2.	0.	4104.9
2123	7.2057	1.8182	0.	4111.4
2124	7.2057	1.6364	0.	4118.8
2125	7.2057	1.4545	0.	4127.1
2126	7.2057	1.2727	0.	4136.2
2127	7.2057	1.0909	0.	4146.1
2128	7.2057	0.90909	0.	4156.5
2129	7.2057	0.72727	0.	4167.6
2130	7.2057	0.54545	0.	4179.1
2131	7.2057	0.36364	0.	4191.1
2132	7.2057	0.18182	0.	4204.1
2133	7.021	5.8182	0.	4260.5
2134	7.021	5.6364	0.	4246.7
2135	7.021	5.4545	0.	4233.7
2136	7.021	5.2727	0.	4221.3
2137	7.021	5.0909	0.	4209.3
2138	7.021	4.9091	0.	4198.
2139	7.021	4.7273	0.	4187.3
2140	7.021	4.5455	0.	4177.5
2141	7.021	4.3636	0.	4168.5
2142	7.021	4.1818	0.	4160.5
2143	7.021	4.	0.	4153.5
2144	7.021	3.8182	0.	4147.5
2145	7.021	3.6364	0.	4142.7
2146	7.021	3.4545	0.	4139.1
2147	7.021	3.2727	0.	4136.6
2148	7.021	3.0909	0.	4135.4
2149	7.021	2.9091	0.	4135.4
2150	7.021	2.7273	0.	4136.6
2151	7.021	2.5455	0.	4139.1
2152	7.021	2.3636	0.	4142.7
2153	7.021	2.1818	0.	4147.5
2154	7.021	2.	0.	4153.5
2155	7.021	1.8182	0.	4160.5
2156	7.021	1.6364	0.	4168.5
2157	7.021	1.4545	0.	4177.5
2158	7.021	1.2727	0.	4187.3
2159	7.021	1.0909	0.	4198.
2160	7.021	0.90909	0.	4209.3
2161	7.021	0.72727	0.	4221.3
2162	7.021	0.54545	0.	4233.7
2163	7.021	0.36364	0.	4246.7
2164	7.021	0.18182	0.	4260.5
2165	6.8362	5.8182	0.	4317.4
2166	6.8362	5.6364	0.	4302.5
2167	6.8362	5.4545	0.	4288.5
2168	6.8362	5.2727	0.	4275.1
2169	6.8362	5.0909	0.	4262.1
2170	6.8362	4.9091	0.	4249.9
2171	6.8362	4.7273	0.	4238.4
2172	6.8362	4.5455	0.	4227.7
2173	6.8362	4.3636	0.	4218.
2174	6.8362	4.1818	0.	4209.3
2175	6.8362	4.	0.	4201.7
2176	6.8362	3.8182	0.	4195.3
2177	6.8362	3.6364	0.	4190.1
2178	6.8362	3.4545	0.	4186.1
2179	6.8362	3.2727	0.	4183.4
2180	6.8362	3.0909	0.	4182.1
2181	6.8362	2.9091	0.	4182.1
2182	6.8362	2.7273	0.	4183.4
2183	6.8362	2.5455	0.	4186.1
2184	6.8362	2.3636	0.	4190.1
2185	6.8362	2.1818	0.	4195.3
2186	6.8362	2.	0.	4201.7
2187	6.8362	1.8182	0.	4209.3
2188	6.8362	1.6364	0.	4218.
2189	6.8362	1.4545	0.	4227.7
2190	6.8362	1.2727	0.	4238.4
2191	6.8362	1.0909	0.	4249.9
2192	6.8362	0.90909	0.	4262.1
2193	6.8362	0.72727	0.	4275.1
2194	6.8362	0.54545	0.	4288.5
2195	6.8362	0.36364	0.	4302.5
2196	6.8362	0.18182	0.	4317.4
2197	6.6514	5.8182	0.	4374.5
2198	6.6514	5.6364	0.	4358.6
2199	6.6514	5.4545	0.	4343.5
2200	6.6514	5.2727	0.	4329.
2201	6.6514	5.0909	0.	4315.
2202	6.6514	4.9091	0.	4301.8
2203	6.6514	4.7273	0.	4289.3
2204	6.6514	4.5455	0.	4277.8
2205	6.6514	4.3636	0.	4267.3
2206	6.6514	4.1818	0.	4257.8
2207	6.6514	4.	0.	4249.6
2208	6.6514	3.8182	0.	4242.6
2209	6.6514	3.6364	0.	4237.
2210	6.6514	3.4545	0.	4232.7
2211	6.6514	3.2727	0.	4229.8
2212	6.6514	3.0909	0.	4228.4
2213	6.6514	2.9091	0.	4228.4
2214	6.6514	2.7273	0.	4229.8
2215	6.6514	2.5455	0.	4232.7
2216	6.6514	2.3636	0.	4237.
2217	6.6514	2.1818	0.	4242.6
2218	6.6514	2.	0.	4249.6
2219	6.6514	1.8182	0.	4257.8
2220	6.6514	1.6364	0.	4267.3
2221	6.6514	1.4545	0.	4277.8
2222	6.6514	1.2727	0.	4289.3
2223	6.6514	1.0909	0.	4301.8
2224	6.6514	0.90909	0.	4315.
2225	6.6514	0.72727	0.	4329.
2226	6.6514	0.54545	0.	4343.5
2227	6.6514	0.36364	0.	4358.6
2228	6.6514	0.18182	0.	4374.5
2229	6.4667	5.8182	0.	4432.1
2230	6.4667	5.6364	0.	4415.
2231	6.4667	5.4545	0.	4398.8
2232	6.4667	5.2727	0.	4383.
2233	6.4667	5.0909	0.	4367.9
2234	6.4667	4.9091	0.	4353.6
2235	6.4667	4.7273	0.	4340.1
2236	6.4667	4.5455	0.	4327.6
2237	6.4667	4.3636	0.	4316.2
2238	6.4667	4.1818	0.	4306.
2239	6.4667	4.	0.	4297.1
2240	6.4667	3.8182	0.	4289.6
2241	6.4667	3.6364	0.	4283.4
2242	6.4667	3.4545	0.	4278.8
2243	6.4667	3.2727	0.	4275.7
2244	6.4667	3.0909	0.	4274.1
2245	6.4667	2.9091	0.	4274.1
2246	6.4667	2.7273	0.	4275.7
2247	6.4667	2.5455	0.	4278.8
2248	6.4667	2.3636	0.	4283.4
2249	6.4667	2.1818	0.	4289.6
2250	6.4667	2.	0.	4297.1
2251	6.4667	1.8182	0.	4306.
2252	6.4667	1.6364	0.	4316.2
2253	6.4667	1.4545	0.	4327.6
2254	6.4667	1.2727	0.	4340.1
2255	6.4667	1.0909	0.	4353.6
2256	6.4667	0.90909	0.	4367.9
2257	6.4667	0.72727	0.	4383.
2258	6.4667	0.54545	0.	4398.8
2259	6.4667	0.36364	0.	4415.
2260	6.4667	0.18182	0.	4432.1
2261	6.2819	5.8182	0.	4490.2
2262	6.2819	5.6364	0.	4471.8
2263	6.2819	5.4545	0.	4454.2
2264	6.2819	5.2727	0.	4437.2
2265	6.2819	5.0909	0.	4420.9
2266	6.2819	4.9091	0.	4405.4
2267	6.2819	4.7273	0.	4390.8
2268	6.2819	4.5455	0.	4377.3
2269	6.2819	4.3636	0.	4364.9
2270	6.2819	4.1818	0.	4353.9
2271	6.2819	4.	0.	4344.2
2272	6.2819	3.8182	0.	4336.1
2273	6.2819	3.6364	0.	4329.4
2274	6.2819	3.4545	0.	4324.4
2275	6.2819	3.2727	0.	4321.
2276	6.2819	3.0909	0.	4319.3
2277	6.2819	2.9091	0.	4319.3
2278	6.2819	2.7273	0.	4321.
2279	6.2819	2.5455	0.	4324.4
2280	6.2819	2.3636	0.	4329.4
2281	6.2819	2.1818	0.	4336.1
2282	6.2819	2.	0.	4344.2
2283	6.2819	1.8182	0.	4353.9
2284	6.2819	1.6364	0.	4364.9
2285	6.2819	1.4545	0.	4377.3
2286	6.2819	1.2727	0.	4390.8
2287	6.2819	1.0909	0.	4405.4
2288	6.2819	0.90909	0.	4420.9
2289	6.2819	0.72727	0.	4437.2
2290	6.2819	0.54545	0.	4454.2
2291	6.2819	0.36364	0.	4471.8
2292	6.2819	0.18182	0.	4490.2
2293	6.0971	5.8182	0.	4548.6
2294	6.0971	5.6364	0.	4528.9
2295	6.0971	5.4545	0.	4509.9
2296	6.0971	5.2727	0.	4491.5
2297	6.0971	5.0909	0.	4473.9
2298	6.0971	4.9091	0.	4457.1
2299	6.0971	4.7273	0.	4441.3
2300	6.0971	4.5455	0.	4426.7
2301	6.0971	4.3636	0.	4413.3
2302	6.0971	4.1818	0.	4401.4
2303	6.0971	4.	0.	4390.9
2304	6.0971	3.8182	0.	4382.
2305	6.0971	3.6364	0.	4374.8
2306	6.0971	3.4545	0.	4369.4
2307	6.0971	3.2727	0.	4365.7
2308	6.0971	3.0909	0.	4363.9
2309	6.0971	2.9091	0.	4363.9
2310	6.0971	2.7273	0.	4365.7
2311	6.0971	2.5455	0.	4369.4
2312	6.0971	2.3636	0.	4374.8
2313	6.0971	2.1818	0.	4382.
2314	6.0971	2.	0.	4390.9
2315	6.0971	1.8182	0.	4401.4
2316	6.0971	1.6364	0.	4413.3
2317	6.0971	1.4545	0.	4426.7
2318	6.0971	1.2727	0.	4441.3
2319	6.0971	1.0909	0.	4457.1
2320	6.0971	0.90909	0.	4473.9
2321	6.0971	0.72727	0.	4491.5
2322	6.0971	0.54545	0.	4509.9
2323	6.0971	0.36364	0.	4528.9
2324	6.0971	0.18182	0.	4548.6
2325	5.9124	5.8182	0.	4607.6
2326	5.9124	5.6364	0.	4586.3
2327	5.9124	5.4545	0.	4565.8
2328	5.9124	5.2727	0.	4545.9
2329	5.9124	5.0909	0.	4526.9
2330	5.9124	4.9091	0.	4508.7
2331	5.9124	4.7273	0.	4491.6
2332	5.9124	4.5455	0.	4475.8
2333	5.9124	4.3636	0.	4461.4
2334	5.9124	4.1818	0.	4448.4
2335	5.9124	4.	0.	4437.1
2336	5.9124	3.8182	0.	4427.5
2337	5.9124	3.6364	0.	4419.7
2338	5.9124	3.4545	0.	4413.8
2339	5.9124	3.2727	0.	4409.8
2340	5.9124	3.0909	0.	4407.8
2341	5.9124	2.9091	0.	4407.8
2342	5.9124	2.7273	0.	4409.8
2343	5.9124	2.5455	0.	4413.8
2344	5.9124	2.3636	0.	4419.7
2345	5.9124	2.1818	0.	4427.5
2346	5.9124	2.	0.	4437.1
2347	5.9124	1.8182	0.	4448.4
2348	5.9124	1.6364	0.	4461.4
2349	5.9124	1.4545	0.	4475.8
2350	5.9124	1.2727	0.	4491.6
2351	5.9124	1.0909	0.	4508.7
2352	5.9124	0.90909	0.	4526.9
2353	5.9124	0.72727	0.	4545.9
2354	5.9124	0.54545	0.	4565.8
2355	5.9124	0.36364	0.	4586.3
2356	5.9124	0.18182	0.	4607.6
2357	5.7276	5.8182	0.	4667.
2358	5.7276	5.6364	0.	4644.1
2359	5.7276	5.4545	0.	4621.9
2360	5.7276	5.2727	0.	4600.5
2361	5.7276	5.0909	0.	4579.9
2362	5.7276	4.9091	0.	4560.2
2363	5.7276	4.7273	0.	4541.8
2364	5.7276	4.5455	0.	4524.6
2365	5.7276	4.3636	0.	4509.
2366	5.7276	4.1818	0.	4495.
2367	5.7276	4.	0.	4482.7
2368	5.7276	3.8182	0.	4472.3
2369	5.7276	3.6364	0.	4463.9
2370	5.7276	3.4545	0.	4457.5
2371	5.7276	3.2727	0.	4453.2
2372	5.7276	3.0909	0.	4451.
2373	5.7276	2.9091	0.	4451.
2374	5.7276	2.7273	0.	4453.2
2375	5.7276	2.5455	0.	4457.5
2376	5.7276	2.3636	0.	4463.9
2377	5.7276	2.1818	0.	4472.3
2378	5.7276	2.	0.	4482.7
2379	5.7276	1.8182	0.	4495.
2380	5.7276	1.6364	0.	4509.
2381	5.7276	1.4545	0.	4524.6
2382	5.7276	1.2727	0.	4541.8
2383	5.7276	1.0909	0.	4560.2
2384	5.7276	0.90909	0.	4579.9
2385	5.7276	0.72727	0.	4600.5
2386	5.7276	0.54545	0.	4621.9
2387	5.7276	0.36364	0.	4644.1
2388	5.7276	0.18182	0.	4667.
2389	5.5429	5.8182	0.	4727.
2390	5.5429	5.6364	0.	4702.3
2391	5.5429	5.4545	0.	4678.3
2392	5.5429	5.2727	0.	4655.2
2393	5.5429	5.0909	0.	4632.9
2394	5.5429	4.9091	0.	4611.6
2395	5.5429	4.7273	0.	4591.7
2396	5.5429	4.5455	0.	4573.2
2397	5.5429	4.3636	0.	4556.2
2398	5.5429	4.1818	0.	4541.1
2399	5.5429	4.	0.	4527.8
2400	5.5429	3.8182	0.	4516.5
2401	5.5429	3.6364	0.	4507.4
2402	5.5429	3.4545	0.	4500.5
2403	5.5429	3.2727	0.	4495.8
2404	5.5429	3.0909	0.	4493.5
2405	5.5429	2.9091	0.	4493.5
2406	5.5429	2.7273	0.	4495.8
2407	5.5429	2.5455	0.	4500.5
2408	5.5429	2.3636	0.	4507.4
2409	5.5429	2.1818	0.	4516.5
2410	5.5429	2.	0.	4527.8
2411	5.5429	1.8182	0.	4541.1
2412	5.5429	1.6364	0.	4556.2
2413	5.5429	1.4545	0.	4573.2
2414	5.5429	1.2727	0.	4591.7
2415	5.5429	1.0909	0.	4611.6
2416	5.5429	0.90909	0.	4632.9
2417	5.5429	0.72727	0.	4655.2
2418	5.5429	0.54545	0.	4678.3
2419	5.5429	0.36364	0.	4702.3
2420	5.5429	0.18182	0.	4727.
2421	5.3581	5.8182	0.	4787.5
2422	5.3581	5.6364	0.	4760.9
2423	5.3581	5.4545	0.	4735.
2424	5.3581	5.2727	0.	4710.
2425	5.3581	5.0909	0.	4685.9
2426	5.3581	4.9091	0.	4662.9
2427	5.3581	4.7273	0.	4641.3
2428	5.3581	4.5455	0.	4621.3
2429	5.3581	4.3636	0.	4603.
2430	5.3581	4.1818	0.	4586.6
2431	5.3581	4.	0.	4572.3
2432	5.3581	3.8182	0.	4560.1
2433	5.3581	3.6364	0.	4550.2
2434	5.3581	3.4545	0.	4542.7
2435	5.3581	3.2727	0.	4537.7
2436	5.3581	3.0909	0.	4535.1
2437	5.3581	2.9091	0.	4535.1
2438	5.3581	2.7273	0.	4537.7
2439	5.3581	2.5455	0.	4542.7
2440	5.3581	2.3636	0.	4550.2
2441	5.3581	2.1818	0.	4560.1
2442	5.3581	2.	0.	4572.3
2443	5.3581	1.8182	0.	4586.6
2444	5.3581	1.6364	0.	4603.
2445	5.3581	1.4545	0.	4621.3
2446	5.3581	1.2727	0.	4641.3
2447	5.3581	1.0909	0.	4662.9
2448	5.3581	0.90909	0.	4685.9
2449	5.3581	0.72727	0.	4710.
2450	5.3581	0.54545	0.	4735.
2451	5.3581	0.36364	0.	4760.9
2452	5.3581	0.18182	0.	4787.5
2453	5.1733	5.8182	0.	4848.6
2454	5.1733	5.6364	0.	4819.9
2455	5.1733	5.4545	0.	4791.9
2456	5.1733	5.2727	0.	4764.9
2457	5.1733	5.0909	0.	4738.9
2458	5.1733	4.9091	0.	4714.1
2459	5.1733	4.7273	0.	4690.7
2460	5.1733	4.5455	0.	4669.1
2461	5.1733	4.3636	0.	4649.3
2462	5.1733	4.1818	0.	4631.6
2463	5.1733	4.	0.	4616.1
2464	5.1733	3.8182	0.	4602.9
2465	5.1733	3.6364	0.	4592.2
2466	5.1733	3.4545	0.	4584.1
2467	5.1733	3.2727	0.	4578.7
2468	5.1733	3.0909	0.	4576.
2469	5.1733	2.9091	0.	4576.
2470	5.1733	2.7273	0.	4578.7
2471	5.1733	2.5455	0.	4584.1
2472	5.1733	2.3636	0.	4592.2
2473	5.1733	2.1818	0.	4602.9
2474	5.1733	2.	0.	4616.1
2475	5.1733	1.8182	0.	4631.6
2476	5.1733	1.6364	0.	4649.3
2477	5.1733	1.4545	0.	4669.1
2478	5.1733	1.2727	0.	4690.7
2479	5.1733	1.0909	0.	4714.1
2480	5.1733	0.90909	0.	4738.9
2481	5.1733	0.72727	0.	4764.9
2482	5.1733	0.54545	0.	4791.9
2483	5.1733	0.36364	0.	4819.9
2484	5.1733	0.18182	0.	4848.6
2485	4.9886	5.8182	0.	4910.4
2486	4.9886	5.6364	0.	4879.3
2487	4.9886	5.4545	0.	4849.1
2488	4.9886	5.2727	0.	4819.9
2489	4.9886	5.0909	0.	4791.8
2490	4.9886	4.9091	0.	4765.
2491	4.9886	4.7273	0.	4739.9
2492	4.9886	4.5455	0.	4716.5
2493	4.9886	4.3636	0.	4695.1
2494	4.9886	4.1818	0.	4676.
2495	4.9886	4.	0.	4659.2
2496	4.9886	3.8182	0.	4645.
2497	4.9886	3.6364	0.	4633.5
2498	4.9886	3.4545	0.	4624.8
2499	4.9886	3.2727	0.	4618.9
2500	4.9886	3.0909	0.	4615.9
2501	4.9886	2.9091	0.	4615.9
2502	4.9886	2.7273	0.	4618.9
2503	4.9886	2.5455	0.	4624.8
2504	4.9886	2.3636	0.	4633.5
2505	4.9886	2.1818	0.	4645.
2506	4.9886	2.	0.	4659.2
2507	4.9886	1.8182	0.	4676.
2508	4.9886	1.6364	0.	4695.1
2509	4.9886	1.4545	0.	4716.5
2510	4.9886	1.2727	0.	4739.9
2511	4.9886	1.0909	0.	4765.
2512	4.9886	0.90909	0.	4791.8
2513	4.9886	0.72727	0.	4819.9
2514	4.9886	0.54545	0.	4849.1
2515	4.9886	0.36364	0.	4879.3
2516	4.9886	0.18182	0.	4910.4
2517	4.8038	5.8182	0.	4972.8
2518	4.8038	5.6364	0.	4939.2
2519	4.8038	5.4545	0.	4906.6
2520	4.8038	5.2727	0.	4875.1
2521	4.8038	5.0909	0.	4844.7
2522	4.8038	4.9091	0.	4815.8
2523	4.8038	4.7273	0.	4788.6
2524	4.8038	4.5455	0.	4763.4
2525	4.8038	4.3636	0.	4740.4
2526	4.8038	4.1818	0.	4719.7
2527	4.8038	4.	0.	4701.6
2528	4.8038	3.8182	0.	4686.3
2529	4.8038	3.6364	0.	4673.9
2530	4.8038	3.4545	0.	4664.5
2531	4.8038	3.2727	0.	4658.2
2532	4.8038	3.0909	0.	4655.
2533	4.8038	2.9091	0.	4655.
2534	4.8038	2.7273	0.	4658.2
2535	4.8038	2.5455	0.	4664.5
2536	4.8038	2.3636	0.	4673.9
2537	4.8038	2.1818	0.	4686.3
2538	4.8038	2.	0.	4701.6
2539	4.8038	1.8182	0.	4719.7
2540	4.8038	1.6364	0.	4740.4
2541	4.8038	1.4545	0.	4763.4
2542	4.8038	1.2727	0.	4788.6
2543	4.8038	1.0909	0.	4815.8
2544	4.8038	0.90909	0.	4844.7
2545	4.8038	0.72727	0.	4875.1
2546	4.8038	0.54545	0.	4906.6
2547	4.8038	0.36364	0.	4939.2
2548	4.8038	0.18182	0.	4972.8
2549	4.619	5.8182	0.	5035.8
2550	4.619	5.6364	0.	4999.5
2551	4.619	5.4545	0.	4964.4
2552	4.619	5.2727	0.	4930.3
2553	4.619	5.0909	0.	4897.6
2554	4.619	4.9091	0.	4866.4
2555	4.619	4.7273	0.	4837.1
2556	4.619	4.5455	0.	4809.9
2557	4.619	4.3636	0.	4785.
2558	4.619	4.1818	0.	4762.8
2559	4.619	4.	0.	4743.3
2560	4.619	3.8182	0.	4726.9
2561	4.619	3.6364	0.	4713.5
2562	4.619	3.4545	0.	4703.4
2563	4.619	3.2727	0.	4696.6
2564	4.619	3.0909	0.	4693.2
2565	4.619	2.9091	0.	4693.2
2566	4.619	2.7273	0.	4696.6
2567	4.619	2.5455	0.	4703.4
2568	4.619	2.3636	0.	4713.5
2569	4.619	2.1818	0.	4726.9
2570	4.619	2.	0.	4743.3
2571	4.619	1.8182	0.	4762.8
2572	4.619	1.6364	0.	4785.
2573	4.619	1.4545	0.	4809.9
2574	4.619	1.2727	0.	4837.1
2575	4.619	1.0909	0.	4866.4
2576	4.619	0.90909	0.	4897.6
2577	4.619	0.72727	0.	4930.3
2578	4.619	0.54545	0.	4964.4
2579	4.619	0.36364	0.	4999.5
2580	4.619	0.18182	0.	5035.8
2581	4.4343	5.8182	0.	5099.6
2582	4.4343	5.6364	0.	5060.2
2583	4.4343	5.4545	0.	5022.4
2584	4.4343	5.2727	0.	4985.7
2585	4.4343	5.0909	0.	4950.4
2586	4.4343	4.9091	0.	4916.8
2587	4.4343	4.7273	0.	4885.2
2588	4.4343	4.5455	0.	4855.9
2589	4.4343	4.3636	0.	4829.1
2590	4.4343	4.1818	0.	4805.2
2591	4.4343	4.	0.	4784.3
2592	4.4343	3.8182	0.	4766.6
2593	4.4343	3.6364	0.	4752.3
2594	4.4343	3.4545	0.	4741.4
2595	4.4343	3.2727	0.	4734.1
2596	4.4343	3.0909	0.	4730.5
2597	4.4343	2.9091	0.	4730.5
2598	4.4343	2.7273	0.	4734.1
2599	4.4343	2.5455	0.	4741.4
2600	4.4343	2.3636	0.	4752.3
2601	4.4343	2.1818	0.	4766.6
2602	4.4343	2.	0.	4784.3
2603	4.4343	1.8182	0.	4805.2
2604	4.4343	1.6364	0.	4829.1
2605	4.4343	1.4545	0.	4855.9
2606	4.4343	1.2727	0.	4885.2
2607	4.4343	1.0909	0.	4916.8
2608	4.4343	0.90909	0.	4950.4
2609	4.4343	0.72727	0.	4985.7
2610	4.4343	0.54545	0.	5022.4
2611	4.4343	0.36364	0.	5060.2
2612	4.4343	0.18182	0.	5099.6
2613	4.2495	5.8182	0.	5164.
2614	4.2495	5.6364	0.	5121.4
2615	4.2495	5.4545	0.	5080.6
2616	4.2495	5.2727	0.	5041.
2617	4.2495	5.0909	0.	5003.
2618	4.2495	4.9091	0.	4966.8
2619	4.2495	4.7273	0.	4932.8
2620	4.2495	4.5455	0.	4901.3
2621	4.2495	4.3636	0.	4872.6
2622	4.2495	4.1818	0.	4846.9
2623	4.2495	4.	0.	4824.5
2624	4.2495	3.8182	0.	4805.5
2625	4.2495	3.6364	0.	4790.2
2626	4.2495	3.4545	0.	4778.6
2627	4.2495	3.2727	0.	4770.8
2628	4.2495	3.0909	0.	4766.9
2629	4.2495	2.9091	0.	4766.9
2630	4.2495	2.7273	0.	4770.8
2631	4.2495	2.5455	0.	4778.6
2632	4.2495	2.3636	0.	4790.2
2633	4.2495	2.1818	0.	4805.5
2634	4.2495	2.	0.	4824.5
2635	4.2495	1.8182	0.	4846.9
2636	4.2495	1.6364	0.	4872.6
2637	4.2495	1.4545	0.	4901.3
2638	4.2495	1.2727	0.	4932.8
2639	4.2495	1.0909	0.	4966.8
2640	4.2495	0.90909	0.	5003.
2641	4.2495	0.72727	0.	5041.
2642	4.2495	0.54545	0.	5080.6
2643	4.2495	0.36364	0.	5121.4
2644	4.2495	0.18182	0.	5164.
2645	4.0648	5.8182	0.	5229.2
2646	4.0648	5.6364	0.	5183.1
2647	4.0648	5.4545	0.	5139.
2648	4.0648	5.2727	0.	5096.4
2649	4.0648	5.0909	0.	5055.5
2650	4.0648	4.9091	0.	5016.5
2651	4.0648	4.7273	0.	4980.
2652	4.0648	4.5455	0.	4946.2
2653	4.0648	4.3636	0.	4915.4
2654	4.0648	4.1818	0.	4887.9
2655	4.0648	4.	0.	4864.
2656	4.0648	3.8182	0.	4843.7
2657	4.0648	3.6364	0.	4827.4
2658	4.0648	3.4545	0.	4815.
2659	4.0648	3.2727	0.	4806.7
2660	4.0648	3.0909	0.	4802.5
2661	4.0648	2.9091	0.	4802.5
2662	4.0648	2.7273	0.	4806.7
2663	4.0648	2.5455	0.	4815.
2664	4.0648	2.3636	0.	4827.4
2665	4.0648	2.1818	0.	4843.7
2666	4.0648	2.	0.	4864.
2667	4.0648	1.8182	0.	4887.9
2668	4.0648	1.6364	0.	4915.4
2669	4.0648	1.4545	0.	4946.2
2670	4.0648	1.2727	0.	4980.
2671	4.0648	1.0909	0.	5016.5
2672	4.0648	0.90909	0.	5055.5
2673	4.0648	0.72727	0.	5096.4
2674	4.0648	0.54545	0.	5139.
2675	4.0648	0.36364	0.	5183.1
2676	4.0648	0.18182	0.	5229.2
2677	3.88	5.8182	0.	5295.
2678	3.88	5.6364	0.	5245.
2679	3.88	5.4545	0.	5197.6
2680	3.88	5.2727	0.	5151.7
2681	3.88	5.0909	0.	5107.7
2682	3.88	4.9091	0.	5065.9
2683	3.88	4.7273	0.	5026.7
2684	3.88	4.5455	0.	4990.5
2685	3.88	4.3636	0.	4957.6
2686	3.88	4.1818	0.	4928.2
2687	3.88	4.	0.	4902.7
2688	3.88	3.8182	0.	4881.2
2689	3.88	3.6364	0.	4863.8
2690	3.88	3.4545	0.	4850.7
2691	3.88	3.2727	0.	4842.
2692	3.88	3.0909	0.	4837.6
2693	3.88	2.9091	0.	4837.6
2694	3.88	2.7273	0.	4842.
2695	3.88	2.5455	0.	4850.7
2696	3.88	2.3636	0.	4863.8
2697	3.88	2.1818	0.	4881.2
2698	3.88	2.	0.	4902.7
2699	3.88	1.8182	0.	4928.2
2700	3.88	1.6364	0.	4957.6
2701	3.88	1.4545	0.	4990.5
2702	3.88	1.2727	0.	5026.7
2703	3.88	1.0909	0.	5065.9
2704	3.88	0.90909	0.	5107.7
2705	3.88	0.72727	0.	5151.7
2706	3.88	0.54545	0.	5197.6
2707	3.88	0.36364	0.	5245.
2708	3.88	0.18182	0.	5295.
2709	3.6952	5.8182	0.	5361.4
2710	3.6952	5.6364	0.	5307.3
2711	3.6952	5.4545	0.	5256.2
2712	3.6952	5.2727	0.	5206.9
2713	3.6952	5.0909	0.	5159.5
2714	3.6952	4.9091	0.	5114.7
2715	3.6952	4.7273	0.	5072.7
2716	3.6952	4.5455	0.	5034.1
2717	3.6952	4.3636	0.	4999.
2718	3.6952	4.1818	0.	4967.9
2719	3.6952	4.	0.	4940.8
2720	3.6952	3.8182	0.	4918.1
2721	3.6952	3.6364	0.	4899.8
2722	3.6952	3.4545	0.	4885.9
2723	3.6952	3.2727	0.	4876.7
2724	3.6952	3.0909	0.	4872.1
2725	3.6952	2.9091	0.	4872.1
2726	3.6952	2.7273	0.	4876.7
2727	3.6952	2.5455	0.	4885.9
2728	3.6952	2.3636	0.	4899.8
2729	3.6952	2.1818	0.	4918.1
2730	3.6952	2.	0.	4940.8
2731	3.6952	1.8182	0.	4967.9
2732	3.6952	1.6364	0.	4999.
2733	3.6952	1.4545	0.	5034.1
2734	3.6952	1.2727	0.	5072.7
2735	3.6952	1.0909	0.	5114.7
2736	3.6952	0.90909	0.	5159.5
2737	3.6952	0.72727	0.	5206.9
2738	3.6952	0.54545	0.	5256.2
2739	3.6952	0.36364	0.	5307.3
2740	3.6952	0.18182	0.	5361.4
2741	3.5105	5.8182	0.	5428.4
2742	3.5105	5.6364	0.	5369.7
2743	3.5105	5.4545	0.	5314.7
2744	3.5105	5.2727	0.	5261.7
2745	3.5105	5.0909	0.	5210.9
2746	3.5105	4.9091	0.	5162.9
2747	3.5105	4.7273	0.	5118.1
2748	3.5105	4.5455	0.	5077.
2749	3.5105	4.3636	0.	5039.8
2750	3.5105	4.1818	0.	5006.8
2751	3.5105	4.	0.	4978.4
2752	3.5105	3.8182	0.	4954.5
2753	3.5105	3.6364	0.	4935.3
2754	3.5105	3.4545	0.	4920.8
2755	3.5105	3.2727	0.	4911.2
2756	3.5105	3.0909	0.	4906.4
2757	3.5105	2.9091	0.	4906.4
2758	3.5105	2.7273	0.	4911.2
2759	3.5105	2.5455	0.	4920.8
2760	3.5105	2.3636	0.	4935.3
2761	3.5105	2.1818	0.	4954.5
2762	3.5105	2.	0.	4978.4
2763	3.5105	1.8182	0.	5006.8
2764	3.5105	1.6364	0.	5039.8
2765	3.5105	1.4545	0.	5077.
2766	3.5105	1.2727	0.	5118.1
2767	3.5105	1.0909	0.	5162.9
2768	3.5105	0.90909	0.	5210.9
2769	3.5105	0.72727	0.	5261.7
2770	3.5105	0.54545	0.	5314.7
2771	3.5105	0.36364	0.	5369.7
2772	3.5105	0.18182	0.	5428.4
2773	3.3257	5.8182	0.	5495.8
2774	3.3257	5.6364	0.	5432.1
2775	3.3257	5.4545	0.	5372.9
2776	3.3257	5.2727	0.	5316.
2777	3.3257	5.0909	0.	5261.6
2778	3.3257	4.9091	0.	5210.4
2779	3.3257	4.7273	0.	5162.7
2780	3.3257	4.5455	0.	5119.1
2781	3.3257	4.3636	0.	5079.9
2782	3.3257	4.1818	0.	5045.2
2783	3.3257	4.	0.	5015.4
2784	3.3257	3.8182	0.	4990.5
2785	3.3257	3.6364	0.	4970.6
2786	3.3257	3.4545	0.	4955.7
2787	3.3257	3.2727	0.	4945.8
2788	3.3257	3.0909	0.	4940.8
2789	3.3257	2.9091	0.	4940.8
2790	3.3257	2.7273	0.	4945.8
2791	3.3257	2.5455	0.	4955.7
2792	3.3257	2.3636	0.	4970.6
2793	3.3257	2.1818	0.	4990.5
2794	3.3257	2.	0.	5015.4
2795	3.3257	1.8182	0.	5045.2
2796	3.3257	1.6364	0.	5079.9
2797	3.3257	1.4545	0.	5119.1
2798	3.3257	1.2727	0.	5162.7
2799	3.3257	1.0909	0.	5210.4
2800	3.3257	0.90909	0.	5261.6
2801	3.3257	0.72727	0.	5316.
2802	3.3257	0.54545	0.	5372.9
2803	3.3257	0.36364	0.	5432.1
2804	3.3257	0.18182	0.	5495.8
2805	3.141	5.8182	0.	5563.5
2806	3.141	5.6364	0.	5494.3
2807	3.141	5.4545	0.	5430.6
2808	3.141	5.2727	0.	5369.6
2809	3.141	5.0909	0.	5311.5
2810	3.141	4.9091	0.	5256.9
2811	3.141	4.7273	0.	5206.4
2812	3.141	4.5455	0.	5160.4
2813	3.141	4.3636	0.	5119.2
2814	3.141	4.1818	0.	5083.1
2815	3.141	4.	0.	5052.2
2816	3.141	3.8182	0.	5026.6
2817	3.141	3.6364	0.	5006.2
2818	3.141	3.4545	0.	4990.9
2819	3.141	3.2727	0.	4980.8
2820	3.141	3.0909	0.	4975.7
2821	3.141	2.9091	0.	4975.7
2822	3.141	2.7273	0.	4980.8
2823	3.141	2.5455	0.	4990.9
2824	3.141	2.3636	0.	5006.2
2825	3.141	2.1818	0.	5026.6
2826	3.141	2.	0.	5052.2
2827	3.141	1.8182	0.	5083.1
2828	3.141	1.6364	0.	5119.2
2829	3.141	1.4545	0.	5160.4
2830	3.141	1.2727	0.	5206.4
2831	3.141	1.0909	0.	5256.9
2832	3.141	0.90909	0.	5311.5
2833	3.141	0.72727	0.	5369.6
2834	3.141	0.54545	0.	5430.6
2835	3.141	0.36364	0.	5494.3
2836	3.141	0.18182	0.	5563.5
2837	2.9562	5.8182	0.	5631.
2838	2.9562	5.6364	0.	5555.8
2839	2.9562	5.4545	0.	5487.4
2840	2.9562	5.2727	0.	5422.
2841	2.9562	5.0909	0.	5360.
2842	2.9562	4.9091	0.	5302.1
2843	2.9562	4.7273	0.	5248.8
2844	2.9562	4.5455	0.	5200.6
2845	2.9562	4.3636	0.	5157.9
2846	2.9562	4.1818	0.	5120.6
2847	2.9562	4.	0.	5089.
2848	2.9562	3.8182	0.	5062.9
2849	2.9562	3.6364	0.	5042.3
2850	2.9562	3.4545	0.	5027.
2851	2.9562	3.2727	0.	5016.8
2852	2.9562	3.0909	0.	5011.8
2853	2.9562	2.9091	0.	5011.8
2854	2.9562	2.7273	0.	5016.8
2855	2.9562	2.5455	0.	5027.
2856	2.9562	2.3636	0.	5042.3
2857	2.9562	2.1818	0.	5062.9
2858	2.9562	2.	0.	5089.
2859	2.9562	1.8182	0.	5120.6
2860	2.9562	1.6364	0.	5157.9
2861	2.9562	1.4545	0.	5200.6
2862	2.9562	1.2727	0.	5248.8
2863	2.9562	1.0909	0.	5302.1
2864	2.9562	0.90909	0.	5360.
2865	2.9562	0.72727	0.	5422.
2866	2.9562	0.54545	0.	5487.4
2867	2.9562	0.36364	0.	5555.8
2868	2.9562	0.18182	0.	5631.
2869	2.7714	5.8182	0.	5698.1
2870	2.7714	5.6364	0.	5616.3
2871	2.7714	5.4545	0.	5542.8
2872	2.7714	5.2727	0.	5472.9
2873	2.7714	5.0909	0.	5406.9
2874	2.7714	4.9091	0.	5345.7
2875	2.7714	4.7273	0.	5289.9
2876	2.7714	4.5455	0.	5239.8
2877	2.7714	4.3636	0.	5195.8
2878	2.7714	4.1818	0.	5157.9
2879	2.7714	4.	0.	5126.
2880	2.7714	3.8182	0.	5100.
2881	2.7714	3.6364	0.	5079.5
2882	2.7714	3.4545	0.	5064.5
2883	2.7714	3.2727	0.	5054.6
2884	2.7714	3.0909	0.	5049.7
2885	2.7714	2.9091	0.	5049.7
2886	2.7714	2.7273	0.	5054.6
2887	2.7714	2.5455	0.	5064.5
2888	2.7714	2.3636	0.	5079.5
2889	2.7714	2.1818	0.	5100.
2890	2.7714	2.	0.	5126.
2891	2.7714	1.8182	0.	5157.9
2892	2.7714	1.6364	0.	5195.8
2893	2.7714	1.4545	0.	5239.8
2894	2.7714	1.2727	0.	5289.9
2895	2.7714	1.0909	0.	5345.7
2896	2.7714	0.90909	0.	5406.9
2897	2.7714	0.72727	0.	5472.9
2898	2.7714	0.54545	0.	5542.8
2899	2.7714	0.36364	0.	5616.3
2900	2.7714	0.18182	0.	5698.1
2901	2.5867	5.8182	0.	5764.1
2902	2.5867	5.6364	0.	5675.1
2903	2.5867	5.4545	0.	5596.1
2904	2.5867	5.2727	0.	5521.5
2905	2.5867	5.0909	0.	5451.6
2906	2.5867	4.9091	0.	5387.2
2907	2.5867	4.7273	0.	5329.1
2908	2.5867	4.5455	0.	5277.7
2909	2.5867	4.3636	0.	5233.1
2910	2.5867	4.1818	0.	5195.1
2911	2.5867	4.	0.	5163.7
2912	2.5867	3.8182	0.	5138.3
2913	2.5867	3.6364	0.	5118.7
2914	2.5867	3.4545	0.	5104.3
2915	2.5867	3.2727	0.	5095.
2916	2.5867	3.0909	0.	5090.4
2917	2.5867	2.9091	0.	5090.4
2918	2.5867	2.7273	0.	5095.
2919	2.5867	2.5455	0.	5104.3
2920	2.5867	2.3636	0.	5118.7
2921	2.5867	2.1818	0.	5138.3
2922	2.5867	2.	0.	5163.7
2923	2.5867	1.8182	0.	5195.1
2924	2.5867	1.6364	0.	5233.1
2925	2.5867	1.4545	0.	5277.7
2926	2.5867	1.2727	0.	5329.1
2927	2.5867	1.0909	0.	5387.2
2928	2.5867	0.90909	0.	5451.6
2929	2.5867	0.72727	0.	5521.5
2930	2.5867	0.54545	0.	5596.1
2931	2.5867	0.36364	0.	5675.1
2932	2.5867	0.18182	0.	5764.1
2933	2.4019	5.8182	0.	5828.3
2934	2.4019	5.6364	0.	5731.3
2935	2.4019	5.4545	0.	5646.5
2936	2.4019	5.2727	0.	5566.9
2937	2.4019	5.0909	0.	5493.1
2938	2.4019	4.9091	0.	5426.
2939	2.4019	4.7273	0.	5366.2
2940	2.4019	4.5455	0.	5314.1
2941	2.4019	4.3636	0.	5269.7
2942	2.4019	4.1818	0.	5232.7
2943	2.4019	4.	0.	5202.6
2944	2.4019	3.8182	0.	5178.7
2945	2.4019	3.6364	0.	5160.5
2946	2.4019	3.4545	0.	5147.5
2947	2.4019	3.2727	0.	5139.
2948	2.4019	3.0909	0.	5134.9
2949	2.4019	2.9091	0.	5134.9
2950	2.4019	2.7273	0.	5139.
2951	2.4019	2.5455	0.	5147.5
2952	2.4019	2.3636	0.	5160.5
2953	2.4019	2.1818	0.	5178.7
2954	2.4019	2.	0.	5202.6
2955	2.4019	1.8182	0.	5232.7
2956	2.4019	1.6364	0.	5269.7
2957	2.4019	1.4545	0.	5314.1
2958	2.4019	1.2727	0.	5366.2
2959	2.4019	1.0909	0.	5426.
2960	2.4019	0.90909	0.	5493.1
2961	2.4019	0.72727	0.	5566.9
2962	2.4019	0.54545	0.	5646.5
2963	2.4019	0.36364	0.	5731.3
2964	2.4019	0.18182	0.	5828.3
2965	2.2171	5.8182	0.	5889.6
2966	2.2171	5.6364	0.	5783.6
2967	2.2171	5.4545	0.	5692.7
2968	2.2171	5.2727	0.	5608.1
2969	2.2171	5.0909	0.	5530.6
2970	2.2171	4.9091	0.	5461.2
2971	2.2171	4.7273	0.	5400.6
2972	2.2171	4.5455	0.	5348.9
2973	2.2171	4.3636	0.	5305.9
2974	2.2171	4.1818	0.	5271.
2975	2.2171	4.	0.	5243.3
2976	2.2171	3.8182	0.	5222.
2977	2.2171	3.6364	0.	5206.2
2978	2.2171	3.4545	0.	5195.1
2979	2.2171	3.2727	0.	5188.
2980	2.2171	3.0909	0.	5184.6
2981	2.2171	2.9091	0.	5184.6
2982	2.2171	2.7273	0.	5188.
2983	2.2171	2.5455	0.	5195.1
2984	2.2171	2.3636	0.	5206.2
2985	2.2171	2.1818	0.	5222.
2986	2.2171	2.	0.	5243.3
2987	2.2171	1.8182	0.	5271.
2988	2.2171	1.6364	0.	5305.9
2989	2.2171	1.4545	0.	5348.9
2990	2.2171	1.2727	0.	5400.6
2991	2.2171	1.0909	0.	5461.2
2992	2.2171	0.90909	0.	5530.6
2993	2.2171	0.72727	0.	5608.1
2994	2.2171	0.54545	0.	5692.7
2995	2.2171	0.36364	0.	5783.6
2996	2.2171	0.18182	0.	5889.6
2997	2.0324	5.8182	0.	5946.5
2998	2.0324	5.6364	0.	5830.5
2999	2.0324	5.4545	0.	5733.
3000	2.0324	5.2727	0.	5643.4
3001	2.0324	5.0909	0.	5562.6
3002	2.0324	4.9091	0.	5491.8
3003	2.0324	4.7273	0.	5431.6
3004	2.0324	4.5455	0.	5381.9
3005	2.0324	4.3636	0.	5341.9
3006	2.0324	4.1818	0.	5310.7
3007	2.0324	4.	0.	5287.
3008	2.0324	3.8182	0.	5269.5
3009	2.0324	3.6364	0.	5257.1
3010	2.0324	3.4545	0.	5248.7
3011	2.0324	3.2727	0.	5243.5
3012	2.0324	3.0909	0.	5241.1
3013	2.0324	2.9091	0.	5241.1
3014	2.0324	2.7273	0.	5243.5
3015	2.0324	2.5455	0.	5248.7
3016	2.0324	2.3636	0.	5257.1
3017	2.0324	2.1818	0.	5269.5
3018	2.0324	2.	0.	5287.
3019	2.0324	1.8182	0.	5310.7
3020	2.0324	1.6364	0.	5341.9
3021	2.0324	1.4545	0.	5381.9
3022	2.0324	1.2727	0.	5431.6
3023	2.0324	1.0909	0.	5491.8
3024	2.0324	0.90909	0.	5562.6
3025	2.0324	0.72727	0.	5643.4
3026	2.0324	0.54545	0.	5733.
3027	2.0324	0.36364	0.	5830.5
3028	2.0324	0.18182	0.	5946.5
3029	1.8476	5.8182	0.	5996.9
3030	1.8476	5.6364	0.	5869.7
3031	1.8476	5.4545	0.	5765.1
3032	1.8476	5.2727	0.	5670.7
3033	1.8476	5.0909	0.	5587.4
3034	1.8476	4.9091	0.	5516.7
3035	1.8476	4.7273	0.	5458.8
3036	1.8476	4.5455	0.	5413.
3037	1.8476	4.3636	0.	5378.3
3038	1.8476	4.1818	0.	5352.8
3039	1.8476	4.	0.	5334.8
3040	1.8476	3.8182	0.	5322.7
3041	1.8476	3.6364	0.	5314.8
3042	1.8476	3.4545	0.	5309.9
3043	1.8476	3.2727	0.	5307.2
3044	1.8476	3.0909	0.	5306.
3045	1.8476	2.9091	0.	5306.
3046	1.8476	2.7273	0.	5307.2
3047	1.8476	2.5455	0.	5309.9
3048	1.8476	2.3636	0.	5314.8
3049	1.8476	2.1818	0.	5322.7
3050	1.8476	2.	0.	5334.8
3051	1.8476	1.8182	0.	5352.8
3052	1.8476	1.6364	0.	5378.3
3053	1.8476	1.4545	0.	5413.
3054	1.8476	1.2727	0.	5458.8
3055	1.8476	1.0909	0.	5516.7
3056	1.8476	0.90909	0.	5587.4
3057	1.8476	0.72727	0.	5670.7
3058	1.8476	0.54545	0.	5765.1
3059	1.8476	0.36364	0.	5869.7
3060	1.8476	0.18182	0.	5996.9
3061	1.6629	5.8182	0.	6037.9
3062	1.6629	5.6364	0.	5898.
3063	1.6629	5.4545	0.	5786.
3064	1.6629	5.2727	0.	5687.2
3065	1.6629	5.0909	0.	5602.9
3066	1.6629	4.9091	0.	5534.4
3067	1.6629	4.7273	0.	5481.5
3068	1.6629	4.5455	0.	5442.7
3069	1.6629	4.3636	0.	5415.9
3070	1.6629	4.1818	0.	5398.6
3071	1.6629	4.	0.	5388.5
3072	1.6629	3.8182	0.	5383.3
3073	1.6629	3.6364	0.	5381.2
3074	1.6629	3.4545	0.	5380.9
3075	1.6629	3.2727	0.	5381.2
3076	1.6629	3.0909	0.	5381.5
3077	1.6629	2.9091	0.	5381.5
3078	1.6629	2.7273	0.	5381.2
3079	1.6629	2.5455	0.	5380.9
3080	1.6629	2.3636	0.	5381.2
3081	1.6629	2.1818	0.	5383.3
3082	1.6629	2.	0.	5388.5
3083	1.6629	1.8182	0.	5398.6
3084	1.6629	1.6364	0.	5415.9
3085	1.6629	1.4545	0.	5442.7
3086	1.6629	1.2727	0.	5481.5
3087	1.6629	1.0909	0.	5534.4
3088	1.6629	0.90909	0.	5602.9
3089	1.6629	0.72727	0.	5687.2
3090	1.6629	0.54545	0.	5786.
3091	1.6629	0.36364	0.	5898.
3092	1.6629	0.18182	0.	6037.9
3093	1.4781	5.8182	0.	6065.1
3094	1.4781	5.6364	0.	5910.8
3095	1.4781	5.4545	0.	5791.2
3096	1.4781	5.2727	0.	5689.2
3097	1.4781	5.0909	0.	5606.4
3098	1.4781	4.9091	0.	5543.6
3099	1.4781	4.7273	0.	5499.6
3100	1.4781	4.5455	0.	5471.6
3101	1.4781	4.3636	0.	5456.3
3102	1.4781	4.1818	0.	5450.2
3103	1.4781	4.	0.	5450.2
3104	1.4781	3.8182	0.	5453.7
3105	1.4781	3.6364	0.	5458.7
3106	1.4781	3.4545	0.	5463.7
3107	1.4781	3.2727	0.	5467.6
3108	1.4781	3.0909	0.	5469.7
3109	1.4781	2.9091	0.	5469.7
3110	1.4781	2.7273	0.	5467.6
3111	1.4781	2.5455	0.	5463.7
3112	1.4781	2.3636	0.	5458.7
3113	1.4781	2.1818	0.	5453.7
3114	1.4781	2.	0.	5450.2
3115	1.4781	1.8182	0.	5450.2
3116	1.4781	1.6364	0.	5456.3
3117	1.4781	1.4545	0.	5471.6
3118	1.4781	1.2727	0.	5499.6
3119	1.4781	1.0909	0.	5543.6
3120	1.4781	0.90909	0.	5606.4
3121	1.4781	0.72727	0.	5689.2
3122	1.4781	0.54545	0.	5791.2
3123	1.4781	0.36364	0.	5910.8
3124	1.4781	0.18182	0.	6065.1
3125	1.2933	5.8182	0.	6072.3
3126	1.2933	5.6364	0.	5901.6
3127	1.2933	5.4545	0.	5774.8
3128	1.2933	5.2727	0.	5672.1
3129	1.2933	5.0909	0.	5595.1
3130	1.2933	4.9091	0.	5543.5
3131	1.2933	4.7273	0.	5514.
3132	1.2933	4.5455	0.	5502.1
3133	1.2933	4.3636	0.	5502.5
3134	1.2933	4.1818	0.	5510.8
3135	1.2933	4.	0.	5523.3
3136	1.2933	3.8182	0.	5537.1
3137	1.2933	3.6364	0.	5550.2
3138	1.2933	3.4545	0.	5561.1
3139	1.2933	3.2727	0.	5568.9
3140	1.2933	3.0909	0.	5572.9
3141	1.2933	2.9091	0.	5572.9
3142	1.2933	2.7273	0.	5568.9
3143	1.2933	2.5455	0.	5561.1
3144	1.2933	2.3636	0.	5550.2
3145	1.2933	2.1818	0.	5537.1
3146	1.2933	2.	0.	5523.3
3147	1.2933	1.8182	0.	5510.8
3148	1.2933	1.6364	0.	5502.5
3149	1.2933	1.4545	0.	5502.1
3150	1.2933	1.2727	0.	5514.
3151	1.2933	1.0909	0.	5543.5
3152	1.2933	0.90909	0.	5595.1
3153	1.2933	0.72727	0.	5672.1
3154	1.2933	0.54545	0.	5774.8
3155	1.2933	0.36364	0.	5901.6
3156	1.2933	0.18182	0.	6072.3
3157	1.1086	5.8182	0.	6049.6
3158	1.1086	5.6364	0.	5859.8
3159	1.1086	5.4545	0.	5727.2
3160	1.1086	5.2727	0.	5628.7
3161	1.1086	5.0909	0.	5565.1
3162	1.1086	4.9091	0.	5533.1
3163	1.1086	4.7273	0.	5526.1
3164	1.1086	4.5455	0.	5536.5
3165	1.1086	4.3636	0.	5557.3
3166	1.1086	4.1818	0.	5583.1
3167	1.1086	4.	0.	5610.
3168	1.1086	3.8182	0.	5635.3
3169	1.1086	3.6364	0.	5657.2
3170	1.1086	3.4545	0.	5674.3
3171	1.1086	3.2727	0.	5686.1
3172	1.1086	3.0909	0.	5692.1
3173	1.1086	2.9091	0.	5692.1
3174	1.1086	2.7273	0.	5686.1
3175	1.1086	2.5455	0.	5674.3
3176	1.1086	2.3636	0.	5657.2
3177	1.1086	2.1818	0.	5635.3
3178	1.1086	2.	0.	5610.
3179	1.1086	1.8182	0.	5583.1
3180	1.1086	1.6364	0.	5557.3
3181	1.1086	1.4545	0.	5536.5
3182	1.1086	1.2727	0.	5526.1
3183	1.1086	1.0909	0.	5533.1
3184	1.1086	0.90909	0.	5565.1
3185	1.1086	0.72727	0.	5628.7
3186	1.1086	0.54545	0.	5727.2
3187	1.1086	0.36364	0.	5859.8
3188	1.1086	0.18182	0.	6049.6
3189	0.92381	5.8182	0.	5982.1
3190	0.92381	5.6364	0.	5772.5
3191	0.92381	5.4545	0.	5639.5
3192	0.92381	5.2727	0.	5556.1
3193	0.92381	5.0909	0.	5519.7
3194	0.92381	4.9091	0.	5520.6
3195	0.92381	4.7273	0.	5546.6
3196	0.92381	4.5455	0.	5586.5
3197	0.92381	4.3636	0.	5632.2
3198	0.92381	4.1818	0.	5678.
3199	0.92381	4.	0.	5720.6
3200	0.92381	3.8182	0.	5757.7
3201	0.92381	3.6364	0.	5788.2
3202	0.92381	3.4545	0.	5811.4
3203	0.92381	3.2727	0.	5827.
3204	0.92381	3.0909	0.	5834.9
3205	0.92381	2.9091	0.	5834.9
3206	0.92381	2.7273	0.	5827.
3207	0.92381	2.5455	0.	5811.4
3208	0.92381	2.3636	0.	5788.2
3209	0.92381	2.1818	0.	5757.7
3210	0.92381	2.	0.	5720.6
3211	0.92381	1.8182	0.	5678.
3212	0.92381	1.6364	0.	5632.2
3213	0.92381	1.4545	0.	5586.5
3214	0.92381	1.2727	0.	5546.6
3215	0.92381	1.0909	0.	5520.6
3216	0.92381	0.90909	0.	5519.7
3217	0.92381	0.72727	0.	5556.1
3218	0.92381	0.54545	0.	5639.5
3219	0.92381	0.36364	0.	5772.5
3220	0.92381	0.18182	0.	5982.1
3221	0.73905	5.8182	0.	5838.7
3222	0.73905	5.6364	0.	5604.8
3223	0.73905	5.4545	0.	5481.2
3224	0.73905	5.2727	0.	5433.3
3225	0.73905	5.0909	0.	5445.9
3226	0.73905	4.9091	0.	5496.8
3227	0.73905	4.7273	0.	5566.5
3228	0.73905	4.5455	0.	5641.7
3229	0.73905	4.3636	0.	5714.5
3230	0.73905	4.1818	0.	5780.6
3231	0.73905	4.	0.	5838.
3232	0.73905	3.8182	0.	5885.8
3233	0.73905	3.6364	0.	5923.8
3234	0.73905	3.4545	0.	5952.1
3235	0.73905	3.2727	0.	5970.9
3236	0.73905	3.0909	0.	5980.2
3237	0.73905	2.9091	0.	5980.2
3238	0.73905	2.7273	0.	5970.9
3239	0.73905	2.5455	0.	5952.1
3240	0.73905	2.3636	0.	5923.8
3241	0.73905	2.1818	0.	5885.8
3242	0.73905	2.	0.	5838.
3243	0.73905	1.8182	0.	5780.6
3244	0.73905	1.6364	0.	5714.5
3245	0.73905	1.4545	0.	5641.7
3246	0.73905	1.2727	0.	5566.5
3247	0.73905	1.0909	0.	5496.8
3248	0.73905	0.90909	0.	5445.9
3249	0.73905	0.72727	0.	5433.3
3250	0.73905	0.54545	0.	5481.2
3251	0.73905	0.36364	0.	5604.8
3252	0.73905	0.18182	0.	5838.7
3253	0.55429	5.8182	0.	5581.
3254	0.55429	5.6364	0.	5352.5
3255	0.55429	5.4545	0.	5288.6
3256	0.55429	5.2727	0.	5330.7
3257	0.55429	5.0909	0.	5433.9
3258	0.55429	4.9091	0.	5559.4
3259	0.55429	4.7273	0.	5684.6
3260	0.55429	4.5455	0.	5799.3
3261	0.55429	4.3636	0.	5899.6
3262	0.55429	4.1818	0.	5984.7
3263	0.55429	4.	0.	6055.1
3264	0.55429	3.8182	0.	6111.7
3265	0.55429	3.6364	0.	6155.6
3266	0.55429	3.4545	0.	6187.8
3267	0.55429	3.2727	0.	6208.8
3268	0.55429	3.0909	0.	6219.2
3269	0.55429	2.9091	0.	6219.2
3270	0.55429	2.7273	0.	6208.8
3271	0.55429	2.5455	0.	6187.8
3272	0.55429	2.3636	0.	6155.6
3273	0.55429	2.1818	0.	6111.7
3274	0.55429	2.	0.	6055.1
3275	0.55429	1.8182	0.	5984.7
3276	0.55429	1.6364	0.	5899.6
3277	0.55429	1.4545	0.	5799.3
3278	0.55429	1.2727	0.	5684.6
3279	0.55429	1.0909	0.	5559.4
3280	0.55429	0.90909	0.	5433.9
3281	0.55429	0.72727	0.	5330.7
3282	0.55429	0.54545	0.	5288.6
3283	0.55429	0.36364	0.	5352.5
3284	0.55429	0.18182	0.	5581.
3285	0.36952	5.8182	0.	5042.
3286	0.36952	5.6364	0.	4786.5
3287	0.36952	5.4545	0.	4838.3
3288	0.36952	5.2727	0.	5026.5
3289	0.36952	5.0909	0.	5239.4
3290	0.36952	4.9091	0.	5435.8
3291	0.36952	4.7273	0.	5604.4
3292	0.36952	4.5455	0.	5744.7
3293	0.36952	4.3636	0.	5859.9
3294	0.36952	4.1818	0.	5953.3
3295	0.36952	4.	0.	6028.1
3296	0.36952	3.8182	0.	6087.
3297	0.36952	3.6364	0.	6131.8
3298	0.36952	3.4545	0.	6164.2
3299	0.36952	3.2727	0.	6185.2
3300	0.36952	3.0909	0.	6195.6
3301	0.36952	2.9091	0.	6195.6
3302	0.36952	2.7273	0.	6185.2
3303	0.36952	2.5455	0.	6164.2
3304	0.36952	2.3636	0.	6131.8
3305	0.36952	2.1818	0.	6087.
3306	0.36952	2.	0.	6028.1
3307	0.36952	1.8182	0.	5953.3
3308	0.36952	1.6364	0.	5859.9
3309	0.36952	1.4545	0.	5744.7
3310	0.36952	1.2727	0.	5604.4
3311	0.36952	1.0909	0.	5435.8
3312	0.36952	0.90909	0.	5239.4
3313	0.36952	0.72727	0.	5026.5
3314	0.36952	0.54545	0.	4838.3
3315	0.36952	0.36364	0.	4786.5
3316	0.36952	0.18182	0.	5042.
3317	0.18476	5.8182	0.	4061.4
3318	0.18476	5.6364	0.	4556.2
3319	0.18476	5.4545	0.	5219.7
3320	0.18476	5.2727	0.	5739.4
3321	0.18476	5.0909	0.	6129.
3322	0.18476	4.9091	0.	6422.9
3323	0.18476	4.7273	0.	6647.8
3324	0.18476	4.5455	0.	6822.
3325	0.18476	4.3636	0.	6958.2
3326	0.18476	4.1818	0.	7065.1
3327	0.18476	4.	0.	7148.5
3328	0.18476	3.8182	0.	7213.
3329	0.18476	3.6364	0.	7261.4
3330	0.18476	3.4545	0.	7296.1
3331	0.18476	3.2727	0.	7318.5
3332	0.18476	3.0909	0.	7329.5
3333	0.18476	2.9091	0.	7329.5
3334	0.18476	2.7273	0.	7318.5
3335	0.18476	2.5455	0.	7296.1
3336	0.18476	2.3636	0.	7261.4
3337	0.18476	2.1818	0.	7213.
3338	0.18476	2.	0.	7148.5
3339	0.18476	1.8182	0.	7065.1
3340	0.18476	1.6364	0.	6958.2
3341	0.18476	1.4545	0.	6822.
3342	0.18476	1.2727	0.	6647.8
3343	0.18476	1.0909	0.	6422.9
3344	0.18476	0.90909	0.	6129.
3345	0.18476	0.72727	0.	5739.4
3346	0.18476	0.54545	0.	5219.7
3347	0.18476	0.36364	0.	4556.2
3348	0.18476	0.18182	0.	4061.4
3349	19.751	0.18182	0.	152.09
3350	19.751	0.36364	0.	221.57
3351	19.751	0.54545	0.	310.18
3352	19.751	0.72727	0.	411.27
3353	19.751	0.90909	0.	528.88
3354	19.751	1.0909	0.	670.72
3355	19.751	1.2727	0.	850.18
3356	19.751	1.4545	0.	1089.2
3357	19.751	1.6364	0.	1444.2
3358	19.751	1.8182	0.	1983.2
3359	19.751	2.	0.	2506.4
3360	19.751	2.1818	0.	2609.5
3361	19.751	2.3636	0.	2482.
3362	19.751	2.5455	0.	2296.3
3363	19.751	2.7273	0.	2187.1
3364	19.751	2.9091	0.	2135.3
3365	19.751	3.0909	0.	2135.3
3366	19.751	3.2727	0.	2187.1
3367	19.751	3.4545	0.	2296.3
3368	19.751	3.6364	0.	2482.
3369	19.751	3.8182	0.	2609.5
3370	19.751	4.	0.	2506.4
3371	19.751	4.1818	0.	1983.2
3372	19.751	4.3636	0.	1444.2
3373	19.751	4.5455	0.	1089.2
3374	19.751	4.7273	0.	850.18
3375	19.751	4.9091	0.	670.72
3376	19.751	5.0909	0.	528.88
3377	19.751	5.2727	0.	411.27
3378	19.751	5.4545	0.	310.18
3379	19.751	5.6364	0.	221.57
3380	19.751	5.8182	0.	152.09
3381	19.936	0.18182	0.	221.44
3382	19.936	0.36364	0.	255.14
3383	19.936	0.54545	0.	316.81
3384	19.936	0.72727	0.	396.3
3385	19.936	0.90909	0.	492.46
3386	19.936	1.0909	0.	608.19
3387	19.936	1.2727	0.	749.67
3388	19.936	1.4545	0.	923.18
3389	19.936	1.6364	0.	1136.5
3390	19.936	1.8182	0.	1397.7
3391	19.936	2.	0.	1641.2
3392	19.936	2.1818	0.	1860.3
3393	19.936	2.3636	0.	1941.2
3394	19.936	2.5455	0.	1941.9
3395	19.936	2.7273	0.	1915.4
3396	19.936	2.9091	0.	1898.
3397	19.936	3.0909	0.	1898.
3398	19.936	3.2727	0.	1915.4
3399	19.936	3.4545	0.	1941.9
3400	19.936	3.6364	0.	1941.2
3401	19.936	3.8182	0.	1860.3
3402	19.936	4.	0.	1641.2
3403	19.936	4.1818	0.	1397.7
3404	19.936	4.3636	0.	1136.5
3405	19.936	4.5455	0.	923.18
3406	19.936	4.7273	0.	749.67
3407	19.936	4.9091	0.	608.19
3408	19.936	5.0909	0.	492.46
3409	19.936	5.2727	0.	396.3
3410	19.936	5.4545	0.	316.81
3411	19.936	5.6364	0.	255.14
3412	19.936	5.8182	0.	221.44
3413	20.121	0.18182	0.	290.75
3414	20.121	0.36364	0.	311.58
3415	20.121	0.54545	0.	355.6
3416	20.121	0.72727	0.	417.31
3417	20.121	0.90909	0.	495.03
3418	20.121	1.0909	0.	588.89
3419	20.121	1.2727	0.	699.93
3420	20.121	1.4545	0.	829.52
3421	20.121	1.6364	0.	973.72
3422	20.121	1.8182	0.	1131.9
3423	20.121	2.	0.	1297.5
3424	20.121	2.1818	0.	1448.3
3425	20.121	2.3636	0.	1558.3
3426	20.121	2.5455	0.	1613.5
3427	20.121	2.7273	0.	1635.2
3428	20.121	2.9091	0.	1641.4
3429	20.121	3.0909	0.	1641.4
3430	20.121	3.2727	0.	1635.2
3431	20.121	3.4545	0.	1613.5
3432	20.121	3.6364	0.	1558.3
3433	20.121	3.8182	0.	1448.3
3434	20.121	4.	0.	1297.5
3435	20.121	4.1818	0.	1131.9
3436	20.121	4.3636	0.	973.72
3437	20.121	4.5455	0.	829.52
3438	20.121	4.7273	0.	699.93
3439	20.121	4.9091	0.	588.89
3440	20.121	5.0909	0.	495.03
3441	20.121	5.2727	0.	417.31
3442	20.121	5.4545	0.	355.6
3443	20.121	5.6364	0.	311.58
3444	20.121	5.8182	0.	290.75
3445	20.306	0.18182	0.	347.73
3446	20.306	0.36364	0.	363.11
3447	20.306	0.54545	0.	396.04
3448	20.306	0.72727	0.	443.37
3449	20.306	0.90909	0.	504.13
3450	20.306	1.0909	0.	577.55
3451	20.306	1.2727	0.	662.78
3452	20.306	1.4545	0.	758.56
3453	20.306	1.6364	0.	863.38
3454	20.306	1.8182	0.	974.61
3455	20.306	2.	0.	1090.2
3456	20.306	2.1818	0.	1199.7
3457	20.306	2.3636	0.	1289.6
3458	20.306	2.5455	0.	1352.3
3459	20.306	2.7273	0.	1388.4
3460	20.306	2.9091	0.	1404.3
3461	20.306	3.0909	0.	1404.3
3462	20.306	3.2727	0.	1388.4
3463	20.306	3.4545	0.	1352.3
3464	20.306	3.6364	0.	1289.6
3465	20.306	3.8182	0.	1199.7
3466	20.306	4.	0.	1090.2
3467	20.306	4.1818	0.	974.61
3468	20.306	4.3636	0.	863.38
3469	20.306	4.5455	0.	758.56
3470	20.306	4.7273	0.	662.78
3471	20.306	4.9091	0.	577.55
3472	20.306	5.0909	0.	504.13
3473	20.306	5.2727	0.	443.37
3474	20.306	5.4545	0.	396.04
3475	20.306	5.6364	0.	363.11
3476	20.306	5.8182	0.	347.73
3477	20.49	0.18182	0.	390.99
3478	20.49	0.36364	0.	403.31
3479	20.49	0.54545	0.	428.74
3480	20.49	0.72727	0.	464.98
3481	20.49	0.90909	0.	511.56
3482	20.49	1.0909	0.	567.64
3483	20.49	1.2727	0.	632.08
3484	20.49	1.4545	0.	703.47
3485	20.49	1.6364	0.	780.35
3486	20.49	1.8182	0.	861.63
3487	20.49	2.	0.	944.88
3488	20.49	2.1818	0.	1025.4
3489	20.49	2.3636	0.	1095.8
3490	20.49	2.5455	0.	1149.9
3491	20.49	2.7273	0.	1185.3
3492	20.49	2.9091	0.	1202.5
3493	20.49	3.0909	0.	1202.5
3494	20.49	3.2727	0.	1185.3
3495	20.49	3.4545	0.	1149.9
3496	20.49	3.6364	0.	1095.8
3497	20.49	3.8182	0.	1025.4
3498	20.49	4.	0.	944.88
3499	20.49	4.1818	0.	861.63
3500	20.49	4.3636	0.	780.35
3501	20.49	4.5455	0.	703.47
3502	20.49	4.7273	0.	632.08
3503	20.49	4.9091	0.	567.64
3504	20.49	5.0909	0.	511.56
3505	20.49	5.2727	0.	464.98
3506	20.49	5.4545	0.	428.74
3507	20.49	5.6364	0.	403.31
3508	20.49	5.8182	0.	390.99
3509	20.675	0.18182	0.	421.08
3510	20.675	0.36364	0.	431.1
3511	20.675	0.54545	0.	450.94
3512	20.675	0.72727	0.	478.64
3513	20.675	0.90909	0.	513.93
3514	20.675	1.0909	0.	556.2
3515	20.675	1.2727	0.	604.5
3516	20.675	1.4545	0.	657.75
3517	20.675	1.6364	0.	714.94
3518	20.675	1.8182	0.	775.03
3519	20.675	2.	0.	836.4
3520	20.675	2.1818	0.	895.9
3521	20.675	2.3636	0.	949.23
3522	20.675	2.5455	0.	992.14
3523	20.675	2.7273	0.	1021.7
3524	20.675	2.9091	0.	1036.7
3525	20.675	3.0909	0.	1036.7
3526	20.675	3.2727	0.	1021.7
3527	20.675	3.4545	0.	992.14
3528	20.675	3.6364	0.	949.23
3529	20.675	3.8182	0.	895.9
3530	20.675	4.	0.	836.4
3531	20.675	4.1818	0.	775.03
3532	20.675	4.3636	0.	714.94
3533	20.675	4.5455	0.	657.75
3534	20.675	4.7273	0.	604.5
3535	20.675	4.9091	0.	556.2
3536	20.675	5.0909	0.	513.93
3537	20.675	5.2727	0.	478.64
3538	20.675	5.4545	0.	450.94
3539	20.675	5.6364	0.	431.1
3540	20.675	5.8182	0.	421.08
3541	20.86	0.18182	0.	439.19
3542	20.86	0.36364	0.	447.16
3543	20.86	0.54545	0.	462.59
3544	20.86	0.72727	0.	483.65
3545	20.86	0.90909	0.	510.18
3546	20.86	1.0909	0.	541.77
3547	20.86	1.2727	0.	577.76
3548	20.86	1.4545	0.	617.41
3549	20.86	1.6364	0.	659.98
3550	20.86	1.8182	0.	704.6
3551	20.86	2.	0.	750.
3552	20.86	2.1818	0.	794.08
3553	20.86	2.3636	0.	833.99
3554	20.86	2.5455	0.	866.72
3555	20.86	2.7273	0.	889.82
3556	20.86	2.9091	0.	901.72
3557	20.86	3.0909	0.	901.72
3558	20.86	3.2727	0.	889.82
3559	20.86	3.4545	0.	866.72
3560	20.86	3.6364	0.	833.99
3561	20.86	3.8182	0.	794.08
3562	20.86	4.	0.	750.
3563	20.86	4.1818	0.	704.6
3564	20.86	4.3636	0.	659.98
3565	20.86	4.5455	0.	617.41
3566	20.86	4.7273	0.	577.76
3567	20.86	4.9091	0.	541.77
3568	20.86	5.0909	0.	510.18
3569	20.86	5.2727	0.	483.65
3570	20.86	5.4545	0.	462.59
3571	20.86	5.6364	0.	447.16
3572	20.86	5.8182	0.	439.19
3573	21.044	0.18182	0.	446.78
3574	21.044	0.36364	0.	452.89
3575	21.044	0.54545	0.	464.77
3576	21.044	0.72727	0.	480.66
3577	21.044	0.90909	0.	500.46
3578	21.044	1.0909	0.	523.91
3579	21.044	1.2727	0.	550.6
3580	21.044	1.4545	0.	580.01
3581	21.044	1.6364	0.	611.61
3582	21.044	1.8182	0.	644.69
3583	21.044	2.	0.	678.26
3584	21.044	2.1818	0.	710.79
3585	21.044	2.3636	0.	740.34
3586	21.044	2.5455	0.	764.77
3587	21.044	2.7273	0.	782.19
3588	21.044	2.9091	0.	791.24
3589	21.044	3.0909	0.	791.24
3590	21.044	3.2727	0.	782.19
3591	21.044	3.4545	0.	764.77
3592	21.044	3.6364	0.	740.34
3593	21.044	3.8182	0.	710.79
3594	21.044	4.	0.	678.26
3595	21.044	4.1818	0.	644.69
3596	21.044	4.3636	0.	611.61
3597	21.044	4.5455	0.	580.01
3598	21.044	4.7273	0.	550.6
3599	21.044	4.9091	0.	523.91
3600	21.044	5.0909	0.	500.46
3601	21.044	5.2727	0.	480.66
3602	21.044	5.4545	0.	464.77
3603	21.044	5.6364	0.	452.89
3604	21.044	5.8182	0.	446.78
3605	21.229	0.18182	0.	445.42
3606	21.229	0.36364	0.	449.86
3607	21.229	0.54545	0.	458.87
3608	21.229	0.72727	0.	470.76
3609	21.229	0.90909	0.	485.44
3610	21.229	1.0909	0.	502.74
3611	21.229	1.2727	0.	522.41
3612	21.229	1.4545	0.	544.11
3613	21.229	1.6364	0.	567.42
3614	21.229	1.8182	0.	591.8
3615	21.229	2.	0.	616.48
3616	21.229	2.1818	0.	640.35
3617	21.229	2.3636	0.	662.03
3618	21.229	2.5455	0.	679.99
3619	21.229	2.7273	0.	692.85
3620	21.229	2.9091	0.	699.55
3621	21.229	3.0909	0.	699.55
3622	21.229	3.2727	0.	692.85
3623	21.229	3.4545	0.	679.99
3624	21.229	3.6364	0.	662.03
3625	21.229	3.8182	0.	640.35
3626	21.229	4.	0.	616.48
3627	21.229	4.1818	0.	591.8
3628	21.229	4.3636	0.	567.42
3629	21.229	4.5455	0.	544.11
3630	21.229	4.7273	0.	522.41
3631	21.229	4.9091	0.	502.74
3632	21.229	5.0909	0.	485.44
3633	21.229	5.2727	0.	470.76
3634	21.229	5.4545	0.	458.87
3635	21.229	5.6364	0.	449.86
3636	21.229	5.8182	0.	445.42
3637	21.414	0.18182	0.	436.58
3638	21.414	0.36364	0.	439.58
3639	21.414	0.54545	0.	446.32
3640	21.414	0.72727	0.	455.14
3641	21.414	0.90909	0.	465.95
3642	21.414	1.0909	0.	478.64
3643	21.414	1.2727	0.	493.04
3644	21.414	1.4545	0.	508.91
3645	21.414	1.6364	0.	525.97
3646	21.414	1.8182	0.	543.78
3647	21.414	2.	0.	561.77
3648	21.414	2.1818	0.	579.13
3649	21.414	2.3636	0.	594.86
3650	21.414	2.5455	0.	607.9
3651	21.414	2.7273	0.	617.23
3652	21.414	2.9091	0.	622.11
3653	21.414	3.0909	0.	622.11
3654	21.414	3.2727	0.	617.23
3655	21.414	3.4545	0.	607.9
3656	21.414	3.6364	0.	594.86
3657	21.414	3.8182	0.	579.13
3658	21.414	4.	0.	561.77
3659	21.414	4.1818	0.	543.78
3660	21.414	4.3636	0.	525.97
3661	21.414	4.5455	0.	508.91
3662	21.414	4.7273	0.	493.04
3663	21.414	4.9091	0.	478.64
3664	21.414	5.0909	0.	465.95
3665	21.414	5.2727	0.	455.14
3666	21.414	5.4545	0.	446.32
3667	21.414	5.6364	0.	439.58
3668	21.414	5.8182	0.	436.58
3669	21.599	0.18182	0.	421.62
3670	21.599	0.36364	0.	423.42
3671	21.599	0.54545	0.	428.39
3672	21.599	0.72727	0.	434.9
3673	21.599	0.90909	0.	442.82
3674	21.599	1.0909	0.	452.07
3675	21.599	1.2727	0.	462.53
3676	21.599	1.4545	0.	474.04
3677	21.599	1.6364	0.	486.39
3678	21.599	1.8182	0.	499.25
3679	21.599	2.	0.	512.21
3680	21.599	2.1818	0.	524.67
3681	21.599	2.3636	0.	535.95
3682	21.599	2.5455	0.	545.27
3683	21.599	2.7273	0.	551.95
3684	21.599	2.9091	0.	555.44
3685	21.599	3.0909	0.	555.44
3686	21.599	3.2727	0.	551.95
3687	21.599	3.4545	0.	545.27
3688	21.599	3.6364	0.	535.95
3689	21.599	3.8182	0.	524.67
3690	21.599	4.	0.	512.21
3691	21.599	4.1818	0.	499.25
3692	21.599	4.3636	0.	486.39
3693	21.599	4.5455	0.	474.04
3694	21.599	4.7273	0.	462.53
3695	21.599	4.9091	0.	452.07
3696	21.599	5.0909	0.	442.82
3697	21.599	5.2727	0.	434.9
3698	21.599	5.4545	0.	428.39
3699	21.599	5.6364	0.	423.42
3700	21.599	5.8182	0.	421.62
3701	21.783	0.18182	0.	401.7
3702	21.783	0.36364	0.	402.55
3703	21.783	0.54545	0.	406.2
3704	21.783	0.72727	0.	410.99
3705	21.783	0.90909	0.	416.79
3706	21.783	1.0909	0.	423.52
3707	21.783	1.2727	0.	431.07
3708	21.783	1.4545	0.	439.33
3709	21.783	1.6364	0.	448.15
3710	21.783	1.8182	0.	457.31
3711	21.783	2.	0.	466.49
3712	21.783	2.1818	0.	475.3
3713	21.783	2.3636	0.	483.24
3714	21.783	2.5455	0.	489.8
3715	21.783	2.7273	0.	494.5
3716	21.783	2.9091	0.	496.95
3717	21.783	3.0909	0.	496.95
3718	21.783	3.2727	0.	494.5
3719	21.783	3.4545	0.	489.8
3720	21.783	3.6364	0.	483.24
3721	21.783	3.8182	0.	475.3
3722	21.783	4.	0.	466.49
3723	21.783	4.1818	0.	457.31
3724	21.783	4.3636	0.	448.15
3725	21.783	4.5455	0.	439.33
3726	21.783	4.7273	0.	431.07
3727	21.783	4.9091	0.	423.52
3728	21.783	5.0909	0.	416.79
3729	21.783	5.2727	0.	410.99
3730	21.783	5.4545	0.	406.2
3731	21.783	5.6364	0.	402.55
3732	21.783	5.8182	0.	401.7
3733	21.968	0.18182	0.	377.82
3734	21.968	0.36364	0.	377.97
3735	21.968	0.54545	0.	380.67
3736	21.968	0.72727	0.	384.25
3737	21.968	0.90909	0.	388.54
3738	21.968	1.0909	0.	393.45
3739	21.968	1.2727	0.	398.87
3740	21.968	1.4545	0.	404.74
3741	21.968	1.6364	0.	410.94
3742	21.968	1.8182	0.	417.34
3743	21.968	2.	0.	423.71
3744	21.968	2.1818	0.	429.8
3745	21.968	2.3636	0.	435.28
3746	21.968	2.5455	0.	439.79
3747	21.968	2.7273	0.	443.01
3748	21.968	2.9091	0.	444.69
3749	21.968	3.0909	0.	444.69
3750	21.968	3.2727	0.	443.01
3751	21.968	3.4545	0.	439.79
3752	21.968	3.6364	0.	435.28
3753	21.968	3.8182	0.	429.8
3754	21.968	4.	0.	423.71
3755	21.968	4.1818	0.	417.34
3756	21.968	4.3636	0.	410.94
3757	21.968	4.5455	0.	404.74
3758	21.968	4.7273	0.	398.87
3759	21.968	4.9091	0.	393.45
3760	21.968	5.0909	0.	388.54
3761	21.968	5.2727	0.	384.25
3762	21.968	5.4545	0.	380.67
3763	21.968	5.6364	0.	377.97
3764	21.968	5.8182	0.	377.82
3765	22.153	0.18182	0.	350.8
3766	22.153	0.36364	0.	350.49
3767	22.153	0.54545	0.	352.57
3768	22.153	0.72727	0.	355.37
3769	22.153	0.90909	0.	358.63
3770	22.153	1.0909	0.	362.26
3771	22.153	1.2727	0.	366.17
3772	22.153	1.4545	0.	370.3
3773	22.153	1.6364	0.	374.59
3774	22.153	1.8182	0.	378.94
3775	22.153	2.	0.	383.24
3776	22.153	2.1818	0.	387.32
3777	22.153	2.3636	0.	390.97
3778	22.153	2.5455	0.	393.97
3779	22.153	2.7273	0.	396.11
3780	22.153	2.9091	0.	397.22
3781	22.153	3.0909	0.	397.22
3782	22.153	3.2727	0.	396.11
3783	22.153	3.4545	0.	393.97
3784	22.153	3.6364	0.	390.97
3785	22.153	3.8182	0.	387.32
3786	22.153	4.	0.	383.24
3787	22.153	4.1818	0.	378.94
3788	22.153	4.3636	0.	374.59
3789	22.153	4.5455	0.	370.3
3790	22.153	4.7273	0.	366.17
3791	22.153	4.9091	0.	362.26
3792	22.153	5.0909	0.	358.63
3793	22.153	5.2727	0.	355.37
3794	22.153	5.4545	0.	352.57
3795	22.153	5.6364	0.	350.49
3796	22.153	5.8182	0.	350.8
3797	22.337	0.18182	0.	321.33
3798	22.337	0.36364	0.	320.78
3799	22.337	0.54545	0.	322.56
3800	22.337	0.72727	0.	324.9
3801	22.337	0.90909	0.	327.54
3802	22.337	1.0909	0.	330.33
3803	22.337	1.2727	0.	333.19
3804	22.337	1.4545	0.	336.09
3805	22.337	1.6364	0.	338.98
3806	22.337	1.8182	0.	341.85
3807	22.337	2.	0.	344.62
3808	22.337	2.1818	0.	347.22
3809	22.337	2.3636	0.	349.53
3810	22.337	2.5455	0.	351.42
3811	22.337	2.7273	0.	352.76
3812	22.337	2.9091	0.	353.46
3813	22.337	3.0909	0.	353.46
3814	22.337	3.2727	0.	352.76
3815	22.337	3.4545	0.	351.42
3816	22.337	3.6364	0.	349.53
3817	22.337	3.8182	0.	347.22
3818	22.337	4.	0.	344.62
3819	22.337	4.1818	0.	341.85
3820	22.337	4.3636	0.	338.98
3821	22.337	4.5455	0.	336.09
3822	22.337	4.7273	0.	333.19
3823	22.337	4.9091	0.	330.33
3824	22.337	5.0909	0.	327.54
3825	22.337	5.2727	0.	324.9
3826	22.337	5.4545	0.	322.56
3827	22.337	5.6364	0.	320.78
3828	22.337	5.8182	0.	321.33
3829	22.522	0.18182	0.	289.96
3830	22.522	0.36364	0.	289.41
3831	22.522	0.54545	0.	291.16
3832	22.522	0.72727	0.	293.36
3833	22.522	0.90909	0.	295.68
3834	22.522	1.0909	0.	297.97
3835	22.522	1.2727	0.	300.14
3836	22.522	1.4545	0.	302.18
3837	22.522	1.6364	0.	304.08
3838	22.522	1.8182	0.	305.86
3839	22.522	2.	0.	307.52
3840	22.522	2.1818	0.	309.04
3841	22.522	2.3636	0.	310.37
3842	22.522	2.5455	0.	311.45
3843	22.522	2.7273	0.	312.21
3844	22.522	2.9091	0.	312.61
3845	22.522	3.0909	0.	312.61
3846	22.522	3.2727	0.	312.21
3847	22.522	3.4545	0.	311.45
3848	22.522	3.6364	0.	310.37
3849	22.522	3.8182	0.	309.04
3850	22.522	4.	0.	307.52
3851	22.522	4.1818	0.	305.86
3852	22.522	4.3636	0.	304.08
3853	22.522	4.5455	0.	302.18
3854	22.522	4.7273	0.	300.14
3855	22.522	4.9091	0.	297.97
3856	22.522	5.0909	0.	295.68
3857	22.522	5.2727	0.	293.36
3858	22.522	5.4545	0.	291.16
3859	22.522	5.6364	0.	289.41
3860	22.522	5.8182	0.	289.96
3861	22.707	0.18182	0.	257.15
3862	22.707	0.36364	0.	256.84
3863	22.707	0.54545	0.	258.82
3864	22.707	0.72727	0.	261.14
3865	22.707	0.90909	0.	263.42
3866	22.707	1.0909	0.	265.48
3867	22.707	1.2727	0.	267.23
3868	22.707	1.4545	0.	268.69
3869	22.707	1.6364	0.	269.89
3870	22.707	1.8182	0.	270.89
3871	22.707	2.	0.	271.74
3872	22.707	2.1818	0.	272.47
3873	22.707	2.3636	0.	273.08
3874	22.707	2.5455	0.	273.56
3875	22.707	2.7273	0.	273.9
3876	22.707	2.9091	0.	274.07
3877	22.707	3.0909	0.	274.07
3878	22.707	3.2727	0.	273.9
3879	22.707	3.4545	0.	273.56
3880	22.707	3.6364	0.	273.08
3881	22.707	3.8182	0.	272.47
3882	22.707	4.	0.	271.74
3883	22.707	4.1818	0.	270.89
3884	22.707	4.3636	0.	269.89
3885	22.707	4.5455	0.	268.69
3886	22.707	4.7273	0.	267.23
3887	22.707	4.9091	0.	265.48
3888	22.707	5.0909	0.	263.42
3889	22.707	5.2727	0.	261.14
3890	22.707	5.4545	0.	258.82
3891	22.707	5.6364	0.	256.84
3892	22.707	5.8182	0.	257.15
3893	22.892	0.18182	0.	223.28
3894	22.892	0.36364	0.	223.47
3895	22.892	0.54545	0.	225.97
3896	22.892	0.72727	0.	228.66
3897	22.892	0.90909	0.	231.12
3898	22.892	1.0909	0.	233.14
3899	22.892	1.2727	0.	234.67
3900	22.892	1.4545	0.	235.75
3901	22.892	1.6364	0.	236.46
3902	22.892	1.8182	0.	236.9
3903	22.892	2.	0.	237.16
3904	22.892	2.1818	0.	237.3
3905	22.892	2.3636	0.	237.38
3906	22.892	2.5455	0.	237.43
3907	22.892	2.7273	0.	237.45
3908	22.892	2.9091	0.	237.47
3909	22.892	3.0909	0.	237.47
3910	22.892	3.2727	0.	237.45
3911	22.892	3.4545	0.	237.43
3912	22.892	3.6364	0.	237.38
3913	22.892	3.8182	0.	237.3
3914	22.892	4.	0.	237.16
3915	22.892	4.1818	0.	236.9
3916	22.892	4.3636	0.	236.46
3917	22.892	4.5455	0.	235.75
3918	22.892	4.7273	0.	234.67
3919	22.892	4.9091	0.	233.14
3920	22.892	5.0909	0.	231.12
3921	22.892	5.2727	0.	228.66
3922	22.892	5.4545	0.	225.97
3923	22.892	5.6364	0.	223.47
3924	22.892	5.8182	0.	223.28
3925	23.076	0.18182	0.	188.65
3926	23.076	0.36364	0.	189.69
3927	23.076	0.54545	0.	193.01
3928	23.076	0.72727	0.	196.32
3929	23.076	0.90909	0.	199.13
3930	23.076	1.0909	0.	201.26
3931	23.076	1.2727	0.	202.7
3932	23.076	1.4545	0.	203.55
3933	23.076	1.6364	0.	203.92
3934	23.076	1.8182	0.	203.95
3935	23.076	2.	0.	203.77
3936	23.076	2.1818	0.	203.48
3937	23.076	2.3636	0.	203.16
3938	23.076	2.5455	0.	202.88
3939	23.076	2.7273	0.	202.67
3940	23.076	2.9091	0.	202.56
3941	23.076	3.0909	0.	202.56
3942	23.076	3.2727	0.	202.67
3943	23.076	3.4545	0.	202.88
3944	23.076	3.6364	0.	203.16
3945	23.076	3.8182	0.	203.48
3946	23.076	4.	0.	203.77
3947	23.076	4.1818	0.	203.95
3948	23.076	4.3636	0.	203.92
3949	23.076	4.5455	0.	203.55
3950	23.076	4.7273	0.	202.7
3951	23.076	4.9091	0.	201.26
3952	23.076	5.0909	0.	199.13
3953	23.076	5.2727	0.	196.32
3954	23.076	5.4545	0.	193.01
3955	23.076	5.6364	0.	189.69
3956	23.076	5.8182	0.	188.65
3957	23.261	0.18182	0.	153.56
3958	23.261	0.36364	0.	155.93
3959	23.261	0.54545	0.	160.44
3960	23.261	0.72727	0.	164.61
3961	23.261	0.90909	0.	167.91
3962	23.261	1.0909	0.	170.25
3963	23.261	1.2727	0.	171.69
3964	23.261	1.4545	0.	172.39
3965	23.261	1.6364	0.	172.52
3966	23.261	1.8182	0.	172.24
3967	23.261	2.	0.	171.73
3968	23.261	2.1818	0.	171.1
3969	23.261	2.3636	0.	170.48
3970	23.261	2.5455	0.	169.95
3971	23.261	2.7273	0.	169.56
3972	23.261	2.9091	0.	169.36
3973	23.261	3.0909	0.	169.36
3974	23.261	3.2727	0.	169.56
3975	23.261	3.4545	0.	169.95
3976	23.261	3.6364	0.	170.48
3977	23.261	3.8182	0.	171.1
3978	23.261	4.	0.	171.73
3979	23.261	4.1818	0.	172.24
3980	23.261	4.3636	0.	172.52
3981	23.261	4.5455	0.	172.39
3982	23.261	4.7273	0.	171.69
3983	23.261	4.9091	0.	170.25
3984	23.261	5.0909	0.	167.91
3985	23.261	5.2727	0.	164.61
3986	23.261	5.4545	0.	160.44
3987	23.261	5.6364	0.	155.93
3988	23.261	5.8182	0.	153.56
3989	23.446	0.18182	0.	118.35
3990	23.446	0.36364	0.	122.81
3991	23.446	0.54545	0.	128.97
3992	23.446	0.72727	0.	134.18
3993	23.446	0.90909	0.	138.06
3994	23.446	1.0909	0.	140.67
3995	23.446	1.2727	0.	142.17
3996	23.446	1.4545	0.	142.79
3997	23.446	1.6364	0.	142.74
3998	23.446	1.8182	0.	142.23
3999	23.446	2.	0.	141.45
4000	23.446	2.1818	0.	140.56
4001	23.446	2.3636	0.	139.69
4002	23.446	2.5455	0.	138.95
4003	23.446	2.7273	0.	138.42
4004	23.446	2.9091	0.	138.14
4005	23.446	3.0909	0.	138.14
4006	23.446	3.2727	0.	138.42
4007	23.446	3.4545	0.	138.95
4008	23.446	3.6364	0.	139.69
4009	23.446	3.8182	0.	140.56
4010	23.446	4.	0.	141.45
4011	23.446	4.1818	0.	142.23
4012	23.446	4.3636	0.	142.74
4013	23.446	4.5455	0.	142.79
4014	23.446	4.7273	0.	142.17
4015	23.446	4.9091	0.	140.67
4016	23.446	5.0909	0.	138.06
4017	23.446	5.2727	0.	134.18
4018	23.446	5.4545	0.	128.97
4019	23.446	5.6364	0.	122.81
4020	23.446	5.8182	0.	118.35
4021	23.631	0.18182	0.	83.657
4022	23.631	0.36364	0.	91.619
4023	23.631	0.54545	0.	99.869
4024	23.631	0.72727	0.	106.22
4025	23.631	0.90909	0.	110.72
4026	23.631	1.0909	0.	113.64
4027	23.631	1.2727	0.	115.25
4028	23.631	1.4545	0.	115.84
4029	23.631	1.6364	0.	115.68
4030	23.631	1.8182	0.	114.99
4031	23.631	2.	0.	113.99
4032	23.631	2.1818	0.	112.87
4033	23.631	2.3636	0.	111.79
4034	23.631	2.5455	0.	110.87
4035	23.631	2.7273	0.	110.21
4036	23.631	2.9091	0.	109.86
4037	23.631	3.0909	0.	109.86
4038	23.631	3.2727	0.	110.21
4039	23.631	3.4545	0.	110.87
4040	23.631	3.6364	0.	111.79
4041	23.631	3.8182	0.	112.87
4042	23.631	4.	0.	113.99
4043	23.631	4.1818	0.	114.99
4044	23.631	4.3636	0.	115.68
4045	23.631	4.5455	0.	115.84
4046	23.631	4.7273	0.	115.25
4047	23.631	4.9091	0.	113.64
4048	23.631	5.0909	0.	110.72
4049	23.631	5.2727	0.	106.22
4050	23.631	5.4545	0.	99.869
4051	23.631	5.6364	0.	91.619
4052	23.631	5.8182	0.	83.657
4053	23.815	0.18182	0.	51.988
4054	23.815	0.36364	0.	65.241
4055	23.815	0.54545	0.	75.562
4056	23.815	0.72727	0.	82.976
4057	23.815	0.90909	0.	88.059
4058	23.815	1.0909	0.	91.285
4059	23.815	1.2727	0.	93.038
4060	23.815	1.4545	0.	93.645
4061	23.815	1.6364	0.	93.401
4062	23.815	1.8182	0.	92.572
4063	23.815	2.	0.	91.396
4064	23.815	2.1818	0.	90.083
4065	23.815	2.3636	0.	88.812
4066	23.815	2.5455	0.	87.728
4067	23.815	2.7273	0.	86.944
4068	23.815	2.9091	0.	86.533
4069	23.815	3.0909	0.	86.533
4070	23.815	3.2727	0.	86.944
4071	23.815	3.4545	0.	87.728
4072	23.815	3.6364	0.	88.812
4073	23.815	3.8182	0.	90.083
4074	23.815	4.	0.	91.396
4075	23.815	4.1818	0.	92.572
4076	23.815	4.3636	0.	93.401
4077	23.815	4.5455	0.	93.645
4078	23.815	4.7273	0.	93.038
4079	23.815	4.9091	0.	91.286
4080	23.815	5.0909	0.	88.059
4081	23.815	5.2727	0.	82.976
4082	23.815	5.4545	0.	75.562
4083	23.815	5.6364	0.	65.241
4084	23.815	5.8182	0.	51.988
4085	23.815	5.8182	0.1	51.988
4086	23.815	5.6364	0.1	65.241
4087	23.815	5.4545	0.1	75.562
4088	23.815	5.2727	0.1	82.976
4089	23.815	5.0909	0.1	88.059
4090	23.815	4.9091	0.1	91.286
4091	23.815	4.7273	0.1	93.038
4092	23.815	4.5455	0.1	93.645
4093	23.815	4.3636	0.1	93.401
4094	23.815	4.1818	0.1	92.572
4095	23.815	4.	0.1	91.396
4096	23.815	3.8182	0.1	90.083
4097	23.815	3.6364	0.1	88.812
4098	23.815	3.4545	0.1	87.728
4099	23.815	3.2727	0.1	86.944
4100	23.815	3.0909	0.1	86.533
4101	23.815	2.9091	0.1	86.533
4102	23.815	2.7273	0.1	86.944
4103	23.815	2.5455	0.1	87.728
4104	23.815	2.3636	0.1	88.812
4105	23.815	2.1818	0.1	90.083
4106	23.815	2.	0.1	91.396
4107	23.815	1.8182	0.1	92.572
4108	23.815	1.6364	0.1	93.401
4109	23.815	1.4545	0.1	93.645
4110	23.815	1.2727	0.1	93.038
4111	23.815	1.0909	0.1	91.285
4112	23.815	0.90909	0.1	88.059
4113	23.815	0.72727	0.1	82.976
4114	23.815	0.54545	0.1	75.562
4115	23.815	0.36364	0.1	65.241
4116	23.815	0.18182	0.1	51.988
4117	23.631	5.8182	0.1	83.657
4118	23.631	5.6364	0.1	91.619
4119	23.631	5.4545	0.1	99.869
4120	23.631	5.2727	0.1	106.22
4121	23.631	5.0909	0.1	110.72
4122	23.631	4.9091	0.1	113.64
4123	23.631	4.7273	0.1	115.25
4124	23.631	4.5455	0.1	115.84
4125	23.631	4.3636	0.1	115.68
4126	23.631	4.1818	0.1	114.99
4127	23.631	4.	0.1	113.99
4128	23.631	3.8182	0.1	112.87
4129	23.631	3.6364	0.1	111.79
4130	23.631	3.4545	0.1	110.87
4131	23.631	3.2727	0.1	110.21
4132	23.631	3.0909	0.1	109.86
4133	23.631	2.9091	0.1	109.86
4134	23.631	2.7273	0.1	110.21
4135	23.631	2.5455	0.1	110.87
4136	23.631	2.3636	0.1	111.79
4137	23.631	2.1818	0.1	112.87
4138	23.631	2.	0.1	113.99
4139	23.631	1.8182	0.1	114.99
4140	23.631	1.6364	0.1	115.68
4141	23.631	1.4545	0.1	115.84
4142	23.631	1.2727	0.1	115.25
4143	23.631	1.0909	0.1	113.64
4144	23.631	0.90909	0.1	110.72
4145	23.631	0.72727	0.1	106.22
4146	23.631	0.54545	0.1	99.869
4147	23.631	0.36364	0.1	91.619
4148	23.631	0.18182	0.1	83.657
4149	23.446	5.8182	0.1	118.35
4150	23.446	5.6364	0.1	122.81
4151	23.446	5.4545	0.1	128.97
4152	23.446	5.2727	0.1	134.18
4153	23.446	5.0909	0.1	138.06
4154	23.446	4.9091	0.1	140.67
4155	23.446	4.7273	0.1	142.17
4156	23.446	4.5455	0.1	142.79
4157	23.446	4.3636	0.1	142.74
4158	23.446	4.1818	0.1	142.23
4159	23.446	4.	0.1	141.45
4160	23.446	3.8182	0.1	140.56
4161	23.446	3.6364	0.1	139.69
4162	23.446	3.4545	0.1	138.95
4163	23.446	3.2727	0.1	138.42
4164	23.446	3.0909	0.1	138.14
4165	23.446	2.9091	0.1	138.14
4166	23.446	2.7273	0.1	138.42
4167	23.446	2.5455	0.1	138.95
4168	23.446	2.3636	0.1	139.69
4169	23.446	2.1818	0.1	140.56
4170	23.446	2.	0.1	141.45
4171	23.446	1.8182	0.1	142.23
4172	23.446	1.6364	0.1	142.74
4173	23.446	1.4545	0.1	142.79
4174	23.446	1.2727	0.1	142.17
4175	23.446	1.0909	0.1	140.67
4176	23.446	0.90909	0.1	138.06
4177	23.446	0.72727	0.1	134.18
4178	23.446	0.54545	0.1	128.97
4179	23.446	0.36364	0.1	122.81
4180	23.446	0.18182	0.1	118.35
4181	23.261	5.8182	0.1	153.56
4182	23.261	5.6364	0.1	155.93
4183	23.261	5.4545	0.1	160.44
4184	23.261	5.2727	0.1	164.61
4185	23.261	5.0909	0.1	167.91
4186	23.261	4.9091	0.1	170.25
4187	23.261	4.7273	0.1	171.69
4188	23.261	4.5455	0.1	172.39
4189	23.261	4.3636	0.1	172.52
4190	23.261	4.1818	0.1	172.24
4191	23.261	4.	0.1	171.73
4192	23.261	3.8182	0.1	171.1
4193	23.261	3.6364	0.1	170.48
4194	23.261	3.4545	0.1	169.95
4195	23.261	3.2727	0.1	169.56
4196	23.261	3.0909	0.1	169.36
4197	23.261	2.9091	0.1	169.36
4198	23.261	2.7273	0.1	169.56
4199	23.261	2.5455	0.1	169.95
4200	23.261	2.3636	0.1	170.48
4201	23.261	2.1818	0.1	171.1
4202	23.261	2.	0.1	171.73
4203	23.261	1.8182	0.1	172.24
4204	23.261	1.6364	0.1	172.52
4205	23.261	1.4545	0.1	172.39
4206	23.261	1.2727	0.1	171.69
4207	23.261	1.0909	0.1	170.25
4208	23.261	0.90909	0.1	167.91
4209	23.261	0.72727	0.1	164.61
4210	23.261	0.54545	0.1	160.44
4211	23.261	0.36364	0.1	155.93
4212	23.261	0.18182	0.1	153.56
4213	23.076	5.8182	0.1	188.65
4214	23.076	5.6364	0.1	189.69
4215	23.076	5.4545	0.1	193.01
4216	23.076	5.2727	0.1	196.32
4217	23.076	5.0909	0.1	199.13
4218	23.076	4.9091	0.1	201.26
4219	23.076	4.7273	0.1	202.7
4220	23.076	4.5455	0.1	203.55
4221	23.076	4.3636	0.1	203.92
4222	23.076	4.1818	0.1	203.95
4223	23.076	4.	0.1	203.77
4224	23.076	3.8182	0.1	203.48
4225	23.076	3.6364	0.1	203.16
4226	23.076	3.4545	0.1	202.88
4227	23.076	3.2727	0.1	202.67
4228	23.076	3.0909	0.1	202.56
4229	23.076	2.9091	0.1	202.56
4230	23.076	2.7273	0.1	202.67
4231	23.076	2.5455	0.1	202.88
4232	23.076	2.3636	0.1	203.16
4233	23.076	2.1818	0.1	203.48
4234	23.076	2.	0.1	203.77
4235	23.076	1.8182	0.1	203.95
4236	23.076	1.6364	0.1	203.92
4237	23.076	1.4545	0.1	203.55
4238	23.076	1.2727	0.1	202.7
4239	23.076	1.0909	0.1	201.26
4240	23.076	0.90909	0.1	199.13
4241	23.076	0.72727	0.1	196.32
4242	23.076	0.54545	0.1	193.01
4243	23.076	0.36364	0.1	189.69
4244	23.076	0.18182	0.1	188.65
4245	22.892	5.8182	0.1	223.28
4246	22.892	5.6364	0.1	223.47
4247	22.892	5.4545	0.1	225.97
4248	22.892	5.2727	0.1	228.66
4249	22.892	5.0909	0.1	231.12
4250	22.892	4.9091	0.1	233.14
4251	22.892	4.7273	0.1	234.67
4252	22.892	4.5455	0.1	235.75
4253	22.892	4.3636	0.1	236.46
4254	22.892	4.1818	0.1	236.9
4255	22.892	4.	0.1	237.16
4256	22.892	3.8182	0.1	237.3
4257	22.892	3.6364	0.1	237.38
4258	22.892	3.4545	0.1	237.43
4259	22.892	3.2727	0.1	237.45
4260	22.892	3.0909	0.1	237.47
4261	22.892	2.9091	0.1	237.47
4262	22.892	2.7273	0.1	237.45
4263	22.892	2.5455	0.1	237.43
4264	22.892	2.3636	0.1	237.38
4265	22.892	2.1818	0.1	237.3
4266	22.892	2.	0.1	237.16
4267	22.892	1.8182	0.1	236.9
4268	22.892	1.6364	0.1	236.46
4269	22.892	1.4545	0.1	235.75
4270	22.892	1.2727	0.1	234.67
4271	22.892	1.0909	0.1	233.14
4272	22.892	0.90909	0.1	231.12
4273	22.892	0.72727	0.1	228.66
4274	22.892	0.54545	0.1	225.97
4275	22.892	0.36364	0.1	223.47
4276	22.892	0.18182	0.1	223.28
4277	22.707	5.8182	0.1	257.15
4278	22.707	5.6364	0.1	256.84
4279	22.707	5.4545	0.1	258.82
4280	22.707	5.2727	0.1	261.14
4281	22.707	5.0909	0.1	263.42
4282	22.707	4.9091	0.1	265.48
4283	22.707	4.7273	0.1	267.23
4284	22.707	4.5455	0.1	268.69
4285	22.707	4.3636	0.1	269.89
4286	22.707	4.1818	0.1	270.89
4287	22.707	4.	0.1	271.74
4288	22.707	3.8182	0.1	272.47
4289	22.707	3.6364	0.1	273.08
4290	22.707	3.4545	0.1	273.56
4291	22.707	3.2727	0.1	273.9
4292	22.707	3.0909	0.1	274.07
4293	22.707	2.9091	0.1	274.07
4294	22.707	2.7273	0.1	273.9
4295	22.707	2.5455	0.1	273.56
4296	22.707	2.3636	0.1	273.08
4297	22.707	2.1818	0.1	272.47
4298	22.707	2.	0.1	271.74
4299	22.707	1.8182	0.1	270.89
4300	22.707	1.6364	0.1	269.89
4301	22.707	1.4545	0.1	268.69
4302	22.707	1.2727	0.1	267.23
4303	22.707	1.0909	0.1	265.48
4304	22.707	0.90909	0.1	263.42
4305	22.707	0.72727	0.1	261.14
4306	22.707	0.54545	0.1	258.82
4307	22.707	0.36364	0.1	256.84
4308	22.707	0.18182	0.1	257.15
4309	22.522	5.8182	0.1	289.96
4310	22.522	5.6364	0.1	289.41
4311	22.522	5.4545	0.1	291.16
4312	22.522	5.2727	0.1	293.36
4313	22.522	5.0909	0.1	295.68
4314	22.522	4.9091	0.1	297.97
4315	22.522	4.7273	0.1	300.14
4316	22.522	4.5455	0.1	302.18
4317	22.522	4.3636	0.1	304.08
4318	22.522	4.1818	0.1	305.86
4319	22.522	4.	0.1	307.52
4320	22.522	3.8182	0.1	309.04
4321	22.522	3.6364	0.1	310.37
4322	22.522	3.4545	0.1	311.45
4323	22.522	3.2727	0.1	312.21
4324	22.522	3.0909	0.1	312.61
4325	22.522	2.9091	0.1	312.61
4326	22.522	2.7273	0.1	312.21
4327	22.522	2.5455	0.1	311.45
4328	22.522	2.3636	0.1	310.37
4329	22.522	2.1818	0.1	309.04
4330	22.522	2.	0.1	307.52
4331	22.522	1.8182	0.1	305.86
4332	22.522	1.6364	0.1	304.08
4333	22.522	1.4545	0.1	302.18
4334	22.522	1.2727	0.1	300.14
4335	22.522	1.0909	0.1	297.97
4336	22.522	0.90909	0.1	295.68
4337	22.522	0.72727	0.1	293.36
4338	22.522	0.54545	0.1	291.16
4339	22.522	0.36364	0.1	289.41
4340	22.522	0.18182	0.1	289.96
4341	22.337	5.8182	0.1	321.33
4342	22.337	5.6364	0.1	320.78
4343	22.337	5.4545	0.1	322.56
4344	22.337	5.2727	0.1	324.9
4345	22.337	5.0909	0.1	327.54
4346	22.337	4.9091	0.1	330.33
4347	22.337	4.7273	0.1	333.19
4348	22.337	4.5455	0.1	336.09
4349	22.337	4.3636	0.1	338.98
4350	22.337	4.1818	0.1	341.85
4351	22.337	4.	0.1	344.62
4352	22.337	3.8182	0.1	347.22
4353	22.337	3.6364	0.1	349.53
4354	22.337	3.4545	0.1	351.42
4355	22.337	3.2727	0.1	352.76
4356	22.337	3.0909	0.1	353.46
4357	22.337	2.9091	0.1	353.46
4358	22.337	2.7273	0.1	352.76
4359	22.337	2.5455	0.1	351.42
4360	22.337	2.3636	0.1	349.53
4361	22.337	2.1818	0.1	347.22
4362	22.337	2.	0.1	344.62
4363	22.337	1.8182	0.1	341.85
4364	22.337	1.6364	0.1	338.98
4365	22.337	1.4545	0.1	336.09
4366	22.337	1.2727	0.1	333.19
4367	22.337	1.0909	0.1	330.33
4368	22.337	0.90909	0.1	327.54
4369	22.337	0.72727	0.1	324.9
4370	22.337	0.54545	0.1	322.56
4371	22.337	0.36364	0.1	320.78
4372	22.337	0.18182	0.1	321.33
4373	22.153	5.8182	0.1	350.8
4374	22.153	5.6364	0.1	350.49
4375	22.153	5.4545	0.1	352.57
4376	22.153	5.2727	0.1	355.37
4377	22.153	5.0909	0.1	358.63
4378	22.153	4.9091	0.1	362.26
4379	22.153	4.7273	0.1	366.17
4380	22.153	4.5455	0.1	370.3
4381	22.153	4.3636	0.1	374.59
4382	22.153	4.1818	0.1	378.94
4383	22.153	4.	0.1	383.24
4384	22.153	3.8182	0.1	387.32
4385	22.153	3.6364	0.1	390.97
4386	22.153	3.4545	0.1	393.97
4387	22.153	3.2727	0.1	396.11
4388	22.153	3.0909	0.1	397.22
4389	22.153	2.9091	0.1	397.22
4390	22.153	2.7273	0.1	396.11
4391	22.153	2.5455	0.1	393.97
4392	22.153	2.3636	0.1	390.97
4393	22.153	2.1818	0.1	387.32
4394	22.153	2.	0.1	383.24
4395	22.153	1.8182	0.1	378.94
4396	22.153	1.6364	0.1	374.59
4397	22.153	1.4545	0.1	370.3
4398	22.153	1.2727	0.1	366.17
4399	22.153	1.0909	0.1	362.26
4400	22.153	0.90909	0.1	358.63
4401	22.153	0.72727	0.1	355.37
4402	22.153	0.54545	0.1	352.57
4403	22.153	0.36364	0.1	350.49
4404	22.153	0.18182	0.1	350.8
4405	21.968	5.8182	0.1	377.82
4406	21.968	5.6364	0.1	377.97
4407	21.968	5.4545	0.1	380.67
4408	21.968	5.2727	0.1	384.25
4409	21.968	5.0909	0.1	388.54
4410	21.968	4.9091	0.1	393.45
4411	21.968	4.7273	0.1	398.87
4412	21.968	4.5455	0.1	404.74
4413	21.968	4.3636	0.1	410.94
4414	21.968	4.1818	0.1	417.34
4415	21.968	4.	0.1	423.71
4416	21.968	3.8182	0.1	429.8
4417	21.968	3.6364	0.1	435.28
4418	21.968	3.4545	0.1	439.79
4419	21.968	3.2727	0.1	443.01
4420	21.968	3.0909	0.1	444.69
4421	21.968	2.9091	0.1	444.69
4422	21.968	2.7273	0.1	443.01
4423	21.968	2.5455	0.1	439.79
4424	21.968	2.3636	0.1	435.28
4425	21.968	2.1818	0.1	429.8
4426	21.968	2.	0.1	423.71
4427	21.968	1.8182	0.1	417.34
4428	21.968	1.6364	0.1	410.94
4429	21.968	1.4545	0.1	404.74
4430	21.968	1.2727	0.1	398.87
4431	21.968	1.0909	0.1	393.45
4432	21.968	0.90909	0.1	388.54
4433	21.968	0.72727	0.1	384.25
4434	21.968	0.54545	0.1	380.67
4435	21.968	0.36364	0.1	377.97
4436	21.968	0.18182	0.1	377.82
4437	21.783	5.8182	0.1	401.7
4438	21.783	5.6364	0.1	402.55
4439	21.783	5.4545	0.1	406.2
4440	21.783	5.2727	0.1	410.99
4441	21.783	5.0909	0.1	416.79
4442	21.783	4.9091	0.1	423.52
4443	21.783	4.7273	0.1	431.07
4444	21.783	4.5455	0.1	439.33
4445	21.783	4.3636	0.1	448.15
4446	21.783	4.1818	0.1	457.3
4447	21.783	4.	0.1	466.49
4448	21.783	3.8182	0.1	475.3
4449	21.783	3.6364	0.1	483.24
4450	21.783	3.4545	0.1	489.8
4451	21.783	3.2727	0.1	494.5
4452	21.783	3.0909	0.1	496.95
4453	21.783	2.9091	0.1	496.95
4454	21.783	2.7273	0.1	494.5
4455	21.783	2.5455	0.1	489.8
4456	21.783	2.3636	0.1	483.24
4457	21.783	2.1818	0.1	475.3
4458	21.783	2.	0.1	466.49
4459	21.783	1.8182	0.1	457.31
4460	21.783	1.6364	0.1	448.15
4461	21.783	1.4545	0.1	439.33
4462	21.783	1.2727	0.1	431.07
4463	21.783	1.0909	0.1	423.52
4464	21.783	0.90909	0.1	416.79
4465	21.783	0.72727	0.1	410.99
4466	21.783	0.54545	0.1	406.2
4467	21.783	0.36364	0.1	402.55
4468	21.783	0.18182	0.1	401.7
4469	21.599	5.8182	0.1	421.62
4470	21.599	5.6364	0.1	423.42
4471	21.599	5.4545	0.1	428.39
4472	21.599	5.2727	0.1	434.9
4473	21.599	5.0909	0.1	442.82
4474	21.599	4.9091	0.1	452.07
4475	21.599	4.7273	0.1	462.53
4476	21.599	4.5455	0.1	474.04
4477	21.599	4.3636	0.1	486.39
4478	21.599	4.1818	0.1	499.25
4479	21.599	4.	0.1	512.21
4480	21.599	3.8182	0.1	524.67
4481	21.599	3.6364	0.1	535.95
4482	21.599	3.4545	0.1	545.27
4483	21.599	3.2727	0.1	551.95
4484	21.599	3.0909	0.1	555.44
4485	21.599	2.9091	0.1	555.44
4486	21.599	2.7273	0.1	551.95
4487	21.599	2.5455	0.1	545.27
4488	21.599	2.3636	0.1	535.95
4489	21.599	2.1818	0.1	524.67
4490	21.599	2.	0.1	512.21
4491	21.599	1.8182	0.1	499.25
4492	21.599	1.6364	0.1	486.39
4493	21.599	1.4545	0.1	474.04
4494	21.599	1.2727	0.1	462.53
4495	21.599	1.0909	0.1	452.07
4496	21.599	0.90909	0.1	442.82
4497	21.599	0.72727	0.1	434.9
4498	21.599	0.54545	0.1	428.39
4499	21.599	0.36364	0.1	423.42
4500	21.599	0.18182	0.1	421.62
4501	21.414	5.8182	0.1	436.58
4502	21.414	5.6364	0.1	439.58
4503	21.414	5.4545	0.1	446.32
4504	21.414	5.2727	0.1	455.14
4505	21.414	5.0909	0.1	465.95
4506	21.414	4.9091	0.1	478.64
4507	21.414	4.7273	0.1	493.04
4508	21.414	4.5455	0.1	508.91
4509	21.414	4.3636	0.1	525.97
4510	21.414	4.1818	0.1	543.78
4511	21.414	4.	0.1	561.77
4512	21.414	3.8182	0.1	579.13
4513	21.414	3.6364	0.1	594.86
4514	21.414	3.4545	0.1	607.9
4515	21.414	3.2727	0.1	617.23
4516	21.414	3.0909	0.1	622.11
4517	21.414	2.9091	0.1	622.11
4518	21.414	2.7273	0.1	617.23
4519	21.414	2.5455	0.1	607.9
4520	21.414	2.3636	0.1	594.86
4521	21.414	2.1818	0.1	579.13
4522	21.414	2.	0.1	561.77
4523	21.414	1.8182	0.1	543.78
4524	21.414	1.6364	0.1	525.97
4525	21.414	1.4545	0.1	508.91
4526	21.414	1.2727	0.1	493.04
4527	21.414	1.0909	0.1	478.64
4528	21.414	0.90909	0.1	465.95
4529	21.414	0.72727	0.1	455.14
4530	21.414	0.54545	0.1	446.32
4531	21.414	0.36364	0.1	439.58
4532	21.414	0.18182	0.1	436.58
4533	21.229	5.8182	0.1	445.42
4534	21.229	5.6364	0.1	449.86
4535	21.229	5.4545	0.1	458.87
4536	21.229	5.2727	0.1	470.76
4537	21.229	5.0909	0.1	485.44
4538	21.229	4.9091	0.1	502.74
4539	21.229	4.7273	0.1	522.41
4540	21.229	4.5455	0.1	544.11
4541	21.229	4.3636	0.1	567.42
4542	21.229	4.1818	0.1	591.8
4543	21.229	4.	0.1	616.48
4544	21.229	3.8182	0.1	640.35
4545	21.229	3.6364	0.1	662.03
4546	21.229	3.4545	0.1	679.99
4547	21.229	3.2727	0.1	692.85
4548	21.229	3.0909	0.1	699.55
4549	21.229	2.9091	0.1	699.55
4550	21.229	2.7273	0.1	692.85
4551	21.229	2.5455	0.1	679.99
4552	21.229	2.3636	0.1	662.03
4553	21.229	2.1818	0.1	640.35
4554	21.229	2.	0.1	616.48
4555	21.229	1.8182	0.1	591.8
4556	21.229	1.6364	0.1	567.42
4557	21.229	1.4545	0.1	544.11
4558	21.229	1.2727	0.1	522.41
4559	21.229	1.0909	0.1	502.74
4560	21.229	0.90909	0.1	485.44
4561	21.229	0.72727	0.1	470.76
4562	21.229	0.54545	0.1	458.87
4563	21.229	0.36364	0.1	449.86
4564	21.229	0.18182	0.1	445.42
4565	21.044	5.8182	0.1	446.78
4566	21.044	5.6364	0.1	452.89
4567	21.044	5.4545	0.1	464.77
4568	21.044	5.2727	0.1	480.66
4569	21.044	5.0909	0.1	500.46
4570	21.044	4.9091	0.1	523.91
4571	21.044	4.7273	0.1	550.6
4572	21.044	4.5455	0.1	580.01
4573	21.044	4.3636	0.1	611.61
4574	21.044	4.1818	0.1	644.69
4575	21.044	4.	0.1	678.25
4576	21.044	3.8182	0.1	710.79
4577	21.044	3.6364	0.1	740.34
4578	21.044	3.4545	0.1	764.77
4579	21.044	3.2727	0.1	782.19
4580	21.044	3.0909	0.1	791.24
4581	21.044	2.9091	0.1	791.24
4582	21.044	2.7273	0.1	782.19
4583	21.044	2.5455	0.1	764.77
4584	21.044	2.3636	0.1	740.34
4585	21.044	2.1818	0.1	710.79
4586	21.044	2.	0.1	678.25
4587	21.044	1.8182	0.1	644.69
4588	21.044	1.6364	0.1	611.61
4589	21.044	1.4545	0.1	580.01
4590	21.044	1.2727	0.1	550.6
4591	21.044	1.0909	0.1	523.91
4592	21.044	0.90909	0.1	500.46
4593	21.044	0.72727	0.1	480.66
4594	21.044	0.54545	0.1	464.77
4595	21.044	0.36364	0.1	452.89
4596	21.044	0.18182	0.1	446.78
4597	20.86	5.8182	0.1	439.19
4598	20.86	5.6364	0.1	447.16
4599	20.86	5.4545	0.1	462.59
4600	20.86	5.2727	0.1	483.65
4601	20.86	5.0909	0.1	510.18
4602	20.86	4.9091	0.1	541.77
4603	20.86	4.7273	0.1	577.76
4604	20.86	4.5455	0.1	617.41
4605	20.86	4.3636	0.1	659.98
4606	20.86	4.1818	0.1	704.6
4607	20.86	4.	0.1	750.
4608	20.86	3.8182	0.1	794.08
4609	20.86	3.6364	0.1	833.99
4610	20.86	3.4545	0.1	866.72
4611	20.86	3.2727	0.1	889.82
4612	20.86	3.0909	0.1	901.72
4613	20.86	2.9091	0.1	901.72
4614	20.86	2.7273	0.1	889.82
4615	20.86	2.5455	0.1	866.72
4616	20.86	2.3636	0.1	833.99
4617	20.86	2.1818	0.1	794.08
4618	20.86	2.	0.1	750.
4619	20.86	1.8182	0.1	704.6
4620	20.86	1.6364	0.1	659.98
4621	20.86	1.4545	0.1	617.41
4622	20.86	1.2727	0.1	577.76
4623	20.86	1.0909	0.1	541.77
4624	20.86	0.90909	0.1	510.18
4625	20.86	0.72727	0.1	483.65
4626	20.86	0.54545	0.1	462.59
4627	20.86	0.36364	0.1	447.16
4628	20.86	0.18182	0.1	439.19
4629	20.675	5.8182	0.1	421.08
4630	20.675	5.6364	0.1	431.1
4631	20.675	5.4545	0.1	450.94
4632	20.675	5.2727	0.1	478.64
4633	20.675	5.0909	0.1	513.93
4634	20.675	4.9091	0.1	556.2
4635	20.675	4.7273	0.1	604.5
4636	20.675	4.5455	0.1	657.75
4637	20.675	4.3636	0.1	714.94
4638	20.675	4.1818	0.1	775.03
4639	20.675	4.	0.1	836.4
4640	20.675	3.8182	0.1	895.9
4641	20.675	3.6364	0.1	949.23
4642	20.675	3.4545	0.1	992.14
4643	20.675	3.2727	0.1	1021.7
4644	20.675	3.0909	0.1	1036.7
4645	20.675	2.9091	0.1	1036.7
4646	20.675	2.7273	0.1	1021.7
4647	20.675	2.5455	0.1	992.14
4648	20.675	2.3636	0.1	949.23
4649	20.675	2.1818	0.1	895.9
4650	20.675	2.	0.1	836.4
4651	20.675	1.8182	0.1	775.03
4652	20.675	1.6364	0.1	714.94
4653	20.675	1.4545	0.1	657.75
4654	20.675	1.2727	0.1	604.5
4655	20.675	1.0909	0.1	556.2
4656	20.675	0.90909	0.1	513.93
4657	20.675	0.72727	0.1	478.64
4658	20.675	0.54545	0.1	450.94
4659	20.675	0.36364	0.1	431.1
4660	20.675	0.18182	0.1	421.08
4661	20.49	5.8182	0.1	390.99
4662	20.49	5.6364	0.1	403.31
4663	20.49	5.4545	0.1	428.74
4664	20.49	5.2727	0.1	464.98
4665	20.49	5.0909	0.1	511.56
4666	20.49	4.9091	0.1	567.64
4667	20.49	4.7273	0.1	632.08
4668	20.49	4.5455	0.1	703.47
4669	20.49	4.3636	0.1	780.35
4670	20.49	4.1818	0.1	861.63
4671	20.49	4.	0.1	944.88
4672	20.49	3.8182	0.1	1025.4
4673	20.49	3.6364	0.1	1095.8
4674	20.49	3.4545	0.1	1149.9
4675	20.49	3.2727	0.1	1185.3
4676	20.49	3.0909	0.1	1202.5
4677	20.49	2.9091	0.1	1202.5
4678	20.49	2.7273	0.1	1185.3
4679	20.49	2.5455	0.1	1149.9
4680	20.49	2.3636	0.1	1095.8
4681	20.49	2.1818	0.1	1025.4
4682	20.49	2.	0.1	944.88
4683	20.49	1.8182	0.1	861.63
4684	20.49	1.6364	0.1	780.35
4685	20.49	1.4545	0.1	703.47
4686	20.49	1.2727	0.1	632.08
4687	20.49	1.0909	0.1	567.64
4688	20.49	0.90909	0.1	511.56
4689	20.49	0.72727	0.1	464.98
4690	20.49	0.54545	0.1	428.74
4691	20.49	0.36364	0.1	403.31
4692	20.49	0.18182	0.1	390.99
4693	20.306	5.8182	0.1	347.73
4694	20.306	5.6364	0.1	363.11
4695	20.306	5.4545	0.1	396.04
4696	20.306	5.2727	0.1	443.37
4697	20.306	5.0909	0.1	504.13
4698	20.306	4.9091	0.1	577.55
4699	20.306	4.7273	0.1	662.78
4700	20.306	4.5455	0.1	758.56
4701	20.306	4.3636	0.1	863.38
4702	20.306	4.1818	0.1	974.61
4703	20.306	4.	0.1	1090.2
4704	20.306	3.8182	0.1	1199.7
4705	20.306	3.6364	0.1	1289.6
4706	20.306	3.4545	0.1	1352.3
4707	20.306	3.2727	0.1	1388.4
4708	20.306	3.0909	0.1	1404.3
4709	20.306	2.9091	0.1	1404.3
4710	20.306	2.7273	0.1	1388.4
4711	20.306	2.5455	0.1	1352.3
4712	20.306	2.3636	0.1	1289.6
4713	20.306	2.1818	0.1	1199.7
4714	20.306	2.	0.1	1090.2
4715	20.306	1.8182	0.1	974.61
4716	20.306	1.6364	0.1	863.38
4717	20.306	1.4545	0.1	758.56
4718	20.306	1.2727	0.1	662.78
4719	20.306	1.0909	0.1	577.55
4720	20.306	0.90909	0.1	504.13
4721	20.306	0.72727	0.1	443.37
4722	20.306	0.54545	0.1	396.04
4723	20.306	0.36364	0.1	363.11
4724	20.306	0.18182	0.1	347.73
4725	20.121	5.8182	0.1	290.75
4726	20.121	5.6364	0.1	311.58
4727	20.121	5.4545	0.1	355.6
4728	20.121	5.2727	0.1	417.31
4729	20.121	5.0909	0.1	495.03
4730	20.121	4.9091	0.1	588.89
4731	20.121	4.7273	0.1	699.93
4732	20.121	4.5455	0.1	829.52
4733	20.121	4.3636	0.1	973.72
4734	20.121	4.1818	0.1	1131.9
4735	20.121	4.	0.1	1297.5
4736	20.121	3.8182	0.1	1448.3
4737	20.121	3.6364	0.1	1558.3
4738	20.121	3.4545	0.1	1613.5
4739	20.121	3.2727	0.1	1635.2
4740	20.121	3.0909	0.1	1641.4
4741	20.121	2.9091	0.1	1641.4
4742	20.121	2.7273	0.1	1635.2
4743	20.121	2.5455	0.1	1613.5
4744	20.121	2.3636	0.1	1558.3
4745	20.121	2.1818	0.1	1448.3
4746	20.121	2.	0.1	1297.5
4747	20.121	1.8182	0.1	1131.9
4748	20.121	1.6364	0.1	973.72
4749	20.121	1.4545	0.1	829.52
4750	20.121	1.2727	0.1	699.93
4751	20.121	1.0909	0.1	588.89
4752	20.121	0.90909	0.1	495.03
4753	20.121	0.72727	0.1	417.31
4754	20.121	0.54545	0.1	355.6
4755	20.121	0.36364	0.1	311.58
4756	20.121	0.18182	0.1	290.75
4757	19.936	5.8182	0.1	221.44
4758	19.936	5.6364	0.1	255.14
4759	19.936	5.4545	0.1	316.81
4760	19.936	5.2727	0.1	396.3
4761	19.936	5.0909	0.1	492.46
4762	19.936	4.9091	0.1	608.19
4763	19.936	4.7273	0.1	749.67
4764	19.936	4.5455	0.1	923.18
4765	19.936	4.3636	0.1	1136.5
4766	19.936	4.1818	0.1	1397.7
4767	19.936	4.	0.1	1641.2
4768	19.936	3.8182	0.1	1860.3
4769	19.936	3.6364	0.1	1941.2
4770	19.936	3.4545	0.1	1941.9
4771	19.936	3.2727	0.1	1915.4
4772	19.936	3.0909	0.1	1898.
4773	19.936	2.9091	0.1	1898.
4774	19.936	2.7273	0.1	1915.4
4775	19.936	2.5455	0.1	1941.9
4776	19.936	2.3636	0.1	1941.2
4777	19.936	2.1818	0.1	1860.3
4778	19.936	2.	0.1	1641.2
4779	19.936	1.8182	0.1	1397.7
4780	19.936	1.6364	0.1	1136.5
4781	19.936	1.4545	0.1	923.18
4782	19.936	1.2727	0.1	749.67
4783	19.936	1.0909	0.1	608.19
4784	19.936	0.90909	0.1	492.46
4785	19.936	0.72727	0.1	396.3
4786	19.936	0.54545	0.1	316.81
4787	19.936	0.36364	0.1	255.14
4788	19.936	0.18182	0.1	221.44
4789	19.751	5.8182	0.1	152.09
4790	19.751	5.6364	0.1	221.57
4791	19.751	5.4545	0.1	310.18
4792	19.751	5.2727	0.1	411.27
4793	19.751	5.0909	0.1	528.88
4794	19.751	4.9091	0.1	670.72
4795	19.751	4.7273	0.1	850.18
4796	19.751	4.5455	0.1	1089.2
4797	19.751	4.3636	0.1	1444.2
4798	19.751	4.1818	0.1	1983.2
4799	19.751	4.	0.1	2506.4
4800	19.751	3.8182	0.1	2609.5
4801	19.751	3.6364	0.1	2482.
4802	19.751	3.4545	0.1	2296.3
4803	19.751	3.2727	0.1	2187.1
4804	19.751	3.0909	0.1	2135.3
4805	19.751	2.9091	0.1	2135.3
4806	19.751	2.7273	0.1	2187.1
4807	19.751	2.5455	0.1	2296.3
4808	19.751	2.3636	0.1	2482.
4809	19.751	2.1818	0.1	2609.5
4810	19.751	2.	0.1	2506.4
4811	19.751	1.8182	0.1	1983.2
4812	19.751	1.6364	0.1	1444.2
4813	19.751	1.4545	0.1	1089.2
4814	19.751	1.2727	0.1	850.18
4815	19.751	1.0909	0.1	670.72
4816	19.751	0.90909	0.1	528.88
4817	19.751	0.72727	0.1	411.27
4818	19.751	0.54545	0.1	310.18
4819	19.751	0.36364	0.1	221.57
4820	19.751	0.18182	0.1	152.09
4821	0.18476	0.18182	0.1	4061.4
4822	0.18476	0.36364	0.1	4556.2
4823	0.18476	0.54545	0.1	5219.7
4824	0.18476	0.72727	0.1	5739.4
4825	0.18476	0.90909	0.1	6129.
4826	0.18476	1.0909	0.1	6422.9
4827	0.18476	1.2727	0.1	6647.8
4828	0.18476	1.4545	0.1	6822.
4829	0.18476	1.6364	0.1	6958.2
4830	0.18476	1.8182	0.1	7065.1
4831	0.18476	2.	0.1	7148.5
4832	0.18476	2.1818	0.1	7213.
4833	0.18476	2.3636	0.1	7261.4
4834	0.18476	2.5455	0.1	7296.1
4835	0.18476	2.7273	0.1	7318.5
4836	0.18476	2.9091	0.1	7329.5
4837	0.18476	3.0909	0.1	7329.5
4838	0.18476	3.2727	0.1	7318.5
4839	0.18476	3.4545	0.1	7296.1
4840	0.18476	3.6364	0.1	7261.4
4841	0.18476	3.8182	0.1	7213.
4842	0.18476	4.	0.1	7148.5
4843	0.18476	4.1818	0.1	7065.1
4844	0.18476	4.3636	0.1	6958.2
4845	0.18476	4.5455	0.1	6822.
4846	0.18476	4.7273	0.1	6647.8
4847	0.18476	4.9091	0.1	6422.9
4848	0.18476	5.0909	0.1	6129.
4849	0.18476	5.2727	0.1	5739.4
4850	0.18476	5.4545	0.1	5219.7
4851	0.18476	5.6364	0.1	4556.2
4852	0.18476	5.8182	0.1	4061.4
4853	0.36952	0.18182	0.1	5042.
4854	0.36952	0.36364	0.1	4786.5
4855	0.36952	0.54545	0.1	4838.3
4856	0.36952	0.72727	0.1	5026.5
4857	0.36952	0.90909	0.1	5239.4
4858	0.36952	1.0909	0.1	5435.8
4859	0.36952	1.2727	0.1	5604.4
4860	0.36952	1.4545	0.1	5744.7
4861	0.36952	1.6364	0.1	5859.9
4862	0.36952	1.8182	0.1	5953.3
4863	0.36952	2.	0.1	6028.1
4864	0.36952	2.1818	0.1	6087.
4865	0.36952	2.3636	0.1	6131.8
4866	0.36952	2.5455	0.1	6164.2
4867	0.36952	2.7273	0.1	6185.2
4868	0.36952	2.9091	0.1	6195.6
4869	0.36952	3.0909	0.1	6195.6
4870	0.36952	3.2727	0.1	6185.2
4871	0.36952	3.4545	0.1	6164.2
4872	0.36952	3.6364	0.1	6131.8
4873	0.36952	3.8182	0.1	6087.
4874	0.36952	4.	0.1	6028.1
4875	0.36952	4.1818	0.1	5953.3
4876	0.36952	4.3636	0.1	5859.9
4877	0.36952	4.5455	0.1	5744.7
4878	0.36952	4.7273	0.1	5604.4
4879	0.36952	4.9091	0.1	5435.8
4880	0.36952	5.0909	0.1	5239.4
4881	0.36952	5.2727	0.1	5026.5
4882	0.36952	5.4545	0.1	4838.3
4883	0.36952	5.6364	0.1	4786.5
4884	0.36952	5.8182	0.1	5042.
4885	0.55429	0.18182	0.1	5581.
4886	0.55429	0.36364	0.1	5352.5
4887	0.55429	0.54545	0.1	5288.6
4888	0.55429	0.72727	0.1	5330.7
4889	0.55429	0.90909	0.1	5433.9
4890	0.55429	1.0909	0.1	5559.4
4891	0.55429	1.2727	0.1	5684.6
4892	0.55429	1.4545	0.1	5799.3
4893	0.55429	1.6364	0.1	5899.6
4894	0.55429	1.8182	0.1	5984.7
4895	0.55429	2.	0.1	6055.1
4896	0.55429	2.1818	0.1	6111.7
4897	0.55429	2.3636	0.1	6155.6
4898	0.55429	2.5455	0.1	6187.8
4899	0.55429	2.7273	0.1	6208.8
4900	0.55429	2.9091	0.1	6219.2
4901	0.55429	3.0909	0.1	6219.2
4902	0.55429	3.2727	0.1	6208.8
4903	0.55429	3.4545	0.1	6187.8
4904	0.55429	3.6364	0.1	6155.6
4905	0.55429	3.8182	0.1	6111.7
4906	0.55429	4.	0.1	6055.1
4907	0.55429	4.1818	0.1	5984.7
4908	0.55429	4.3636	0.1	5899.6
4909	0.55429	4.5455	0.1	5799.3
4910	0.55429	4.7273	0.1	5684.6
4911	0.55429	4.9091	0.1	5559.4
4912	0.55429	5.0909	0.1	5433.9
4913	0.55429	5.2727	0.1	5330.7
4914	0.55429	5.4545	0.1	5288.6
4915	0.55429	5.6364	0.1	5352.5
4916	0.55429	5.8182	0.1	5581.
4917	0.73905	0.18182	0.1	5838.7
4918	0.73905	0.36364	0.1	5604.8
4919	0.73905	0.54545	0.1	5481.2
4920	0.73905	0.72727	0.1	5433.3
4921	0.73905	0.90909	0.1	5445.9
4922	0.73905	1.0909	0.1	5496.8
4923	0.73905	1.2727	0.1	5566.5
4924	0.73905	1.4545	0.1	5641.7
4925	0.73905	1.6364	0.1	5714.5
4926	0.73905	1.8182	0.1	5780.6
4927	0.73905	2.	0.1	5838.
4928	0.73905	2.1818	0.1	5885.8
4929	0.73905	2.3636	0.1	5923.8
4930	0.73905	2.5455	0.1	5952.1
4931	0.73905	2.7273	0.1	5970.9
4932	0.73905	2.9091	0.1	5980.2
4933	0.73905	3.0909	0.1	5980.2
4934	0.73905	3.2727	0.1	5970.9
4935	0.73905	3.4545	0.1	5952.1
4936	0.73905	3.6364	0.1	5923.8
4937	0.73905	3.8182	0.1	5885.8
4938	0.73905	4.	0.1	5838.
4939	0.73905	4.1818	0.1	5780.6
4940	0.73905	4.3636	0.1	5714.5
4941	0.73905	4.5455	0.1	5641.7
4942	0.73905	4.7273	0.1	5566.5
4943	0.73905	4.9091	0.1	5496.8
4944	0.73905	5.0909	0.1	5445.9
4945	0.73905	5.2727	0.1	5433.3
4946	0.73905	5.4545	0.1	5481.2
4947	0.73905	5.6364	0.1	5604.8
4948	0.73905	5.8182	0.1	5838.7
4949	0.92381	0.18182	0.1	5982.1
4950	0.92381	0.36364	0.1	5772.5
4951	0.92381	0.54545	0.1	5639.5
4952	0.92381	0.72727	0.1	5556.1
4953	0.92381	0.90909	0.1	5519.7
4954	0.92381	1.0909	0.1	5520.6
4955	0.92381	1.2727	0.1	5546.6
4956	0.92381	1.4545	0.1	5586.5
4957	0.92381	1.6364	0.1	5632.2
4958	0.92381	1.8182	0.1	5678.
4959	0.92381	2.	0.1	5720.6
4960	0.92381	2.1818	0.1	5757.7
4961	0.92381	2.3636	0.1	5788.2
4962	0.92381	2.5455	0.1	5811.4
4963	0.92381	2.7273	0.1	5827.
4964	0.92381	2.9091	0.1	5834.9
4965	0.92381	3.0909	0.1	5834.9
4966	0.92381	3.2727	0.1	5827.
4967	0.92381	3.4545	0.1	5811.4
4968	0.92381	3.6364	0.1	5788.2
4969	0.92381	3.8182	0.1	5757.7
4970	0.92381	4.	0.1	5720.6
4971	0.92381	4.1818	0.1	5678.
4972	0.92381	4.3636	0.1	5632.2
4973	0.92381	4.5455	0.1	5586.5
4974	0.92381	4.7273	0.1	5546.6
4975	0.92381	4.9091	0.1	5520.6
4976	0.92381	5.0909	0.1	5519.7
4977	0.92381	5.2727	0.1	5556.1
4978	0.92381	5.4545	0.1	5639.5
4979	0.92381	5.6364	0.1	5772.5
4980	0.92381	5.8182	0.1	5982.1
4981	1.1086	0.18182	0.1	6049.6
4982	1.1086	0.36364	0.1	5859.8
4983	1.1086	0.54545	0.1	5727.2
4984	1.1086	0.72727	0.1	5628.7
4985	1.1086	0.90909	0.1	5565.1
4986	1.1086	1.0909	0.1	5533.1
4987	1.1086	1.2727	0.1	5526.1
4988	1.1086	1.4545	0.1	5536.5
4989	1.1086	1.6364	0.1	5557.3
4990	1.1086	1.8182	0.1	5583.1
4991	1.1086	2.	0.1	5610.
4992	1.1086	2.1818	0.1	5635.3
4993	1.1086	2.3636	0.1	5657.2
4994	1.1086	2.5455	0.1	5674.3
4995	1.1086	2.7273	0.1	5686.1
4996	1.1086	2.9091	0.1	5692.1
4997	1.1086	3.0909	0.1	5692.1
4998	1.1086	3.2727	0.1	5686.1
4999	1.1086	3.4545	0.1	5674.3
5000	1.1086	3.6364	0.1	5657.2
5001	1.1086	3.8182	0.1	5635.3
5002	1.1086	4.	0.1	5610.
5003	1.1086	4.1818	0.1	5583.1
5004	1.1086	4.3636	0.1	5557.3
5005	1.1086	4.5455	0.1	5536.5
5006	1.1086	4.7273	0.1	5526.1
5007	1.1086	4.9091	0.1	5533.1
5008	1.1086	5.0909	0.1	5565.1
5009	1.1086	5.2727	0.1	5628.7
5010	1.1086	5.4545	0.1	5727.2
5011	1.1086	5.6364	0.1	5859.8
5012	1.1086	5.8182	0.1	6049.6
5013	1.2933	0.18182	0.1	6072.3
5014	1.2933	0.36364	0.1	5901.6
5015	1.2933	0.54545	0.1	5774.8
5016	1.2933	0.72727	0.1	5672.1
5017	1.2933	0.90909	0.1	5595.1
5018	1.2933	1.0909	0.1	5543.5
5019	1.2933	1.2727	0.1	5514.
5020	1.2933	1.4545	0.1	5502.1
5021	1.2933	1.6364	0.1	5502.5
5022	1.2933	1.8182	0.1	5510.8
5023	1.2933	2.	0.1	5523.3
5024	1.2933	2.1818	0.1	5537.1
5025	1.2933	2.3636	0.1	5550.2
5026	1.2933	2.5455	0.1	5561.1
5027	1.2933	2.7273	0.1	5568.9
5028	1.2933	2.9091	0.1	5572.9
5029	1.2933	3.0909	0.1	5572.9
5030	1.2933	3.2727	0.1	5568.9
5031	1.2933	3.4545	0.1	5561.1
5032	1.2933	3.6364	0.1	5550.2
5033	1.2933	3.8182	0.1	5537.1
5034	1.2933	4.	0.1	5523.3
5035	1.2933	4.1818	0.1	5510.8
5036	1.2933	4.3636	0.1	5502.5
5037	1.2933	4.5455	0.1	5502.1
5038	1.2933	4.7273	0.1	5514.
5039	1.2933	4.9091	0.1	5543.5
5040	1.2933	5.0909	0.1	5595.1
5041	1.2933	5.2727	0.1	5672.1
5042	1.2933	5.4545	0.1	5774.8
5043	1.2933	5.6364	0.1	5901.6
5044	1.2933	5.8182	0.1	6072.3
5045	1.4781	0.18182	0.1	6065.1
5046	1.4781	0.36364	0.1	5910.8
5047	1.4781	0.54545	0.1	5791.2
5048	1.4781	0.72727	0.1	5689.2
5049	1.4781	0.90909	0.1	5606.4
5050	1.4781	1.0909	0.1	5543.6
5051	1.4781	1.2727	0.1	5499.6
5052	1.4781	1.4545	0.1	5471.6
5053	1.4781	1.6364	0.1	5456.3
5054	1.4781	1.8182	0.1	5450.2
5055	1.4781	2.	0.1	5450.2
5056	1.4781	2.1818	0.1	5453.7
5057	1.4781	2.3636	0.1	5458.7
5058	1.4781	2.5455	0.1	5463.7
5059	1.4781	2.7273	0.1	5467.6
5060	1.4781	2.9091	0.1	5469.7
5061	1.4781	3.0909	0.1	5469.7
5062	1.4781	3.2727	0.1	5467.6
5063	1.4781	3.4545	0.1	5463.7
5064	1.4781	3.6364	0.1	5458.7
5065	1.4781	3.8182	0.1	5453.7
5066	1.4781	4.	0.1	5450.2
5067	1.4781	4.1818	0.1	5450.2
5068	1.4781	4.3636	0.1	5456.3
5069	1.4781	4.5455	0.1	5471.6
5070	1.4781	4.7273	0.1	5499.6
5071	1.4781	4.9091	0.1	5543.6
5072	1.4781	5.0909	0.1	5606.4
5073	1.4781	5.2727	0.1	5689.2
5074	1.4781	5.4545	0.1	5791.2
5075	1.4781	5.6364	0.1	5910.8
5076	1.4781	5.8182	0.1	6065.1
5077	1.6629	0.18182	0.1	6037.9
5078	1.6629	0.36364	0.1	5898.
5079	1.6629	0.54545	0.1	5786.
5080	1.6629	0.72727	0.1	5687.2
5081	1.6629	0.90909	0.1	5602.9
5082	1.6629	1.0909	0.1	5534.4
5083	1.6629	1.2727	0.1	5481.5
5084	1.6629	1.4545	0.1	5442.7
5085	1.6629	1.6364	0.1	5415.9
5086	1.6629	1.8182	0.1	5398.6
5087	1.6629	2.	0.1	5388.5
5088	1.6629	2.1818	0.1	5383.3
5089	1.6629	2.3636	0.1	5381.2
5090	1.6629	2.5455	0.1	5380.9
5091	1.6629	2.7273	0.1	5381.2
5092	1.6629	2.9091	0.1	5381.5
5093	1.6629	3.0909	0.1	5381.5
5094	1.6629	3.2727	0.1	5381.2
5095	1.6629	3.4545	0.1	5380.9
5096	1.6629	3.6364	0.1	5381.2
5097	1.6629	3.8182	0.1	5383.3
5098	1.6629	4.	0.1	5388.5
5099	1.6629	4.1818	0.1	5398.6
5100	1.6629	4.3636	0.1	5415.9
5101	1.6629	4.5455	0.1	5442.7
5102	1.6629	4.7273	0.1	5481.5
5103	1.6629	4.9091	0.1	5534.4
5104	1.6629	5.0909	0.1	5602.9
5105	1.6629	5.2727	0.1	5687.2
5106	1.6629	5.4545	0.1	5786.
5107	1.6629	5.6364	0.1	5898.
5108	1.6629	5.8182	0.1	6037.9
5109	1.8476	0.18182	0.1	5996.9
5110	1.8476	0.36364	0.1	5869.7
5111	1.8476	0.54545	0.1	5765.1
5112	1.8476	0.72727	0.1	5670.7
5113	1.8476	0.90909	0.1	5587.4
5114	1.8476	1.0909	0.1	5516.7
5115	1.8476	1.2727	0.1	5458.8
5116	1.8476	1.4545	0.1	5413.
5117	1.8476	1.6364	0.1	5378.3
5118	1.8476	1.8182	0.1	5352.8
5119	1.8476	2.	0.1	5334.8
5120	1.8476	2.1818	0.1	5322.7
5121	1.8476	2.3636	0.1	5314.8
5122	1.8476	2.5455	0.1	5309.9
5123	1.8476	2.7273	0.1	5307.2
5124	1.8476	2.9091	0.1	5306.
5125	1.8476	3.0909	0.1	5306.
5126	1.8476	3.2727	0.1	5307.2
5127	1.8476	3.4545	0.1	5309.9
5128	1.8476	3.6364	0.1	5314.8
5129	1.8476	3.8182	0.1	5322.7
5130	1.8476	4.	0.1	5334.8
5131	1.8476	4.1818	0.1	5352.8
5132	1.8476	4.3636	0.1	5378.3
5133	1.8476	4.5455	0.1	5413.
5134	1.8476	4.7273	0.1	5458.8
5135	1.8476	4.9091	0.1	5516.7
5136	1.8476	5.0909	0.1	5587.4
5137	1.8476	5.2727	0.1	5670.7
5138	1.8476	5.4545	0.1	5765.1
5139	1.8476	5.6364	0.1	5869.7
5140	1.8476	5.8182	0.1	5996.9
5141	2.0324	0.18182	0.1	5946.5
5142	2.0324	0.36364	0.1	5830.5
5143	2.0324	0.54545	0.1	5733.
5144	2.0324	0.72727	0.1	5643.4
5145	2.0324	0.90909	0.1	5562.6
5146	2.0324	1.0909	0.1	5491.8
5147	2.0324	1.2727	0.1	5431.6
5148	2.0324	1.4545	0.1	5381.9
5149	2.0324	1.6364	0.1	5341.9
5150	2.0324	1.8182	0.1	5310.7
5151	2.0324	2.	0.1	5287.
5152	2.0324	2.1818	0.1	5269.5
5153	2.0324	2.3636	0.1	5257.1
5154	2.0324	2.5455	0.1	5248.7
5155	2.0324	2.7273	0.1	5243.5
5156	2.0324	2.9091	0.1	5241.1
5157	2.0324	3.0909	0.1	5241.1
5158	2.0324	3.2727	0.1	5243.5
5159	2.0324	3.4545	0.1	5248.7
5160	2.0324	3.6364	0.1	5257.1
5161	2.0324	3.8182	0.1	5269.5
5162	2.0324	4.	0.1	5287.
5163	2.0324	4.1818	0.1	5310.7
5164	2.0324	4.3636	0.1	5341.9
5165	2.0324	4.5455	0.1	5381.9
5166	2.0324	4.7273	0.1	5431.6
5167	2.0324	4.9091	0.1	5491.8
5168	2.0324	5.0909	0.1	5562.6
5169	2.0324	5.2727	0.1	5643.4
5170	2.0324	5.4545	0.1	5733.
5171	2.0324	5.6364	0.1	5830.5
5172	2.0324	5.8182	0.1	5946.5
5173	2.2171	0.18182	0.1	5889.6
5174	2.2171	0.36364	0.1	5783.6
5175	2.2171	0.54545	0.1	5692.7
5176	2.2171	0.72727	0.1	5608.1
5177	2.2171	0.90909	0.1	5530.6
5178	2.2171	1.0909	0.1	5461.2
5179	2.2171	1.2727	0.1	5400.6
5180	2.2171	1.4545	0.1	5348.9
5181	2.2171	1.6364	0.1	5305.9
5182	2.2171	1.8182	0.1	5271.
5183	2.2171	2.	0.1	5243.3
5184	2.2171	2.1818	0.1	5222.
5185	2.2171	2.3636	0.1	5206.2
5186	2.2171	2.5455	0.1	5195.1
5187	2.2171	2.7273	0.1	5188.
5188	2.2171	2.9091	0.1	5184.6
5189	2.2171	3.0909	0.1	5184.6
5190	2.2171	3.2727	0.1	5188.
5191	2.2171	3.4545	0.1	5195.1
5192	2.2171	3.6364	0.1	5206.2
5193	2.2171	3.8182	0.1	5222.
5194	2.2171	4.	0.1	5243.3
5195	2.2171	4.1818	0.1	5271.
5196	2.2171	4.3636	0.1	5305.9
5197	2.2171	4.5455	0.1	5348.9
5198	2.2171	4.7273	0.1	5400.6
5199	2.2171	4.9091	0.1	5461.2
5200	2.2171	5.0909	0.1	5530.6
5201	2.2171	5.2727	0.1	5608.1
5202	2.2171	5.4545	0.1	5692.7
5203	2.2171	5.6364	0.1	5783.6
5204	2.2171	5.8182	0.1	5889.6
5205	2.4019	0.18182	0.1	5828.3
5206	2.4019	0.36364	0.1	5731.3
5207	2.4019	0.54545	0.1	5646.5
5208	2.4019	0.72727	0.1	5566.9
5209	2.4019	0.90909	0.1	5493.1
5210	2.4019	1.0909	0.1	5426.
5211	2.4019	1.2727	0.1	5366.2
5212	2.4019	1.4545	0.1	5314.1
5213	2.4019	1.6364	0.1	5269.7
5214	2.4019	1.8182	0.1	5232.7
5215	2.4019	2.	0.1	5202.6
5216	2.4019	2.1818	0.1	5178.7
5217	2.4019	2.3636	0.1	5160.5
5218	2.4019	2.5455	0.1	5147.5
5219	2.4019	2.7273	0.1	5139.
5220	2.4019	2.9091	0.1	5134.9
5221	2.4019	3.0909	0.1	5134.9
5222	2.4019	3.2727	0.1	5139.
5223	2.4019	3.4545	0.1	5147.5
5224	2.4019	3.6364	0.1	5160.5
5225	2.4019	3.8182	0.1	5178.7
5226	2.4019	4.	0.1	5202.6
5227	2.4019	4.1818	0.1	5232.7
5228	2.4019	4.3636	0.1	5269.7
5229	2.4019	4.5455	0.1	5314.1
5230	2.4019	4.7273	0.1	5366.2
5231	2.4019	4.9091	0.1	5426.
5232	2.4019	5.0909	0.1	5493.1
5233	2.4019	5.2727	0.1	5566.9
5234	2.4019	5.4545	0.1	5646.5
5235	2.4019	5.6364	0.1	5731.3
5236	2.4019	5.8182	0.1	5828.3
5237	2.5867	0.18182	0.1	5764.1
5238	2.5867	0.36364	0.1	5675.1
5239	2.5867	0.54545	0.1	5596.1
5240	2.5867	0.72727	0.1	5521.5
5241	2.5867	0.90909	0.1	5451.6
5242	2.5867	1.0909	0.1	5387.2
5243	2.5867	1.2727	0.1	5329.1
5244	2.5867	1.4545	0.1	5277.7
5245	2.5867	1.6364	0.1	5233.1
5246	2.5867	1.8182	0.1	5195.1
5247	2.5867	2.	0.1	5163.7
5248	2.5867	2.1818	0.1	5138.3
5249	2.5867	2.3636	0.1	5118.7
5250	2.5867	2.5455	0.1	5104.3
5251	2.5867	2.7273	0.1	5095.
5252	2.5867	2.9091	0.1	5090.4
5253	2.5867	3.0909	0.1	5090.4
5254	2.5867	3.2727	0.1	5095.
5255	2.5867	3.4545	0.1	5104.3
5256	2.5867	3.6364	0.1	5118.7
5257	2.5867	3.8182	0.1	5138.3
5258	2.5867	4.	0.1	5163.7
5259	2.5867	4.1818	0.1	5195.1
5260	2.5867	4.3636	0.1	5233.1
5261	2.5867	4.5455	0.1	5277.7
5262	2.5867	4.7273	0.1	5329.1
5263	2.5867	4.9091	0.1	5387.2
5264	2.5867	5.0909	0.1	5451.6
5265	2.5867	5.2727	0.1	5521.5
5266	2.5867	5.4545	0.1	5596.1
5267	2.5867	5.6364	0.1	5675.1
5268	2.5867	5.8182	0.1	5764.1
5269	2.7714	0.18182	0.1	5698.1
5270	2.7714	0.36364	0.1	5616.3
5271	2.7714	0.54545	0.1	5542.8
5272	2.7714	0.72727	0.1	5472.9
5273	2.7714	0.90909	0.1	5406.9
5274	2.7714	1.0909	0.1	5345.7
5275	2.7714	1.2727	0.1	5289.9
5276	2.7714	1.4545	0.1	5239.8
5277	2.7714	1.6364	0.1	5195.8
5278	2.7714	1.8182	0.1	5157.9
5279	2.7714	2.	0.1	5126.
5280	2.7714	2.1818	0.1	5100.
5281	2.7714	2.3636	0.1	5079.5
5282	2.7714	2.5455	0.1	5064.5
5283	2.7714	2.7273	0.1	5054.6
5284	2.7714	2.9091	0.1	5049.7
5285	2.7714	3.0909	0.1	5049.7
5286	2.7714	3.2727	0.1	5054.6
5287	2.7714	3.4545	0.1	5064.5
5288	2.7714	3.6364	0.1	5079.5
5289	2.7714	3.8182	0.1	5100.
5290	2.7714	4.	0.1	5126.
5291	2.7714	4.1818	0.1	5157.9
5292	2.7714	4.3636	0.1	5195.8
5293	2.7714	4.5455	0.1	5239.8
5294	2.7714	4.7273	0.1	5289.9
5295	2.7714	4.9091	0.1	5345.7
5296	2.7714	5.0909	0.1	5406.9
5297	2.7714	5.2727	0.1	5472.9
5298	2.7714	5.4545	0.1	5542.8
5299	2.7714	5.6364	0.1	5616.3
5300	2.7714	5.8182	0.1	5698.1
5301	2.9562	0.18182	0.1	5631.
5302	2.9562	0.36364	0.1	5555.8
5303	2.9562	0.54545	0.1	5487.4
5304	2.9562	0.72727	0.1	5422.
5305	2.9562	0.90909	0.1	5360.
5306	2.9562	1.0909	0.1	5302.1
5307	2.9562	1.2727	0.1	5248.8
5308	2.9562	1.4545	0.1	5200.6
5309	2.9562	1.6364	0.1	5157.9
5310	2.9562	1.8182	0.1	5120.6
5311	2.9562	2.	0.1	5089.
5312	2.9562	2.1818	0.1	5062.9
5313	2.9562	2.3636	0.1	5042.3
5314	2.9562	2.5455	0.1	5027.
5315	2.9562	2.7273	0.1	5016.8
5316	2.9562	2.9091	0.1	5011.8
5317	2.9562	3.0909	0.1	5011.8
5318	2.9562	3.2727	0.1	5016.8
5319	2.9562	3.4545	0.1	5027.
5320	2.9562	3.6364	0.1	5042.3
5321	2.9562	3.8182	0.1	5062.9
5322	2.9562	4.	0.1	5089.
5323	2.9562	4.1818	0.1	5120.6
5324	2.9562	4.3636	0.1	5157.9
5325	2.9562	4.5455	0.1	5200.6
5326	2.9562	4.7273	0.1	5248.8
5327	2.9562	4.9091	0.1	5302.1
5328	2.9562	5.0909	0.1	5360.
5329	2.9562	5.2727	0.1	5422.
5330	2.9562	5.4545	0.1	5487.4
5331	2.9562	5.6364	0.1	5555.8
5332	2.9562	5.8182	0.1	5631.
5333	3.141	0.18182	0.1	5563.5
5334	3.141	0.36364	0.1	5494.3
5335	3.141	0.54545	0.1	5430.6
5336	3.141	0.72727	0.1	5369.6
5337	3.141	0.90909	0.1	5311.5
5338	3.141	1.0909	0.1	5256.9
5339	3.141	1.2727	0.1	5206.4
5340	3.141	1.4545	0.1	5160.4
5341	3.141	1.6364	0.1	5119.2
5342	3.141	1.8182	0.1	5083.1
5343	3.141	2.	0.1	5052.2
5344	3.141	2.1818	0.1	5026.6
5345	3.141	2.3636	0.1	5006.2
5346	3.141	2.5455	0.1	4990.9
5347	3.141	2.7273	0.1	4980.8
5348	3.141	2.9091	0.1	4975.7
5349	3.141	3.0909	0.1	4975.7
5350	3.141	3.2727	0.1	4980.8
5351	3.141	3.4545	0.1	4990.9
5352	3.141	3.6364	0.1	5006.2
5353	3.141	3.8182	0.1	5026.6
5354	3.141	4.	0.1	5052.2
5355	3.141	4.1818	0.1	5083.1
5356	3.141	4.3636	0.1	5119.2
5357	3.141	4.5455	0.1	5160.4
5358	3.141	4.7273	0.1	5206.4
5359	3.141	4.9091	0.1	5256.9
5360	3.141	5.0909	0.1	5311.5
5361	3.141	5.2727	0.1	5369.6
5362	3.141	5.4545	0.1	5430.6
5363	3.141	5.6364	0.1	5494.3
5364	3.141	5.8182	0.1	5563.5
5365	3.3257	0.18182	0.1	5495.8
5366	3.3257	0.36364	0.1	5432.1
5367	3.3257	0.54545	0.1	5372.9
5368	3.3257	0.72727	0.1	5316.
5369	3.3257	0.90909	0.1	5261.6
5370	3.3257	1.0909	0.1	5210.4
5371	3.3257	1.2727	0.1	5162.7
5372	3.3257	1.4545	0.1	5119.1
5373	3.3257	1.6364	0.1	5079.9
5374	3.3257	1.8182	0.1	5045.2
5375	3.3257	2.	0.1	5015.4
5376	3.3257	2.1818	0.1	4990.5
5377	3.3257	2.3636	0.1	4970.6
5378	3.3257	2.5455	0.1	4955.7
5379	3.3257	2.7273	0.1	4945.8
5380	3.3257	2.9091	0.1	4940.8
5381	3.3257	3.0909	0.1	4940.8
5382	3.3257	3.2727	0.1	4945.8
5383	3.3257	3.4545	0.1	4955.7
5384	3.3257	3.6364	0.1	4970.6
5385	3.3257	3.8182	0.1	4990.5
5386	3.3257	4.	0.1	5015.4
5387	3.3257	4.1818	0.1	5045.2
5388	3.3257	4.3636	0.1	5079.9
5389	3.3257	4.5455	0.1	5119.1
5390	3.3257	4.7273	0.1	5162.7
5391	3.3257	4.9091	0.1	5210.4
5392	3.3257	5.0909	0.1	5261.6
5393	3.3257	5.2727	0.1	5316.
5394	3.3257	5.4545	0.1	5372.9
5395	3.3257	5.6364	0.1	5432.1
5396	3.3257	5.8182	0.1	5495.8
5397	3.5105	0.18182	0.1	5428.4
5398	3.5105	0.36364	0.1	5369.7
5399	3.5105	0.54545	0.1	5314.7
5400	3.5105	0.72727	0.1	5261.7
5401	3.5105	0.90909	0.1	5210.9
5402	3.5105	1.0909	0.1	5162.9
5403	3.5105	1.2727	0.1	5118.1
5404	3.5105	1.4545	0.1	5077.
5405	3.5105	1.6364	0.1	5039.8
5406	3.5105	1.8182	0.1	5006.8
5407	3.5105	2.	0.1	4978.4
5408	3.5105	2.1818	0.1	4954.5
5409	3.5105	2.3636	0.1	4935.3
5410	3.5105	2.5455	0.1	4920.8
5411	3.5105	2.7273	0.1	4911.2
5412	3.5105	2.9091	0.1	4906.4
5413	3.5105	3.0909	0.1	4906.4
5414	3.5105	3.2727	0.1	4911.2
5415	3.5105	3.4545	0.1	4920.8
5416	3.5105	3.6364	0.1	4935.3
5417	3.5105	3.8182	0.1	4954.5
5418	3.5105	4.	0.1	4978.4
5419	3.5105	4.1818	0.1	5006.8
5420	3.5105	4.3636	0.1	5039.8
5421	3.5105	4.5455	0.1	5077.
5422	3.5105	4.7273	0.1	5118.1
5423	3.5105	4.9091	0.1	5162.9
5424	3.5105	5.0909	0.1	5210.9
5425	3.5105	5.2727	0.1	5261.7
5426	3.5105	5.4545	0.1	5314.7
5427	3.5105	5.6364	0.1	5369.7
5428	3.5105	5.8182	0.1	5428.4
5429	3.6952	0.18182	0.1	5361.4
5430	3.6952	0.36364	0.1	5307.3
5431	3.6952	0.54545	0.1	5256.2
5432	3.6952	0.72727	0.1	5206.9
5433	3.6952	0.90909	0.1	5159.5
5434	3.6952	1.0909	0.1	5114.7
5435	3.6952	1.2727	0.1	5072.7
5436	3.6952	1.4545	0.1	5034.1
5437	3.6952	1.6364	0.1	4999.
5438	3.6952	1.8182	0.1	4967.9
5439	3.6952	2.	0.1	4940.8
5440	3.6952	2.1818	0.1	4918.1
5441	3.6952	2.3636	0.1	4899.8
5442	3.6952	2.5455	0.1	4885.9
5443	3.6952	2.7273	0.1	4876.7
5444	3.6952	2.9091	0.1	4872.1
5445	3.6952	3.0909	0.1	4872.1
5446	3.6952	3.2727	0.1	4876.7
5447	3.6952	3.4545	0.1	4885.9
5448	3.6952	3.6364	0.1	4899.8
5449	3.6952	3.8182	0.1	4918.1
5450	3.6952	4.	0.1	4940.8
5451	3.6952	4.1818	0.1	4967.9
5452	3.6952	4.3636	0.1	4999.
5453	3.6952	4.5455	0.1	5034.1
5454	3.6952	4.7273	0.1	5072.7
5455	3.6952	4.9091	0.1	5114.7
5456	3.6952	5.0909	0.1	5159.5
5457	3.6952	5.2727	0.1	5206.9
5458	3.6952	5.4545	0.1	5256.2
5459	3.6952	5.6364	0.1	5307.3
5460	3.6952	5.8182	0.1	5361.4
5461	3.88	0.18182	0.1	5295.
5462	3.88	0.36364	0.1	5245.
5463	3.88	0.54545	0.1	5197.6
5464	3.88	0.72727	0.1	5151.7
5465	3.88	0.90909	0.1	5107.7
5466	3.88	1.0909	0.1	5065.9
5467	3.88	1.2727	0.1	5026.7
5468	3.88	1.4545	0.1	4990.5
5469	3.88	1.6364	0.1	4957.6
5470	3.88	1.8182	0.1	4928.2
5471	3.88	2.	0.1	4902.7
5472	3.88	2.1818	0.1	4881.2
5473	3.88	2.3636	0.1	4863.8
5474	3.88	2.5455	0.1	4850.7
5475	3.88	2.7273	0.1	4842.
5476	3.88	2.9091	0.1	4837.6
5477	3.88	3.0909	0.1	4837.6
5478	3.88	3.2727	0.1	4842.
5479	3.88	3.4545	0.1	4850.7
5480	3.88	3.6364	0.1	4863.8
5481	3.88	3.8182	0.1	4881.2
5482	3.88	4.	0.1	4902.7
5483	3.88	4.1818	0.1	4928.2
5484	3.88	4.3636	0.1	4957.6
5485	3.88	4.5455	0.1	4990.5
5486	3.88	4.7273	0.1	5026.7
5487	3.88	4.9091	0.1	5065.9
5488	3.88	5.0909	0.1	5107.7
5489	3.88	5.2727	0.1	5151.7
5490	3.88	5.4545	0.1	5197.6
5491	3.88	5.6364	0.1	5245.
5492	3.88	5.8182	0.1	5295.
5493	4.0648	0.18182	0.1	5229.2
5494	4.0648	0.36364	0.1	5183.1
5495	4.0648	0.54545	0.1	5139.
5496	4.0648	0.72727	0.1	5096.4
5497	4.0648	0.90909	0.1	5055.5
5498	4.0648	1.0909	0.1	5016.5
5499	4.0648	1.2727	0.1	4980.
5500	4.0648	1.4545	0.1	4946.2
5501	4.0648	1.6364	0.1	4915.4
5502	4.0648	1.8182	0.1	4887.9
5503	4.0648	2.	0.1	4864.
5504	4.0648	2.1818	0.1	4843.7
5505	4.0648	2.3636	0.1	4827.4
5506	4.0648	2.5455	0.1	4815.
5507	4.0648	2.7273	0.1	4806.7
5508	4.0648	2.9091	0.1	4802.5
5509	4.0648	3.0909	0.1	4802.5
5510	4.0648	3.2727	0.1	4806.7
5511	4.0648	3.4545	0.1	4815.
5512	4.0648	3.6364	0.1	4827.4
5513	4.0648	3.8182	0.1	4843.7
5514	4.0648	4.	0.1	4864.
5515	4.0648	4.1818	0.1	4887.9
5516	4.0648	4.3636	0.1	4915.4
5517	4.0648	4.5455	0.1	4946.2
5518	4.0648	4.7273	0.1	4980.
5519	4.0648	4.9091	0.1	5016.5
5520	4.0648	5.0909	0.1	5055.5
5521	4.0648	5.2727	0.1	5096.4
5522	4.0648	5.4545	0.1	5139.
5523	4.0648	5.6364	0.1	5183.1
5524	4.0648	5.8182	0.1	5229.2
5525	4.2495	0.18182	0.1	5164.
5526	4.2495	0.36364	0.1	5121.4
5527	4.2495	0.54545	0.1	5080.6
5528	4.2495	0.72727	0.1	5041.
5529	4.2495	0.90909	0.1	5003.
5530	4.2495	1.0909	0.1	4966.8
5531	4.2495	1.2727	0.1	4932.8
5532	4.2495	1.4545	0.1	4901.3
5533	4.2495	1.6364	0.1	4872.6
5534	4.2495	1.8182	0.1	4846.9
5535	4.2495	2.	0.1	4824.5
5536	4.2495	2.1818	0.1	4805.5
5537	4.2495	2.3636	0.1	4790.2
5538	4.2495	2.5455	0.1	4778.6
5539	4.2495	2.7273	0.1	4770.8
5540	4.2495	2.9091	0.1	4766.9
5541	4.2495	3.0909	0.1	4766.9
5542	4.2495	3.2727	0.1	4770.8
5543	4.2495	3.4545	0.1	4778.6
5544	4.2495	3.6364	0.1	4790.2
5545	4.2495	3.8182	0.1	4805.5
5546	4.2495	4.	0.1	4824.5
5547	4.2495	4.1818	0.1	4846.9
5548	4.2495	4.3636	0.1	4872.6
5549	4.2495	4.5455	0.1	4901.3
5550	4.2495	4.7273	0.1	4932.8
5551	4.2495	4.9091	0.1	4966.8
5552	4.2495	5.0909	0.1	5003.
5553	4.2495	5.2727	0.1	5041.
5554	4.2495	5.4545	0.1	5080.6
5555	4.2495	5.6364	0.1	5121.4
5556	4.2495	5.8182	0.1	5164.
5557	4.4343	0.18182	0.1	5099.6
5558	4.4343	0.36364	0.1	5060.2
5559	4.4343	0.54545	0.1	5022.4
5560	4.4343	0.72727	0.1	4985.7
5561	4.4343	0.90909	0.1	4950.4
5562	4.4343	1.0909	0.1	4916.8
5563	4.4343	1.2727	0.1	4885.2
5564	4.4343	1.4545	0.1	4855.9
5565	4.4343	1.6364	0.1	4829.1
5566	4.4343	1.8182	0.1	4805.2
5567	4.4343	2.	0.1	4784.3
5568	4.4343	2.1818	0.1	4766.6
5569	4.4343	2.3636	0.1	4752.3
5570	4.4343	2.5455	0.1	4741.4
5571	4.4343	2.7273	0.1	4734.1
5572	4.4343	2.9091	0.1	4730.5
5573	4.4343	3.0909	0.1	4730.5
5574	4.4343	3.2727	0.1	4734.1
5575	4.4343	3.4545	0.1	4741.4
5576	4.4343	3.6364	0.1	4752.3
5577	4.4343	3.8182	0.1	4766.6
5578	4.4343	4.	0.1	4784.3
5579	4.4343	4.1818	0.1	4805.2
5580	4.4343	4.3636	0.1	4829.1
5581	4.4343	4.5455	0.1	4855.9
5582	4.4343	4.7273	0.1	4885.2
5583	4.4343	4.9091	0.1	4916.8
5584	4.4343	5.0909	0.1	4950.4
5585	4.4343	5.2727	0.1	4985.7
5586	4.4343	5.4545	0.1	5022.4
5587	4.4343	5.6364	0.1	5060.2
5588	4.4343	5.8182	0.1	5099.6
5589	4.619	0.18182	0.1	5035.8
5590	4.619	0.36364	0.1	4999.5
5591	4.619	0.54545	0.1	4964.4
5592	4.619	0.72727	0.1	4930.3
5593	4.619	0.90909	0.1	4897.6
5594	4.619	1.0909	0.1	4866.4
5595	4.619	1.2727	0.1	4837.1
5596	4.619	1.4545	0.1	4809.9
5597	4.619	1.6364	0.1	4785.
5598	4.619	1.8182	0.1	4762.8
5599	4.619	2.	0.1	4743.3
5600	4.619	2.1818	0.1	4726.9
5601	4.619	2.3636	0.1	4713.5
5602	4.619	2.5455	0.1	4703.4
5603	4.619	2.7273	0.1	4696.6
5604	4.619	2.9091	0.1	4693.2
5605	4.619	3.0909	0.1	4693.2
5606	4.619	3.2727	0.1	4696.6
5607	4.619	3.4545	0.1	4703.4
5608	4.619	3.6364	0.1	4713.5
5609	4.619	3.8182	0.1	4726.9
5610	4.619	4.	0.1	4743.3
5611	4.619	4.1818	0.1	4762.8
5612	4.619	4.3636	0.1	4785.
5613	4.619	4.5455	0.1	4809.9
5614	4.619	4.7273	0.1	4837.1
5615	4.619	4.9091	0.1	4866.4
5616	4.619	5.0909	0.1	4897.6
5617	4.619	5.2727	0.1	4930.3
5618	4.619	5.4545	0.1	4964.4
5619	4.619	5.6364	0.1	4999.5
5620	4.619	5.8182	0.1	5035.8
5621	4.8038	0.18182	0.1	4972.8
5622	4.8038	0.36364	0.1	4939.2
5623	4.8038	0.54545	0.1	4906.6
5624	4.8038	0.72727	0.1	4875.1
5625	4.8038	0.90909	0.1	4844.7
5626	4.8038	1.0909	0.1	4815.8
5627	4.8038	1.2727	0.1	4788.6
5628	4.8038	1.4545	0.1	4763.4
5629	4.8038	1.6364	0.1	4740.4
5630	4.8038	1.8182	0.1	4719.7
5631	4.8038	2.	0.1	4701.6
5632	4.8038	2.1818	0.1	4686.3
5633	4.8038	2.3636	0.1	4673.9
5634	4.8038	2.5455	0.1	4664.5
5635	4.8038	2.7273	0.1	4658.2
5636	4.8038	2.9091	0.1	4655.
5637	4.8038	3.0909	0.1	4655.
5638	4.8038	3.2727	0.1	4658.2
5639	4.8038	3.4545	0.1	4664.5
5640	4.8038	3.6364	0.1	4673.9
5641	4.8038	3.8182	0.1	4686.3
5642	4.8038	4.	0.1	4701.6
5643	4.8038	4.1818	0.1	4719.7
5644	4.8038	4.3636	0.1	4740.4
5645	4.8038	4.5455	0.1	4763.4
5646	4.8038	4.7273	0.1	4788.6
5647	4.8038	4.9091	0.1	4815.8
5648	4.8038	5.0909	0.1	4844.7
5649	4.8038	5.2727	0.1	4875.1
5650	4.8038	5.4545	0.1	4906.6
5651	4.8038	5.6364	0.1	4939.2
5652	4.8038	5.8182	0.1	4972.8
5653	4.9886	0.18182	0.1	4910.4
5654	4.9886	0.36364	0.1	4879.3
5655	4.9886	0.54545	0.1	4849.1
5656	4.9886	0.72727	0.1	4819.9
5657	4.9886	0.90909	0.1	4791.8
5658	4.9886	1.0909	0.1	4765.
5659	4.9886	1.2727	0.1	4739.9
5660	4.9886	1.4545	0.1	4716.5
5661	4.9886	1.6364	0.1	4695.1
5662	4.9886	1.8182	0.1	4676.
5663	4.9886	2.	0.1	4659.2
5664	4.9886	2.1818	0.1	4645.
5665	4.9886	2.3636	0.1	4633.5
5666	4.9886	2.5455	0.1	4624.8
5667	4.9886	2.7273	0.1	4618.9
5668	4.9886	2.9091	0.1	4615.9
5669	4.9886	3.0909	0.1	4615.9
5670	4.9886	3.2727	0.1	4618.9
5671	4.9886	3.4545	0.1	4624.8
5672	4.9886	3.6364	0.1	4633.5
5673	4.9886	3.8182	0.1	4645.
5674	4.9886	4.	0.1	4659.2
5675	4.9886	4.1818	0.1	4676.
5676	4.9886	4.3636	0.1	4695.1
5677	4.9886	4.5455	0.1	4716.5
5678	4.9886	4.7273	0.1	4739.9
5679	4.9886	4.9091	0.1	4765.
5680	4.9886	5.0909	0.1	4791.8
5681	4.9886	5.2727	0.1	4819.9
5682	4.9886	5.4545	0.1	4849.1
5683	4.9886	5.6364	0.1	4879.3
5684	4.9886	5.8182	0.1	4910.4
5685	5.1733	0.18182	0.1	4848.6
5686	5.1733	0.36364	0.1	4819.9
5687	5.1733	0.54545	0.1	4791.9
5688	5.1733	0.72727	0.1	4764.9
5689	5.1733	0.90909	0.1	4738.9
5690	5.1733	1.0909	0.1	4714.1
5691	5.1733	1.2727	0.1	4690.7
5692	5.1733	1.4545	0.1	4669.1
5693	5.1733	1.6364	0.1	4649.3
5694	5.1733	1.8182	0.1	4631.6
5695	5.1733	2.	0.1	4616.1
5696	5.1733	2.1818	0.1	4602.9
5697	5.1733	2.3636	0.1	4592.2
5698	5.1733	2.5455	0.1	4584.1
5699	5.1733	2.7273	0.1	4578.7
5700	5.1733	2.9091	0.1	4576.
5701	5.1733	3.0909	0.1	4576.
5702	5.1733	3.2727	0.1	4578.7
5703	5.1733	3.4545	0.1	4584.1
5704	5.1733	3.6364	0.1	4592.2
5705	5.1733	3.8182	0.1	4602.9
5706	5.1733	4.	0.1	4616.1
5707	5.1733	4.1818	0.1	4631.6
5708	5.1733	4.3636	0.1	4649.3
5709	5.1733	4.5455	0.1	4669.1
5710	5.1733	4.7273	0.1	4690.7
5711	5.1733	4.9091	0.1	4714.1
5712	5.1733	5.0909	0.1	4738.9
5713	5.1733	5.2727	0.1	4764.9
5714	5.1733	5.4545	0.1	4791.9
5715	5.1733	5.6364	0.1	4819.9
5716	5.1733	5.8182	0.1	4848.6
5717	5.3581	0.18182	0.1	4787.5
5718	5.3581	0.36364	0.1	4760.9
5719	5.3581	0.54545	0.1	4735.
5720	5.3581	0.72727	0.1	4710.
5721	5.3581	0.90909	0.1	4685.9
5722	5.3581	1.0909	0.1	4662.9
5723	5.3581	1.2727	0.1	4641.3
5724	5.3581	1.4545	0.1	4621.3
5725	5.3581	1.6364	0.1	4603.
5726	5.3581	1.8182	0.1	4586.6
5727	5.3581	2.	0.1	4572.3
5728	5.3581	2.1818	0.1	4560.1
5729	5.3581	2.3636	0.1	4550.2
5730	5.3581	2.5455	0.1	4542.7
5731	5.3581	2.7273	0.1	4537.7
5732	5.3581	2.9091	0.1	4535.1
5733	5.3581	3.0909	0.1	4535.1
5734	5.3581	3.2727	0.1	4537.7
5735	5.3581	3.4545	0.1	4542.7
5736	5.3581	3.6364	0.1	4550.2
5737	5.3581	3.8182	0.1	4560.1
5738	5.3581	4.	0.1	4572.3
5739	5.3581	4.1818	0.1	4586.6
5740	5.3581	4.3636	0.1	4603.
5741	5.3581	4.5455	0.1	4621.3
5742	5.3581	4.7273	0.1	4641.4
5743	5.3581	4.9091	0.1	4662.9
5744	5.3581	5.0909	0.1	4685.9
5745	5.3581	5.2727	0.1	4710.
5746	5.3581	5.4545	0.1	4735.
5747	5.3581	5.6364	0.1	4760.9
5748	5.3581	5.8182	0.1	4787.5
5749	5.5429	0.18182	0.1	4727.
5750	5.5429	0.36364	0.1	4702.3
5751	5.5429	0.54545	0.1	4678.3
5752	5.5429	0.72727	0.1	4655.2
5753	5.5429	0.90909	0.1	4632.9
5754	5.5429	1.0909	0.1	4611.6
5755	5.5429	1.2727	0.1	4591.7
5756	5.5429	1.4545	0.1	4573.2
5757	5.5429	1.6364	0.1	4556.2
5758	5.5429	1.8182	0.1	4541.1
5759	5.5429	2.	0.1	4527.8
5760	5.5429	2.1818	0.1	4516.5
5761	5.5429	2.3636	0.1	4507.4
5762	5.5429	2.5455	0.1	4500.5
5763	5.5429	2.7273	0.1	4495.8
5764	5.5429	2.9091	0.1	4493.5
5765	5.5429	3.0909	0.1	4493.5
5766	5.5429	3.2727	0.1	4495.8
5767	5.5429	3.4545	0.1	4500.5
5768	5.5429	3.6364	0.1	4507.4
5769	5.5429	3.8182	0.1	4516.5
5770	5.5429	4.	0.1	4527.8
5771	5.5429	4.1818	0.1	4541.1
5772	5.5429	4.3636	0.1	4556.2
5773	5.5429	4.5455	0.1	4573.2
5774	5.5429	4.7273	0.1	4591.7
5775	5.5429	4.9091	0.1	4611.6
5776	5.5429	5.0909	0.1	4632.9
5777	5.5429	5.2727	0.1	4655.2
5778	5.5429	5.4545	0.1	4678.3
5779	5.5429	5.6364	0.1	4702.3
5780	5.5429	5.8182	0.1	4727.
5781	5.7276	0.18182	0.1	4667.
5782	5.7276	0.36364	0.1	4644.1
5783	5.7276	0.54545	0.1	4621.9
5784	5.7276	0.72727	0.1	4600.5
5785	5.7276	0.90909	0.1	4579.9
5786	5.7276	1.0909	0.1	4560.2
5787	5.7276	1.2727	0.1	4541.8
5788	5.7276	1.4545	0.1	4524.6
5789	5.7276	1.6364	0.1	4509.
5790	5.7276	1.8182	0.1	4495.
5791	5.7276	2.	0.1	4482.7
5792	5.7276	2.1818	0.1	4472.3
5793	5.7276	2.3636	0.1	4463.9
5794	5.7276	2.5455	0.1	4457.5
5795	5.7276	2.7273	0.1	4453.2
5796	5.7276	2.9091	0.1	4451.
5797	5.7276	3.0909	0.1	4451.
5798	5.7276	3.2727	0.1	4453.2
5799	5.7276	3.4545	0.1	4457.5
5800	5.7276	3.6364	0.1	4463.9
5801	5.7276	3.8182	0.1	4472.3
5802	5.7276	4.	0.1	4482.7
5803	5.7276	4.1818	0.1	4495.
5804	5.7276	4.3636	0.1	4509.
5805	5.7276	4.5455	0.1	4524.6
5806	5.7276	4.7273	0.1	4541.8
5807	5.7276	4.9091	0.1	4560.2
5808	5.7276	5.0909	0.1	4579.9
5809	5.7276	5.2727	0.1	4600.5
5810	5.7276	5.4545	0.1	4621.9
5811	5.7276	5.6364	0.1	4644.1
5812	5.7276	5.8182	0.1	4667.
5813	5.9124	0.18182	0.1	4607.6
5814	5.9124	0.36364	0.1	4586.3
5815	5.9124	0.54545	0.1	4565.8
5816	5.9124	0.72727	0.1	4545.9
5817	5.9124	0.90909	0.1	4526.9
5818	5.9124	1.0909	0.1	4508.7
5819	5.9124	1.2727	0.1	4491.6
5820	5.9124	1.4545	0.1	4475.8
5821	5.9124	1.6364	0.1	4461.4
5822	5.9124	1.8182	0.1	4448.4
5823	5.9124	2.	0.1	4437.1
5824	5.9124	2.1818	0.1	4427.5
5825	5.9124	2.3636	0.1	4419.7
5826	5.9124	2.5455	0.1	4413.8
5827	5.9124	2.7273	0.1	4409.8
5828	5.9124	2.9091	0.1	4407.8
5829	5.9124	3.0909	0.1	4407.8
5830	5.9124	3.2727	0.1	4409.8
5831	5.9124	3.4545	0.1	4413.8
5832	5.9124	3.6364	0.1	4419.7
5833	5.9124	3.8182	0.1	4427.5
5834	5.9124	4.	0.1	4437.1
5835	5.9124	4.1818	0.1	4448.4
5836	5.9124	4.3636	0.1	4461.4
5837	5.9124	4.5455	0.1	4475.8
5838	5.9124	4.7273	0.1	4491.6
5839	5.9124	4.9091	0.1	4508.7
5840	5.9124	5.0909	0.1	4526.9
5841	5.9124	5.2727	0.1	4545.9
5842	5.9124	5.4545	0.1	4565.8
5843	5.9124	5.6364	0.1	4586.3
5844	5.9124	5.8182	0.1	4607.6
5845	6.0971	0.18182	0.1	4548.6
5846	6.0971	0.36364	0.1	4528.9
5847	6.0971	0.54545	0.1	4509.9
5848	6.0971	0.72727	0.1	4491.5
5849	6.0971	0.90909	0.1	4473.9
5850	6.0971	1.0909	0.1	4457.1
5851	6.0971	1.2727	0.1	4441.3
5852	6.0971	1.4545	0.1	4426.7
5853	6.0971	1.6364	0.1	4413.3
5854	6.0971	1.8182	0.1	4401.4
5855	6.0971	2.	0.1	4390.9
5856	6.0971	2.1818	0.1	4382.
5857	6.0971	2.3636	0.1	4374.8
5858	6.0971	2.5455	0.1	4369.4
5859	6.0971	2.7273	0.1	4365.7
5860	6.0971	2.9091	0.1	4363.9
5861	6.0971	3.0909	0.1	4363.9
5862	6.0971	3.2727	0.1	4365.7
5863	6.0971	3.4545	0.1	4369.4
5864	6.0971	3.6364	0.1	4374.8
5865	6.0971	3.8182	0.1	4382.
5866	6.0971	4.	0.1	4390.9
5867	6.0971	4.1818	0.1	4401.4
5868	6.0971	4.3636	0.1	4413.3
5869	6.0971	4.5455	0.1	4426.7
5870	6.0971	4.7273	0.1	4441.3
5871	6.0971	4.9091	0.1	4457.1
5872	6.0971	5.0909	0.1	4473.9
5873	6.0971	5.2727	0.1	4491.5
5874	6.0971	5.4545	0.1	4509.9
5875	6.0971	5.6364	0.1	4528.9
5876	6.0971	5.8182	0.1	4548.6
5877	6.2819	0.18182	0.1	4490.2
5878	6.2819	0.36364	0.1	4471.8
5879	6.2819	0.54545	0.1	4454.2
5880	6.2819	0.72727	0.1	4437.2
5881	6.2819	0.90909	0.1	4420.9
5882	6.2819	1.0909	0.1	4405.4
5883	6.2819	1.2727	0.1	4390.8
5884	6.2819	1.4545	0.1	4377.3
5885	6.2819	1.6364	0.1	4364.9
5886	6.2819	1.8182	0.1	4353.9
5887	6.2819	2.	0.1	4344.2
5888	6.2819	2.1818	0.1	4336.1
5889	6.2819	2.3636	0.1	4329.4
5890	6.2819	2.5455	0.1	4324.4
5891	6.2819	2.7273	0.1	4321.
5892	6.2819	2.9091	0.1	4319.3
5893	6.2819	3.0909	0.1	4319.3
5894	6.2819	3.2727	0.1	4321.
5895	6.2819	3.4545	0.1	4324.4
5896	6.2819	3.6364	0.1	4329.4
5897	6.2819	3.8182	0.1	4336.1
5898	6.2819	4.	0.1	4344.2
5899	6.2819	4.1818	0.1	4353.9
5900	6.2819	4.3636	0.1	4364.9
5901	6.2819	4.5455	0.1	4377.3
5902	6.2819	4.7273	0.1	4390.8
5903	6.2819	4.9091	0.1	4405.4
5904	6.2819	5.0909	0.1	4420.9
5905	6.2819	5.2727	0.1	4437.2
5906	6.2819	5.4545	0.1	4454.2
5907	6.2819	5.6364	0.1	4471.8
5908	6.2819	5.8182	0.1	4490.2
5909	6.4667	0.18182	0.1	4432.1
5910	6.4667	0.36364	0.1	4415.
5911	6.4667	0.54545	0.1	4398.8
5912	6.4667	0.72727	0.1	4383.
5913	6.4667	0.90909	0.1	4367.9
5914	6.4667	1.0909	0.1	4353.6
5915	6.4667	1.2727	0.1	4340.1
5916	6.4667	1.4545	0.1	4327.6
5917	6.4667	1.6364	0.1	4316.2
5918	6.4667	1.8182	0.1	4306.
5919	6.4667	2.	0.1	4297.1
5920	6.4667	2.1818	0.1	4289.6
5921	6.4667	2.3636	0.1	4283.4
5922	6.4667	2.5455	0.1	4278.8
5923	6.4667	2.7273	0.1	4275.7
5924	6.4667	2.9091	0.1	4274.1
5925	6.4667	3.0909	0.1	4274.1
5926	6.4667	3.2727	0.1	4275.7
5927	6.4667	3.4545	0.1	4278.8
5928	6.4667	3.6364	0.1	4283.4
5929	6.4667	3.8182	0.1	4289.6
5930	6.4667	4.	0.1	4297.1
5931	6.4667	4.1818	0.1	4306.
5932	6.4667	4.3636	0.1	4316.2
5933	6.4667	4.5455	0.1	4327.6
5934	6.4667	4.7273	0.1	4340.1
5935	6.4667	4.9091	0.1	4353.6
5936	6.4667	5.0909	0.1	4367.9
5937	6.4667	5.2727	0.1	4383.
5938	6.4667	5.4545	0.1	4398.8
5939	6.4667	5.6364	0.1	4415.
5940	6.4667	5.8182	0.1	4432.1
5941	6.6514	0.18182	0.1	4374.5
5942	6.6514	0.36364	0.1	4358.6
5943	6.6514	0.54545	0.1	4343.5
5944	6.6514	0.72727	0.1	4329.
5945	6.6514	0.90909	0.1	4315.
5946	6.6514	1.0909	0.1	4301.8
5947	6.6514	1.2727	0.1	4289.3
5948	6.6514	1.4545	0.1	4277.8
5949	6.6514	1.6364	0.1	4267.3
5950	6.6514	1.8182	0.1	4257.8
5951	6.6514	2.	0.1	4249.6
5952	6.6514	2.1818	0.1	4242.6
5953	6.6514	2.3636	0.1	4237.
5954	6.6514	2.5455	0.1	4232.7
5955	6.6514	2.7273	0.1	4229.8
5956	6.6514	2.9091	0.1	4228.4
5957	6.6514	3.0909	0.1	4228.4
5958	6.6514	3.2727	0.1	4229.8
5959	6.6514	3.4545	0.1	4232.7
5960	6.6514	3.6364	0.1	4237.
5961	6.6514	3.8182	0.1	4242.6
5962	6.6514	4.	0.1	4249.6
5963	6.6514	4.1818	0.1	4257.8
5964	6.6514	4.3636	0.1	4267.3
5965	6.6514	4.5455	0.1	4277.8
5966	6.6514	4.7273	0.1	4289.3
5967	6.6514	4.9091	0.1	4301.8
5968	6.6514	5.0909	0.1	4315.
5969	6.6514	5.2727	0.1	4329.
5970	6.6514	5.4545	0.1	4343.5
5971	6.6514	5.6364	0.1	4358.6
5972	6.6514	5.8182	0.1	4374.5
5973	6.8362	0.18182	0.1	4317.4
5974	6.8362	0.36364	0.1	4302.5
5975	6.8362	0.54545	0.1	4288.5
5976	6.8362	0.72727	0.1	4275.1
5977	6.8362	0.90909	0.1	4262.1
5978	6.8362	1.0909	0.1	4249.9
5979	6.8362	1.2727	0.1	4238.4
5980	6.8362	1.4545	0.1	4227.7
5981	6.8362	1.6364	0.1	4218.
5982	6.8362	1.8182	0.1	4209.3
5983	6.8362	2.	0.1	4201.7
5984	6.8362	2.1818	0.1	4195.3
5985	6.8362	2.3636	0.1	4190.1
5986	6.8362	2.5455	0.1	4186.1
5987	6.8362	2.7273	0.1	4183.4
5988	6.8362	2.9091	0.1	4182.1
5989	6.8362	3.0909	0.1	4182.1
5990	6.8362	3.2727	0.1	4183.4
5991	6.8362	3.4545	0.1	4186.1
5992	6.8362	3.6364	0.1	4190.1
5993	6.8362	3.8182	0.1	4195.3
5994	6.8362	4.	0.1	4201.7
5995	6.8362	4.1818	0.1	4209.3
5996	6.8362	4.3636	0.1	4218.
5997	6.8362	4.5455	0.1	4227.7
5998	6.8362	4.7273	0.1	4238.4
5999	6.8362	4.9091	0.1	4249.9
6000	6.8362	5.0909	0.1	4262.1
6001	6.8362	5.2727	0.1	4275.1
6002	6.8362	5.4545	0.1	4288.5
6003	6.8362	5.6364	0.1	4302.5
6004	6.8362	5.8182	0.1	4317.4
6005	7.021	0.18182	0.1	4260.5
6006	7.021	0.36364	0.1	4246.7
6007	7.021	0.54545	0.1	4233.7
6008	7.021	0.72727	0.1	4221.3
6009	7.021	0.90909	0.1	4209.3
6010	7.021	1.0909	0.1	4198.
6011	7.021	1.2727	0.1	4187.3
6012	7.021	1.4545	0.1	4177.5
6013	7.021	1.6364	0.1	4168.5
6014	7.021	1.8182	0.1	4160.5
6015	7.021	2.	0.1	4153.5
6016	7.021	2.1818	0.1	4147.5
6017	7.021	2.3636	0.1	4142.7
6018	7.021	2.5455	0.1	4139.1
6019	7.021	2.7273	0.1	4136.6
6020	7.021	2.9091	0.1	4135.4
6021	7.021	3.0909	0.1	4135.4
6022	7.021	3.2727	0.1	4136.6
6023	7.021	3.4545	0.1	4139.1
6024	7.021	3.6364	0.1	4142.7
6025	7.021	3.8182	0.1	4147.5
6026	7.021	4.	0.1	4153.5
6027	7.021	4.1818	0.1	4160.5
6028	7.021	4.3636	0.1	4168.5
6029	7.021	4.5455	0.1	4177.5
6030	7.021	4.7273	0.1	4187.3
6031	7.021	4.9091	0.1	4198.
6032	7.021	5.0909	0.1	4209.3
6033	7.021	5.2727	0.1	4221.3
6034	7.021	5.4545	0.1	4233.7
6035	7.021	5.6364	0.1	4246.7
6036	7.021	5.8182	0.1	4260.5
6037	7.2057	0.18182	0.1	4204.1
6038	7.2057	0.36364	0.1	4191.1
6039	7.2057	0.54545	0.1	4179.1
6040	7.2057	0.72727	0.1	4167.6
6041	7.2057	0.90909	0.1	4156.5
6042	7.2057	1.0909	0.1	4146.1
6043	7.2057	1.2727	0.1	4136.2
6044	7.2057	1.4545	0.1	4127.1
6045	7.2057	1.6364	0.1	4118.8
6046	7.2057	1.8182	0.1	4111.4
6047	7.2057	2.	0.1	4104.9
6048	7.2057	2.1818	0.1	4099.5
6049	7.2057	2.3636	0.1	4095.
6050	7.2057	2.5455	0.1	4091.6
6051	7.2057	2.7273	0.1	4089.4
6052	7.2057	2.9091	0.1	4088.2
6053	7.2057	3.0909	0.1	4088.2
6054	7.2057	3.2727	0.1	4089.4
6055	7.2057	3.4545	0.1	4091.6
6056	7.2057	3.6364	0.1	4095.
6057	7.2057	3.8182	0.1	4099.5
6058	7.2057	4.	0.1	4104.9
6059	7.2057	4.1818	0.1	4111.4
6060	7.2057	4.3636	0.1	4118.8
6061	7.2057	4.5455	0.1	4127.1
6062	7.2057	4.7273	0.1	4136.2
6063	7.2057	4.9091	0.1	4146.1
6064	7.2057	5.0909	0.1	4156.5
6065	7.2057	5.2727	0.1	4167.6
6066	7.2057	5.4545	0.1	4179.1
6067	7.2057	5.6364	0.1	4191.1
6068	7.2057	5.8182	0.1	4204.1
6069	7.3905	0.18182	0.1	4148.
6070	7.3905	0.36364	0.1	4135.8
6071	7.3905	0.54545	0.1	4124.7
6072	7.3905	0.72727	0.1	4114.1
6073	7.3905	0.90909	0.1	4103.8
6074	7.3905	1.0909	0.1	4094.1
6075	7.3905	1.2727	0.1	4085.
6076	7.3905	1.4545	0.1	4076.6
6077	7.3905	1.6364	0.1	4069.
6078	7.3905	1.8182	0.1	4062.1
6079	7.3905	2.	0.1	4056.1
6080	7.3905	2.1818	0.1	4051.1
6081	7.3905	2.3636	0.1	4047.
6082	7.3905	2.5455	0.1	4043.9
6083	7.3905	2.7273	0.1	4041.8
6084	7.3905	2.9091	0.1	4040.7
6085	7.3905	3.0909	0.1	4040.7
6086	7.3905	3.2727	0.1	4041.8
6087	7.3905	3.4545	0.1	4043.9
6088	7.3905	3.6364	0.1	4047.
6089	7.3905	3.8182	0.1	4051.1
6090	7.3905	4.	0.1	4056.1
6091	7.3905	4.1818	0.1	4062.1
6092	7.3905	4.3636	0.1	4069.
6093	7.3905	4.5455	0.1	4076.6
6094	7.3905	4.7273	0.1	4085.
6095	7.3905	4.9091	0.1	4094.1
6096	7.3905	5.0909	0.1	4103.8
6097	7.3905	5.2727	0.1	4114.1
6098	7.3905	5.4545	0.1	4124.7
6099	7.3905	5.6364	0.1	4135.8
6100	7.3905	5.8182	0.1	4148.
6101	7.5752	0.18182	0.1	4092.2
6102	7.5752	0.36364	0.1	4080.8
6103	7.5752	0.54545	0.1	4070.5
6104	7.5752	0.72727	0.1	4060.7
6105	7.5752	0.90909	0.1	4051.2
6106	7.5752	1.0909	0.1	4042.2
6107	7.5752	1.2727	0.1	4033.8
6108	7.5752	1.4545	0.1	4026.
6109	7.5752	1.6364	0.1	4019.
6110	7.5752	1.8182	0.1	4012.6
6111	7.5752	2.	0.1	4007.1
6112	7.5752	2.1818	0.1	4002.4
6113	7.5752	2.3636	0.1	3998.6
6114	7.5752	2.5455	0.1	3995.8
6115	7.5752	2.7273	0.1	3993.9
6116	7.5752	2.9091	0.1	3992.9
6117	7.5752	3.0909	0.1	3992.9
6118	7.5752	3.2727	0.1	3993.9
6119	7.5752	3.4545	0.1	3995.8
6120	7.5752	3.6364	0.1	3998.6
6121	7.5752	3.8182	0.1	4002.4
6122	7.5752	4.	0.1	4007.1
6123	7.5752	4.1818	0.1	4012.6
6124	7.5752	4.3636	0.1	4019.
6125	7.5752	4.5455	0.1	4026.
6126	7.5752	4.7273	0.1	4033.8
6127	7.5752	4.9091	0.1	4042.2
6128	7.5752	5.0909	0.1	4051.2
6129	7.5752	5.2727	0.1	4060.7
6130	7.5752	5.4545	0.1	4070.5
6131	7.5752	5.6364	0.1	4080.8
6132	7.5752	5.8182	0.1	4092.2
6133	7.76	0.18182	0.1	4036.8
6134	7.76	0.36364	0.1	4026.1
6135	7.76	0.54545	0.1	4016.5
6136	7.76	0.72727	0.1	4007.4
6137	7.76	0.90909	0.1	3998.6
6138	7.76	1.0909	0.1	3990.3
6139	7.76	1.2727	0.1	3982.5
6140	7.76	1.4545	0.1	3975.4
6141	7.76	1.6364	0.1	3968.8
6142	7.76	1.8182	0.1	3963.
6143	7.76	2.	0.1	3957.9
6144	7.76	2.1818	0.1	3953.6
6145	7.76	2.3636	0.1	3950.1
6146	7.76	2.5455	0.1	3947.4
6147	7.76	2.7273	0.1	3945.6
6148	7.76	2.9091	0.1	3944.7
6149	7.76	3.0909	0.1	3944.7
6150	7.76	3.2727	0.1	3945.6
6151	7.76	3.4545	0.1	3947.4
6152	7.76	3.6364	0.1	3950.1
6153	7.76	3.8182	0.1	3953.6
6154	7.76	4.	0.1	3957.9
6155	7.76	4.1818	0.1	3963.
6156	7.76	4.3636	0.1	3968.8
6157	7.76	4.5455	0.1	3975.4
6158	7.76	4.7273	0.1	3982.5
6159	7.76	4.9091	0.1	3990.3
6160	7.76	5.0909	0.1	3998.6
6161	7.76	5.2727	0.1	4007.4
6162	7.76	5.4545	0.1	4016.5
6163	7.76	5.6364	0.1	4026.1
6164	7.76	5.8182	0.1	4036.8
6165	7.9448	0.18182	0.1	3981.7
6166	7.9448	0.36364	0.1	3971.6
6167	7.9448	0.54545	0.1	3962.7
6168	7.9448	0.72727	0.1	3954.2
6169	7.9448	0.90909	0.1	3946.1
6170	7.9448	1.0909	0.1	3938.5
6171	7.9448	1.2727	0.1	3931.3
6172	7.9448	1.4545	0.1	3924.6
6173	7.9448	1.6364	0.1	3918.6
6174	7.9448	1.8182	0.1	3913.2
6175	7.9448	2.	0.1	3908.5
6176	7.9448	2.1818	0.1	3904.5
6177	7.9448	2.3636	0.1	3901.2
6178	7.9448	2.5455	0.1	3898.8
6179	7.9448	2.7273	0.1	3897.2
6180	7.9448	2.9091	0.1	3896.3
6181	7.9448	3.0909	0.1	3896.3
6182	7.9448	3.2727	0.1	3897.2
6183	7.9448	3.4545	0.1	3898.8
6184	7.9448	3.6364	0.1	3901.2
6185	7.9448	3.8182	0.1	3904.5
6186	7.9448	4.	0.1	3908.5
6187	7.9448	4.1818	0.1	3913.2
6188	7.9448	4.3636	0.1	3918.6
6189	7.9448	4.5455	0.1	3924.6
6190	7.9448	4.7273	0.1	3931.3
6191	7.9448	4.9091	0.1	3938.5
6192	7.9448	5.0909	0.1	3946.1
6193	7.9448	5.2727	0.1	3954.2
6194	7.9448	5.4545	0.1	3962.7
6195	7.9448	5.6364	0.1	3971.6
6196	7.9448	5.8182	0.1	3981.7
6197	8.1295	0.18182	0.1	3926.8
6198	8.1295	0.36364	0.1	3917.3
6199	8.1295	0.54545	0.1	3909.1
6200	8.1295	0.72727	0.1	3901.2
6201	8.1295	0.90909	0.1	3893.7
6202	8.1295	1.0909	0.1	3886.6
6203	8.1295	1.2727	0.1	3880.
6204	8.1295	1.4545	0.1	3873.8
6205	8.1295	1.6364	0.1	3868.2
6206	8.1295	1.8182	0.1	3863.2
6207	8.1295	2.	0.1	3858.9
6208	8.1295	2.1818	0.1	3855.2
6209	8.1295	2.3636	0.1	3852.2
6210	8.1295	2.5455	0.1	3850.
6211	8.1295	2.7273	0.1	3848.5
6212	8.1295	2.9091	0.1	3847.7
6213	8.1295	3.0909	0.1	3847.7
6214	8.1295	3.2727	0.1	3848.5
6215	8.1295	3.4545	0.1	3850.
6216	8.1295	3.6364	0.1	3852.2
6217	8.1295	3.8182	0.1	3855.2
6218	8.1295	4.	0.1	3858.9
6219	8.1295	4.1818	0.1	3863.2
6220	8.1295	4.3636	0.1	3868.2
6221	8.1295	4.5455	0.1	3873.8
6222	8.1295	4.7273	0.1	3880.
6223	8.1295	4.9091	0.1	3886.6
6224	8.1295	5.0909	0.1	3893.7
6225	8.1295	5.2727	0.1	3901.2
6226	8.1295	5.4545	0.1	3909.1
6227	8.1295	5.6364	0.1	3917.3
6228	8.1295	5.8182	0.1	3926.8
6229	8.3143	0.18182	0.1	3872.2
6230	8.3143	0.36364	0.1	3863.3
6231	8.3143	0.54545	0.1	3855.7
6232	8.3143	0.72727	0.1	3848.4
6233	8.3143	0.90909	0.1	3841.4
6234	8.3143	1.0909	0.1	3834.8
6235	8.3143	1.2727	0.1	3828.7
6236	8.3143	1.4545	0.1	3823.
6237	8.3143	1.6364	0.1	3817.8
6238	8.3143	1.8182	0.1	3813.2
6239	8.3143	2.	0.1	3809.2
6240	8.3143	2.1818	0.1	3805.8
6241	8.3143	2.3636	0.1	3803.
6242	8.3143	2.5455	0.1	3801.
6243	8.3143	2.7273	0.1	3799.6
6244	8.3143	2.9091	0.1	3798.9
6245	8.3143	3.0909	0.1	3798.9
6246	8.3143	3.2727	0.1	3799.6
6247	8.3143	3.4545	0.1	3801.
6248	8.3143	3.6364	0.1	3803.
6249	8.3143	3.8182	0.1	3805.8
6250	8.3143	4.	0.1	3809.2
6251	8.3143	4.1818	0.1	3813.2
6252	8.3143	4.3636	0.1	3817.8
6253	8.3143	4.5455	0.1	3823.
6254	8.3143	4.7273	0.1	3828.7
6255	8.3143	4.9091	0.1	3834.8
6256	8.3143	5.0909	0.1	3841.4
6257	8.3143	5.2727	0.1	3848.4
6258	8.3143	5.4545	0.1	3855.7
6259	8.3143	5.6364	0.1	3863.3
6260	8.3143	5.8182	0.1	3872.2
6261	8.499	0.18182	0.1	3818.
6262	8.499	0.36364	0.1	3809.5
6263	8.499	0.54545	0.1	3802.4
6264	8.499	0.72727	0.1	3795.7
6265	8.499	0.90909	0.1	3789.2
6266	8.499	1.0909	0.1	3783.1
6267	8.499	1.2727	0.1	3777.4
6268	8.499	1.4545	0.1	3772.2
6269	8.499	1.6364	0.1	3767.4
6270	8.499	1.8182	0.1	3763.1
6271	8.499	2.	0.1	3759.4
6272	8.499	2.1818	0.1	3756.3
6273	8.499	2.3636	0.1	3753.7
6274	8.499	2.5455	0.1	3751.8
6275	8.499	2.7273	0.1	3750.5
6276	8.499	2.9091	0.1	3749.9
6277	8.499	3.0909	0.1	3749.9
6278	8.499	3.2727	0.1	3750.5
6279	8.499	3.4545	0.1	3751.8
6280	8.499	3.6364	0.1	3753.7
6281	8.499	3.8182	0.1	3756.3
6282	8.499	4.	0.1	3759.4
6283	8.499	4.1818	0.1	3763.1
6284	8.499	4.3636	0.1	3767.4
6285	8.499	4.5455	0.1	3772.2
6286	8.499	4.7273	0.1	3777.4
6287	8.499	4.9091	0.1	3783.1
6288	8.499	5.0909	0.1	3789.2
6289	8.499	5.2727	0.1	3795.7
6290	8.499	5.4545	0.1	3802.4
6291	8.499	5.6364	0.1	3809.5
6292	8.499	5.8182	0.1	3818.
6293	8.6838	0.18182	0.1	3763.9
6294	8.6838	0.36364	0.1	3755.9
6295	8.6838	0.54545	0.1	3749.4
6296	8.6838	0.72727	0.1	3743.1
6297	8.6838	0.90909	0.1	3737.1
6298	8.6838	1.0909	0.1	3731.5
6299	8.6838	1.2727	0.1	3726.2
6300	8.6838	1.4545	0.1	3721.3
6301	8.6838	1.6364	0.1	3716.9
6302	8.6838	1.8182	0.1	3713.
6303	8.6838	2.	0.1	3709.5
6304	8.6838	2.1818	0.1	3706.6
6305	8.6838	2.3636	0.1	3704.3
6306	8.6838	2.5455	0.1	3702.5
6307	8.6838	2.7273	0.1	3701.3
6308	8.6838	2.9091	0.1	3700.7
6309	8.6838	3.0909	0.1	3700.7
6310	8.6838	3.2727	0.1	3701.3
6311	8.6838	3.4545	0.1	3702.5
6312	8.6838	3.6364	0.1	3704.3
6313	8.6838	3.8182	0.1	3706.6
6314	8.6838	4.	0.1	3709.5
6315	8.6838	4.1818	0.1	3713.
6316	8.6838	4.3636	0.1	3716.9
6317	8.6838	4.5455	0.1	3721.3
6318	8.6838	4.7273	0.1	3726.2
6319	8.6838	4.9091	0.1	3731.5
6320	8.6838	5.0909	0.1	3737.1
6321	8.6838	5.2727	0.1	3743.1
6322	8.6838	5.4545	0.1	3749.4
6323	8.6838	5.6364	0.1	3755.9
6324	8.6838	5.8182	0.1	3763.9
6325	8.8686	0.18182	0.1	3710.2
6326	8.8686	0.36364	0.1	3702.6
6327	8.8686	0.54545	0.1	3696.5
6328	8.8686	0.72727	0.1	3690.7
6329	8.8686	0.90909	0.1	3685.1
6330	8.8686	1.0909	0.1	3679.9
6331	8.8686	1.2727	0.1	3675.
6332	8.8686	1.4545	0.1	3670.5
6333	8.8686	1.6364	0.1	3666.4
6334	8.8686	1.8182	0.1	3662.8
6335	8.8686	2.	0.1	3659.6
6336	8.8686	2.1818	0.1	3656.9
6337	8.8686	2.3636	0.1	3654.8
6338	8.8686	2.5455	0.1	3653.1
6339	8.8686	2.7273	0.1	3652.
6340	8.8686	2.9091	0.1	3651.5
6341	8.8686	3.0909	0.1	3651.5
6342	8.8686	3.2727	0.1	3652.
6343	8.8686	3.4545	0.1	3653.1
6344	8.8686	3.6364	0.1	3654.8
6345	8.8686	3.8182	0.1	3656.9
6346	8.8686	4.	0.1	3659.6
6347	8.8686	4.1818	0.1	3662.8
6348	8.8686	4.3636	0.1	3666.4
6349	8.8686	4.5455	0.1	3670.5
6350	8.8686	4.7273	0.1	3675.
6351	8.8686	4.9091	0.1	3679.9
6352	8.8686	5.0909	0.1	3685.1
6353	8.8686	5.2727	0.1	3690.7
6354	8.8686	5.4545	0.1	3696.5
6355	8.8686	5.6364	0.1	3702.6
6356	8.8686	5.8182	0.1	3710.2
6357	9.0533	0.18182	0.1	3656.7
6358	9.0533	0.36364	0.1	3649.5
6359	9.0533	0.54545	0.1	3643.8
6360	9.0533	0.72727	0.1	3638.4
6361	9.0533	0.90909	0.1	3633.3
6362	9.0533	1.0909	0.1	3628.4
6363	9.0533	1.2727	0.1	3623.9
6364	9.0533	1.4545	0.1	3619.8
6365	9.0533	1.6364	0.1	3616.
6366	9.0533	1.8182	0.1	3612.6
6367	9.0533	2.	0.1	3609.7
6368	9.0533	2.1818	0.1	3607.2
6369	9.0533	2.3636	0.1	3605.2
6370	9.0533	2.5455	0.1	3603.7
6371	9.0533	2.7273	0.1	3602.6
6372	9.0533	2.9091	0.1	3602.1
6373	9.0533	3.0909	0.1	3602.1
6374	9.0533	3.2727	0.1	3602.6
6375	9.0533	3.4545	0.1	3603.7
6376	9.0533	3.6364	0.1	3605.2
6377	9.0533	3.8182	0.1	3607.2
6378	9.0533	4.	0.1	3609.7
6379	9.0533	4.1818	0.1	3612.6
6380	9.0533	4.3636	0.1	3616.
6381	9.0533	4.5455	0.1	3619.8
6382	9.0533	4.7273	0.1	3623.9
6383	9.0533	4.9091	0.1	3628.4
6384	9.0533	5.0909	0.1	3633.3
6385	9.0533	5.2727	0.1	3638.4
6386	9.0533	5.4545	0.1	3643.8
6387	9.0533	5.6364	0.1	3649.5
6388	9.0533	5.8182	0.1	3656.7
6389	9.2381	0.18182	0.1	3603.4
6390	9.2381	0.36364	0.1	3596.6
6391	9.2381	0.54545	0.1	3591.3
6392	9.2381	0.72727	0.1	3586.3
6393	9.2381	0.90909	0.1	3581.5
6394	9.2381	1.0909	0.1	3577.1
6395	9.2381	1.2727	0.1	3572.9
6396	9.2381	1.4545	0.1	3569.
6397	9.2381	1.6364	0.1	3565.5
6398	9.2381	1.8182	0.1	3562.4
6399	9.2381	2.	0.1	3559.7
6400	9.2381	2.1818	0.1	3557.4
6401	9.2381	2.3636	0.1	3555.5
6402	9.2381	2.5455	0.1	3554.1
6403	9.2381	2.7273	0.1	3553.2
6404	9.2381	2.9091	0.1	3552.7
6405	9.2381	3.0909	0.1	3552.7
6406	9.2381	3.2727	0.1	3553.2
6407	9.2381	3.4545	0.1	3554.1
6408	9.2381	3.6364	0.1	3555.5
6409	9.2381	3.8182	0.1	3557.4
6410	9.2381	4.	0.1	3559.7
6411	9.2381	4.1818	0.1	3562.4
6412	9.2381	4.3636	0.1	3565.5
6413	9.2381	4.5455	0.1	3569.
6414	9.2381	4.7273	0.1	3572.9
6415	9.2381	4.9091	0.1	3577.1
6416	9.2381	5.0909	0.1	3581.5
6417	9.2381	5.2727	0.1	3586.3
6418	9.2381	5.4545	0.1	3591.3
6419	9.2381	5.6364	0.1	3596.6
6420	9.2381	5.8182	0.1	3603.4
6421	9.4229	0.18182	0.1	3550.4
6422	9.4229	0.36364	0.1	3543.9
6423	9.4229	0.54545	0.1	3539.
6424	9.4229	0.72727	0.1	3534.3
6425	9.4229	0.90909	0.1	3529.9
6426	9.4229	1.0909	0.1	3525.8
6427	9.4229	1.2727	0.1	3521.9
6428	9.4229	1.4545	0.1	3518.3
6429	9.4229	1.6364	0.1	3515.1
6430	9.4229	1.8182	0.1	3512.2
6431	9.4229	2.	0.1	3509.7
6432	9.4229	2.1818	0.1	3507.6
6433	9.4229	2.3636	0.1	3505.9
6434	9.4229	2.5455	0.1	3504.6
6435	9.4229	2.7273	0.1	3503.7
6436	9.4229	2.9091	0.1	3503.3
6437	9.4229	3.0909	0.1	3503.3
6438	9.4229	3.2727	0.1	3503.7
6439	9.4229	3.4545	0.1	3504.6
6440	9.4229	3.6364	0.1	3505.9
6441	9.4229	3.8182	0.1	3507.6
6442	9.4229	4.	0.1	3509.7
6443	9.4229	4.1818	0.1	3512.2
6444	9.4229	4.3636	0.1	3515.1
6445	9.4229	4.5455	0.1	3518.3
6446	9.4229	4.7273	0.1	3521.9
6447	9.4229	4.9091	0.1	3525.8
6448	9.4229	5.0909	0.1	3529.9
6449	9.4229	5.2727	0.1	3534.3
6450	9.4229	5.4545	0.1	3539.
6451	9.4229	5.6364	0.1	3543.9
6452	9.4229	5.8182	0.1	3550.4
6453	9.6076	0.18182	0.1	3497.6
6454	9.6076	0.36364	0.1	3491.4
6455	9.6076	0.54545	0.1	3486.8
6456	9.6076	0.72727	0.1	3482.5
6457	9.6076	0.90909	0.1	3478.4
6458	9.6076	1.0909	0.1	3474.6
6459	9.6076	1.2727	0.1	3471.
6460	9.6076	1.4545	0.1	3467.7
6461	9.6076	1.6364	0.1	3464.7
6462	9.6076	1.8182	0.1	3462.1
6463	9.6076	2.	0.1	3459.7
6464	9.6076	2.1818	0.1	3457.8
6465	9.6076	2.3636	0.1	3456.2
6466	9.6076	2.5455	0.1	3455.
6467	9.6076	2.7273	0.1	3454.2
6468	9.6076	2.9091	0.1	3453.8
6469	9.6076	3.0909	0.1	3453.8
6470	9.6076	3.2727	0.1	3454.2
6471	9.6076	3.4545	0.1	3455.
6472	9.6076	3.6364	0.1	3456.2
6473	9.6076	3.8182	0.1	3457.8
6474	9.6076	4.	0.1	3459.7
6475	9.6076	4.1818	0.1	3462.1
6476	9.6076	4.3636	0.1	3464.7
6477	9.6076	4.5455	0.1	3467.7
6478	9.6076	4.7273	0.1	3471.
6479	9.6076	4.9091	0.1	3474.6
6480	9.6076	5.0909	0.1	3478.4
6481	9.6076	5.2727	0.1	3482.5
6482	9.6076	5.4545	0.1	3486.8
6483	9.6076	5.6364	0.1	3491.4
6484	9.6076	5.8182	0.1	3497.6
6485	9.7924	0.18182	0.1	3445.1
6486	9.7924	0.36364	0.1	3439.1
6487	9.7924	0.54545	0.1	3434.9
6488	9.7924	0.72727	0.1	3430.9
6489	9.7924	0.90909	0.1	3427.1
6490	9.7924	1.0909	0.1	3423.5
6491	9.7924	1.2727	0.1	3420.2
6492	9.7924	1.4545	0.1	3417.2
6493	9.7924	1.6364	0.1	3414.4
6494	9.7924	1.8182	0.1	3412.
6495	9.7924	2.	0.1	3409.8
6496	9.7924	2.1818	0.1	3408.
6497	9.7924	2.3636	0.1	3406.6
6498	9.7924	2.5455	0.1	3405.4
6499	9.7924	2.7273	0.1	3404.7
6500	9.7924	2.9091	0.1	3404.3
6501	9.7924	3.0909	0.1	3404.3
6502	9.7924	3.2727	0.1	3404.7
6503	9.7924	3.4545	0.1	3405.4
6504	9.7924	3.6364	0.1	3406.6
6505	9.7924	3.8182	0.1	3408.
6506	9.7924	4.	0.1	3409.8
6507	9.7924	4.1818	0.1	3412.
6508	9.7924	4.3636	0.1	3414.4
6509	9.7924	4.5455	0.1	3417.2
6510	9.7924	4.7273	0.1	3420.2
6511	9.7924	4.9091	0.1	3423.5
6512	9.7924	5.0909	0.1	3427.1
6513	9.7924	5.2727	0.1	3430.9
6514	9.7924	5.4545	0.1	3434.9
6515	9.7924	5.6364	0.1	3439.1
6516	9.7924	5.8182	0.1	3445.1
6517	9.9771	0.18182	0.1	3392.8
6518	9.9771	0.36364	0.1	3387.1
6519	9.9771	0.54545	0.1	3383.1
6520	9.9771	0.72727	0.1	3379.4
6521	9.9771	0.90909	0.1	3375.9
6522	9.9771	1.0909	0.1	3372.6
6523	9.9771	1.2727	0.1	3369.5
6524	9.9771	1.4545	0.1	3366.7
6525	9.9771	1.6364	0.1	3364.2
6526	9.9771	1.8182	0.1	3361.9
6527	9.9771	2.	0.1	3359.9
6528	9.9771	2.1818	0.1	3358.3
6529	9.9771	2.3636	0.1	3356.9
6530	9.9771	2.5455	0.1	3355.9
6531	9.9771	2.7273	0.1	3355.2
6532	9.9771	2.9091	0.1	3354.9
6533	9.9771	3.0909	0.1	3354.9
6534	9.9771	3.2727	0.1	3355.2
6535	9.9771	3.4545	0.1	3355.9
6536	9.9771	3.6364	0.1	3356.9
6537	9.9771	3.8182	0.1	3358.3
6538	9.9771	4.	0.1	3359.9
6539	9.9771	4.1818	0.1	3361.9
6540	9.9771	4.3636	0.1	3364.2
6541	9.9771	4.5455	0.1	3366.7
6542	9.9771	4.7273	0.1	3369.5
6543	9.9771	4.9091	0.1	3372.6
6544	9.9771	5.0909	0.1	3375.9
6545	9.9771	5.2727	0.1	3379.4
6546	9.9771	5.4545	0.1	3383.1
6547	9.9771	5.6364	0.1	3387.1
6548	9.9771	5.8182	0.1	3392.8
6549	10.162	0.18182	0.1	3340.7
6550	10.162	0.36364	0.1	3335.2
6551	10.162	0.54545	0.1	3331.5
6552	10.162	0.72727	0.1	3328.1
6553	10.162	0.90909	0.1	3324.9
6554	10.162	1.0909	0.1	3321.8
6555	10.162	1.2727	0.1	3319.
6556	10.162	1.4545	0.1	3316.4
6557	10.162	1.6364	0.1	3314.
6558	10.162	1.8182	0.1	3311.9
6559	10.162	2.	0.1	3310.1
6560	10.162	2.1818	0.1	3308.6
6561	10.162	2.3636	0.1	3307.3
6562	10.162	2.5455	0.1	3306.4
6563	10.162	2.7273	0.1	3305.8
6564	10.162	2.9091	0.1	3305.4
6565	10.162	3.0909	0.1	3305.4
6566	10.162	3.2727	0.1	3305.8
6567	10.162	3.4545	0.1	3306.4
6568	10.162	3.6364	0.1	3307.3
6569	10.162	3.8182	0.1	3308.6
6570	10.162	4.	0.1	3310.1
6571	10.162	4.1818	0.1	3311.9
6572	10.162	4.3636	0.1	3314.
6573	10.162	4.5455	0.1	3316.4
6574	10.162	4.7273	0.1	3319.
6575	10.162	4.9091	0.1	3321.8
6576	10.162	5.0909	0.1	3324.9
6577	10.162	5.2727	0.1	3328.1
6578	10.162	5.4545	0.1	3331.5
6579	10.162	5.6364	0.1	3335.2
6580	10.162	5.8182	0.1	3340.7
6581	10.347	0.18182	0.1	3288.8
6582	10.347	0.36364	0.1	3283.6
6583	10.347	0.54545	0.1	3280.1
6584	10.347	0.72727	0.1	3277.
6585	10.347	0.90909	0.1	3274.
6586	10.347	1.0909	0.1	3271.1
6587	10.347	1.2727	0.1	3268.5
6588	10.347	1.4545	0.1	3266.1
6589	10.347	1.6364	0.1	3263.9
6590	10.347	1.8182	0.1	3262.
6591	10.347	2.	0.1	3260.3
6592	10.347	2.1818	0.1	3258.9
6593	10.347	2.3636	0.1	3257.8
6594	10.347	2.5455	0.1	3256.9
6595	10.347	2.7273	0.1	3256.4
6596	10.347	2.9091	0.1	3256.1
6597	10.347	3.0909	0.1	3256.1
6598	10.347	3.2727	0.1	3256.4
6599	10.347	3.4545	0.1	3256.9
6600	10.347	3.6364	0.1	3257.8
6601	10.347	3.8182	0.1	3258.9
6602	10.347	4.	0.1	3260.3
6603	10.347	4.1818	0.1	3262.
6604	10.347	4.3636	0.1	3263.9
6605	10.347	4.5455	0.1	3266.1
6606	10.347	4.7273	0.1	3268.5
6607	10.347	4.9091	0.1	3271.1
6608	10.347	5.0909	0.1	3274.
6609	10.347	5.2727	0.1	3277.
6610	10.347	5.4545	0.1	3280.1
6611	10.347	5.6364	0.1	3283.6
6612	10.347	5.8182	0.1	3288.8
6613	10.531	0.18182	0.1	3237.2
6614	10.531	0.36364	0.1	3232.1
6615	10.531	0.54545	0.1	3228.9
6616	10.531	0.72727	0.1	3226.
6617	10.531	0.90909	0.1	3223.2
6618	10.531	1.0909	0.1	3220.6
6619	10.531	1.2727	0.1	3218.2
6620	10.531	1.4545	0.1	3216.
6621	10.531	1.6364	0.1	3214.
6622	10.531	1.8182	0.1	3212.2
6623	10.531	2.	0.1	3210.7
6624	10.531	2.1818	0.1	3209.4
6625	10.531	2.3636	0.1	3208.3
6626	10.531	2.5455	0.1	3207.5
6627	10.531	2.7273	0.1	3207.
6628	10.531	2.9091	0.1	3206.7
6629	10.531	3.0909	0.1	3206.7
6630	10.531	3.2727	0.1	3207.
6631	10.531	3.4545	0.1	3207.5
6632	10.531	3.6364	0.1	3208.3
6633	10.531	3.8182	0.1	3209.4
6634	10.531	4.	0.1	3210.7
6635	10.531	4.1818	0.1	3212.2
6636	10.531	4.3636	0.1	3214.
6637	10.531	4.5455	0.1	3216.
6638	10.531	4.7273	0.1	3218.2
6639	10.531	4.9091	0.1	3220.6
6640	10.531	5.0909	0.1	3223.2
6641	10.531	5.2727	0.1	3226.
6642	10.531	5.4545	0.1	3228.9
6643	10.531	5.6364	0.1	3232.1
6644	10.531	5.8182	0.1	3237.2
6645	10.716	0.18182	0.1	3185.7
6646	10.716	0.36364	0.1	3180.9
6647	10.716	0.54545	0.1	3177.9
6648	10.716	0.72727	0.1	3175.2
6649	10.716	0.90909	0.1	3172.6
6650	10.716	1.0909	0.1	3170.2
6651	10.716	1.2727	0.1	3168.
6652	10.716	1.4545	0.1	3166.
6653	10.716	1.6364	0.1	3164.1
6654	10.716	1.8182	0.1	3162.5
6655	10.716	2.	0.1	3161.1
6656	10.716	2.1818	0.1	3159.9
6657	10.716	2.3636	0.1	3158.9
6658	10.716	2.5455	0.1	3158.2
6659	10.716	2.7273	0.1	3157.7
6660	10.716	2.9091	0.1	3157.5
6661	10.716	3.0909	0.1	3157.5
6662	10.716	3.2727	0.1	3157.7
6663	10.716	3.4545	0.1	3158.2
6664	10.716	3.6364	0.1	3158.9
6665	10.716	3.8182	0.1	3159.9
6666	10.716	4.	0.1	3161.1
6667	10.716	4.1818	0.1	3162.5
6668	10.716	4.3636	0.1	3164.1
6669	10.716	4.5455	0.1	3166.
6670	10.716	4.7273	0.1	3168.
6671	10.716	4.9091	0.1	3170.2
6672	10.716	5.0909	0.1	3172.6
6673	10.716	5.2727	0.1	3175.2
6674	10.716	5.4545	0.1	3177.9
6675	10.716	5.6364	0.1	3180.9
6676	10.716	5.8182	0.1	3185.7
6677	10.901	0.18182	0.1	3134.5
6678	10.901	0.36364	0.1	3129.8
6679	10.901	0.54545	0.1	3127.1
6680	10.901	0.72727	0.1	3124.6
6681	10.901	0.90909	0.1	3122.2
6682	10.901	1.0909	0.1	3120.
6683	10.901	1.2727	0.1	3117.9
6684	10.901	1.4545	0.1	3116.1
6685	10.901	1.6364	0.1	3114.4
6686	10.901	1.8182	0.1	3112.9
6687	10.901	2.	0.1	3111.6
6688	10.901	2.1818	0.1	3110.5
6689	10.901	2.3636	0.1	3109.6
6690	10.901	2.5455	0.1	3109.
6691	10.901	2.7273	0.1	3108.5
6692	10.901	2.9091	0.1	3108.3
6693	10.901	3.0909	0.1	3108.3
6694	10.901	3.2727	0.1	3108.5
6695	10.901	3.4545	0.1	3109.
6696	10.901	3.6364	0.1	3109.6
6697	10.901	3.8182	0.1	3110.5
6698	10.901	4.	0.1	3111.6
6699	10.901	4.1818	0.1	3112.9
6700	10.901	4.3636	0.1	3114.4
6701	10.901	4.5455	0.1	3116.1
6702	10.901	4.7273	0.1	3117.9
6703	10.901	4.9091	0.1	3120.
6704	10.901	5.0909	0.1	3122.2
6705	10.901	5.2727	0.1	3124.6
6706	10.901	5.4545	0.1	3127.1
6707	10.901	5.6364	0.1	3129.8
6708	10.901	5.8182	0.1	3134.5
6709	11.086	0.18182	0.1	3083.5
6710	11.086	0.36364	0.1	3079.
6711	11.086	0.54545	0.1	3076.4
6712	11.086	0.72727	0.1	3074.1
6713	11.086	0.90909	0.1	3071.9
6714	11.086	1.0909	0.1	3069.9
6715	11.086	1.2727	0.1	3068.
6716	11.086	1.4545	0.1	3066.3
6717	11.086	1.6364	0.1	3064.8
6718	11.086	1.8182	0.1	3063.4
6719	11.086	2.	0.1	3062.3
6720	11.086	2.1818	0.1	3061.3
6721	11.086	2.3636	0.1	3060.5
6722	11.086	2.5455	0.1	3059.9
6723	11.086	2.7273	0.1	3059.5
6724	11.086	2.9091	0.1	3059.3
6725	11.086	3.0909	0.1	3059.3
6726	11.086	3.2727	0.1	3059.5
6727	11.086	3.4545	0.1	3059.9
6728	11.086	3.6364	0.1	3060.5
6729	11.086	3.8182	0.1	3061.3
6730	11.086	4.	0.1	3062.3
6731	11.086	4.1818	0.1	3063.4
6732	11.086	4.3636	0.1	3064.8
6733	11.086	4.5455	0.1	3066.3
6734	11.086	4.7273	0.1	3068.
6735	11.086	4.9091	0.1	3069.9
6736	11.086	5.0909	0.1	3071.9
6737	11.086	5.2727	0.1	3074.1
6738	11.086	5.4545	0.1	3076.4
6739	11.086	5.6364	0.1	3079.
6740	11.086	5.8182	0.1	3083.5
6741	11.27	0.18182	0.1	3032.6
6742	11.27	0.36364	0.1	3028.3
6743	11.27	0.54545	0.1	3026.
6744	11.27	0.72727	0.1	3023.8
6745	11.27	0.90909	0.1	3021.8
6746	11.27	1.0909	0.1	3020.
6747	11.27	1.2727	0.1	3018.3
6748	11.27	1.4545	0.1	3016.7
6749	11.27	1.6364	0.1	3015.3
6750	11.27	1.8182	0.1	3014.1
6751	11.27	2.	0.1	3013.
6752	11.27	2.1818	0.1	3012.1
6753	11.27	2.3636	0.1	3011.4
6754	11.27	2.5455	0.1	3010.8
6755	11.27	2.7273	0.1	3010.5
6756	11.27	2.9091	0.1	3010.3
6757	11.27	3.0909	0.1	3010.3
6758	11.27	3.2727	0.1	3010.5
6759	11.27	3.4545	0.1	3010.8
6760	11.27	3.6364	0.1	3011.4
6761	11.27	3.8182	0.1	3012.1
6762	11.27	4.	0.1	3013.
6763	11.27	4.1818	0.1	3014.1
6764	11.27	4.3636	0.1	3015.3
6765	11.27	4.5455	0.1	3016.7
6766	11.27	4.7273	0.1	3018.3
6767	11.27	4.9091	0.1	3020.
6768	11.27	5.0909	0.1	3021.8
6769	11.27	5.2727	0.1	3023.8
6770	11.27	5.4545	0.1	3026.
6771	11.27	5.6364	0.1	3028.3
6772	11.27	5.8182	0.1	3032.6
6773	11.455	0.18182	0.1	2982.
6774	11.455	0.36364	0.1	2977.9
6775	11.455	0.54545	0.1	2975.7
6776	11.455	0.72727	0.1	2973.7
6777	11.455	0.90909	0.1	2971.9
6778	11.455	1.0909	0.1	2970.2
6779	11.455	1.2727	0.1	2968.7
6780	11.455	1.4545	0.1	2967.3
6781	11.455	1.6364	0.1	2966.
6782	11.455	1.8182	0.1	2964.9
6783	11.455	2.	0.1	2963.9
6784	11.455	2.1818	0.1	2963.1
6785	11.455	2.3636	0.1	2962.5
6786	11.455	2.5455	0.1	2962.
6787	11.455	2.7273	0.1	2961.6
6788	11.455	2.9091	0.1	2961.5
6789	11.455	3.0909	0.1	2961.5
6790	11.455	3.2727	0.1	2961.6
6791	11.455	3.4545	0.1	2962.
6792	11.455	3.6364	0.1	2962.5
6793	11.455	3.8182	0.1	2963.1
6794	11.455	4.	0.1	2963.9
6795	11.455	4.1818	0.1	2964.9
6796	11.455	4.3636	0.1	2966.
6797	11.455	4.5455	0.1	2967.3
6798	11.455	4.7273	0.1	2968.7
6799	11.455	4.9091	0.1	2970.2
6800	11.455	5.0909	0.1	2971.9
6801	11.455	5.2727	0.1	2973.7
6802	11.455	5.4545	0.1	2975.7
6803	11.455	5.6364	0.1	2977.9
6804	11.455	5.8182	0.1	2982.
6805	11.64	0.18182	0.1	2931.6
6806	11.64	0.36364	0.1	2927.6
6807	11.64	0.54545	0.1	2925.6
6808	11.64	0.72727	0.1	2923.8
6809	11.64	0.90909	0.1	2922.2
6810	11.64	1.0909	0.1	2920.7
6811	11.64	1.2727	0.1	2919.3
6812	11.64	1.4545	0.1	2918.
6813	11.64	1.6364	0.1	2916.8
6814	11.64	1.8182	0.1	2915.8
6815	11.64	2.	0.1	2915.
6816	11.64	2.1818	0.1	2914.2
6817	11.64	2.3636	0.1	2913.6
6818	11.64	2.5455	0.1	2913.2
6819	11.64	2.7273	0.1	2912.9
6820	11.64	2.9091	0.1	2912.8
6821	11.64	3.0909	0.1	2912.8
6822	11.64	3.2727	0.1	2912.9
6823	11.64	3.4545	0.1	2913.2
6824	11.64	3.6364	0.1	2913.6
6825	11.64	3.8182	0.1	2914.2
6826	11.64	4.	0.1	2915.
6827	11.64	4.1818	0.1	2915.8
6828	11.64	4.3636	0.1	2916.8
6829	11.64	4.5455	0.1	2918.
6830	11.64	4.7273	0.1	2919.3
6831	11.64	4.9091	0.1	2920.7
6832	11.64	5.0909	0.1	2922.2
6833	11.64	5.2727	0.1	2923.8
6834	11.64	5.4545	0.1	2925.6
6835	11.64	5.6364	0.1	2927.6
6836	11.64	5.8182	0.1	2931.6
6837	11.825	0.18182	0.1	2881.4
6838	11.825	0.36364	0.1	2877.5
6839	11.825	0.54545	0.1	2875.7
6840	11.825	0.72727	0.1	2874.1
6841	11.825	0.90909	0.1	2872.6
6842	11.825	1.0909	0.1	2871.2
6843	11.825	1.2727	0.1	2870.
6844	11.825	1.4545	0.1	2868.9
6845	11.825	1.6364	0.1	2867.8
6846	11.825	1.8182	0.1	2866.9
6847	11.825	2.	0.1	2866.2
6848	11.825	2.1818	0.1	2865.5
6849	11.825	2.3636	0.1	2865.
6850	11.825	2.5455	0.1	2864.6
6851	11.825	2.7273	0.1	2864.3
6852	11.825	2.9091	0.1	2864.2
6853	11.825	3.0909	0.1	2864.2
6854	11.825	3.2727	0.1	2864.3
6855	11.825	3.4545	0.1	2864.6
6856	11.825	3.6364	0.1	2865.
6857	11.825	3.8182	0.1	2865.5
6858	11.825	4.	0.1	2866.2
6859	11.825	4.1818	0.1	2866.9
6860	11.825	4.3636	0.1	2867.8
6861	11.825	4.5455	0.1	2868.9
6862	11.825	4.7273	0.1	2870.
6863	11.825	4.9091	0.1	2871.2
6864	11.825	5.0909	0.1	2872.6
6865	11.825	5.2727	0.1	2874.1
6866	11.825	5.4545	0.1	2875.7
6867	11.825	5.6364	0.1	2877.5
6868	11.825	5.8182	0.1	2881.4
6869	12.01	0.18182	0.1	2831.4
6870	12.01	0.36364	0.1	2827.6
6871	12.01	0.54545	0.1	2826.
6872	12.01	0.72727	0.1	2824.5
6873	12.01	0.90909	0.1	2823.2
6874	12.01	1.0909	0.1	2822.
6875	12.01	1.2727	0.1	2820.9
6876	12.01	1.4545	0.1	2819.9
6877	12.01	1.6364	0.1	2819.
6878	12.01	1.8182	0.1	2818.2
6879	12.01	2.	0.1	2817.5
6880	12.01	2.1818	0.1	2816.9
6881	12.01	2.3636	0.1	2816.5
6882	12.01	2.5455	0.1	2816.1
6883	12.01	2.7273	0.1	2815.9
6884	12.01	2.9091	0.1	2815.8
6885	12.01	3.0909	0.1	2815.8
6886	12.01	3.2727	0.1	2815.9
6887	12.01	3.4545	0.1	2816.1
6888	12.01	3.6364	0.1	2816.5
6889	12.01	3.8182	0.1	2816.9
6890	12.01	4.	0.1	2817.5
6891	12.01	4.1818	0.1	2818.2
6892	12.01	4.3636	0.1	2819.
6893	12.01	4.5455	0.1	2819.9
6894	12.01	4.7273	0.1	2820.9
6895	12.01	4.9091	0.1	2822.
6896	12.01	5.0909	0.1	2823.2
6897	12.01	5.2727	0.1	2824.5
6898	12.01	5.4545	0.1	2826.
6899	12.01	5.6364	0.1	2827.6
6900	12.01	5.8182	0.1	2831.4
6901	12.194	0.18182	0.1	2781.5
6902	12.194	0.36364	0.1	2777.9
6903	12.194	0.54545	0.1	2776.4
6904	12.194	0.72727	0.1	2775.2
6905	12.194	0.90909	0.1	2774.
6906	12.194	1.0909	0.1	2772.9
6907	12.194	1.2727	0.1	2772.
6908	12.194	1.4545	0.1	2771.1
6909	12.194	1.6364	0.1	2770.3
6910	12.194	1.8182	0.1	2769.6
6911	12.194	2.	0.1	2769.
6912	12.194	2.1818	0.1	2768.5
6913	12.194	2.3636	0.1	2768.1
6914	12.194	2.5455	0.1	2767.8
6915	12.194	2.7273	0.1	2767.6
6916	12.194	2.9091	0.1	2767.5
6917	12.194	3.0909	0.1	2767.5
6918	12.194	3.2727	0.1	2767.6
6919	12.194	3.4545	0.1	2767.8
6920	12.194	3.6364	0.1	2768.1
6921	12.194	3.8182	0.1	2768.5
6922	12.194	4.	0.1	2769.
6923	12.194	4.1818	0.1	2769.6
6924	12.194	4.3636	0.1	2770.3
6925	12.194	4.5455	0.1	2771.1
6926	12.194	4.7273	0.1	2772.
6927	12.194	4.9091	0.1	2772.9
6928	12.194	5.0909	0.1	2774.
6929	12.194	5.2727	0.1	2775.2
6930	12.194	5.4545	0.1	2776.4
6931	12.194	5.6364	0.1	2777.9
6932	12.194	5.8182	0.1	2781.5
6933	12.379	0.18182	0.1	2731.9
6934	12.379	0.36364	0.1	2728.4
6935	12.379	0.54545	0.1	2727.1
6936	12.379	0.72727	0.1	2726.
6937	12.379	0.90909	0.1	2725.
6938	12.379	1.0909	0.1	2724.1
6939	12.379	1.2727	0.1	2723.2
6940	12.379	1.4545	0.1	2722.5
6941	12.379	1.6364	0.1	2721.8
6942	12.379	1.8182	0.1	2721.2
6943	12.379	2.	0.1	2720.7
6944	12.379	2.1818	0.1	2720.3
6945	12.379	2.3636	0.1	2720.
6946	12.379	2.5455	0.1	2719.7
6947	12.379	2.7273	0.1	2719.6
6948	12.379	2.9091	0.1	2719.5
6949	12.379	3.0909	0.1	2719.5
6950	12.379	3.2727	0.1	2719.6
6951	12.379	3.4545	0.1	2719.7
6952	12.379	3.6364	0.1	2720.
6953	12.379	3.8182	0.1	2720.3
6954	12.379	4.	0.1	2720.7
6955	12.379	4.1818	0.1	2721.2
6956	12.379	4.3636	0.1	2721.8
6957	12.379	4.5455	0.1	2722.5
6958	12.379	4.7273	0.1	2723.2
6959	12.379	4.9091	0.1	2724.1
6960	12.379	5.0909	0.1	2725.
6961	12.379	5.2727	0.1	2726.
6962	12.379	5.4545	0.1	2727.1
6963	12.379	5.6364	0.1	2728.4
6964	12.379	5.8182	0.1	2731.9
6965	12.564	0.18182	0.1	2682.4
6966	12.564	0.36364	0.1	2679.1
6967	12.564	0.54545	0.1	2677.9
6968	12.564	0.72727	0.1	2677.
6969	12.564	0.90909	0.1	2676.1
6970	12.564	1.0909	0.1	2675.4
6971	12.564	1.2727	0.1	2674.7
6972	12.564	1.4545	0.1	2674.1
6973	12.564	1.6364	0.1	2673.5
6974	12.564	1.8182	0.1	2673.
6975	12.564	2.	0.1	2672.6
6976	12.564	2.1818	0.1	2672.3
6977	12.564	2.3636	0.1	2672.
6978	12.564	2.5455	0.1	2671.8
6979	12.564	2.7273	0.1	2671.6
6980	12.564	2.9091	0.1	2671.6
6981	12.564	3.0909	0.1	2671.6
6982	12.564	3.2727	0.1	2671.6
6983	12.564	3.4545	0.1	2671.8
6984	12.564	3.6364	0.1	2672.
6985	12.564	3.8182	0.1	2672.3
6986	12.564	4.	0.1	2672.6
6987	12.564	4.1818	0.1	2673.
6988	12.564	4.3636	0.1	2673.5
6989	12.564	4.5455	0.1	2674.1
6990	12.564	4.7273	0.1	2674.7
6991	12.564	4.9091	0.1	2675.4
6992	12.564	5.0909	0.1	2676.1
6993	12.564	5.2727	0.1	2677.
6994	12.564	5.4545	0.1	2677.9
6995	12.564	5.6364	0.1	2679.1
6996	12.564	5.8182	0.1	2682.4
6997	12.749	0.18182	0.1	2633.1
6998	12.749	0.36364	0.1	2629.9
6999	12.749	0.54545	0.1	2628.9
7000	12.749	0.72727	0.1	2628.2
7001	12.749	0.90909	0.1	2627.5
7002	12.749	1.0909	0.1	2626.9
7003	12.749	1.2727	0.1	2626.3
7004	12.749	1.4545	0.1	2625.8
7005	12.749	1.6364	0.1	2625.4
7006	12.749	1.8182	0.1	2625.
7007	12.749	2.	0.1	2624.7
7008	12.749	2.1818	0.1	2624.4
7009	12.749	2.3636	0.1	2624.2
7010	12.749	2.5455	0.1	2624.
7011	12.749	2.7273	0.1	2623.9
7012	12.749	2.9091	0.1	2623.9
7013	12.749	3.0909	0.1	2623.9
7014	12.749	3.2727	0.1	2623.9
7015	12.749	3.4545	0.1	2624.
7016	12.749	3.6364	0.1	2624.2
7017	12.749	3.8182	0.1	2624.4
7018	12.749	4.	0.1	2624.7
7019	12.749	4.1818	0.1	2625.
7020	12.749	4.3636	0.1	2625.4
7021	12.749	4.5455	0.1	2625.8
7022	12.749	4.7273	0.1	2626.3
7023	12.749	4.9091	0.1	2626.9
7024	12.749	5.0909	0.1	2627.5
7025	12.749	5.2727	0.1	2628.2
7026	12.749	5.4545	0.1	2628.9
7027	12.749	5.6364	0.1	2629.9
7028	12.749	5.8182	0.1	2633.1
7029	12.933	0.18182	0.1	2583.9
7030	12.933	0.36364	0.1	2581.
7031	12.933	0.54545	0.1	2580.1
7032	12.933	0.72727	0.1	2579.5
7033	12.933	0.90909	0.1	2579.
7034	12.933	1.0909	0.1	2578.6
7035	12.933	1.2727	0.1	2578.2
7036	12.933	1.4545	0.1	2577.8
7037	12.933	1.6364	0.1	2577.5
7038	12.933	1.8182	0.1	2577.2
7039	12.933	2.	0.1	2577.
7040	12.933	2.1818	0.1	2576.8
7041	12.933	2.3636	0.1	2576.6
7042	12.933	2.5455	0.1	2576.5
7043	12.933	2.7273	0.1	2576.4
7044	12.933	2.9091	0.1	2576.4
7045	12.933	3.0909	0.1	2576.4
7046	12.933	3.2727	0.1	2576.4
7047	12.933	3.4545	0.1	2576.5
7048	12.933	3.6364	0.1	2576.6
7049	12.933	3.8182	0.1	2576.8
7050	12.933	4.	0.1	2577.
7051	12.933	4.1818	0.1	2577.2
7052	12.933	4.3636	0.1	2577.5
7053	12.933	4.5455	0.1	2577.8
7054	12.933	4.7273	0.1	2578.2
7055	12.933	4.9091	0.1	2578.6
7056	12.933	5.0909	0.1	2579.
7057	12.933	5.2727	0.1	2579.5
7058	12.933	5.4545	0.1	2580.1
7059	12.933	5.6364	0.1	2581.
7060	12.933	5.8182	0.1	2583.9
7061	13.118	0.18182	0.1	2535.
7062	13.118	0.36364	0.1	2532.1
7063	13.118	0.54545	0.1	2531.5
7064	13.118	0.72727	0.1	2531.1
7065	13.118	0.90909	0.1	2530.8
7066	13.118	1.0909	0.1	2530.5
7067	13.118	1.2727	0.1	2530.2
7068	13.118	1.4545	0.1	2530.
7069	13.118	1.6364	0.1	2529.8
7070	13.118	1.8182	0.1	2529.6
7071	13.118	2.	0.1	2529.5
7072	13.118	2.1818	0.1	2529.4
7073	13.118	2.3636	0.1	2529.3
7074	13.118	2.5455	0.1	2529.2
7075	13.118	2.7273	0.1	2529.1
7076	13.118	2.9091	0.1	2529.1
7077	13.118	3.0909	0.1	2529.1
7078	13.118	3.2727	0.1	2529.1
7079	13.118	3.4545	0.1	2529.2
7080	13.118	3.6364	0.1	2529.3
7081	13.118	3.8182	0.1	2529.4
7082	13.118	4.	0.1	2529.5
7083	13.118	4.1818	0.1	2529.6
7084	13.118	4.3636	0.1	2529.8
7085	13.118	4.5455	0.1	2530.
7086	13.118	4.7273	0.1	2530.2
7087	13.118	4.9091	0.1	2530.5
7088	13.118	5.0909	0.1	2530.8
7089	13.118	5.2727	0.1	2531.1
7090	13.118	5.4545	0.1	2531.5
7091	13.118	5.6364	0.1	2532.1
7092	13.118	5.8182	0.1	2535.
7093	13.303	0.18182	0.1	2486.1
7094	13.303	0.36364	0.1	2483.5
7095	13.303	0.54545	0.1	2483.1
7096	13.303	0.72727	0.1	2482.8
7097	13.303	0.90909	0.1	2482.7
7098	13.303	1.0909	0.1	2482.5
7099	13.303	1.2727	0.1	2482.5
7100	13.303	1.4545	0.1	2482.4
7101	13.303	1.6364	0.1	2482.3
7102	13.303	1.8182	0.1	2482.3
7103	13.303	2.	0.1	2482.2
7104	13.303	2.1818	0.1	2482.2
7105	13.303	2.3636	0.1	2482.1
7106	13.303	2.5455	0.1	2482.1
7107	13.303	2.7273	0.1	2482.1
7108	13.303	2.9091	0.1	2482.1
7109	13.303	3.0909	0.1	2482.1
7110	13.303	3.2727	0.1	2482.1
7111	13.303	3.4545	0.1	2482.1
7112	13.303	3.6364	0.1	2482.1
7113	13.303	3.8182	0.1	2482.2
7114	13.303	4.	0.1	2482.2
7115	13.303	4.1818	0.1	2482.3
7116	13.303	4.3636	0.1	2482.3
7117	13.303	4.5455	0.1	2482.4
7118	13.303	4.7273	0.1	2482.5
7119	13.303	4.9091	0.1	2482.5
7120	13.303	5.0909	0.1	2482.7
7121	13.303	5.2727	0.1	2482.8
7122	13.303	5.4545	0.1	2483.1
7123	13.303	5.6364	0.1	2483.5
7124	13.303	5.8182	0.1	2486.1
7125	13.488	0.18182	0.1	2437.4
7126	13.488	0.36364	0.1	2435.
7127	13.488	0.54545	0.1	2434.8
7128	13.488	0.72727	0.1	2434.8
7129	13.488	0.90909	0.1	2434.8
7130	13.488	1.0909	0.1	2434.8
7131	13.488	1.2727	0.1	2434.9
7132	13.488	1.4545	0.1	2435.
7133	13.488	1.6364	0.1	2435.1
7134	13.488	1.8182	0.1	2435.1
7135	13.488	2.	0.1	2435.2
7136	13.488	2.1818	0.1	2435.2
7137	13.488	2.3636	0.1	2435.2
7138	13.488	2.5455	0.1	2435.2
7139	13.488	2.7273	0.1	2435.2
7140	13.488	2.9091	0.1	2435.2
7141	13.488	3.0909	0.1	2435.2
7142	13.488	3.2727	0.1	2435.2
7143	13.488	3.4545	0.1	2435.2
7144	13.488	3.6364	0.1	2435.2
7145	13.488	3.8182	0.1	2435.2
7146	13.488	4.	0.1	2435.2
7147	13.488	4.1818	0.1	2435.1
7148	13.488	4.3636	0.1	2435.1
7149	13.488	4.5455	0.1	2435.
7150	13.488	4.7273	0.1	2434.9
7151	13.488	4.9091	0.1	2434.8
7152	13.488	5.0909	0.1	2434.8
7153	13.488	5.2727	0.1	2434.8
7154	13.488	5.4545	0.1	2434.8
7155	13.488	5.6364	0.1	2435.
7156	13.488	5.8182	0.1	2437.4
7157	13.672	0.18182	0.1	2388.9
7158	13.672	0.36364	0.1	2386.7
7159	13.672	0.54545	0.1	2386.7
7160	13.672	0.72727	0.1	2386.8
7161	13.672	0.90909	0.1	2387.1
7162	13.672	1.0909	0.1	2387.3
7163	13.672	1.2727	0.1	2387.6
7164	13.672	1.4545	0.1	2387.8
7165	13.672	1.6364	0.1	2388.
7166	13.672	1.8182	0.1	2388.2
7167	13.672	2.	0.1	2388.4
7168	13.672	2.1818	0.1	2388.5
7169	13.672	2.3636	0.1	2388.6
7170	13.672	2.5455	0.1	2388.6
7171	13.672	2.7273	0.1	2388.7
7172	13.672	2.9091	0.1	2388.7
7173	13.672	3.0909	0.1	2388.7
7174	13.672	3.2727	0.1	2388.7
7175	13.672	3.4545	0.1	2388.6
7176	13.672	3.6364	0.1	2388.6
7177	13.672	3.8182	0.1	2388.5
7178	13.672	4.	0.1	2388.4
7179	13.672	4.1818	0.1	2388.2
7180	13.672	4.3636	0.1	2388.
7181	13.672	4.5455	0.1	2387.8
7182	13.672	4.7273	0.1	2387.6
7183	13.672	4.9091	0.1	2387.3
7184	13.672	5.0909	0.1	2387.1
7185	13.672	5.2727	0.1	2386.8
7186	13.672	5.4545	0.1	2386.7
7187	13.672	5.6364	0.1	2386.7
7188	13.672	5.8182	0.1	2388.9
7189	13.857	0.18182	0.1	2340.4
7190	13.857	0.36364	0.1	2338.4
7191	13.857	0.54545	0.1	2338.7
7192	13.857	0.72727	0.1	2339.1
7193	13.857	0.90909	0.1	2339.6
7194	13.857	1.0909	0.1	2340.
7195	13.857	1.2727	0.1	2340.5
7196	13.857	1.4545	0.1	2340.9
7197	13.857	1.6364	0.1	2341.3
7198	13.857	1.8182	0.1	2341.6
7199	13.857	2.	0.1	2341.8
7200	13.857	2.1818	0.1	2342.
7201	13.857	2.3636	0.1	2342.2
7202	13.857	2.5455	0.1	2342.3
7203	13.857	2.7273	0.1	2342.4
7204	13.857	2.9091	0.1	2342.4
7205	13.857	3.0909	0.1	2342.4
7206	13.857	3.2727	0.1	2342.4
7207	13.857	3.4545	0.1	2342.3
7208	13.857	3.6364	0.1	2342.2
7209	13.857	3.8182	0.1	2342.
7210	13.857	4.	0.1	2341.8
7211	13.857	4.1818	0.1	2341.6
7212	13.857	4.3636	0.1	2341.3
7213	13.857	4.5455	0.1	2340.9
7214	13.857	4.7273	0.1	2340.5
7215	13.857	4.9091	0.1	2340.
7216	13.857	5.0909	0.1	2339.6
7217	13.857	5.2727	0.1	2339.1
7218	13.857	5.4545	0.1	2338.7
7219	13.857	5.6364	0.1	2338.4
7220	13.857	5.8182	0.1	2340.4
7221	14.042	0.18182	0.1	2292.1
7222	14.042	0.36364	0.1	2290.3
7223	14.042	0.54545	0.1	2290.9
7224	14.042	0.72727	0.1	2291.6
7225	14.042	0.90909	0.1	2292.3
7226	14.042	1.0909	0.1	2293.
7227	14.042	1.2727	0.1	2293.6
7228	14.042	1.4545	0.1	2294.2
7229	14.042	1.6364	0.1	2294.7
7230	14.042	1.8182	0.1	2295.2
7231	14.042	2.	0.1	2295.6
7232	14.042	2.1818	0.1	2295.9
7233	14.042	2.3636	0.1	2296.1
7234	14.042	2.5455	0.1	2296.2
7235	14.042	2.7273	0.1	2296.3
7236	14.042	2.9091	0.1	2296.4
7237	14.042	3.0909	0.1	2296.4
7238	14.042	3.2727	0.1	2296.3
7239	14.042	3.4545	0.1	2296.2
7240	14.042	3.6364	0.1	2296.1
7241	14.042	3.8182	0.1	2295.9
7242	14.042	4.	0.1	2295.6
7243	14.042	4.1818	0.1	2295.2
7244	14.042	4.3636	0.1	2294.7
7245	14.042	4.5455	0.1	2294.2
7246	14.042	4.7273	0.1	2293.6
7247	14.042	4.9091	0.1	2293.
7248	14.042	5.0909	0.1	2292.3
7249	14.042	5.2727	0.1	2291.6
7250	14.042	5.4545	0.1	2290.9
7251	14.042	5.6364	0.1	2290.3
7252	14.042	5.8182	0.1	2292.1
7253	14.227	0.18182	0.1	2243.7
7254	14.227	0.36364	0.1	2242.3
7255	14.227	0.54545	0.1	2243.2
7256	14.227	0.72727	0.1	2244.1
7257	14.227	0.90909	0.1	2245.1
7258	14.227	1.0909	0.1	2246.1
7259	14.227	1.2727	0.1	2247.
7260	14.227	1.4545	0.1	2247.8
7261	14.227	1.6364	0.1	2248.5
7262	14.227	1.8182	0.1	2249.1
7263	14.227	2.	0.1	2249.6
7264	14.227	2.1818	0.1	2250.
7265	14.227	2.3636	0.1	2250.3
7266	14.227	2.5455	0.1	2250.5
7267	14.227	2.7273	0.1	2250.6
7268	14.227	2.9091	0.1	2250.7
7269	14.227	3.0909	0.1	2250.7
7270	14.227	3.2727	0.1	2250.6
7271	14.227	3.4545	0.1	2250.5
7272	14.227	3.6364	0.1	2250.3
7273	14.227	3.8182	0.1	2250.
7274	14.227	4.	0.1	2249.6
7275	14.227	4.1818	0.1	2249.1
7276	14.227	4.3636	0.1	2248.5
7277	14.227	4.5455	0.1	2247.8
7278	14.227	4.7273	0.1	2247.
7279	14.227	4.9091	0.1	2246.1
7280	14.227	5.0909	0.1	2245.1
7281	14.227	5.2727	0.1	2244.1
7282	14.227	5.4545	0.1	2243.2
7283	14.227	5.6364	0.1	2242.3
7284	14.227	5.8182	0.1	2243.7
7285	14.411	0.18182	0.1	2195.5
7286	14.411	0.36364	0.1	2194.4
7287	14.411	0.54545	0.1	2195.6
7288	14.411	0.72727	0.1	2196.9
7289	14.411	0.90909	0.1	2198.2
7290	14.411	1.0909	0.1	2199.4
7291	14.411	1.2727	0.1	2200.6
7292	14.411	1.4545	0.1	2201.6
7293	14.411	1.6364	0.1	2202.5
7294	14.411	1.8182	0.1	2203.3
7295	14.411	2.	0.1	2203.9
7296	14.411	2.1818	0.1	2204.4
7297	14.411	2.3636	0.1	2204.8
7298	14.411	2.5455	0.1	2205.1
7299	14.411	2.7273	0.1	2205.3
7300	14.411	2.9091	0.1	2205.4
7301	14.411	3.0909	0.1	2205.4
7302	14.411	3.2727	0.1	2205.3
7303	14.411	3.4545	0.1	2205.1
7304	14.411	3.6364	0.1	2204.8
7305	14.411	3.8182	0.1	2204.4
7306	14.411	4.	0.1	2203.9
7307	14.411	4.1818	0.1	2203.3
7308	14.411	4.3636	0.1	2202.5
7309	14.411	4.5455	0.1	2201.6
7310	14.411	4.7273	0.1	2200.6
7311	14.411	4.9091	0.1	2199.4
7312	14.411	5.0909	0.1	2198.2
7313	14.411	5.2727	0.1	2196.9
7314	14.411	5.4545	0.1	2195.6
7315	14.411	5.6364	0.1	2194.4
7316	14.411	5.8182	0.1	2195.5
7317	14.596	0.18182	0.1	2147.2
7318	14.596	0.36364	0.1	2146.5
7319	14.596	0.54545	0.1	2148.1
7320	14.596	0.72727	0.1	2149.8
7321	14.596	0.90909	0.1	2151.4
7322	14.596	1.0909	0.1	2153.
7323	14.596	1.2727	0.1	2154.5
7324	14.596	1.4545	0.1	2155.7
7325	14.596	1.6364	0.1	2156.9
7326	14.596	1.8182	0.1	2157.8
7327	14.596	2.	0.1	2158.6
7328	14.596	2.1818	0.1	2159.3
7329	14.596	2.3636	0.1	2159.7
7330	14.596	2.5455	0.1	2160.1
7331	14.596	2.7273	0.1	2160.3
7332	14.596	2.9091	0.1	2160.4
7333	14.596	3.0909	0.1	2160.4
7334	14.596	3.2727	0.1	2160.3
7335	14.596	3.4545	0.1	2160.1
7336	14.596	3.6364	0.1	2159.7
7337	14.596	3.8182	0.1	2159.3
7338	14.596	4.	0.1	2158.6
7339	14.596	4.1818	0.1	2157.8
7340	14.596	4.3636	0.1	2156.9
7341	14.596	4.5455	0.1	2155.7
7342	14.596	4.7273	0.1	2154.5
7343	14.596	4.9091	0.1	2153.
7344	14.596	5.0909	0.1	2151.4
7345	14.596	5.2727	0.1	2149.8
7346	14.596	5.4545	0.1	2148.1
7347	14.596	5.6364	0.1	2146.5
7348	14.596	5.8182	0.1	2147.2
7349	14.781	0.18182	0.1	2098.9
7350	14.781	0.36364	0.1	2098.7
7351	14.781	0.54545	0.1	2100.7
7352	14.781	0.72727	0.1	2102.8
7353	14.781	0.90909	0.1	2104.8
7354	14.781	1.0909	0.1	2106.8
7355	14.781	1.2727	0.1	2108.6
7356	14.781	1.4545	0.1	2110.2
7357	14.781	1.6364	0.1	2111.5
7358	14.781	1.8182	0.1	2112.7
7359	14.781	2.	0.1	2113.7
7360	14.781	2.1818	0.1	2114.4
7361	14.781	2.3636	0.1	2115.
7362	14.781	2.5455	0.1	2115.5
7363	14.781	2.7273	0.1	2115.7
7364	14.781	2.9091	0.1	2115.9
7365	14.781	3.0909	0.1	2115.9
7366	14.781	3.2727	0.1	2115.7
7367	14.781	3.4545	0.1	2115.5
7368	14.781	3.6364	0.1	2115.
7369	14.781	3.8182	0.1	2114.4
7370	14.781	4.	0.1	2113.7
7371	14.781	4.1818	0.1	2112.7
7372	14.781	4.3636	0.1	2111.5
7373	14.781	4.5455	0.1	2110.2
7374	14.781	4.7273	0.1	2108.6
7375	14.781	4.9091	0.1	2106.8
7376	14.781	5.0909	0.1	2104.8
7377	14.781	5.2727	0.1	2102.8
7378	14.781	5.4545	0.1	2100.7
7379	14.781	5.6364	0.1	2098.7
7380	14.781	5.8182	0.1	2098.9
7381	14.966	0.18182	0.1	2050.4
7382	14.966	0.36364	0.1	2050.8
7383	14.966	0.54545	0.1	2053.2
7384	14.966	0.72727	0.1	2055.8
7385	14.966	0.90909	0.1	2058.4
7386	14.966	1.0909	0.1	2060.8
7387	14.966	1.2727	0.1	2062.9
7388	14.966	1.4545	0.1	2064.9
7389	14.966	1.6364	0.1	2066.6
7390	14.966	1.8182	0.1	2068.
7391	14.966	2.	0.1	2069.1
7392	14.966	2.1818	0.1	2070.1
7393	14.966	2.3636	0.1	2070.8
7394	14.966	2.5455	0.1	2071.3
7395	14.966	2.7273	0.1	2071.6
7396	14.966	2.9091	0.1	2071.8
7397	14.966	3.0909	0.1	2071.8
7398	14.966	3.2727	0.1	2071.6
7399	14.966	3.4545	0.1	2071.3
7400	14.966	3.6364	0.1	2070.8
7401	14.966	3.8182	0.1	2070.1
7402	14.966	4.	0.1	2069.1
7403	14.966	4.1818	0.1	2068.
7404	14.966	4.3636	0.1	2066.6
7405	14.966	4.5455	0.1	2064.9
7406	14.966	4.7273	0.1	2062.9
7407	14.966	4.9091	0.1	2060.8
7408	14.966	5.0909	0.1	2058.4
7409	14.966	5.2727	0.1	2055.8
7410	14.966	5.4545	0.1	2053.2
7411	14.966	5.6364	0.1	2050.8
7412	14.966	5.8182	0.1	2050.4
7413	15.15	0.18182	0.1	2001.8
7414	15.15	0.36364	0.1	2002.7
7415	15.15	0.54545	0.1	2005.8
7416	15.15	0.72727	0.1	2009.
7417	15.15	0.90909	0.1	2012.
7418	15.15	1.0909	0.1	2014.9
7419	15.15	1.2727	0.1	2017.6
7420	15.15	1.4545	0.1	2019.9
7421	15.15	1.6364	0.1	2021.9
7422	15.15	1.8182	0.1	2023.7
7423	15.15	2.	0.1	2025.1
7424	15.15	2.1818	0.1	2026.2
7425	15.15	2.3636	0.1	2027.
7426	15.15	2.5455	0.1	2027.7
7427	15.15	2.7273	0.1	2028.
7428	15.15	2.9091	0.1	2028.2
7429	15.15	3.0909	0.1	2028.2
7430	15.15	3.2727	0.1	2028.
7431	15.15	3.4545	0.1	2027.7
7432	15.15	3.6364	0.1	2027.
7433	15.15	3.8182	0.1	2026.2
7434	15.15	4.	0.1	2025.1
7435	15.15	4.1818	0.1	2023.7
7436	15.15	4.3636	0.1	2021.9
7437	15.15	4.5455	0.1	2019.9
7438	15.15	4.7273	0.1	2017.6
7439	15.15	4.9091	0.1	2014.9
7440	15.15	5.0909	0.1	2012.
7441	15.15	5.2727	0.1	2009.
7442	15.15	5.4545	0.1	2005.8
7443	15.15	5.6364	0.1	2002.7
7444	15.15	5.8182	0.1	2001.8
7445	15.335	0.18182	0.1	1952.9
7446	15.335	0.36364	0.1	1954.6
7447	15.335	0.54545	0.1	1958.3
7448	15.335	0.72727	0.1	1962.1
7449	15.335	0.90909	0.1	1965.8
7450	15.335	1.0909	0.1	1969.3
7451	15.335	1.2727	0.1	1972.5
7452	15.335	1.4545	0.1	1975.3
7453	15.335	1.6364	0.1	1977.7
7454	15.335	1.8182	0.1	1979.8
7455	15.335	2.	0.1	1981.5
7456	15.335	2.1818	0.1	1982.8
7457	15.335	2.3636	0.1	1983.9
7458	15.335	2.5455	0.1	1984.6
7459	15.335	2.7273	0.1	1985.1
7460	15.335	2.9091	0.1	1985.3
7461	15.335	3.0909	0.1	1985.3
7462	15.335	3.2727	0.1	1985.1
7463	15.335	3.4545	0.1	1984.6
7464	15.335	3.6364	0.1	1983.9
7465	15.335	3.8182	0.1	1982.8
7466	15.335	4.	0.1	1981.5
7467	15.335	4.1818	0.1	1979.8
7468	15.335	4.3636	0.1	1977.7
7469	15.335	4.5455	0.1	1975.3
7470	15.335	4.7273	0.1	1972.5
7471	15.335	4.9091	0.1	1969.3
7472	15.335	5.0909	0.1	1965.8
7473	15.335	5.2727	0.1	1962.1
7474	15.335	5.4545	0.1	1958.3
7475	15.335	5.6364	0.1	1954.6
7476	15.335	5.8182	0.1	1952.9
7477	15.52	0.18182	0.1	1903.6
7478	15.52	0.36364	0.1	1906.1
7479	15.52	0.54545	0.1	1910.6
7480	15.52	0.72727	0.1	1915.2
7481	15.52	0.90909	0.1	1919.7
7482	15.52	1.0909	0.1	1923.8
7483	15.52	1.2727	0.1	1927.6
7484	15.52	1.4545	0.1	1931.
7485	15.52	1.6364	0.1	1934.
7486	15.52	1.8182	0.1	1936.5
7487	15.52	2.	0.1	1938.5
7488	15.52	2.1818	0.1	1940.1
7489	15.52	2.3636	0.1	1941.4
7490	15.52	2.5455	0.1	1942.3
7491	15.52	2.7273	0.1	1942.8
7492	15.52	2.9091	0.1	1943.1
7493	15.52	3.0909	0.1	1943.1
7494	15.52	3.2727	0.1	1942.8
7495	15.52	3.4545	0.1	1942.3
7496	15.52	3.6364	0.1	1941.4
7497	15.52	3.8182	0.1	1940.1
7498	15.52	4.	0.1	1938.5
7499	15.52	4.1818	0.1	1936.5
7500	15.52	4.3636	0.1	1934.
7501	15.52	4.5455	0.1	1931.
7502	15.52	4.7273	0.1	1927.6
7503	15.52	4.9091	0.1	1923.8
7504	15.52	5.0909	0.1	1919.7
7505	15.52	5.2727	0.1	1915.2
7506	15.52	5.4545	0.1	1910.6
7507	15.52	5.6364	0.1	1906.1
7508	15.52	5.8182	0.1	1903.6
7509	15.705	0.18182	0.1	1853.8
7510	15.705	0.36364	0.1	1857.2
7511	15.705	0.54545	0.1	1862.7
7512	15.705	0.72727	0.1	1868.2
7513	15.705	0.90909	0.1	1873.5
7514	15.705	1.0909	0.1	1878.5
7515	15.705	1.2727	0.1	1883.1
7516	15.705	1.4545	0.1	1887.2
7517	15.705	1.6364	0.1	1890.7
7518	15.705	1.8182	0.1	1893.7
7519	15.705	2.	0.1	1896.2
7520	15.705	2.1818	0.1	1898.2
7521	15.705	2.3636	0.1	1899.6
7522	15.705	2.5455	0.1	1900.7
7523	15.705	2.7273	0.1	1901.4
7524	15.705	2.9091	0.1	1901.7
7525	15.705	3.0909	0.1	1901.7
7526	15.705	3.2727	0.1	1901.4
7527	15.705	3.4545	0.1	1900.7
7528	15.705	3.6364	0.1	1899.6
7529	15.705	3.8182	0.1	1898.2
7530	15.705	4.	0.1	1896.2
7531	15.705	4.1818	0.1	1893.7
7532	15.705	4.3636	0.1	1890.7
7533	15.705	4.5455	0.1	1887.2
7534	15.705	4.7273	0.1	1883.1
7535	15.705	4.9091	0.1	1878.5
7536	15.705	5.0909	0.1	1873.5
7537	15.705	5.2727	0.1	1868.2
7538	15.705	5.4545	0.1	1862.7
7539	15.705	5.6364	0.1	1857.2
7540	15.705	5.8182	0.1	1853.8
7541	15.89	0.18182	0.1	1803.2
7542	15.89	0.36364	0.1	1807.8
7543	15.89	0.54545	0.1	1814.3
7544	15.89	0.72727	0.1	1820.9
7545	15.89	0.90909	0.1	1827.3
7546	15.89	1.0909	0.1	1833.3
7547	15.89	1.2727	0.1	1838.8
7548	15.89	1.4545	0.1	1843.7
7549	15.89	1.6364	0.1	1848.
7550	15.89	1.8182	0.1	1851.7
7551	15.89	2.	0.1	1854.7
7552	15.89	2.1818	0.1	1857.
7553	15.89	2.3636	0.1	1858.9
7554	15.89	2.5455	0.1	1860.2
7555	15.89	2.7273	0.1	1861.
7556	15.89	2.9091	0.1	1861.4
7557	15.89	3.0909	0.1	1861.4
7558	15.89	3.2727	0.1	1861.
7559	15.89	3.4545	0.1	1860.2
7560	15.89	3.6364	0.1	1858.9
7561	15.89	3.8182	0.1	1857.
7562	15.89	4.	0.1	1854.7
7563	15.89	4.1818	0.1	1851.7
7564	15.89	4.3636	0.1	1848.
7565	15.89	4.5455	0.1	1843.7
7566	15.89	4.7273	0.1	1838.8
7567	15.89	4.9091	0.1	1833.3
7568	15.89	5.0909	0.1	1827.3
7569	15.89	5.2727	0.1	1820.9
7570	15.89	5.4545	0.1	1814.3
7571	15.89	5.6364	0.1	1807.8
7572	15.89	5.8182	0.1	1803.2
7573	16.074	0.18182	0.1	1751.7
7574	16.074	0.36364	0.1	1757.7
7575	16.074	0.54545	0.1	1765.4
7576	16.074	0.72727	0.1	1773.3
7577	16.074	0.90909	0.1	1780.9
7578	16.074	1.0909	0.1	1788.1
7579	16.074	1.2727	0.1	1794.8
7580	16.074	1.4545	0.1	1800.7
7581	16.074	1.6364	0.1	1805.9
7582	16.074	1.8182	0.1	1810.4
7583	16.074	2.	0.1	1814.
7584	16.074	2.1818	0.1	1816.9
7585	16.074	2.3636	0.1	1819.2
7586	16.074	2.5455	0.1	1820.8
7587	16.074	2.7273	0.1	1821.8
7588	16.074	2.9091	0.1	1822.3
7589	16.074	3.0909	0.1	1822.3
7590	16.074	3.2727	0.1	1821.8
7591	16.074	3.4545	0.1	1820.8
7592	16.074	3.6364	0.1	1819.2
7593	16.074	3.8182	0.1	1816.9
7594	16.074	4.	0.1	1814.
7595	16.074	4.1818	0.1	1810.4
7596	16.074	4.3636	0.1	1805.9
7597	16.074	4.5455	0.1	1800.7
7598	16.074	4.7273	0.1	1794.8
7599	16.074	4.9091	0.1	1788.1
7600	16.074	5.0909	0.1	1780.9
7601	16.074	5.2727	0.1	1773.3
7602	16.074	5.4545	0.1	1765.4
7603	16.074	5.6364	0.1	1757.7
7604	16.074	5.8182	0.1	1751.7
7605	16.259	0.18182	0.1	1699.
7606	16.259	0.36364	0.1	1706.5
7607	16.259	0.54545	0.1	1715.8
7608	16.259	0.72727	0.1	1725.2
7609	16.259	0.90909	0.1	1734.3
7610	16.259	1.0909	0.1	1743.
7611	16.259	1.2727	0.1	1751.
7612	16.259	1.4545	0.1	1758.2
7613	16.259	1.6364	0.1	1764.6
7614	16.259	1.8182	0.1	1770.
7615	16.259	2.	0.1	1774.5
7616	16.259	2.1818	0.1	1778.1
7617	16.259	2.3636	0.1	1780.8
7618	16.259	2.5455	0.1	1782.8
7619	16.259	2.7273	0.1	1784.1
7620	16.259	2.9091	0.1	1784.7
7621	16.259	3.0909	0.1	1784.7
7622	16.259	3.2727	0.1	1784.1
7623	16.259	3.4545	0.1	1782.8
7624	16.259	3.6364	0.1	1780.8
7625	16.259	3.8182	0.1	1778.1
7626	16.259	4.	0.1	1774.5
7627	16.259	4.1818	0.1	1770.
7628	16.259	4.3636	0.1	1764.6
7629	16.259	4.5455	0.1	1758.2
7630	16.259	4.7273	0.1	1751.
7631	16.259	4.9091	0.1	1743.
7632	16.259	5.0909	0.1	1734.3
7633	16.259	5.2727	0.1	1725.2
7634	16.259	5.4545	0.1	1715.8
7635	16.259	5.6364	0.1	1706.5
7636	16.259	5.8182	0.1	1699.
7637	16.444	0.18182	0.1	1644.8
7638	16.444	0.36364	0.1	1654.1
7639	16.444	0.54545	0.1	1665.1
7640	16.444	0.72727	0.1	1676.3
7641	16.444	0.90909	0.1	1687.2
7642	16.444	1.0909	0.1	1697.7
7643	16.444	1.2727	0.1	1707.4
7644	16.444	1.4545	0.1	1716.2
7645	16.444	1.6364	0.1	1724.
7646	16.444	1.8182	0.1	1730.7
7647	16.444	2.	0.1	1736.2
7648	16.444	2.1818	0.1	1740.7
7649	16.444	2.3636	0.1	1744.1
7650	16.444	2.5455	0.1	1746.6
7651	16.444	2.7273	0.1	1748.2
7652	16.444	2.9091	0.1	1749.
7653	16.444	3.0909	0.1	1749.
7654	16.444	3.2727	0.1	1748.2
7655	16.444	3.4545	0.1	1746.6
7656	16.444	3.6364	0.1	1744.1
7657	16.444	3.8182	0.1	1740.7
7658	16.444	4.	0.1	1736.2
7659	16.444	4.1818	0.1	1730.7
7660	16.444	4.3636	0.1	1724.
7661	16.444	4.5455	0.1	1716.2
7662	16.444	4.7273	0.1	1707.4
7663	16.444	4.9091	0.1	1697.7
7664	16.444	5.0909	0.1	1687.2
7665	16.444	5.2727	0.1	1676.3
7666	16.444	5.4545	0.1	1665.1
7667	16.444	5.6364	0.1	1654.1
7668	16.444	5.8182	0.1	1644.8
7669	16.629	0.18182	0.1	1588.6
7670	16.629	0.36364	0.1	1600.
7671	16.629	0.54545	0.1	1613.1
7672	16.629	0.72727	0.1	1626.4
7673	16.629	0.90909	0.1	1639.6
7674	16.629	1.0909	0.1	1652.2
7675	16.629	1.2727	0.1	1664.
7676	16.629	1.4545	0.1	1674.8
7677	16.629	1.6364	0.1	1684.4
7678	16.629	1.8182	0.1	1692.7
7679	16.629	2.	0.1	1699.5
7680	16.629	2.1818	0.1	1705.1
7681	16.629	2.3636	0.1	1709.4
7682	16.629	2.5455	0.1	1712.5
7683	16.629	2.7273	0.1	1714.6
7684	16.629	2.9091	0.1	1715.6
7685	16.629	3.0909	0.1	1715.6
7686	16.629	3.2727	0.1	1714.6
7687	16.629	3.4545	0.1	1712.5
7688	16.629	3.6364	0.1	1709.4
7689	16.629	3.8182	0.1	1705.1
7690	16.629	4.	0.1	1699.5
7691	16.629	4.1818	0.1	1692.7
7692	16.629	4.3636	0.1	1684.4
7693	16.629	4.5455	0.1	1674.8
7694	16.629	4.7273	0.1	1664.
7695	16.629	4.9091	0.1	1652.2
7696	16.629	5.0909	0.1	1639.6
7697	16.629	5.2727	0.1	1626.4
7698	16.629	5.4545	0.1	1613.1
7699	16.629	5.6364	0.1	1600.
7700	16.629	5.8182	0.1	1588.6
7701	16.813	0.18182	0.1	1530.
7702	16.813	0.36364	0.1	1543.8
7703	16.813	0.54545	0.1	1559.3
7704	16.813	0.72727	0.1	1575.2
7705	16.813	0.90909	0.1	1591.
7706	16.813	1.0909	0.1	1606.3
7707	16.813	1.2727	0.1	1620.8
7708	16.813	1.4545	0.1	1634.1
7709	16.813	1.6364	0.1	1645.9
7710	16.813	1.8182	0.1	1656.2
7711	16.813	2.	0.1	1664.8
7712	16.813	2.1818	0.1	1671.8
7713	16.813	2.3636	0.1	1677.2
7714	16.813	2.5455	0.1	1681.2
7715	16.813	2.7273	0.1	1683.8
7716	16.813	2.9091	0.1	1685.
7717	16.813	3.0909	0.1	1685.
7718	16.813	3.2727	0.1	1683.8
7719	16.813	3.4545	0.1	1681.2
7720	16.813	3.6364	0.1	1677.2
7721	16.813	3.8182	0.1	1671.8
7722	16.813	4.	0.1	1664.8
7723	16.813	4.1818	0.1	1656.2
7724	16.813	4.3636	0.1	1645.9
7725	16.813	4.5455	0.1	1634.1
7726	16.813	4.7273	0.1	1620.8
7727	16.813	4.9091	0.1	1606.3
7728	16.813	5.0909	0.1	1591.
7729	16.813	5.2727	0.1	1575.2
7730	16.813	5.4545	0.1	1559.3
7731	16.813	5.6364	0.1	1543.8
7732	16.813	5.8182	0.1	1530.
7733	16.998	0.18182	0.1	1468.4
7734	16.998	0.36364	0.1	1484.9
7735	16.998	0.54545	0.1	1503.2
7736	16.998	0.72727	0.1	1522.1
7737	16.998	0.90909	0.1	1541.2
7738	16.998	1.0909	0.1	1559.8
7739	16.998	1.2727	0.1	1577.6
7740	16.998	1.4545	0.1	1594.
7741	16.998	1.6364	0.1	1608.8
7742	16.998	1.8182	0.1	1621.7
7743	16.998	2.	0.1	1632.5
7744	16.998	2.1818	0.1	1641.3
7745	16.998	2.3636	0.1	1648.2
7746	16.998	2.5455	0.1	1653.3
7747	16.998	2.7273	0.1	1656.6
7748	16.998	2.9091	0.1	1658.2
7749	16.998	3.0909	0.1	1658.2
7750	16.998	3.2727	0.1	1656.6
7751	16.998	3.4545	0.1	1653.3
7752	16.998	3.6364	0.1	1648.2
7753	16.998	3.8182	0.1	1641.3
7754	16.998	4.	0.1	1632.5
7755	16.998	4.1818	0.1	1621.7
7756	16.998	4.3636	0.1	1608.8
7757	16.998	4.5455	0.1	1594.
7758	16.998	4.7273	0.1	1577.6
7759	16.998	4.9091	0.1	1559.8
7760	16.998	5.0909	0.1	1541.2
7761	16.998	5.2727	0.1	1522.1
7762	16.998	5.4545	0.1	1503.2
7763	16.998	5.6364	0.1	1484.9
7764	16.998	5.8182	0.1	1468.4
7765	17.183	0.18182	0.1	1403.
7766	17.183	0.36364	0.1	1422.6
7767	17.183	0.54545	0.1	1444.2
7768	17.183	0.72727	0.1	1466.7
7769	17.183	0.90909	0.1	1489.7
7770	17.183	1.0909	0.1	1512.5
7771	17.183	1.2727	0.1	1534.4
7772	17.183	1.4545	0.1	1554.9
7773	17.183	1.6364	0.1	1573.4
7774	17.183	1.8182	0.1	1589.5
7775	17.183	2.	0.1	1603.2
7776	17.183	2.1818	0.1	1614.4
7777	17.183	2.3636	0.1	1623.2
7778	17.183	2.5455	0.1	1629.6
7779	17.183	2.7273	0.1	1633.9
7780	17.183	2.9091	0.1	1636.
7781	17.183	3.0909	0.1	1636.
7782	17.183	3.2727	0.1	1633.9
7783	17.183	3.4545	0.1	1629.6
7784	17.183	3.6364	0.1	1623.2
7785	17.183	3.8182	0.1	1614.4
7786	17.183	4.	0.1	1603.2
7787	17.183	4.1818	0.1	1589.5
7788	17.183	4.3636	0.1	1573.4
7789	17.183	4.5455	0.1	1554.9
7790	17.183	4.7273	0.1	1534.4
7791	17.183	4.9091	0.1	1512.5
7792	17.183	5.0909	0.1	1489.7
7793	17.183	5.2727	0.1	1466.7
7794	17.183	5.4545	0.1	1444.2
7795	17.183	5.6364	0.1	1422.6
7796	17.183	5.8182	0.1	1403.
7797	17.368	0.18182	0.1	1333.
7798	17.368	0.36364	0.1	1356.1
7799	17.368	0.54545	0.1	1381.4
7800	17.368	0.72727	0.1	1408.3
7801	17.368	0.90909	0.1	1436.1
7802	17.368	1.0909	0.1	1464.1
7803	17.368	1.2727	0.1	1491.2
7804	17.368	1.4545	0.1	1516.8
7805	17.368	1.6364	0.1	1540.
7806	17.368	1.8182	0.1	1560.4
7807	17.368	2.	0.1	1577.8
7808	17.368	2.1818	0.1	1592.
7809	17.368	2.3636	0.1	1603.2
7810	17.368	2.5455	0.1	1611.5
7811	17.368	2.7273	0.1	1617.
7812	17.368	2.9091	0.1	1619.7
7813	17.368	3.0909	0.1	1619.7
7814	17.368	3.2727	0.1	1617.
7815	17.368	3.4545	0.1	1611.5
7816	17.368	3.6364	0.1	1603.2
7817	17.368	3.8182	0.1	1592.
7818	17.368	4.	0.1	1577.8
7819	17.368	4.1818	0.1	1560.4
7820	17.368	4.3636	0.1	1540.
7821	17.368	4.5455	0.1	1516.8
7822	17.368	4.7273	0.1	1491.2
7823	17.368	4.9091	0.1	1464.1
7824	17.368	5.0909	0.1	1436.1
7825	17.368	5.2727	0.1	1408.3
7826	17.368	5.4545	0.1	1381.4
7827	17.368	5.6364	0.1	1356.1
7828	17.368	5.8182	0.1	1333.
7829	17.552	0.18182	0.1	1257.6
7830	17.552	0.36364	0.1	1284.3
7831	17.552	0.54545	0.1	1314.
7832	17.552	0.72727	0.1	1346.
7833	17.552	0.90909	0.1	1379.7
7834	17.552	1.0909	0.1	1414.1
7835	17.552	1.2727	0.1	1448.
7836	17.552	1.4545	0.1	1480.1
7837	17.552	1.6364	0.1	1509.4
7838	17.552	1.8182	0.1	1535.3
7839	17.552	2.	0.1	1557.2
7840	17.552	2.1818	0.1	1575.3
7841	17.552	2.3636	0.1	1589.6
7842	17.552	2.5455	0.1	1600.4
7843	17.552	2.7273	0.1	1607.5
7844	17.552	2.9091	0.1	1611.1
7845	17.552	3.0909	0.1	1611.1
7846	17.552	3.2727	0.1	1607.5
7847	17.552	3.4545	0.1	1600.4
7848	17.552	3.6364	0.1	1589.6
7849	17.552	3.8182	0.1	1575.3
7850	17.552	4.	0.1	1557.2
7851	17.552	4.1818	0.1	1535.3
7852	17.552	4.3636	0.1	1509.4
7853	17.552	4.5455	0.1	1480.1
7854	17.552	4.7273	0.1	1448.
7855	17.552	4.9091	0.1	1414.1
7856	17.552	5.0909	0.1	1379.7
7857	17.552	5.2727	0.1	1346.
7858	17.552	5.4545	0.1	1314.
7859	17.552	5.6364	0.1	1284.3
7860	17.552	5.8182	0.1	1257.6
7861	17.737	0.18182	0.1	1175.5
7862	17.737	0.36364	0.1	1206.3
7863	17.737	0.54545	0.1	1240.8
7864	17.737	0.72727	0.1	1278.9
7865	17.737	0.90909	0.1	1319.8
7866	17.737	1.0909	0.1	1362.3
7867	17.737	1.2727	0.1	1404.7
7868	17.737	1.4545	0.1	1445.3
7869	17.737	1.6364	0.1	1482.5
7870	17.737	1.8182	0.1	1515.3
7871	17.737	2.	0.1	1543.1
7872	17.737	2.1818	0.1	1566.1
7873	17.737	2.3636	0.1	1584.4
7874	17.737	2.5455	0.1	1598.3
7875	17.737	2.7273	0.1	1607.6
7876	17.737	2.9091	0.1	1612.3
7877	17.737	3.0909	0.1	1612.3
7878	17.737	3.2727	0.1	1607.6
7879	17.737	3.4545	0.1	1598.3
7880	17.737	3.6364	0.1	1584.4
7881	17.737	3.8182	0.1	1566.1
7882	17.737	4.	0.1	1543.1
7883	17.737	4.1818	0.1	1515.3
7884	17.737	4.3636	0.1	1482.5
7885	17.737	4.5455	0.1	1445.3
7886	17.737	4.7273	0.1	1404.7
7887	17.737	4.9091	0.1	1362.3
7888	17.737	5.0909	0.1	1319.8
7889	17.737	5.2727	0.1	1278.9
7890	17.737	5.4545	0.1	1240.8
7891	17.737	5.6364	0.1	1206.3
7892	17.737	5.8182	0.1	1175.5
7893	17.922	0.18182	0.1	1085.9
7894	17.922	0.36364	0.1	1120.6
7895	17.922	0.54545	0.1	1160.5
7896	17.922	0.72727	0.1	1205.8
7897	17.922	0.90909	0.1	1255.5
7898	17.922	1.0909	0.1	1308.2
7899	17.922	1.2727	0.1	1361.6
7900	17.922	1.4545	0.1	1413.1
7901	17.922	1.6364	0.1	1460.6
7902	17.922	1.8182	0.1	1502.3
7903	17.922	2.	0.1	1537.7
7904	17.922	2.1818	0.1	1566.8
7905	17.922	2.3636	0.1	1590.1
7906	17.922	2.5455	0.1	1607.9
7907	17.922	2.7273	0.1	1620.
7908	17.922	2.9091	0.1	1626.2
7909	17.922	3.0909	0.1	1626.2
7910	17.922	3.2727	0.1	1620.
7911	17.922	3.4545	0.1	1607.9
7912	17.922	3.6364	0.1	1590.1
7913	17.922	3.8182	0.1	1566.8
7914	17.922	4.	0.1	1537.7
7915	17.922	4.1818	0.1	1502.3
7916	17.922	4.3636	0.1	1460.6
7917	17.922	4.5455	0.1	1413.1
7918	17.922	4.7273	0.1	1361.6
7919	17.922	4.9091	0.1	1308.2
7920	17.922	5.0909	0.1	1255.5
7921	17.922	5.2727	0.1	1205.8
7922	17.922	5.4545	0.1	1160.5
7923	17.922	5.6364	0.1	1120.6
7924	17.922	5.8182	0.1	1085.9
7925	18.107	0.18182	0.1	987.49
7926	18.107	0.36364	0.1	1026.
7927	18.107	0.54545	0.1	1071.9
7928	18.107	0.72727	0.1	1125.5
7929	18.107	0.90909	0.1	1186.
7930	18.107	1.0909	0.1	1251.6
7931	18.107	1.2727	0.1	1319.2
7932	18.107	1.4545	0.1	1385.1
7933	18.107	1.6364	0.1	1446.
7934	18.107	1.8182	0.1	1499.3
7935	18.107	2.	0.1	1544.
7936	18.107	2.1818	0.1	1580.6
7937	18.107	2.3636	0.1	1610.1
7938	18.107	2.5455	0.1	1632.7
7939	18.107	2.7273	0.1	1648.4
7940	18.107	2.9091	0.1	1656.4
7941	18.107	3.0909	0.1	1656.4
7942	18.107	3.2727	0.1	1648.4
7943	18.107	3.4545	0.1	1632.7
7944	18.107	3.6364	0.1	1610.1
7945	18.107	3.8182	0.1	1580.6
7946	18.107	4.	0.1	1544.
7947	18.107	4.1818	0.1	1499.3
7948	18.107	4.3636	0.1	1446.
7949	18.107	4.5455	0.1	1385.1
7950	18.107	4.7273	0.1	1319.2
7951	18.107	4.9091	0.1	1251.6
7952	18.107	5.0909	0.1	1186.
7953	18.107	5.2727	0.1	1125.5
7954	18.107	5.4545	0.1	1071.9
7955	18.107	5.6364	0.1	1026.
7956	18.107	5.8182	0.1	987.49
7957	18.291	0.18182	0.1	879.53
7958	18.291	0.36364	0.1	921.47
7959	18.291	0.54545	0.1	973.74
7960	18.291	0.72727	0.1	1037.1
7961	18.291	0.90909	0.1	1110.8
7962	18.291	1.0909	0.1	1192.6
7963	18.291	1.2727	0.1	1278.5
7964	18.291	1.4545	0.1	1363.6
7965	18.291	1.6364	0.1	1442.4
7966	18.291	1.8182	0.1	1510.8
7967	18.291	2.	0.1	1567.2
7968	18.291	2.1818	0.1	1612.8
7969	18.291	2.3636	0.1	1649.3
7970	18.291	2.5455	0.1	1677.7
7971	18.291	2.7273	0.1	1697.3
7972	18.291	2.9091	0.1	1707.4
7973	18.291	3.0909	0.1	1707.4
7974	18.291	3.2727	0.1	1697.3
7975	18.291	3.4545	0.1	1677.7
7976	18.291	3.6364	0.1	1649.3
7977	18.291	3.8182	0.1	1612.8
7978	18.291	4.	0.1	1567.2
7979	18.291	4.1818	0.1	1510.8
7980	18.291	4.3636	0.1	1442.4
7981	18.291	4.5455	0.1	1363.6
7982	18.291	4.7273	0.1	1278.5
7983	18.291	4.9091	0.1	1192.6
7984	18.291	5.0909	0.1	1110.8
7985	18.291	5.2727	0.1	1037.1
7986	18.291	5.4545	0.1	973.74
7987	18.291	5.6364	0.1	921.47
7988	18.291	5.8182	0.1	879.53
7989	18.476	0.18182	0.1	761.48
7990	18.476	0.36364	0.1	806.23
7991	18.476	0.54545	0.1	865.59
7992	18.476	0.72727	0.1	940.47
7993	18.476	0.90909	0.1	1030.1
7994	18.476	1.0909	0.1	1131.8
7995	18.476	1.2727	0.1	1241.5
7996	18.476	1.4545	0.1	1352.3
7997	18.476	1.6364	0.1	1455.7
7998	18.476	1.8182	0.1	1544.4
7999	18.476	2.	0.1	1615.3
8000	18.476	2.1818	0.1	1671.
8001	18.476	2.3636	0.1	1715.4
8002	18.476	2.5455	0.1	1749.4
8003	18.476	2.7273	0.1	1772.5
8004	18.476	2.9091	0.1	1784.1
8005	18.476	3.0909	0.1	1784.1
8006	18.476	3.2727	0.1	1772.5
8007	18.476	3.4545	0.1	1749.4
8008	18.476	3.6364	0.1	1715.4
8009	18.476	3.8182	0.1	1671.
8010	18.476	4.	0.1	1615.3
8011	18.476	4.1818	0.1	1544.4
8012	18.476	4.3636	0.1	1455.7
8013	18.476	4.5455	0.1	1352.3
8014	18.476	4.7273	0.1	1241.5
8015	18.476	4.9091	0.1	1131.8
8016	18.476	5.0909	0.1	1030.1
8017	18.476	5.2727	0.1	940.47
8018	18.476	5.4545	0.1	865.59
8019	18.476	5.6364	0.1	806.23
8020	18.476	5.8182	0.1	761.48
8021	18.661	0.18182	0.1	633.48
8022	18.661	0.36364	0.1	680.74
8023	18.661	0.54545	0.1	748.64
8024	18.661	0.72727	0.1	837.39
8025	18.661	0.90909	0.1	945.83
8026	18.661	1.0909	0.1	1071.7
8027	18.661	1.2727	0.1	1211.2
8028	18.661	1.4545	0.1	1356.9
8029	18.661	1.6364	0.1	1496.7
8030	18.661	1.8182	0.1	1614.1
8031	18.661	2.	0.1	1703.9
8032	18.661	2.1818	0.1	1770.2
8033	18.661	2.3636	0.1	1820.1
8034	18.661	2.5455	0.1	1856.8
8035	18.661	2.7273	0.1	1879.7
8036	18.661	2.9091	0.1	1890.2
8037	18.661	3.0909	0.1	1890.2
8038	18.661	3.2727	0.1	1879.7
8039	18.661	3.4545	0.1	1856.8
8040	18.661	3.6364	0.1	1820.1
8041	18.661	3.8182	0.1	1770.2
8042	18.661	4.	0.1	1703.9
8043	18.661	4.1818	0.1	1614.1
8044	18.661	4.3636	0.1	1496.7
8045	18.661	4.5455	0.1	1356.9
8046	18.661	4.7273	0.1	1211.2
8047	18.661	4.9091	0.1	1071.7
8048	18.661	5.0909	0.1	945.83
8049	18.661	5.2727	0.1	837.39
8050	18.661	5.4545	0.1	748.64
8051	18.661	5.6364	0.1	680.74
8052	18.661	5.8182	0.1	633.48
8053	18.846	0.18182	0.1	496.61
8054	18.846	0.36364	0.1	547.83
8055	18.846	0.54545	0.1	627.94
8056	18.846	0.72727	0.1	734.11
8057	18.846	0.90909	0.1	864.09
8058	18.846	1.0909	0.1	1017.
8059	18.846	1.2727	0.1	1191.8
8060	18.846	1.4545	0.1	1385.6
8061	18.846	1.6364	0.1	1579.8
8062	18.846	1.8182	0.1	1746.6
8063	18.846	2.	0.1	1862.5
8064	18.846	2.1818	0.1	1933.8
8065	18.846	2.3636	0.1	1984.9
8066	18.846	2.5455	0.1	2011.6
8067	18.846	2.7273	0.1	2021.8
8068	18.846	2.9091	0.1	2024.3
8069	18.846	3.0909	0.1	2024.3
8070	18.846	3.2727	0.1	2021.8
8071	18.846	3.4545	0.1	2011.6
8072	18.846	3.6364	0.1	1984.9
8073	18.846	3.8182	0.1	1933.8
8074	18.846	4.	0.1	1862.5
8075	18.846	4.1818	0.1	1746.6
8076	18.846	4.3636	0.1	1579.8
8077	18.846	4.5455	0.1	1385.6
8078	18.846	4.7273	0.1	1191.8
8079	18.846	4.9091	0.1	1017.
8080	18.846	5.0909	0.1	864.09
8081	18.846	5.2727	0.1	734.11
8082	18.846	5.4545	0.1	627.94
8083	18.846	5.6364	0.1	547.83
8084	18.846	5.8182	0.1	496.61
8085	19.03	0.18182	0.1	354.37
8086	19.03	0.36364	0.1	417.43
8087	19.03	0.54545	0.1	518.31
8088	19.03	0.72727	0.1	646.42
8089	19.03	0.90909	0.1	799.
8090	19.03	1.0909	0.1	978.25
8091	19.03	1.2727	0.1	1191.
8092	19.03	1.4545	0.1	1441.5
8093	19.03	1.6364	0.1	1739.3
8094	19.03	1.8182	0.1	2023.1
8095	19.03	2.	0.1	2171.2
8096	19.03	2.1818	0.1	2242.3
8097	19.03	2.3636	0.1	2246.
8098	19.03	2.5455	0.1	2221.1
8099	19.03	2.7273	0.1	2190.1
8100	19.03	2.9091	0.1	2171.8
8101	19.03	3.0909	0.1	2171.8
8102	19.03	3.2727	0.1	2190.1
8103	19.03	3.4545	0.1	2221.1
8104	19.03	3.6364	0.1	2246.
8105	19.03	3.8182	0.1	2242.3
8106	19.03	4.	0.1	2171.2
8107	19.03	4.1818	0.1	2023.1
8108	19.03	4.3636	0.1	1739.3
8109	19.03	4.5455	0.1	1441.5
8110	19.03	4.7273	0.1	1191.
8111	19.03	4.9091	0.1	978.25
8112	19.03	5.0909	0.1	799.
8113	19.03	5.2727	0.1	646.42
8114	19.03	5.4545	0.1	518.31
8115	19.03	5.6364	0.1	417.43
8116	19.03	5.8182	0.1	354.37
8117	19.215	0.18182	0.1	224.55
8118	19.215	0.36364	0.1	332.37
8119	19.215	0.54545	0.1	470.6
8120	19.215	0.72727	0.1	627.83
8121	19.215	0.90909	0.1	806.83
8122	19.215	1.0909	0.1	1015.4
8123	19.215	1.2727	0.1	1268.
8124	19.215	1.4545	0.1	1592.
8125	19.215	1.6364	0.1	2043.3
8126	19.215	1.8182	0.1	2709.2
8127	19.215	2.	0.1	3129.
8128	19.215	2.1818	0.1	2855.2
8129	19.215	2.3636	0.1	2641.9
8130	19.215	2.5455	0.1	2454.6
8131	19.215	2.7273	0.1	2347.7
8132	19.215	2.9091	0.1	2297.1
8133	19.215	3.0909	0.1	2297.1
8134	19.215	3.2727	0.1	2347.7
8135	19.215	3.4545	0.1	2454.6
8136	19.215	3.6364	0.1	2641.9
8137	19.215	3.8182	0.1	2855.2
8138	19.215	4.	0.1	3129.
8139	19.215	4.1818	0.1	2709.2
8140	19.215	4.3636	0.1	2043.3
8141	19.215	4.5455	0.1	1592.
8142	19.215	4.7273	0.1	1268.
8143	19.215	4.9091	0.1	1015.4
8144	19.215	5.0909	0.1	806.83
8145	19.215	5.2727	0.1	627.83
8146	19.215	5.4545	0.1	470.6
8147	19.215	5.6364	0.1	332.37
8148	19.215	5.8182	0.1	224.55
8149	19.567	3.8182	0.1	3656.9
8150	19.567	3.6364	0.1	2908.5
8151	19.567	3.4545	0.1	2554.8
8152	19.567	3.2727	0.1	2374.8
8153	19.567	3.0909	0.1	2297.7
8154	19.567	2.9091	0.1	2297.7
8155	19.567	2.7273	0.1	2374.8
8156	19.567	2.5455	0.1	2554.8
8157	19.567	2.3636	0.1	2908.5
8158	19.567	2.1818	0.1	3656.9
8159	19.4	3.8182	0.1	3782.1
8160	19.4	3.6364	0.1	2951.2
8161	19.4	3.4545	0.1	2604.4
8162	19.4	3.2727	0.1	2425.1
8163	19.4	3.0909	0.1	2348.9
8164	19.4	2.9091	0.1	2348.9
8165	19.4	2.7273	0.1	2425.1
8166	19.4	2.5455	0.1	2604.4
8167	19.4	2.3636	0.1	2951.2
8168	19.4	2.1818	0.1	3782.1
8169	19.567	5.8182	0.1	86.163
8170	19.567	5.6364	0.1	159.54
8171	19.567	5.4545	0.1	229.77
8172	19.567	5.2727	0.1	305.2
8173	19.567	5.0909	0.1	391.21
8174	19.567	4.9091	0.1	494.72
8175	19.567	4.7273	0.1	626.59
8176	19.567	4.5455	0.1	812.4
8177	19.567	4.3636	0.1	1048.9
8178	19.567	4.1818	0.1	1833.4
8179	19.567	4.	0.1	5151.5
8180	19.4	4.	0.1	5754.
8181	19.4	4.1818	0.1	2429.
8182	19.4	4.3636	0.1	1416.
8183	19.4	4.5455	0.1	1106.2
8184	19.4	4.7273	0.1	864.12
8185	19.4	4.9091	0.1	686.86
8186	19.4	5.0909	0.1	543.63
8187	19.4	5.2727	0.1	422.29
8188	19.4	5.4545	0.1	315.24
8189	19.4	5.6364	0.1	216.85
8190	19.4	5.8182	0.1	117.42
8191	19.567	0.18182	0.1	86.163
8192	19.567	0.36364	0.1	159.54
8193	19.567	0.54545	0.1	229.77
8194	19.567	0.72727	0.1	305.2
8195	19.567	0.90909	0.1	391.21
8196	19.567	1.0909	0.1	494.72
8197	19.567	1.2727	0.1	626.59
8198	19.567	1.4545	0.1	812.4
8199	19.567	1.6364	0.1	1048.9
8200	19.567	1.8182	0.1	1833.4
8201	19.567	2.	0.1	5151.5
8202	19.4	2.	0.1	5754.
8203	19.4	1.8182	0.1	2429.
8204	19.4	1.6364	0.1	1416.
8205	19.4	1.4545	0.1	1106.2
8206	19.4	1.2727	0.1	864.12
8207	19.4	1.0909	0.1	686.86
8208	19.4	0.90909	0.1	543.63
8209	19.4	0.72727	0.1	422.29
8210	19.4	0.54545	0.1	315.24
8211	19.4	0.36364	0.1	216.85
8212	19.4	0.18182	0.1	117.42
8213	19.567	6.	0.1	10.739
8214	19.751	6.	0.1	99.115
8215	19.936	6.	0.1	188.04
8216	20.121	6.	0.1	261.15
8217	20.306	6.	0.1	320.6
8218	20.49	6.	0.1	366.4
8219	20.675	6.	0.1	399.17
8220	20.86	6.	0.1	419.91
8221	21.044	6.	0.1	429.96
8222	21.229	6.	0.1	430.76
8223	21.414	6.	0.1	423.74
8224	21.599	6.	0.1	410.24
8225	21.783	6.	0.1	391.45
8226	21.968	6.	0.1	368.38
8227	22.153	6.	0.1	341.9
8228	22.337	6.	0.1	312.73
8229	22.522	6.	0.1	281.46
8230	22.707	6.	0.1	248.59
8231	22.892	6.	0.1	214.53
8232	23.076	6.	0.1	179.63
8233	23.261	6.	0.1	144.2
8234	23.446	6.	0.1	108.57
8235	23.631	6.	0.1	73.277
8236	23.815	6.	0.1	38.653
8237	24.	6.	0.1	9.5261
8238	24.	5.8182	0.1	30.92
8239	24.	5.6364	0.1	48.779
8240	24.	5.4545	0.1	60.641
8241	24.	5.2727	0.1	68.931
8242	24.	5.0909	0.1	74.571
8243	24.	4.9091	0.1	78.171
8244	24.	4.7273	0.1	80.168
8245	24.	4.5455	0.1	80.926
8246	24.	4.3636	0.1	80.762
8247	24.	4.1818	0.1	79.957
8248	24.	4.	0.1	78.765
8249	24.	3.8182	0.1	77.409
8250	24.	3.6364	0.1	76.082
8251	24.	3.4545	0.1	74.943
8252	24.	3.2727	0.1	74.115
8253	24.	3.0909	0.1	73.68
8254	24.	2.9091	0.1	73.68
8255	24.	2.7273	0.1	74.115
8256	24.	2.5455	0.1	74.943
8257	24.	2.3636	0.1	76.082
8258	24.	2.1818	0.1	77.409
8259	24.	2.	0.1	78.764
8260	24.	1.8182	0.1	79.957
8261	24.	1.6364	0.1	80.761
8262	24.	1.4545	0.1	80.926
8263	24.	1.2727	0.1	80.168
8264	24.	1.0909	0.1	78.171
8265	24.	0.90909	0.1	74.571
8266	24.	0.72727	0.1	68.931
8267	24.	0.54545	0.1	60.64
8268	24.	0.36364	0.1	48.779
8269	24.	0.18182	0.1	30.92
8270	1.5894e-015	0.18182	0.1	1375.7
8271	3.1789e-015	0.36364	0.1	2362.8
8272	4.7683e-015	0.54545	0.1	2882.
8273	6.3578e-015	0.72727	0.1	3210.5
8274	7.9472e-015	0.90909	0.1	3430.
8275	9.5366e-015	1.0909	0.1	3586.6
8276	1.1126e-014	1.2727	0.1	3702.5
8277	1.2716e-014	1.4545	0.1	3790.4
8278	1.4305e-014	1.6364	0.1	3858.
8279	1.5894e-014	1.8182	0.1	3910.4
8280	1.7484e-014	2.	0.1	3951.1
8281	1.9073e-014	2.1818	0.1	3982.2
8282	2.0663e-014	2.3636	0.1	4005.6
8283	2.2252e-014	2.5455	0.1	4022.2
8284	2.3842e-014	2.7273	0.1	4032.9
8285	2.5431e-014	2.9091	0.1	4038.1
8286	2.702e-014	3.0909	0.1	4038.1
8287	2.861e-014	3.2727	0.1	4032.9
8288	3.0199e-014	3.4545	0.1	4022.2
8289	3.1789e-014	3.6364	0.1	4005.6
8290	3.3378e-014	3.8182	0.1	3982.2
8291	3.4968e-014	4.	0.1	3951.1
8292	3.6557e-014	4.1818	0.1	3910.4
8293	3.8147e-014	4.3636	0.1	3858.
8294	3.9736e-014	4.5455	0.1	3790.4
8295	4.1325e-014	4.7273	0.1	3702.5
8296	4.2915e-014	4.9091	0.1	3586.6
8297	4.4504e-014	5.0909	0.1	3430.
8298	4.6094e-014	5.2727	0.1	3210.5
8299	4.7683e-014	5.4545	0.1	2882.
8300	4.9273e-014	5.6364	0.1	2362.8
8301	5.0862e-014	5.8182	0.1	1375.7
8302	24.	0.	0.1	9.5261
8303	23.815	0.	0.1	38.653
8304	23.631	0.	0.1	73.277
8305	23.446	0.	0.1	108.57
8306	23.261	0.	0.1	144.2
8307	23.076	0.	0.1	179.63
8308	22.892	0.	0.1	214.53
8309	22.707	0.	0.1	248.59
8310	22.522	0.	0.1	281.46
8311	22.337	0.	0.1	312.73
8312	22.153	0.	0.1	341.9
8313	21.968	0.	0.1	368.38
8314	21.783	0.	0.1	391.45
8315	21.599	0.	0.1	410.24
8316	21.414	0.	0.1	423.74
8317	21.229	0.	0.1	430.76
8318	21.044	0.	0.1	429.96
8319	20.86	0.	0.1	419.91
8320	20.675	0.	0.1	399.17
8321	20.49	0.	0.1	366.4
8322	20.306	0.	0.1	320.6
8323	20.121	0.	0.1	261.15
8324	19.936	0.	0.1	188.04
8325	19.751	0.	0.1	99.115
8326	19.567	0.	0.1	10.739
8327	19.4	0.	0.1	15.365
8328	19.215	-4.3259e-030	0.1	153.12
8329	19.03	-4.2843e-030	0.1	311.22
8330	18.846	-4.2427e-030	0.1	459.89
8331	18.661	-4.2011e-030	0.1	600.41
8332	18.476	-4.1595e-030	0.1	731.34
8333	18.291	-4.1179e-030	0.1	851.97
8334	18.107	-4.0763e-030	0.1	962.21
8335	17.922	-4.0347e-030	0.1	1062.6
8336	17.737	-3.9931e-030	0.1	1154.
8337	17.552	-3.9515e-030	0.1	1237.5
8338	17.368	-3.9099e-030	0.1	1314.2
8339	17.183	-3.8683e-030	0.1	1385.2
8340	16.998	-3.8267e-030	0.1	1451.4
8341	16.813	-3.7851e-030	0.1	1513.8
8342	16.629	-3.7435e-030	0.1	1573.
8343	16.444	-3.7019e-030	0.1	1629.7
8344	16.259	-3.6604e-030	0.1	1684.4
8345	16.074	-3.6188e-030	0.1	1737.5
8346	15.89	-3.5772e-030	0.1	1789.3
8347	15.705	-3.5356e-030	0.1	1840.2
8348	15.52	-3.494e-030	0.1	1890.3
8349	15.335	-3.4524e-030	0.1	1939.8
8350	15.15	-3.4108e-030	0.1	1989.
8351	14.966	-3.3692e-030	0.1	2037.8
8352	14.781	-3.3276e-030	0.1	2086.5
8353	14.596	-3.286e-030	0.1	2135.
8354	14.411	-3.2444e-030	0.1	2183.5
8355	14.227	-3.2028e-030	0.1	2232.
8356	14.042	-3.1612e-030	0.1	2280.5
8357	13.857	-3.1196e-030	0.1	2329.1
8358	13.672	-3.078e-030	0.1	2377.8
8359	13.488	-3.0364e-030	0.1	2426.5
8360	13.303	-2.9948e-030	0.1	2475.4
8361	13.118	-2.9532e-030	0.1	2524.5
8362	12.933	-2.9116e-030	0.1	2573.7
8363	12.749	-2.87e-030	0.1	2623.1
8364	12.564	-2.8285e-030	0.1	2672.6
8365	12.379	-2.7869e-030	0.1	2722.4
8366	12.194	-2.7453e-030	0.1	2772.3
8367	12.01	-2.7037e-030	0.1	2822.4
8368	11.825	-2.6621e-030	0.1	2872.7
8369	11.64	-2.6205e-030	0.1	2923.2
8370	11.455	-2.5789e-030	0.1	2974.
8371	11.27	-2.5373e-030	0.1	3024.9
8372	11.086	-2.4957e-030	0.1	3076.1
8373	10.901	-2.4541e-030	0.1	3127.4
8374	10.716	-2.4125e-030	0.1	3179.1
8375	10.531	-2.3709e-030	0.1	3230.9
8376	10.347	-2.3293e-030	0.1	3283.
8377	10.162	-2.2877e-030	0.1	3335.3
8378	9.9771	-2.2461e-030	0.1	3387.9
8379	9.7924	-2.2045e-030	0.1	3440.7
8380	9.6076	-2.1629e-030	0.1	3493.8
8381	9.4229	-2.1213e-030	0.1	3547.1
8382	9.2381	-2.0797e-030	0.1	3600.7
8383	9.0533	-2.0381e-030	0.1	3654.6
8384	8.8686	-1.9966e-030	0.1	3708.8
8385	8.6838	-1.955e-030	0.1	3763.2
8386	8.499	-1.9134e-030	0.1	3818.
8387	8.3143	-1.8718e-030	0.1	3873.1
8388	8.1295	-1.8302e-030	0.1	3928.5
8389	7.9448	-1.7886e-030	0.1	3984.3
8390	7.76	-1.747e-030	0.1	4040.3
8391	7.5752	-1.7054e-030	0.1	4096.8
8392	7.3905	-1.6638e-030	0.1	4153.6
8393	7.2057	-1.6222e-030	0.1	4210.8
8394	7.021	-1.5806e-030	0.1	4268.4
8395	6.8362	-1.539e-030	0.1	4326.5
8396	6.6514	-1.4974e-030	0.1	4385.
8397	6.4667	-1.4558e-030	0.1	4443.9
8398	6.2819	-1.4142e-030	0.1	4503.3
8399	6.0971	-1.3726e-030	0.1	4563.3
8400	5.9124	-1.331e-030	0.1	4623.7
8401	5.7276	-1.2894e-030	0.1	4684.7
8402	5.5429	-1.2478e-030	0.1	4746.3
8403	5.3581	-1.2063e-030	0.1	4808.5
8404	5.1733	-1.1647e-030	0.1	4871.2
8405	4.9886	-1.1231e-030	0.1	4934.6
8406	4.8038	-1.0815e-030	0.1	4998.6
8407	4.619	-1.0399e-030	0.1	5063.2
8408	4.4343	-9.9828e-031	0.1	5128.5
8409	4.2495	-9.5668e-031	0.1	5194.3
8410	4.0648	-9.1509e-031	0.1	5260.7
8411	3.88	-8.7349e-031	0.1	5327.6
8412	3.6952	-8.319e-031	0.1	5394.9
8413	3.5105	-7.903e-031	0.1	5462.4
8414	3.3257	-7.4871e-031	0.1	5530.
8415	3.141	-7.0711e-031	0.1	5597.3
8416	2.9562	-6.6552e-031	0.1	5664.
8417	2.7714	-6.2392e-031	0.1	5729.5
8418	2.5867	-5.8233e-031	0.1	5793.3
8419	2.4019	-5.4073e-031	0.1	5854.2
8420	2.2171	-4.9914e-031	0.1	5911.3
8421	2.0324	-4.5754e-031	0.1	5962.6
8422	1.8476	-4.1595e-031	0.1	6006.
8423	1.6629	-3.7435e-031	0.1	6038.2
8424	1.4781	-3.3276e-031	0.1	6054.6
8425	1.2933	-2.9116e-031	0.1	6048.5
8426	1.1086	-2.4957e-031	0.1	6009.7
8427	0.92381	-2.0797e-031	0.1	5921.8
8428	0.73905	-1.6638e-031	0.1	5756.6
8429	0.55429	-1.2478e-031	0.1	5458.8
8430	0.36952	-8.319e-032	0.1	4929.8
8431	0.18476	-4.1595e-032	0.1	3797.7
8432	0.	0.	0.1	2245.
8433	3.937e-014	6.	0.1	2245.
8434	0.18476	6.	0.1	3797.7
8435	0.36952	6.	0.1	4929.8
8436	0.55429	6.	0.1	5458.8
8437	0.73905	6.	0.1	5756.6
8438	0.92381	6.	0.1	5921.8
8439	1.1086	6.	0.1	6009.7
8440	1.2933	6.	0.1	6048.5
8441	1.4781	6.	0.1	6054.6
8442	1.6629	6.	0.1	6038.2
8443	1.8476	6.	0.1	6006.
8444	2.0324	6.	0.1	5962.6
8445	2.2171	6.	0.1	5911.3
8446	2.4019	6.	0.1	5854.2
8447	2.5867	6.	0.1	5793.3
8448	2.7714	6.	0.1	5729.5
8449	2.9562	6.	0.1	5664.
8450	3.141	6.	0.1	5597.3
8451	3.3257	6.	0.1	5530.
8452	3.5105	6.	0.1	5462.4
8453	3.6952	6.	0.1	5394.9
8454	3.88	6.	0.1	5327.6
8455	4.0648	6.	0.1	5260.7
8456	4.2495	6.	0.1	5194.3
8457	4.4343	6.	0.1	5128.5
8458	4.619	6.	0.1	5063.2
8459	4.8038	6.	0.1	4998.6
8460	4.9886	6.	0.1	4934.6
8461	5.1733	6.	0.1	4871.2
8462	5.3581	6.	0.1	4808.5
8463	5.5429	6.	0.1	4746.3
8464	5.7276	6.	0.1	4684.7
8465	5.9124	6.	0.1	4623.7
8466	6.0971	6.	0.1	4563.3
8467	6.2819	6.	0.1	4503.3
8468	6.4667	6.	0.1	4443.9
8469	6.6514	6.	0.1	4385.
8470	6.8362	6.	0.1	4326.5
8471	7.021	6.	0.1	4268.4
8472	7.2057	6.	0.1	4210.8
8473	7.3905	6.	0.1	4153.6
8474	7.5752	6.	0.1	4096.8
8475	7.76	6.	0.1	4040.3
8476	7.9448	6.	0.1	3984.3
8477	8.1295	6.	0.1	3928.5
8478	8.3143	6.	0.1	3873.1
8479	8.499	6.	0.1	3818.
8480	8.6838	6.	0.1	3763.2
8481	8.8686	6.	0.1	3708.8
8482	9.0533	6.	0.1	3654.6
8483	9.2381	6.	0.1	3600.7
8484	9.4229	6.	0.1	3547.1
8485	9.6076	6.	0.1	3493.8
8486	9.7924	6.	0.1	3440.7
8487	9.9771	6.	0.1	3387.9
8488	10.162	6.	0.1	3335.3
8489	10.347	6.	0.1	3283.
8490	10.531	6.	0.1	3230.9
8491	10.716	6.	0.1	3179.1
8492	10.901	6.	0.1	3127.4
8493	11.086	6.	0.1	3076.1
8494	11.27	6.	0.1	3024.9
8495	11.455	6.	0.1	2974.
8496	11.64	6.	0.1	2923.2
8497	11.825	6.	0.1	2872.7
8498	12.01	6.	0.1	2822.4
8499	12.194	6.	0.1	2772.3
8500	12.379	6.	0.1	2722.4
8501	12.564	6.	0.1	2672.6
8502	12.749	6.	0.1	2623.1
8503	12.933	6.	0.1	2573.7
8504	13.118	6.	0.1	2524.5
8505	13.303	6.	0.1	2475.4
8506	13.488	6.	0.1	2426.5
8507	13.672	6.	0.1	2377.8
8508	13.857	6.	0.1	2329.1
8509	14.042	6.	0.1	2280.5
8510	14.227	6.	0.1	2232.
8511	14.411	6.	0.1	2183.5
8512	14.596	6.	0.1	2135.
8513	14.781	6.	0.1	2086.5
8514	14.966	6.	0.1	2037.8
8515	15.15	6.	0.1	1989.
8516	15.335	6.	0.1	1939.8
8517	15.52	6.	0.1	1890.3
8518	15.705	6.	0.1	1840.2
8519	15.89	6.	0.1	1789.3
8520	16.074	6.	0.1	1737.5
8521	16.259	6.	0.1	1684.4
8522	16.444	6.	0.1	1629.7
8523	16.629	6.	0.1	1573.
8524	16.813	6.	0.1	1513.8
8525	16.998	6.	0.1	1451.4
8526	17.183	6.	0.1	1385.2
8527	17.368	6.	0.1	1314.2
8528	17.552	6.	0.1	1237.5
8529	17.737	6.	0.1	1154.
8530	17.922	6.	0.1	1062.6
8531	18.107	6.	0.1	962.21
8532	18.291	6.	0.1	851.97
8533	18.476	6.	0.1	731.34
8534	18.661	6.	0.1	600.41
8535	18.846	6.	0.1	459.89
8536	19.03	6.	0.1	311.22
8537	19.215	6.	0.1	153.12
8538	19.4	6.	0.1	15.365
8539	19.215	6.	0.	153.12
8540	19.03	6.	0.	311.22
8541	18.846	6.	0.	459.89
8542	18.661	6.	0.	600.41
8543	18.476	6.	0.	731.34
8544	18.291	6.	0.	851.97
8545	18.107	6.	0.	962.21
8546	17.922	6.	0.	1062.6
8547	17.737	6.	0.	1154.
8548	17.552	6.	0.	1237.5
8549	17.368	6.	0.	1314.2
8550	17.183	6.	0.	1385.2
8551	16.998	6.	0.	1451.4
8552	16.813	6.	0.	1513.8
8553	16.629	6.	0.	1573.
8554	16.444	6.	0.	1629.7
8555	16.259	6.	0.	1684.4
8556	16.074	6.	0.	1737.5
8557	15.89	6.	0.	1789.3
8558	15.705	6.	0.	1840.2
8559	15.52	6.	0.	1890.3
8560	15.335	6.	0.	1939.8
8561	15.15	6.	0.	1989.
8562	14.966	6.	0.	2037.8
8563	14.781	6.	0.	2086.5
8564	14.596	6.	0.	2135.
8565	14.411	6.	0.	2183.5
8566	14.227	6.	0.	2232.
8567	14.042	6.	0.	2280.5
8568	13.857	6.	0.	2329.1
8569	13.672	6.	0.	2377.8
8570	13.488	6.	0.	2426.5
8571	13.303	6.	0.	2475.4
8572	13.118	6.	0.	2524.5
8573	12.933	6.	0.	2573.7
8574	12.749	6.	0.	2623.1
8575	12.564	6.	0.	2672.6
8576	12.379	6.	0.	2722.4
8577	12.194	6.	0.	2772.3
8578	12.01	6.	0.	2822.4
8579	11.825	6.	0.	2872.7
8580	11.64	6.	0.	2923.2
8581	11.455	6.	0.	2974.
8582	11.27	6.	0.	3024.9
8583	11.086	6.	0.	3076.1
8584	10.901	6.	0.	3127.4
8585	10.716	6.	0.	3179.1
8586	10.531	6.	0.	3230.9
8587	10.347	6.	0.	3283.
8588	10.162	6.	0.	3335.3
8589	9.9771	6.	0.	3387.9
8590	9.7924	6.	0.	3440.7
8591	9.6076	6.	0.	3493.8
8592	9.4229	6.	0.	3547.1
8593	9.2381	6.	0.	3600.7
8594	9.0533	6.	0.	3654.6
8595	8.8686	6.	0.	3708.8
8596	8.6838	6.	0.	3763.2
8597	8.499	6.	0.	3818.
8598	8.3143	6.	0.	3873.1
8599	8.1295	6.	0.	3928.5
8600	7.9448	6.	0.	3984.3
8601	7.76	6.	0.	4040.3
8602	7.5752	6.	0.	4096.8
8603	7.3905	6.	0.	4153.6
8604	7.2057	6.	0.	4210.8
8605	7.021	6.	0.	4268.4
8606	6.8362	6.	0.	4326.5
8607	6.6514	6.	0.	4385.
8608	6.4667	6.	0.	4443.9
8609	6.2819	6.	0.	4503.3
8610	6.0971	6.	0.	4563.3
8611	5.9124	6.	0.	4623.7
8612	5.7276	6.	0.	4684.7
8613	5.5429	6.	0.	4746.3
8614	5.3581	6.	0.	4808.5
8615	5.1733	6.	0.	4871.2
8616	4.9886	6.	0.	4934.6
8617	4.8038	6.	0.	4998.6
8618	4.619	6.	0.	5063.2
8619	4.4343	6.	0.	5128.5
8620	4.2495	6.	0.	5194.3
8621	4.0648	6.	0.	5260.7
8622	3.88	6.	0.	5327.6
8623	3.6952	6.	0.	5394.9
8624	3.5105	6.	0.	5462.4
8625	3.3257	6.	0.	5530.
8626	3.141	6.	0.	5597.3
8627	2.9562	6.	0.	5664.
8628	2.7714	6.	0.	5729.5
8629	2.5867	6.	0.	5793.3
8630	2.4019	6.	0.	5854.2
8631	2.2171	6.	0.	5911.3
8632	2.0324	6.	0.	5962.6
8633	1.8476	6.	0.	6006.
8634	1.6629	6.	0.	6038.2
8635	1.4781	6.	0.	6054.6
8636	1.2933	6.	0.	6048.5
8637	1.1086	6.	0.	6009.7
8638	0.92381	6.	0.	5921.8
8639	0.73905	6.	0.	5756.6
8640	0.55429	6.	0.	5458.8
8641	0.36952	6.	0.	4929.8
8642	0.18476	6.	0.	3797.7
8643	19.4	6.	0.	15.365
8644	3.937e-014	6.	0.	2245.
8645	0.18476	-4.1595e-032	0.	3797.7
8646	0.36952	-8.319e-032	0.	4929.8
8647	0.55429	-1.2478e-031	0.	5458.8
8648	0.73905	-1.6638e-031	0.	5756.6
8649	0.92381	-2.0797e-031	0.	5921.8
8650	1.1086	-2.4957e-031	0.	6009.7
8651	1.2933	-2.9116e-031	0.	6048.5
8652	1.4781	-3.3276e-031	0.	6054.6
8653	1.6629	-3.7435e-031	0.	6038.2
8654	1.8476	-4.1595e-031	0.	6006.
8655	2.0324	-4.5754e-031	0.	5962.6
8656	2.2171	-4.9914e-031	0.	5911.3
8657	2.4019	-5.4073e-031	0.	5854.2
8658	2.5867	-5.8233e-031	0.	5793.3
8659	2.7714	-6.2392e-031	0.	5729.5
8660	2.9562	-6.6552e-031	0.	5664.
8661	3.141	-7.0711e-031	0.	5597.3
8662	3.3257	-7.4871e-031	0.	5530.
8663	3.5105	-7.903e-031	0.	5462.4
8664	3.6952	-8.319e-031	0.	5394.9
8665	3.88	-8.7349e-031	0.	5327.6
8666	4.0648	-9.1509e-031	0.	5260.7
8667	4.2495	-9.5668e-031	0.	5194.3
8668	4.4343	-9.9828e-031	0.	5128.5
8669	4.619	-1.0399e-030	0.	5063.2
8670	4.8038	-1.0815e-030	0.	4998.6
8671	4.9886	-1.1231e-030	0.	4934.6
8672	5.1733	-1.1647e-030	0.	4871.2
8673	5.3581	-1.2063e-030	0.	4808.5
8674	5.5429	-1.2478e-030	0.	4746.3
8675	5.7276	-1.2894e-030	0.	4684.7
8676	5.9124	-1.331e-030	0.	4623.7
8677	6.0971	-1.3726e-030	0.	4563.3
8678	6.2819	-1.4142e-030	0.	4503.3
8679	6.4667	-1.4558e-030	0.	4443.9
8680	6.6514	-1.4974e-030	0.	4385.
8681	6.8362	-1.539e-030	0.	4326.5
8682	7.021	-1.5806e-030	0.	4268.4
8683	7.2057	-1.6222e-030	0.	4210.8
8684	7.3905	-1.6638e-030	0.	4153.6
8685	7.5752	-1.7054e-030	0.	4096.8
8686	7.76	-1.747e-030	0.	4040.3
8687	7.9448	-1.7886e-030	0.	3984.3
8688	8.1295	-1.8302e-030	0.	3928.5
8689	8.3143	-1.8718e-030	0.	3873.1
8690	8.499	-1.9134e-030	0.	3818.
8691	8.6838	-1.955e-030	0.	3763.2
8692	8.8686	-1.9966e-030	0.	3708.8
8693	9.0533	-2.0381e-030	0.	3654.6
8694	9.2381	-2.0797e-030	0.	3600.7
8695	9.4229	-2.1213e-030	0.	3547.1
8696	9.6076	-2.1629e-030	0.	3493.8
8697	9.7924	-2.2045e-030	0.	3440.7
8698	9.9771	-2.2461e-030	0.	3387.9
8699	10.162	-2.2877e-030	0.	3335.3
8700	10.347	-2.3293e-030	0.	3283.
8701	10.531	-2.3709e-030	0.	3230.9
8702	10.716	-2.4125e-030	0.	3179.1
8703	10.901	-2.4541e-030	0.	3127.4
8704	11.086	-2.4957e-030	0.	3076.1
8705	11.27	-2.5373e-030	0.	3024.9
8706	11.455	-2.5789e-030	0.	2974.
8707	11.64	-2.6205e-030	0.	2923.2
8708	11.825	-2.6621e-030	0.	2872.7
8709	12.01	-2.7037e-030	0.	2822.4
8710	12.194	-2.7453e-030	0.	2772.3
8711	12.379	-2.7869e-030	0.	2722.4
8712	12.564	-2.8285e-030	0.	2672.6
8713	12.749	-2.87e-030	0.	2623.1
8714	12.933	-2.9116e-030	0.	2573.7
8715	13.118	-2.9532e-030	0.	2524.5
8716	13.303	-2.9948e-030	0.	2475.4
8717	13.488	-3.0364e-030	0.	2426.5
8718	13.672	-3.078e-030	0.	2377.8
8719	13.857	-3.1196e-030	0.	2329.1
8720	14.042	-3.1612e-030	0.	2280.5
8721	14.227	-3.2028e-030	0.	2232.
8722	14.411	-3.2444e-030	0.	2183.5
8723	14.596	-3.286e-030	0.	2135.
8724	14.781	-3.3276e-030	0.	2086.5
8725	14.966	-3.3692e-030	0.	2037.8
8726	15.15	-3.4108e-030	0.	1989.
8727	15.335	-3.4524e-030	0.	1939.8
8728	15.52	-3.494e-030	0.	1890.3
8729	15.705	-3.5356e-030	0.	1840.2
8730	15.89	-3.5772e-030	0.	1789.3
8731	16.074	-3.6188e-030	0.	1737.5
8732	16.259	-3.6604e-030	0.	1684.4
8733	16.444	-3.7019e-030	0.	1629.7
8734	16.629	-3.7435e-030	0.	1573.
8735	16.813	-3.7851e-030	0.	1513.8
8736	16.998	-3.8267e-030	0.	1451.4
8737	17.183	-3.8683e-030	0.	1385.2
8738	17.368	-3.9099e-030	0.	1314.2
8739	17.552	-3.9515e-030	0.	1237.5
8740	17.737	-3.9931e-030	0.	1154.
8741	17.922	-4.0347e-030	0.	1062.6
8742	18.107	-4.0763e-030	0.	962.21
8743	18.291	-4.1179e-030	0.	851.97
8744	18.476	-4.1595e-030	0.	731.34
8745	18.661	-4.2011e-030	0.	600.41
8746	18.846	-4.2427e-030	0.	459.89
8747	19.03	-4.2843e-030	0.	311.22
8748	19.215	-4.3259e-030	0.	153.12
8749	19.4	0.	0.	15.365
8750	0.	0.	0.	2245.
8751	19.751	0.	0.	99.115
8752	19.936	0.	0.	188.04
8753	20.121	0.	0.	261.15
8754	20.306	0.	0.	320.6
8755	20.49	0.	0.	366.4
8756	20.675	0.	0.	399.17
8757	20.86	0.	0.	419.91
8758	21.044	0.	0.	429.96
8759	21.229	0.	0.	430.76
8760	21.414	0.	0.	423.74
8761	21.599	0.	0.	410.24
8762	21.783	0.	0.	391.45
8763	21.968	0.	0.	368.38
8764	22.153	0.	0.	341.9
8765	22.337	0.	0.	312.73
8766	22.522	0.	0.	281.46
8767	22.707	0.	0.	248.59
8768	22.892	0.	0.	214.53
8769	23.076	0.	0.	179.63
8770	23.261	0.	0.	144.2
8771	23.446	0.	0.	108.57
8772	23.631	0.	0.	73.277
8773	23.815	0.	0.	38.653
8774	19.567	0.	0.	10.739
8775	24.	0.	0.	9.5261
8776	5.0862e-014	5.8182	0.	1375.7
8777	4.9273e-014	5.6364	0.	2362.8
8778	4.7683e-014	5.4545	0.	2882.
8779	4.6094e-014	5.2727	0.	3210.5
8780	4.4504e-014	5.0909	0.	3430.
8781	4.2915e-014	4.9091	0.	3586.6
8782	4.1325e-014	4.7273	0.	3702.5
8783	3.9736e-014	4.5455	0.	3790.4
8784	3.8147e-014	4.3636	0.	3858.
8785	3.6557e-014	4.1818	0.	3910.4
8786	3.4968e-014	4.	0.	3951.1
8787	3.3378e-014	3.8182	0.	3982.2
8788	3.1789e-014	3.6364	0.	4005.6
8789	3.0199e-014	3.4545	0.	4022.2
8790	2.861e-014	3.2727	0.	4032.9
8791	2.702e-014	3.0909	0.	4038.1
8792	2.5431e-014	2.9091	0.	4038.1
8793	2.3842e-014	2.7273	0.	4032.9
8794	2.2252e-014	2.5455	0.	4022.2
8795	2.0663e-014	2.3636	0.	4005.6
8796	1.9073e-014	2.1818	0.	3982.2
8797	1.7484e-014	2.	0.	3951.1
8798	1.5894e-014	1.8182	0.	3910.4
8799	1.4305e-014	1.6364	0.	3858.
8800	1.2716e-014	1.4545	0.	3790.4
8801	1.1126e-014	1.2727	0.	3702.5
8802	9.5366e-015	1.0909	0.	3586.6
8803	7.9472e-015	0.90909	0.	3430.
8804	6.3578e-015	0.72727	0.	3210.5
8805	4.7683e-015	0.54545	0.	2882.
8806	3.1789e-015	0.36364	0.	2362.8
8807	1.5894e-015	0.18182	0.	1375.7
8808	24.	0.18182	0.	30.92
8809	24.	0.36364	0.	48.779
8810	24.	0.54545	0.	60.64
8811	24.	0.72727	0.	68.931
8812	24.	0.90909	0.	74.571
8813	24.	1.0909	0.	78.171
8814	24.	1.2727	0.	80.168
8815	24.	1.4545	0.	80.926
8816	24.	1.6364	0.	80.761
8817	24.	1.8182	0.	79.957
8818	24.	2.	0.	78.764
8819	24.	2.1818	0.	77.409
8820	24.	2.3636	0.	76.082
8821	24.	2.5455	0.	74.943
8822	24.	2.7273	0.	74.115
8823	24.	2.9091	0.	73.68
8824	24.	3.0909	0.	73.68
8825	24.	3.2727	0.	74.115
8826	24.	3.4545	0.	74.943
8827	24.	3.6364	0.	76.082
8828	24.	3.8182	0.	77.409
8829	24.	4.	0.	78.765
8830	24.	4.1818	0.	79.957
8831	24.	4.3636	0.	80.762
8832	24.	4.5455	0.	80.926
8833	24.	4.7273	0.	80.168
8834	24.	4.9091	0.	78.171
8835	24.	5.0909	0.	74.571
8836	24.	5.2727	0.	68.931
8837	24.	5.4545	0.	60.641
8838	24.	5.6364	0.	48.779
8839	24.	5.8182	0.	30.92
8840	24.	6.	0.	9.5261
8841	23.815	6.	0.	38.653
8842	23.631	6.	0.	73.277
8843	23.446	6.	0.	108.57
8844	23.261	6.	0.	144.2
8845	23.076	6.	0.	179.63
8846	22.892	6.	0.	214.53
8847	22.707	6.	0.	248.59
8848	22.522	6.	0.	281.46
8849	22.337	6.	0.	312.73
8850	22.153	6.	0.	341.9
8851	21.968	6.	0.	368.38
8852	21.783	6.	0.	391.45
8853	21.599	6.	0.	410.24
8854	21.414	6.	0.	423.74
8855	21.229	6.	0.	430.76
8856	21.044	6.	0.	429.96
8857	20.86	6.	0.	419.91
8858	20.675	6.	0.	399.17
8859	20.49	6.	0.	366.4
8860	20.306	6.	0.	320.6
8861	20.121	6.	0.	261.15
8862	19.936	6.	0.	188.04
8863	19.751	6.	0.	99.115
8864	19.567	6.	0.	10.739
8865	19.4	1.8182	0.	2429.
8866	19.4	1.6364	0.	1416.
8867	19.4	1.4545	0.	1106.2
8868	19.4	1.2727	0.	864.12
8869	19.4	1.0909	0.	686.86
8870	19.4	0.90909	0.	543.63
8871	19.4	0.72727	0.	422.29
8872	19.4	0.54545	0.	315.24
8873	19.4	0.36364	0.	216.85
8874	19.4	0.18182	0.	117.42
8875	19.4	2.	0.	5754.
8876	19.567	0.18182	0.	86.163
8877	19.567	0.36364	0.	159.54
8878	19.567	0.54545	0.	229.77
8879	19.567	0.72727	0.	305.2
8880	19.567	0.90909	0.	391.21
8881	19.567	1.0909	0.	494.72
8882	19.567	1.2727	0.	626.59
8883	19.567	1.4545	0.	812.4
8884	19.567	1.6364	0.	1048.9
8885	19.567	1.8182	0.	1833.4
8886	19.567	2.	0.	5151.5
8887	19.4	4.1818	0.	2429.
8888	19.4	4.3636	0.	1416.
8889	19.4	4.5455	0.	1106.2
8890	19.4	4.7273	0.	864.12
8891	19.4	4.9091	0.	686.86
8892	19.4	5.0909	0.	543.63
8893	19.4	5.2727	0.	422.29
8894	19.4	5.4545	0.	315.24
8895	19.4	5.6364	0.	216.85
8896	19.4	5.8182	0.	117.42
8897	19.4	4.	0.	5754.
8898	19.567	5.8182	0.	86.163
8899	19.567	5.6364	0.	159.54
8900	19.567	5.4545	0.	229.77
8901	19.567	5.2727	0.	305.2
8902	19.567	5.0909	0.	391.21
8903	19.567	4.9091	0.	494.72
8904	19.567	4.7273	0.	626.59
8905	19.567	4.5455	0.	812.4
8906	19.567	4.3636	0.	1048.9
8907	19.567	4.1818	0.	1833.4
8908	19.567	4.	0.	5151.5
8909	19.4	2.2727	0.	3365.
8910	19.483	2.1818	0.	3663.1
8911	19.308	2.1818	0.	3276.3
8912	19.4	2.1818	5.e-002	254.45
8913	19.4	2.0909	0.	4639.6
8914	19.4	2.4545	0.	2777.8
8915	19.483	2.3636	0.	2913.7
8916	19.308	2.3636	0.	2786.9
8917	19.4	2.3636	5.e-002	36.345
8918	19.4	2.6364	0.	2514.7
8919	19.483	2.5455	0.	2575.4
8920	19.308	2.5455	0.	2526.3
8921	19.4	2.5455	5.e-002	16.884
8922	19.4	2.8182	0.	2386.9
8923	19.483	2.7273	0.	2398.8
8924	19.308	2.7273	0.	2385.5
8925	19.4	2.7273	5.e-002	8.0331
8926	19.4	3.	0.	2348.8
8927	19.483	2.9091	0.	2323.2
8928	19.308	2.9091	0.	2322.9
8929	19.4	2.9091	5.e-002	3.7411
8930	19.4	3.1818	0.	2386.9
8931	19.483	3.0909	0.	2323.2
8932	19.308	3.0909	0.	2322.9
8933	19.4	3.0909	5.e-002	3.7411
8934	19.4	3.3636	0.	2514.7
8935	19.483	3.2727	0.	2398.8
8936	19.308	3.2727	0.	2385.5
8937	19.4	3.2727	5.e-002	8.0331
8938	19.4	3.5455	0.	2777.8
8939	19.483	3.4545	0.	2575.4
8940	19.308	3.4545	0.	2526.3
8941	19.4	3.4545	5.e-002	16.884
8942	19.4	3.7273	0.	3365.
8943	19.483	3.6364	0.	2913.7
8944	19.308	3.6364	0.	2786.9
8945	19.4	3.6364	5.e-002	36.345
8946	19.483	3.8182	0.	3663.1
8947	19.308	3.8182	0.	3276.3
8948	19.4	3.8182	5.e-002	254.45
8949	19.4	3.9091	0.	4639.6
8950	19.567	2.2727	0.	3273.2
8951	19.659	2.1818	0.	3103.2
8952	19.567	2.1818	5.e-002	198.48
8953	19.567	2.0909	0.	4291.
8954	19.567	2.4545	0.	2729.
8955	19.659	2.3636	0.	2684.1
8956	19.567	2.3636	5.e-002	43.66
8957	19.567	2.6364	0.	2463.8
8958	19.659	2.5455	0.	2421.5
8959	19.567	2.5455	5.e-002	20.665
8960	19.567	2.8182	0.	2335.6
8961	19.659	2.7273	0.	2279.7
8962	19.567	2.7273	5.e-002	11.949
8963	19.567	3.	0.	2297.2
8964	19.659	2.9091	0.	2216.3
8965	19.567	2.9091	5.e-002	8.5399
8966	19.567	3.1818	0.	2335.6
8967	19.659	3.0909	0.	2216.3
8968	19.567	3.0909	5.e-002	8.5399
8969	19.567	3.3636	0.	2463.8
8970	19.659	3.2727	0.	2279.7
8971	19.567	3.2727	5.e-002	11.949
8972	19.567	3.5455	0.	2729.
8973	19.659	3.4545	0.	2421.5
8974	19.567	3.4545	5.e-002	20.665
8975	19.567	3.7273	0.	3273.2
8976	19.659	3.6364	0.	2684.1
8977	19.567	3.6364	5.e-002	43.661
8978	19.659	3.8182	0.	3103.2
8979	19.567	3.8182	5.e-002	198.48
8980	19.567	3.9091	0.	4291.
8981	19.215	5.7273	0.	276.63
8982	19.123	5.8182	0.	282.85
8983	19.215	5.8182	5.e-002	30.143
8984	19.215	5.9091	0.	178.89
8985	19.308	5.8182	0.	153.03
8986	19.215	5.5455	0.	400.97
8987	19.123	5.6364	0.	364.41
8988	19.215	5.6364	5.e-002	27.383
8989	19.308	5.6364	0.	254.71
8990	19.215	5.3636	0.	549.
8991	19.123	5.4545	0.	483.34
8992	19.215	5.4545	5.e-002	28.712
8993	19.308	5.4545	0.	370.18
8994	19.215	5.1818	0.	717.18
8995	19.123	5.2727	0.	625.93
8996	19.215	5.2727	5.e-002	31.517
8997	19.308	5.2727	0.	498.21
8998	19.215	5.	0.	910.97
8999	19.123	5.0909	0.	791.2
9000	19.215	5.0909	5.e-002	35.807
9001	19.308	5.0909	0.	643.14
9002	19.215	4.8182	0.	1141.5
9003	19.123	4.9091	0.	983.78
9004	19.215	4.9091	5.e-002	41.963
9005	19.308	4.9091	0.	812.48
9006	19.215	4.6364	0.	1429.4
9007	19.123	4.7273	0.	1213.6
9008	19.215	4.7273	5.e-002	51.672
9009	19.308	4.7273	0.	1018.9
9010	19.215	4.4545	0.	1816.7
9011	19.123	4.5455	0.	1495.8
9012	19.215	4.5455	5.e-002	63.888
9013	19.308	4.5455	0.	1290.1
9014	19.215	4.2727	0.	2362.1
9015	19.123	4.3636	0.	1857.1
9016	19.215	4.3636	5.e-002	97.207
9017	19.308	4.3636	0.	1650.6
9018	19.215	4.0909	0.	2872.7
9019	19.123	4.1818	0.	2336.1
9020	19.215	4.1818	5.e-002	189.53
9021	19.308	4.1818	0.	2371.
9022	19.215	3.9091	0.	2940.5
9023	19.123	4.	0.	2635.4
9024	19.215	4.	5.e-002	341.92
9025	19.308	4.	0.	4355.5
9026	19.215	3.7273	0.	2742.3
9027	19.123	3.8182	0.	2548.4
9028	19.215	3.8182	5.e-002	132.8
9029	19.215	3.5455	0.	2546.5
9030	19.123	3.6364	0.	2443.2
9031	19.215	3.6364	5.e-002	58.532
9032	19.215	3.3636	0.	2400.6
9033	19.123	3.4545	0.	2337.3
9034	19.215	3.4545	5.e-002	31.235
9035	19.215	3.1818	0.	2322.1
9036	19.123	3.2727	0.	2268.6
9037	19.215	3.2727	5.e-002	17.805
9038	19.215	3.	0.	2296.9
9039	19.123	3.0909	0.	2234.4
9040	19.215	3.0909	5.e-002	13.086
9041	19.215	2.8182	0.	2322.1
9042	19.123	2.9091	0.	2234.4
9043	19.215	2.9091	5.e-002	13.086
9044	19.215	2.6364	0.	2400.6
9045	19.123	2.7273	0.	2268.6
9046	19.215	2.7273	5.e-002	17.805
9047	19.215	2.4545	0.	2546.5
9048	19.123	2.5455	0.	2337.3
9049	19.215	2.5455	5.e-002	31.235
9050	19.215	2.2727	0.	2742.3
9051	19.123	2.3636	0.	2443.2
9052	19.215	2.3636	5.e-002	58.532
9053	19.215	2.0909	0.	2940.5
9054	19.123	2.1818	0.	2548.4
9055	19.215	2.1818	5.e-002	132.8
9056	19.215	1.9091	0.	2872.7
9057	19.123	2.	0.	2635.4
9058	19.215	2.	5.e-002	341.92
9059	19.308	2.	0.	4355.5
9060	19.215	1.7273	0.	2362.1
9061	19.123	1.8182	0.	2336.1
9062	19.215	1.8182	5.e-002	189.53
9063	19.308	1.8182	0.	2371.
9064	19.215	1.5455	0.	1816.7
9065	19.123	1.6364	0.	1857.1
9066	19.215	1.6364	5.e-002	97.207
9067	19.308	1.6364	0.	1650.6
9068	19.215	1.3636	0.	1429.4
9069	19.123	1.4545	0.	1495.8
9070	19.215	1.4545	5.e-002	63.888
9071	19.308	1.4545	0.	1290.1
9072	19.215	1.1818	0.	1141.5
9073	19.123	1.2727	0.	1213.6
9074	19.215	1.2727	5.e-002	51.672
9075	19.308	1.2727	0.	1018.9
9076	19.215	1.	0.	910.97
9077	19.123	1.0909	0.	983.78
9078	19.215	1.0909	5.e-002	41.963
9079	19.308	1.0909	0.	812.48
9080	19.215	0.81818	0.	717.18
9081	19.123	0.90909	0.	791.2
9082	19.215	0.90909	5.e-002	35.807
9083	19.308	0.90909	0.	643.14
9084	19.215	0.63636	0.	549.
9085	19.123	0.72727	0.	625.93
9086	19.215	0.72727	5.e-002	31.517
9087	19.308	0.72727	0.	498.21
9088	19.215	0.45455	0.	400.97
9089	19.123	0.54545	0.	483.34
9090	19.215	0.54545	5.e-002	28.712
9091	19.308	0.54545	0.	370.18
9092	19.215	0.27273	0.	276.63
9093	19.123	0.36364	0.	364.41
9094	19.215	0.36364	5.e-002	27.383
9095	19.308	0.36364	0.	254.71
9096	19.123	0.18182	0.	282.85
9097	19.215	0.18182	5.e-002	30.143
9098	19.215	9.0909e-002	0.	178.89
9099	19.308	0.18182	0.	153.03
9100	19.03	5.7273	0.	384.15
9101	18.938	5.8182	0.	423.63
9102	19.03	5.8182	5.e-002	28.553
9103	19.03	5.9091	0.	327.3
9104	19.03	5.5455	0.	466.67
9105	18.938	5.6364	0.	478.81
9106	19.03	5.6364	5.e-002	25.837
9107	19.03	5.3636	0.	581.79
9108	18.938	5.4545	0.	567.62
9109	19.03	5.4545	5.e-002	26.304
9110	19.03	5.1818	0.	722.46
9111	18.938	5.2727	0.	683.64
9112	19.03	5.2727	5.e-002	27.801
9113	19.03	5.	0.	888.5
9114	18.938	5.0909	0.	824.02
9115	19.03	5.0909	5.e-002	30.268
9116	19.03	4.8182	0.	1084.4
9117	18.938	4.9091	0.	989.08
9118	19.03	4.9091	5.e-002	33.843
9119	19.03	4.6364	0.	1315.6
9120	18.938	4.7273	0.	1181.6
9121	19.03	4.7273	5.e-002	38.452
9122	19.03	4.4545	0.	1587.9
9123	18.938	4.5455	0.	1402.4
9124	19.03	4.5455	5.e-002	46.631
9125	19.03	4.2727	0.	1875.7
9126	18.938	4.3636	0.	1649.1
9127	19.03	4.3636	5.e-002	43.022
9128	19.03	4.0909	0.	2085.6
9129	18.938	4.1818	0.	1876.7
9130	19.03	4.1818	5.e-002	58.685
9131	19.03	3.9091	0.	2200.9
9132	18.938	4.	0.	2014.7
9133	19.03	4.	5.e-002	47.259
9134	19.03	3.7273	0.	2241.
9135	18.938	3.8182	0.	2087.5
9136	19.03	3.8182	5.e-002	64.782
9137	19.03	3.5455	0.	2231.9
9138	18.938	3.6364	0.	2115.4
9139	19.03	3.6364	5.e-002	42.884
9140	19.03	3.3636	0.	2204.6
9141	18.938	3.4545	0.	2116.4
9142	19.03	3.4545	5.e-002	31.351
9143	19.03	3.1818	0.	2180.3
9144	18.938	3.2727	0.	2105.9
9145	19.03	3.2727	5.e-002	21.801
9146	19.03	3.	0.	2171.2
9147	18.938	3.0909	0.	2098.
9148	19.03	3.0909	5.e-002	17.773
9149	19.03	2.8182	0.	2180.3
9150	18.938	2.9091	0.	2098.
9151	19.03	2.9091	5.e-002	17.773
9152	19.03	2.6364	0.	2204.6
9153	18.938	2.7273	0.	2105.9
9154	19.03	2.7273	5.e-002	21.801
9155	19.03	2.4545	0.	2231.9
9156	18.938	2.5455	0.	2116.4
9157	19.03	2.5455	5.e-002	31.351
9158	19.03	2.2727	0.	2241.
9159	18.938	2.3636	0.	2115.4
9160	19.03	2.3636	5.e-002	42.884
9161	19.03	2.0909	0.	2200.9
9162	18.938	2.1818	0.	2087.5
9163	19.03	2.1818	5.e-002	64.782
9164	19.03	1.9091	0.	2085.6
9165	18.938	2.	0.	2014.7
9166	19.03	2.	5.e-002	47.259
9167	19.03	1.7273	0.	1875.7
9168	18.938	1.8182	0.	1876.7
9169	19.03	1.8182	5.e-002	58.685
9170	19.03	1.5455	0.	1587.9
9171	18.938	1.6364	0.	1649.1
9172	19.03	1.6364	5.e-002	43.022
9173	19.03	1.3636	0.	1315.6
9174	18.938	1.4545	0.	1402.4
9175	19.03	1.4545	5.e-002	46.631
9176	19.03	1.1818	0.	1084.4
9177	18.938	1.2727	0.	1181.6
9178	19.03	1.2727	5.e-002	38.452
9179	19.03	1.	0.	888.5
9180	18.938	1.0909	0.	989.08
9181	19.03	1.0909	5.e-002	33.843
9182	19.03	0.81818	0.	722.46
9183	18.938	0.90909	0.	824.02
9184	19.03	0.90909	5.e-002	30.268
9185	19.03	0.63636	0.	581.79
9186	18.938	0.72727	0.	683.64
9187	19.03	0.72727	5.e-002	27.801
9188	19.03	0.45455	0.	466.67
9189	18.938	0.54545	0.	567.62
9190	19.03	0.54545	5.e-002	26.304
9191	19.03	0.27273	0.	384.15
9192	18.938	0.36364	0.	478.81
9193	19.03	0.36364	5.e-002	25.837
9194	18.938	0.18182	0.	423.63
9195	19.03	0.18182	5.e-002	28.553
9196	19.03	9.0909e-002	0.	327.3
9197	18.846	5.7273	0.	521.14
9198	18.753	5.8182	0.	564.09
9199	18.846	5.8182	5.e-002	27.428
9200	18.846	5.9091	0.	474.86
9201	18.846	5.5455	0.	586.86
9202	18.753	5.6364	0.	612.47
9203	18.846	5.6364	5.e-002	25.113
9204	18.846	5.3636	0.	680.38
9205	18.753	5.4545	0.	685.39
9206	18.846	5.4545	5.e-002	25.385
9207	18.846	5.1818	0.	798.79
9208	18.753	5.2727	0.	781.84
9209	18.846	5.2727	5.e-002	26.291
9210	18.846	5.	0.	940.4
9211	18.753	5.0909	0.	900.21
9212	18.846	5.0909	5.e-002	27.638
9213	18.846	4.8182	0.	1104.2
9214	18.753	4.9091	0.	1038.9
9215	18.846	4.9091	5.e-002	29.288
9216	18.846	4.6364	0.	1288.2
9217	18.753	4.7273	0.	1195.6
9218	18.846	4.7273	5.e-002	30.609
9219	18.846	4.4545	0.	1481.4
9220	18.753	4.5455	0.	1365.3
9221	18.846	4.5455	5.e-002	30.03
9222	18.846	4.2727	0.	1660.5
9223	18.753	4.3636	0.	1533.2
9224	18.846	4.3636	5.e-002	28.853
9225	18.846	4.0909	0.	1801.7
9226	18.753	4.1818	0.	1677.2
9227	18.846	4.1818	5.e-002	23.434
9228	18.846	3.9091	0.	1895.9
9229	18.753	4.	0.	1781.6
9230	18.846	4.	5.e-002	29.004
9231	18.846	3.7273	0.	1957.9
9232	18.753	3.8182	0.	1851.3
9233	18.846	3.8182	5.e-002	30.81
9234	18.846	3.5455	0.	1997.3
9235	18.753	3.6364	0.	1902.2
9236	18.846	3.6364	5.e-002	28.905
9237	18.846	3.3636	0.	2015.9
9238	18.753	3.4545	0.	1934.1
9239	18.846	3.4545	5.e-002	23.801
9240	18.846	3.1818	0.	2022.4
9241	18.753	3.2727	0.	1950.7
9242	18.846	3.2727	5.e-002	19.908
9243	18.846	3.	0.	2023.7
9244	18.753	3.0909	0.	1957.2
9245	18.846	3.0909	5.e-002	17.732
9246	18.846	2.8182	0.	2022.4
9247	18.753	2.9091	0.	1957.2
9248	18.846	2.9091	5.e-002	17.732
9249	18.846	2.6364	0.	2015.9
9250	18.753	2.7273	0.	1950.7
9251	18.846	2.7273	5.e-002	19.908
9252	18.846	2.4545	0.	1997.3
9253	18.753	2.5455	0.	1934.1
9254	18.846	2.5455	5.e-002	23.801
9255	18.846	2.2727	0.	1957.9
9256	18.753	2.3636	0.	1902.2
9257	18.846	2.3636	5.e-002	28.905
9258	18.846	2.0909	0.	1895.9
9259	18.753	2.1818	0.	1851.3
9260	18.846	2.1818	5.e-002	30.81
9261	18.846	1.9091	0.	1801.7
9262	18.753	2.	0.	1781.5
9263	18.846	2.	5.e-002	29.004
9264	18.846	1.7273	0.	1660.5
9265	18.753	1.8182	0.	1677.2
9266	18.846	1.8182	5.e-002	23.434
9267	18.846	1.5455	0.	1481.4
9268	18.753	1.6364	0.	1533.2
9269	18.846	1.6364	5.e-002	28.853
9270	18.846	1.3636	0.	1288.2
9271	18.753	1.4545	0.	1365.3
9272	18.846	1.4545	5.e-002	30.03
9273	18.846	1.1818	0.	1104.2
9274	18.753	1.2727	0.	1195.6
9275	18.846	1.2727	5.e-002	30.609
9276	18.846	1.	0.	940.4
9277	18.753	1.0909	0.	1038.9
9278	18.846	1.0909	5.e-002	29.288
9279	18.846	0.81818	0.	798.79
9280	18.753	0.90909	0.	900.21
9281	18.846	0.90909	5.e-002	27.638
9282	18.846	0.63636	0.	680.38
9283	18.753	0.72727	0.	781.84
9284	18.846	0.72727	5.e-002	26.291
9285	18.846	0.45455	0.	586.86
9286	18.753	0.54545	0.	685.39
9287	18.846	0.54545	5.e-002	25.385
9288	18.846	0.27273	0.	521.14
9289	18.753	0.36364	0.	612.47
9290	18.846	0.36364	5.e-002	25.113
9291	18.753	0.18182	0.	564.09
9292	18.846	0.18182	5.e-002	27.428
9293	18.846	9.0909e-002	0.	474.86
9294	18.661	5.7273	0.	656.4
9295	18.569	5.8182	0.	696.89
9296	18.661	5.8182	5.e-002	25.602
9297	18.661	5.9091	0.	614.9
9298	18.661	5.5455	0.	713.98
9299	18.569	5.6364	0.	742.46
9300	18.661	5.6364	5.e-002	23.638
9301	18.661	5.3636	0.	792.51
9302	18.569	5.4545	0.	805.47
9303	18.661	5.4545	5.e-002	23.668
9304	18.661	5.1818	0.	891.35
9305	18.569	5.2727	0.	886.64
9306	18.661	5.2727	5.e-002	23.979
9307	18.661	5.	0.	1008.7
9308	18.569	5.0909	0.	985.08
9309	18.661	5.0909	5.e-002	24.332
9310	18.661	4.8182	0.	1141.4
9311	18.569	4.9091	0.	1098.5
9312	18.661	4.9091	5.e-002	24.438
9313	18.661	4.6364	0.	1283.8
9314	18.569	4.7273	0.	1222.9
9315	18.661	4.7273	5.e-002	23.816
9316	18.661	4.4545	0.	1426.2
9317	18.569	4.5455	0.	1351.4
9318	18.661	4.5455	5.e-002	21.978
9319	18.661	4.2727	0.	1554.4
9320	18.569	4.3636	0.	1473.6
9321	18.661	4.3636	5.e-002	18.686
9322	18.661	4.0909	0.	1657.8
9323	18.569	4.1818	0.	1577.5
9324	18.661	4.1818	5.e-002	16.777
9325	18.661	3.9091	0.	1736.
9326	18.569	4.	0.	1658.5
9327	18.661	4.	5.e-002	17.689
9328	18.661	3.7273	0.	1794.4
9329	18.569	3.8182	0.	1720.1
9330	18.661	3.8182	5.e-002	18.418
9331	18.661	3.5455	0.	1837.9
9332	18.569	3.6364	0.	1767.4
9333	18.661	3.6364	5.e-002	18.193
9334	18.661	3.3636	0.	1867.7
9335	18.569	3.4545	0.	1803.
9336	18.661	3.4545	5.e-002	16.991
9337	18.661	3.1818	0.	1884.5
9338	18.569	3.2727	0.	1826.
9339	18.661	3.2727	5.e-002	15.71
9340	18.661	3.	0.	1889.8
9341	18.569	3.0909	0.	1837.2
9342	18.661	3.0909	5.e-002	14.902
9343	18.661	2.8182	0.	1884.5
9344	18.569	2.9091	0.	1837.2
9345	18.661	2.9091	5.e-002	14.902
9346	18.661	2.6364	0.	1867.7
9347	18.569	2.7273	0.	1826.
9348	18.661	2.7273	5.e-002	15.71
9349	18.661	2.4545	0.	1837.9
9350	18.569	2.5455	0.	1803.
9351	18.661	2.5455	5.e-002	16.991
9352	18.661	2.2727	0.	1794.4
9353	18.569	2.3636	0.	1767.4
9354	18.661	2.3636	5.e-002	18.193
9355	18.661	2.0909	0.	1736.
9356	18.569	2.1818	0.	1720.1
9357	18.661	2.1818	5.e-002	18.418
9358	18.661	1.9091	0.	1657.8
9359	18.569	2.	0.	1658.5
9360	18.661	2.	5.e-002	17.689
9361	18.661	1.7273	0.	1554.4
9362	18.569	1.8182	0.	1577.5
9363	18.661	1.8182	5.e-002	16.777
9364	18.661	1.5455	0.	1426.2
9365	18.569	1.6364	0.	1473.6
9366	18.661	1.6364	5.e-002	18.686
9367	18.661	1.3636	0.	1283.8
9368	18.569	1.4545	0.	1351.4
9369	18.661	1.4545	5.e-002	21.978
9370	18.661	1.1818	0.	1141.4
9371	18.569	1.2727	0.	1222.9
9372	18.661	1.2727	5.e-002	23.816
9373	18.661	1.	0.	1008.7
9374	18.569	1.0909	0.	1098.5
9375	18.661	1.0909	5.e-002	24.438
9376	18.661	0.81818	0.	891.35
9377	18.569	0.90909	0.	985.08
9378	18.661	0.90909	5.e-002	24.332
9379	18.661	0.63636	0.	792.51
9380	18.569	0.72727	0.	886.64
9381	18.661	0.72727	5.e-002	23.979
9382	18.661	0.45455	0.	713.98
9383	18.569	0.54545	0.	805.47
9384	18.661	0.54545	5.e-002	23.668
9385	18.661	0.27273	0.	656.4
9386	18.569	0.36364	0.	742.46
9387	18.661	0.36364	5.e-002	23.638
9388	18.569	0.18182	0.	696.89
9389	18.661	0.18182	5.e-002	25.602
9390	18.661	9.0909e-002	0.	614.9
9391	18.476	5.7273	0.	783.35
9392	18.384	5.8182	0.	820.11
9393	18.476	5.8182	5.e-002	23.321
9394	18.476	5.9091	0.	745.26
9395	18.476	5.5455	0.	835.43
9396	18.384	5.6364	0.	863.22
9397	18.476	5.6364	5.e-002	21.846
9398	18.476	5.3636	0.	902.68
9399	18.384	5.4545	0.	918.68
9400	18.476	5.4545	5.e-002	21.656
9401	18.476	5.1818	0.	985.07
9402	18.384	5.2727	0.	987.43
9403	18.476	5.2727	5.e-002	21.512
9404	18.476	5.	0.	1080.9
9405	18.384	5.0909	0.	1068.7
9406	18.476	5.0909	5.e-002	21.203
9407	18.476	4.8182	0.	1186.6
9408	18.384	4.9091	0.	1160.3
9409	18.476	4.9091	5.e-002	20.498
9410	18.476	4.6364	0.	1296.8
9411	18.384	4.7273	0.	1258.
9412	18.476	4.7273	5.e-002	19.148
9413	18.476	4.4545	0.	1403.7
9414	18.384	4.5455	0.	1356.1
9415	18.476	4.5455	5.e-002	17.004
9416	18.476	4.2727	0.	1499.6
9417	18.384	4.3636	0.	1447.6
9418	18.476	4.3636	5.e-002	14.506
9419	18.476	4.0909	0.	1579.3
9420	18.384	4.1818	0.	1526.5
9421	18.476	4.1818	5.e-002	12.779
9422	18.476	3.9091	0.	1642.7
9423	18.384	4.	0.	1590.6
9424	18.476	4.	5.e-002	12.31
9425	18.476	3.7273	0.	1692.8
9426	18.384	3.8182	0.	1641.5
9427	18.476	3.8182	5.e-002	12.234
9428	18.476	3.5455	0.	1732.1
9429	18.384	3.6364	0.	1682.1
9430	18.476	3.6364	5.e-002	11.957
9431	18.476	3.3636	0.	1760.7
9432	18.384	3.4545	0.	1713.4
9433	18.476	3.4545	5.e-002	11.64
9434	18.476	3.1818	0.	1778.
9435	18.384	3.2727	0.	1734.9
9436	18.476	3.2727	5.e-002	11.33
9437	18.476	3.	0.	1783.8
9438	18.384	3.0909	0.	1745.8
9439	18.476	3.0909	5.e-002	11.14
9440	18.476	2.8182	0.	1778.
9441	18.384	2.9091	0.	1745.8
9442	18.476	2.9091	5.e-002	11.14
9443	18.476	2.6364	0.	1760.7
9444	18.384	2.7273	0.	1734.9
9445	18.476	2.7273	5.e-002	11.33
9446	18.476	2.4545	0.	1732.1
9447	18.384	2.5455	0.	1713.4
9448	18.476	2.5455	5.e-002	11.64
9449	18.476	2.2727	0.	1692.8
9450	18.384	2.3636	0.	1682.1
9451	18.476	2.3636	5.e-002	11.957
9452	18.476	2.0909	0.	1642.7
9453	18.384	2.1818	0.	1641.5
9454	18.476	2.1818	5.e-002	12.234
9455	18.476	1.9091	0.	1579.3
9456	18.384	2.	0.	1590.6
9457	18.476	2.	5.e-002	12.31
9458	18.476	1.7273	0.	1499.6
9459	18.384	1.8182	0.	1526.5
9460	18.476	1.8182	5.e-002	12.779
9461	18.476	1.5455	0.	1403.7
9462	18.384	1.6364	0.	1447.6
9463	18.476	1.6364	5.e-002	14.506
9464	18.476	1.3636	0.	1296.8
9465	18.384	1.4545	0.	1356.1
9466	18.476	1.4545	5.e-002	17.004
9467	18.476	1.1818	0.	1186.6
9468	18.384	1.2727	0.	1258.
9469	18.476	1.2727	5.e-002	19.148
9470	18.476	1.	0.	1080.9
9471	18.384	1.0909	0.	1160.3
9472	18.476	1.0909	5.e-002	20.498
9473	18.476	0.81818	0.	985.07
9474	18.384	0.90909	0.	1068.7
9475	18.476	0.90909	5.e-002	21.203
9476	18.476	0.63636	0.	902.68
9477	18.384	0.72727	0.	987.43
9478	18.476	0.72727	5.e-002	21.512
9479	18.476	0.45455	0.	835.43
9480	18.384	0.54545	0.	918.68
9481	18.476	0.54545	5.e-002	21.656
9482	18.476	0.27273	0.	783.35
9483	18.384	0.36364	0.	863.22
9484	18.476	0.36364	5.e-002	21.846
9485	18.384	0.18182	0.	820.11
9486	18.476	0.18182	5.e-002	23.321
9487	18.476	9.0909e-002	0.	745.26
9488	18.291	5.7273	0.	900.13
9489	18.199	5.8182	0.	933.24
9490	18.291	5.8182	5.e-002	20.821
9491	18.291	5.9091	0.	865.16
9492	18.291	5.5455	0.	947.28
9493	18.199	5.6364	0.	973.35
9494	18.291	5.6364	5.e-002	19.953
9495	18.291	5.3636	0.	1005.2
9496	18.199	5.4545	0.	1022.2
9497	18.291	5.4545	5.e-002	19.614
9498	18.291	5.1818	0.	1073.8
9499	18.199	5.2727	0.	1080.5
9500	18.291	5.2727	5.e-002	19.187
9501	18.291	5.	0.	1151.6
9502	18.199	5.0909	0.	1147.4
9503	18.291	5.0909	5.e-002	18.527
9504	18.291	4.8182	0.	1235.5
9505	18.199	4.9091	0.	1220.9
9506	18.291	4.9091	5.e-002	17.5
9507	18.291	4.6364	0.	1321.
9508	18.199	4.7273	0.	1297.7
9509	18.291	4.7273	5.e-002	16.005
9510	18.291	4.4545	0.	1402.9
9511	18.199	4.5455	0.	1373.3
9512	18.291	4.5455	5.e-002	14.09
9513	18.291	4.2727	0.	1476.4
9514	18.199	4.3636	0.	1443.4
9515	18.291	4.3636	5.e-002	12.061
9516	18.291	4.0909	0.	1538.8
9517	18.199	4.1818	0.	1504.4
9518	18.291	4.1818	5.e-002	10.412
9519	18.291	3.9091	0.	1589.8
9520	18.199	4.	0.	1555.2
9521	18.291	4.	5.e-002	9.3283
9522	18.291	3.7273	0.	1630.9
9523	18.199	3.8182	0.	1596.4
9524	18.291	3.8182	5.e-002	8.586
9525	18.291	3.5455	0.	1663.3
9526	18.199	3.6364	0.	1629.5
9527	18.291	3.6364	5.e-002	8.0216
9528	18.291	3.3636	0.	1687.4
9529	18.199	3.4545	0.	1655.1
9530	18.291	3.4545	5.e-002	7.6755
9531	18.291	3.1818	0.	1702.2
9532	18.199	3.2727	0.	1672.8
9533	18.291	3.2727	5.e-002	7.5212
9534	18.291	3.	0.	1707.3
9535	18.199	3.0909	0.	1681.9
9536	18.291	3.0909	5.e-002	7.4725
9537	18.291	2.8182	0.	1702.2
9538	18.199	2.9091	0.	1681.9
9539	18.291	2.9091	5.e-002	7.4725
9540	18.291	2.6364	0.	1687.4
9541	18.199	2.7273	0.	1672.8
9542	18.291	2.7273	5.e-002	7.5212
9543	18.291	2.4545	0.	1663.3
9544	18.199	2.5455	0.	1655.1
9545	18.291	2.5455	5.e-002	7.6755
9546	18.291	2.2727	0.	1630.9
9547	18.199	2.3636	0.	1629.5
9548	18.291	2.3636	5.e-002	8.0216
9549	18.291	2.0909	0.	1589.8
9550	18.199	2.1818	0.	1596.4
9551	18.291	2.1818	5.e-002	8.586
9552	18.291	1.9091	0.	1538.8
9553	18.199	2.	0.	1555.2
9554	18.291	2.	5.e-002	9.3283
9555	18.291	1.7273	0.	1476.4
9556	18.199	1.8182	0.	1504.4
9557	18.291	1.8182	5.e-002	10.412
9558	18.291	1.5455	0.	1402.9
9559	18.199	1.6364	0.	1443.4
9560	18.291	1.6364	5.e-002	12.061
9561	18.291	1.3636	0.	1321.
9562	18.199	1.4545	0.	1373.3
9563	18.291	1.4545	5.e-002	14.09
9564	18.291	1.1818	0.	1235.5
9565	18.199	1.2727	0.	1297.7
9566	18.291	1.2727	5.e-002	16.005
9567	18.291	1.	0.	1151.6
9568	18.199	1.0909	0.	1220.9
9569	18.291	1.0909	5.e-002	17.5
9570	18.291	0.81818	0.	1073.8
9571	18.199	0.90909	0.	1147.4
9572	18.291	0.90909	5.e-002	18.527
9573	18.291	0.63636	0.	1005.2
9574	18.199	0.72727	0.	1080.5
9575	18.291	0.72727	5.e-002	19.187
9576	18.291	0.45455	0.	947.28
9577	18.199	0.54545	0.	1022.2
9578	18.291	0.54545	5.e-002	19.614
9579	18.291	0.27273	0.	900.13
9580	18.199	0.36364	0.	973.35
9581	18.291	0.36364	5.e-002	19.953
9582	18.199	0.18182	0.	933.24
9583	18.291	0.18182	5.e-002	20.821
9584	18.291	9.0909e-002	0.	865.16
9585	18.107	5.7273	0.	1006.5
9586	18.014	5.8182	0.	1036.5
9587	18.107	5.8182	5.e-002	18.296
9588	18.107	5.9091	0.	974.57
9589	18.107	5.5455	0.	1048.7
9590	18.014	5.6364	0.	1073.
9591	18.107	5.6364	5.e-002	18.112
9592	18.107	5.3636	0.	1098.5
9593	18.014	5.4545	0.	1115.8
9594	18.107	5.4545	5.e-002	17.71
9595	18.107	5.1818	0.	1155.7
9596	18.014	5.2727	0.	1165.1
9597	18.107	5.2727	5.e-002	17.144
9598	18.107	5.	0.	1218.8
9599	18.014	5.0909	0.	1220.2
9600	18.107	5.0909	5.e-002	16.35
9601	18.107	4.8182	0.	1285.4
9602	18.014	4.9091	0.	1279.2
9603	18.107	4.9091	5.e-002	15.265
9604	18.107	4.6364	0.	1352.1
9605	18.014	4.7273	0.	1339.7
9606	18.107	4.7273	5.e-002	13.869
9607	18.107	4.4545	0.	1415.5
9608	18.014	4.5455	0.	1398.5
9609	18.107	4.5455	5.e-002	12.232
9610	18.107	4.2727	0.	1472.6
9611	18.014	4.3636	0.	1452.8
9612	18.107	4.3636	5.e-002	10.538
9613	18.107	4.0909	0.	1521.6
9614	18.014	4.1818	0.	1500.4
9615	18.107	4.1818	5.e-002	8.9897
9616	18.107	3.9091	0.	1562.2
9617	18.014	4.	0.	1540.6
9618	18.107	4.	5.e-002	7.6736
9619	18.107	3.7273	0.	1595.3
9620	18.014	3.8182	0.	1573.5
9621	18.107	3.8182	5.e-002	6.542
9622	18.107	3.5455	0.	1621.3
9623	18.014	3.6364	0.	1600.
9624	18.107	3.6364	5.e-002	5.5838
9625	18.107	3.3636	0.	1640.5
9626	18.014	3.4545	0.	1620.2
9627	18.107	3.4545	5.e-002	4.8759
9628	18.107	3.1818	0.	1652.3
9629	18.014	3.2727	0.	1634.2
9630	18.107	3.2727	5.e-002	4.4706
9631	18.107	3.	0.	1656.3
9632	18.014	3.0909	0.	1641.3
9633	18.107	3.0909	5.e-002	4.3082
9634	18.107	2.8182	0.	1652.3
9635	18.014	2.9091	0.	1641.3
9636	18.107	2.9091	5.e-002	4.3082
9637	18.107	2.6364	0.	1640.5
9638	18.014	2.7273	0.	1634.2
9639	18.107	2.7273	5.e-002	4.4706
9640	18.107	2.4545	0.	1621.3
9641	18.014	2.5455	0.	1620.2
9642	18.107	2.5455	5.e-002	4.8759
9643	18.107	2.2727	0.	1595.3
9644	18.014	2.3636	0.	1600.
9645	18.107	2.3636	5.e-002	5.5838
9646	18.107	2.0909	0.	1562.2
9647	18.014	2.1818	0.	1573.5
9648	18.107	2.1818	5.e-002	6.542
9649	18.107	1.9091	0.	1521.6
9650	18.014	2.	0.	1540.6
9651	18.107	2.	5.e-002	7.6736
9652	18.107	1.7273	0.	1472.6
9653	18.014	1.8182	0.	1500.4
9654	18.107	1.8182	5.e-002	8.9897
9655	18.107	1.5455	0.	1415.5
9656	18.014	1.6364	0.	1452.8
9657	18.107	1.6364	5.e-002	10.538
9658	18.107	1.3636	0.	1352.1
9659	18.014	1.4545	0.	1398.5
9660	18.107	1.4545	5.e-002	12.232
9661	18.107	1.1818	0.	1285.4
9662	18.014	1.2727	0.	1339.7
9663	18.107	1.2727	5.e-002	13.869
9664	18.107	1.	0.	1218.8
9665	18.014	1.0909	0.	1279.2
9666	18.107	1.0909	5.e-002	15.265
9667	18.107	0.81818	0.	1155.7
9668	18.014	0.90909	0.	1220.2
9669	18.107	0.90909	5.e-002	16.35
9670	18.107	0.63636	0.	1098.5
9671	18.014	0.72727	0.	1165.1
9672	18.107	0.72727	5.e-002	17.144
9673	18.107	0.45455	0.	1048.7
9674	18.014	0.54545	0.	1115.8
9675	18.107	0.54545	5.e-002	17.71
9676	18.107	0.27273	0.	1006.5
9677	18.014	0.36364	0.	1073.
9678	18.107	0.36364	5.e-002	18.112
9679	18.014	0.18182	0.	1036.5
9680	18.107	0.18182	5.e-002	18.296
9681	18.107	9.0909e-002	0.	974.57
9682	17.922	5.7273	0.	1103.
9683	17.83	5.8182	0.	1130.6
9684	17.922	5.8182	5.e-002	15.886
9685	17.922	5.9091	0.	1074.1
9686	17.922	5.5455	0.	1140.4
9687	17.83	5.6364	0.	1163.2
9688	17.922	5.6364	5.e-002	16.415
9689	17.922	5.3636	0.	1183.
9690	17.83	5.4545	0.	1200.4
9691	17.922	5.4545	5.e-002	16.02
9692	17.922	5.1818	0.	1230.6
9693	17.83	5.2727	0.	1242.
9694	17.922	5.2727	5.e-002	15.417
9695	17.922	5.	0.	1281.8
9696	17.83	5.0909	0.	1287.3
9697	17.922	5.0909	5.e-002	14.617
9698	17.922	4.8182	0.	1334.9
9699	17.83	4.9091	0.	1334.8
9700	17.922	4.9091	5.e-002	13.598
9701	17.922	4.6364	0.	1387.3
9702	17.83	4.7273	0.	1382.7
9703	17.922	4.7273	5.e-002	12.371
9704	17.922	4.4545	0.	1436.9
9705	17.83	4.5455	0.	1428.8
9706	17.922	4.5455	5.e-002	10.994
9707	17.922	4.2727	0.	1481.4
9708	17.83	4.3636	0.	1471.2
9709	17.922	4.3636	5.e-002	9.5647
9710	17.922	4.0909	0.	1520.
9711	17.83	4.1818	0.	1508.6
9712	17.922	4.1818	5.e-002	8.1717
9713	17.922	3.9091	0.	1552.2
9714	17.83	4.	0.	1540.2
9715	17.922	4.	5.e-002	6.8482
9716	17.922	3.7273	0.	1578.4
9717	17.83	3.8182	0.	1566.3
9718	17.922	3.8182	5.e-002	5.5786
9719	17.922	3.5455	0.	1598.9
9720	17.83	3.6364	0.	1587.2
9721	17.922	3.6364	5.e-002	4.3604
9722	17.922	3.3636	0.	1613.9
9723	17.83	3.4545	0.	1603.
9724	17.922	3.4545	5.e-002	3.244
9725	17.922	3.1818	0.	1623.1
9726	17.83	3.2727	0.	1613.8
9727	17.922	3.2727	5.e-002	2.3256
9728	17.922	3.	0.	1626.2
9729	17.83	3.0909	0.	1619.3
9730	17.922	3.0909	5.e-002	1.7591
9731	17.922	2.8182	0.	1623.1
9732	17.83	2.9091	0.	1619.3
9733	17.922	2.9091	5.e-002	1.7591
9734	17.922	2.6364	0.	1613.9
9735	17.83	2.7273	0.	1613.8
9736	17.922	2.7273	5.e-002	2.3256
9737	17.922	2.4545	0.	1598.9
9738	17.83	2.5455	0.	1603.
9739	17.922	2.5455	5.e-002	3.244
9740	17.922	2.2727	0.	1578.4
9741	17.83	2.3636	0.	1587.2
9742	17.922	2.3636	5.e-002	4.3604
9743	17.922	2.0909	0.	1552.2
9744	17.83	2.1818	0.	1566.3
9745	17.922	2.1818	5.e-002	5.5786
9746	17.922	1.9091	0.	1520.
9747	17.83	2.	0.	1540.2
9748	17.922	2.	5.e-002	6.8482
9749	17.922	1.7273	0.	1481.4
9750	17.83	1.8182	0.	1508.6
9751	17.922	1.8182	5.e-002	8.1717
9752	17.922	1.5455	0.	1436.9
9753	17.83	1.6364	0.	1471.2
9754	17.922	1.6364	5.e-002	9.5647
9755	17.922	1.3636	0.	1387.3
9756	17.83	1.4545	0.	1428.8
9757	17.922	1.4545	5.e-002	10.994
9758	17.922	1.1818	0.	1334.9
9759	17.83	1.2727	0.	1382.7
9760	17.922	1.2727	5.e-002	12.371
9761	17.922	1.	0.	1281.8
9762	17.83	1.0909	0.	1334.8
9763	17.922	1.0909	5.e-002	13.598
9764	17.922	0.81818	0.	1230.6
9765	17.83	0.90909	0.	1287.3
9766	17.922	0.90909	5.e-002	14.617
9767	17.922	0.63636	0.	1183.
9768	17.83	0.72727	0.	1242.
9769	17.922	0.72727	5.e-002	15.417
9770	17.922	0.45455	0.	1140.4
9771	17.83	0.54545	0.	1200.4
9772	17.922	0.54545	5.e-002	16.02
9773	17.922	0.27273	0.	1103.
9774	17.83	0.36364	0.	1163.2
9775	17.922	0.36364	5.e-002	16.415
9776	17.83	0.18182	0.	1130.6
9777	17.922	0.18182	5.e-002	15.886
9778	17.922	9.0909e-002	0.	1074.1
9779	17.737	5.7273	0.	1190.7
9780	17.645	5.8182	0.	1216.5
9781	17.737	5.8182	5.e-002	13.671
9782	17.737	5.9091	0.	1164.6
9783	17.737	5.5455	0.	1223.4
9784	17.645	5.6364	0.	1245.2
9785	17.737	5.6364	5.e-002	14.909
9786	17.737	5.3636	0.	1259.8
9787	17.645	5.4545	0.	1277.2
9788	17.737	5.4545	5.e-002	14.567
9789	17.737	5.1818	0.	1299.3
9790	17.645	5.2727	0.	1312.3
9791	17.737	5.2727	5.e-002	13.989
9792	17.737	5.	0.	1341.
9793	17.645	5.0909	0.	1349.5
9794	17.737	5.0909	5.e-002	13.248
9795	17.737	4.8182	0.	1383.5
9796	17.645	4.9091	0.	1388.
9797	17.737	4.9091	5.e-002	12.344
9798	17.737	4.6364	0.	1425.
9799	17.645	4.7273	0.	1426.1
9800	17.737	4.7273	5.e-002	11.297
9801	17.737	4.4545	0.	1463.9
9802	17.645	4.5455	0.	1462.5
9803	17.737	4.5455	5.e-002	10.146
9804	17.737	4.2727	0.	1498.9
9805	17.645	4.3636	0.	1495.8
9806	17.737	4.3636	5.e-002	8.9456
9807	17.737	4.0909	0.	1529.2
9808	17.645	4.1818	0.	1525.1
9809	17.737	4.1818	5.e-002	7.7378
9810	17.737	3.9091	0.	1554.6
9811	17.645	4.	0.	1550.1
9812	17.737	4.	5.e-002	6.537
9813	17.737	3.7273	0.	1575.3
9814	17.645	3.8182	0.	1570.6
9815	17.737	3.8182	5.e-002	5.3369
9816	17.737	3.5455	0.	1591.3
9817	17.645	3.6364	0.	1587.
9818	17.737	3.6364	5.e-002	4.1335
9819	17.737	3.3636	0.	1602.9
9820	17.645	3.4545	0.	1599.3
9821	17.737	3.4545	5.e-002	2.939
9822	17.737	3.1818	0.	1609.9
9823	17.645	3.2727	0.	1607.5
9824	17.737	3.2727	5.e-002	1.7764
9825	17.737	3.	0.	1612.3
9826	17.645	3.0909	0.	1611.7
9827	17.737	3.0909	5.e-002	0.70359
9828	17.737	2.8182	0.	1609.9
9829	17.645	2.9091	0.	1611.7
9830	17.737	2.9091	5.e-002	0.70359
9831	17.737	2.6364	0.	1602.9
9832	17.645	2.7273	0.	1607.5
9833	17.737	2.7273	5.e-002	1.7764
9834	17.737	2.4545	0.	1591.3
9835	17.645	2.5455	0.	1599.3
9836	17.737	2.5455	5.e-002	2.939
9837	17.737	2.2727	0.	1575.3
9838	17.645	2.3636	0.	1587.
9839	17.737	2.3636	5.e-002	4.1335
9840	17.737	2.0909	0.	1554.6
9841	17.645	2.1818	0.	1570.6
9842	17.737	2.1818	5.e-002	5.3369
9843	17.737	1.9091	0.	1529.2
9844	17.645	2.	0.	1550.1
9845	17.737	2.	5.e-002	6.537
9846	17.737	1.7273	0.	1498.9
9847	17.645	1.8182	0.	1525.1
9848	17.737	1.8182	5.e-002	7.7378
9849	17.737	1.5455	0.	1463.9
9850	17.645	1.6364	0.	1495.8
9851	17.737	1.6364	5.e-002	8.9456
9852	17.737	1.3636	0.	1425.
9853	17.645	1.4545	0.	1462.5
9854	17.737	1.4545	5.e-002	10.146
9855	17.737	1.1818	0.	1383.5
9856	17.645	1.2727	0.	1426.1
9857	17.737	1.2727	5.e-002	11.297
9858	17.737	1.	0.	1341.
9859	17.645	1.0909	0.	1388.
9860	17.737	1.0909	5.e-002	12.344
9861	17.737	0.81818	0.	1299.3
9862	17.645	0.90909	0.	1349.5
9863	17.737	0.90909	5.e-002	13.248
9864	17.737	0.63636	0.	1259.8
9865	17.645	0.72727	0.	1312.3
9866	17.737	0.72727	5.e-002	13.989
9867	17.737	0.45455	0.	1223.4
9868	17.645	0.54545	0.	1277.2
9869	17.737	0.54545	5.e-002	14.567
9870	17.737	0.27273	0.	1190.7
9871	17.645	0.36364	0.	1245.2
9872	17.737	0.36364	5.e-002	14.909
9873	17.645	0.18182	0.	1216.5
9874	17.737	0.18182	5.e-002	13.671
9875	17.737	9.0909e-002	0.	1164.6
9876	17.552	5.7273	0.	1270.8
9877	17.46	5.8182	0.	1295.2
9878	17.552	5.8182	5.e-002	11.693
9879	17.552	5.9091	0.	1247.3
9880	17.552	5.5455	0.	1299.1
9881	17.46	5.6364	0.	1320.1
9882	17.552	5.6364	5.e-002	13.607
9883	17.552	5.3636	0.	1330.
9884	17.46	5.4545	0.	1347.6
9885	17.552	5.4545	5.e-002	13.344
9886	17.552	5.1818	0.	1362.9
9887	17.46	5.2727	0.	1377.1
9888	17.552	5.2727	5.e-002	12.823
9889	17.552	5.	0.	1396.9
9890	17.46	5.0909	0.	1407.8
9891	17.552	5.0909	5.e-002	12.168
9892	17.552	4.8182	0.	1431.
9893	17.46	4.9091	0.	1438.9
9894	17.552	4.9091	5.e-002	11.392
9895	17.552	4.6364	0.	1464.
9896	17.46	4.7273	0.	1469.5
9897	17.552	4.7273	5.e-002	10.512
9898	17.552	4.4545	0.	1494.8
9899	17.46	4.5455	0.	1498.3
9900	17.552	4.5455	5.e-002	9.5575
9901	17.552	4.2727	0.	1522.3
9902	17.46	4.3636	0.	1524.6
9903	17.552	4.3636	5.e-002	8.5592
9904	17.552	4.0909	0.	1546.2
9905	17.46	4.1818	0.	1547.8
9906	17.552	4.1818	5.e-002	7.5419
9907	17.552	3.9091	0.	1566.3
9908	17.46	4.	0.	1567.4
9909	17.552	4.	5.e-002	6.5175
9910	17.552	3.7273	0.	1582.5
9911	17.46	3.8182	0.	1583.6
9912	17.552	3.8182	5.e-002	5.4918
9913	17.552	3.5455	0.	1595.
9914	17.46	3.6364	0.	1596.4
9915	17.552	3.6364	5.e-002	4.4779
9916	17.552	3.3636	0.	1603.9
9917	17.46	3.4545	0.	1605.9
9918	17.552	3.4545	5.e-002	3.5118
9919	17.552	3.1818	0.	1609.3
9920	17.46	3.2727	0.	1612.3
9921	17.552	3.2727	5.e-002	2.674
9922	17.552	3.	0.	1611.1
9923	17.46	3.0909	0.	1615.4
9924	17.552	3.0909	5.e-002	2.1352
9925	17.552	2.8182	0.	1609.3
9926	17.46	2.9091	0.	1615.4
9927	17.552	2.9091	5.e-002	2.1352
9928	17.552	2.6364	0.	1603.9
9929	17.46	2.7273	0.	1612.3
9930	17.552	2.7273	5.e-002	2.674
9931	17.552	2.4545	0.	1595.
9932	17.46	2.5455	0.	1605.9
9933	17.552	2.5455	5.e-002	3.5118
9934	17.552	2.2727	0.	1582.5
9935	17.46	2.3636	0.	1596.4
9936	17.552	2.3636	5.e-002	4.4779
9937	17.552	2.0909	0.	1566.3
9938	17.46	2.1818	0.	1583.6
9939	17.552	2.1818	5.e-002	5.4918
9940	17.552	1.9091	0.	1546.2
9941	17.46	2.	0.	1567.4
9942	17.552	2.	5.e-002	6.5175
9943	17.552	1.7273	0.	1522.3
9944	17.46	1.8182	0.	1547.8
9945	17.552	1.8182	5.e-002	7.5419
9946	17.552	1.5455	0.	1494.8
9947	17.46	1.6364	0.	1524.6
9948	17.552	1.6364	5.e-002	8.5592
9949	17.552	1.3636	0.	1464.
9950	17.46	1.4545	0.	1498.3
9951	17.552	1.4545	5.e-002	9.5575
9952	17.552	1.1818	0.	1431.
9953	17.46	1.2727	0.	1469.5
9954	17.552	1.2727	5.e-002	10.512
9955	17.552	1.	0.	1396.9
9956	17.46	1.0909	0.	1438.9
9957	17.552	1.0909	5.e-002	11.392
9958	17.552	0.81818	0.	1362.9
9959	17.46	0.90909	0.	1407.8
9960	17.552	0.90909	5.e-002	12.168
9961	17.552	0.63636	0.	1330.
9962	17.46	0.72727	0.	1377.1
9963	17.552	0.72727	5.e-002	12.823
9964	17.552	0.45455	0.	1299.1
9965	17.46	0.54545	0.	1347.6
9966	17.552	0.54545	5.e-002	13.344
9967	17.552	0.27273	0.	1270.8
9968	17.46	0.36364	0.	1320.1
9969	17.552	0.36364	5.e-002	13.607
9970	17.46	0.18182	0.	1295.2
9971	17.552	0.18182	5.e-002	11.693
9972	17.552	9.0909e-002	0.	1247.3
9973	17.368	5.7273	0.	1344.4
9974	17.275	5.8182	0.	1368.
9975	17.368	5.8182	5.e-002	9.9602
9976	17.368	5.9091	0.	1323.3
9977	17.368	5.5455	0.	1368.7
9978	17.275	5.6364	0.	1389.3
9979	17.368	5.6364	5.e-002	12.502
9980	17.368	5.3636	0.	1394.8
9981	17.275	5.4545	0.	1412.7
9982	17.368	5.4545	5.e-002	12.329
9983	17.368	5.1818	0.	1422.2
9984	17.275	5.2727	0.	1437.5
9985	17.368	5.2727	5.e-002	11.879
9986	17.368	5.	0.	1450.1
9987	17.275	5.0909	0.	1462.8
9988	17.368	5.0909	5.e-002	11.318
9989	17.368	4.8182	0.	1477.6
9990	17.275	4.9091	0.	1488.2
9991	17.368	4.9091	5.e-002	10.664
9992	17.368	4.6364	0.	1504.
9993	17.275	4.7273	0.	1512.7
9994	17.368	4.7273	5.e-002	9.9338
9995	17.368	4.4545	0.	1528.4
9996	17.275	4.5455	0.	1535.8
9997	17.368	4.5455	5.e-002	9.1471
9998	17.368	4.2727	0.	1550.2
9999	17.275	4.3636	0.	1556.6
10000	17.368	4.3636	5.e-002	8.3253
10001	17.368	4.0909	0.	1569.1
10002	17.275	4.1818	0.	1574.9
10003	17.368	4.1818	5.e-002	7.4863
10004	17.368	3.9091	0.	1584.9
10005	17.275	4.	0.	1590.4
10006	17.368	4.	5.e-002	6.6434
10007	17.368	3.7273	0.	1597.6
10008	17.275	3.8182	0.	1603.2
10009	17.368	3.8182	5.e-002	5.8109
10010	17.368	3.5455	0.	1607.3
10011	17.275	3.6364	0.	1613.2
10012	17.368	3.6364	5.e-002	5.0128
10013	17.368	3.3636	0.	1614.2
10014	17.275	3.4545	0.	1620.5
10015	17.368	3.4545	5.e-002	4.2929
10016	17.368	3.1818	0.	1618.4
10017	17.275	3.2727	0.	1625.4
10018	17.368	3.2727	5.e-002	3.7226
10019	17.368	3.	0.	1619.7
10020	17.275	3.0909	0.	1627.9
10021	17.368	3.0909	5.e-002	3.3975
10022	17.368	2.8182	0.	1618.4
10023	17.275	2.9091	0.	1627.9
10024	17.368	2.9091	5.e-002	3.3975
10025	17.368	2.6364	0.	1614.2
10026	17.275	2.7273	0.	1625.4
10027	17.368	2.7273	5.e-002	3.7226
10028	17.368	2.4545	0.	1607.3
10029	17.275	2.5455	0.	1620.5
10030	17.368	2.5455	5.e-002	4.2929
10031	17.368	2.2727	0.	1597.6
10032	17.275	2.3636	0.	1613.2
10033	17.368	2.3636	5.e-002	5.0128
10034	17.368	2.0909	0.	1584.9
10035	17.275	2.1818	0.	1603.2
10036	17.368	2.1818	5.e-002	5.8109
10037	17.368	1.9091	0.	1569.1
10038	17.275	2.	0.	1590.4
10039	17.368	2.	5.e-002	6.6434
10040	17.368	1.7273	0.	1550.2
10041	17.275	1.8182	0.	1574.9
10042	17.368	1.8182	5.e-002	7.4863
10043	17.368	1.5455	0.	1528.4
10044	17.275	1.6364	0.	1556.6
10045	17.368	1.6364	5.e-002	8.3253
10046	17.368	1.3636	0.	1504.
10047	17.275	1.4545	0.	1535.8
10048	17.368	1.4545	5.e-002	9.1471
10049	17.368	1.1818	0.	1477.6
10050	17.275	1.2727	0.	1512.7
10051	17.368	1.2727	5.e-002	9.9338
10052	17.368	1.	0.	1450.1
10053	17.275	1.0909	0.	1488.2
10054	17.368	1.0909	5.e-002	10.664
10055	17.368	0.81818	0.	1422.2
10056	17.275	0.90909	0.	1462.8
10057	17.368	0.90909	5.e-002	11.318
10058	17.368	0.63636	0.	1394.8
10059	17.275	0.72727	0.	1437.5
10060	17.368	0.72727	5.e-002	11.879
10061	17.368	0.45455	0.	1368.7
10062	17.275	0.54545	0.	1412.7
10063	17.368	0.54545	5.e-002	12.329
10064	17.368	0.27273	0.	1344.4
10065	17.275	0.36364	0.	1389.3
10066	17.368	0.36364	5.e-002	12.502
10067	17.275	0.18182	0.	1368.
10068	17.368	0.18182	5.e-002	9.9602
10069	17.368	9.0909e-002	0.	1323.3
10070	17.183	5.7273	0.	1412.7
10071	17.09	5.8182	0.	1435.7
10072	17.183	5.8182	5.e-002	8.4646
10073	17.183	5.9091	0.	1393.6
10074	17.183	5.5455	0.	1433.3
10075	17.09	5.6364	0.	1453.7
10076	17.183	5.6364	5.e-002	11.578
10077	17.183	5.3636	0.	1455.4
10078	17.09	5.4545	0.	1473.7
10079	17.183	5.4545	5.e-002	11.495
10080	17.183	5.1818	0.	1478.2
10081	17.09	5.2727	0.	1494.4
10082	17.183	5.2727	5.e-002	11.118
10083	17.183	5.	0.	1501.1
10084	17.09	5.0909	0.	1515.4
10085	17.183	5.0909	5.e-002	10.647
10086	17.183	4.8182	0.	1523.5
10087	17.09	4.9091	0.	1536.1
10088	17.183	4.9091	5.e-002	10.105
10089	17.183	4.6364	0.	1544.7
10090	17.09	4.7273	0.	1556.
10091	17.183	4.7273	5.e-002	9.5037
10092	17.183	4.4545	0.	1564.1
10093	17.09	4.5455	0.	1574.4
10094	17.183	4.5455	5.e-002	8.86
10095	17.183	4.2727	0.	1581.5
10096	17.09	4.3636	0.	1591.1
10097	17.183	4.3636	5.e-002	8.1897
10098	17.183	4.0909	0.	1596.4
10099	17.09	4.1818	0.	1605.6
10100	17.183	4.1818	5.e-002	7.5077
10101	17.183	3.9091	0.	1608.8
10102	17.09	4.	0.	1617.8
10103	17.183	4.	5.e-002	6.8282
10104	17.183	3.7273	0.	1618.8
10105	17.09	3.8182	0.	1627.8
10106	17.183	3.8182	5.e-002	6.1685
10107	17.183	3.5455	0.	1626.4
10108	17.09	3.6364	0.	1635.7
10109	17.183	3.6364	5.e-002	5.5538
10110	17.183	3.3636	0.	1631.8
10111	17.09	3.4545	0.	1641.4
10112	17.183	3.4545	5.e-002	5.0212
10113	17.183	3.1818	0.	1634.9
10114	17.09	3.2727	0.	1645.2
10115	17.183	3.2727	5.e-002	4.6195
10116	17.183	3.	0.	1636.
10117	17.09	3.0909	0.	1647.1
10118	17.183	3.0909	5.e-002	4.4009
10119	17.183	2.8182	0.	1634.9
10120	17.09	2.9091	0.	1647.1
10121	17.183	2.9091	5.e-002	4.4009
10122	17.183	2.6364	0.	1631.8
10123	17.09	2.7273	0.	1645.2
10124	17.183	2.7273	5.e-002	4.6195
10125	17.183	2.4545	0.	1626.4
10126	17.09	2.5455	0.	1641.4
10127	17.183	2.5455	5.e-002	5.0212
10128	17.183	2.2727	0.	1618.8
10129	17.09	2.3636	0.	1635.7
10130	17.183	2.3636	5.e-002	5.5538
10131	17.183	2.0909	0.	1608.8
10132	17.09	2.1818	0.	1627.8
10133	17.183	2.1818	5.e-002	6.1685
10134	17.183	1.9091	0.	1596.4
10135	17.09	2.	0.	1617.8
10136	17.183	2.	5.e-002	6.8282
10137	17.183	1.7273	0.	1581.5
10138	17.09	1.8182	0.	1605.6
10139	17.183	1.8182	5.e-002	7.5077
10140	17.183	1.5455	0.	1564.1
10141	17.09	1.6364	0.	1591.1
10142	17.183	1.6364	5.e-002	8.1897
10143	17.183	1.3636	0.	1544.7
10144	17.09	1.4545	0.	1574.4
10145	17.183	1.4545	5.e-002	8.86
10146	17.183	1.1818	0.	1523.5
10147	17.09	1.2727	0.	1556.
10148	17.183	1.2727	5.e-002	9.5037
10149	17.183	1.	0.	1501.1
10150	17.09	1.0909	0.	1536.1
10151	17.183	1.0909	5.e-002	10.105
10152	17.183	0.81818	0.	1478.2
10153	17.09	0.90909	0.	1515.4
10154	17.183	0.90909	5.e-002	10.647
10155	17.183	0.63636	0.	1455.4
10156	17.09	0.72727	0.	1494.4
10157	17.183	0.72727	5.e-002	11.118
10158	17.183	0.45455	0.	1433.3
10159	17.09	0.54545	0.	1473.7
10160	17.183	0.54545	5.e-002	11.495
10161	17.183	0.27273	0.	1412.7
10162	17.09	0.36364	0.	1453.7
10163	17.183	0.36364	5.e-002	11.578
10164	17.09	0.18182	0.	1435.7
10165	17.183	0.18182	5.e-002	8.4646
10166	17.183	9.0909e-002	0.	1393.6
10167	16.998	5.7273	0.	1476.5
10168	16.906	5.8182	0.	1499.2
10169	16.998	5.8182	5.e-002	7.1867
10170	16.998	5.9091	0.	1459.3
10171	16.998	5.5455	0.	1494.
10172	16.906	5.6364	0.	1514.3
10173	16.998	5.6364	5.e-002	10.814
10174	16.998	5.3636	0.	1512.6
10175	16.906	5.4545	0.	1531.2
10176	16.998	5.4545	5.e-002	10.816
10177	16.998	5.1818	0.	1531.6
10178	16.906	5.2727	0.	1548.6
10179	16.998	5.2727	5.e-002	10.507
10180	16.998	5.	0.	1550.5
10181	16.906	5.0909	0.	1566.
10182	16.998	5.0909	5.e-002	10.119
10183	16.998	4.8182	0.	1568.7
10184	16.906	4.9091	0.	1583.
10185	16.998	4.9091	5.e-002	9.673
10186	16.998	4.6364	0.	1585.8
10187	16.906	4.7273	0.	1599.2
10188	16.998	4.7273	5.e-002	9.1823
10189	16.998	4.4545	0.	1601.4
10190	16.906	4.5455	0.	1614.
10191	16.998	4.5455	5.e-002	8.6591
10192	16.998	4.2727	0.	1615.2
10193	16.906	4.3636	0.	1627.3
10194	16.998	4.3636	5.e-002	8.1165
10195	16.998	4.0909	0.	1627.1
10196	16.906	4.1818	0.	1638.9
10197	16.998	4.1818	5.e-002	7.5675
10198	16.998	3.9091	0.	1636.9
10199	16.906	4.	0.	1648.6
10200	16.998	4.	5.e-002	7.0259
10201	16.998	3.7273	0.	1644.8
10202	16.906	3.8182	0.	1656.6
10203	16.998	3.8182	5.e-002	6.5084
10204	16.998	3.5455	0.	1650.7
10205	16.906	3.6364	0.	1662.7
10206	16.998	3.6364	5.e-002	6.0369
10207	16.998	3.3636	0.	1654.9
10208	16.906	3.4545	0.	1667.2
10209	16.998	3.4545	5.e-002	5.6394
10210	16.998	3.1818	0.	1657.4
10211	16.906	3.2727	0.	1670.2
10212	16.998	3.2727	5.e-002	5.3481
10213	16.998	3.	0.	1658.2
10214	16.906	3.0909	0.	1671.6
10215	16.998	3.0909	5.e-002	5.1931
10216	16.998	2.8182	0.	1657.4
10217	16.906	2.9091	0.	1671.6
10218	16.998	2.9091	5.e-002	5.1931
10219	16.998	2.6364	0.	1654.9
10220	16.906	2.7273	0.	1670.2
10221	16.998	2.7273	5.e-002	5.3481
10222	16.998	2.4545	0.	1650.7
10223	16.906	2.5455	0.	1667.2
10224	16.998	2.5455	5.e-002	5.6394
10225	16.998	2.2727	0.	1644.8
10226	16.906	2.3636	0.	1662.7
10227	16.998	2.3636	5.e-002	6.0369
10228	16.998	2.0909	0.	1636.9
10229	16.906	2.1818	0.	1656.6
10230	16.998	2.1818	5.e-002	6.5084
10231	16.998	1.9091	0.	1627.1
10232	16.906	2.	0.	1648.6
10233	16.998	2.	5.e-002	7.0259
10234	16.998	1.7273	0.	1615.2
10235	16.906	1.8182	0.	1638.9
10236	16.998	1.8182	5.e-002	7.5675
10237	16.998	1.5455	0.	1601.4
10238	16.906	1.6364	0.	1627.3
10239	16.998	1.6364	5.e-002	8.1165
10240	16.998	1.3636	0.	1585.8
10241	16.906	1.4545	0.	1614.
10242	16.998	1.4545	5.e-002	8.6591
10243	16.998	1.1818	0.	1568.7
10244	16.906	1.2727	0.	1599.2
10245	16.998	1.2727	5.e-002	9.1823
10246	16.998	1.	0.	1550.5
10247	16.906	1.0909	0.	1583.
10248	16.998	1.0909	5.e-002	9.673
10249	16.998	0.81818	0.	1531.6
10250	16.906	0.90909	0.	1566.
10251	16.998	0.90909	5.e-002	10.119
10252	16.998	0.63636	0.	1512.6
10253	16.906	0.72727	0.	1548.6
10254	16.998	0.72727	5.e-002	10.507
10255	16.998	0.45455	0.	1494.
10256	16.906	0.54545	0.	1531.2
10257	16.998	0.54545	5.e-002	10.816
10258	16.998	0.27273	0.	1476.5
10259	16.906	0.36364	0.	1514.3
10260	16.998	0.36364	5.e-002	10.814
10261	16.906	0.18182	0.	1499.2
10262	16.998	0.18182	5.e-002	7.1867
10263	16.998	9.0909e-002	0.	1459.3
10264	16.813	5.7273	0.	1536.8
10265	16.721	5.8182	0.	1559.3
10266	16.813	5.8182	5.e-002	6.1025
10267	16.813	5.9091	0.	1521.2
10268	16.813	5.5455	0.	1551.5
10269	16.721	5.6364	0.	1571.9
10270	16.813	5.6364	5.e-002	10.188
10271	16.813	5.3636	0.	1567.2
10272	16.721	5.4545	0.	1586.2
10273	16.813	5.4545	5.e-002	10.266
10274	16.813	5.1818	0.	1583.1
10275	16.721	5.2727	0.	1600.8
10276	16.813	5.2727	5.e-002	10.019
10277	16.813	5.	0.	1598.6
10278	16.721	5.0909	0.	1615.2
10279	16.813	5.0909	5.e-002	9.7021
10280	16.813	4.8182	0.	1613.5
10281	16.721	4.9091	0.	1629.2
10282	16.813	4.9091	5.e-002	9.3393
10283	16.813	4.6364	0.	1627.4
10284	16.721	4.7273	0.	1642.4
10285	16.813	4.7273	5.e-002	8.9414
10286	16.813	4.4545	0.	1640.
10287	16.721	4.5455	0.	1654.4
10288	16.813	4.5455	5.e-002	8.5186
10289	16.813	4.2727	0.	1651.1
10290	16.721	4.3636	0.	1665.1
10291	16.813	4.3636	5.e-002	8.0821
10292	16.813	4.0909	0.	1660.5
10293	16.721	4.1818	0.	1674.4
10294	16.813	4.1818	5.e-002	7.643
10295	16.813	3.9091	0.	1668.3
10296	16.721	4.	0.	1682.2
10297	16.813	4.	5.e-002	7.214
10298	16.813	3.7273	0.	1674.5
10299	16.721	3.8182	0.	1688.5
10300	16.813	3.8182	5.e-002	6.8096
10301	16.813	3.5455	0.	1679.2
10302	16.721	3.6364	0.	1693.3
10303	16.813	3.6364	5.e-002	6.4473
10304	16.813	3.3636	0.	1682.5
10305	16.721	3.4545	0.	1696.9
10306	16.813	3.4545	5.e-002	6.1477
10307	16.813	3.1818	0.	1684.4
10308	16.721	3.2727	0.	1699.2
10309	16.813	3.2727	5.e-002	5.932
10310	16.813	3.	0.	1685.
10311	16.721	3.0909	0.	1700.3
10312	16.813	3.0909	5.e-002	5.8187
10313	16.813	2.8182	0.	1684.4
10314	16.721	2.9091	0.	1700.3
10315	16.813	2.9091	5.e-002	5.8187
10316	16.813	2.6364	0.	1682.5
10317	16.721	2.7273	0.	1699.2
10318	16.813	2.7273	5.e-002	5.932
10319	16.813	2.4545	0.	1679.2
10320	16.721	2.5455	0.	1696.9
10321	16.813	2.5455	5.e-002	6.1477
10322	16.813	2.2727	0.	1674.5
10323	16.721	2.3636	0.	1693.3
10324	16.813	2.3636	5.e-002	6.4473
10325	16.813	2.0909	0.	1668.3
10326	16.721	2.1818	0.	1688.5
10327	16.813	2.1818	5.e-002	6.8096
10328	16.813	1.9091	0.	1660.5
10329	16.721	2.	0.	1682.2
10330	16.813	2.	5.e-002	7.214
10331	16.813	1.7273	0.	1651.1
10332	16.721	1.8182	0.	1674.4
10333	16.813	1.8182	5.e-002	7.643
10334	16.813	1.5455	0.	1640.
10335	16.721	1.6364	0.	1665.1
10336	16.813	1.6364	5.e-002	8.0821
10337	16.813	1.3636	0.	1627.4
10338	16.721	1.4545	0.	1654.4
10339	16.813	1.4545	5.e-002	8.5186
10340	16.813	1.1818	0.	1613.5
10341	16.721	1.2727	0.	1642.4
10342	16.813	1.2727	5.e-002	8.9414
10343	16.813	1.	0.	1598.6
10344	16.721	1.0909	0.	1629.2
10345	16.813	1.0909	5.e-002	9.3393
10346	16.813	0.81818	0.	1583.1
10347	16.721	0.90909	0.	1615.2
10348	16.813	0.90909	5.e-002	9.7021
10349	16.813	0.63636	0.	1567.2
10350	16.721	0.72727	0.	1600.8
10351	16.813	0.72727	5.e-002	10.019
10352	16.813	0.45455	0.	1551.5
10353	16.721	0.54545	0.	1586.2
10354	16.813	0.54545	5.e-002	10.266
10355	16.813	0.27273	0.	1536.8
10356	16.721	0.36364	0.	1571.9
10357	16.813	0.36364	5.e-002	10.188
10358	16.721	0.18182	0.	1559.3
10359	16.813	0.18182	5.e-002	6.1025
10360	16.813	9.0909e-002	0.	1521.2
10361	16.629	5.7273	0.	1594.2
10362	16.536	5.8182	0.	1616.7
10363	16.629	5.8182	5.e-002	5.1871
10364	16.629	5.9091	0.	1580.
10365	16.629	5.5455	0.	1606.5
10366	16.536	5.6364	0.	1627.
10367	16.629	5.6364	5.e-002	9.6791
10368	16.629	5.3636	0.	1619.7
10369	16.536	5.4545	0.	1639.1
10370	16.629	5.4545	5.e-002	9.8245
10371	16.629	5.1818	0.	1633.
10372	16.536	5.2727	0.	1651.3
10373	16.629	5.2727	5.e-002	9.6306
10374	16.629	5.	0.	1645.9
10375	16.536	5.0909	0.	1663.4
10376	16.629	5.0909	5.e-002	9.3745
10377	16.629	4.8182	0.	1658.1
10378	16.536	4.9091	0.	1674.9
10379	16.629	4.9091	5.e-002	9.0814
10380	16.629	4.6364	0.	1669.4
10381	16.536	4.7273	0.	1685.7
10382	16.629	4.7273	5.e-002	8.7606
10383	16.629	4.4545	0.	1679.6
10384	16.536	4.5455	0.	1695.5
10385	16.629	4.5455	5.e-002	8.4208
10386	16.629	4.2727	0.	1688.5
10387	16.536	4.3636	0.	1704.2
10388	16.629	4.3636	5.e-002	8.0713
10389	16.629	4.0909	0.	1696.1
10390	16.536	4.1818	0.	1711.7
10391	16.629	4.1818	5.e-002	7.7218
10392	16.629	3.9091	0.	1702.3
10393	16.536	4.	0.	1717.9
10394	16.629	4.	5.e-002	7.3831
10395	16.629	3.7273	0.	1707.3
10396	16.536	3.8182	0.	1722.9
10397	16.629	3.8182	5.e-002	7.0673
10398	16.629	3.5455	0.	1711.
10399	16.536	3.6364	0.	1726.7
10400	16.629	3.6364	5.e-002	6.7881
10401	16.629	3.3636	0.	1713.5
10402	16.536	3.4545	0.	1729.5
10403	16.629	3.4545	5.e-002	6.5602
10404	16.629	3.1818	0.	1715.
10405	16.536	3.2727	0.	1731.4
10406	16.629	3.2727	5.e-002	6.3982
10407	16.629	3.	0.	1715.5
10408	16.536	3.0909	0.	1732.3
10409	16.629	3.0909	5.e-002	6.3138
10410	16.629	2.8182	0.	1715.
10411	16.536	2.9091	0.	1732.3
10412	16.629	2.9091	5.e-002	6.3138
10413	16.629	2.6364	0.	1713.5
10414	16.536	2.7273	0.	1731.4
10415	16.629	2.7273	5.e-002	6.3982
10416	16.629	2.4545	0.	1711.
10417	16.536	2.5455	0.	1729.5
10418	16.629	2.5455	5.e-002	6.5602
10419	16.629	2.2727	0.	1707.3
10420	16.536	2.3636	0.	1726.7
10421	16.629	2.3636	5.e-002	6.7881
10422	16.629	2.0909	0.	1702.3
10423	16.536	2.1818	0.	1722.9
10424	16.629	2.1818	5.e-002	7.0673
10425	16.629	1.9091	0.	1696.1
10426	16.536	2.	0.	1717.9
10427	16.629	2.	5.e-002	7.3831
10428	16.629	1.7273	0.	1688.5
10429	16.536	1.8182	0.	1711.7
10430	16.629	1.8182	5.e-002	7.7218
10431	16.629	1.5455	0.	1679.6
10432	16.536	1.6364	0.	1704.2
10433	16.629	1.6364	5.e-002	8.0713
10434	16.629	1.3636	0.	1669.4
10435	16.536	1.4545	0.	1695.5
10436	16.629	1.4545	5.e-002	8.4208
10437	16.629	1.1818	0.	1658.1
10438	16.536	1.2727	0.	1685.7
10439	16.629	1.2727	5.e-002	8.7606
10440	16.629	1.	0.	1645.9
10441	16.536	1.0909	0.	1674.9
10442	16.629	1.0909	5.e-002	9.0814
10443	16.629	0.81818	0.	1633.
10444	16.536	0.90909	0.	1663.4
10445	16.629	0.90909	5.e-002	9.3745
10446	16.629	0.63636	0.	1619.7
10447	16.536	0.72727	0.	1651.3
10448	16.629	0.72727	5.e-002	9.6306
10449	16.629	0.45455	0.	1606.5
10450	16.536	0.54545	0.	1639.1
10451	16.629	0.54545	5.e-002	9.8245
10452	16.629	0.27273	0.	1594.2
10453	16.536	0.36364	0.	1627.
10454	16.629	0.36364	5.e-002	9.6791
10455	16.536	0.18182	0.	1616.7
10456	16.629	0.18182	5.e-002	5.1871
10457	16.629	9.0909e-002	0.	1580.
10458	16.444	5.7273	0.	1649.4
10459	16.351	5.8182	0.	1671.9
10460	16.444	5.8182	5.e-002	4.4164
10461	16.444	5.9091	0.	1636.3
10462	16.444	5.5455	0.	1659.6
10463	16.351	5.6364	0.	1680.3
10464	16.444	5.6364	5.e-002	9.2686
10465	16.444	5.3636	0.	1670.7
10466	16.351	5.4545	0.	1690.4
10467	16.444	5.4545	5.e-002	9.4716
10468	16.444	5.1818	0.	1681.7
10469	16.351	5.2727	0.	1700.7
10470	16.444	5.2727	5.e-002	9.3225
10471	16.444	5.	0.	1692.5
10472	16.351	5.0909	0.	1710.8
10473	16.444	5.0909	5.e-002	9.1175
10474	16.444	4.8182	0.	1702.5
10475	16.351	4.9091	0.	1720.3
10476	16.444	4.9091	5.e-002	8.8824
10477	16.444	4.6364	0.	1711.8
10478	16.351	4.7273	0.	1729.2
10479	16.444	4.7273	5.e-002	8.6251
10480	16.444	4.4545	0.	1720.1
10481	16.351	4.5455	0.	1737.2
10482	16.444	4.5455	5.e-002	8.3533
10483	16.444	4.2727	0.	1727.3
10484	16.351	4.3636	0.	1744.3
10485	16.444	4.3636	5.e-002	8.0746
10486	16.444	4.0909	0.	1733.4
10487	16.351	4.1818	0.	1750.3
10488	16.444	4.1818	5.e-002	7.7974
10489	16.444	3.9091	0.	1738.4
10490	16.351	4.	0.	1755.3
10491	16.444	4.	5.e-002	7.5306
10492	16.444	3.7273	0.	1742.4
10493	16.351	3.8182	0.	1759.4
10494	16.444	3.8182	5.e-002	7.2839
10495	16.444	3.5455	0.	1745.3
10496	16.351	3.6364	0.	1762.4
10497	16.444	3.6364	5.e-002	7.068
10498	16.444	3.3636	0.	1747.4
10499	16.351	3.4545	0.	1764.7
10500	16.444	3.4545	5.e-002	6.8934
10501	16.444	3.1818	0.	1748.6
10502	16.351	3.2727	0.	1766.1
10503	16.444	3.2727	5.e-002	6.7704
10504	16.444	3.	0.	1749.
10505	16.351	3.0909	0.	1766.8
10506	16.444	3.0909	5.e-002	6.7066
10507	16.444	2.8182	0.	1748.6
10508	16.351	2.9091	0.	1766.8
10509	16.444	2.9091	5.e-002	6.7066
10510	16.444	2.6364	0.	1747.4
10511	16.351	2.7273	0.	1766.1
10512	16.444	2.7273	5.e-002	6.7704
10513	16.444	2.4545	0.	1745.3
10514	16.351	2.5455	0.	1764.7
10515	16.444	2.5455	5.e-002	6.8934
10516	16.444	2.2727	0.	1742.4
10517	16.351	2.3636	0.	1762.4
10518	16.444	2.3636	5.e-002	7.068
10519	16.444	2.0909	0.	1738.4
10520	16.351	2.1818	0.	1759.4
10521	16.444	2.1818	5.e-002	7.2839
10522	16.444	1.9091	0.	1733.4
10523	16.351	2.	0.	1755.3
10524	16.444	2.	5.e-002	7.5306
10525	16.444	1.7273	0.	1727.3
10526	16.351	1.8182	0.	1750.3
10527	16.444	1.8182	5.e-002	7.7974
10528	16.444	1.5455	0.	1720.1
10529	16.351	1.6364	0.	1744.3
10530	16.444	1.6364	5.e-002	8.0746
10531	16.444	1.3636	0.	1711.8
10532	16.351	1.4545	0.	1737.2
10533	16.444	1.4545	5.e-002	8.3533
10534	16.444	1.1818	0.	1702.5
10535	16.351	1.2727	0.	1729.2
10536	16.444	1.2727	5.e-002	8.6251
10537	16.444	1.	0.	1692.5
10538	16.351	1.0909	0.	1720.3
10539	16.444	1.0909	5.e-002	8.8824
10540	16.444	0.81818	0.	1681.7
10541	16.351	0.90909	0.	1710.8
10542	16.444	0.90909	5.e-002	9.1175
10543	16.444	0.63636	0.	1670.7
10544	16.351	0.72727	0.	1700.7
10545	16.444	0.72727	5.e-002	9.3225
10546	16.444	0.45455	0.	1659.6
10547	16.351	0.54545	0.	1690.4
10548	16.444	0.54545	5.e-002	9.4716
10549	16.444	0.27273	0.	1649.4
10550	16.351	0.36364	0.	1680.3
10551	16.444	0.36364	5.e-002	9.2686
10552	16.351	0.18182	0.	1671.9
10553	16.444	0.18182	5.e-002	4.4164
10554	16.444	9.0909e-002	0.	1636.3
10555	16.259	5.7273	0.	1702.7
10556	16.167	5.8182	0.	1725.4
10557	16.259	5.8182	5.e-002	3.7686
10558	16.259	5.9091	0.	1690.6
10559	16.259	5.5455	0.	1711.1
10560	16.167	5.6364	0.	1732.1
10561	16.259	5.6364	5.e-002	8.9397
10562	16.259	5.3636	0.	1720.4
10563	16.167	5.4545	0.	1740.6
10564	16.259	5.4545	5.e-002	9.1917
10565	16.259	5.1818	0.	1729.7
10566	16.167	5.2727	0.	1749.2
10567	16.259	5.2727	5.e-002	9.0797
10568	16.259	5.	0.	1738.6
10569	16.167	5.0909	0.	1757.6
10570	16.259	5.0909	5.e-002	8.917
10571	16.259	4.8182	0.	1747.
10572	16.167	4.9091	0.	1765.6
10573	16.259	4.9091	5.e-002	8.7295
10574	16.259	4.6364	0.	1754.6
10575	16.167	4.7273	0.	1772.9
10576	16.259	4.7273	5.e-002	8.5242
10577	16.259	4.4545	0.	1761.4
10578	16.167	4.5455	0.	1779.5
10579	16.259	4.5455	5.e-002	8.3076
10580	16.259	4.2727	0.	1767.3
10581	16.167	4.3636	0.	1785.2
10582	16.259	4.3636	5.e-002	8.0862
10583	16.259	4.0909	0.	1772.2
10584	16.167	4.1818	0.	1790.2
10585	16.259	4.1818	5.e-002	7.8669
10586	16.259	3.9091	0.	1776.2
10587	16.167	4.	0.	1794.2
10588	16.259	4.	5.e-002	7.657
10589	16.259	3.7273	0.	1779.4
10590	16.167	3.8182	0.	1797.5
10591	16.259	3.8182	5.e-002	7.4643
10592	16.259	3.5455	0.	1781.8
10593	16.167	3.6364	0.	1800.
10594	16.259	3.6364	5.e-002	7.2967
10595	16.259	3.3636	0.	1783.4
10596	16.167	3.4545	0.	1801.8
10597	16.259	3.4545	5.e-002	7.1624
10598	16.259	3.1818	0.	1784.4
10599	16.167	3.2727	0.	1802.9
10600	16.259	3.2727	5.e-002	7.0682
10601	16.259	3.	0.	1784.7
10602	16.167	3.0909	0.	1803.5
10603	16.259	3.0909	5.e-002	7.0196
10604	16.259	2.8182	0.	1784.4
10605	16.167	2.9091	0.	1803.5
10606	16.259	2.9091	5.e-002	7.0196
10607	16.259	2.6364	0.	1783.4
10608	16.167	2.7273	0.	1802.9
10609	16.259	2.7273	5.e-002	7.0682
10610	16.259	2.4545	0.	1781.8
10611	16.167	2.5455	0.	1801.8
10612	16.259	2.5455	5.e-002	7.1624
10613	16.259	2.2727	0.	1779.4
10614	16.167	2.3636	0.	1800.
10615	16.259	2.3636	5.e-002	7.2967
10616	16.259	2.0909	0.	1776.2
10617	16.167	2.1818	0.	1797.5
10618	16.259	2.1818	5.e-002	7.4643
10619	16.259	1.9091	0.	1772.2
10620	16.167	2.	0.	1794.2
10621	16.259	2.	5.e-002	7.657
10622	16.259	1.7273	0.	1767.3
10623	16.167	1.8182	0.	1790.2
10624	16.259	1.8182	5.e-002	7.8669
10625	16.259	1.5455	0.	1761.4
10626	16.167	1.6364	0.	1785.2
10627	16.259	1.6364	5.e-002	8.0862
10628	16.259	1.3636	0.	1754.6
10629	16.167	1.4545	0.	1779.5
10630	16.259	1.4545	5.e-002	8.3076
10631	16.259	1.1818	0.	1747.
10632	16.167	1.2727	0.	1772.9
10633	16.259	1.2727	5.e-002	8.5242
10634	16.259	1.	0.	1738.6
10635	16.167	1.0909	0.	1765.6
10636	16.259	1.0909	5.e-002	8.7295
10637	16.259	0.81818	0.	1729.7
10638	16.167	0.90909	0.	1757.6
10639	16.259	0.90909	5.e-002	8.917
10640	16.259	0.63636	0.	1720.4
10641	16.167	0.72727	0.	1749.2
10642	16.259	0.72727	5.e-002	9.0797
10643	16.259	0.45455	0.	1711.1
10644	16.167	0.54545	0.	1740.6
10645	16.259	0.54545	5.e-002	9.1917
10646	16.259	0.27273	0.	1702.7
10647	16.167	0.36364	0.	1732.1
10648	16.259	0.36364	5.e-002	8.9397
10649	16.167	0.18182	0.	1725.4
10650	16.259	0.18182	5.e-002	3.7686
10651	16.259	9.0909e-002	0.	1690.6
10652	16.074	5.7273	0.	1754.6
10653	15.982	5.8182	0.	1777.5
10654	16.074	5.8182	5.e-002	3.2244
10655	16.074	5.9091	0.	1743.4
10656	16.074	5.5455	0.	1761.5
10657	15.982	5.6364	0.	1782.7
10658	16.074	5.6364	5.e-002	8.6782
10659	16.074	5.3636	0.	1769.3
10660	15.982	5.4545	0.	1789.9
10661	16.074	5.4545	5.e-002	8.9713
10662	16.074	5.1818	0.	1777.1
10663	15.982	5.2727	0.	1797.1
10664	16.074	5.2727	5.e-002	8.8897
10665	16.074	5.	0.	1784.5
10666	15.982	5.0909	0.	1804.1
10667	16.074	5.0909	5.e-002	8.7615
10668	16.074	4.8182	0.	1791.4
10669	15.982	4.9091	0.	1810.7
10670	16.074	4.9091	5.e-002	8.6128
10671	16.074	4.6364	0.	1797.7
10672	15.982	4.7273	0.	1816.8
10673	16.074	4.7273	5.e-002	8.4499
10674	16.074	4.4545	0.	1803.3
10675	15.982	4.5455	0.	1822.2
10676	16.074	4.5455	5.e-002	8.278
10677	16.074	4.2727	0.	1808.1
10678	15.982	4.3636	0.	1827.
10679	16.074	4.3636	5.e-002	8.1026
10680	16.074	4.0909	0.	1812.2
10681	15.982	4.1818	0.	1831.
10682	16.074	4.1818	5.e-002	7.9295
10683	16.074	3.9091	0.	1815.5
10684	15.982	4.	0.	1834.3
10685	16.074	4.	5.e-002	7.7646
10686	16.074	3.7273	0.	1818.
10687	15.982	3.8182	0.	1837.
10688	16.074	3.8182	5.e-002	7.6139
10689	16.074	3.5455	0.	1819.9
10690	15.982	3.6364	0.	1839.
10691	16.074	3.6364	5.e-002	7.4837
10692	16.074	3.3636	0.	1821.3
10693	15.982	3.4545	0.	1840.5
10694	16.074	3.4545	5.e-002	7.3798
10695	16.074	3.1818	0.	1822.
10696	15.982	3.2727	0.	1841.4
10697	16.074	3.2727	5.e-002	7.3073
10698	16.074	3.	0.	1822.3
10699	15.982	3.0909	0.	1841.9
10700	16.074	3.0909	5.e-002	7.2701
10701	16.074	2.8182	0.	1822.
10702	15.982	2.9091	0.	1841.9
10703	16.074	2.9091	5.e-002	7.2701
10704	16.074	2.6364	0.	1821.3
10705	15.982	2.7273	0.	1841.4
10706	16.074	2.7273	5.e-002	7.3073
10707	16.074	2.4545	0.	1819.9
10708	15.982	2.5455	0.	1840.5
10709	16.074	2.5455	5.e-002	7.3798
10710	16.074	2.2727	0.	1818.
10711	15.982	2.3636	0.	1839.
10712	16.074	2.3636	5.e-002	7.4837
10713	16.074	2.0909	0.	1815.5
10714	15.982	2.1818	0.	1837.
10715	16.074	2.1818	5.e-002	7.6139
10716	16.074	1.9091	0.	1812.2
10717	15.982	2.	0.	1834.3
10718	16.074	2.	5.e-002	7.7646
10719	16.074	1.7273	0.	1808.1
10720	15.982	1.8182	0.	1831.
10721	16.074	1.8182	5.e-002	7.9295
10722	16.074	1.5455	0.	1803.3
10723	15.982	1.6364	0.	1827.
10724	16.074	1.6364	5.e-002	8.1026
10725	16.074	1.3636	0.	1797.7
10726	15.982	1.4545	0.	1822.2
10727	16.074	1.4545	5.e-002	8.278
10728	16.074	1.1818	0.	1791.4
10729	15.982	1.2727	0.	1816.8
10730	16.074	1.2727	5.e-002	8.4499
10731	16.074	1.	0.	1784.5
10732	15.982	1.0909	0.	1810.7
10733	16.074	1.0909	5.e-002	8.6128
10734	16.074	0.81818	0.	1777.1
10735	15.982	0.90909	0.	1804.1
10736	16.074	0.90909	5.e-002	8.7615
10737	16.074	0.63636	0.	1769.3
10738	15.982	0.72727	0.	1797.1
10739	16.074	0.72727	5.e-002	8.8897
10740	16.074	0.45455	0.	1761.5
10741	15.982	0.54545	0.	1789.9
10742	16.074	0.54545	5.e-002	8.9713
10743	16.074	0.27273	0.	1754.6
10744	15.982	0.36364	0.	1782.7
10745	16.074	0.36364	5.e-002	8.6782
10746	15.982	0.18182	0.	1777.5
10747	16.074	0.18182	5.e-002	3.2244
10748	16.074	9.0909e-002	0.	1743.4
10749	15.89	5.7273	0.	1805.4
10750	15.797	5.8182	0.	1828.5
10751	15.89	5.8182	5.e-002	2.767
10752	15.89	5.9091	0.	1795.
10753	15.89	5.5455	0.	1811.
10754	15.797	5.6364	0.	1832.5
10755	15.89	5.6364	5.e-002	8.4719
10756	15.89	5.3636	0.	1817.6
10757	15.797	5.4545	0.	1838.5
10758	15.89	5.4545	5.e-002	8.7994
10759	15.89	5.1818	0.	1824.1
10760	15.797	5.2727	0.	1844.5
10761	15.89	5.2727	5.e-002	8.7425
10762	15.89	5.	0.	1830.3
10763	15.797	5.0909	0.	1850.4
10764	15.89	5.0909	5.e-002	8.6422
10765	15.89	4.8182	0.	1836.
10766	15.797	4.9091	0.	1855.9
10767	15.89	4.9091	5.e-002	8.525
10768	15.89	4.6364	0.	1841.3
10769	15.797	4.7273	0.	1860.9
10770	15.89	4.7273	5.e-002	8.3962
10771	15.89	4.4545	0.	1845.9
10772	15.797	4.5455	0.	1865.5
10773	15.89	4.5455	5.e-002	8.2603
10774	15.89	4.2727	0.	1849.8
10775	15.797	4.3636	0.	1869.4
10776	15.89	4.3636	5.e-002	8.1218
10777	15.89	4.0909	0.	1853.1
10778	15.797	4.1818	0.	1872.7
10779	15.89	4.1818	5.e-002	7.9855
10780	15.89	3.9091	0.	1855.8
10781	15.797	4.	0.	1875.4
10782	15.89	4.	5.e-002	7.856
10783	15.89	3.7273	0.	1857.9
10784	15.797	3.8182	0.	1877.6
10785	15.89	3.8182	5.e-002	7.7382
10786	15.89	3.5455	0.	1859.5
10787	15.797	3.6364	0.	1879.2
10788	15.89	3.6364	5.e-002	7.6369
10789	15.89	3.3636	0.	1860.6
10790	15.797	3.4545	0.	1880.4
10791	15.89	3.4545	5.e-002	7.5563
10792	15.89	3.1818	0.	1861.2
10793	15.797	3.2727	0.	1881.2
10794	15.89	3.2727	5.e-002	7.5003
10795	15.89	3.	0.	1861.4
10796	15.797	3.0909	0.	1881.6
10797	15.89	3.0909	5.e-002	7.4716
10798	15.89	2.8182	0.	1861.2
10799	15.797	2.9091	0.	1881.6
10800	15.89	2.9091	5.e-002	7.4716
10801	15.89	2.6364	0.	1860.6
10802	15.797	2.7273	0.	1881.2
10803	15.89	2.7273	5.e-002	7.5003
10804	15.89	2.4545	0.	1859.5
10805	15.797	2.5455	0.	1880.4
10806	15.89	2.5455	5.e-002	7.5563
10807	15.89	2.2727	0.	1857.9
10808	15.797	2.3636	0.	1879.2
10809	15.89	2.3636	5.e-002	7.6369
10810	15.89	2.0909	0.	1855.8
10811	15.797	2.1818	0.	1877.6
10812	15.89	2.1818	5.e-002	7.7382
10813	15.89	1.9091	0.	1853.1
10814	15.797	2.	0.	1875.4
10815	15.89	2.	5.e-002	7.856
10816	15.89	1.7273	0.	1849.8
10817	15.797	1.8182	0.	1872.7
10818	15.89	1.8182	5.e-002	7.9855
10819	15.89	1.5455	0.	1845.9
10820	15.797	1.6364	0.	1869.4
10821	15.89	1.6364	5.e-002	8.1218
10822	15.89	1.3636	0.	1841.3
10823	15.797	1.4545	0.	1865.5
10824	15.89	1.4545	5.e-002	8.2603
10825	15.89	1.1818	0.	1836.
10826	15.797	1.2727	0.	1860.9
10827	15.89	1.2727	5.e-002	8.3962
10828	15.89	1.	0.	1830.3
10829	15.797	1.0909	0.	1855.9
10830	15.89	1.0909	5.e-002	8.525
10831	15.89	0.81818	0.	1824.1
10832	15.797	0.90909	0.	1850.4
10833	15.89	0.90909	5.e-002	8.6422
10834	15.89	0.63636	0.	1817.6
10835	15.797	0.72727	0.	1844.5
10836	15.89	0.72727	5.e-002	8.7425
10837	15.89	0.45455	0.	1811.
10838	15.797	0.54545	0.	1838.5
10839	15.89	0.54545	5.e-002	8.7994
10840	15.89	0.27273	0.	1805.4
10841	15.797	0.36364	0.	1832.5
10842	15.89	0.36364	5.e-002	8.4719
10843	15.797	0.18182	0.	1828.5
10844	15.89	0.18182	5.e-002	2.767
10845	15.89	9.0909e-002	0.	1795.
10846	15.705	5.7273	0.	1855.4
10847	15.612	5.8182	0.	1878.7
10848	15.705	5.8182	5.e-002	2.3822
10849	15.705	5.9091	0.	1845.6
10850	15.705	5.5455	0.	1859.9
10851	15.612	5.6364	0.	1881.7
10852	15.705	5.6364	5.e-002	8.3106
10853	15.705	5.3636	0.	1865.4
10854	15.612	5.4545	0.	1886.6
10855	15.705	5.4545	5.e-002	8.6669
10856	15.705	5.1818	0.	1870.8
10857	15.612	5.2727	0.	1891.7
10858	15.705	5.2727	5.e-002	8.6297
10859	15.705	5.	0.	1876.
10860	15.612	5.0909	0.	1896.6
10861	15.705	5.0909	5.e-002	8.552
10862	15.705	4.8182	0.	1880.8
10863	15.612	4.9091	0.	1901.2
10864	15.705	4.9091	5.e-002	8.46
10865	15.705	4.6364	0.	1885.1
10866	15.612	4.7273	0.	1905.4
10867	15.705	4.7273	5.e-002	8.3587
10868	15.705	4.4545	0.	1888.9
10869	15.612	4.5455	0.	1909.1
10870	15.705	4.5455	5.e-002	8.2517
10871	15.705	4.2727	0.	1892.2
10872	15.612	4.3636	0.	1912.4
10873	15.705	4.3636	5.e-002	8.1427
10874	15.705	4.0909	0.	1895.
10875	15.612	4.1818	0.	1915.1
10876	15.705	4.1818	5.e-002	8.0355
10877	15.705	3.9091	0.	1897.2
10878	15.612	4.	0.	1917.4
10879	15.705	4.	5.e-002	7.9341
10880	15.705	3.7273	0.	1898.9
10881	15.612	3.8182	0.	1919.1
10882	15.705	3.8182	5.e-002	7.842
10883	15.705	3.5455	0.	1900.2
10884	15.612	3.6364	0.	1920.5
10885	15.705	3.6364	5.e-002	7.7631
10886	15.705	3.3636	0.	1901.1
10887	15.612	3.4545	0.	1921.5
10888	15.705	3.4545	5.e-002	7.7005
10889	15.705	3.1818	0.	1901.6
10890	15.612	3.2727	0.	1922.1
10891	15.705	3.2727	5.e-002	7.6571
10892	15.705	3.	0.	1901.7
10893	15.612	3.0909	0.	1922.4
10894	15.705	3.0909	5.e-002	7.6349
10895	15.705	2.8182	0.	1901.6
10896	15.612	2.9091	0.	1922.4
10897	15.705	2.9091	5.e-002	7.6349
10898	15.705	2.6364	0.	1901.1
10899	15.612	2.7273	0.	1922.1
10900	15.705	2.7273	5.e-002	7.6571
10901	15.705	2.4545	0.	1900.2
10902	15.612	2.5455	0.	1921.5
10903	15.705	2.5455	5.e-002	7.7005
10904	15.705	2.2727	0.	1898.9
10905	15.612	2.3636	0.	1920.5
10906	15.705	2.3636	5.e-002	7.7631
10907	15.705	2.0909	0.	1897.2
10908	15.612	2.1818	0.	1919.1
10909	15.705	2.1818	5.e-002	7.842
10910	15.705	1.9091	0.	1895.
10911	15.612	2.	0.	1917.4
10912	15.705	2.	5.e-002	7.9341
10913	15.705	1.7273	0.	1892.2
10914	15.612	1.8182	0.	1915.1
10915	15.705	1.8182	5.e-002	8.0355
10916	15.705	1.5455	0.	1888.9
10917	15.612	1.6364	0.	1912.4
10918	15.705	1.6364	5.e-002	8.1427
10919	15.705	1.3636	0.	1885.1
10920	15.612	1.4545	0.	1909.1
10921	15.705	1.4545	5.e-002	8.2517
10922	15.705	1.1818	0.	1880.8
10923	15.612	1.2727	0.	1905.4
10924	15.705	1.2727	5.e-002	8.3587
10925	15.705	1.	0.	1876.
10926	15.612	1.0909	0.	1901.2
10927	15.705	1.0909	5.e-002	8.46
10928	15.705	0.81818	0.	1870.8
10929	15.612	0.90909	0.	1896.6
10930	15.705	0.90909	5.e-002	8.552
10931	15.705	0.63636	0.	1865.4
10932	15.612	0.72727	0.	1891.7
10933	15.705	0.72727	5.e-002	8.6297
10934	15.705	0.45455	0.	1859.9
10935	15.612	0.54545	0.	1886.6
10936	15.705	0.54545	5.e-002	8.6669
10937	15.705	0.27273	0.	1855.4
10938	15.612	0.36364	0.	1881.7
10939	15.705	0.36364	5.e-002	8.3106
10940	15.612	0.18182	0.	1878.7
10941	15.705	0.18182	5.e-002	2.3822
10942	15.705	9.0909e-002	0.	1845.6
10943	15.52	5.7273	0.	1904.8
10944	15.428	5.8182	0.	1928.2
10945	15.52	5.8182	5.e-002	2.058
10946	15.52	5.9091	0.	1895.6
10947	15.52	5.5455	0.	1908.3
10948	15.428	5.6364	0.	1930.3
10949	15.52	5.6364	5.e-002	8.1858
10950	15.52	5.3636	0.	1912.9
10951	15.428	5.4545	0.	1934.4
10952	15.52	5.4545	5.e-002	8.5663
10953	15.52	5.1818	0.	1917.4
10954	15.428	5.2727	0.	1938.7
10955	15.52	5.2727	5.e-002	8.5449
10956	15.52	5.	0.	1921.7
10957	15.428	5.0909	0.	1942.7
10958	15.52	5.0909	5.e-002	8.4851
10959	15.52	4.8182	0.	1925.7
10960	15.428	4.9091	0.	1946.6
10961	15.52	4.9091	5.e-002	8.4134
10962	15.52	4.6364	0.	1929.3
10963	15.428	4.7273	0.	1950.1
10964	15.52	4.7273	5.e-002	8.334
10965	15.52	4.4545	0.	1932.5
10966	15.428	4.5455	0.	1953.2
10967	15.52	4.5455	5.e-002	8.2501
10968	15.52	4.2727	0.	1935.2
10969	15.428	4.3636	0.	1955.9
10970	15.52	4.3636	5.e-002	8.1646
10971	15.52	4.0909	0.	1937.5
10972	15.428	4.1818	0.	1958.1
10973	15.52	4.1818	5.e-002	8.0806
10974	15.52	3.9091	0.	1939.3
10975	15.428	4.	0.	1960.
10976	15.52	4.	5.e-002	8.0012
10977	15.52	3.7273	0.	1940.7
10978	15.428	3.8182	0.	1961.5
10979	15.52	3.8182	5.e-002	7.9293
10980	15.52	3.5455	0.	1941.8
10981	15.428	3.6364	0.	1962.6
10982	15.52	3.6364	5.e-002	7.8678
10983	15.52	3.3636	0.	1942.5
10984	15.428	3.4545	0.	1963.4
10985	15.52	3.4545	5.e-002	7.8192
10986	15.52	3.1818	0.	1942.9
10987	15.428	3.2727	0.	1964.
10988	15.52	3.2727	5.e-002	7.7856
10989	15.52	3.	0.	1943.1
10990	15.428	3.0909	0.	1964.2
10991	15.52	3.0909	5.e-002	7.7683
10992	15.52	2.8182	0.	1942.9
10993	15.428	2.9091	0.	1964.2
10994	15.52	2.9091	5.e-002	7.7683
10995	15.52	2.6364	0.	1942.5
10996	15.428	2.7273	0.	1964.
10997	15.52	2.7273	5.e-002	7.7856
10998	15.52	2.4545	0.	1941.8
10999	15.428	2.5455	0.	1963.4
11000	15.52	2.5455	5.e-002	7.8192
11001	15.52	2.2727	0.	1940.7
11002	15.428	2.3636	0.	1962.6
11003	15.52	2.3636	5.e-002	7.8678
11004	15.52	2.0909	0.	1939.3
11005	15.428	2.1818	0.	1961.5
11006	15.52	2.1818	5.e-002	7.9293
11007	15.52	1.9091	0.	1937.5
11008	15.428	2.	0.	1960.
11009	15.52	2.	5.e-002	8.0012
11010	15.52	1.7273	0.	1935.2
11011	15.428	1.8182	0.	1958.1
11012	15.52	1.8182	5.e-002	8.0806
11013	15.52	1.5455	0.	1932.5
11014	15.428	1.6364	0.	1955.9
11015	15.52	1.6364	5.e-002	8.1646
11016	15.52	1.3636	0.	1929.3
11017	15.428	1.4545	0.	1953.2
11018	15.52	1.4545	5.e-002	8.2501
11019	15.52	1.1818	0.	1925.7
11020	15.428	1.2727	0.	1950.1
11021	15.52	1.2727	5.e-002	8.334
11022	15.52	1.	0.	1921.7
11023	15.428	1.0909	0.	1946.6
11024	15.52	1.0909	5.e-002	8.4134
11025	15.52	0.81818	0.	1917.4
11026	15.428	0.90909	0.	1942.7
11027	15.52	0.90909	5.e-002	8.4851
11028	15.52	0.63636	0.	1912.9
11029	15.428	0.72727	0.	1938.7
11030	15.52	0.72727	5.e-002	8.5449
11031	15.52	0.45455	0.	1908.3
11032	15.428	0.54545	0.	1934.4
11033	15.52	0.54545	5.e-002	8.5663
11034	15.52	0.27273	0.	1904.8
11035	15.428	0.36364	0.	1930.3
11036	15.52	0.36364	5.e-002	8.1858
11037	15.428	0.18182	0.	1928.2
11038	15.52	0.18182	5.e-002	2.058
11039	15.52	9.0909e-002	0.	1895.6
11040	15.335	5.7273	0.	1953.6
11041	15.243	5.8182	0.	1977.3
11042	15.335	5.8182	5.e-002	1.7841
11043	15.335	5.9091	0.	1944.9
11044	15.335	5.5455	0.	1956.4
11045	15.243	5.6364	0.	1978.7
11046	15.335	5.6364	5.e-002	8.0908
11047	15.335	5.3636	0.	1960.2
11048	15.243	5.4545	0.	1982.
11049	15.335	5.4545	5.e-002	8.4914
11050	15.335	5.1818	0.	1963.9
11051	15.243	5.2727	0.	1985.5
11052	15.335	5.2727	5.e-002	8.4826
11053	15.335	5.	0.	1967.5
11054	15.243	5.0909	0.	1988.9
11055	15.335	5.0909	5.e-002	8.4371
11056	15.335	4.8182	0.	1970.9
11057	15.243	4.9091	0.	1992.1
11058	15.335	4.9091	5.e-002	8.3815
11059	15.335	4.6364	0.	1973.9
11060	15.243	4.7273	0.	1995.
11061	15.335	4.7273	5.e-002	8.3197
11062	15.335	4.4545	0.	1976.5
11063	15.243	4.5455	0.	1997.6
11064	15.335	4.5455	5.e-002	8.2541
11065	15.335	4.2727	0.	1978.8
11066	15.243	4.3636	0.	1999.8
11067	15.335	4.3636	5.e-002	8.1873
11068	15.335	4.0909	0.	1980.6
11069	15.243	4.1818	0.	2001.7
11070	15.335	4.1818	5.e-002	8.1216
11071	15.335	3.9091	0.	1982.2
11072	15.243	4.	0.	2003.3
11073	15.335	4.	5.e-002	8.0596
11074	15.335	3.7273	0.	1983.3
11075	15.243	3.8182	0.	2004.5
11076	15.335	3.8182	5.e-002	8.0036
11077	15.335	3.5455	0.	1984.2
11078	15.243	3.6364	0.	2005.5
11079	15.335	3.6364	5.e-002	7.9557
11080	15.335	3.3636	0.	1984.8
11081	15.243	3.4545	0.	2006.1
11082	15.335	3.4545	5.e-002	7.9179
11083	15.335	3.1818	0.	1985.2
11084	15.243	3.2727	0.	2006.6
11085	15.335	3.2727	5.e-002	7.8918
11086	15.335	3.	0.	1985.3
11087	15.243	3.0909	0.	2006.8
11088	15.335	3.0909	5.e-002	7.8785
11089	15.335	2.8182	0.	1985.2
11090	15.243	2.9091	0.	2006.8
11091	15.335	2.9091	5.e-002	7.8785
11092	15.335	2.6364	0.	1984.8
11093	15.243	2.7273	0.	2006.6
11094	15.335	2.7273	5.e-002	7.8918
11095	15.335	2.4545	0.	1984.2
11096	15.243	2.5455	0.	2006.1
11097	15.335	2.5455	5.e-002	7.9179
11098	15.335	2.2727	0.	1983.3
11099	15.243	2.3636	0.	2005.5
11100	15.335	2.3636	5.e-002	7.9557
11101	15.335	2.0909	0.	1982.2
11102	15.243	2.1818	0.	2004.5
11103	15.335	2.1818	5.e-002	8.0036
11104	15.335	1.9091	0.	1980.6
11105	15.243	2.	0.	2003.3
11106	15.335	2.	5.e-002	8.0596
11107	15.335	1.7273	0.	1978.8
11108	15.243	1.8182	0.	2001.7
11109	15.335	1.8182	5.e-002	8.1216
11110	15.335	1.5455	0.	1976.5
11111	15.243	1.6364	0.	1999.8
11112	15.335	1.6364	5.e-002	8.1873
11113	15.335	1.3636	0.	1973.9
11114	15.243	1.4545	0.	1997.6
11115	15.335	1.4545	5.e-002	8.2541
11116	15.335	1.1818	0.	1970.9
11117	15.243	1.2727	0.	1995.
11118	15.335	1.2727	5.e-002	8.3197
11119	15.335	1.	0.	1967.5
11120	15.243	1.0909	0.	1992.1
11121	15.335	1.0909	5.e-002	8.3815
11122	15.335	0.81818	0.	1963.9
11123	15.243	0.90909	0.	1988.9
11124	15.335	0.90909	5.e-002	8.4371
11125	15.335	0.63636	0.	1960.2
11126	15.243	0.72727	0.	1985.5
11127	15.335	0.72727	5.e-002	8.4826
11128	15.335	0.45455	0.	1956.4
11129	15.243	0.54545	0.	1982.
11130	15.335	0.54545	5.e-002	8.4914
11131	15.335	0.27273	0.	1953.6
11132	15.243	0.36364	0.	1978.7
11133	15.335	0.36364	5.e-002	8.0908
11134	15.243	0.18182	0.	1977.3
11135	15.335	0.18182	5.e-002	1.7841
11136	15.335	9.0909e-002	0.	1944.9
11137	15.15	5.7273	0.	2002.2
11138	15.058	5.8182	0.	2026.1
11139	15.15	5.8182	5.e-002	1.5524
11140	15.15	5.9091	0.	1993.9
11141	15.15	5.5455	0.	2004.3
11142	15.058	5.6364	0.	2026.8
11143	15.15	5.6364	5.e-002	8.0199
11144	15.15	5.3636	0.	2007.4
11145	15.058	5.4545	0.	2029.5
11146	15.15	5.4545	5.e-002	8.4375
11147	15.15	5.1818	0.	2010.5
11148	15.058	5.2727	0.	2032.4
11149	15.15	5.2727	5.e-002	8.4386
11150	15.15	5.	0.	2013.5
11151	15.058	5.0909	0.	2035.2
11152	15.15	5.0909	5.e-002	8.4044
11153	15.15	4.8182	0.	2016.2
11154	15.058	4.9091	0.	2037.8
11155	15.15	4.9091	5.e-002	8.3616
11156	15.15	4.6364	0.	2018.7
11157	15.058	4.7273	0.	2040.2
11158	15.15	4.7273	5.e-002	8.3137
11159	15.15	4.4545	0.	2020.9
11160	15.058	4.5455	0.	2042.4
11161	15.15	4.5455	5.e-002	8.2628
11162	15.15	4.2727	0.	2022.8
11163	15.058	4.3636	0.	2044.3
11164	15.15	4.3636	5.e-002	8.2107
11165	15.15	4.0909	0.	2024.4
11166	15.058	4.1818	0.	2045.8
11167	15.15	4.1818	5.e-002	8.1596
11168	15.15	3.9091	0.	2025.6
11169	15.058	4.	0.	2047.1
11170	15.15	4.	5.e-002	8.1113
11171	15.15	3.7273	0.	2026.6
11172	15.058	3.8182	0.	2048.1
11173	15.15	3.8182	5.e-002	8.0677
11174	15.15	3.5455	0.	2027.3
11175	15.058	3.6364	0.	2048.9
11176	15.15	3.6364	5.e-002	8.0305
11177	15.15	3.3636	0.	2027.8
11178	15.058	3.4545	0.	2049.5
11179	15.15	3.4545	5.e-002	8.0012
11180	15.15	3.1818	0.	2028.1
11181	15.058	3.2727	0.	2049.8
11182	15.15	3.2727	5.e-002	7.9809
11183	15.15	3.	0.	2028.2
11184	15.058	3.0909	0.	2050.
11185	15.15	3.0909	5.e-002	7.9705
11186	15.15	2.8182	0.	2028.1
11187	15.058	2.9091	0.	2050.
11188	15.15	2.9091	5.e-002	7.9705
11189	15.15	2.6364	0.	2027.8
11190	15.058	2.7273	0.	2049.8
11191	15.15	2.7273	5.e-002	7.9809
11192	15.15	2.4545	0.	2027.3
11193	15.058	2.5455	0.	2049.5
11194	15.15	2.5455	5.e-002	8.0012
11195	15.15	2.2727	0.	2026.6
11196	15.058	2.3636	0.	2048.9
11197	15.15	2.3636	5.e-002	8.0305
11198	15.15	2.0909	0.	2025.6
11199	15.058	2.1818	0.	2048.1
11200	15.15	2.1818	5.e-002	8.0677
11201	15.15	1.9091	0.	2024.4
11202	15.058	2.	0.	2047.1
11203	15.15	2.	5.e-002	8.1113
11204	15.15	1.7273	0.	2022.8
11205	15.058	1.8182	0.	2045.8
11206	15.15	1.8182	5.e-002	8.1596
11207	15.15	1.5455	0.	2020.9
11208	15.058	1.6364	0.	2044.3
11209	15.15	1.6364	5.e-002	8.2107
11210	15.15	1.3636	0.	2018.7
11211	15.058	1.4545	0.	2042.4
11212	15.15	1.4545	5.e-002	8.2628
11213	15.15	1.1818	0.	2016.2
11214	15.058	1.2727	0.	2040.2
11215	15.15	1.2727	5.e-002	8.3137
11216	15.15	1.	0.	2013.5
11217	15.058	1.0909	0.	2037.8
11218	15.15	1.0909	5.e-002	8.3616
11219	15.15	0.81818	0.	2010.5
11220	15.058	0.90909	0.	2035.2
11221	15.15	0.90909	5.e-002	8.4044
11222	15.15	0.63636	0.	2007.4
11223	15.058	0.72727	0.	2032.4
11224	15.15	0.72727	5.e-002	8.4386
11225	15.15	0.45455	0.	2004.3
11226	15.058	0.54545	0.	2029.5
11227	15.15	0.54545	5.e-002	8.4375
11228	15.15	0.27273	0.	2002.2
11229	15.058	0.36364	0.	2026.8
11230	15.15	0.36364	5.e-002	8.0199
11231	15.058	0.18182	0.	2026.1
11232	15.15	0.18182	5.e-002	1.5524
11233	15.15	9.0909e-002	0.	1993.9
11234	14.966	5.7273	0.	2050.5
11235	14.873	5.8182	0.	2074.6
11236	14.966	5.8182	5.e-002	1.3558
11237	14.966	5.9091	0.	2042.7
11238	14.966	5.5455	0.	2052.
11239	14.873	5.6364	0.	2074.7
11240	14.966	5.6364	5.e-002	7.9685
11241	14.966	5.3636	0.	2054.5
11242	14.873	5.4545	0.	2076.9
11243	14.966	5.4545	5.e-002	8.4005
11244	14.966	5.1818	0.	2057.1
11245	14.873	5.2727	0.	2079.3
11246	14.966	5.2727	5.e-002	8.4093
11247	14.966	5.	0.	2059.5
11248	14.873	5.0909	0.	2081.6
11249	14.966	5.0909	5.e-002	8.384
11250	14.966	4.8182	0.	2061.8
11251	14.873	4.9091	0.	2083.8
11252	14.966	4.9091	5.e-002	8.3514
11253	14.966	4.6364	0.	2063.9
11254	14.873	4.7273	0.	2085.7
11255	14.966	4.7273	5.e-002	8.3146
11256	14.966	4.4545	0.	2065.7
11257	14.873	4.5455	0.	2087.5
11258	14.966	4.5455	5.e-002	8.2752
11259	14.966	4.2727	0.	2067.3
11260	14.873	4.3636	0.	2089.1
11261	14.966	4.3636	5.e-002	8.2349
11262	14.966	4.0909	0.	2068.6
11263	14.873	4.1818	0.	2090.3
11264	14.966	4.1818	5.e-002	8.1952
11265	14.966	3.9091	0.	2069.6
11266	14.873	4.	0.	2091.4
11267	14.966	4.	5.e-002	8.1577
11268	14.966	3.7273	0.	2070.4
11269	14.873	3.8182	0.	2092.3
11270	14.966	3.8182	5.e-002	8.1239
11271	14.966	3.5455	0.	2071.
11272	14.873	3.6364	0.	2092.9
11273	14.966	3.6364	5.e-002	8.095
11274	14.966	3.3636	0.	2071.4
11275	14.873	3.4545	0.	2093.4
11276	14.966	3.4545	5.e-002	8.0723
11277	14.966	3.1818	0.	2071.7
11278	14.873	3.2727	0.	2093.7
11279	14.966	3.2727	5.e-002	8.0566
11280	14.966	3.	0.	2071.8
11281	14.873	3.0909	0.	2093.8
11282	14.966	3.0909	5.e-002	8.0486
11283	14.966	2.8182	0.	2071.7
11284	14.873	2.9091	0.	2093.8
11285	14.966	2.9091	5.e-002	8.0486
11286	14.966	2.6364	0.	2071.4
11287	14.873	2.7273	0.	2093.7
11288	14.966	2.7273	5.e-002	8.0566
11289	14.966	2.4545	0.	2071.
11290	14.873	2.5455	0.	2093.4
11291	14.966	2.5455	5.e-002	8.0723
11292	14.966	2.2727	0.	2070.4
11293	14.873	2.3636	0.	2092.9
11294	14.966	2.3636	5.e-002	8.095
11295	14.966	2.0909	0.	2069.6
11296	14.873	2.1818	0.	2092.3
11297	14.966	2.1818	5.e-002	8.1239
11298	14.966	1.9091	0.	2068.6
11299	14.873	2.	0.	2091.4
11300	14.966	2.	5.e-002	8.1577
11301	14.966	1.7273	0.	2067.3
11302	14.873	1.8182	0.	2090.3
11303	14.966	1.8182	5.e-002	8.1952
11304	14.966	1.5455	0.	2065.7
11305	14.873	1.6364	0.	2089.1
11306	14.966	1.6364	5.e-002	8.2349
11307	14.966	1.3636	0.	2063.9
11308	14.873	1.4545	0.	2087.5
11309	14.966	1.4545	5.e-002	8.2752
11310	14.966	1.1818	0.	2061.8
11311	14.873	1.2727	0.	2085.7
11312	14.966	1.2727	5.e-002	8.3146
11313	14.966	1.	0.	2059.5
11314	14.873	1.0909	0.	2083.8
11315	14.966	1.0909	5.e-002	8.3514
11316	14.966	0.81818	0.	2057.1
11317	14.873	0.90909	0.	2081.6
11318	14.966	0.90909	5.e-002	8.384
11319	14.966	0.63636	0.	2054.5
11320	14.873	0.72727	0.	2079.3
11321	14.966	0.72727	5.e-002	8.4093
11322	14.966	0.45455	0.	2052.
11323	14.873	0.54545	0.	2076.9
11324	14.966	0.54545	5.e-002	8.4005
11325	14.966	0.27273	0.	2050.5
11326	14.873	0.36364	0.	2074.7
11327	14.966	0.36364	5.e-002	7.9685
11328	14.873	0.18182	0.	2074.6
11329	14.966	0.18182	5.e-002	1.3558
11330	14.966	9.0909e-002	0.	2042.7
11331	14.781	5.7273	0.	2098.7
11332	14.689	5.8182	0.	2123.
11333	14.781	5.8182	5.e-002	1.1885
11334	14.781	5.9091	0.	2091.2
11335	14.781	5.5455	0.	2099.6
11336	14.689	5.6364	0.	2122.6
11337	14.781	5.6364	5.e-002	7.9328
11338	14.781	5.3636	0.	2101.7
11339	14.689	5.4545	0.	2124.4
11340	14.781	5.4545	5.e-002	8.377
11341	14.781	5.1818	0.	2103.8
11342	14.689	5.2727	0.	2126.3
11343	14.781	5.2727	5.e-002	8.3921
11344	14.781	5.	0.	2105.8
11345	14.689	5.0909	0.	2128.1
11346	14.781	5.0909	5.e-002	8.3738
11347	14.781	4.8182	0.	2107.7
11348	14.689	4.9091	0.	2129.9
11349	14.781	4.9091	5.e-002	8.3491
11350	14.781	4.6364	0.	2109.3
11351	14.689	4.7273	0.	2131.5
11352	14.781	4.7273	5.e-002	8.321
11353	14.781	4.4545	0.	2110.8
11354	14.689	4.5455	0.	2133.
11355	14.781	4.5455	5.e-002	8.2908
11356	14.781	4.2727	0.	2112.1
11357	14.689	4.3636	0.	2134.2
11358	14.781	4.3636	5.e-002	8.2597
11359	14.781	4.0909	0.	2113.2
11360	14.689	4.1818	0.	2135.3
11361	14.781	4.1818	5.e-002	8.2291
11362	14.781	3.9091	0.	2114.1
11363	14.689	4.	0.	2136.2
11364	14.781	4.	5.e-002	8.2002
11365	14.781	3.7273	0.	2114.7
11366	14.689	3.8182	0.	2136.8
11367	14.781	3.8182	5.e-002	8.174
11368	14.781	3.5455	0.	2115.2
11369	14.689	3.6364	0.	2137.4
11370	14.781	3.6364	5.e-002	8.1517
11371	14.781	3.3636	0.	2115.6
11372	14.689	3.4545	0.	2137.8
11373	14.781	3.4545	5.e-002	8.1341
11374	14.781	3.1818	0.	2115.8
11375	14.689	3.2727	0.	2138.
11376	14.781	3.2727	5.e-002	8.122
11377	14.781	3.	0.	2115.8
11378	14.689	3.0909	0.	2138.1
11379	14.781	3.0909	5.e-002	8.1158
11380	14.781	2.8182	0.	2115.8
11381	14.689	2.9091	0.	2138.1
11382	14.781	2.9091	5.e-002	8.1158
11383	14.781	2.6364	0.	2115.6
11384	14.689	2.7273	0.	2138.
11385	14.781	2.7273	5.e-002	8.122
11386	14.781	2.4545	0.	2115.2
11387	14.689	2.5455	0.	2137.8
11388	14.781	2.5455	5.e-002	8.1341
11389	14.781	2.2727	0.	2114.7
11390	14.689	2.3636	0.	2137.4
11391	14.781	2.3636	5.e-002	8.1517
11392	14.781	2.0909	0.	2114.1
11393	14.689	2.1818	0.	2136.8
11394	14.781	2.1818	5.e-002	8.174
11395	14.781	1.9091	0.	2113.2
11396	14.689	2.	0.	2136.2
11397	14.781	2.	5.e-002	8.2002
11398	14.781	1.7273	0.	2112.1
11399	14.689	1.8182	0.	2135.3
11400	14.781	1.8182	5.e-002	8.2291
11401	14.781	1.5455	0.	2110.8
11402	14.689	1.6364	0.	2134.2
11403	14.781	1.6364	5.e-002	8.2597
11404	14.781	1.3636	0.	2109.3
11405	14.689	1.4545	0.	2133.
11406	14.781	1.4545	5.e-002	8.2908
11407	14.781	1.1818	0.	2107.7
11408	14.689	1.2727	0.	2131.5
11409	14.781	1.2727	5.e-002	8.321
11410	14.781	1.	0.	2105.8
11411	14.689	1.0909	0.	2129.9
11412	14.781	1.0909	5.e-002	8.3491
11413	14.781	0.81818	0.	2103.8
11414	14.689	0.90909	0.	2128.1
11415	14.781	0.90909	5.e-002	8.3738
11416	14.781	0.63636	0.	2101.7
11417	14.689	0.72727	0.	2126.3
11418	14.781	0.72727	5.e-002	8.3921
11419	14.781	0.45455	0.	2099.6
11420	14.689	0.54545	0.	2124.4
11421	14.781	0.54545	5.e-002	8.377
11422	14.781	0.27273	0.	2098.7
11423	14.689	0.36364	0.	2122.6
11424	14.781	0.36364	5.e-002	7.9328
11425	14.689	0.18182	0.	2123.
11426	14.781	0.18182	5.e-002	1.1885
11427	14.781	9.0909e-002	0.	2091.2
11428	14.596	5.7273	0.	2146.8
11429	14.504	5.8182	0.	2171.3
11430	14.596	5.8182	5.e-002	1.0458
11431	14.596	5.9091	0.	2139.6
11432	14.596	5.5455	0.	2147.3
11433	14.504	5.6364	0.	2170.5
11434	14.596	5.6364	5.e-002	7.9099
11435	14.596	5.3636	0.	2148.9
11436	14.504	5.4545	0.	2171.8
11437	14.596	5.4545	5.e-002	8.3646
11438	14.596	5.1818	0.	2150.6
11439	14.504	5.2727	0.	2173.3
11440	14.596	5.2727	5.e-002	8.3845
11441	14.596	5.	0.	2152.2
11442	14.504	5.0909	0.	2174.8
11443	14.596	5.0909	5.e-002	8.3717
11444	14.596	4.8182	0.	2153.7
11445	14.504	4.9091	0.	2176.2
11446	14.596	4.9091	5.e-002	8.3533
11447	14.596	4.6364	0.	2155.1
11448	14.504	4.7273	0.	2177.5
11449	14.596	4.7273	5.e-002	8.3321
11450	14.596	4.4545	0.	2156.3
11451	14.504	4.5455	0.	2178.7
11452	14.596	4.5455	5.e-002	8.3091
11453	14.596	4.2727	0.	2157.3
11454	14.504	4.3636	0.	2179.7
11455	14.596	4.3636	5.e-002	8.2853
11456	14.596	4.0909	0.	2158.2
11457	14.504	4.1818	0.	2180.6
11458	14.596	4.1818	5.e-002	8.2619
11459	14.596	3.9091	0.	2158.9
11460	14.504	4.	0.	2181.3
11461	14.596	4.	5.e-002	8.2396
11462	14.596	3.7273	0.	2159.5
11463	14.504	3.8182	0.	2181.8
11464	14.596	3.8182	5.e-002	8.2195
11465	14.596	3.5455	0.	2159.9
11466	14.504	3.6364	0.	2182.3
11467	14.596	3.6364	5.e-002	8.2023
11468	14.596	3.3636	0.	2160.2
11469	14.504	3.4545	0.	2182.6
11470	14.596	3.4545	5.e-002	8.1888
11471	14.596	3.1818	0.	2160.3
11472	14.504	3.2727	0.	2182.8
11473	14.596	3.2727	5.e-002	8.1794
11474	14.596	3.	0.	2160.4
11475	14.504	3.0909	0.	2182.9
11476	14.596	3.0909	5.e-002	8.1746
11477	14.596	2.8182	0.	2160.3
11478	14.504	2.9091	0.	2182.9
11479	14.596	2.9091	5.e-002	8.1746
11480	14.596	2.6364	0.	2160.2
11481	14.504	2.7273	0.	2182.8
11482	14.596	2.7273	5.e-002	8.1794
11483	14.596	2.4545	0.	2159.9
11484	14.504	2.5455	0.	2182.6
11485	14.596	2.5455	5.e-002	8.1888
11486	14.596	2.2727	0.	2159.5
11487	14.504	2.3636	0.	2182.3
11488	14.596	2.3636	5.e-002	8.2023
11489	14.596	2.0909	0.	2158.9
11490	14.504	2.1818	0.	2181.8
11491	14.596	2.1818	5.e-002	8.2195
11492	14.596	1.9091	0.	2158.2
11493	14.504	2.	0.	2181.3
11494	14.596	2.	5.e-002	8.2396
11495	14.596	1.7273	0.	2157.3
11496	14.504	1.8182	0.	2180.6
11497	14.596	1.8182	5.e-002	8.2619
11498	14.596	1.5455	0.	2156.3
11499	14.504	1.6364	0.	2179.7
11500	14.596	1.6364	5.e-002	8.2853
11501	14.596	1.3636	0.	2155.1
11502	14.504	1.4545	0.	2178.7
11503	14.596	1.4545	5.e-002	8.3091
11504	14.596	1.1818	0.	2153.7
11505	14.504	1.2727	0.	2177.5
11506	14.596	1.2727	5.e-002	8.3321
11507	14.596	1.	0.	2152.2
11508	14.504	1.0909	0.	2176.2
11509	14.596	1.0909	5.e-002	8.3533
11510	14.596	0.81818	0.	2150.6
11511	14.504	0.90909	0.	2174.8
11512	14.596	0.90909	5.e-002	8.3717
11513	14.596	0.63636	0.	2148.9
11514	14.504	0.72727	0.	2173.3
11515	14.596	0.72727	5.e-002	8.3845
11516	14.596	0.45455	0.	2147.3
11517	14.504	0.54545	0.	2171.8
11518	14.596	0.54545	5.e-002	8.3646
11519	14.596	0.27273	0.	2146.8
11520	14.504	0.36364	0.	2170.5
11521	14.596	0.36364	5.e-002	7.9099
11522	14.504	0.18182	0.	2171.3
11523	14.596	0.18182	5.e-002	1.0458
11524	14.596	9.0909e-002	0.	2139.6
11525	14.411	5.7273	0.	2194.9
11526	14.319	5.8182	0.	2219.6
11527	14.411	5.8182	5.e-002	0.92376
11528	14.411	5.9091	0.	2188.
11529	14.411	5.5455	0.	2195.
11530	14.319	5.6364	0.	2218.4
11531	14.411	5.6364	5.e-002	7.8973
11532	14.411	5.3636	0.	2196.2
11533	14.319	5.4545	0.	2219.4
11534	14.411	5.4545	5.e-002	8.361
11535	14.411	5.1818	0.	2197.5
11536	14.319	5.2727	0.	2220.5
11537	14.411	5.2727	5.e-002	8.3847
11538	14.411	5.	0.	2198.8
11539	14.319	5.0909	0.	2221.7
11540	14.411	5.0909	5.e-002	8.3762
11541	14.411	4.8182	0.	2200.
11542	14.319	4.9091	0.	2222.8
11543	14.411	4.9091	5.e-002	8.3628
11544	14.411	4.6364	0.	2201.1
11545	14.319	4.7273	0.	2223.8
11546	14.411	4.7273	5.e-002	8.347
11547	14.411	4.4545	0.	2202.1
11548	14.319	4.5455	0.	2224.7
11549	14.411	4.5455	5.e-002	8.3297
11550	14.411	4.2727	0.	2202.9
11551	14.319	4.3636	0.	2225.5
11552	14.411	4.3636	5.e-002	8.3117
11553	14.411	4.0909	0.	2203.6
11554	14.319	4.1818	0.	2226.2
11555	14.411	4.1818	5.e-002	8.2939
11556	14.411	3.9091	0.	2204.2
11557	14.319	4.	0.	2226.8
11558	14.411	4.	5.e-002	8.2769
11559	14.411	3.7273	0.	2204.6
11560	14.319	3.8182	0.	2227.2
11561	14.411	3.8182	5.e-002	8.2615
11562	14.411	3.5455	0.	2204.9
11563	14.319	3.6364	0.	2227.6
11564	14.411	3.6364	5.e-002	8.2484
11565	14.411	3.3636	0.	2205.2
11566	14.319	3.4545	0.	2227.8
11567	14.411	3.4545	5.e-002	8.238
11568	14.411	3.1818	0.	2205.3
11569	14.319	3.2727	0.	2228.
11570	14.411	3.2727	5.e-002	8.2308
11571	14.411	3.	0.	2205.4
11572	14.319	3.0909	0.	2228.
11573	14.411	3.0909	5.e-002	8.2272
11574	14.411	2.8182	0.	2205.3
11575	14.319	2.9091	0.	2228.
11576	14.411	2.9091	5.e-002	8.2272
11577	14.411	2.6364	0.	2205.2
11578	14.319	2.7273	0.	2228.
11579	14.411	2.7273	5.e-002	8.2308
11580	14.411	2.4545	0.	2204.9
11581	14.319	2.5455	0.	2227.8
11582	14.411	2.5455	5.e-002	8.238
11583	14.411	2.2727	0.	2204.6
11584	14.319	2.3636	0.	2227.6
11585	14.411	2.3636	5.e-002	8.2484
11586	14.411	2.0909	0.	2204.2
11587	14.319	2.1818	0.	2227.2
11588	14.411	2.1818	5.e-002	8.2615
11589	14.411	1.9091	0.	2203.6
11590	14.319	2.	0.	2226.8
11591	14.411	2.	5.e-002	8.2769
11592	14.411	1.7273	0.	2202.9
11593	14.319	1.8182	0.	2226.2
11594	14.411	1.8182	5.e-002	8.2939
11595	14.411	1.5455	0.	2202.1
11596	14.319	1.6364	0.	2225.5
11597	14.411	1.6364	5.e-002	8.3117
11598	14.411	1.3636	0.	2201.1
11599	14.319	1.4545	0.	2224.7
11600	14.411	1.4545	5.e-002	8.3297
11601	14.411	1.1818	0.	2200.
11602	14.319	1.2727	0.	2223.8
11603	14.411	1.2727	5.e-002	8.347
11604	14.411	1.	0.	2198.8
11605	14.319	1.0909	0.	2222.8
11606	14.411	1.0909	5.e-002	8.3628
11607	14.411	0.81818	0.	2197.5
11608	14.319	0.90909	0.	2221.7
11609	14.411	0.90909	5.e-002	8.3762
11610	14.411	0.63636	0.	2196.2
11611	14.319	0.72727	0.	2220.5
11612	14.411	0.72727	5.e-002	8.3847
11613	14.411	0.45455	0.	2195.
11614	14.319	0.54545	0.	2219.4
11615	14.411	0.54545	5.e-002	8.361
11616	14.411	0.27273	0.	2194.9
11617	14.319	0.36364	0.	2218.4
11618	14.411	0.36364	5.e-002	7.8973
11619	14.319	0.18182	0.	2219.6
11620	14.411	0.18182	5.e-002	0.92376
11621	14.411	9.0909e-002	0.	2188.
11622	14.227	5.7273	0.	2243.
11623	14.134	5.8182	0.	2267.9
11624	14.227	5.8182	5.e-002	0.81902
11625	14.227	5.9091	0.	2236.3
11626	14.227	5.5455	0.	2242.7
11627	14.134	5.6364	0.	2266.3
11628	14.227	5.6364	5.e-002	7.8932
11629	14.227	5.3636	0.	2243.6
11630	14.134	5.4545	0.	2267.
11631	14.227	5.4545	5.e-002	8.3647
11632	14.227	5.1818	0.	2244.6
11633	14.134	5.2727	0.	2267.9
11634	14.227	5.2727	5.e-002	8.3914
11635	14.227	5.	0.	2245.6
11636	14.134	5.0909	0.	2268.7
11637	14.227	5.0909	5.e-002	8.3863
11638	14.227	4.8182	0.	2246.5
11639	14.134	4.9091	0.	2269.5
11640	14.227	4.9091	5.e-002	8.3768
11641	14.227	4.6364	0.	2247.4
11642	14.134	4.7273	0.	2270.3
11643	14.227	4.7273	5.e-002	8.3652
11644	14.227	4.4545	0.	2248.1
11645	14.134	4.5455	0.	2271.
11646	14.227	4.5455	5.e-002	8.3524
11647	14.227	4.2727	0.	2248.8
11648	14.134	4.3636	0.	2271.6
11649	14.227	4.3636	5.e-002	8.339
11650	14.227	4.0909	0.	2249.3
11651	14.134	4.1818	0.	2272.1
11652	14.227	4.1818	5.e-002	8.3255
11653	14.227	3.9091	0.	2249.8
11654	14.134	4.	0.	2272.6
11655	14.227	4.	5.e-002	8.3127
11656	14.227	3.7273	0.	2250.1
11657	14.134	3.8182	0.	2272.9
11658	14.227	3.8182	5.e-002	8.301
11659	14.227	3.5455	0.	2250.4
11660	14.134	3.6364	0.	2273.2
11661	14.227	3.6364	5.e-002	8.2911
11662	14.227	3.3636	0.	2250.6
11663	14.134	3.4545	0.	2273.4
11664	14.227	3.4545	5.e-002	8.2832
11665	14.227	3.1818	0.	2250.7
11666	14.134	3.2727	0.	2273.5
11667	14.227	3.2727	5.e-002	8.2777
11668	14.227	3.	0.	2250.7
11669	14.134	3.0909	0.	2273.6
11670	14.227	3.0909	5.e-002	8.275
11671	14.227	2.8182	0.	2250.7
11672	14.134	2.9091	0.	2273.6
11673	14.227	2.9091	5.e-002	8.275
11674	14.227	2.6364	0.	2250.6
11675	14.134	2.7273	0.	2273.5
11676	14.227	2.7273	5.e-002	8.2777
11677	14.227	2.4545	0.	2250.4
11678	14.134	2.5455	0.	2273.4
11679	14.227	2.5455	5.e-002	8.2832
11680	14.227	2.2727	0.	2250.1
11681	14.134	2.3636	0.	2273.2
11682	14.227	2.3636	5.e-002	8.2911
11683	14.227	2.0909	0.	2249.8
11684	14.134	2.1818	0.	2272.9
11685	14.227	2.1818	5.e-002	8.301
11686	14.227	1.9091	0.	2249.3
11687	14.134	2.	0.	2272.6
11688	14.227	2.	5.e-002	8.3127
11689	14.227	1.7273	0.	2248.8
11690	14.134	1.8182	0.	2272.1
11691	14.227	1.8182	5.e-002	8.3255
11692	14.227	1.5455	0.	2248.1
11693	14.134	1.6364	0.	2271.6
11694	14.227	1.6364	5.e-002	8.339
11695	14.227	1.3636	0.	2247.4
11696	14.134	1.4545	0.	2271.
11697	14.227	1.4545	5.e-002	8.3524
11698	14.227	1.1818	0.	2246.5
11699	14.134	1.2727	0.	2270.3
11700	14.227	1.2727	5.e-002	8.3652
11701	14.227	1.	0.	2245.6
11702	14.134	1.0909	0.	2269.5
11703	14.227	1.0909	5.e-002	8.3768
11704	14.227	0.81818	0.	2244.6
11705	14.134	0.90909	0.	2268.7
11706	14.227	0.90909	5.e-002	8.3863
11707	14.227	0.63636	0.	2243.6
11708	14.134	0.72727	0.	2267.9
11709	14.227	0.72727	5.e-002	8.3914
11710	14.227	0.45455	0.	2242.7
11711	14.134	0.54545	0.	2267.
11712	14.227	0.54545	5.e-002	8.3647
11713	14.227	0.27273	0.	2243.
11714	14.134	0.36364	0.	2266.3
11715	14.227	0.36364	5.e-002	7.8932
11716	14.134	0.18182	0.	2267.9
11717	14.227	0.18182	5.e-002	0.81902
11718	14.227	9.0909e-002	0.	2236.3
11719	14.042	5.7273	0.	2291.1
11720	13.95	5.8182	0.	2316.2
11721	14.042	5.8182	5.e-002	0.72892
11722	14.042	5.9091	0.	2284.7
11723	14.042	5.5455	0.	2290.6
11724	13.95	5.6364	0.	2314.4
11725	14.042	5.6364	5.e-002	7.8959
11726	14.042	5.3636	0.	2291.2
11727	13.95	5.4545	0.	2314.8
11728	14.042	5.4545	5.e-002	8.3743
11729	14.042	5.1818	0.	2291.9
11730	13.95	5.2727	0.	2315.3
11731	14.042	5.2727	5.e-002	8.4034
11732	14.042	5.	0.	2292.6
11733	13.95	5.0909	0.	2315.9
11734	14.042	5.0909	5.e-002	8.4009
11735	14.042	4.8182	0.	2293.3
11736	13.95	4.9091	0.	2316.5
11737	14.042	4.9091	5.e-002	8.3944
11738	14.042	4.6364	0.	2293.9
11739	13.95	4.7273	0.	2317.1
11740	14.042	4.7273	5.e-002	8.3862
11741	14.042	4.4545	0.	2294.5
11742	13.95	4.5455	0.	2317.6
11743	14.042	4.5455	5.e-002	8.3769
11744	14.042	4.2727	0.	2295.
11745	13.95	4.3636	0.	2318.
11746	14.042	4.3636	5.e-002	8.367
11747	14.042	4.0909	0.	2295.4
11748	13.95	4.1818	0.	2318.4
11749	14.042	4.1818	5.e-002	8.357
11750	14.042	3.9091	0.	2295.7
11751	13.95	4.	0.	2318.7
11752	14.042	4.	5.e-002	8.3475
11753	14.042	3.7273	0.	2296.
11754	13.95	3.8182	0.	2318.9
11755	14.042	3.8182	5.e-002	8.3388
11756	14.042	3.5455	0.	2296.1
11757	13.95	3.6364	0.	2319.1
11758	14.042	3.6364	5.e-002	8.3313
11759	14.042	3.3636	0.	2296.3
11760	13.95	3.4545	0.	2319.3
11761	14.042	3.4545	5.e-002	8.3253
11762	14.042	3.1818	0.	2296.4
11763	13.95	3.2727	0.	2319.3
11764	14.042	3.2727	5.e-002	8.3212
11765	14.042	3.	0.	2296.4
11766	13.95	3.0909	0.	2319.4
11767	14.042	3.0909	5.e-002	8.3192
11768	14.042	2.8182	0.	2296.4
11769	13.95	2.9091	0.	2319.4
11770	14.042	2.9091	5.e-002	8.3192
11771	14.042	2.6364	0.	2296.3
11772	13.95	2.7273	0.	2319.3
11773	14.042	2.7273	5.e-002	8.3212
11774	14.042	2.4545	0.	2296.1
11775	13.95	2.5455	0.	2319.3
11776	14.042	2.5455	5.e-002	8.3253
11777	14.042	2.2727	0.	2296.
11778	13.95	2.3636	0.	2319.1
11779	14.042	2.3636	5.e-002	8.3313
11780	14.042	2.0909	0.	2295.7
11781	13.95	2.1818	0.	2318.9
11782	14.042	2.1818	5.e-002	8.3388
11783	14.042	1.9091	0.	2295.4
11784	13.95	2.	0.	2318.7
11785	14.042	2.	5.e-002	8.3475
11786	14.042	1.7273	0.	2295.
11787	13.95	1.8182	0.	2318.4
11788	14.042	1.8182	5.e-002	8.357
11789	14.042	1.5455	0.	2294.5
11790	13.95	1.6364	0.	2318.
11791	14.042	1.6364	5.e-002	8.367
11792	14.042	1.3636	0.	2293.9
11793	13.95	1.4545	0.	2317.6
11794	14.042	1.4545	5.e-002	8.3769
11795	14.042	1.1818	0.	2293.3
11796	13.95	1.2727	0.	2317.1
11797	14.042	1.2727	5.e-002	8.3862
11798	14.042	1.	0.	2292.6
11799	13.95	1.0909	0.	2316.5
11800	14.042	1.0909	5.e-002	8.3944
11801	14.042	0.81818	0.	2291.9
11802	13.95	0.90909	0.	2315.9
11803	14.042	0.90909	5.e-002	8.4009
11804	14.042	0.63636	0.	2291.2
11805	13.95	0.72727	0.	2315.3
11806	14.042	0.72727	5.e-002	8.4034
11807	14.042	0.45455	0.	2290.6
11808	13.95	0.54545	0.	2314.8
11809	14.042	0.54545	5.e-002	8.3743
11810	14.042	0.27273	0.	2291.1
11811	13.95	0.36364	0.	2314.4
11812	14.042	0.36364	5.e-002	7.8959
11813	13.95	0.18182	0.	2316.2
11814	14.042	0.18182	5.e-002	0.72892
11815	14.042	9.0909e-002	0.	2284.7
11816	13.857	5.7273	0.	2339.3
11817	13.765	5.8182	0.	2364.6
11818	13.857	5.8182	5.e-002	0.65123
11819	13.857	5.9091	0.	2333.2
11820	13.857	5.5455	0.	2338.5
11821	13.765	5.6364	0.	2362.5
11822	13.857	5.6364	5.e-002	7.9043
11823	13.857	5.3636	0.	2338.9
11824	13.765	5.4545	0.	2362.7
11825	13.857	5.4545	5.e-002	8.3887
11826	13.857	5.1818	0.	2339.3
11827	13.765	5.2727	0.	2363.
11828	13.857	5.2727	5.e-002	8.4197
11829	13.857	5.	0.	2339.8
11830	13.765	5.0909	0.	2363.3
11831	13.857	5.0909	5.e-002	8.4192
11832	13.857	4.8182	0.	2340.3
11833	13.765	4.9091	0.	2363.7
11834	13.857	4.9091	5.e-002	8.4151
11835	13.857	4.6364	0.	2340.7
11836	13.765	4.7273	0.	2364.
11837	13.857	4.7273	5.e-002	8.4095
11838	13.857	4.4545	0.	2341.1
11839	13.765	4.5455	0.	2364.4
11840	13.857	4.5455	5.e-002	8.403
11841	13.857	4.2727	0.	2341.4
11842	13.765	4.3636	0.	2364.7
11843	13.857	4.3636	5.e-002	8.3959
11844	13.857	4.0909	0.	2341.7
11845	13.765	4.1818	0.	2364.9
11846	13.857	4.1818	5.e-002	8.3887
11847	13.857	3.9091	0.	2341.9
11848	13.765	4.	0.	2365.1
11849	13.857	4.	5.e-002	8.3817
11850	13.857	3.7273	0.	2342.1
11851	13.765	3.8182	0.	2365.3
11852	13.857	3.8182	5.e-002	8.3753
11853	13.857	3.5455	0.	2342.2
11854	13.765	3.6364	0.	2365.4
11855	13.857	3.6364	5.e-002	8.3697
11856	13.857	3.3636	0.	2342.3
11857	13.765	3.4545	0.	2365.5
11858	13.857	3.4545	5.e-002	8.3653
11859	13.857	3.1818	0.	2342.4
11860	13.765	3.2727	0.	2365.5
11861	13.857	3.2727	5.e-002	8.3623
11862	13.857	3.	0.	2342.4
11863	13.765	3.0909	0.	2365.5
11864	13.857	3.0909	5.e-002	8.3607
11865	13.857	2.8182	0.	2342.4
11866	13.765	2.9091	0.	2365.5
11867	13.857	2.9091	5.e-002	8.3607
11868	13.857	2.6364	0.	2342.3
11869	13.765	2.7273	0.	2365.5
11870	13.857	2.7273	5.e-002	8.3623
11871	13.857	2.4545	0.	2342.2
11872	13.765	2.5455	0.	2365.5
11873	13.857	2.5455	5.e-002	8.3653
11874	13.857	2.2727	0.	2342.1
11875	13.765	2.3636	0.	2365.4
11876	13.857	2.3636	5.e-002	8.3697
11877	13.857	2.0909	0.	2341.9
11878	13.765	2.1818	0.	2365.3
11879	13.857	2.1818	5.e-002	8.3753
11880	13.857	1.9091	0.	2341.7
11881	13.765	2.	0.	2365.1
11882	13.857	2.	5.e-002	8.3817
11883	13.857	1.7273	0.	2341.4
11884	13.765	1.8182	0.	2364.9
11885	13.857	1.8182	5.e-002	8.3887
11886	13.857	1.5455	0.	2341.1
11887	13.765	1.6364	0.	2364.7
11888	13.857	1.6364	5.e-002	8.3959
11889	13.857	1.3636	0.	2340.7
11890	13.765	1.4545	0.	2364.4
11891	13.857	1.4545	5.e-002	8.403
11892	13.857	1.1818	0.	2340.3
11893	13.765	1.2727	0.	2364.
11894	13.857	1.2727	5.e-002	8.4095
11895	13.857	1.	0.	2339.8
11896	13.765	1.0909	0.	2363.7
11897	13.857	1.0909	5.e-002	8.4151
11898	13.857	0.81818	0.	2339.3
11899	13.765	0.90909	0.	2363.3
11900	13.857	0.90909	5.e-002	8.4192
11901	13.857	0.63636	0.	2338.9
11902	13.765	0.72727	0.	2363.
11903	13.857	0.72727	5.e-002	8.4197
11904	13.857	0.45455	0.	2338.5
11905	13.765	0.54545	0.	2362.7
11906	13.857	0.54545	5.e-002	8.3887
11907	13.857	0.27273	0.	2339.3
11908	13.765	0.36364	0.	2362.5
11909	13.857	0.36364	5.e-002	7.9043
11910	13.765	0.18182	0.	2364.6
11911	13.857	0.18182	5.e-002	0.65123
11912	13.857	9.0909e-002	0.	2333.2
11913	13.672	5.7273	0.	2387.7
11914	13.58	5.8182	0.	2413.2
11915	13.672	5.8182	5.e-002	0.58415
11916	13.672	5.9091	0.	2381.8
11917	13.672	5.5455	0.	2386.6
11918	13.58	5.6364	0.	2410.8
11919	13.672	5.6364	5.e-002	7.9174
11920	13.672	5.3636	0.	2386.7
11921	13.58	5.4545	0.	2410.7
11922	13.672	5.4545	5.e-002	8.407
11923	13.672	5.1818	0.	2386.9
11924	13.58	5.2727	0.	2410.8
11925	13.672	5.2727	5.e-002	8.4395
11926	13.672	5.	0.	2387.2
11927	13.58	5.0909	0.	2410.9
11928	13.672	5.0909	5.e-002	8.4406
11929	13.672	4.8182	0.	2387.5
11930	13.58	4.9091	0.	2411.1
11931	13.672	4.9091	5.e-002	8.4384
11932	13.672	4.6364	0.	2387.7
11933	13.58	4.7273	0.	2411.3
11934	13.672	4.7273	5.e-002	8.4349
11935	13.672	4.4545	0.	2387.9
11936	13.58	4.5455	0.	2411.4
11937	13.672	4.5455	5.e-002	8.4305
11938	13.672	4.2727	0.	2388.1
11939	13.58	4.3636	0.	2411.6
11940	13.672	4.3636	5.e-002	8.4257
11941	13.672	4.0909	0.	2388.3
11942	13.58	4.1818	0.	2411.7
11943	13.672	4.1818	5.e-002	8.4206
11944	13.672	3.9091	0.	2388.4
11945	13.58	4.	0.	2411.8
11946	13.672	4.	5.e-002	8.4156
11947	13.672	3.7273	0.	2388.5
11948	13.58	3.8182	0.	2411.8
11949	13.672	3.8182	5.e-002	8.411
11950	13.672	3.5455	0.	2388.6
11951	13.58	3.6364	0.	2411.9
11952	13.672	3.6364	5.e-002	8.407
11953	13.672	3.3636	0.	2388.6
11954	13.58	3.4545	0.	2411.9
11955	13.672	3.4545	5.e-002	8.4038
11956	13.672	3.1818	0.	2388.7
11957	13.58	3.2727	0.	2411.9
11958	13.672	3.2727	5.e-002	8.4016
11959	13.672	3.	0.	2388.7
11960	13.58	3.0909	0.	2412.
11961	13.672	3.0909	5.e-002	8.4005
11962	13.672	2.8182	0.	2388.7
11963	13.58	2.9091	0.	2412.
11964	13.672	2.9091	5.e-002	8.4005
11965	13.672	2.6364	0.	2388.6
11966	13.58	2.7273	0.	2411.9
11967	13.672	2.7273	5.e-002	8.4016
11968	13.672	2.4545	0.	2388.6
11969	13.58	2.5455	0.	2411.9
11970	13.672	2.5455	5.e-002	8.4038
11971	13.672	2.2727	0.	2388.5
11972	13.58	2.3636	0.	2411.9
11973	13.672	2.3636	5.e-002	8.407
11974	13.672	2.0909	0.	2388.4
11975	13.58	2.1818	0.	2411.8
11976	13.672	2.1818	5.e-002	8.411
11977	13.672	1.9091	0.	2388.3
11978	13.58	2.	0.	2411.8
11979	13.672	2.	5.e-002	8.4156
11980	13.672	1.7273	0.	2388.1
11981	13.58	1.8182	0.	2411.7
11982	13.672	1.8182	5.e-002	8.4206
11983	13.672	1.5455	0.	2387.9
11984	13.58	1.6364	0.	2411.6
11985	13.672	1.6364	5.e-002	8.4257
11986	13.672	1.3636	0.	2387.7
11987	13.58	1.4545	0.	2411.4
11988	13.672	1.4545	5.e-002	8.4305
11989	13.672	1.1818	0.	2387.5
11990	13.58	1.2727	0.	2411.3
11991	13.672	1.2727	5.e-002	8.4349
11992	13.672	1.	0.	2387.2
11993	13.58	1.0909	0.	2411.1
11994	13.672	1.0909	5.e-002	8.4384
11995	13.672	0.81818	0.	2386.9
11996	13.58	0.90909	0.	2410.9
11997	13.672	0.90909	5.e-002	8.4406
11998	13.672	0.63636	0.	2386.7
11999	13.58	0.72727	0.	2410.8
12000	13.672	0.72727	5.e-002	8.4395
12001	13.672	0.45455	0.	2386.6
12002	13.58	0.54545	0.	2410.7
12003	13.672	0.54545	5.e-002	8.407
12004	13.672	0.27273	0.	2387.7
12005	13.58	0.36364	0.	2410.8
12006	13.672	0.36364	5.e-002	7.9174
12007	13.58	0.18182	0.	2413.2
12008	13.672	0.18182	5.e-002	0.58415
12009	13.672	9.0909e-002	0.	2381.8
12010	13.488	5.7273	0.	2436.1
12011	13.395	5.8182	0.	2461.8
12012	13.488	5.8182	5.e-002	0.52629
12013	13.488	5.9091	0.	2430.5
12014	13.488	5.5455	0.	2434.9
12015	13.395	5.6364	0.	2459.2
12016	13.488	5.6364	5.e-002	7.9344
12017	13.488	5.3636	0.	2434.7
12018	13.395	5.4545	0.	2458.9
12019	13.488	5.4545	5.e-002	8.4287
12020	13.488	5.1818	0.	2434.7
12021	13.395	5.2727	0.	2458.8
12022	13.488	5.2727	5.e-002	8.4624
12023	13.488	5.	0.	2434.8
12024	13.395	5.0909	0.	2458.7
12025	13.488	5.0909	5.e-002	8.4648
12026	13.488	4.8182	0.	2434.9
12027	13.395	4.9091	0.	2458.7
12028	13.488	4.9091	5.e-002	8.464
12029	13.488	4.6364	0.	2434.9
12030	13.395	4.7273	0.	2458.7
12031	13.488	4.7273	5.e-002	8.4621
12032	13.488	4.4545	0.	2435.
12033	13.395	4.5455	0.	2458.7
12034	13.488	4.5455	5.e-002	8.4595
12035	13.488	4.2727	0.	2435.1
12036	13.395	4.3636	0.	2458.7
12037	13.488	4.3636	5.e-002	8.4564
12038	13.488	4.0909	0.	2435.1
12039	13.395	4.1818	0.	2458.7
12040	13.488	4.1818	5.e-002	8.453
12041	13.488	3.9091	0.	2435.2
12042	13.395	4.	0.	2458.7
12043	13.488	4.	5.e-002	8.4496
12044	13.488	3.7273	0.	2435.2
12045	13.395	3.8182	0.	2458.7
12046	13.488	3.8182	5.e-002	8.4465
12047	13.488	3.5455	0.	2435.2
12048	13.395	3.6364	0.	2458.7
12049	13.488	3.6364	5.e-002	8.4437
12050	13.488	3.3636	0.	2435.2
12051	13.395	3.4545	0.	2458.7
12052	13.488	3.4545	5.e-002	8.4414
12053	13.488	3.1818	0.	2435.2
12054	13.395	3.2727	0.	2458.6
12055	13.488	3.2727	5.e-002	8.4399
12056	13.488	3.	0.	2435.2
12057	13.395	3.0909	0.	2458.6
12058	13.488	3.0909	5.e-002	8.4391
12059	13.488	2.8182	0.	2435.2
12060	13.395	2.9091	0.	2458.6
12061	13.488	2.9091	5.e-002	8.4391
12062	13.488	2.6364	0.	2435.2
12063	13.395	2.7273	0.	2458.6
12064	13.488	2.7273	5.e-002	8.4399
12065	13.488	2.4545	0.	2435.2
12066	13.395	2.5455	0.	2458.7
12067	13.488	2.5455	5.e-002	8.4414
12068	13.488	2.2727	0.	2435.2
12069	13.395	2.3636	0.	2458.7
12070	13.488	2.3636	5.e-002	8.4437
12071	13.488	2.0909	0.	2435.2
12072	13.395	2.1818	0.	2458.7
12073	13.488	2.1818	5.e-002	8.4465
12074	13.488	1.9091	0.	2435.1
12075	13.395	2.	0.	2458.7
12076	13.488	2.	5.e-002	8.4496
12077	13.488	1.7273	0.	2435.1
12078	13.395	1.8182	0.	2458.7
12079	13.488	1.8182	5.e-002	8.453
12080	13.488	1.5455	0.	2435.
12081	13.395	1.6364	0.	2458.7
12082	13.488	1.6364	5.e-002	8.4564
12083	13.488	1.3636	0.	2434.9
12084	13.395	1.4545	0.	2458.7
12085	13.488	1.4545	5.e-002	8.4595
12086	13.488	1.1818	0.	2434.9
12087	13.395	1.2727	0.	2458.7
12088	13.488	1.2727	5.e-002	8.4621
12089	13.488	1.	0.	2434.8
12090	13.395	1.0909	0.	2458.7
12091	13.488	1.0909	5.e-002	8.464
12092	13.488	0.81818	0.	2434.7
12093	13.395	0.90909	0.	2458.7
12094	13.488	0.90909	5.e-002	8.4648
12095	13.488	0.63636	0.	2434.7
12096	13.395	0.72727	0.	2458.8
12097	13.488	0.72727	5.e-002	8.4624
12098	13.488	0.45455	0.	2434.9
12099	13.395	0.54545	0.	2458.9
12100	13.488	0.54545	5.e-002	8.4287
12101	13.488	0.27273	0.	2436.1
12102	13.395	0.36364	0.	2459.2
12103	13.488	0.36364	5.e-002	7.9344
12104	13.395	0.18182	0.	2461.8
12105	13.488	0.18182	5.e-002	0.52629
12106	13.488	9.0909e-002	0.	2430.5
12107	13.303	5.7273	0.	2484.7
12108	13.21	5.8182	0.	2510.5
12109	13.303	5.8182	5.e-002	0.47642
12110	13.303	5.9091	0.	2479.3
12111	13.303	5.5455	0.	2483.3
12112	13.21	5.6364	0.	2507.8
12113	13.303	5.6364	5.e-002	7.9547
12114	13.303	5.3636	0.	2482.9
12115	13.21	5.4545	0.	2507.3
12116	13.303	5.4545	5.e-002	8.453
12117	13.303	5.1818	0.	2482.7
12118	13.21	5.2727	0.	2507.
12119	13.303	5.2727	5.e-002	8.4877
12120	13.303	5.	0.	2482.6
12121	13.21	5.0909	0.	2506.7
12122	13.303	5.0909	5.e-002	8.4911
12123	13.303	4.8182	0.	2482.5
12124	13.21	4.9091	0.	2506.5
12125	13.303	4.9091	5.e-002	8.4915
12126	13.303	4.6364	0.	2482.4
12127	13.21	4.7273	0.	2506.3
12128	13.303	4.7273	5.e-002	8.4909
12129	13.303	4.4545	0.	2482.3
12130	13.21	4.5455	0.	2506.2
12131	13.303	4.5455	5.e-002	8.4896
12132	13.303	4.2727	0.	2482.3
12133	13.21	4.3636	0.	2506.1
12134	13.303	4.3636	5.e-002	8.4879
12135	13.303	4.0909	0.	2482.2
12136	13.21	4.1818	0.	2505.9
12137	13.303	4.1818	5.e-002	8.4858
12138	13.303	3.9091	0.	2482.2
12139	13.21	4.	0.	2505.8
12140	13.303	4.	5.e-002	8.4837
12141	13.303	3.7273	0.	2482.1
12142	13.21	3.8182	0.	2505.8
12143	13.303	3.8182	5.e-002	8.4817
12144	13.303	3.5455	0.	2482.1
12145	13.21	3.6364	0.	2505.7
12146	13.303	3.6364	5.e-002	8.4798
12147	13.303	3.3636	0.	2482.1
12148	13.21	3.4545	0.	2505.6
12149	13.303	3.4545	5.e-002	8.4783
12150	13.303	3.1818	0.	2482.
12151	13.21	3.2727	0.	2505.6
12152	13.303	3.2727	5.e-002	8.4773
12153	13.303	3.	0.	2482.
12154	13.21	3.0909	0.	2505.6
12155	13.303	3.0909	5.e-002	8.4768
12156	13.303	2.8182	0.	2482.
12157	13.21	2.9091	0.	2505.6
12158	13.303	2.9091	5.e-002	8.4768
12159	13.303	2.6364	0.	2482.1
12160	13.21	2.7273	0.	2505.6
12161	13.303	2.7273	5.e-002	8.4773
12162	13.303	2.4545	0.	2482.1
12163	13.21	2.5455	0.	2505.6
12164	13.303	2.5455	5.e-002	8.4783
12165	13.303	2.2727	0.	2482.1
12166	13.21	2.3636	0.	2505.7
12167	13.303	2.3636	5.e-002	8.4798
12168	13.303	2.0909	0.	2482.2
12169	13.21	2.1818	0.	2505.8
12170	13.303	2.1818	5.e-002	8.4817
12171	13.303	1.9091	0.	2482.2
12172	13.21	2.	0.	2505.8
12173	13.303	2.	5.e-002	8.4837
12174	13.303	1.7273	0.	2482.3
12175	13.21	1.8182	0.	2505.9
12176	13.303	1.8182	5.e-002	8.4858
12177	13.303	1.5455	0.	2482.3
12178	13.21	1.6364	0.	2506.1
12179	13.303	1.6364	5.e-002	8.4879
12180	13.303	1.3636	0.	2482.4
12181	13.21	1.4545	0.	2506.2
12182	13.303	1.4545	5.e-002	8.4896
12183	13.303	1.1818	0.	2482.5
12184	13.21	1.2727	0.	2506.3
12185	13.303	1.2727	5.e-002	8.4909
12186	13.303	1.	0.	2482.6
12187	13.21	1.0909	0.	2506.5
12188	13.303	1.0909	5.e-002	8.4915
12189	13.303	0.81818	0.	2482.7
12190	13.21	0.90909	0.	2506.7
12191	13.303	0.90909	5.e-002	8.4911
12192	13.303	0.63636	0.	2482.9
12193	13.21	0.72727	0.	2507.
12194	13.303	0.72727	5.e-002	8.4878
12195	13.303	0.45455	0.	2483.3
12196	13.21	0.54545	0.	2507.3
12197	13.303	0.54545	5.e-002	8.453
12198	13.303	0.27273	0.	2484.7
12199	13.21	0.36364	0.	2507.8
12200	13.303	0.36364	5.e-002	7.9547
12201	13.21	0.18182	0.	2510.5
12202	13.303	0.18182	5.e-002	0.47642
12203	13.303	9.0909e-002	0.	2479.3
12204	13.118	5.7273	0.	2533.5
12205	13.026	5.8182	0.	2559.5
12206	13.118	5.8182	5.e-002	0.43386
12207	13.118	5.9091	0.	2528.2
12208	13.118	5.5455	0.	2531.8
12209	13.026	5.6364	0.	2556.5
12210	13.118	5.6364	5.e-002	7.9777
12211	13.118	5.3636	0.	2531.3
12212	13.026	5.4545	0.	2555.8
12213	13.118	5.4545	5.e-002	8.4796
12214	13.118	5.1818	0.	2530.9
12215	13.026	5.2727	0.	2555.3
12216	13.118	5.2727	5.e-002	8.5152
12217	13.118	5.	0.	2530.6
12218	13.026	5.0909	0.	2554.9
12219	13.118	5.0909	5.e-002	8.5194
12220	13.118	4.8182	0.	2530.3
12221	13.026	4.9091	0.	2554.5
12222	13.118	4.9091	5.e-002	8.5207
12223	13.118	4.6364	0.	2530.1
12224	13.026	4.7273	0.	2554.2
12225	13.118	4.7273	5.e-002	8.5211
12226	13.118	4.4545	0.	2529.9
12227	13.026	4.5455	0.	2553.9
12228	13.118	4.5455	5.e-002	8.5209
12229	13.118	4.2727	0.	2529.7
12230	13.026	4.3636	0.	2553.7
12231	13.118	4.3636	5.e-002	8.5202
12232	13.118	4.0909	0.	2529.5
12233	13.026	4.1818	0.	2553.4
12234	13.118	4.1818	5.e-002	8.5193
12235	13.118	3.9091	0.	2529.4
12236	13.026	4.	0.	2553.2
12237	13.118	4.	5.e-002	8.5181
12238	13.118	3.7273	0.	2529.3
12239	13.026	3.8182	0.	2553.1
12240	13.118	3.8182	5.e-002	8.517
12241	13.118	3.5455	0.	2529.2
12242	13.026	3.6364	0.	2552.9
12243	13.118	3.6364	5.e-002	8.5159
12244	13.118	3.3636	0.	2529.1
12245	13.026	3.4545	0.	2552.8
12246	13.118	3.4545	5.e-002	8.515
12247	13.118	3.1818	0.	2529.1
12248	13.026	3.2727	0.	2552.8
12249	13.118	3.2727	5.e-002	8.5143
12250	13.118	3.	0.	2529.1
12251	13.026	3.0909	0.	2552.7
12252	13.118	3.0909	5.e-002	8.514
12253	13.118	2.8182	0.	2529.1
12254	13.026	2.9091	0.	2552.7
12255	13.118	2.9091	5.e-002	8.514
12256	13.118	2.6364	0.	2529.1
12257	13.026	2.7273	0.	2552.8
12258	13.118	2.7273	5.e-002	8.5143
12259	13.118	2.4545	0.	2529.2
12260	13.026	2.5455	0.	2552.8
12261	13.118	2.5455	5.e-002	8.515
12262	13.118	2.2727	0.	2529.3
12263	13.026	2.3636	0.	2552.9
12264	13.118	2.3636	5.e-002	8.5159
12265	13.118	2.0909	0.	2529.4
12266	13.026	2.1818	0.	2553.1
12267	13.118	2.1818	5.e-002	8.517
12268	13.118	1.9091	0.	2529.5
12269	13.026	2.	0.	2553.2
12270	13.118	2.	5.e-002	8.5181
12271	13.118	1.7273	0.	2529.7
12272	13.026	1.8182	0.	2553.4
12273	13.118	1.8182	5.e-002	8.5193
12274	13.118	1.5455	0.	2529.9
12275	13.026	1.6364	0.	2553.7
12276	13.118	1.6364	5.e-002	8.5202
12277	13.118	1.3636	0.	2530.1
12278	13.026	1.4545	0.	2553.9
12279	13.118	1.4545	5.e-002	8.5209
12280	13.118	1.1818	0.	2530.3
12281	13.026	1.2727	0.	2554.2
12282	13.118	1.2727	5.e-002	8.5211
12283	13.118	1.	0.	2530.6
12284	13.026	1.0909	0.	2554.5
12285	13.118	1.0909	5.e-002	8.5207
12286	13.118	0.81818	0.	2530.9
12287	13.026	0.90909	0.	2554.9
12288	13.118	0.90909	5.e-002	8.5194
12289	13.118	0.63636	0.	2531.3
12290	13.026	0.72727	0.	2555.3
12291	13.118	0.72727	5.e-002	8.5152
12292	13.118	0.45455	0.	2531.8
12293	13.026	0.54545	0.	2555.8
12294	13.118	0.54545	5.e-002	8.4796
12295	13.118	0.27273	0.	2533.5
12296	13.026	0.36364	0.	2556.5
12297	13.118	0.36364	5.e-002	7.9777
12298	13.026	0.18182	0.	2559.5
12299	13.118	0.18182	5.e-002	0.43386
12300	13.118	9.0909e-002	0.	2528.2
12301	12.933	5.7273	0.	2582.4
12302	12.841	5.8182	0.	2608.5
12303	12.933	5.8182	5.e-002	0.39822
12304	12.933	5.9091	0.	2577.3
12305	12.933	5.5455	0.	2580.5
12306	12.841	5.6364	0.	2605.4
12307	12.933	5.6364	5.e-002	8.0031
12308	12.933	5.3636	0.	2579.8
12309	12.841	5.4545	0.	2604.5
12310	12.933	5.4545	5.e-002	8.5083
12311	12.933	5.1818	0.	2579.3
12312	12.841	5.2727	0.	2603.9
12313	12.933	5.2727	5.e-002	8.5445
12314	12.933	5.	0.	2578.8
12315	12.841	5.0909	0.	2603.3
12316	12.933	5.0909	5.e-002	8.5493
12317	12.933	4.8182	0.	2578.4
12318	12.841	4.9091	0.	2602.7
12319	12.933	4.9091	5.e-002	8.5513
12320	12.933	4.6364	0.	2578.
12321	12.841	4.7273	0.	2602.2
12322	12.933	4.7273	5.e-002	8.5526
12323	12.933	4.4545	0.	2577.6
12324	12.841	4.5455	0.	2601.8
12325	12.933	4.5455	5.e-002	8.5532
12326	12.933	4.2727	0.	2577.3
12327	12.841	4.3636	0.	2601.5
12328	12.933	4.3636	5.e-002	8.5534
12329	12.933	4.0909	0.	2577.1
12330	12.841	4.1818	0.	2601.1
12331	12.933	4.1818	5.e-002	8.5533
12332	12.933	3.9091	0.	2576.9
12333	12.841	4.	0.	2600.8
12334	12.933	4.	5.e-002	8.553
12335	12.933	3.7273	0.	2576.7
12336	12.841	3.8182	0.	2600.6
12337	12.933	3.8182	5.e-002	8.5525
12338	12.933	3.5455	0.	2576.6
12339	12.841	3.6364	0.	2600.4
12340	12.933	3.6364	5.e-002	8.552
12341	12.933	3.3636	0.	2576.5
12342	12.841	3.4545	0.	2600.3
12343	12.933	3.4545	5.e-002	8.5516
12344	12.933	3.1818	0.	2576.4
12345	12.841	3.2727	0.	2600.2
12346	12.933	3.2727	5.e-002	8.5513
12347	12.933	3.	0.	2576.4
12348	12.841	3.0909	0.	2600.1
12349	12.933	3.0909	5.e-002	8.5511
12350	12.933	2.8182	0.	2576.4
12351	12.841	2.9091	0.	2600.1
12352	12.933	2.9091	5.e-002	8.5511
12353	12.933	2.6364	0.	2576.5
12354	12.841	2.7273	0.	2600.2
12355	12.933	2.7273	5.e-002	8.5513
12356	12.933	2.4545	0.	2576.6
12357	12.841	2.5455	0.	2600.3
12358	12.933	2.5455	5.e-002	8.5516
12359	12.933	2.2727	0.	2576.7
12360	12.841	2.3636	0.	2600.4
12361	12.933	2.3636	5.e-002	8.552
12362	12.933	2.0909	0.	2576.9
12363	12.841	2.1818	0.	2600.6
12364	12.933	2.1818	5.e-002	8.5525
12365	12.933	1.9091	0.	2577.1
12366	12.841	2.	0.	2600.8
12367	12.933	2.	5.e-002	8.553
12368	12.933	1.7273	0.	2577.3
12369	12.841	1.8182	0.	2601.1
12370	12.933	1.8182	5.e-002	8.5533
12371	12.933	1.5455	0.	2577.6
12372	12.841	1.6364	0.	2601.5
12373	12.933	1.6364	5.e-002	8.5534
12374	12.933	1.3636	0.	2578.
12375	12.841	1.4545	0.	2601.8
12376	12.933	1.4545	5.e-002	8.5532
12377	12.933	1.1818	0.	2578.4
12378	12.841	1.2727	0.	2602.2
12379	12.933	1.2727	5.e-002	8.5526
12380	12.933	1.	0.	2578.8
12381	12.841	1.0909	0.	2602.7
12382	12.933	1.0909	5.e-002	8.5513
12383	12.933	0.81818	0.	2579.3
12384	12.841	0.90909	0.	2603.3
12385	12.933	0.90909	5.e-002	8.5493
12386	12.933	0.63636	0.	2579.8
12387	12.841	0.72727	0.	2603.9
12388	12.933	0.72727	5.e-002	8.5445
12389	12.933	0.45455	0.	2580.5
12390	12.841	0.54545	0.	2604.5
12391	12.933	0.54545	5.e-002	8.5083
12392	12.933	0.27273	0.	2582.4
12393	12.841	0.36364	0.	2605.4
12394	12.933	0.36364	5.e-002	8.0031
12395	12.841	0.18182	0.	2608.5
12396	12.933	0.18182	5.e-002	0.39823
12397	12.933	9.0909e-002	0.	2577.3
12398	12.749	5.7273	0.	2631.4
12399	12.656	5.8182	0.	2657.7
12400	12.749	5.8182	5.e-002	0.36949
12401	12.749	5.9091	0.	2626.6
12402	12.749	5.5455	0.	2629.4
12403	12.656	5.6364	0.	2654.5
12404	12.749	5.6364	5.e-002	8.0306
12405	12.749	5.3636	0.	2628.5
12406	12.656	5.4545	0.	2653.4
12407	12.749	5.4545	5.e-002	8.5386
12408	12.749	5.1818	0.	2627.8
12409	12.656	5.2727	0.	2652.6
12410	12.749	5.2727	5.e-002	8.5754
12411	12.749	5.	0.	2627.2
12412	12.656	5.0909	0.	2651.8
12413	12.749	5.0909	5.e-002	8.5807
12414	12.749	4.8182	0.	2626.6
12415	12.656	4.9091	0.	2651.1
12416	12.749	4.9091	5.e-002	8.5834
12417	12.749	4.6364	0.	2626.1
12418	12.656	4.7273	0.	2650.5
12419	12.749	4.7273	5.e-002	8.5853
12420	12.749	4.4545	0.	2625.6
12421	12.656	4.5455	0.	2650.
12422	12.749	4.5455	5.e-002	8.5866
12423	12.749	4.2727	0.	2625.2
12424	12.656	4.3636	0.	2649.5
12425	12.749	4.3636	5.e-002	8.5875
12426	12.749	4.0909	0.	2624.9
12427	12.656	4.1818	0.	2649.
12428	12.749	4.1818	5.e-002	8.5881
12429	12.749	3.9091	0.	2624.6
12430	12.656	4.	0.	2648.7
12431	12.749	4.	5.e-002	8.5884
12432	12.749	3.7273	0.	2624.3
12433	12.656	3.8182	0.	2648.4
12434	12.749	3.8182	5.e-002	8.5885
12435	12.749	3.5455	0.	2624.1
12436	12.656	3.6364	0.	2648.1
12437	12.749	3.6364	5.e-002	8.5885
12438	12.749	3.3636	0.	2624.
12439	12.656	3.4545	0.	2647.9
12440	12.749	3.4545	5.e-002	8.5884
12441	12.749	3.1818	0.	2623.9
12442	12.656	3.2727	0.	2647.8
12443	12.749	3.2727	5.e-002	8.5883
12444	12.749	3.	0.	2623.9
12445	12.656	3.0909	0.	2647.7
12446	12.749	3.0909	5.e-002	8.5883
12447	12.749	2.8182	0.	2623.9
12448	12.656	2.9091	0.	2647.7
12449	12.749	2.9091	5.e-002	8.5883
12450	12.749	2.6364	0.	2624.
12451	12.656	2.7273	0.	2647.8
12452	12.749	2.7273	5.e-002	8.5883
12453	12.749	2.4545	0.	2624.1
12454	12.656	2.5455	0.	2647.9
12455	12.749	2.5455	5.e-002	8.5884
12456	12.749	2.2727	0.	2624.3
12457	12.656	2.3636	0.	2648.1
12458	12.749	2.3636	5.e-002	8.5885
12459	12.749	2.0909	0.	2624.6
12460	12.656	2.1818	0.	2648.4
12461	12.749	2.1818	5.e-002	8.5885
12462	12.749	1.9091	0.	2624.9
12463	12.656	2.	0.	2648.7
12464	12.749	2.	5.e-002	8.5884
12465	12.749	1.7273	0.	2625.2
12466	12.656	1.8182	0.	2649.
12467	12.749	1.8182	5.e-002	8.5881
12468	12.749	1.5455	0.	2625.6
12469	12.656	1.6364	0.	2649.5
12470	12.749	1.6364	5.e-002	8.5875
12471	12.749	1.3636	0.	2626.1
12472	12.656	1.4545	0.	2650.
12473	12.749	1.4545	5.e-002	8.5866
12474	12.749	1.1818	0.	2626.6
12475	12.656	1.2727	0.	2650.5
12476	12.749	1.2727	5.e-002	8.5853
12477	12.749	1.	0.	2627.2
12478	12.656	1.0909	0.	2651.1
12479	12.749	1.0909	5.e-002	8.5834
12480	12.749	0.81818	0.	2627.8
12481	12.656	0.90909	0.	2651.8
12482	12.749	0.90909	5.e-002	8.5807
12483	12.749	0.63636	0.	2628.5
12484	12.656	0.72727	0.	2652.6
12485	12.749	0.72727	5.e-002	8.5754
12486	12.749	0.45455	0.	2629.4
12487	12.656	0.54545	0.	2653.4
12488	12.749	0.54545	5.e-002	8.5386
12489	12.749	0.27273	0.	2631.4
12490	12.656	0.36364	0.	2654.5
12491	12.749	0.36364	5.e-002	8.0306
12492	12.656	0.18182	0.	2657.7
12493	12.749	0.18182	5.e-002	0.36949
12494	12.749	9.0909e-002	0.	2626.6
12495	12.564	5.7273	0.	2680.7
12496	12.471	5.8182	0.	2707.1
12497	12.564	5.8182	5.e-002	0.34805
12498	12.564	5.9091	0.	2676.
12499	12.564	5.5455	0.	2678.5
12500	12.471	5.6364	0.	2703.7
12501	12.564	5.6364	5.e-002	8.06
12502	12.564	5.3636	0.	2677.4
12503	12.471	5.4545	0.	2702.5
12504	12.564	5.4545	5.e-002	8.5704
12505	12.564	5.1818	0.	2676.5
12506	12.471	5.2727	0.	2701.5
12507	12.564	5.2727	5.e-002	8.6077
12508	12.564	5.	0.	2675.7
12509	12.471	5.0909	0.	2700.6
12510	12.564	5.0909	5.e-002	8.6135
12511	12.564	4.8182	0.	2675.
12512	12.471	4.9091	0.	2699.7
12513	12.564	4.9091	5.e-002	8.6166
12514	12.564	4.6364	0.	2674.4
12515	12.471	4.7273	0.	2699.
12516	12.564	4.7273	5.e-002	8.6191
12517	12.564	4.4545	0.	2673.8
12518	12.471	4.5455	0.	2698.3
12519	12.564	4.5455	5.e-002	8.621
12520	12.564	4.2727	0.	2673.3
12521	12.471	4.3636	0.	2697.7
12522	12.564	4.3636	5.e-002	8.6225
12523	12.564	4.0909	0.	2672.8
12524	12.471	4.1818	0.	2697.1
12525	12.564	4.1818	5.e-002	8.6236
12526	12.564	3.9091	0.	2672.4
12527	12.471	4.	0.	2696.7
12528	12.564	4.	5.e-002	8.6244
12529	12.564	3.7273	0.	2672.1
12530	12.471	3.8182	0.	2696.3
12531	12.564	3.8182	5.e-002	8.6249
12532	12.564	3.5455	0.	2671.9
12533	12.471	3.6364	0.	2696.
12534	12.564	3.6364	5.e-002	8.6253
12535	12.564	3.3636	0.	2671.7
12536	12.471	3.4545	0.	2695.8
12537	12.564	3.4545	5.e-002	8.6256
12538	12.564	3.1818	0.	2671.6
12539	12.471	3.2727	0.	2695.6
12540	12.564	3.2727	5.e-002	8.6257
12541	12.564	3.	0.	2671.6
12542	12.471	3.0909	0.	2695.5
12543	12.564	3.0909	5.e-002	8.6258
12544	12.564	2.8182	0.	2671.6
12545	12.471	2.9091	0.	2695.5
12546	12.564	2.9091	5.e-002	8.6258
12547	12.564	2.6364	0.	2671.7
12548	12.471	2.7273	0.	2695.6
12549	12.564	2.7273	5.e-002	8.6257
12550	12.564	2.4545	0.	2671.9
12551	12.471	2.5455	0.	2695.8
12552	12.564	2.5455	5.e-002	8.6256
12553	12.564	2.2727	0.	2672.1
12554	12.471	2.3636	0.	2696.
12555	12.564	2.3636	5.e-002	8.6253
12556	12.564	2.0909	0.	2672.4
12557	12.471	2.1818	0.	2696.3
12558	12.564	2.1818	5.e-002	8.6249
12559	12.564	1.9091	0.	2672.8
12560	12.471	2.	0.	2696.7
12561	12.564	2.	5.e-002	8.6244
12562	12.564	1.7273	0.	2673.3
12563	12.471	1.8182	0.	2697.1
12564	12.564	1.8182	5.e-002	8.6236
12565	12.564	1.5455	0.	2673.8
12566	12.471	1.6364	0.	2697.7
12567	12.564	1.6364	5.e-002	8.6225
12568	12.564	1.3636	0.	2674.4
12569	12.471	1.4545	0.	2698.3
12570	12.564	1.4545	5.e-002	8.621
12571	12.564	1.1818	0.	2675.
12572	12.471	1.2727	0.	2699.
12573	12.564	1.2727	5.e-002	8.6191
12574	12.564	1.	0.	2675.7
12575	12.471	1.0909	0.	2699.7
12576	12.564	1.0909	5.e-002	8.6166
12577	12.564	0.81818	0.	2676.5
12578	12.471	0.90909	0.	2700.6
12579	12.564	0.90909	5.e-002	8.6135
12580	12.564	0.63636	0.	2677.4
12581	12.471	0.72727	0.	2701.5
12582	12.564	0.72727	5.e-002	8.6077
12583	12.564	0.45455	0.	2678.5
12584	12.471	0.54545	0.	2702.5
12585	12.564	0.54545	5.e-002	8.5704
12586	12.564	0.27273	0.	2680.7
12587	12.471	0.36364	0.	2703.7
12588	12.564	0.36364	5.e-002	8.06
12589	12.471	0.18182	0.	2707.1
12590	12.564	0.18182	5.e-002	0.34805
12591	12.564	9.0909e-002	0.	2676.
12592	12.379	5.7273	0.	2730.1
12593	12.287	5.8182	0.	2756.7
12594	12.379	5.8182	5.e-002	0.3346
12595	12.379	5.9091	0.	2725.6
12596	12.379	5.5455	0.	2727.7
12597	12.287	5.6364	0.	2753.2
12598	12.379	5.6364	5.e-002	8.091
12599	12.379	5.3636	0.	2726.5
12600	12.287	5.4545	0.	2751.8
12601	12.379	5.4545	5.e-002	8.6036
12602	12.379	5.1818	0.	2725.5
12603	12.287	5.2727	0.	2750.6
12604	12.379	5.2727	5.e-002	8.6413
12605	12.379	5.	0.	2724.5
12606	12.287	5.0909	0.	2749.5
12607	12.379	5.0909	5.e-002	8.6475
12608	12.379	4.8182	0.	2723.6
12609	12.287	4.9091	0.	2748.5
12610	12.379	4.9091	5.e-002	8.6511
12611	12.379	4.6364	0.	2722.8
12612	12.287	4.7273	0.	2747.6
12613	12.379	4.7273	5.e-002	8.654
12614	12.379	4.4545	0.	2722.1
12615	12.287	4.5455	0.	2746.8
12616	12.379	4.5455	5.e-002	8.6564
12617	12.379	4.2727	0.	2721.5
12618	12.287	4.3636	0.	2746.1
12619	12.379	4.3636	5.e-002	8.6583
12620	12.379	4.0909	0.	2721.
12621	12.287	4.1818	0.	2745.4
12622	12.379	4.1818	5.e-002	8.6599
12623	12.379	3.9091	0.	2720.5
12624	12.287	4.	0.	2744.9
12625	12.379	4.	5.e-002	8.6611
12626	12.379	3.7273	0.	2720.1
12627	12.287	3.8182	0.	2744.4
12628	12.379	3.8182	5.e-002	8.662
12629	12.379	3.5455	0.	2719.8
12630	12.287	3.6364	0.	2744.1
12631	12.379	3.6364	5.e-002	8.6627
12632	12.379	3.3636	0.	2719.6
12633	12.287	3.4545	0.	2743.8
12634	12.379	3.4545	5.e-002	8.6632
12635	12.379	3.1818	0.	2719.5
12636	12.287	3.2727	0.	2743.6
12637	12.379	3.2727	5.e-002	8.6635
12638	12.379	3.	0.	2719.5
12639	12.287	3.0909	0.	2743.5
12640	12.379	3.0909	5.e-002	8.6636
12641	12.379	2.8182	0.	2719.5
12642	12.287	2.9091	0.	2743.5
12643	12.379	2.9091	5.e-002	8.6636
12644	12.379	2.6364	0.	2719.6
12645	12.287	2.7273	0.	2743.6
12646	12.379	2.7273	5.e-002	8.6635
12647	12.379	2.4545	0.	2719.8
12648	12.287	2.5455	0.	2743.8
12649	12.379	2.5455	5.e-002	8.6632
12650	12.379	2.2727	0.	2720.1
12651	12.287	2.3636	0.	2744.1
12652	12.379	2.3636	5.e-002	8.6627
12653	12.379	2.0909	0.	2720.5
12654	12.287	2.1818	0.	2744.4
12655	12.379	2.1818	5.e-002	8.662
12656	12.379	1.9091	0.	2721.
12657	12.287	2.	0.	2744.9
12658	12.379	2.	5.e-002	8.6611
12659	12.379	1.7273	0.	2721.5
12660	12.287	1.8182	0.	2745.4
12661	12.379	1.8182	5.e-002	8.6599
12662	12.379	1.5455	0.	2722.1
12663	12.287	1.6364	0.	2746.1
12664	12.379	1.6364	5.e-002	8.6583
12665	12.379	1.3636	0.	2722.8
12666	12.287	1.4545	0.	2746.8
12667	12.379	1.4545	5.e-002	8.6564
12668	12.379	1.1818	0.	2723.6
12669	12.287	1.2727	0.	2747.6
12670	12.379	1.2727	5.e-002	8.654
12671	12.379	1.	0.	2724.5
12672	12.287	1.0909	0.	2748.5
12673	12.379	1.0909	5.e-002	8.6511
12674	12.379	0.81818	0.	2725.5
12675	12.287	0.90909	0.	2749.5
12676	12.379	0.90909	5.e-002	8.6475
12677	12.379	0.63636	0.	2726.5
12678	12.287	0.72727	0.	2750.6
12679	12.379	0.72727	5.e-002	8.6413
12680	12.379	0.45455	0.	2727.7
12681	12.287	0.54545	0.	2751.8
12682	12.379	0.54545	5.e-002	8.6036
12683	12.379	0.27273	0.	2730.1
12684	12.287	0.36364	0.	2753.2
12685	12.379	0.36364	5.e-002	8.091
12686	12.287	0.18182	0.	2756.7
12687	12.379	0.18182	5.e-002	0.3346
12688	12.379	9.0909e-002	0.	2725.6
12689	12.194	5.7273	0.	2779.6
12690	12.102	5.8182	0.	2806.4
12691	12.194	5.8182	5.e-002	0.33005
12692	12.194	5.9091	0.	2775.5
12693	12.194	5.5455	0.	2777.2
12694	12.102	5.6364	0.	2802.8
12695	12.194	5.6364	5.e-002	8.1237
12696	12.194	5.3636	0.	2775.8
12697	12.102	5.4545	0.	2801.2
12698	12.194	5.4545	5.e-002	8.638
12699	12.194	5.1818	0.	2774.6
12700	12.102	5.2727	0.	2799.9
12701	12.194	5.2727	5.e-002	8.6761
12702	12.194	5.	0.	2773.5
12703	12.102	5.0909	0.	2798.6
12704	12.194	5.0909	5.e-002	8.6827
12705	12.194	4.8182	0.	2772.4
12706	12.102	4.9091	0.	2797.5
12707	12.194	4.9091	5.e-002	8.6866
12708	12.194	4.6364	0.	2771.5
12709	12.102	4.7273	0.	2796.4
12710	12.194	4.7273	5.e-002	8.6899
12711	12.194	4.4545	0.	2770.7
12712	12.102	4.5455	0.	2795.5
12713	12.194	4.5455	5.e-002	8.6927
12714	12.194	4.2727	0.	2770.
12715	12.102	4.3636	0.	2794.7
12716	12.194	4.3636	5.e-002	8.695
12717	12.194	4.0909	0.	2769.3
12718	12.102	4.1818	0.	2793.9
12719	12.194	4.1818	5.e-002	8.697
12720	12.194	3.9091	0.	2768.8
12721	12.102	4.	0.	2793.3
12722	12.194	4.	5.e-002	8.6985
12723	12.194	3.7273	0.	2768.3
12724	12.102	3.8182	0.	2792.7
12725	12.194	3.8182	5.e-002	8.6998
12726	12.194	3.5455	0.	2768.
12727	12.102	3.6364	0.	2792.3
12728	12.194	3.6364	5.e-002	8.7007
12729	12.194	3.3636	0.	2767.7
12730	12.102	3.4545	0.	2792.
12731	12.194	3.4545	5.e-002	8.7014
12732	12.194	3.1818	0.	2767.6
12733	12.102	3.2727	0.	2791.8
12734	12.194	3.2727	5.e-002	8.7018
12735	12.194	3.	0.	2767.5
12736	12.102	3.0909	0.	2791.7
12737	12.194	3.0909	5.e-002	8.702
12738	12.194	2.8182	0.	2767.6
12739	12.102	2.9091	0.	2791.7
12740	12.194	2.9091	5.e-002	8.702
12741	12.194	2.6364	0.	2767.7
12742	12.102	2.7273	0.	2791.8
12743	12.194	2.7273	5.e-002	8.7018
12744	12.194	2.4545	0.	2768.
12745	12.102	2.5455	0.	2792.
12746	12.194	2.5455	5.e-002	8.7014
12747	12.194	2.2727	0.	2768.3
12748	12.102	2.3636	0.	2792.3
12749	12.194	2.3636	5.e-002	8.7007
12750	12.194	2.0909	0.	2768.8
12751	12.102	2.1818	0.	2792.7
12752	12.194	2.1818	5.e-002	8.6998
12753	12.194	1.9091	0.	2769.3
12754	12.102	2.	0.	2793.3
12755	12.194	2.	5.e-002	8.6985
12756	12.194	1.7273	0.	2770.
12757	12.102	1.8182	0.	2793.9
12758	12.194	1.8182	5.e-002	8.697
12759	12.194	1.5455	0.	2770.7
12760	12.102	1.6364	0.	2794.7
12761	12.194	1.6364	5.e-002	8.695
12762	12.194	1.3636	0.	2771.5
12763	12.102	1.4545	0.	2795.5
12764	12.194	1.4545	5.e-002	8.6927
12765	12.194	1.1818	0.	2772.4
12766	12.102	1.2727	0.	2796.4
12767	12.194	1.2727	5.e-002	8.6899
12768	12.194	1.	0.	2773.5
12769	12.102	1.0909	0.	2797.5
12770	12.194	1.0909	5.e-002	8.6866
12771	12.194	0.81818	0.	2774.6
12772	12.102	0.90909	0.	2798.6
12773	12.194	0.90909	5.e-002	8.6827
12774	12.194	0.63636	0.	2775.8
12775	12.102	0.72727	0.	2799.9
12776	12.194	0.72727	5.e-002	8.6761
12777	12.194	0.45455	0.	2777.2
12778	12.102	0.54545	0.	2801.2
12779	12.194	0.54545	5.e-002	8.638
12780	12.194	0.27273	0.	2779.6
12781	12.102	0.36364	0.	2802.8
12782	12.194	0.36364	5.e-002	8.1237
12783	12.102	0.18182	0.	2806.4
12784	12.194	0.18182	5.e-002	0.33005
12785	12.194	9.0909e-002	0.	2775.5
12786	12.01	5.7273	0.	2829.4
12787	11.917	5.8182	0.	2856.4
12788	12.01	5.8182	5.e-002	0.33525
12789	12.01	5.9091	0.	2825.5
12790	12.01	5.5455	0.	2826.8
12791	11.917	5.6364	0.	2852.6
12792	12.01	5.6364	5.e-002	8.1578
12793	12.01	5.3636	0.	2825.2
12794	11.917	5.4545	0.	2850.8
12795	12.01	5.4545	5.e-002	8.6735
12796	12.01	5.1818	0.	2823.9
12797	11.917	5.2727	0.	2849.3
12798	12.01	5.2727	5.e-002	8.7121
12799	12.01	5.	0.	2822.6
12800	11.917	5.0909	0.	2847.9
12801	12.01	5.0909	5.e-002	8.7189
12802	12.01	4.8182	0.	2821.4
12803	11.917	4.9091	0.	2846.6
12804	12.01	4.9091	5.e-002	8.7232
12805	12.01	4.6364	0.	2820.4
12806	11.917	4.7273	0.	2845.4
12807	12.01	4.7273	5.e-002	8.7269
12808	12.01	4.4545	0.	2819.4
12809	11.917	4.5455	0.	2844.4
12810	12.01	4.5455	5.e-002	8.73
12811	12.01	4.2727	0.	2818.6
12812	11.917	4.3636	0.	2843.4
12813	12.01	4.3636	5.e-002	8.7327
12814	12.01	4.0909	0.	2817.8
12815	11.917	4.1818	0.	2842.6
12816	12.01	4.1818	5.e-002	8.7349
12817	12.01	3.9091	0.	2817.2
12818	11.917	4.	0.	2841.8
12819	12.01	4.	5.e-002	8.7368
12820	12.01	3.7273	0.	2816.7
12821	11.917	3.8182	0.	2841.2
12822	12.01	3.8182	5.e-002	8.7383
12823	12.01	3.5455	0.	2816.3
12824	11.917	3.6364	0.	2840.7
12825	12.01	3.6364	5.e-002	8.7394
12826	12.01	3.3636	0.	2816.
12827	11.917	3.4545	0.	2840.4
12828	12.01	3.4545	5.e-002	8.7403
12829	12.01	3.1818	0.	2815.8
12830	11.917	3.2727	0.	2840.1
12831	12.01	3.2727	5.e-002	8.7408
12832	12.01	3.	0.	2815.8
12833	11.917	3.0909	0.	2840.
12834	12.01	3.0909	5.e-002	8.7411
12835	12.01	2.8182	0.	2815.8
12836	11.917	2.9091	0.	2840.
12837	12.01	2.9091	5.e-002	8.7411
12838	12.01	2.6364	0.	2816.
12839	11.917	2.7273	0.	2840.1
12840	12.01	2.7273	5.e-002	8.7408
12841	12.01	2.4545	0.	2816.3
12842	11.917	2.5455	0.	2840.4
12843	12.01	2.5455	5.e-002	8.7403
12844	12.01	2.2727	0.	2816.7
12845	11.917	2.3636	0.	2840.7
12846	12.01	2.3636	5.e-002	8.7394
12847	12.01	2.0909	0.	2817.2
12848	11.917	2.1818	0.	2841.2
12849	12.01	2.1818	5.e-002	8.7383
12850	12.01	1.9091	0.	2817.8
12851	11.917	2.	0.	2841.8
12852	12.01	2.	5.e-002	8.7368
12853	12.01	1.7273	0.	2818.6
12854	11.917	1.8182	0.	2842.6
12855	12.01	1.8182	5.e-002	8.7349
12856	12.01	1.5455	0.	2819.4
12857	11.917	1.6364	0.	2843.4
12858	12.01	1.6364	5.e-002	8.7327
12859	12.01	1.3636	0.	2820.4
12860	11.917	1.4545	0.	2844.4
12861	12.01	1.4545	5.e-002	8.73
12862	12.01	1.1818	0.	2821.4
12863	11.917	1.2727	0.	2845.4
12864	12.01	1.2727	5.e-002	8.7269
12865	12.01	1.	0.	2822.6
12866	11.917	1.0909	0.	2846.6
12867	12.01	1.0909	5.e-002	8.7232
12868	12.01	0.81818	0.	2823.9
12869	11.917	0.90909	0.	2847.9
12870	12.01	0.90909	5.e-002	8.7189
12871	12.01	0.63636	0.	2825.2
12872	11.917	0.72727	0.	2849.3
12873	12.01	0.72727	5.e-002	8.7121
12874	12.01	0.45455	0.	2826.8
12875	11.917	0.54545	0.	2850.8
12876	12.01	0.54545	5.e-002	8.6735
12877	12.01	0.27273	0.	2829.4
12878	11.917	0.36364	0.	2852.6
12879	12.01	0.36364	5.e-002	8.1578
12880	11.917	0.18182	0.	2856.4
12881	12.01	0.18182	5.e-002	0.33524
12882	12.01	9.0909e-002	0.	2825.5
12883	11.825	5.7273	0.	2879.4
12884	11.732	5.8182	0.	2906.5
12885	11.825	5.8182	5.e-002	0.35073
12886	11.825	5.9091	0.	2875.6
12887	11.825	5.5455	0.	2876.6
12888	11.732	5.6364	0.	2902.5
12889	11.825	5.6364	5.e-002	8.1934
12890	11.825	5.3636	0.	2874.9
12891	11.732	5.4545	0.	2900.6
12892	11.825	5.4545	5.e-002	8.7102
12893	11.825	5.1818	0.	2873.3
12894	11.732	5.2727	0.	2899.
12895	11.825	5.2727	5.e-002	8.7491
12896	11.825	5.	0.	2871.9
12897	11.732	5.0909	0.	2897.4
12898	11.825	5.0909	5.e-002	8.7563
12899	11.825	4.8182	0.	2870.6
12900	11.732	4.9091	0.	2895.9
12901	11.825	4.9091	5.e-002	8.7609
12902	11.825	4.6364	0.	2869.4
12903	11.732	4.7273	0.	2894.6
12904	11.825	4.7273	5.e-002	8.7648
12905	11.825	4.4545	0.	2868.3
12906	11.732	4.5455	0.	2893.4
12907	11.825	4.5455	5.e-002	8.7683
12908	11.825	4.2727	0.	2867.4
12909	11.732	4.3636	0.	2892.3
12910	11.825	4.3636	5.e-002	8.7713
12911	11.825	4.0909	0.	2866.5
12912	11.732	4.1818	0.	2891.4
12913	11.825	4.1818	5.e-002	8.7738
12914	11.825	3.9091	0.	2865.8
12915	11.732	4.	0.	2890.6
12916	11.825	4.	5.e-002	8.7759
12917	11.825	3.7273	0.	2865.2
12918	11.732	3.8182	0.	2889.9
12919	11.825	3.8182	5.e-002	8.7776
12920	11.825	3.5455	0.	2864.8
12921	11.732	3.6364	0.	2889.3
12922	11.825	3.6364	5.e-002	8.779
12923	11.825	3.3636	0.	2864.4
12924	11.732	3.4545	0.	2888.9
12925	11.825	3.4545	5.e-002	8.7799
12926	11.825	3.1818	0.	2864.2
12927	11.732	3.2727	0.	2888.6
12928	11.825	3.2727	5.e-002	8.7806
12929	11.825	3.	0.	2864.2
12930	11.732	3.0909	0.	2888.5
12931	11.825	3.0909	5.e-002	8.7809
12932	11.825	2.8182	0.	2864.2
12933	11.732	2.9091	0.	2888.5
12934	11.825	2.9091	5.e-002	8.7809
12935	11.825	2.6364	0.	2864.4
12936	11.732	2.7273	0.	2888.6
12937	11.825	2.7273	5.e-002	8.7806
12938	11.825	2.4545	0.	2864.8
12939	11.732	2.5455	0.	2888.9
12940	11.825	2.5455	5.e-002	8.7799
12941	11.825	2.2727	0.	2865.2
12942	11.732	2.3636	0.	2889.3
12943	11.825	2.3636	5.e-002	8.779
12944	11.825	2.0909	0.	2865.8
12945	11.732	2.1818	0.	2889.9
12946	11.825	2.1818	5.e-002	8.7776
12947	11.825	1.9091	0.	2866.5
12948	11.732	2.	0.	2890.6
12949	11.825	2.	5.e-002	8.7759
12950	11.825	1.7273	0.	2867.4
12951	11.732	1.8182	0.	2891.4
12952	11.825	1.8182	5.e-002	8.7738
12953	11.825	1.5455	0.	2868.3
12954	11.732	1.6364	0.	2892.3
12955	11.825	1.6364	5.e-002	8.7713
12956	11.825	1.3636	0.	2869.4
12957	11.732	1.4545	0.	2893.4
12958	11.825	1.4545	5.e-002	8.7683
12959	11.825	1.1818	0.	2870.6
12960	11.732	1.2727	0.	2894.6
12961	11.825	1.2727	5.e-002	8.7648
12962	11.825	1.	0.	2871.9
12963	11.732	1.0909	0.	2895.9
12964	11.825	1.0909	5.e-002	8.7609
12965	11.825	0.81818	0.	2873.3
12966	11.732	0.90909	0.	2897.4
12967	11.825	0.90909	5.e-002	8.7563
12968	11.825	0.63636	0.	2874.9
12969	11.732	0.72727	0.	2899.
12970	11.825	0.72727	5.e-002	8.7491
12971	11.825	0.45455	0.	2876.6
12972	11.732	0.54545	0.	2900.6
12973	11.825	0.54545	5.e-002	8.7102
12974	11.825	0.27273	0.	2879.4
12975	11.732	0.36364	0.	2902.5
12976	11.825	0.36364	5.e-002	8.1934
12977	11.732	0.18182	0.	2906.5
12978	11.825	0.18182	5.e-002	0.35073
12979	11.825	9.0909e-002	0.	2875.6
12980	11.64	5.7273	0.	2929.5
12981	11.548	5.8182	0.	2956.8
12982	11.64	5.8182	5.e-002	0.3766
12983	11.64	5.9091	0.	2926.
12984	11.64	5.5455	0.	2926.6
12985	11.548	5.6364	0.	2952.7
12986	11.64	5.6364	5.e-002	8.2304
12987	11.64	5.3636	0.	2924.7
12988	11.548	5.4545	0.	2950.6
12989	11.64	5.4545	5.e-002	8.7479
12990	11.64	5.1818	0.	2923.
12991	11.548	5.2727	0.	2948.8
12992	11.64	5.2727	5.e-002	8.7871
12993	11.64	5.	0.	2921.4
12994	11.548	5.0909	0.	2947.
12995	11.64	5.0909	5.e-002	8.7946
12996	11.64	4.8182	0.	2919.9
12997	11.548	4.9091	0.	2945.4
12998	11.64	4.9091	5.e-002	8.7995
12999	11.64	4.6364	0.	2918.6
13000	11.548	4.7273	0.	2944.
13001	11.64	4.7273	5.e-002	8.8038
13002	11.64	4.4545	0.	2917.4
13003	11.548	4.5455	0.	2942.6
13004	11.64	4.5455	5.e-002	8.8075
13005	11.64	4.2727	0.	2916.3
13006	11.548	4.3636	0.	2941.4
13007	11.64	4.3636	5.e-002	8.8108
13008	11.64	4.0909	0.	2915.4
13009	11.548	4.1818	0.	2940.4
13010	11.64	4.1818	5.e-002	8.8135
13011	11.64	3.9091	0.	2914.6
13012	11.548	4.	0.	2939.4
13013	11.64	4.	5.e-002	8.8159
13014	11.64	3.7273	0.	2913.9
13015	11.548	3.8182	0.	2938.7
13016	11.64	3.8182	5.e-002	8.8178
13017	11.64	3.5455	0.	2913.4
13018	11.548	3.6364	0.	2938.
13019	11.64	3.6364	5.e-002	8.8193
13020	11.64	3.3636	0.	2913.
13021	11.548	3.4545	0.	2937.6
13022	11.64	3.4545	5.e-002	8.8204
13023	11.64	3.1818	0.	2912.8
13024	11.548	3.2727	0.	2937.3
13025	11.64	3.2727	5.e-002	8.8211
13026	11.64	3.	0.	2912.7
13027	11.548	3.0909	0.	2937.1
13028	11.64	3.0909	5.e-002	8.8215
13029	11.64	2.8182	0.	2912.8
13030	11.548	2.9091	0.	2937.1
13031	11.64	2.9091	5.e-002	8.8215
13032	11.64	2.6364	0.	2913.
13033	11.548	2.7273	0.	2937.3
13034	11.64	2.7273	5.e-002	8.8211
13035	11.64	2.4545	0.	2913.4
13036	11.548	2.5455	0.	2937.6
13037	11.64	2.5455	5.e-002	8.8204
13038	11.64	2.2727	0.	2913.9
13039	11.548	2.3636	0.	2938.
13040	11.64	2.3636	5.e-002	8.8193
13041	11.64	2.0909	0.	2914.6
13042	11.548	2.1818	0.	2938.7
13043	11.64	2.1818	5.e-002	8.8178
13044	11.64	1.9091	0.	2915.4
13045	11.548	2.	0.	2939.4
13046	11.64	2.	5.e-002	8.8159
13047	11.64	1.7273	0.	2916.3
13048	11.548	1.8182	0.	2940.4
13049	11.64	1.8182	5.e-002	8.8135
13050	11.64	1.5455	0.	2917.4
13051	11.548	1.6364	0.	2941.4
13052	11.64	1.6364	5.e-002	8.8108
13053	11.64	1.3636	0.	2918.6
13054	11.548	1.4545	0.	2942.6
13055	11.64	1.4545	5.e-002	8.8075
13056	11.64	1.1818	0.	2919.9
13057	11.548	1.2727	0.	2944.
13058	11.64	1.2727	5.e-002	8.8038
13059	11.64	1.	0.	2921.4
13060	11.548	1.0909	0.	2945.4
13061	11.64	1.0909	5.e-002	8.7995
13062	11.64	0.81818	0.	2923.
13063	11.548	0.90909	0.	2947.
13064	11.64	0.90909	5.e-002	8.7946
13065	11.64	0.63636	0.	2924.7
13066	11.548	0.72727	0.	2948.8
13067	11.64	0.72727	5.e-002	8.7871
13068	11.64	0.45455	0.	2926.6
13069	11.548	0.54545	0.	2950.6
13070	11.64	0.54545	5.e-002	8.7479
13071	11.64	0.27273	0.	2929.5
13072	11.548	0.36364	0.	2952.7
13073	11.64	0.36364	5.e-002	8.2304
13074	11.548	0.18182	0.	2956.8
13075	11.64	0.18182	5.e-002	0.3766
13076	11.64	9.0909e-002	0.	2926.
13077	11.455	5.7273	0.	2979.9
13078	11.363	5.8182	0.	3007.3
13079	11.455	5.8182	5.e-002	0.41271
13080	11.455	5.9091	0.	2976.6
13081	11.455	5.5455	0.	2976.7
13082	11.363	5.6364	0.	3003.1
13083	11.455	5.6364	5.e-002	8.2687
13084	11.455	5.3636	0.	2974.7
13085	11.363	5.4545	0.	3000.8
13086	11.455	5.4545	5.e-002	8.7867
13087	11.455	5.1818	0.	2972.8
13088	11.363	5.2727	0.	2998.8
13089	11.455	5.2727	5.e-002	8.8262
13090	11.455	5.	0.	2971.1
13091	11.363	5.0909	0.	2996.9
13092	11.455	5.0909	5.e-002	8.834
13093	11.455	4.8182	0.	2969.4
13094	11.363	4.9091	0.	2995.1
13095	11.455	4.9091	5.e-002	8.8392
13096	11.455	4.6364	0.	2968.
13097	11.363	4.7273	0.	2993.5
13098	11.455	4.7273	5.e-002	8.8438
13099	11.455	4.4545	0.	2966.6
13100	11.363	4.5455	0.	2992.
13101	11.455	4.5455	5.e-002	8.8478
13102	11.455	4.2727	0.	2965.4
13103	11.363	4.3636	0.	2990.7
13104	11.455	4.3636	5.e-002	8.8513
13105	11.455	4.0909	0.	2964.4
13106	11.363	4.1818	0.	2989.5
13107	11.455	4.1818	5.e-002	8.8543
13108	11.455	3.9091	0.	2963.5
13109	11.363	4.	0.	2988.5
13110	11.455	4.	5.e-002	8.8568
13111	11.455	3.7273	0.	2962.8
13112	11.363	3.8182	0.	2987.6
13113	11.455	3.8182	5.e-002	8.8589
13114	11.455	3.5455	0.	2962.2
13115	11.363	3.6364	0.	2986.9
13116	11.455	3.6364	5.e-002	8.8605
13117	11.455	3.3636	0.	2961.8
13118	11.363	3.4545	0.	2986.4
13119	11.455	3.4545	5.e-002	8.8617
13120	11.455	3.1818	0.	2961.5
13121	11.363	3.2727	0.	2986.1
13122	11.455	3.2727	5.e-002	8.8625
13123	11.455	3.	0.	2961.4
13124	11.363	3.0909	0.	2985.9
13125	11.455	3.0909	5.e-002	8.8629
13126	11.455	2.8182	0.	2961.5
13127	11.363	2.9091	0.	2985.9
13128	11.455	2.9091	5.e-002	8.8629
13129	11.455	2.6364	0.	2961.8
13130	11.363	2.7273	0.	2986.1
13131	11.455	2.7273	5.e-002	8.8625
13132	11.455	2.4545	0.	2962.2
13133	11.363	2.5455	0.	2986.4
13134	11.455	2.5455	5.e-002	8.8617
13135	11.455	2.2727	0.	2962.8
13136	11.363	2.3636	0.	2986.9
13137	11.455	2.3636	5.e-002	8.8605
13138	11.455	2.0909	0.	2963.5
13139	11.363	2.1818	0.	2987.6
13140	11.455	2.1818	5.e-002	8.8589
13141	11.455	1.9091	0.	2964.4
13142	11.363	2.	0.	2988.5
13143	11.455	2.	5.e-002	8.8568
13144	11.455	1.7273	0.	2965.4
13145	11.363	1.8182	0.	2989.5
13146	11.455	1.8182	5.e-002	8.8543
13147	11.455	1.5455	0.	2966.6
13148	11.363	1.6364	0.	2990.7
13149	11.455	1.6364	5.e-002	8.8513
13150	11.455	1.3636	0.	2968.
13151	11.363	1.4545	0.	2992.
13152	11.455	1.4545	5.e-002	8.8478
13153	11.455	1.1818	0.	2969.4
13154	11.363	1.2727	0.	2993.5
13155	11.455	1.2727	5.e-002	8.8438
13156	11.455	1.	0.	2971.1
13157	11.363	1.0909	0.	2995.1
13158	11.455	1.0909	5.e-002	8.8392
13159	11.455	0.81818	0.	2972.8
13160	11.363	0.90909	0.	2996.9
13161	11.455	0.90909	5.e-002	8.834
13162	11.455	0.63636	0.	2974.7
13163	11.363	0.72727	0.	2998.8
13164	11.455	0.72727	5.e-002	8.8262
13165	11.455	0.45455	0.	2976.7
13166	11.363	0.54545	0.	3000.8
13167	11.455	0.54545	5.e-002	8.7867
13168	11.455	0.27273	0.	2979.9
13169	11.363	0.36364	0.	3003.1
13170	11.455	0.36364	5.e-002	8.2687
13171	11.363	0.18182	0.	3007.3
13172	11.455	0.18182	5.e-002	0.41271
13173	11.455	9.0909e-002	0.	2976.6
13174	11.27	5.7273	0.	3030.4
13175	11.178	5.8182	0.	3058.1
13176	11.27	5.8182	5.e-002	0.45878
13177	11.27	5.9091	0.	3027.4
13178	11.27	5.5455	0.	3027.1
13179	11.178	5.6364	0.	3053.6
13180	11.27	5.6364	5.e-002	8.3085
13181	11.27	5.3636	0.	3024.9
13182	11.178	5.4545	0.	3051.2
13183	11.27	5.4545	5.e-002	8.8266
13184	11.27	5.1818	0.	3022.8
13185	11.178	5.2727	0.	3049.
13186	11.27	5.2727	5.e-002	8.8664
13187	11.27	5.	0.	3020.9
13188	11.178	5.0909	0.	3046.9
13189	11.27	5.0909	5.e-002	8.8745
13190	11.27	4.8182	0.	3019.1
13191	11.178	4.9091	0.	3045.
13192	11.27	4.9091	5.e-002	8.8801
13193	11.27	4.6364	0.	3017.5
13194	11.178	4.7273	0.	3043.2
13195	11.27	4.7273	5.e-002	8.8849
13196	11.27	4.4545	0.	3016.
13197	11.178	4.5455	0.	3041.5
13198	11.27	4.5455	5.e-002	8.8892
13199	11.27	4.2727	0.	3014.7
13200	11.178	4.3636	0.	3040.1
13201	11.27	4.3636	5.e-002	8.8929
13202	11.27	4.0909	0.	3013.5
13203	11.178	4.1818	0.	3038.8
13204	11.27	4.1818	5.e-002	8.8961
13205	11.27	3.9091	0.	3012.6
13206	11.178	4.	0.	3037.6
13207	11.27	4.	5.e-002	8.8988
13208	11.27	3.7273	0.	3011.7
13209	11.178	3.8182	0.	3036.7
13210	11.27	3.8182	5.e-002	8.9011
13211	11.27	3.5455	0.	3011.1
13212	11.178	3.6364	0.	3035.9
13213	11.27	3.6364	5.e-002	8.9028
13214	11.27	3.3636	0.	3010.6
13215	11.178	3.4545	0.	3035.4
13216	11.27	3.4545	5.e-002	8.9041
13217	11.27	3.1818	0.	3010.4
13218	11.178	3.2727	0.	3035.
13219	11.27	3.2727	5.e-002	8.905
13220	11.27	3.	0.	3010.3
13221	11.178	3.0909	0.	3034.8
13222	11.27	3.0909	5.e-002	8.9054
13223	11.27	2.8182	0.	3010.4
13224	11.178	2.9091	0.	3034.8
13225	11.27	2.9091	5.e-002	8.9054
13226	11.27	2.6364	0.	3010.6
13227	11.178	2.7273	0.	3035.
13228	11.27	2.7273	5.e-002	8.905
13229	11.27	2.4545	0.	3011.1
13230	11.178	2.5455	0.	3035.4
13231	11.27	2.5455	5.e-002	8.9041
13232	11.27	2.2727	0.	3011.7
13233	11.178	2.3636	0.	3035.9
13234	11.27	2.3636	5.e-002	8.9028
13235	11.27	2.0909	0.	3012.6
13236	11.178	2.1818	0.	3036.7
13237	11.27	2.1818	5.e-002	8.9011
13238	11.27	1.9091	0.	3013.5
13239	11.178	2.	0.	3037.6
13240	11.27	2.	5.e-002	8.8988
13241	11.27	1.7273	0.	3014.7
13242	11.178	1.8182	0.	3038.8
13243	11.27	1.8182	5.e-002	8.8961
13244	11.27	1.5455	0.	3016.
13245	11.178	1.6364	0.	3040.1
13246	11.27	1.6364	5.e-002	8.8929
13247	11.27	1.3636	0.	3017.5
13248	11.178	1.4545	0.	3041.5
13249	11.27	1.4545	5.e-002	8.8892
13250	11.27	1.1818	0.	3019.1
13251	11.178	1.2727	0.	3043.2
13252	11.27	1.2727	5.e-002	8.8849
13253	11.27	1.	0.	3020.9
13254	11.178	1.0909	0.	3045.
13255	11.27	1.0909	5.e-002	8.8801
13256	11.27	0.81818	0.	3022.8
13257	11.178	0.90909	0.	3046.9
13258	11.27	0.90909	5.e-002	8.8745
13259	11.27	0.63636	0.	3024.9
13260	11.178	0.72727	0.	3049.
13261	11.27	0.72727	5.e-002	8.8664
13262	11.27	0.45455	0.	3027.1
13263	11.178	0.54545	0.	3051.2
13264	11.27	0.54545	5.e-002	8.8266
13265	11.27	0.27273	0.	3030.4
13266	11.178	0.36364	0.	3053.6
13267	11.27	0.36364	5.e-002	8.3085
13268	11.178	0.18182	0.	3058.1
13269	11.27	0.18182	5.e-002	0.45877
13270	11.27	9.0909e-002	0.	3027.4
13271	11.086	5.7273	0.	3081.1
13272	10.993	5.8182	0.	3109.
13273	11.086	5.8182	5.e-002	0.51439
13274	11.086	5.9091	0.	3078.5
13275	11.086	5.5455	0.	3077.7
13276	10.993	5.6364	0.	3104.4
13277	11.086	5.6364	5.e-002	8.3498
13278	11.086	5.3636	0.	3075.2
13279	10.993	5.4545	0.	3101.7
13280	11.086	5.4545	5.e-002	8.8676
13281	11.086	5.1818	0.	3073.
13282	10.993	5.2727	0.	3099.3
13283	11.086	5.2727	5.e-002	8.9078
13284	11.086	5.	0.	3070.9
13285	10.993	5.0909	0.	3097.1
13286	11.086	5.0909	5.e-002	8.9162
13287	11.086	4.8182	0.	3069.
13288	10.993	4.9091	0.	3094.9
13289	11.086	4.9091	5.e-002	8.922
13290	11.086	4.6364	0.	3067.2
13291	10.993	4.7273	0.	3093.
13292	11.086	4.7273	5.e-002	8.9271
13293	11.086	4.4545	0.	3065.6
13294	10.993	4.5455	0.	3091.2
13295	11.086	4.5455	5.e-002	8.9317
13296	11.086	4.2727	0.	3064.1
13297	10.993	4.3636	0.	3089.6
13298	11.086	4.3636	5.e-002	8.9356
13299	11.086	4.0909	0.	3062.8
13300	10.993	4.1818	0.	3088.2
13301	11.086	4.1818	5.e-002	8.939
13302	11.086	3.9091	0.	3061.7
13303	10.993	4.	0.	3086.9
13304	11.086	4.	5.e-002	8.9419
13305	11.086	3.7273	0.	3060.8
13306	10.993	3.8182	0.	3085.9
13307	11.086	3.8182	5.e-002	8.9443
13308	11.086	3.5455	0.	3060.1
13309	10.993	3.6364	0.	3085.1
13310	11.086	3.6364	5.e-002	8.9462
13311	11.086	3.3636	0.	3059.6
13312	10.993	3.4545	0.	3084.4
13313	11.086	3.4545	5.e-002	8.9476
13314	11.086	3.1818	0.	3059.3
13315	10.993	3.2727	0.	3084.
13316	11.086	3.2727	5.e-002	8.9485
13317	11.086	3.	0.	3059.2
13318	10.993	3.0909	0.	3083.8
13319	11.086	3.0909	5.e-002	8.949
13320	11.086	2.8182	0.	3059.3
13321	10.993	2.9091	0.	3083.8
13322	11.086	2.9091	5.e-002	8.949
13323	11.086	2.6364	0.	3059.6
13324	10.993	2.7273	0.	3084.
13325	11.086	2.7273	5.e-002	8.9485
13326	11.086	2.4545	0.	3060.1
13327	10.993	2.5455	0.	3084.4
13328	11.086	2.5455	5.e-002	8.9476
13329	11.086	2.2727	0.	3060.8
13330	10.993	2.3636	0.	3085.1
13331	11.086	2.3636	5.e-002	8.9462
13332	11.086	2.0909	0.	3061.7
13333	10.993	2.1818	0.	3085.9
13334	11.086	2.1818	5.e-002	8.9443
13335	11.086	1.9091	0.	3062.8
13336	10.993	2.	0.	3086.9
13337	11.086	2.	5.e-002	8.9419
13338	11.086	1.7273	0.	3064.1
13339	10.993	1.8182	0.	3088.2
13340	11.086	1.8182	5.e-002	8.939
13341	11.086	1.5455	0.	3065.6
13342	10.993	1.6364	0.	3089.6
13343	11.086	1.6364	5.e-002	8.9356
13344	11.086	1.3636	0.	3067.2
13345	10.993	1.4545	0.	3091.2
13346	11.086	1.4545	5.e-002	8.9317
13347	11.086	1.1818	0.	3069.
13348	10.993	1.2727	0.	3093.
13349	11.086	1.2727	5.e-002	8.9271
13350	11.086	1.	0.	3070.9
13351	10.993	1.0909	0.	3094.9
13352	11.086	1.0909	5.e-002	8.922
13353	11.086	0.81818	0.	3073.
13354	10.993	0.90909	0.	3097.1
13355	11.086	0.90909	5.e-002	8.9162
13356	11.086	0.63636	0.	3075.2
13357	10.993	0.72727	0.	3099.3
13358	11.086	0.72727	5.e-002	8.9078
13359	11.086	0.45455	0.	3077.7
13360	10.993	0.54545	0.	3101.7
13361	11.086	0.54545	5.e-002	8.8676
13362	11.086	0.27273	0.	3081.1
13363	10.993	0.36364	0.	3104.4
13364	11.086	0.36364	5.e-002	8.3498
13365	10.993	0.18182	0.	3109.
13366	11.086	0.18182	5.e-002	0.51439
13367	11.086	9.0909e-002	0.	3078.5
13368	10.901	5.7273	0.	3132.1
13369	10.809	5.8182	0.	3160.1
13370	10.901	5.8182	5.e-002	0.57935
13371	10.901	5.9091	0.	3129.7
13372	10.901	5.5455	0.	3128.4
13373	10.809	5.6364	0.	3155.3
13374	10.901	5.6364	5.e-002	8.3926
13375	10.901	5.3636	0.	3125.8
13376	10.809	5.4545	0.	3152.5
13377	10.901	5.4545	5.e-002	8.9097
13378	10.901	5.1818	0.	3123.4
13379	10.809	5.2727	0.	3149.9
13380	10.901	5.2727	5.e-002	8.9502
13381	10.901	5.	0.	3121.1
13382	10.809	5.0909	0.	3147.4
13383	10.901	5.0909	5.e-002	8.959
13384	10.901	4.8182	0.	3119.
13385	10.809	4.9091	0.	3145.1
13386	10.901	4.9091	5.e-002	8.9652
13387	10.901	4.6364	0.	3117.
13388	10.809	4.7273	0.	3143.
13389	10.901	4.7273	5.e-002	8.9706
13390	10.901	4.4545	0.	3115.2
13391	10.809	4.5455	0.	3141.
13392	10.901	4.5455	5.e-002	8.9753
13393	10.901	4.2727	0.	3113.6
13394	10.809	4.3636	0.	3139.3
13395	10.901	4.3636	5.e-002	8.9795
13396	10.901	4.0909	0.	3112.2
13397	10.809	4.1818	0.	3137.7
13398	10.901	4.1818	5.e-002	8.9832
13399	10.901	3.9091	0.	3111.1
13400	10.809	4.	0.	3136.4
13401	10.901	4.	5.e-002	8.9862
13402	10.901	3.7273	0.	3110.1
13403	10.809	3.8182	0.	3135.2
13404	10.901	3.8182	5.e-002	8.9887
13405	10.901	3.5455	0.	3109.3
13406	10.809	3.6364	0.	3134.3
13407	10.901	3.6364	5.e-002	8.9907
13408	10.901	3.3636	0.	3108.8
13409	10.809	3.4545	0.	3133.6
13410	10.901	3.4545	5.e-002	8.9922
13411	10.901	3.1818	0.	3108.4
13412	10.809	3.2727	0.	3133.1
13413	10.901	3.2727	5.e-002	8.9932
13414	10.901	3.	0.	3108.3
13415	10.809	3.0909	0.	3132.9
13416	10.901	3.0909	5.e-002	8.9937
13417	10.901	2.8182	0.	3108.4
13418	10.809	2.9091	0.	3132.9
13419	10.901	2.9091	5.e-002	8.9937
13420	10.901	2.6364	0.	3108.8
13421	10.809	2.7273	0.	3133.1
13422	10.901	2.7273	5.e-002	8.9932
13423	10.901	2.4545	0.	3109.3
13424	10.809	2.5455	0.	3133.6
13425	10.901	2.5455	5.e-002	8.9922
13426	10.901	2.2727	0.	3110.1
13427	10.809	2.3636	0.	3134.3
13428	10.901	2.3636	5.e-002	8.9907
13429	10.901	2.0909	0.	3111.1
13430	10.809	2.1818	0.	3135.2
13431	10.901	2.1818	5.e-002	8.9887
13432	10.901	1.9091	0.	3112.2
13433	10.809	2.	0.	3136.4
13434	10.901	2.	5.e-002	8.9862
13435	10.901	1.7273	0.	3113.6
13436	10.809	1.8182	0.	3137.7
13437	10.901	1.8182	5.e-002	8.9832
13438	10.901	1.5455	0.	3115.2
13439	10.809	1.6364	0.	3139.3
13440	10.901	1.6364	5.e-002	8.9795
13441	10.901	1.3636	0.	3117.
13442	10.809	1.4545	0.	3141.
13443	10.901	1.4545	5.e-002	8.9753
13444	10.901	1.1818	0.	3119.
13445	10.809	1.2727	0.	3143.
13446	10.901	1.2727	5.e-002	8.9706
13447	10.901	1.	0.	3121.1
13448	10.809	1.0909	0.	3145.1
13449	10.901	1.0909	5.e-002	8.9652
13450	10.901	0.81818	0.	3123.4
13451	10.809	0.90909	0.	3147.4
13452	10.901	0.90909	5.e-002	8.959
13453	10.901	0.63636	0.	3125.8
13454	10.809	0.72727	0.	3149.9
13455	10.901	0.72727	5.e-002	8.9502
13456	10.901	0.45455	0.	3128.4
13457	10.809	0.54545	0.	3152.5
13458	10.901	0.54545	5.e-002	8.9097
13459	10.901	0.27273	0.	3132.1
13460	10.809	0.36364	0.	3155.3
13461	10.901	0.36364	5.e-002	8.3926
13462	10.809	0.18182	0.	3160.1
13463	10.901	0.18182	5.e-002	0.57934
13464	10.901	9.0909e-002	0.	3129.7
13465	10.716	5.7273	0.	3183.2
13466	10.624	5.8182	0.	3211.4
13467	10.716	5.8182	5.e-002	0.65359
13468	10.716	5.9091	0.	3181.1
13469	10.716	5.5455	0.	3179.4
13470	10.624	5.6364	0.	3206.5
13471	10.716	5.6364	5.e-002	8.437
13472	10.716	5.3636	0.	3176.5
13473	10.624	5.4545	0.	3203.4
13474	10.716	5.4545	5.e-002	8.9531
13475	10.716	5.1818	0.	3173.9
13476	10.624	5.2727	0.	3200.6
13477	10.716	5.2727	5.e-002	8.9939
13478	10.716	5.	0.	3171.4
13479	10.624	5.0909	0.	3197.9
13480	10.716	5.0909	5.e-002	9.0031
13481	10.716	4.8182	0.	3169.1
13482	10.624	4.9091	0.	3195.4
13483	10.716	4.9091	5.e-002	9.0095
13484	10.716	4.6364	0.	3167.
13485	10.624	4.7273	0.	3193.1
13486	10.716	4.7273	5.e-002	9.0152
13487	10.716	4.4545	0.	3165.
13488	10.624	4.5455	0.	3191.
13489	10.716	4.5455	5.e-002	9.0203
13490	10.716	4.2727	0.	3163.3
13491	10.624	4.3636	0.	3189.1
13492	10.716	4.3636	5.e-002	9.0247
13493	10.716	4.0909	0.	3161.8
13494	10.624	4.1818	0.	3187.4
13495	10.716	4.1818	5.e-002	9.0285
13496	10.716	3.9091	0.	3160.5
13497	10.624	4.	0.	3185.9
13498	10.716	4.	5.e-002	9.0317
13499	10.716	3.7273	0.	3159.4
13500	10.624	3.8182	0.	3184.6
13501	10.716	3.8182	5.e-002	9.0344
13502	10.716	3.5455	0.	3158.6
13503	10.624	3.6364	0.	3183.6
13504	10.716	3.6364	5.e-002	9.0365
13505	10.716	3.3636	0.	3158.
13506	10.624	3.4545	0.	3182.9
13507	10.716	3.4545	5.e-002	9.038
13508	10.716	3.1818	0.	3157.6
13509	10.624	3.2727	0.	3182.4
13510	10.716	3.2727	5.e-002	9.0391
13511	10.716	3.	0.	3157.5
13512	10.624	3.0909	0.	3182.1
13513	10.716	3.0909	5.e-002	9.0396
13514	10.716	2.8182	0.	3157.6
13515	10.624	2.9091	0.	3182.1
13516	10.716	2.9091	5.e-002	9.0396
13517	10.716	2.6364	0.	3158.
13518	10.624	2.7273	0.	3182.4
13519	10.716	2.7273	5.e-002	9.0391
13520	10.716	2.4545	0.	3158.6
13521	10.624	2.5455	0.	3182.9
13522	10.716	2.5455	5.e-002	9.038
13523	10.716	2.2727	0.	3159.4
13524	10.624	2.3636	0.	3183.6
13525	10.716	2.3636	5.e-002	9.0365
13526	10.716	2.0909	0.	3160.5
13527	10.624	2.1818	0.	3184.6
13528	10.716	2.1818	5.e-002	9.0344
13529	10.716	1.9091	0.	3161.8
13530	10.624	2.	0.	3185.9
13531	10.716	2.	5.e-002	9.0317
13532	10.716	1.7273	0.	3163.3
13533	10.624	1.8182	0.	3187.4
13534	10.716	1.8182	5.e-002	9.0285
13535	10.716	1.5455	0.	3165.
13536	10.624	1.6364	0.	3189.1
13537	10.716	1.6364	5.e-002	9.0247
13538	10.716	1.3636	0.	3167.
13539	10.624	1.4545	0.	3191.
13540	10.716	1.4545	5.e-002	9.0203
13541	10.716	1.1818	0.	3169.1
13542	10.624	1.2727	0.	3193.1
13543	10.716	1.2727	5.e-002	9.0152
13544	10.716	1.	0.	3171.4
13545	10.624	1.0909	0.	3195.4
13546	10.716	1.0909	5.e-002	9.0095
13547	10.716	0.81818	0.	3173.9
13548	10.624	0.90909	0.	3197.9
13549	10.716	0.90909	5.e-002	9.0031
13550	10.716	0.63636	0.	3176.5
13551	10.624	0.72727	0.	3200.6
13552	10.716	0.72727	5.e-002	8.9939
13553	10.716	0.45455	0.	3179.4
13554	10.624	0.54545	0.	3203.4
13555	10.716	0.54545	5.e-002	8.9531
13556	10.716	0.27273	0.	3183.2
13557	10.624	0.36364	0.	3206.5
13558	10.716	0.36364	5.e-002	8.437
13559	10.624	0.18182	0.	3211.4
13560	10.716	0.18182	5.e-002	0.65359
13561	10.716	9.0909e-002	0.	3181.1
13562	10.531	5.7273	0.	3234.6
13563	10.439	5.8182	0.	3263.
13564	10.531	5.8182	5.e-002	0.73727
13565	10.531	5.9091	0.	3232.8
13566	10.531	5.5455	0.	3230.5
13567	10.439	5.6364	0.	3257.8
13568	10.531	5.6364	5.e-002	8.483
13569	10.531	5.3636	0.	3227.4
13570	10.439	5.4545	0.	3254.5
13571	10.531	5.4545	5.e-002	8.9977
13572	10.531	5.1818	0.	3224.6
13573	10.439	5.2727	0.	3251.5
13574	10.531	5.2727	5.e-002	9.0388
13575	10.531	5.	0.	3221.9
13576	10.439	5.0909	0.	3248.6
13577	10.531	5.0909	5.e-002	9.0484
13578	10.531	4.8182	0.	3219.4
13579	10.439	4.9091	0.	3245.9
13580	10.531	4.9091	5.e-002	9.0552
13581	10.531	4.6364	0.	3217.1
13582	10.439	4.7273	0.	3243.4
13583	10.531	4.7273	5.e-002	9.0612
13584	10.531	4.4545	0.	3215.
13585	10.439	4.5455	0.	3241.
13586	10.531	4.5455	5.e-002	9.0665
13587	10.531	4.2727	0.	3213.1
13588	10.439	4.3636	0.	3239.
13589	10.531	4.3636	5.e-002	9.0712
13590	10.531	4.0909	0.	3211.4
13591	10.439	4.1818	0.	3237.1
13592	10.531	4.1818	5.e-002	9.0752
13593	10.531	3.9091	0.	3210.
13594	10.439	4.	0.	3235.5
13595	10.531	4.	5.e-002	9.0785
13596	10.531	3.7273	0.	3208.8
13597	10.439	3.8182	0.	3234.1
13598	10.531	3.8182	5.e-002	9.0813
13599	10.531	3.5455	0.	3207.9
13600	10.439	3.6364	0.	3233.1
13601	10.531	3.6364	5.e-002	9.0835
13602	10.531	3.3636	0.	3207.3
13603	10.439	3.4545	0.	3232.2
13604	10.531	3.4545	5.e-002	9.0851
13605	10.531	3.1818	0.	3206.9
13606	10.439	3.2727	0.	3231.7
13607	10.531	3.2727	5.e-002	9.0862
13608	10.531	3.	0.	3206.7
13609	10.439	3.0909	0.	3231.4
13610	10.531	3.0909	5.e-002	9.0868
13611	10.531	2.8182	0.	3206.9
13612	10.439	2.9091	0.	3231.4
13613	10.531	2.9091	5.e-002	9.0868
13614	10.531	2.6364	0.	3207.3
13615	10.439	2.7273	0.	3231.7
13616	10.531	2.7273	5.e-002	9.0862
13617	10.531	2.4545	0.	3207.9
13618	10.439	2.5455	0.	3232.2
13619	10.531	2.5455	5.e-002	9.0851
13620	10.531	2.2727	0.	3208.8
13621	10.439	2.3636	0.	3233.1
13622	10.531	2.3636	5.e-002	9.0835
13623	10.531	2.0909	0.	3210.
13624	10.439	2.1818	0.	3234.1
13625	10.531	2.1818	5.e-002	9.0813
13626	10.531	1.9091	0.	3211.4
13627	10.439	2.	0.	3235.5
13628	10.531	2.	5.e-002	9.0785
13629	10.531	1.7273	0.	3213.1
13630	10.439	1.8182	0.	3237.1
13631	10.531	1.8182	5.e-002	9.0752
13632	10.531	1.5455	0.	3215.
13633	10.439	1.6364	0.	3239.
13634	10.531	1.6364	5.e-002	9.0712
13635	10.531	1.3636	0.	3217.1
13636	10.439	1.4545	0.	3241.
13637	10.531	1.4545	5.e-002	9.0665
13638	10.531	1.1818	0.	3219.4
13639	10.439	1.2727	0.	3243.4
13640	10.531	1.2727	5.e-002	9.0612
13641	10.531	1.	0.	3221.9
13642	10.439	1.0909	0.	3245.9
13643	10.531	1.0909	5.e-002	9.0552
13644	10.531	0.81818	0.	3224.6
13645	10.439	0.90909	0.	3248.6
13646	10.531	0.90909	5.e-002	9.0484
13647	10.531	0.63636	0.	3227.4
13648	10.439	0.72727	0.	3251.5
13649	10.531	0.72727	5.e-002	9.0389
13650	10.531	0.45455	0.	3230.5
13651	10.439	0.54545	0.	3254.5
13652	10.531	0.54545	5.e-002	8.9977
13653	10.531	0.27273	0.	3234.6
13654	10.439	0.36364	0.	3257.8
13655	10.531	0.36364	5.e-002	8.483
13656	10.439	0.18182	0.	3263.
13657	10.531	0.18182	5.e-002	0.73726
13658	10.531	9.0909e-002	0.	3232.8
13659	10.347	5.7273	0.	3286.1
13660	10.254	5.8182	0.	3314.7
13661	10.347	5.8182	5.e-002	0.83063
13662	10.347	5.9091	0.	3284.7
13663	10.347	5.5455	0.	3281.8
13664	10.254	5.6364	0.	3309.4
13665	10.347	5.6364	5.e-002	8.5309
13666	10.347	5.3636	0.	3278.5
13667	10.254	5.4545	0.	3305.8
13668	10.347	5.4545	5.e-002	9.0437
13669	10.347	5.1818	0.	3275.4
13670	10.254	5.2727	0.	3302.5
13671	10.347	5.2727	5.e-002	9.0852
13672	10.347	5.	0.	3272.5
13673	10.254	5.0909	0.	3299.4
13674	10.347	5.0909	5.e-002	9.0951
13675	10.347	4.8182	0.	3269.8
13676	10.254	4.9091	0.	3296.5
13677	10.347	4.9091	5.e-002	9.1023
13678	10.347	4.6364	0.	3267.3
13679	10.254	4.7273	0.	3293.7
13680	10.347	4.7273	5.e-002	9.1086
13681	10.347	4.4545	0.	3265.
13682	10.254	4.5455	0.	3291.2
13683	10.347	4.5455	5.e-002	9.1142
13684	10.347	4.2727	0.	3263.
13685	10.254	4.3636	0.	3289.
13686	10.347	4.3636	5.e-002	9.1191
13687	10.347	4.0909	0.	3261.2
13688	10.254	4.1818	0.	3287.
13689	10.347	4.1818	5.e-002	9.1232
13690	10.347	3.9091	0.	3259.6
13691	10.254	4.	0.	3285.2
13692	10.347	4.	5.e-002	9.1268
13693	10.347	3.7273	0.	3258.3
13694	10.254	3.8182	0.	3283.7
13695	10.347	3.8182	5.e-002	9.1297
13696	10.347	3.5455	0.	3257.3
13697	10.254	3.6364	0.	3282.6
13698	10.347	3.6364	5.e-002	9.132
13699	10.347	3.3636	0.	3256.6
13700	10.254	3.4545	0.	3281.7
13701	10.347	3.4545	5.e-002	9.1337
13702	10.347	3.1818	0.	3256.2
13703	10.254	3.2727	0.	3281.1
13704	10.347	3.2727	5.e-002	9.1348
13705	10.347	3.	0.	3256.1
13706	10.254	3.0909	0.	3280.8
13707	10.347	3.0909	5.e-002	9.1353
13708	10.347	2.8182	0.	3256.2
13709	10.254	2.9091	0.	3280.8
13710	10.347	2.9091	5.e-002	9.1353
13711	10.347	2.6364	0.	3256.6
13712	10.254	2.7273	0.	3281.1
13713	10.347	2.7273	5.e-002	9.1348
13714	10.347	2.4545	0.	3257.3
13715	10.254	2.5455	0.	3281.7
13716	10.347	2.5455	5.e-002	9.1337
13717	10.347	2.2727	0.	3258.3
13718	10.254	2.3636	0.	3282.6
13719	10.347	2.3636	5.e-002	9.132
13720	10.347	2.0909	0.	3259.6
13721	10.254	2.1818	0.	3283.7
13722	10.347	2.1818	5.e-002	9.1297
13723	10.347	1.9091	0.	3261.2
13724	10.254	2.	0.	3285.2
13725	10.347	2.	5.e-002	9.1268
13726	10.347	1.7273	0.	3263.
13727	10.254	1.8182	0.	3287.
13728	10.347	1.8182	5.e-002	9.1232
13729	10.347	1.5455	0.	3265.
13730	10.254	1.6364	0.	3289.
13731	10.347	1.6364	5.e-002	9.1191
13732	10.347	1.3636	0.	3267.3
13733	10.254	1.4545	0.	3291.2
13734	10.347	1.4545	5.e-002	9.1142
13735	10.347	1.1818	0.	3269.8
13736	10.254	1.2727	0.	3293.7
13737	10.347	1.2727	5.e-002	9.1086
13738	10.347	1.	0.	3272.5
13739	10.254	1.0909	0.	3296.5
13740	10.347	1.0909	5.e-002	9.1023
13741	10.347	0.81818	0.	3275.4
13742	10.254	0.90909	0.	3299.4
13743	10.347	0.90909	5.e-002	9.0951
13744	10.347	0.63636	0.	3278.5
13745	10.254	0.72727	0.	3302.5
13746	10.347	0.72727	5.e-002	9.0852
13747	10.347	0.45455	0.	3281.8
13748	10.254	0.54545	0.	3305.8
13749	10.347	0.54545	5.e-002	9.0437
13750	10.347	0.27273	0.	3286.1
13751	10.254	0.36364	0.	3309.4
13752	10.347	0.36364	5.e-002	8.5309
13753	10.254	0.18182	0.	3314.7
13754	10.347	0.18182	5.e-002	0.83063
13755	10.347	9.0909e-002	0.	3284.7
13756	10.162	5.7273	0.	3337.9
13757	10.07	5.8182	0.	3366.7
13758	10.162	5.8182	5.e-002	0.93414
13759	10.162	5.9091	0.	3336.8
13760	10.162	5.5455	0.	3333.4
13761	10.07	5.6364	0.	3361.2
13762	10.162	5.6364	5.e-002	8.5808
13763	10.162	5.3636	0.	3329.8
13764	10.07	5.4545	0.	3357.3
13765	10.162	5.4545	5.e-002	9.0912
13766	10.162	5.1818	0.	3326.5
13767	10.07	5.2727	0.	3353.8
13768	10.162	5.2727	5.e-002	9.133
13769	10.162	5.	0.	3323.3
13770	10.07	5.0909	0.	3350.4
13771	10.162	5.0909	5.e-002	9.1433
13772	10.162	4.8182	0.	3320.4
13773	10.07	4.9091	0.	3347.2
13774	10.162	4.9091	5.e-002	9.1509
13775	10.162	4.6364	0.	3317.7
13776	10.07	4.7273	0.	3344.3
13777	10.162	4.7273	5.e-002	9.1576
13778	10.162	4.4545	0.	3315.2
13779	10.07	4.5455	0.	3341.5
13780	10.162	4.5455	5.e-002	9.1634
13781	10.162	4.2727	0.	3313.
13782	10.07	4.3636	0.	3339.1
13783	10.162	4.3636	5.e-002	9.1685
13784	10.162	4.0909	0.	3311.
13785	10.07	4.1818	0.	3336.9
13786	10.162	4.1818	5.e-002	9.1729
13787	10.162	3.9091	0.	3309.3
13788	10.07	4.	0.	3335.
13789	10.162	4.	5.e-002	9.1765
13790	10.162	3.7273	0.	3307.9
13791	10.07	3.8182	0.	3333.4
13792	10.162	3.8182	5.e-002	9.1795
13793	10.162	3.5455	0.	3306.8
13794	10.07	3.6364	0.	3332.1
13795	10.162	3.6364	5.e-002	9.1819
13796	10.162	3.3636	0.	3306.1
13797	10.07	3.4545	0.	3331.1
13798	10.162	3.4545	5.e-002	9.1837
13799	10.162	3.1818	0.	3305.6
13800	10.07	3.2727	0.	3330.5
13801	10.162	3.2727	5.e-002	9.1848
13802	10.162	3.	0.	3305.4
13803	10.07	3.0909	0.	3330.2
13804	10.162	3.0909	5.e-002	9.1854
13805	10.162	2.8182	0.	3305.6
13806	10.07	2.9091	0.	3330.2
13807	10.162	2.9091	5.e-002	9.1854
13808	10.162	2.6364	0.	3306.1
13809	10.07	2.7273	0.	3330.5
13810	10.162	2.7273	5.e-002	9.1848
13811	10.162	2.4545	0.	3306.8
13812	10.07	2.5455	0.	3331.1
13813	10.162	2.5455	5.e-002	9.1837
13814	10.162	2.2727	0.	3307.9
13815	10.07	2.3636	0.	3332.1
13816	10.162	2.3636	5.e-002	9.1819
13817	10.162	2.0909	0.	3309.3
13818	10.07	2.1818	0.	3333.4
13819	10.162	2.1818	5.e-002	9.1795
13820	10.162	1.9091	0.	3311.
13821	10.07	2.	0.	3335.
13822	10.162	2.	5.e-002	9.1765
13823	10.162	1.7273	0.	3313.
13824	10.07	1.8182	0.	3336.9
13825	10.162	1.8182	5.e-002	9.1729
13826	10.162	1.5455	0.	3315.2
13827	10.07	1.6364	0.	3339.1
13828	10.162	1.6364	5.e-002	9.1685
13829	10.162	1.3636	0.	3317.7
13830	10.07	1.4545	0.	3341.5
13831	10.162	1.4545	5.e-002	9.1634
13832	10.162	1.1818	0.	3320.4
13833	10.07	1.2727	0.	3344.3
13834	10.162	1.2727	5.e-002	9.1576
13835	10.162	1.	0.	3323.3
13836	10.07	1.0909	0.	3347.2
13837	10.162	1.0909	5.e-002	9.1509
13838	10.162	0.81818	0.	3326.5
13839	10.07	0.90909	0.	3350.4
13840	10.162	0.90909	5.e-002	9.1433
13841	10.162	0.63636	0.	3329.8
13842	10.07	0.72727	0.	3353.8
13843	10.162	0.72727	5.e-002	9.133
13844	10.162	0.45455	0.	3333.4
13845	10.07	0.54545	0.	3357.3
13846	10.162	0.54545	5.e-002	9.0912
13847	10.162	0.27273	0.	3337.9
13848	10.07	0.36364	0.	3361.2
13849	10.162	0.36364	5.e-002	8.5808
13850	10.07	0.18182	0.	3366.7
13851	10.162	0.18182	5.e-002	0.93414
13852	10.162	9.0909e-002	0.	3336.8
13853	9.9771	5.7273	0.	3389.9
13854	9.8848	5.8182	0.	3418.9
13855	9.9771	5.8182	5.e-002	1.0483
13856	9.9771	5.9091	0.	3389.2
13857	9.9771	5.5455	0.	3385.1
13858	9.8848	5.6364	0.	3413.1
13859	9.9771	5.6364	5.e-002	8.6328
13860	9.9771	5.3636	0.	3381.2
13861	9.8848	5.4545	0.	3409.
13862	9.9771	5.4545	5.e-002	9.1403
13863	9.9771	5.1818	0.	3377.6
13864	9.8848	5.2727	0.	3405.1
13865	9.9771	5.2727	5.e-002	9.1824
13866	9.9771	5.	0.	3374.2
13867	9.8848	5.0909	0.	3401.5
13868	9.9771	5.0909	5.e-002	9.1932
13869	9.9771	4.8182	0.	3371.1
13870	9.8848	4.9091	0.	3398.1
13871	9.9771	4.9091	5.e-002	9.2012
13872	9.9771	4.6364	0.	3368.1
13873	9.8848	4.7273	0.	3394.9
13874	9.9771	4.7273	5.e-002	9.2082
13875	9.9771	4.4545	0.	3365.4
13876	9.8848	4.5455	0.	3391.9
13877	9.9771	4.5455	5.e-002	9.2143
13878	9.9771	4.2727	0.	3363.
13879	9.8848	4.3636	0.	3389.3
13880	9.9771	4.3636	5.e-002	9.2196
13881	9.9771	4.0909	0.	3360.9
13882	9.8848	4.1818	0.	3386.9
13883	9.9771	4.1818	5.e-002	9.2242
13884	9.9771	3.9091	0.	3359.1
13885	9.8848	4.	0.	3384.9
13886	9.9771	4.	5.e-002	9.228
13887	9.9771	3.7273	0.	3357.6
13888	9.8848	3.8182	0.	3383.1
13889	9.9771	3.8182	5.e-002	9.2311
13890	9.9771	3.5455	0.	3356.4
13891	9.8848	3.6364	0.	3381.7
13892	9.9771	3.6364	5.e-002	9.2336
13893	9.9771	3.3636	0.	3355.6
13894	9.8848	3.4545	0.	3380.7
13895	9.9771	3.4545	5.e-002	9.2354
13896	9.9771	3.1818	0.	3355.
13897	9.8848	3.2727	0.	3380.
13898	9.9771	3.2727	5.e-002	9.2366
13899	9.9771	3.	0.	3354.9
13900	9.8848	3.0909	0.	3379.6
13901	9.9771	3.0909	5.e-002	9.2372
13902	9.9771	2.8182	0.	3355.
13903	9.8848	2.9091	0.	3379.6
13904	9.9771	2.9091	5.e-002	9.2372
13905	9.9771	2.6364	0.	3355.6
13906	9.8848	2.7273	0.	3380.
13907	9.9771	2.7273	5.e-002	9.2366
13908	9.9771	2.4545	0.	3356.4
13909	9.8848	2.5455	0.	3380.7
13910	9.9771	2.5455	5.e-002	9.2354
13911	9.9771	2.2727	0.	3357.6
13912	9.8848	2.3636	0.	3381.7
13913	9.9771	2.3636	5.e-002	9.2336
13914	9.9771	2.0909	0.	3359.1
13915	9.8848	2.1818	0.	3383.1
13916	9.9771	2.1818	5.e-002	9.2311
13917	9.9771	1.9091	0.	3360.9
13918	9.8848	2.	0.	3384.9
13919	9.9771	2.	5.e-002	9.228
13920	9.9771	1.7273	0.	3363.
13921	9.8848	1.8182	0.	3386.9
13922	9.9771	1.8182	5.e-002	9.2242
13923	9.9771	1.5455	0.	3365.4
13924	9.8848	1.6364	0.	3389.3
13925	9.9771	1.6364	5.e-002	9.2196
13926	9.9771	1.3636	0.	3368.1
13927	9.8848	1.4545	0.	3391.9
13928	9.9771	1.4545	5.e-002	9.2143
13929	9.9771	1.1818	0.	3371.1
13930	9.8848	1.2727	0.	3394.9
13931	9.9771	1.2727	5.e-002	9.2082
13932	9.9771	1.	0.	3374.2
13933	9.8848	1.0909	0.	3398.1
13934	9.9771	1.0909	5.e-002	9.2012
13935	9.9771	0.81818	0.	3377.6
13936	9.8848	0.90909	0.	3401.5
13937	9.9771	0.90909	5.e-002	9.1932
13938	9.9771	0.63636	0.	3381.2
13939	9.8848	0.72727	0.	3405.1
13940	9.9771	0.72727	5.e-002	9.1824
13941	9.9771	0.45455	0.	3385.1
13942	9.8848	0.54545	0.	3409.
13943	9.9771	0.54545	5.e-002	9.1403
13944	9.9771	0.27273	0.	3389.9
13945	9.8848	0.36364	0.	3413.1
13946	9.9771	0.36364	5.e-002	8.6328
13947	9.8848	0.18182	0.	3418.9
13948	9.9771	0.18182	5.e-002	1.0483
13949	9.9771	9.0909e-002	0.	3389.2
13950	9.7924	5.7273	0.	3442.1
13951	9.7	5.8182	0.	3471.4
13952	9.7924	5.8182	5.e-002	1.1738
13953	9.7924	5.9091	0.	3441.8
13954	9.7924	5.5455	0.	3437.
13955	9.7	5.6364	0.	3465.3
13956	9.7924	5.6364	5.e-002	8.6869
13957	9.7924	5.3636	0.	3432.9
13958	9.7	5.4545	0.	3460.9
13959	9.7924	5.4545	5.e-002	9.1911
13960	9.7924	5.1818	0.	3429.
13961	9.7	5.2727	0.	3456.7
13962	9.7924	5.2727	5.e-002	9.2335
13963	9.7924	5.	0.	3425.3
13964	9.7	5.0909	0.	3452.8
13965	9.7924	5.0909	5.e-002	9.2448
13966	9.7924	4.8182	0.	3421.9
13967	9.7	4.9091	0.	3449.1
13968	9.7924	4.9091	5.e-002	9.2532
13969	9.7924	4.6364	0.	3418.7
13970	9.7	4.7273	0.	3445.6
13971	9.7924	4.7273	5.e-002	9.2605
13972	9.7924	4.4545	0.	3415.8
13973	9.7	4.5455	0.	3442.4
13974	9.7924	4.5455	5.e-002	9.2669
13975	9.7924	4.2727	0.	3413.2
13976	9.7	4.3636	0.	3439.6
13977	9.7924	4.3636	5.e-002	9.2724
13978	9.7924	4.0909	0.	3410.9
13979	9.7	4.1818	0.	3437.
13980	9.7924	4.1818	5.e-002	9.2771
13981	9.7924	3.9091	0.	3408.9
13982	9.7	4.	0.	3434.8
13983	9.7924	4.	5.e-002	9.2811
13984	9.7924	3.7273	0.	3407.3
13985	9.7	3.8182	0.	3432.9
13986	9.7924	3.8182	5.e-002	9.2843
13987	9.7924	3.5455	0.	3406.
13988	9.7	3.6364	0.	3431.4
13989	9.7924	3.6364	5.e-002	9.2868
13990	9.7924	3.3636	0.	3405.1
13991	9.7	3.4545	0.	3430.2
13992	9.7924	3.4545	5.e-002	9.2887
13993	9.7924	3.1818	0.	3404.5
13994	9.7	3.2727	0.	3429.5
13995	9.7924	3.2727	5.e-002	9.2899
13996	9.7924	3.	0.	3404.3
13997	9.7	3.0909	0.	3429.1
13998	9.7924	3.0909	5.e-002	9.2905
13999	9.7924	2.8182	0.	3404.5
14000	9.7	2.9091	0.	3429.1
14001	9.7924	2.9091	5.e-002	9.2905
14002	9.7924	2.6364	0.	3405.1
14003	9.7	2.7273	0.	3429.5
14004	9.7924	2.7273	5.e-002	9.2899
14005	9.7924	2.4545	0.	3406.
14006	9.7	2.5455	0.	3430.2
14007	9.7924	2.5455	5.e-002	9.2887
14008	9.7924	2.2727	0.	3407.3
14009	9.7	2.3636	0.	3431.4
14010	9.7924	2.3636	5.e-002	9.2868
14011	9.7924	2.0909	0.	3408.9
14012	9.7	2.1818	0.	3432.9
14013	9.7924	2.1818	5.e-002	9.2843
14014	9.7924	1.9091	0.	3410.9
14015	9.7	2.	0.	3434.8
14016	9.7924	2.	5.e-002	9.2811
14017	9.7924	1.7273	0.	3413.2
14018	9.7	1.8182	0.	3437.
14019	9.7924	1.8182	5.e-002	9.2771
14020	9.7924	1.5455	0.	3415.8
14021	9.7	1.6364	0.	3439.6
14022	9.7924	1.6364	5.e-002	9.2724
14023	9.7924	1.3636	0.	3418.7
14024	9.7	1.4545	0.	3442.4
14025	9.7924	1.4545	5.e-002	9.2669
14026	9.7924	1.1818	0.	3421.9
14027	9.7	1.2727	0.	3445.6
14028	9.7924	1.2727	5.e-002	9.2605
14029	9.7924	1.	0.	3425.3
14030	9.7	1.0909	0.	3449.1
14031	9.7924	1.0909	5.e-002	9.2532
14032	9.7924	0.81818	0.	3429.
14033	9.7	0.90909	0.	3452.8
14034	9.7924	0.90909	5.e-002	9.2448
14035	9.7924	0.63636	0.	3432.9
14036	9.7	0.72727	0.	3456.7
14037	9.7924	0.72727	5.e-002	9.2335
14038	9.7924	0.45455	0.	3437.
14039	9.7	0.54545	0.	3460.9
14040	9.7924	0.54545	5.e-002	9.1911
14041	9.7924	0.27273	0.	3442.1
14042	9.7	0.36364	0.	3465.3
14043	9.7924	0.36364	5.e-002	8.6869
14044	9.7	0.18182	0.	3471.4
14045	9.7924	0.18182	5.e-002	1.1738
14046	9.7924	9.0909e-002	0.	3441.8
14047	9.6076	5.7273	0.	3494.5
14048	9.5152	5.8182	0.	3524.
14049	9.6076	5.8182	5.e-002	1.3112
14050	9.6076	5.9091	0.	3494.7
14051	9.6076	5.5455	0.	3489.1
14052	9.5152	5.6364	0.	3517.6
14053	9.6076	5.6364	5.e-002	8.7436
14054	9.6076	5.3636	0.	3484.7
14055	9.5152	5.4545	0.	3512.9
14056	9.6076	5.4545	5.e-002	9.2437
14057	9.6076	5.1818	0.	3480.5
14058	9.5152	5.2727	0.	3508.4
14059	9.6076	5.2727	5.e-002	9.2864
14060	9.6076	5.	0.	3476.5
14061	9.5152	5.0909	0.	3504.2
14062	9.6076	5.0909	5.e-002	9.2982
14063	9.6076	4.8182	0.	3472.8
14064	9.5152	4.9091	0.	3500.2
14065	9.6076	4.9091	5.e-002	9.307
14066	9.6076	4.6364	0.	3469.3
14067	9.5152	4.7273	0.	3496.5
14068	9.6076	4.7273	5.e-002	9.3147
14069	9.6076	4.4545	0.	3466.2
14070	9.5152	4.5455	0.	3493.
14071	9.6076	4.5455	5.e-002	9.3213
14072	9.6076	4.2727	0.	3463.4
14073	9.5152	4.3636	0.	3489.9
14074	9.6076	4.3636	5.e-002	9.3271
14075	9.6076	4.0909	0.	3460.9
14076	9.5152	4.1818	0.	3487.1
14077	9.6076	4.1818	5.e-002	9.332
14078	9.6076	3.9091	0.	3458.8
14079	9.5152	4.	0.	3484.7
14080	9.6076	4.	5.e-002	9.3361
14081	9.6076	3.7273	0.	3457.
14082	9.5152	3.8182	0.	3482.7
14083	9.6076	3.8182	5.e-002	9.3394
14084	9.6076	3.5455	0.	3455.6
14085	9.5152	3.6364	0.	3481.
14086	9.6076	3.6364	5.e-002	9.342
14087	9.6076	3.3636	0.	3454.6
14088	9.5152	3.4545	0.	3479.8
14089	9.6076	3.4545	5.e-002	9.3439
14090	9.6076	3.1818	0.	3454.
14091	9.5152	3.2727	0.	3479.
14092	9.6076	3.2727	5.e-002	9.3451
14093	9.6076	3.	0.	3453.8
14094	9.5152	3.0909	0.	3478.5
14095	9.6076	3.0909	5.e-002	9.3457
14096	9.6076	2.8182	0.	3454.
14097	9.5152	2.9091	0.	3478.5
14098	9.6076	2.9091	5.e-002	9.3457
14099	9.6076	2.6364	0.	3454.6
14100	9.5152	2.7273	0.	3479.
14101	9.6076	2.7273	5.e-002	9.3451
14102	9.6076	2.4545	0.	3455.6
14103	9.5152	2.5455	0.	3479.8
14104	9.6076	2.5455	5.e-002	9.3439
14105	9.6076	2.2727	0.	3457.
14106	9.5152	2.3636	0.	3481.
14107	9.6076	2.3636	5.e-002	9.342
14108	9.6076	2.0909	0.	3458.8
14109	9.5152	2.1818	0.	3482.7
14110	9.6076	2.1818	5.e-002	9.3394
14111	9.6076	1.9091	0.	3460.9
14112	9.5152	2.	0.	3484.7
14113	9.6076	2.	5.e-002	9.3361
14114	9.6076	1.7273	0.	3463.4
14115	9.5152	1.8182	0.	3487.1
14116	9.6076	1.8182	5.e-002	9.332
14117	9.6076	1.5455	0.	3466.2
14118	9.5152	1.6364	0.	3489.9
14119	9.6076	1.6364	5.e-002	9.3271
14120	9.6076	1.3636	0.	3469.3
14121	9.5152	1.4545	0.	3493.
14122	9.6076	1.4545	5.e-002	9.3213
14123	9.6076	1.1818	0.	3472.8
14124	9.5152	1.2727	0.	3496.5
14125	9.6076	1.2727	5.e-002	9.3147
14126	9.6076	1.	0.	3476.5
14127	9.5152	1.0909	0.	3500.2
14128	9.6076	1.0909	5.e-002	9.307
14129	9.6076	0.81818	0.	3480.5
14130	9.5152	0.90909	0.	3504.2
14131	9.6076	0.90909	5.e-002	9.2982
14132	9.6076	0.63636	0.	3484.7
14133	9.5152	0.72727	0.	3508.4
14134	9.6076	0.72727	5.e-002	9.2864
14135	9.6076	0.45455	0.	3489.1
14136	9.5152	0.54545	0.	3512.9
14137	9.6076	0.54545	5.e-002	9.2437
14138	9.6076	0.27273	0.	3494.5
14139	9.5152	0.36364	0.	3517.6
14140	9.6076	0.36364	5.e-002	8.7436
14141	9.5152	0.18182	0.	3524.
14142	9.6076	0.18182	5.e-002	1.3112
14143	9.6076	9.0909e-002	0.	3494.7
14144	9.4229	5.7273	0.	3547.1
14145	9.3305	5.8182	0.	3576.9
14146	9.4229	5.8182	5.e-002	1.4616
14147	9.4229	5.9091	0.	3547.8
14148	9.4229	5.5455	0.	3541.4
14149	9.3305	5.6364	0.	3570.2
14150	9.4229	5.6364	5.e-002	8.8029
14151	9.4229	5.3636	0.	3536.6
14152	9.3305	5.4545	0.	3565.1
14153	9.4229	5.4545	5.e-002	9.2984
14154	9.4229	5.1818	0.	3532.1
14155	9.3305	5.2727	0.	3560.3
14156	9.4229	5.2727	5.e-002	9.3414
14157	9.4229	5.	0.	3527.8
14158	9.3305	5.0909	0.	3555.7
14159	9.4229	5.0909	5.e-002	9.3537
14160	9.4229	4.8182	0.	3523.8
14161	9.3305	4.9091	0.	3551.4
14162	9.4229	4.9091	5.e-002	9.363
14163	9.4229	4.6364	0.	3520.1
14164	9.3305	4.7273	0.	3547.4
14165	9.4229	4.7273	5.e-002	9.371
14166	9.4229	4.4545	0.	3516.7
14167	9.3305	4.5455	0.	3543.7
14168	9.4229	4.5455	5.e-002	9.3779
14169	9.4229	4.2727	0.	3513.6
14170	9.3305	4.3636	0.	3540.3
14171	9.4229	4.3636	5.e-002	9.3839
14172	9.4229	4.0909	0.	3511.
14173	9.3305	4.1818	0.	3537.3
14174	9.4229	4.1818	5.e-002	9.3889
14175	9.4229	3.9091	0.	3508.6
14176	9.3305	4.	0.	3534.7
14177	9.4229	4.	5.e-002	9.3931
14178	9.4229	3.7273	0.	3506.7
14179	9.3305	3.8182	0.	3532.5
14180	9.4229	3.8182	5.e-002	9.3965
14181	9.4229	3.5455	0.	3505.2
14182	9.3305	3.6364	0.	3530.7
14183	9.4229	3.6364	5.e-002	9.3991
14184	9.4229	3.3636	0.	3504.1
14185	9.3305	3.4545	0.	3529.4
14186	9.4229	3.4545	5.e-002	9.401
14187	9.4229	3.1818	0.	3503.5
14188	9.3305	3.2727	0.	3528.5
14189	9.4229	3.2727	5.e-002	9.4023
14190	9.4229	3.	0.	3503.3
14191	9.3305	3.0909	0.	3528.
14192	9.4229	3.0909	5.e-002	9.4029
14193	9.4229	2.8182	0.	3503.5
14194	9.3305	2.9091	0.	3528.
14195	9.4229	2.9091	5.e-002	9.4029
14196	9.4229	2.6364	0.	3504.1
14197	9.3305	2.7273	0.	3528.5
14198	9.4229	2.7273	5.e-002	9.4023
14199	9.4229	2.4545	0.	3505.2
14200	9.3305	2.5455	0.	3529.4
14201	9.4229	2.5455	5.e-002	9.401
14202	9.4229	2.2727	0.	3506.7
14203	9.3305	2.3636	0.	3530.7
14204	9.4229	2.3636	5.e-002	9.3991
14205	9.4229	2.0909	0.	3508.6
14206	9.3305	2.1818	0.	3532.5
14207	9.4229	2.1818	5.e-002	9.3965
14208	9.4229	1.9091	0.	3511.
14209	9.3305	2.	0.	3534.7
14210	9.4229	2.	5.e-002	9.3931
14211	9.4229	1.7273	0.	3513.6
14212	9.3305	1.8182	0.	3537.3
14213	9.4229	1.8182	5.e-002	9.3889
14214	9.4229	1.5455	0.	3516.7
14215	9.3305	1.6364	0.	3540.3
14216	9.4229	1.6364	5.e-002	9.3839
14217	9.4229	1.3636	0.	3520.1
14218	9.3305	1.4545	0.	3543.7
14219	9.4229	1.4545	5.e-002	9.3779
14220	9.4229	1.1818	0.	3523.8
14221	9.3305	1.2727	0.	3547.4
14222	9.4229	1.2727	5.e-002	9.371
14223	9.4229	1.	0.	3527.8
14224	9.3305	1.0909	0.	3551.4
14225	9.4229	1.0909	5.e-002	9.363
14226	9.4229	0.81818	0.	3532.1
14227	9.3305	0.90909	0.	3555.7
14228	9.4229	0.90909	5.e-002	9.3537
14229	9.4229	0.63636	0.	3536.6
14230	9.3305	0.72727	0.	3560.3
14231	9.4229	0.72727	5.e-002	9.3414
14232	9.4229	0.45455	0.	3541.4
14233	9.3305	0.54545	0.	3565.1
14234	9.4229	0.54545	5.e-002	9.2984
14235	9.4229	0.27273	0.	3547.1
14236	9.3305	0.36364	0.	3570.2
14237	9.4229	0.36364	5.e-002	8.8029
14238	9.3305	0.18182	0.	3576.9
14239	9.4229	0.18182	5.e-002	1.4616
14240	9.4229	9.0909e-002	0.	3547.8
14241	9.2381	5.7273	0.	3599.9
14242	9.1457	5.8182	0.	3630.1
14243	9.2381	5.8182	5.e-002	1.6258
14244	9.2381	5.9091	0.	3601.1
14245	9.2381	5.5455	0.	3593.9
14246	9.1457	5.6364	0.	3623.
14247	9.2381	5.6364	5.e-002	8.8652
14248	9.2381	5.3636	0.	3588.8
14249	9.1457	5.4545	0.	3617.5
14250	9.2381	5.4545	5.e-002	9.3554
14251	9.2381	5.1818	0.	3583.9
14252	9.1457	5.2727	0.	3612.3
14253	9.2381	5.2727	5.e-002	9.3987
14254	9.2381	5.	0.	3579.3
14255	9.1457	5.0909	0.	3607.4
14256	9.2381	5.0909	5.e-002	9.4115
14257	9.2381	4.8182	0.	3574.9
14258	9.1457	4.9091	0.	3602.7
14259	9.2381	4.9091	5.e-002	9.4212
14260	9.2381	4.6364	0.	3570.9
14261	9.1457	4.7273	0.	3598.4
14262	9.2381	4.7273	5.e-002	9.4295
14263	9.2381	4.4545	0.	3567.3
14264	9.1457	4.5455	0.	3594.4
14265	9.2381	4.5455	5.e-002	9.4368
14266	9.2381	4.2727	0.	3563.9
14267	9.1457	4.3636	0.	3590.7
14268	9.2381	4.3636	5.e-002	9.4429
14269	9.2381	4.0909	0.	3561.
14270	9.1457	4.1818	0.	3587.5
14271	9.2381	4.1818	5.e-002	9.4481
14272	9.2381	3.9091	0.	3558.5
14273	9.1457	4.	0.	3584.7
14274	9.2381	4.	5.e-002	9.4524
14275	9.2381	3.7273	0.	3556.5
14276	9.1457	3.8182	0.	3582.3
14277	9.2381	3.8182	5.e-002	9.4558
14278	9.2381	3.5455	0.	3554.8
14279	9.1457	3.6364	0.	3580.4
14280	9.2381	3.6364	5.e-002	9.4585
14281	9.2381	3.3636	0.	3553.7
14282	9.1457	3.4545	0.	3578.9
14283	9.2381	3.4545	5.e-002	9.4604
14284	9.2381	3.1818	0.	3553.
14285	9.1457	3.2727	0.	3577.9
14286	9.2381	3.2727	5.e-002	9.4617
14287	9.2381	3.	0.	3552.7
14288	9.1457	3.0909	0.	3577.4
14289	9.2381	3.0909	5.e-002	9.4623
14290	9.2381	2.8182	0.	3553.
14291	9.1457	2.9091	0.	3577.4
14292	9.2381	2.9091	5.e-002	9.4623
14293	9.2381	2.6364	0.	3553.7
14294	9.1457	2.7273	0.	3577.9
14295	9.2381	2.7273	5.e-002	9.4617
14296	9.2381	2.4545	0.	3554.8
14297	9.1457	2.5455	0.	3578.9
14298	9.2381	2.5455	5.e-002	9.4604
14299	9.2381	2.2727	0.	3556.5
14300	9.1457	2.3636	0.	3580.4
14301	9.2381	2.3636	5.e-002	9.4585
14302	9.2381	2.0909	0.	3558.5
14303	9.1457	2.1818	0.	3582.3
14304	9.2381	2.1818	5.e-002	9.4558
14305	9.2381	1.9091	0.	3561.
14306	9.1457	2.	0.	3584.7
14307	9.2381	2.	5.e-002	9.4524
14308	9.2381	1.7273	0.	3563.9
14309	9.1457	1.8182	0.	3587.5
14310	9.2381	1.8182	5.e-002	9.4481
14311	9.2381	1.5455	0.	3567.3
14312	9.1457	1.6364	0.	3590.7
14313	9.2381	1.6364	5.e-002	9.4429
14314	9.2381	1.3636	0.	3570.9
14315	9.1457	1.4545	0.	3594.4
14316	9.2381	1.4545	5.e-002	9.4368
14317	9.2381	1.1818	0.	3574.9
14318	9.1457	1.2727	0.	3598.4
14319	9.2381	1.2727	5.e-002	9.4295
14320	9.2381	1.	0.	3579.3
14321	9.1457	1.0909	0.	3602.7
14322	9.2381	1.0909	5.e-002	9.4212
14323	9.2381	0.81818	0.	3583.9
14324	9.1457	0.90909	0.	3607.4
14325	9.2381	0.90909	5.e-002	9.4115
14326	9.2381	0.63636	0.	3588.8
14327	9.1457	0.72727	0.	3612.3
14328	9.2381	0.72727	5.e-002	9.3987
14329	9.2381	0.45455	0.	3593.9
14330	9.1457	0.54545	0.	3617.5
14331	9.2381	0.54545	5.e-002	9.3554
14332	9.2381	0.27273	0.	3599.9
14333	9.1457	0.36364	0.	3623.
14334	9.2381	0.36364	5.e-002	8.8652
14335	9.1457	0.18182	0.	3630.1
14336	9.2381	0.18182	5.e-002	1.6258
14337	9.2381	9.0909e-002	0.	3601.1
14338	9.0533	5.7273	0.	3653.
14339	8.961	5.8182	0.	3683.4
14340	9.0533	5.8182	5.e-002	1.8049
14341	9.0533	5.9091	0.	3654.7
14342	9.0533	5.5455	0.	3646.6
14343	8.961	5.6364	0.	3676.
14344	9.0533	5.6364	5.e-002	8.9307
14345	9.0533	5.3636	0.	3641.1
14346	8.961	5.4545	0.	3670.1
14347	9.0533	5.4545	5.e-002	9.4149
14348	9.0533	5.1818	0.	3635.8
14349	8.961	5.2727	0.	3664.5
14350	9.0533	5.2727	5.e-002	9.4584
14351	9.0533	5.	0.	3630.8
14352	8.961	5.0909	0.	3659.2
14353	9.0533	5.0909	5.e-002	9.4718
14354	9.0533	4.8182	0.	3626.2
14355	8.961	4.9091	0.	3654.2
14356	9.0533	4.9091	5.e-002	9.4819
14357	9.0533	4.6364	0.	3621.8
14358	8.961	4.7273	0.	3649.5
14359	9.0533	4.7273	5.e-002	9.4906
14360	9.0533	4.4545	0.	3617.9
14361	8.961	4.5455	0.	3645.1
14362	9.0533	4.5455	5.e-002	9.4981
14363	9.0533	4.2727	0.	3614.3
14364	8.961	4.3636	0.	3641.2
14365	9.0533	4.3636	5.e-002	9.5044
14366	9.0533	4.0909	0.	3611.1
14367	8.961	4.1818	0.	3637.7
14368	9.0533	4.1818	5.e-002	9.5097
14369	9.0533	3.9091	0.	3608.4
14370	8.961	4.	0.	3634.6
14371	9.0533	4.	5.e-002	9.514
14372	9.0533	3.7273	0.	3606.2
14373	8.961	3.8182	0.	3632.1
14374	9.0533	3.8182	5.e-002	9.5175
14375	9.0533	3.5455	0.	3604.4
14376	8.961	3.6364	0.	3630.
14377	9.0533	3.6364	5.e-002	9.5202
14378	9.0533	3.3636	0.	3603.1
14379	8.961	3.4545	0.	3628.4
14380	9.0533	3.4545	5.e-002	9.5221
14381	9.0533	3.1818	0.	3602.4
14382	8.961	3.2727	0.	3627.3
14383	9.0533	3.2727	5.e-002	9.5234
14384	9.0533	3.	0.	3602.1
14385	8.961	3.0909	0.	3626.8
14386	9.0533	3.0909	5.e-002	9.524
14387	9.0533	2.8182	0.	3602.4
14388	8.961	2.9091	0.	3626.8
14389	9.0533	2.9091	5.e-002	9.524
14390	9.0533	2.6364	0.	3603.1
14391	8.961	2.7273	0.	3627.3
14392	9.0533	2.7273	5.e-002	9.5234
14393	9.0533	2.4545	0.	3604.4
14394	8.961	2.5455	0.	3628.4
14395	9.0533	2.5455	5.e-002	9.5221
14396	9.0533	2.2727	0.	3606.2
14397	8.961	2.3636	0.	3630.
14398	9.0533	2.3636	5.e-002	9.5202
14399	9.0533	2.0909	0.	3608.4
14400	8.961	2.1818	0.	3632.1
14401	9.0533	2.1818	5.e-002	9.5175
14402	9.0533	1.9091	0.	3611.1
14403	8.961	2.	0.	3634.6
14404	9.0533	2.	5.e-002	9.514
14405	9.0533	1.7273	0.	3614.3
14406	8.961	1.8182	0.	3637.7
14407	9.0533	1.8182	5.e-002	9.5097
14408	9.0533	1.5455	0.	3617.9
14409	8.961	1.6364	0.	3641.2
14410	9.0533	1.6364	5.e-002	9.5044
14411	9.0533	1.3636	0.	3621.8
14412	8.961	1.4545	0.	3645.1
14413	9.0533	1.4545	5.e-002	9.4981
14414	9.0533	1.1818	0.	3626.2
14415	8.961	1.2727	0.	3649.5
14416	9.0533	1.2727	5.e-002	9.4906
14417	9.0533	1.	0.	3630.8
14418	8.961	1.0909	0.	3654.2
14419	9.0533	1.0909	5.e-002	9.4819
14420	9.0533	0.81818	0.	3635.8
14421	8.961	0.90909	0.	3659.2
14422	9.0533	0.90909	5.e-002	9.4718
14423	9.0533	0.63636	0.	3641.1
14424	8.961	0.72727	0.	3664.5
14425	9.0533	0.72727	5.e-002	9.4584
14426	9.0533	0.45455	0.	3646.6
14427	8.961	0.54545	0.	3670.1
14428	9.0533	0.54545	5.e-002	9.4149
14429	9.0533	0.27273	0.	3653.
14430	8.961	0.36364	0.	3676.
14431	9.0533	0.36364	5.e-002	8.9307
14432	8.961	0.18182	0.	3683.4
14433	9.0533	0.18182	5.e-002	1.8049
14434	9.0533	9.0909e-002	0.	3654.7
14435	8.8686	5.7273	0.	3706.3
14436	8.7762	5.8182	0.	3737.1
14437	8.8686	5.8182	5.e-002	1.9999
14438	8.8686	5.9091	0.	3708.6
14439	8.8686	5.5455	0.	3699.5
14440	8.7762	5.6364	0.	3729.3
14441	8.8686	5.6364	5.e-002	8.9998
14442	8.8686	5.3636	0.	3693.6
14443	8.7762	5.4545	0.	3722.9
14444	8.8686	5.4545	5.e-002	9.4772
14445	8.8686	5.1818	0.	3687.9
14446	8.7762	5.2727	0.	3716.9
14447	8.8686	5.2727	5.e-002	9.5209
14448	8.8686	5.	0.	3682.5
14449	8.7762	5.0909	0.	3711.1
14450	8.8686	5.0909	5.e-002	9.5348
14451	8.8686	4.8182	0.	3677.5
14452	8.7762	4.9091	0.	3705.7
14453	8.8686	4.9091	5.e-002	9.5453
14454	8.8686	4.6364	0.	3672.8
14455	8.7762	4.7273	0.	3700.6
14456	8.8686	4.7273	5.e-002	9.5544
14457	8.8686	4.4545	0.	3668.5
14458	8.7762	4.5455	0.	3695.9
14459	8.8686	4.5455	5.e-002	9.562
14460	8.8686	4.2727	0.	3664.6
14461	8.7762	4.3636	0.	3691.7
14462	8.8686	4.3636	5.e-002	9.5685
14463	8.8686	4.0909	0.	3661.2
14464	8.7762	4.1818	0.	3687.9
14465	8.8686	4.1818	5.e-002	9.5739
14466	8.8686	3.9091	0.	3658.3
14467	8.7762	4.	0.	3684.6
14468	8.8686	4.	5.e-002	9.5782
14469	8.8686	3.7273	0.	3655.8
14470	8.7762	3.8182	0.	3681.8
14471	8.8686	3.8182	5.e-002	9.5817
14472	8.8686	3.5455	0.	3653.9
14473	8.7762	3.6364	0.	3679.5
14474	8.8686	3.6364	5.e-002	9.5844
14475	8.8686	3.3636	0.	3652.6
14476	8.7762	3.4545	0.	3677.8
14477	8.8686	3.4545	5.e-002	9.5863
14478	8.8686	3.1818	0.	3651.7
14479	8.7762	3.2727	0.	3676.7
14480	8.8686	3.2727	5.e-002	9.5875
14481	8.8686	3.	0.	3651.5
14482	8.7762	3.0909	0.	3676.1
14483	8.8686	3.0909	5.e-002	9.5882
14484	8.8686	2.8182	0.	3651.7
14485	8.7762	2.9091	0.	3676.1
14486	8.8686	2.9091	5.e-002	9.5882
14487	8.8686	2.6364	0.	3652.6
14488	8.7762	2.7273	0.	3676.7
14489	8.8686	2.7273	5.e-002	9.5875
14490	8.8686	2.4545	0.	3653.9
14491	8.7762	2.5455	0.	3677.8
14492	8.8686	2.5455	5.e-002	9.5863
14493	8.8686	2.2727	0.	3655.8
14494	8.7762	2.3636	0.	3679.5
14495	8.8686	2.3636	5.e-002	9.5844
14496	8.8686	2.0909	0.	3658.3
14497	8.7762	2.1818	0.	3681.8
14498	8.8686	2.1818	5.e-002	9.5817
14499	8.8686	1.9091	0.	3661.2
14500	8.7762	2.	0.	3684.6
14501	8.8686	2.	5.e-002	9.5782
14502	8.8686	1.7273	0.	3664.6
14503	8.7762	1.8182	0.	3687.9
14504	8.8686	1.8182	5.e-002	9.5739
14505	8.8686	1.5455	0.	3668.5
14506	8.7762	1.6364	0.	3691.7
14507	8.8686	1.6364	5.e-002	9.5685
14508	8.8686	1.3636	0.	3672.8
14509	8.7762	1.4545	0.	3695.9
14510	8.8686	1.4545	5.e-002	9.562
14511	8.8686	1.1818	0.	3677.5
14512	8.7762	1.2727	0.	3700.6
14513	8.8686	1.2727	5.e-002	9.5544
14514	8.8686	1.	0.	3682.5
14515	8.7762	1.0909	0.	3705.7
14516	8.8686	1.0909	5.e-002	9.5453
14517	8.8686	0.81818	0.	3687.9
14518	8.7762	0.90909	0.	3711.1
14519	8.8686	0.90909	5.e-002	9.5348
14520	8.8686	0.63636	0.	3693.6
14521	8.7762	0.72727	0.	3716.9
14522	8.8686	0.72727	5.e-002	9.5209
14523	8.8686	0.45455	0.	3699.5
14524	8.7762	0.54545	0.	3722.9
14525	8.8686	0.54545	5.e-002	9.4772
14526	8.8686	0.27273	0.	3706.3
14527	8.7762	0.36364	0.	3729.3
14528	8.8686	0.36364	5.e-002	8.9998
14529	8.7762	0.18182	0.	3737.1
14530	8.8686	0.18182	5.e-002	1.9999
14531	8.8686	9.0909e-002	0.	3708.6
14532	8.6838	5.7273	0.	3759.9
14533	8.5914	5.8182	0.	3790.9
14534	8.6838	5.8182	5.e-002	2.2122
14535	8.6838	5.9091	0.	3762.8
14536	8.6838	5.5455	0.	3752.6
14537	8.5914	5.6364	0.	3782.7
14538	8.6838	5.6364	5.e-002	9.0728
14539	8.6838	5.3636	0.	3746.2
14540	8.5914	5.4545	0.	3775.9
14541	8.6838	5.4545	5.e-002	9.5424
14542	8.6838	5.1818	0.	3740.1
14543	8.5914	5.2727	0.	3769.4
14544	8.6838	5.2727	5.e-002	9.5863
14545	8.6838	5.	0.	3734.3
14546	8.5914	5.0909	0.	3763.2
14547	8.6838	5.0909	5.e-002	9.6008
14548	8.6838	4.8182	0.	3728.8
14549	8.5914	4.9091	0.	3757.3
14550	8.6838	4.9091	5.e-002	9.6118
14551	8.6838	4.6364	0.	3723.8
14552	8.5914	4.7273	0.	3751.8
14553	8.6838	4.7273	5.e-002	9.6211
14554	8.6838	4.4545	0.	3719.1
14555	8.5914	4.5455	0.	3746.8
14556	8.6838	4.5455	5.e-002	9.629
14557	8.6838	4.2727	0.	3714.9
14558	8.5914	4.3636	0.	3742.2
14559	8.6838	4.3636	5.e-002	9.6356
14560	8.6838	4.0909	0.	3711.3
14561	8.5914	4.1818	0.	3738.1
14562	8.6838	4.1818	5.e-002	9.641
14563	8.6838	3.9091	0.	3708.1
14564	8.5914	4.	0.	3734.5
14565	8.6838	4.	5.e-002	9.6453
14566	8.6838	3.7273	0.	3705.5
14567	8.5914	3.8182	0.	3731.5
14568	8.6838	3.8182	5.e-002	9.6488
14569	8.6838	3.5455	0.	3703.4
14570	8.5914	3.6364	0.	3729.
14571	8.6838	3.6364	5.e-002	9.6514
14572	8.6838	3.3636	0.	3701.9
14573	8.5914	3.4545	0.	3727.2
14574	8.6838	3.4545	5.e-002	9.6532
14575	8.6838	3.1818	0.	3701.
14576	8.5914	3.2727	0.	3725.9
14577	8.6838	3.2727	5.e-002	9.6545
14578	8.6838	3.	0.	3700.7
14579	8.5914	3.0909	0.	3725.3
14580	8.6838	3.0909	5.e-002	9.655
14581	8.6838	2.8182	0.	3701.
14582	8.5914	2.9091	0.	3725.3
14583	8.6838	2.9091	5.e-002	9.655
14584	8.6838	2.6364	0.	3701.9
14585	8.5914	2.7273	0.	3725.9
14586	8.6838	2.7273	5.e-002	9.6545
14587	8.6838	2.4545	0.	3703.4
14588	8.5914	2.5455	0.	3727.2
14589	8.6838	2.5455	5.e-002	9.6532
14590	8.6838	2.2727	0.	3705.5
14591	8.5914	2.3636	0.	3729.
14592	8.6838	2.3636	5.e-002	9.6514
14593	8.6838	2.0909	0.	3708.1
14594	8.5914	2.1818	0.	3731.5
14595	8.6838	2.1818	5.e-002	9.6488
14596	8.6838	1.9091	0.	3711.3
14597	8.5914	2.	0.	3734.5
14598	8.6838	2.	5.e-002	9.6453
14599	8.6838	1.7273	0.	3714.9
14600	8.5914	1.8182	0.	3738.1
14601	8.6838	1.8182	5.e-002	9.641
14602	8.6838	1.5455	0.	3719.1
14603	8.5914	1.6364	0.	3742.2
14604	8.6838	1.6364	5.e-002	9.6356
14605	8.6838	1.3636	0.	3723.8
14606	8.5914	1.4545	0.	3746.8
14607	8.6838	1.4545	5.e-002	9.629
14608	8.6838	1.1818	0.	3728.8
14609	8.5914	1.2727	0.	3751.8
14610	8.6838	1.2727	5.e-002	9.6211
14611	8.6838	1.	0.	3734.3
14612	8.5914	1.0909	0.	3757.3
14613	8.6838	1.0909	5.e-002	9.6118
14614	8.6838	0.81818	0.	3740.1
14615	8.5914	0.90909	0.	3763.2
14616	8.6838	0.90909	5.e-002	9.6008
14617	8.6838	0.63636	0.	3746.2
14618	8.5914	0.72727	0.	3769.4
14619	8.6838	0.72727	5.e-002	9.5863
14620	8.6838	0.45455	0.	3752.6
14621	8.5914	0.54545	0.	3775.9
14622	8.6838	0.54545	5.e-002	9.5424
14623	8.6838	0.27273	0.	3759.9
14624	8.5914	0.36364	0.	3782.7
14625	8.6838	0.36364	5.e-002	9.0728
14626	8.5914	0.18182	0.	3790.9
14627	8.6838	0.18182	5.e-002	2.2122
14628	8.6838	9.0909e-002	0.	3762.8
14629	8.499	5.7273	0.	3813.7
14630	8.4067	5.8182	0.	3845.1
14631	8.499	5.8182	5.e-002	2.4431
14632	8.499	5.9091	0.	3817.2
14633	8.499	5.5455	0.	3806.
14634	8.4067	5.6364	0.	3836.4
14635	8.499	5.6364	5.e-002	9.15
14636	8.499	5.3636	0.	3799.
14637	8.4067	5.4545	0.	3829.
14638	8.499	5.4545	5.e-002	9.6111
14639	8.499	5.1818	0.	3792.4
14640	8.4067	5.2727	0.	3822.
14641	8.499	5.2727	5.e-002	9.6551
14642	8.499	5.	0.	3786.2
14643	8.4067	5.0909	0.	3815.3
14644	8.499	5.0909	5.e-002	9.6701
14645	8.499	4.8182	0.	3780.3
14646	8.4067	4.9091	0.	3809.
14647	8.499	4.9091	5.e-002	9.6815
14648	8.499	4.6364	0.	3774.8
14649	8.4067	4.7273	0.	3803.1
14650	8.499	4.7273	5.e-002	9.6911
14651	8.499	4.4545	0.	3769.8
14652	8.4067	4.5455	0.	3797.6
14653	8.499	4.5455	5.e-002	9.6992
14654	8.499	4.2727	0.	3765.3
14655	8.4067	4.3636	0.	3792.6
14656	8.499	4.3636	5.e-002	9.7058
14657	8.499	4.0909	0.	3761.3
14658	8.4067	4.1818	0.	3788.2
14659	8.499	4.1818	5.e-002	9.7112
14660	8.499	3.9091	0.	3757.8
14661	8.4067	4.	0.	3784.3
14662	8.499	4.	5.e-002	9.7155
14663	8.499	3.7273	0.	3755.
14664	8.4067	3.8182	0.	3781.
14665	8.499	3.8182	5.e-002	9.7189
14666	8.499	3.5455	0.	3752.8
14667	8.4067	3.6364	0.	3778.4
14668	8.499	3.6364	5.e-002	9.7214
14669	8.499	3.3636	0.	3751.1
14670	8.4067	3.4545	0.	3776.4
14671	8.499	3.4545	5.e-002	9.7232
14672	8.499	3.1818	0.	3750.2
14673	8.4067	3.2727	0.	3775.
14674	8.499	3.2727	5.e-002	9.7243
14675	8.499	3.	0.	3749.9
14676	8.4067	3.0909	0.	3774.4
14677	8.499	3.0909	5.e-002	9.7249
14678	8.499	2.8182	0.	3750.2
14679	8.4067	2.9091	0.	3774.4
14680	8.499	2.9091	5.e-002	9.7249
14681	8.499	2.6364	0.	3751.1
14682	8.4067	2.7273	0.	3775.
14683	8.499	2.7273	5.e-002	9.7243
14684	8.499	2.4545	0.	3752.8
14685	8.4067	2.5455	0.	3776.4
14686	8.499	2.5455	5.e-002	9.7232
14687	8.499	2.2727	0.	3755.
14688	8.4067	2.3636	0.	3778.4
14689	8.499	2.3636	5.e-002	9.7214
14690	8.499	2.0909	0.	3757.8
14691	8.4067	2.1818	0.	3781.
14692	8.499	2.1818	5.e-002	9.7189
14693	8.499	1.9091	0.	3761.3
14694	8.4067	2.	0.	3784.3
14695	8.499	2.	5.e-002	9.7155
14696	8.499	1.7273	0.	3765.3
14697	8.4067	1.8182	0.	3788.2
14698	8.499	1.8182	5.e-002	9.7112
14699	8.499	1.5455	0.	3769.8
14700	8.4067	1.6364	0.	3792.6
14701	8.499	1.6364	5.e-002	9.7058
14702	8.499	1.3636	0.	3774.8
14703	8.4067	1.4545	0.	3797.6
14704	8.499	1.4545	5.e-002	9.6992
14705	8.499	1.1818	0.	3780.3
14706	8.4067	1.2727	0.	3803.1
14707	8.499	1.2727	5.e-002	9.6911
14708	8.499	1.	0.	3786.2
14709	8.4067	1.0909	0.	3809.
14710	8.499	1.0909	5.e-002	9.6815
14711	8.499	0.81818	0.	3792.4
14712	8.4067	0.90909	0.	3815.3
14713	8.499	0.90909	5.e-002	9.6701
14714	8.499	0.63636	0.	3799.
14715	8.4067	0.72727	0.	3822.
14716	8.499	0.72727	5.e-002	9.6551
14717	8.499	0.45455	0.	3806.
14718	8.4067	0.54545	0.	3829.
14719	8.499	0.54545	5.e-002	9.6111
14720	8.499	0.27273	0.	3813.7
14721	8.4067	0.36364	0.	3836.4
14722	8.499	0.36364	5.e-002	9.15
14723	8.4067	0.18182	0.	3845.1
14724	8.499	0.18182	5.e-002	2.4431
14725	8.499	9.0909e-002	0.	3817.2
14726	8.3143	5.7273	0.	3867.7
14727	8.2219	5.8182	0.	3899.5
14728	8.3143	5.8182	5.e-002	2.694
14729	8.3143	5.9091	0.	3871.9
14730	8.3143	5.5455	0.	3859.5
14731	8.2219	5.6364	0.	3890.3
14732	8.3143	5.6364	5.e-002	9.232
14733	8.3143	5.3636	0.	3852.
14734	8.2219	5.4545	0.	3882.4
14735	8.3143	5.4545	5.e-002	9.6835
14736	8.3143	5.1818	0.	3844.9
14737	8.2219	5.2727	0.	3874.8
14738	8.3143	5.2727	5.e-002	9.7276
14739	8.3143	5.	0.	3838.1
14740	8.2219	5.0909	0.	3867.6
14741	8.3143	5.0909	5.e-002	9.7431
14742	8.3143	4.8182	0.	3831.8
14743	8.2219	4.9091	0.	3860.7
14744	8.3143	4.9091	5.e-002	9.7549
14745	8.3143	4.6364	0.	3825.8
14746	8.2219	4.7273	0.	3854.3
14747	8.3143	4.7273	5.e-002	9.7647
14748	8.3143	4.4545	0.	3820.4
14749	8.2219	4.5455	0.	3848.4
14750	8.3143	4.5455	5.e-002	9.7729
14751	8.3143	4.2727	0.	3815.5
14752	8.2219	4.3636	0.	3843.
14753	8.3143	4.3636	5.e-002	9.7796
14754	8.3143	4.0909	0.	3811.2
14755	8.2219	4.1818	0.	3838.2
14756	8.3143	4.1818	5.e-002	9.7849
14757	8.3143	3.9091	0.	3807.5
14758	8.2219	4.	0.	3834.
14759	8.3143	4.	5.e-002	9.7891
14760	8.3143	3.7273	0.	3804.4
14761	8.2219	3.8182	0.	3830.5
14762	8.3143	3.8182	5.e-002	9.7923
14763	8.3143	3.5455	0.	3802.
14764	8.2219	3.6364	0.	3827.6
14765	8.3143	3.6364	5.e-002	9.7947
14766	8.3143	3.3636	0.	3800.3
14767	8.2219	3.4545	0.	3825.5
14768	8.3143	3.4545	5.e-002	9.7964
14769	8.3143	3.1818	0.	3799.2
14770	8.2219	3.2727	0.	3824.
14771	8.3143	3.2727	5.e-002	9.7974
14772	8.3143	3.	0.	3798.9
14773	8.2219	3.0909	0.	3823.3
14774	8.3143	3.0909	5.e-002	9.7979
14775	8.3143	2.8182	0.	3799.2
14776	8.2219	2.9091	0.	3823.3
14777	8.3143	2.9091	5.e-002	9.7979
14778	8.3143	2.6364	0.	3800.3
14779	8.2219	2.7273	0.	3824.
14780	8.3143	2.7273	5.e-002	9.7974
14781	8.3143	2.4545	0.	3802.
14782	8.2219	2.5455	0.	3825.5
14783	8.3143	2.5455	5.e-002	9.7964
14784	8.3143	2.2727	0.	3804.4
14785	8.2219	2.3636	0.	3827.6
14786	8.3143	2.3636	5.e-002	9.7947
14787	8.3143	2.0909	0.	3807.5
14788	8.2219	2.1818	0.	3830.5
14789	8.3143	2.1818	5.e-002	9.7923
14790	8.3143	1.9091	0.	3811.2
14791	8.2219	2.	0.	3834.
14792	8.3143	2.	5.e-002	9.7891
14793	8.3143	1.7273	0.	3815.5
14794	8.2219	1.8182	0.	3838.2
14795	8.3143	1.8182	5.e-002	9.7849
14796	8.3143	1.5455	0.	3820.4
14797	8.2219	1.6364	0.	3843.
14798	8.3143	1.6364	5.e-002	9.7796
14799	8.3143	1.3636	0.	3825.8
14800	8.2219	1.4545	0.	3848.4
14801	8.3143	1.4545	5.e-002	9.7729
14802	8.3143	1.1818	0.	3831.8
14803	8.2219	1.2727	0.	3854.3
14804	8.3143	1.2727	5.e-002	9.7647
14805	8.3143	1.	0.	3838.1
14806	8.2219	1.0909	0.	3860.7
14807	8.3143	1.0909	5.e-002	9.7549
14808	8.3143	0.81818	0.	3844.9
14809	8.2219	0.90909	0.	3867.6
14810	8.3143	0.90909	5.e-002	9.7431
14811	8.3143	0.63636	0.	3852.
14812	8.2219	0.72727	0.	3874.8
14813	8.3143	0.72727	5.e-002	9.7276
14814	8.3143	0.45455	0.	3859.5
14815	8.2219	0.54545	0.	3882.4
14816	8.3143	0.54545	5.e-002	9.6835
14817	8.3143	0.27273	0.	3867.7
14818	8.2219	0.36364	0.	3890.3
14819	8.3143	0.36364	5.e-002	9.232
14820	8.2219	0.18182	0.	3899.5
14821	8.3143	0.18182	5.e-002	2.694
14822	8.3143	9.0909e-002	0.	3871.9
14823	8.1295	5.7273	0.	3922.
14824	8.0371	5.8182	0.	3954.2
14825	8.1295	5.8182	5.e-002	2.9665
14826	8.1295	5.9091	0.	3927.
14827	8.1295	5.5455	0.	3913.2
14828	8.0371	5.6364	0.	3944.4
14829	8.1295	5.6364	5.e-002	9.3193
14830	8.1295	5.3636	0.	3905.2
14831	8.0371	5.4545	0.	3935.9
14832	8.1295	5.4545	5.e-002	9.76
14833	8.1295	5.1818	0.	3897.5
14834	8.0371	5.2727	0.	3927.7
14835	8.1295	5.2727	5.e-002	9.8041
14836	8.1295	5.	0.	3890.2
14837	8.0371	5.0909	0.	3919.9
14838	8.1295	5.0909	5.e-002	9.8201
14839	8.1295	4.8182	0.	3883.3
14840	8.0371	4.9091	0.	3912.5
14841	8.1295	4.9091	5.e-002	9.8323
14842	8.1295	4.6364	0.	3876.9
14843	8.0371	4.7273	0.	3905.6
14844	8.1295	4.7273	5.e-002	9.8423
14845	8.1295	4.4545	0.	3871.
14846	8.0371	4.5455	0.	3899.2
14847	8.1295	4.5455	5.e-002	9.8505
14848	8.1295	4.2727	0.	3865.7
14849	8.0371	4.3636	0.	3893.4
14850	8.1295	4.3636	5.e-002	9.8571
14851	8.1295	4.0909	0.	3861.1
14852	8.0371	4.1818	0.	3888.2
14853	8.1295	4.1818	5.e-002	9.8623
14854	8.1295	3.9091	0.	3857.
14855	8.0371	4.	0.	3883.7
14856	8.1295	4.	5.e-002	9.8663
14857	8.1295	3.7273	0.	3853.7
14858	8.0371	3.8182	0.	3879.8
14859	8.1295	3.8182	5.e-002	9.8693
14860	8.1295	3.5455	0.	3851.1
14861	8.0371	3.6364	0.	3876.7
14862	8.1295	3.6364	5.e-002	9.8715
14863	8.1295	3.3636	0.	3849.2
14864	8.0371	3.4545	0.	3874.4
14865	8.1295	3.4545	5.e-002	9.873
14866	8.1295	3.1818	0.	3848.1
14867	8.0371	3.2727	0.	3872.8
14868	8.1295	3.2727	5.e-002	9.874
14869	8.1295	3.	0.	3847.7
14870	8.0371	3.0909	0.	3872.
14871	8.1295	3.0909	5.e-002	9.8744
14872	8.1295	2.8182	0.	3848.1
14873	8.0371	2.9091	0.	3872.
14874	8.1295	2.9091	5.e-002	9.8744
14875	8.1295	2.6364	0.	3849.2
14876	8.0371	2.7273	0.	3872.8
14877	8.1295	2.7273	5.e-002	9.874
14878	8.1295	2.4545	0.	3851.1
14879	8.0371	2.5455	0.	3874.4
14880	8.1295	2.5455	5.e-002	9.873
14881	8.1295	2.2727	0.	3853.7
14882	8.0371	2.3636	0.	3876.7
14883	8.1295	2.3636	5.e-002	9.8715
14884	8.1295	2.0909	0.	3857.
14885	8.0371	2.1818	0.	3879.8
14886	8.1295	2.1818	5.e-002	9.8693
14887	8.1295	1.9091	0.	3861.1
14888	8.0371	2.	0.	3883.7
14889	8.1295	2.	5.e-002	9.8663
14890	8.1295	1.7273	0.	3865.7
14891	8.0371	1.8182	0.	3888.2
14892	8.1295	1.8182	5.e-002	9.8623
14893	8.1295	1.5455	0.	3871.
14894	8.0371	1.6364	0.	3893.4
14895	8.1295	1.6364	5.e-002	9.8571
14896	8.1295	1.3636	0.	3876.9
14897	8.0371	1.4545	0.	3899.2
14898	8.1295	1.4545	5.e-002	9.8505
14899	8.1295	1.1818	0.	3883.3
14900	8.0371	1.2727	0.	3905.6
14901	8.1295	1.2727	5.e-002	9.8423
14902	8.1295	1.	0.	3890.2
14903	8.0371	1.0909	0.	3912.5
14904	8.1295	1.0909	5.e-002	9.8323
14905	8.1295	0.81818	0.	3897.5
14906	8.0371	0.90909	0.	3919.9
14907	8.1295	0.90909	5.e-002	9.8201
14908	8.1295	0.63636	0.	3905.2
14909	8.0371	0.72727	0.	3927.7
14910	8.1295	0.72727	5.e-002	9.8041
14911	8.1295	0.45455	0.	3913.2
14912	8.0371	0.54545	0.	3935.9
14913	8.1295	0.54545	5.e-002	9.76
14914	8.1295	0.27273	0.	3922.
14915	8.0371	0.36364	0.	3944.4
14916	8.1295	0.36364	5.e-002	9.3193
14917	8.0371	0.18182	0.	3954.2
14918	8.1295	0.18182	5.e-002	2.9665
14919	8.1295	9.0909e-002	0.	3927.
14920	7.9448	5.7273	0.	3976.6
14921	7.8524	5.8182	0.	4009.2
14922	7.9448	5.8182	5.e-002	3.2624
14923	7.9448	5.9091	0.	3982.3
14924	7.9448	5.5455	0.	3967.1
14925	7.8524	5.6364	0.	3998.8
14926	7.9448	5.6364	5.e-002	9.4123
14927	7.9448	5.3636	0.	3958.5
14928	7.8524	5.4545	0.	3989.6
14929	7.9448	5.4545	5.e-002	9.8411
14930	7.9448	5.1818	0.	3950.2
14931	7.8524	5.2727	0.	3980.8
14932	7.9448	5.2727	5.e-002	9.8851
14933	7.9448	5.	0.	3942.3
14934	7.8524	5.0909	0.	3972.4
14935	7.9448	5.0909	5.e-002	9.9016
14936	7.9448	4.8182	0.	3934.8
14937	7.8524	4.9091	0.	3964.4
14938	7.9448	4.9091	5.e-002	9.9141
14939	7.9448	4.6364	0.	3927.9
14940	7.8524	4.7273	0.	3956.9
14941	7.9448	4.7273	5.e-002	9.9242
14942	7.9448	4.4545	0.	3921.6
14943	7.8524	4.5455	0.	3950.
14944	7.9448	4.5455	5.e-002	9.9324
14945	7.9448	4.2727	0.	3915.9
14946	7.8524	4.3636	0.	3943.7
14947	7.9448	4.3636	5.e-002	9.9389
14948	7.9448	4.0909	0.	3910.8
14949	7.8524	4.1818	0.	3938.1
14950	7.9448	4.1818	5.e-002	9.9439
14951	7.9448	3.9091	0.	3906.5
14952	7.8524	4.	0.	3933.2
14953	7.9448	4.	5.e-002	9.9476
14954	7.9448	3.7273	0.	3902.9
14955	7.8524	3.8182	0.	3929.
14956	7.9448	3.8182	5.e-002	9.9503
14957	7.9448	3.5455	0.	3900.
14958	7.8524	3.6364	0.	3925.6
14959	7.9448	3.6364	5.e-002	9.9523
14960	7.9448	3.3636	0.	3898.
14961	7.8524	3.4545	0.	3923.1
14962	7.9448	3.4545	5.e-002	9.9535
14963	7.9448	3.1818	0.	3896.7
14964	7.8524	3.2727	0.	3921.4
14965	7.9448	3.2727	5.e-002	9.9543
14966	7.9448	3.	0.	3896.3
14967	7.8524	3.0909	0.	3920.5
14968	7.9448	3.0909	5.e-002	9.9547
14969	7.9448	2.8182	0.	3896.7
14970	7.8524	2.9091	0.	3920.5
14971	7.9448	2.9091	5.e-002	9.9547
14972	7.9448	2.6364	0.	3898.
14973	7.8524	2.7273	0.	3921.4
14974	7.9448	2.7273	5.e-002	9.9543
14975	7.9448	2.4545	0.	3900.
14976	7.8524	2.5455	0.	3923.1
14977	7.9448	2.5455	5.e-002	9.9535
14978	7.9448	2.2727	0.	3902.9
14979	7.8524	2.3636	0.	3925.6
14980	7.9448	2.3636	5.e-002	9.9523
14981	7.9448	2.0909	0.	3906.5
14982	7.8524	2.1818	0.	3929.
14983	7.9448	2.1818	5.e-002	9.9503
14984	7.9448	1.9091	0.	3910.8
14985	7.8524	2.	0.	3933.2
14986	7.9448	2.	5.e-002	9.9476
14987	7.9448	1.7273	0.	3915.9
14988	7.8524	1.8182	0.	3938.1
14989	7.9448	1.8182	5.e-002	9.9439
14990	7.9448	1.5455	0.	3921.6
14991	7.8524	1.6364	0.	3943.7
14992	7.9448	1.6364	5.e-002	9.9389
14993	7.9448	1.3636	0.	3927.9
14994	7.8524	1.4545	0.	3950.
14995	7.9448	1.4545	5.e-002	9.9324
14996	7.9448	1.1818	0.	3934.8
14997	7.8524	1.2727	0.	3956.9
14998	7.9448	1.2727	5.e-002	9.9242
14999	7.9448	1.	0.	3942.3
15000	7.8524	1.0909	0.	3964.4
15001	7.9448	1.0909	5.e-002	9.9141
15002	7.9448	0.81818	0.	3950.2
15003	7.8524	0.90909	0.	3972.4
15004	7.9448	0.90909	5.e-002	9.9016
15005	7.9448	0.63636	0.	3958.5
15006	7.8524	0.72727	0.	3980.8
15007	7.9448	0.72727	5.e-002	9.8851
15008	7.9448	0.45455	0.	3967.1
15009	7.8524	0.54545	0.	3989.6
15010	7.9448	0.54545	5.e-002	9.8411
15011	7.9448	0.27273	0.	3976.6
15012	7.8524	0.36364	0.	3998.8
15013	7.9448	0.36364	5.e-002	9.4123
15014	7.8524	0.18182	0.	4009.2
15015	7.9448	0.18182	5.e-002	3.2624
15016	7.9448	9.0909e-002	0.	3982.3
15017	7.76	5.7273	0.	4031.4
15018	7.6676	5.8182	0.	4064.5
15019	7.76	5.8182	5.e-002	3.5835
15020	7.76	5.9091	0.	4038.
15021	7.76	5.5455	0.	4021.3
15022	7.6676	5.6364	0.	4053.5
15023	7.76	5.6364	5.e-002	9.5117
15024	7.76	5.3636	0.	4011.9
15025	7.6676	5.4545	0.	4043.5
15026	7.76	5.4545	5.e-002	9.9273
15027	7.76	5.1818	0.	4003.
15028	7.6676	5.2727	0.	4034.
15029	7.76	5.2727	5.e-002	9.9712
15030	7.76	5.	0.	3994.5
15031	7.6676	5.0909	0.	4024.9
15032	7.76	5.0909	5.e-002	9.9881
15033	7.76	4.8182	0.	3986.4
15034	7.6676	4.9091	0.	4016.3
15035	7.76	4.9091	5.e-002	10.001
15036	7.76	4.6364	0.	3978.9
15037	7.6676	4.7273	0.	4008.2
15038	7.76	4.7273	5.e-002	10.011
15039	7.76	4.4545	0.	3972.1
15040	7.6676	4.5455	0.	4000.7
15041	7.76	4.5455	5.e-002	10.019
15042	7.76	4.2727	0.	3965.9
15043	7.6676	4.3636	0.	3993.9
15044	7.76	4.3636	5.e-002	10.025
15045	7.76	4.0909	0.	3960.4
15046	7.6676	4.1818	0.	3987.8
15047	7.76	4.1818	5.e-002	10.03
15048	7.76	3.9091	0.	3955.7
15049	7.6676	4.	0.	3982.5
15050	7.76	4.	5.e-002	10.033
15051	7.76	3.7273	0.	3951.8
15052	7.6676	3.8182	0.	3978.
15053	7.76	3.8182	5.e-002	10.036
15054	7.76	3.5455	0.	3948.7
15055	7.6676	3.6364	0.	3974.4
15056	7.76	3.6364	5.e-002	10.037
15057	7.76	3.3636	0.	3946.5
15058	7.6676	3.4545	0.	3971.6
15059	7.76	3.4545	5.e-002	10.038
15060	7.76	3.1818	0.	3945.2
15061	7.6676	3.2727	0.	3969.7
15062	7.76	3.2727	5.e-002	10.039
15063	7.76	3.	0.	3944.7
15064	7.6676	3.0909	0.	3968.8
15065	7.76	3.0909	5.e-002	10.039
15066	7.76	2.8182	0.	3945.2
15067	7.6676	2.9091	0.	3968.8
15068	7.76	2.9091	5.e-002	10.039
15069	7.76	2.6364	0.	3946.5
15070	7.6676	2.7273	0.	3969.7
15071	7.76	2.7273	5.e-002	10.039
15072	7.76	2.4545	0.	3948.7
15073	7.6676	2.5455	0.	3971.6
15074	7.76	2.5455	5.e-002	10.038
15075	7.76	2.2727	0.	3951.8
15076	7.6676	2.3636	0.	3974.4
15077	7.76	2.3636	5.e-002	10.037
15078	7.76	2.0909	0.	3955.7
15079	7.6676	2.1818	0.	3978.
15080	7.76	2.1818	5.e-002	10.036
15081	7.76	1.9091	0.	3960.4
15082	7.6676	2.	0.	3982.5
15083	7.76	2.	5.e-002	10.033
15084	7.76	1.7273	0.	3965.9
15085	7.6676	1.8182	0.	3987.8
15086	7.76	1.8182	5.e-002	10.03
15087	7.76	1.5455	0.	3972.1
15088	7.6676	1.6364	0.	3993.9
15089	7.76	1.6364	5.e-002	10.025
15090	7.76	1.3636	0.	3978.9
15091	7.6676	1.4545	0.	4000.7
15092	7.76	1.4545	5.e-002	10.019
15093	7.76	1.1818	0.	3986.4
15094	7.6676	1.2727	0.	4008.2
15095	7.76	1.2727	5.e-002	10.011
15096	7.76	1.	0.	3994.5
15097	7.6676	1.0909	0.	4016.3
15098	7.76	1.0909	5.e-002	10.001
15099	7.76	0.81818	0.	4003.
15100	7.6676	0.90909	0.	4024.9
15101	7.76	0.90909	5.e-002	9.9881
15102	7.76	0.63636	0.	4011.9
15103	7.6676	0.72727	0.	4034.
15104	7.76	0.72727	5.e-002	9.9712
15105	7.76	0.45455	0.	4021.3
15106	7.6676	0.54545	0.	4043.5
15107	7.76	0.54545	5.e-002	9.9273
15108	7.76	0.27273	0.	4031.4
15109	7.6676	0.36364	0.	4053.5
15110	7.76	0.36364	5.e-002	9.5117
15111	7.6676	0.18182	0.	4064.5
15112	7.76	0.18182	5.e-002	3.5835
15113	7.76	9.0909e-002	0.	4038.
15114	7.5752	5.7273	0.	4086.5
15115	7.4829	5.8182	0.	4120.1
15116	7.5752	5.8182	5.e-002	3.9318
15117	7.5752	5.9091	0.	4094.
15118	7.5752	5.5455	0.	4075.7
15119	7.4829	5.6364	0.	4108.3
15120	7.5752	5.6364	5.e-002	9.6181
15121	7.5752	5.3636	0.	4065.6
15122	7.4829	5.4545	0.	4097.6
15123	7.5752	5.4545	5.e-002	10.019
15124	7.5752	5.1818	0.	4055.9
15125	7.4829	5.2727	0.	4087.4
15126	7.5752	5.2727	5.e-002	10.063
15127	7.5752	5.	0.	4046.7
15128	7.4829	5.0909	0.	4077.5
15129	7.5752	5.0909	5.e-002	10.08
15130	7.5752	4.8182	0.	4038.
15131	7.4829	4.9091	0.	4068.2
15132	7.5752	4.9091	5.e-002	10.093
15133	7.5752	4.6364	0.	4029.9
15134	7.4829	4.7273	0.	4059.4
15135	7.5752	4.7273	5.e-002	10.103
15136	7.5752	4.4545	0.	4022.5
15137	7.4829	4.5455	0.	4051.3
15138	7.5752	4.5455	5.e-002	10.111
15139	7.5752	4.2727	0.	4015.8
15140	7.4829	4.3636	0.	4044.
15141	7.5752	4.3636	5.e-002	10.117
15142	7.5752	4.0909	0.	4009.9
15143	7.4829	4.1818	0.	4037.4
15144	7.5752	4.1818	5.e-002	10.121
15145	7.5752	3.9091	0.	4004.8
15146	7.4829	4.	0.	4031.6
15147	7.5752	4.	5.e-002	10.124
15148	7.5752	3.7273	0.	4000.5
15149	7.4829	3.8182	0.	4026.8
15150	7.5752	3.8182	5.e-002	10.126
15151	7.5752	3.5455	0.	3997.2
15152	7.4829	3.6364	0.	4022.8
15153	7.5752	3.6364	5.e-002	10.127
15154	7.5752	3.3636	0.	3994.8
15155	7.4829	3.4545	0.	4019.8
15156	7.5752	3.4545	5.e-002	10.128
15157	7.5752	3.1818	0.	3993.4
15158	7.4829	3.2727	0.	4017.8
15159	7.5752	3.2727	5.e-002	10.128
15160	7.5752	3.	0.	3992.9
15161	7.4829	3.0909	0.	4016.8
15162	7.5752	3.0909	5.e-002	10.128
15163	7.5752	2.8182	0.	3993.4
15164	7.4829	2.9091	0.	4016.8
15165	7.5752	2.9091	5.e-002	10.128
15166	7.5752	2.6364	0.	3994.8
15167	7.4829	2.7273	0.	4017.8
15168	7.5752	2.7273	5.e-002	10.128
15169	7.5752	2.4545	0.	3997.2
15170	7.4829	2.5455	0.	4019.8
15171	7.5752	2.5455	5.e-002	10.128
15172	7.5752	2.2727	0.	4000.5
15173	7.4829	2.3636	0.	4022.8
15174	7.5752	2.3636	5.e-002	10.127
15175	7.5752	2.0909	0.	4004.8
15176	7.4829	2.1818	0.	4026.8
15177	7.5752	2.1818	5.e-002	10.126
15178	7.5752	1.9091	0.	4009.9
15179	7.4829	2.	0.	4031.6
15180	7.5752	2.	5.e-002	10.124
15181	7.5752	1.7273	0.	4015.8
15182	7.4829	1.8182	0.	4037.4
15183	7.5752	1.8182	5.e-002	10.121
15184	7.5752	1.5455	0.	4022.5
15185	7.4829	1.6364	0.	4044.
15186	7.5752	1.6364	5.e-002	10.117
15187	7.5752	1.3636	0.	4029.9
15188	7.4829	1.4545	0.	4051.3
15189	7.5752	1.4545	5.e-002	10.111
15190	7.5752	1.1818	0.	4038.
15191	7.4829	1.2727	0.	4059.4
15192	7.5752	1.2727	5.e-002	10.103
15193	7.5752	1.	0.	4046.7
15194	7.4829	1.0909	0.	4068.2
15195	7.5752	1.0909	5.e-002	10.093
15196	7.5752	0.81818	0.	4055.9
15197	7.4829	0.90909	0.	4077.5
15198	7.5752	0.90909	5.e-002	10.08
15199	7.5752	0.63636	0.	4065.6
15200	7.4829	0.72727	0.	4087.4
15201	7.5752	0.72727	5.e-002	10.063
15202	7.5752	0.45455	0.	4075.7
15203	7.4829	0.54545	0.	4097.6
15204	7.5752	0.54545	5.e-002	10.019
15205	7.5752	0.27273	0.	4086.5
15206	7.4829	0.36364	0.	4108.3
15207	7.5752	0.36364	5.e-002	9.6181
15208	7.4829	0.18182	0.	4120.1
15209	7.5752	0.18182	5.e-002	3.9318
15210	7.5752	9.0909e-002	0.	4094.
15211	7.3905	5.7273	0.	4141.9
15212	7.2981	5.8182	0.	4176.
15213	7.3905	5.8182	5.e-002	4.3093
15214	7.3905	5.9091	0.	4150.3
15215	7.3905	5.5455	0.	4130.3
15216	7.2981	5.6364	0.	4163.5
15217	7.3905	5.6364	5.e-002	9.7323
15218	7.3905	5.3636	0.	4119.4
15219	7.2981	5.4545	0.	4151.9
15220	7.3905	5.4545	5.e-002	10.117
15221	7.3905	5.1818	0.	4108.9
15222	7.2981	5.2727	0.	4140.8
15223	7.3905	5.2727	5.e-002	10.161
15224	7.3905	5.	0.	4099.
15225	7.2981	5.0909	0.	4130.2
15226	7.3905	5.0909	5.e-002	10.178
15227	7.3905	4.8182	0.	4089.6
15228	7.2981	4.9091	0.	4120.1
15229	7.3905	4.9091	5.e-002	10.191
15230	7.3905	4.6364	0.	4080.8
15231	7.2981	4.7273	0.	4110.6
15232	7.3905	4.7273	5.e-002	10.201
15233	7.3905	4.4545	0.	4072.8
15234	7.2981	4.5455	0.	4101.9
15235	7.3905	4.5455	5.e-002	10.209
15236	7.3905	4.2727	0.	4065.5
15237	7.2981	4.3636	0.	4093.9
15238	7.3905	4.3636	5.e-002	10.214
15239	7.3905	4.0909	0.	4059.1
15240	7.2981	4.1818	0.	4086.8
15241	7.3905	4.1818	5.e-002	10.218
15242	7.3905	3.9091	0.	4053.6
15243	7.2981	4.	0.	4080.5
15244	7.3905	4.	5.e-002	10.22
15245	7.3905	3.7273	0.	4049.
15246	7.2981	3.8182	0.	4075.3
15247	7.3905	3.8182	5.e-002	10.221
15248	7.3905	3.5455	0.	4045.4
15249	7.2981	3.6364	0.	4071.
15250	7.3905	3.6364	5.e-002	10.222
15251	7.3905	3.3636	0.	4042.8
15252	7.2981	3.4545	0.	4067.8
15253	7.3905	3.4545	5.e-002	10.222
15254	7.3905	3.1818	0.	4041.3
15255	7.2981	3.2727	0.	4065.6
15256	7.3905	3.2727	5.e-002	10.222
15257	7.3905	3.	0.	4040.7
15258	7.2981	3.0909	0.	4064.5
15259	7.3905	3.0909	5.e-002	10.222
15260	7.3905	2.8182	0.	4041.3
15261	7.2981	2.9091	0.	4064.5
15262	7.3905	2.9091	5.e-002	10.222
15263	7.3905	2.6364	0.	4042.8
15264	7.2981	2.7273	0.	4065.6
15265	7.3905	2.7273	5.e-002	10.222
15266	7.3905	2.4545	0.	4045.4
15267	7.2981	2.5455	0.	4067.8
15268	7.3905	2.5455	5.e-002	10.222
15269	7.3905	2.2727	0.	4049.
15270	7.2981	2.3636	0.	4071.
15271	7.3905	2.3636	5.e-002	10.222
15272	7.3905	2.0909	0.	4053.6
15273	7.2981	2.1818	0.	4075.3
15274	7.3905	2.1818	5.e-002	10.221
15275	7.3905	1.9091	0.	4059.1
15276	7.2981	2.	0.	4080.5
15277	7.3905	2.	5.e-002	10.22
15278	7.3905	1.7273	0.	4065.5
15279	7.2981	1.8182	0.	4086.8
15280	7.3905	1.8182	5.e-002	10.218
15281	7.3905	1.5455	0.	4072.8
15282	7.2981	1.6364	0.	4093.9
15283	7.3905	1.6364	5.e-002	10.214
15284	7.3905	1.3636	0.	4080.8
15285	7.2981	1.4545	0.	4101.9
15286	7.3905	1.4545	5.e-002	10.209
15287	7.3905	1.1818	0.	4089.6
15288	7.2981	1.2727	0.	4110.6
15289	7.3905	1.2727	5.e-002	10.201
15290	7.3905	1.	0.	4099.
15291	7.2981	1.0909	0.	4120.1
15292	7.3905	1.0909	5.e-002	10.191
15293	7.3905	0.81818	0.	4108.9
15294	7.2981	0.90909	0.	4130.2
15295	7.3905	0.90909	5.e-002	10.178
15296	7.3905	0.63636	0.	4119.4
15297	7.2981	0.72727	0.	4140.8
15298	7.3905	0.72727	5.e-002	10.161
15299	7.3905	0.45455	0.	4130.3
15300	7.2981	0.54545	0.	4151.9
15301	7.3905	0.54545	5.e-002	10.117
15302	7.3905	0.27273	0.	4141.9
15303	7.2981	0.36364	0.	4163.5
15304	7.3905	0.36364	5.e-002	9.7323
15305	7.2981	0.18182	0.	4176.
15306	7.3905	0.18182	5.e-002	4.3093
15307	7.3905	9.0909e-002	0.	4150.3
15308	7.2057	5.7273	0.	4197.6
15309	7.1133	5.8182	0.	4232.3
15310	7.2057	5.8182	5.e-002	4.7185
15311	7.2057	5.9091	0.	4207.1
15312	7.2057	5.5455	0.	4185.1
15313	7.1133	5.6364	0.	4218.9
15314	7.2057	5.6364	5.e-002	9.855
15315	7.2057	5.3636	0.	4173.4
15316	7.1133	5.4545	0.	4206.4
15317	7.2057	5.4545	5.e-002	10.222
15318	7.2057	5.1818	0.	4162.1
15319	7.1133	5.2727	0.	4194.4
15320	7.2057	5.2727	5.e-002	10.265
15321	7.2057	5.	0.	4151.3
15322	7.1133	5.0909	0.	4182.9
15323	7.2057	5.0909	5.e-002	10.283
15324	7.2057	4.8182	0.	4141.1
15325	7.1133	4.9091	0.	4172.
15326	7.2057	4.9091	5.e-002	10.296
15327	7.2057	4.6364	0.	4131.7
15328	7.1133	4.7273	0.	4161.8
15329	7.2057	4.7273	5.e-002	10.306
15330	7.2057	4.4545	0.	4123.
15331	7.1133	4.5455	0.	4152.3
15332	7.2057	4.5455	5.e-002	10.313
15333	7.2057	4.2727	0.	4115.1
15334	7.1133	4.3636	0.	4143.7
15335	7.2057	4.3636	5.e-002	10.317
15336	7.2057	4.0909	0.	4108.2
15337	7.1133	4.1818	0.	4136.
15338	7.2057	4.1818	5.e-002	10.32
15339	7.2057	3.9091	0.	4102.2
15340	7.1133	4.	0.	4129.2
15341	7.2057	4.	5.e-002	10.322
15342	7.2057	3.7273	0.	4097.2
15343	7.1133	3.8182	0.	4123.5
15344	7.2057	3.8182	5.e-002	10.322
15345	7.2057	3.5455	0.	4093.3
15346	7.1133	3.6364	0.	4118.9
15347	7.2057	3.6364	5.e-002	10.322
15348	7.2057	3.3636	0.	4090.5
15349	7.1133	3.4545	0.	4115.4
15350	7.2057	3.4545	5.e-002	10.322
15351	7.2057	3.1818	0.	4088.8
15352	7.1133	3.2727	0.	4113.
15353	7.2057	3.2727	5.e-002	10.321
15354	7.2057	3.	0.	4088.2
15355	7.1133	3.0909	0.	4111.8
15356	7.2057	3.0909	5.e-002	10.321
15357	7.2057	2.8182	0.	4088.8
15358	7.1133	2.9091	0.	4111.8
15359	7.2057	2.9091	5.e-002	10.321
15360	7.2057	2.6364	0.	4090.5
15361	7.1133	2.7273	0.	4113.
15362	7.2057	2.7273	5.e-002	10.321
15363	7.2057	2.4545	0.	4093.3
15364	7.1133	2.5455	0.	4115.4
15365	7.2057	2.5455	5.e-002	10.322
15366	7.2057	2.2727	0.	4097.2
15367	7.1133	2.3636	0.	4118.9
15368	7.2057	2.3636	5.e-002	10.322
15369	7.2057	2.0909	0.	4102.2
15370	7.1133	2.1818	0.	4123.5
15371	7.2057	2.1818	5.e-002	10.322
15372	7.2057	1.9091	0.	4108.2
15373	7.1133	2.	0.	4129.2
15374	7.2057	2.	5.e-002	10.322
15375	7.2057	1.7273	0.	4115.1
15376	7.1133	1.8182	0.	4136.
15377	7.2057	1.8182	5.e-002	10.32
15378	7.2057	1.5455	0.	4123.
15379	7.1133	1.6364	0.	4143.7
15380	7.2057	1.6364	5.e-002	10.317
15381	7.2057	1.3636	0.	4131.7
15382	7.1133	1.4545	0.	4152.3
15383	7.2057	1.4545	5.e-002	10.313
15384	7.2057	1.1818	0.	4141.1
15385	7.1133	1.2727	0.	4161.8
15386	7.2057	1.2727	5.e-002	10.306
15387	7.2057	1.	0.	4151.3
15388	7.1133	1.0909	0.	4172.
15389	7.2057	1.0909	5.e-002	10.296
15390	7.2057	0.81818	0.	4162.1
15391	7.1133	0.90909	0.	4182.9
15392	7.2057	0.90909	5.e-002	10.283
15393	7.2057	0.63636	0.	4173.4
15394	7.1133	0.72727	0.	4194.4
15395	7.2057	0.72727	5.e-002	10.265
15396	7.2057	0.45455	0.	4185.1
15397	7.1133	0.54545	0.	4206.4
15398	7.2057	0.54545	5.e-002	10.222
15399	7.2057	0.27273	0.	4197.6
15400	7.1133	0.36364	0.	4218.9
15401	7.2057	0.36364	5.e-002	9.855
15402	7.1133	0.18182	0.	4232.3
15403	7.2057	0.18182	5.e-002	4.7185
15404	7.2057	9.0909e-002	0.	4207.1
15405	7.021	5.7273	0.	4253.6
15406	6.9286	5.8182	0.	4288.9
15407	7.021	5.8182	5.e-002	5.1619
15408	7.021	5.9091	0.	4264.1
15409	7.021	5.5455	0.	4240.2
15410	6.9286	5.6364	0.	4274.6
15411	7.021	5.6364	5.e-002	9.9872
15412	7.021	5.3636	0.	4227.5
15413	6.9286	5.4545	0.	4261.1
15414	7.021	5.4545	5.e-002	10.335
15415	7.021	5.1818	0.	4215.3
15416	6.9286	5.2727	0.	4248.2
15417	7.021	5.2727	5.e-002	10.377
15418	7.021	5.	0.	4203.6
15419	6.9286	5.0909	0.	4235.7
15420	7.021	5.0909	5.e-002	10.395
15421	7.021	4.8182	0.	4192.7
15422	6.9286	4.9091	0.	4223.9
15423	7.021	4.9091	5.e-002	10.408
15424	7.021	4.6364	0.	4182.4
15425	6.9286	4.7273	0.	4212.9
15426	7.021	4.7273	5.e-002	10.417
15427	7.021	4.4545	0.	4173.
15428	6.9286	4.5455	0.	4202.6
15429	7.021	4.5455	5.e-002	10.424
15430	7.021	4.2727	0.	4164.5
15431	6.9286	4.3636	0.	4193.3
15432	7.021	4.3636	5.e-002	10.428
15433	7.021	4.0909	0.	4157.
15434	6.9286	4.1818	0.	4184.9
15435	7.021	4.1818	5.e-002	10.43
15436	7.021	3.9091	0.	4150.5
15437	6.9286	4.	0.	4177.6
15438	7.021	4.	5.e-002	10.43
15439	7.021	3.7273	0.	4145.1
15440	6.9286	3.8182	0.	4171.4
15441	7.021	3.8182	5.e-002	10.43
15442	7.021	3.5455	0.	4140.9
15443	6.9286	3.6364	0.	4166.4
15444	7.021	3.6364	5.e-002	10.429
15445	7.021	3.3636	0.	4137.8
15446	6.9286	3.4545	0.	4162.6
15447	7.021	3.4545	5.e-002	10.428
15448	7.021	3.1818	0.	4136.
15449	6.9286	3.2727	0.	4160.
15450	7.021	3.2727	5.e-002	10.427
15451	7.021	3.	0.	4135.4
15452	6.9286	3.0909	0.	4158.7
15453	7.021	3.0909	5.e-002	10.426
15454	7.021	2.8182	0.	4136.
15455	6.9286	2.9091	0.	4158.7
15456	7.021	2.9091	5.e-002	10.426
15457	7.021	2.6364	0.	4137.8
15458	6.9286	2.7273	0.	4160.
15459	7.021	2.7273	5.e-002	10.427
15460	7.021	2.4545	0.	4140.9
15461	6.9286	2.5455	0.	4162.6
15462	7.021	2.5455	5.e-002	10.428
15463	7.021	2.2727	0.	4145.1
15464	6.9286	2.3636	0.	4166.4
15465	7.021	2.3636	5.e-002	10.429
15466	7.021	2.0909	0.	4150.5
15467	6.9286	2.1818	0.	4171.4
15468	7.021	2.1818	5.e-002	10.43
15469	7.021	1.9091	0.	4157.
15470	6.9286	2.	0.	4177.6
15471	7.021	2.	5.e-002	10.43
15472	7.021	1.7273	0.	4164.5
15473	6.9286	1.8182	0.	4184.9
15474	7.021	1.8182	5.e-002	10.43
15475	7.021	1.5455	0.	4173.
15476	6.9286	1.6364	0.	4193.3
15477	7.021	1.6364	5.e-002	10.428
15478	7.021	1.3636	0.	4182.4
15479	6.9286	1.4545	0.	4202.6
15480	7.021	1.4545	5.e-002	10.424
15481	7.021	1.1818	0.	4192.7
15482	6.9286	1.2727	0.	4212.9
15483	7.021	1.2727	5.e-002	10.417
15484	7.021	1.	0.	4203.6
15485	6.9286	1.0909	0.	4223.9
15486	7.021	1.0909	5.e-002	10.408
15487	7.021	0.81818	0.	4215.3
15488	6.9286	0.90909	0.	4235.7
15489	7.021	0.90909	5.e-002	10.395
15490	7.021	0.63636	0.	4227.5
15491	6.9286	0.72727	0.	4248.2
15492	7.021	0.72727	5.e-002	10.377
15493	7.021	0.45455	0.	4240.2
15494	6.9286	0.54545	0.	4261.1
15495	7.021	0.54545	5.e-002	10.335
15496	7.021	0.27273	0.	4253.6
15497	6.9286	0.36364	0.	4274.6
15498	7.021	0.36364	5.e-002	9.9872
15499	6.9286	0.18182	0.	4288.9
15500	7.021	0.18182	5.e-002	5.1619
15501	7.021	9.0909e-002	0.	4264.1
15502	6.8362	5.7273	0.	4309.9
15503	6.7438	5.8182	0.	4345.9
15504	6.8362	5.8182	5.e-002	5.6419
15505	6.8362	5.9091	0.	4321.6
15506	6.8362	5.5455	0.	4295.5
15507	6.7438	5.6364	0.	4330.5
15508	6.8362	5.6364	5.e-002	10.13
15509	6.8362	5.3636	0.	4281.8
15510	6.7438	5.4545	0.	4316.
15511	6.8362	5.4545	5.e-002	10.457
15512	6.8362	5.1818	0.	4268.6
15513	6.7438	5.2727	0.	4302.
15514	6.8362	5.2727	5.e-002	10.498
15515	6.8362	5.	0.	4256.
15516	6.7438	5.0909	0.	4288.6
15517	6.8362	5.0909	5.e-002	10.516
15518	6.8362	4.8182	0.	4244.1
15519	6.7438	4.9091	0.	4275.8
15520	6.8362	4.9091	5.e-002	10.529
15521	6.8362	4.6364	0.	4233.
15522	6.7438	4.7273	0.	4263.8
15523	6.8362	4.7273	5.e-002	10.537
15524	6.8362	4.4545	0.	4222.9
15525	6.7438	4.5455	0.	4252.7
15526	6.8362	4.5455	5.e-002	10.543
15527	6.8362	4.2727	0.	4213.7
15528	6.7438	4.3636	0.	4242.6
15529	6.8362	4.3636	5.e-002	10.546
15530	6.8362	4.0909	0.	4205.5
15531	6.7438	4.1818	0.	4233.6
15532	6.8362	4.1818	5.e-002	10.546
15533	6.8362	3.9091	0.	4198.5
15534	6.7438	4.	0.	4225.7
15535	6.8362	4.	5.e-002	10.546
15536	6.8362	3.7273	0.	4192.7
15537	6.7438	3.8182	0.	4218.9
15538	6.8362	3.8182	5.e-002	10.544
15539	6.8362	3.5455	0.	4188.1
15540	6.7438	3.6364	0.	4213.5
15541	6.8362	3.6364	5.e-002	10.542
15542	6.8362	3.3636	0.	4184.8
15543	6.7438	3.4545	0.	4209.4
15544	6.8362	3.4545	5.e-002	10.54
15545	6.8362	3.1818	0.	4182.8
15546	6.7438	3.2727	0.	4206.6
15547	6.8362	3.2727	5.e-002	10.539
15548	6.8362	3.	0.	4182.1
15549	6.7438	3.0909	0.	4205.2
15550	6.8362	3.0909	5.e-002	10.538
15551	6.8362	2.8182	0.	4182.8
15552	6.7438	2.9091	0.	4205.2
15553	6.8362	2.9091	5.e-002	10.538
15554	6.8362	2.6364	0.	4184.8
15555	6.7438	2.7273	0.	4206.6
15556	6.8362	2.7273	5.e-002	10.539
15557	6.8362	2.4545	0.	4188.1
15558	6.7438	2.5455	0.	4209.4
15559	6.8362	2.5455	5.e-002	10.54
15560	6.8362	2.2727	0.	4192.7
15561	6.7438	2.3636	0.	4213.5
15562	6.8362	2.3636	5.e-002	10.542
15563	6.8362	2.0909	0.	4198.5
15564	6.7438	2.1818	0.	4218.9
15565	6.8362	2.1818	5.e-002	10.544
15566	6.8362	1.9091	0.	4205.5
15567	6.7438	2.	0.	4225.7
15568	6.8362	2.	5.e-002	10.546
15569	6.8362	1.7273	0.	4213.7
15570	6.7438	1.8182	0.	4233.6
15571	6.8362	1.8182	5.e-002	10.546
15572	6.8362	1.5455	0.	4222.9
15573	6.7438	1.6364	0.	4242.6
15574	6.8362	1.6364	5.e-002	10.546
15575	6.8362	1.3636	0.	4233.
15576	6.7438	1.4545	0.	4252.7
15577	6.8362	1.4545	5.e-002	10.543
15578	6.8362	1.1818	0.	4244.1
15579	6.7438	1.2727	0.	4263.8
15580	6.8362	1.2727	5.e-002	10.537
15581	6.8362	1.	0.	4256.
15582	6.7438	1.0909	0.	4275.8
15583	6.8362	1.0909	5.e-002	10.529
15584	6.8362	0.81818	0.	4268.6
15585	6.7438	0.90909	0.	4288.6
15586	6.8362	0.90909	5.e-002	10.516
15587	6.8362	0.63636	0.	4281.8
15588	6.7438	0.72727	0.	4302.
15589	6.8362	0.72727	5.e-002	10.498
15590	6.8362	0.45455	0.	4295.5
15591	6.7438	0.54545	0.	4316.
15592	6.8362	0.54545	5.e-002	10.457
15593	6.8362	0.27273	0.	4309.9
15594	6.7438	0.36364	0.	4330.5
15595	6.8362	0.36364	5.e-002	10.13
15596	6.7438	0.18182	0.	4345.9
15597	6.8362	0.18182	5.e-002	5.6419
15598	6.8362	9.0909e-002	0.	4321.6
15599	6.6514	5.7273	0.	4366.5
15600	6.559	5.8182	0.	4403.3
15601	6.6514	5.8182	5.e-002	6.1616
15602	6.6514	5.9091	0.	4379.5
15603	6.6514	5.5455	0.	4351.1
15604	6.559	5.6364	0.	4386.8
15605	6.6514	5.6364	5.e-002	10.284
15606	6.6514	5.3636	0.	4336.2
15607	6.559	5.4545	0.	4371.1
15608	6.6514	5.4545	5.e-002	10.588
15609	6.6514	5.1818	0.	4322.
15610	6.559	5.2727	0.	4356.
15611	6.6514	5.2727	5.e-002	10.628
15612	6.6514	5.	0.	4308.4
15613	6.559	5.0909	0.	4341.5
15614	6.6514	5.0909	5.e-002	10.646
15615	6.6514	4.8182	0.	4295.5
15616	6.559	4.9091	0.	4327.7
15617	6.6514	4.9091	5.e-002	10.658
15618	6.6514	4.6364	0.	4283.5
15619	6.559	4.7273	0.	4314.7
15620	6.6514	4.7273	5.e-002	10.666
15621	6.6514	4.4545	0.	4272.5
15622	6.559	4.5455	0.	4302.7
15623	6.6514	4.5455	5.e-002	10.67
15624	6.6514	4.2727	0.	4262.5
15625	6.559	4.3636	0.	4291.7
15626	6.6514	4.3636	5.e-002	10.672
15627	6.6514	4.0909	0.	4253.7
15628	6.559	4.1818	0.	4281.9
15629	6.6514	4.1818	5.e-002	10.671
15630	6.6514	3.9091	0.	4246.1
15631	6.559	4.	0.	4273.4
15632	6.6514	4.	5.e-002	10.669
15633	6.6514	3.7273	0.	4239.8
15634	6.559	3.8182	0.	4266.1
15635	6.6514	3.8182	5.e-002	10.666
15636	6.6514	3.5455	0.	4234.8
15637	6.559	3.6364	0.	4260.2
15638	6.6514	3.6364	5.e-002	10.663
15639	6.6514	3.3636	0.	4231.2
15640	6.559	3.4545	0.	4255.7
15641	6.6514	3.4545	5.e-002	10.661
15642	6.6514	3.1818	0.	4229.1
15643	6.559	3.2727	0.	4252.7
15644	6.6514	3.2727	5.e-002	10.659
15645	6.6514	3.	0.	4228.4
15646	6.559	3.0909	0.	4251.2
15647	6.6514	3.0909	5.e-002	10.657
15648	6.6514	2.8182	0.	4229.1
15649	6.559	2.9091	0.	4251.2
15650	6.6514	2.9091	5.e-002	10.657
15651	6.6514	2.6364	0.	4231.2
15652	6.559	2.7273	0.	4252.7
15653	6.6514	2.7273	5.e-002	10.659
15654	6.6514	2.4545	0.	4234.8
15655	6.559	2.5455	0.	4255.7
15656	6.6514	2.5455	5.e-002	10.661
15657	6.6514	2.2727	0.	4239.8
15658	6.559	2.3636	0.	4260.2
15659	6.6514	2.3636	5.e-002	10.663
15660	6.6514	2.0909	0.	4246.1
15661	6.559	2.1818	0.	4266.1
15662	6.6514	2.1818	5.e-002	10.666
15663	6.6514	1.9091	0.	4253.7
15664	6.559	2.	0.	4273.4
15665	6.6514	2.	5.e-002	10.669
15666	6.6514	1.7273	0.	4262.5
15667	6.559	1.8182	0.	4281.9
15668	6.6514	1.8182	5.e-002	10.671
15669	6.6514	1.5455	0.	4272.5
15670	6.559	1.6364	0.	4291.7
15671	6.6514	1.6364	5.e-002	10.672
15672	6.6514	1.3636	0.	4283.5
15673	6.559	1.4545	0.	4302.7
15674	6.6514	1.4545	5.e-002	10.67
15675	6.6514	1.1818	0.	4295.5
15676	6.559	1.2727	0.	4314.7
15677	6.6514	1.2727	5.e-002	10.666
15678	6.6514	1.	0.	4308.4
15679	6.559	1.0909	0.	4327.7
15680	6.6514	1.0909	5.e-002	10.658
15681	6.6514	0.81818	0.	4322.
15682	6.559	0.90909	0.	4341.5
15683	6.6514	0.90909	5.e-002	10.646
15684	6.6514	0.63636	0.	4336.2
15685	6.559	0.72727	0.	4356.
15686	6.6514	0.72727	5.e-002	10.628
15687	6.6514	0.45455	0.	4351.1
15688	6.559	0.54545	0.	4371.1
15689	6.6514	0.54545	5.e-002	10.588
15690	6.6514	0.27273	0.	4366.5
15691	6.559	0.36364	0.	4386.8
15692	6.6514	0.36364	5.e-002	10.284
15693	6.559	0.18182	0.	4403.3
15694	6.6514	0.18182	5.e-002	6.1616
15695	6.6514	9.0909e-002	0.	4379.5
15696	6.4667	5.7273	0.	4423.6
15697	6.3743	5.8182	0.	4461.1
15698	6.4667	5.8182	5.e-002	6.7237
15699	6.4667	5.9091	0.	4437.8
15700	6.4667	5.5455	0.	4406.9
15701	6.3743	5.6364	0.	4443.4
15702	6.4667	5.6364	5.e-002	10.451
15703	6.4667	5.3636	0.	4390.9
15704	6.3743	5.4545	0.	4426.5
15705	6.4667	5.4545	5.e-002	10.729
15706	6.4667	5.1818	0.	4375.5
15707	6.3743	5.2727	0.	4410.1
15708	6.4667	5.2727	5.e-002	10.768
15709	6.4667	5.	0.	4360.8
15710	6.3743	5.0909	0.	4394.4
15711	6.4667	5.0909	5.e-002	10.786
15712	6.4667	4.8182	0.	4346.8
15713	6.3743	4.9091	0.	4379.5
15714	6.4667	4.9091	5.e-002	10.798
15715	6.4667	4.6364	0.	4333.9
15716	6.3743	4.7273	0.	4365.5
15717	6.4667	4.7273	5.e-002	10.805
15718	6.4667	4.4545	0.	4321.9
15719	6.3743	4.5455	0.	4352.5
15720	6.4667	4.5455	5.e-002	10.808
15721	6.4667	4.2727	0.	4311.1
15722	6.3743	4.3636	0.	4340.6
15723	6.4667	4.3636	5.e-002	10.808
15724	6.4667	4.0909	0.	4301.6
15725	6.3743	4.1818	0.	4330.
15726	6.4667	4.1818	5.e-002	10.805
15727	6.4667	3.9091	0.	4293.3
15728	6.3743	4.	0.	4320.7
15729	6.4667	4.	5.e-002	10.802
15730	6.4667	3.7273	0.	4286.5
15731	6.3743	3.8182	0.	4312.8
15732	6.4667	3.8182	5.e-002	10.797
15733	6.4667	3.5455	0.	4281.1
15734	6.3743	3.6364	0.	4306.4
15735	6.4667	3.6364	5.e-002	10.793
15736	6.4667	3.3636	0.	4277.2
15737	6.3743	3.4545	0.	4301.6
15738	6.4667	3.4545	5.e-002	10.789
15739	6.4667	3.1818	0.	4274.9
15740	6.3743	3.2727	0.	4298.3
15741	6.4667	3.2727	5.e-002	10.786
15742	6.4667	3.	0.	4274.1
15743	6.3743	3.0909	0.	4296.7
15744	6.4667	3.0909	5.e-002	10.785
15745	6.4667	2.8182	0.	4274.9
15746	6.3743	2.9091	0.	4296.7
15747	6.4667	2.9091	5.e-002	10.785
15748	6.4667	2.6364	0.	4277.2
15749	6.3743	2.7273	0.	4298.3
15750	6.4667	2.7273	5.e-002	10.786
15751	6.4667	2.4545	0.	4281.1
15752	6.3743	2.5455	0.	4301.6
15753	6.4667	2.5455	5.e-002	10.789
15754	6.4667	2.2727	0.	4286.5
15755	6.3743	2.3636	0.	4306.4
15756	6.4667	2.3636	5.e-002	10.793
15757	6.4667	2.0909	0.	4293.3
15758	6.3743	2.1818	0.	4312.8
15759	6.4667	2.1818	5.e-002	10.797
15760	6.4667	1.9091	0.	4301.6
15761	6.3743	2.	0.	4320.7
15762	6.4667	2.	5.e-002	10.802
15763	6.4667	1.7273	0.	4311.1
15764	6.3743	1.8182	0.	4330.
15765	6.4667	1.8182	5.e-002	10.805
15766	6.4667	1.5455	0.	4321.9
15767	6.3743	1.6364	0.	4340.6
15768	6.4667	1.6364	5.e-002	10.808
15769	6.4667	1.3636	0.	4333.9
15770	6.3743	1.4545	0.	4352.5
15771	6.4667	1.4545	5.e-002	10.808
15772	6.4667	1.1818	0.	4346.8
15773	6.3743	1.2727	0.	4365.5
15774	6.4667	1.2727	5.e-002	10.805
15775	6.4667	1.	0.	4360.8
15776	6.3743	1.0909	0.	4379.5
15777	6.4667	1.0909	5.e-002	10.798
15778	6.4667	0.81818	0.	4375.5
15779	6.3743	0.90909	0.	4394.4
15780	6.4667	0.90909	5.e-002	10.786
15781	6.4667	0.63636	0.	4390.9
15782	6.3743	0.72727	0.	4410.1
15783	6.4667	0.72727	5.e-002	10.768
15784	6.4667	0.45455	0.	4406.9
15785	6.3743	0.54545	0.	4426.5
15786	6.4667	0.54545	5.e-002	10.729
15787	6.4667	0.27273	0.	4423.6
15788	6.3743	0.36364	0.	4443.4
15789	6.4667	0.36364	5.e-002	10.451
15790	6.3743	0.18182	0.	4461.1
15791	6.4667	0.18182	5.e-002	6.7237
15792	6.4667	9.0909e-002	0.	4437.8
15793	6.2819	5.7273	0.	4480.9
15794	6.1895	5.8182	0.	4519.4
15795	6.2819	5.8182	5.e-002	7.3317
15796	6.2819	5.9091	0.	4496.6
15797	6.2819	5.5455	0.	4463.
15798	6.1895	5.6364	0.	4500.3
15799	6.2819	5.6364	5.e-002	10.631
15800	6.2819	5.3636	0.	4445.7
15801	6.1895	5.4545	0.	4482.
15802	6.2819	5.4545	5.e-002	10.883
15803	6.2819	5.1818	0.	4429.
15804	6.1895	5.2727	0.	4464.3
15805	6.2819	5.2727	5.e-002	10.92
15806	6.2819	5.	0.	4413.1
15807	6.1895	5.0909	0.	4447.4
15808	6.2819	5.0909	5.e-002	10.938
15809	6.2819	4.8182	0.	4398.1
15810	6.1895	4.9091	0.	4431.2
15811	6.2819	4.9091	5.e-002	10.948
15812	6.2819	4.6364	0.	4384.
15813	6.1895	4.7273	0.	4416.
15814	6.2819	4.7273	5.e-002	10.954
15815	6.2819	4.4545	0.	4371.1
15816	6.1895	4.5455	0.	4402.
15817	6.2819	4.5455	5.e-002	10.956
15818	6.2819	4.2727	0.	4359.4
15819	6.1895	4.3636	0.	4389.1
15820	6.2819	4.3636	5.e-002	10.954
15821	6.2819	4.0909	0.	4349.1
15822	6.1895	4.1818	0.	4377.6
15823	6.2819	4.1818	5.e-002	10.95
15824	6.2819	3.9091	0.	4340.1
15825	6.1895	4.	0.	4367.6
15826	6.2819	4.	5.e-002	10.944
15827	6.2819	3.7273	0.	4332.7
15828	6.1895	3.8182	0.	4359.
15829	6.2819	3.8182	5.e-002	10.938
15830	6.2819	3.5455	0.	4326.9
15831	6.1895	3.6364	0.	4352.1
15832	6.2819	3.6364	5.e-002	10.932
15833	6.2819	3.3636	0.	4322.7
15834	6.1895	3.4545	0.	4346.9
15835	6.2819	3.4545	5.e-002	10.926
15836	6.2819	3.1818	0.	4320.1
15837	6.1895	3.2727	0.	4343.3
15838	6.2819	3.2727	5.e-002	10.923
15839	6.2819	3.	0.	4319.3
15840	6.1895	3.0909	0.	4341.6
15841	6.2819	3.0909	5.e-002	10.921
15842	6.2819	2.8182	0.	4320.1
15843	6.1895	2.9091	0.	4341.6
15844	6.2819	2.9091	5.e-002	10.921
15845	6.2819	2.6364	0.	4322.7
15846	6.1895	2.7273	0.	4343.3
15847	6.2819	2.7273	5.e-002	10.923
15848	6.2819	2.4545	0.	4326.9
15849	6.1895	2.5455	0.	4346.9
15850	6.2819	2.5455	5.e-002	10.926
15851	6.2819	2.2727	0.	4332.7
15852	6.1895	2.3636	0.	4352.1
15853	6.2819	2.3636	5.e-002	10.932
15854	6.2819	2.0909	0.	4340.1
15855	6.1895	2.1818	0.	4359.
15856	6.2819	2.1818	5.e-002	10.938
15857	6.2819	1.9091	0.	4349.1
15858	6.1895	2.	0.	4367.6
15859	6.2819	2.	5.e-002	10.944
15860	6.2819	1.7273	0.	4359.4
15861	6.1895	1.8182	0.	4377.6
15862	6.2819	1.8182	5.e-002	10.95
15863	6.2819	1.5455	0.	4371.1
15864	6.1895	1.6364	0.	4389.1
15865	6.2819	1.6364	5.e-002	10.954
15866	6.2819	1.3636	0.	4384.
15867	6.1895	1.4545	0.	4402.
15868	6.2819	1.4545	5.e-002	10.956
15869	6.2819	1.1818	0.	4398.1
15870	6.1895	1.2727	0.	4416.
15871	6.2819	1.2727	5.e-002	10.954
15872	6.2819	1.	0.	4413.1
15873	6.1895	1.0909	0.	4431.2
15874	6.2819	1.0909	5.e-002	10.948
15875	6.2819	0.81818	0.	4429.
15876	6.1895	0.90909	0.	4447.4
15877	6.2819	0.90909	5.e-002	10.938
15878	6.2819	0.63636	0.	4445.7
15879	6.1895	0.72727	0.	4464.3
15880	6.2819	0.72727	5.e-002	10.92
15881	6.2819	0.45455	0.	4463.
15882	6.1895	0.54545	0.	4482.
15883	6.2819	0.54545	5.e-002	10.883
15884	6.2819	0.27273	0.	4480.9
15885	6.1895	0.36364	0.	4500.3
15886	6.2819	0.36364	5.e-002	10.631
15887	6.1895	0.18182	0.	4519.4
15888	6.2819	0.18182	5.e-002	7.3317
15889	6.2819	9.0909e-002	0.	4496.6
15890	6.0971	5.7273	0.	4538.7
15891	6.0048	5.8182	0.	4578.1
15892	6.0971	5.8182	5.e-002	7.9888
15893	6.0971	5.9091	0.	4555.8
15894	6.0971	5.5455	0.	4519.3
15895	6.0048	5.6364	0.	4557.6
15896	6.0971	5.6364	5.e-002	10.827
15897	6.0971	5.3636	0.	4500.7
15898	6.0048	5.4545	0.	4537.8
15899	6.0971	5.4545	5.e-002	11.049
15900	6.0971	5.1818	0.	4482.7
15901	6.0048	5.2727	0.	4518.7
15902	6.0971	5.2727	5.e-002	11.085
15903	6.0971	5.	0.	4465.5
15904	6.0048	5.0909	0.	4500.3
15905	6.0971	5.0909	5.e-002	11.102
15906	6.0971	4.8182	0.	4449.2
15907	6.0048	4.9091	0.	4482.9
15908	6.0971	4.9091	5.e-002	11.112
15909	6.0971	4.6364	0.	4434.
15910	6.0048	4.7273	0.	4466.5
15911	6.0971	4.7273	5.e-002	11.116
15912	6.0971	4.4545	0.	4420.
15913	6.0048	4.5455	0.	4451.2
15914	6.0971	4.5455	5.e-002	11.116
15915	6.0971	4.2727	0.	4407.3
15916	6.0048	4.3636	0.	4437.3
15917	6.0971	4.3636	5.e-002	11.112
15918	6.0971	4.0909	0.	4396.1
15919	6.0048	4.1818	0.	4424.9
15920	6.0971	4.1818	5.e-002	11.105
15921	6.0971	3.9091	0.	4386.5
15922	6.0048	4.	0.	4414.
15923	6.0971	4.	5.e-002	11.097
15924	6.0971	3.7273	0.	4378.4
15925	6.0048	3.8182	0.	4404.7
15926	6.0971	3.8182	5.e-002	11.089
15927	6.0971	3.5455	0.	4372.1
15928	6.0048	3.6364	0.	4397.2
15929	6.0971	3.6364	5.e-002	11.081
15930	6.0971	3.3636	0.	4367.5
15931	6.0048	3.4545	0.	4391.6
15932	6.0971	3.4545	5.e-002	11.074
15933	6.0971	3.1818	0.	4364.8
15934	6.0048	3.2727	0.	4387.7
15935	6.0971	3.2727	5.e-002	11.069
15936	6.0971	3.	0.	4363.9
15937	6.0048	3.0909	0.	4385.8
15938	6.0971	3.0909	5.e-002	11.067
15939	6.0971	2.8182	0.	4364.8
15940	6.0048	2.9091	0.	4385.8
15941	6.0971	2.9091	5.e-002	11.067
15942	6.0971	2.6364	0.	4367.5
15943	6.0048	2.7273	0.	4387.7
15944	6.0971	2.7273	5.e-002	11.069
15945	6.0971	2.4545	0.	4372.1
15946	6.0048	2.5455	0.	4391.6
15947	6.0971	2.5455	5.e-002	11.074
15948	6.0971	2.2727	0.	4378.4
15949	6.0048	2.3636	0.	4397.2
15950	6.0971	2.3636	5.e-002	11.081
15951	6.0971	2.0909	0.	4386.5
15952	6.0048	2.1818	0.	4404.7
15953	6.0971	2.1818	5.e-002	11.089
15954	6.0971	1.9091	0.	4396.1
15955	6.0048	2.	0.	4414.
15956	6.0971	2.	5.e-002	11.097
15957	6.0971	1.7273	0.	4407.3
15958	6.0048	1.8182	0.	4424.9
15959	6.0971	1.8182	5.e-002	11.105
15960	6.0971	1.5455	0.	4420.
15961	6.0048	1.6364	0.	4437.3
15962	6.0971	1.6364	5.e-002	11.112
15963	6.0971	1.3636	0.	4434.
15964	6.0048	1.4545	0.	4451.2
15965	6.0971	1.4545	5.e-002	11.116
15966	6.0971	1.1818	0.	4449.2
15967	6.0048	1.2727	0.	4466.5
15968	6.0971	1.2727	5.e-002	11.116
15969	6.0971	1.	0.	4465.5
15970	6.0048	1.0909	0.	4482.9
15971	6.0971	1.0909	5.e-002	11.112
15972	6.0971	0.81818	0.	4482.7
15973	6.0048	0.90909	0.	4500.3
15974	6.0971	0.90909	5.e-002	11.102
15975	6.0971	0.63636	0.	4500.7
15976	6.0048	0.72727	0.	4518.7
15977	6.0971	0.72727	5.e-002	11.085
15978	6.0971	0.45455	0.	4519.3
15979	6.0048	0.54545	0.	4537.8
15980	6.0971	0.54545	5.e-002	11.049
15981	6.0971	0.27273	0.	4538.7
15982	6.0048	0.36364	0.	4557.6
15983	6.0971	0.36364	5.e-002	10.827
15984	6.0048	0.18182	0.	4578.1
15985	6.0971	0.18182	5.e-002	7.9888
15986	6.0971	9.0909e-002	0.	4555.8
15987	5.9124	5.7273	0.	4596.9
15988	5.82	5.8182	0.	4637.3
15989	5.9124	5.8182	5.e-002	8.6986
15990	5.9124	5.9091	0.	4615.6
15991	5.9124	5.5455	0.	4576.
15992	5.82	5.6364	0.	4615.2
15993	5.9124	5.6364	5.e-002	11.039
15994	5.9124	5.3636	0.	4555.8
15995	5.82	5.4545	0.	4593.8
15996	5.9124	5.4545	5.e-002	11.23
15997	5.9124	5.1818	0.	4536.4
15998	5.82	5.2727	0.	4573.2
15999	5.9124	5.2727	5.e-002	11.263
16000	5.9124	5.	0.	4517.8
16001	5.82	5.0909	0.	4553.3
16002	5.9124	5.0909	5.e-002	11.28
16003	5.9124	4.8182	0.	4500.2
16004	5.82	4.9091	0.	4534.5
16005	5.9124	4.9091	5.e-002	11.289
16006	5.9124	4.6364	0.	4483.7
16007	5.82	4.7273	0.	4516.7
16008	5.9124	4.7273	5.e-002	11.291
16009	5.9124	4.4545	0.	4468.6
16010	5.82	4.5455	0.	4500.2
16011	5.9124	4.5455	5.e-002	11.289
16012	5.9124	4.2727	0.	4454.9
16013	5.82	4.3636	0.	4485.2
16014	5.9124	4.3636	5.e-002	11.282
16015	5.9124	4.0909	0.	4442.7
16016	5.82	4.1818	0.	4471.7
16017	5.9124	4.1818	5.e-002	11.273
16018	5.9124	3.9091	0.	4432.3
16019	5.82	4.	0.	4459.9
16020	5.9124	4.	5.e-002	11.263
16021	5.9124	3.7273	0.	4423.6
16022	5.82	3.8182	0.	4449.9
16023	5.9124	3.8182	5.e-002	11.252
16024	5.9124	3.5455	0.	4416.7
16025	5.82	3.6364	0.	4441.8
16026	5.9124	3.6364	5.e-002	11.242
16027	5.9124	3.3636	0.	4411.8
16028	5.82	3.4545	0.	4435.6
16029	5.9124	3.4545	5.e-002	11.233
16030	5.9124	3.1818	0.	4408.8
16031	5.82	3.2727	0.	4431.5
16032	5.9124	3.2727	5.e-002	11.227
16033	5.9124	3.	0.	4407.8
16034	5.82	3.0909	0.	4429.4
16035	5.9124	3.0909	5.e-002	11.224
16036	5.9124	2.8182	0.	4408.8
16037	5.82	2.9091	0.	4429.4
16038	5.9124	2.9091	5.e-002	11.224
16039	5.9124	2.6364	0.	4411.8
16040	5.82	2.7273	0.	4431.5
16041	5.9124	2.7273	5.e-002	11.227
16042	5.9124	2.4545	0.	4416.7
16043	5.82	2.5455	0.	4435.6
16044	5.9124	2.5455	5.e-002	11.233
16045	5.9124	2.2727	0.	4423.6
16046	5.82	2.3636	0.	4441.8
16047	5.9124	2.3636	5.e-002	11.242
16048	5.9124	2.0909	0.	4432.3
16049	5.82	2.1818	0.	4449.9
16050	5.9124	2.1818	5.e-002	11.252
16051	5.9124	1.9091	0.	4442.7
16052	5.82	2.	0.	4459.9
16053	5.9124	2.	5.e-002	11.263
16054	5.9124	1.7273	0.	4454.9
16055	5.82	1.8182	0.	4471.7
16056	5.9124	1.8182	5.e-002	11.273
16057	5.9124	1.5455	0.	4468.6
16058	5.82	1.6364	0.	4485.2
16059	5.9124	1.6364	5.e-002	11.282
16060	5.9124	1.3636	0.	4483.7
16061	5.82	1.4545	0.	4500.2
16062	5.9124	1.4545	5.e-002	11.289
16063	5.9124	1.1818	0.	4500.2
16064	5.82	1.2727	0.	4516.7
16065	5.9124	1.2727	5.e-002	11.291
16066	5.9124	1.	0.	4517.8
16067	5.82	1.0909	0.	4534.5
16068	5.9124	1.0909	5.e-002	11.289
16069	5.9124	0.81818	0.	4536.4
16070	5.82	0.90909	0.	4553.3
16071	5.9124	0.90909	5.e-002	11.28
16072	5.9124	0.63636	0.	4555.8
16073	5.82	0.72727	0.	4573.2
16074	5.9124	0.72727	5.e-002	11.263
16075	5.9124	0.45455	0.	4576.
16076	5.82	0.54545	0.	4593.8
16077	5.9124	0.54545	5.e-002	11.23
16078	5.9124	0.27273	0.	4596.9
16079	5.82	0.36364	0.	4615.2
16080	5.9124	0.36364	5.e-002	11.039
16081	5.82	0.18182	0.	4637.3
16082	5.9124	0.18182	5.e-002	8.6986
16083	5.9124	9.0909e-002	0.	4615.6
16084	5.7276	5.7273	0.	4655.5
16085	5.6352	5.8182	0.	4697.
16086	5.7276	5.8182	5.e-002	9.4648
16087	5.7276	5.9091	0.	4675.8
16088	5.7276	5.5455	0.	4633.
16089	5.6352	5.6364	0.	4673.2
16090	5.7276	5.6364	5.e-002	11.27
16091	5.7276	5.3636	0.	4611.2
16092	5.6352	5.4545	0.	4650.1
16093	5.7276	5.4545	5.e-002	11.426
16094	5.7276	5.1818	0.	4590.2
16095	5.6352	5.2727	0.	4627.8
16096	5.7276	5.2727	5.e-002	11.458
16097	5.7276	5.	0.	4570.
16098	5.6352	5.0909	0.	4606.3
16099	5.7276	5.0909	5.e-002	11.473
16100	5.7276	4.8182	0.	4551.
16101	5.6352	4.9091	0.	4585.9
16102	5.7276	4.9091	5.e-002	11.481
16103	5.7276	4.6364	0.	4533.2
16104	5.6352	4.7273	0.	4566.7
16105	5.7276	4.7273	5.e-002	11.482
16106	5.7276	4.4545	0.	4516.8
16107	5.6352	4.5455	0.	4548.9
16108	5.7276	4.5455	5.e-002	11.477
16109	5.7276	4.2727	0.	4502.
16110	5.6352	4.3636	0.	4532.6
16111	5.7276	4.3636	5.e-002	11.468
16112	5.7276	4.0909	0.	4488.8
16113	5.6352	4.1818	0.	4518.
16114	5.7276	4.1818	5.e-002	11.456
16115	5.7276	3.9091	0.	4477.5
16116	5.6352	4.	0.	4505.2
16117	5.7276	4.	5.e-002	11.442
16118	5.7276	3.7273	0.	4468.1
16119	5.6352	3.8182	0.	4494.4
16120	5.7276	3.8182	5.e-002	11.429
16121	5.7276	3.5455	0.	4460.7
16122	5.6352	3.6364	0.	4485.6
16123	5.7276	3.6364	5.e-002	11.416
16124	5.7276	3.3636	0.	4455.3
16125	5.6352	3.4545	0.	4479.
16126	5.7276	3.4545	5.e-002	11.406
16127	5.7276	3.1818	0.	4452.1
16128	5.6352	3.2727	0.	4474.5
16129	5.7276	3.2727	5.e-002	11.398
16130	5.7276	3.	0.	4451.
16131	5.6352	3.0909	0.	4472.2
16132	5.7276	3.0909	5.e-002	11.394
16133	5.7276	2.8182	0.	4452.1
16134	5.6352	2.9091	0.	4472.2
16135	5.7276	2.9091	5.e-002	11.394
16136	5.7276	2.6364	0.	4455.3
16137	5.6352	2.7273	0.	4474.5
16138	5.7276	2.7273	5.e-002	11.398
16139	5.7276	2.4545	0.	4460.7
16140	5.6352	2.5455	0.	4479.
16141	5.7276	2.5455	5.e-002	11.406
16142	5.7276	2.2727	0.	4468.1
16143	5.6352	2.3636	0.	4485.6
16144	5.7276	2.3636	5.e-002	11.416
16145	5.7276	2.0909	0.	4477.5
16146	5.6352	2.1818	0.	4494.4
16147	5.7276	2.1818	5.e-002	11.429
16148	5.7276	1.9091	0.	4488.8
16149	5.6352	2.	0.	4505.2
16150	5.7276	2.	5.e-002	11.442
16151	5.7276	1.7273	0.	4502.
16152	5.6352	1.8182	0.	4518.
16153	5.7276	1.8182	5.e-002	11.456
16154	5.7276	1.5455	0.	4516.8
16155	5.6352	1.6364	0.	4532.6
16156	5.7276	1.6364	5.e-002	11.468
16157	5.7276	1.3636	0.	4533.2
16158	5.6352	1.4545	0.	4548.9
16159	5.7276	1.4545	5.e-002	11.477
16160	5.7276	1.1818	0.	4551.
16161	5.6352	1.2727	0.	4566.7
16162	5.7276	1.2727	5.e-002	11.482
16163	5.7276	1.	0.	4570.
16164	5.6352	1.0909	0.	4585.9
16165	5.7276	1.0909	5.e-002	11.481
16166	5.7276	0.81818	0.	4590.2
16167	5.6352	0.90909	0.	4606.3
16168	5.7276	0.90909	5.e-002	11.473
16169	5.7276	0.63636	0.	4611.2
16170	5.6352	0.72727	0.	4627.8
16171	5.7276	0.72727	5.e-002	11.458
16172	5.7276	0.45455	0.	4633.
16173	5.6352	0.54545	0.	4650.1
16174	5.7276	0.54545	5.e-002	11.426
16175	5.7276	0.27273	0.	4655.5
16176	5.6352	0.36364	0.	4673.2
16177	5.7276	0.36364	5.e-002	11.27
16178	5.6352	0.18182	0.	4697.
16179	5.7276	0.18182	5.e-002	9.4648
16180	5.7276	9.0909e-002	0.	4675.8
16181	5.5429	5.7273	0.	4714.6
16182	5.4505	5.8182	0.	4757.2
16183	5.5429	5.8182	5.e-002	10.291
16184	5.5429	5.9091	0.	4736.6
16185	5.5429	5.5455	0.	4690.3
16186	5.4505	5.6364	0.	4731.5
16187	5.5429	5.6364	5.e-002	11.52
16188	5.5429	5.3636	0.	4666.7
16189	5.4505	5.4545	0.	4706.7
16190	5.5429	5.4545	5.e-002	11.639
16191	5.5429	5.1818	0.	4644.
16192	5.4505	5.2727	0.	4682.5
16193	5.5429	5.2727	5.e-002	11.669
16194	5.5429	5.	0.	4622.2
16195	5.4505	5.0909	0.	4659.3
16196	5.5429	5.0909	5.e-002	11.684
16197	5.5429	4.8182	0.	4601.6
16198	5.4505	4.9091	0.	4637.3
16199	5.5429	4.9091	5.e-002	11.69
16200	5.5429	4.6364	0.	4582.4
16201	5.4505	4.7273	0.	4616.5
16202	5.5429	4.7273	5.e-002	11.689
16203	5.5429	4.4545	0.	4564.7
16204	5.4505	4.5455	0.	4597.2
16205	5.5429	4.5455	5.e-002	11.681
16206	5.5429	4.2727	0.	4548.6
16207	5.4505	4.3636	0.	4579.6
16208	5.5429	4.3636	5.e-002	11.669
16209	5.5429	4.0909	0.	4534.4
16210	5.4505	4.1818	0.	4563.8
16211	5.5429	4.1818	5.e-002	11.654
16212	5.5429	3.9091	0.	4522.2
16213	5.4505	4.	0.	4550.
16214	5.5429	4.	5.e-002	11.637
16215	5.5429	3.7273	0.	4512.
16216	5.4505	3.8182	0.	4538.3
16217	5.5429	3.8182	5.e-002	11.62
16218	5.5429	3.5455	0.	4503.9
16219	5.4505	3.6364	0.	4528.8
16220	5.5429	3.6364	5.e-002	11.605
16221	5.5429	3.3636	0.	4498.1
16222	5.4505	3.4545	0.	4521.6
16223	5.5429	3.4545	5.e-002	11.592
16224	5.5429	3.1818	0.	4494.6
16225	5.4505	3.2727	0.	4516.7
16226	5.5429	3.2727	5.e-002	11.583
16227	5.5429	3.	0.	4493.5
16228	5.4505	3.0909	0.	4514.3
16229	5.5429	3.0909	5.e-002	11.579
16230	5.5429	2.8182	0.	4494.6
16231	5.4505	2.9091	0.	4514.3
16232	5.5429	2.9091	5.e-002	11.579
16233	5.5429	2.6364	0.	4498.1
16234	5.4505	2.7273	0.	4516.7
16235	5.5429	2.7273	5.e-002	11.583
16236	5.5429	2.4545	0.	4503.9
16237	5.4505	2.5455	0.	4521.6
16238	5.5429	2.5455	5.e-002	11.592
16239	5.5429	2.2727	0.	4512.
16240	5.4505	2.3636	0.	4528.8
16241	5.5429	2.3636	5.e-002	11.605
16242	5.5429	2.0909	0.	4522.2
16243	5.4505	2.1818	0.	4538.3
16244	5.5429	2.1818	5.e-002	11.62
16245	5.5429	1.9091	0.	4534.4
16246	5.4505	2.	0.	4550.
16247	5.5429	2.	5.e-002	11.637
16248	5.5429	1.7273	0.	4548.6
16249	5.4505	1.8182	0.	4563.8
16250	5.5429	1.8182	5.e-002	11.654
16251	5.5429	1.5455	0.	4564.7
16252	5.4505	1.6364	0.	4579.6
16253	5.5429	1.6364	5.e-002	11.669
16254	5.5429	1.3636	0.	4582.4
16255	5.4505	1.4545	0.	4597.2
16256	5.5429	1.4545	5.e-002	11.681
16257	5.5429	1.1818	0.	4601.6
16258	5.4505	1.2727	0.	4616.5
16259	5.5429	1.2727	5.e-002	11.689
16260	5.5429	1.	0.	4622.2
16261	5.4505	1.0909	0.	4637.3
16262	5.5429	1.0909	5.e-002	11.69
16263	5.5429	0.81818	0.	4644.
16264	5.4505	0.90909	0.	4659.3
16265	5.5429	0.90909	5.e-002	11.684
16266	5.5429	0.63636	0.	4666.7
16267	5.4505	0.72727	0.	4682.5
16268	5.5429	0.72727	5.e-002	11.669
16269	5.5429	0.45455	0.	4690.3
16270	5.4505	0.54545	0.	4706.7
16271	5.5429	0.54545	5.e-002	11.639
16272	5.5429	0.27273	0.	4714.6
16273	5.4505	0.36364	0.	4731.5
16274	5.5429	0.36364	5.e-002	11.52
16275	5.4505	0.18182	0.	4757.2
16276	5.5429	0.18182	5.e-002	10.291
16277	5.5429	9.0909e-002	0.	4736.6
16278	5.3581	5.7273	0.	4774.2
16279	5.2657	5.8182	0.	4818.
16280	5.3581	5.8182	5.e-002	11.182
16281	5.3581	5.9091	0.	4798.
16282	5.3581	5.5455	0.	4747.9
16283	5.2657	5.6364	0.	4790.3
16284	5.3581	5.6364	5.e-002	11.791
16285	5.3581	5.3636	0.	4722.5
16286	5.2657	5.4545	0.	4763.5
16287	5.3581	5.4545	5.e-002	11.872
16288	5.3581	5.1818	0.	4697.9
16289	5.2657	5.2727	0.	4737.4
16290	5.3581	5.2727	5.e-002	11.899
16291	5.3581	5.	0.	4674.4
16292	5.2657	5.0909	0.	4712.3
16293	5.3581	5.0909	5.e-002	11.914
16294	5.3581	4.8182	0.	4652.1
16295	5.2657	4.9091	0.	4688.5
16296	5.3581	4.9091	5.e-002	11.919
16297	5.3581	4.6364	0.	4631.3
16298	5.2657	4.7273	0.	4666.
16299	5.3581	4.7273	5.e-002	11.915
16300	5.3581	4.4545	0.	4612.2
16301	5.2657	4.5455	0.	4645.2
16302	5.3581	4.5455	5.e-002	11.905
16303	5.3581	4.2727	0.	4594.8
16304	5.2657	4.3636	0.	4626.2
16305	5.3581	4.3636	5.e-002	11.889
16306	5.3581	4.0909	0.	4579.4
16307	5.2657	4.1818	0.	4609.1
16308	5.3581	4.1818	5.e-002	11.87
16309	5.3581	3.9091	0.	4566.2
16310	5.2657	4.	0.	4594.2
16311	5.3581	4.	5.e-002	11.849
16312	5.3581	3.7273	0.	4555.1
16313	5.2657	3.8182	0.	4581.5
16314	5.3581	3.8182	5.e-002	11.829
16315	5.3581	3.5455	0.	4546.4
16316	5.2657	3.6364	0.	4571.2
16317	5.3581	3.6364	5.e-002	11.811
16318	5.3581	3.3636	0.	4540.2
16319	5.2657	3.4545	0.	4563.4
16320	5.3581	3.4545	5.e-002	11.795
16321	5.3581	3.1818	0.	4536.4
16322	5.2657	3.2727	0.	4558.2
16323	5.3581	3.2727	5.e-002	11.785
16324	5.3581	3.	0.	4535.1
16325	5.2657	3.0909	0.	4555.5
16326	5.3581	3.0909	5.e-002	11.779
16327	5.3581	2.8182	0.	4536.4
16328	5.2657	2.9091	0.	4555.5
16329	5.3581	2.9091	5.e-002	11.779
16330	5.3581	2.6364	0.	4540.2
16331	5.2657	2.7273	0.	4558.2
16332	5.3581	2.7273	5.e-002	11.785
16333	5.3581	2.4545	0.	4546.4
16334	5.2657	2.5455	0.	4563.4
16335	5.3581	2.5455	5.e-002	11.795
16336	5.3581	2.2727	0.	4555.1
16337	5.2657	2.3636	0.	4571.2
16338	5.3581	2.3636	5.e-002	11.811
16339	5.3581	2.0909	0.	4566.2
16340	5.2657	2.1818	0.	4581.5
16341	5.3581	2.1818	5.e-002	11.829
16342	5.3581	1.9091	0.	4579.4
16343	5.2657	2.	0.	4594.2
16344	5.3581	2.	5.e-002	11.849
16345	5.3581	1.7273	0.	4594.8
16346	5.2657	1.8182	0.	4609.1
16347	5.3581	1.8182	5.e-002	11.87
16348	5.3581	1.5455	0.	4612.2
16349	5.2657	1.6364	0.	4626.2
16350	5.3581	1.6364	5.e-002	11.889
16351	5.3581	1.3636	0.	4631.3
16352	5.2657	1.4545	0.	4645.2
16353	5.3581	1.4545	5.e-002	11.905
16354	5.3581	1.1818	0.	4652.1
16355	5.2657	1.2727	0.	4666.
16356	5.3581	1.2727	5.e-002	11.915
16357	5.3581	1.	0.	4674.4
16358	5.2657	1.0909	0.	4688.5
16359	5.3581	1.0909	5.e-002	11.919
16360	5.3581	0.81818	0.	4697.9
16361	5.2657	0.90909	0.	4712.3
16362	5.3581	0.90909	5.e-002	11.914
16363	5.3581	0.63636	0.	4722.5
16364	5.2657	0.72727	0.	4737.4
16365	5.3581	0.72727	5.e-002	11.899
16366	5.3581	0.45455	0.	4747.9
16367	5.2657	0.54545	0.	4763.5
16368	5.3581	0.54545	5.e-002	11.872
16369	5.3581	0.27273	0.	4774.2
16370	5.2657	0.36364	0.	4790.3
16371	5.3581	0.36364	5.e-002	11.791
16372	5.2657	0.18182	0.	4818.
16373	5.3581	0.18182	5.e-002	11.182
16374	5.3581	9.0909e-002	0.	4798.
16375	5.1733	5.7273	0.	4834.2
16376	5.081	5.8182	0.	4879.5
16377	5.1733	5.8182	5.e-002	12.142
16378	5.1733	5.9091	0.	4859.9
16379	5.1733	5.5455	0.	4805.9
16380	5.081	5.6364	0.	4849.5
16381	5.1733	5.6364	5.e-002	12.085
16382	5.1733	5.3636	0.	4778.4
16383	5.081	5.4545	0.	4820.5
16384	5.1733	5.4545	5.e-002	12.125
16385	5.1733	5.1818	0.	4751.8
16386	5.081	5.2727	0.	4792.4
16387	5.1733	5.2727	5.e-002	12.15
16388	5.1733	5.	0.	4726.4
16389	5.081	5.0909	0.	4765.3
16390	5.1733	5.0909	5.e-002	12.165
16391	5.1733	4.8182	0.	4702.4
16392	5.081	4.9091	0.	4739.5
16393	5.1733	4.9091	5.e-002	12.168
16394	5.1733	4.6364	0.	4679.9
16395	5.081	4.7273	0.	4715.3
16396	5.1733	4.7273	5.e-002	12.162
16397	5.1733	4.4545	0.	4659.2
16398	5.081	4.5455	0.	4692.8
16399	5.1733	4.5455	5.e-002	12.148
16400	5.1733	4.2727	0.	4640.4
16401	5.081	4.3636	0.	4672.2
16402	5.1733	4.3636	5.e-002	12.129
16403	5.1733	4.0909	0.	4623.8
16404	5.081	4.1818	0.	4653.8
16405	5.1733	4.1818	5.e-002	12.106
16406	5.1733	3.9091	0.	4609.5
16407	5.081	4.	0.	4637.6
16408	5.1733	4.	5.e-002	12.081
16409	5.1733	3.7273	0.	4597.6
16410	5.081	3.8182	0.	4623.9
16411	5.1733	3.8182	5.e-002	12.057
16412	5.1733	3.5455	0.	4588.2
16413	5.081	3.6364	0.	4612.8
16414	5.1733	3.6364	5.e-002	12.035
16415	5.1733	3.3636	0.	4581.4
16416	5.081	3.4545	0.	4604.4
16417	5.1733	3.4545	5.e-002	12.017
16418	5.1733	3.1818	0.	4577.3
16419	5.081	3.2727	0.	4598.8
16420	5.1733	3.2727	5.e-002	12.005
16421	5.1733	3.	0.	4576.
16422	5.081	3.0909	0.	4595.9
16423	5.1733	3.0909	5.e-002	11.998
16424	5.1733	2.8182	0.	4577.3
16425	5.081	2.9091	0.	4595.9
16426	5.1733	2.9091	5.e-002	11.998
16427	5.1733	2.6364	0.	4581.4
16428	5.081	2.7273	0.	4598.8
16429	5.1733	2.7273	5.e-002	12.005
16430	5.1733	2.4545	0.	4588.2
16431	5.081	2.5455	0.	4604.4
16432	5.1733	2.5455	5.e-002	12.017
16433	5.1733	2.2727	0.	4597.6
16434	5.081	2.3636	0.	4612.8
16435	5.1733	2.3636	5.e-002	12.035
16436	5.1733	2.0909	0.	4609.5
16437	5.081	2.1818	0.	4623.9
16438	5.1733	2.1818	5.e-002	12.057
16439	5.1733	1.9091	0.	4623.8
16440	5.081	2.	0.	4637.6
16441	5.1733	2.	5.e-002	12.081
16442	5.1733	1.7273	0.	4640.4
16443	5.081	1.8182	0.	4653.8
16444	5.1733	1.8182	5.e-002	12.106
16445	5.1733	1.5455	0.	4659.2
16446	5.081	1.6364	0.	4672.2
16447	5.1733	1.6364	5.e-002	12.129
16448	5.1733	1.3636	0.	4679.9
16449	5.081	1.4545	0.	4692.8
16450	5.1733	1.4545	5.e-002	12.148
16451	5.1733	1.1818	0.	4702.4
16452	5.081	1.2727	0.	4715.3
16453	5.1733	1.2727	5.e-002	12.162
16454	5.1733	1.	0.	4726.4
16455	5.081	1.0909	0.	4739.5
16456	5.1733	1.0909	5.e-002	12.168
16457	5.1733	0.81818	0.	4751.8
16458	5.081	0.90909	0.	4765.3
16459	5.1733	0.90909	5.e-002	12.165
16460	5.1733	0.63636	0.	4778.4
16461	5.081	0.72727	0.	4792.4
16462	5.1733	0.72727	5.e-002	12.15
16463	5.1733	0.45455	0.	4805.9
16464	5.081	0.54545	0.	4820.5
16465	5.1733	0.54545	5.e-002	12.125
16466	5.1733	0.27273	0.	4834.2
16467	5.081	0.36364	0.	4849.5
16468	5.1733	0.36364	5.e-002	12.085
16469	5.081	0.18182	0.	4879.5
16470	5.1733	0.18182	5.e-002	12.142
16471	5.1733	9.0909e-002	0.	4859.9
16472	4.9886	5.7273	0.	4894.8
16473	4.8962	5.8182	0.	4941.5
16474	4.9886	5.8182	5.e-002	13.174
16475	4.9886	5.9091	0.	4922.4
16476	4.9886	5.5455	0.	4864.2
16477	4.8962	5.6364	0.	4909.2
16478	4.9886	5.6364	5.e-002	12.403
16479	4.9886	5.3636	0.	4834.5
16480	4.8962	5.4545	0.	4877.9
16481	4.9886	5.4545	5.e-002	12.401
16482	4.9886	5.1818	0.	4805.8
16483	4.8962	5.2727	0.	4847.5
16484	4.9886	5.2727	5.e-002	12.424
16485	4.9886	5.	0.	4778.4
16486	4.8962	5.0909	0.	4818.3
16487	4.9886	5.0909	5.e-002	12.438
16488	4.9886	4.8182	0.	4752.4
16489	4.8962	4.9091	0.	4790.4
16490	4.9886	4.9091	5.e-002	12.44
16491	4.9886	4.6364	0.	4728.1
16492	4.8962	4.7273	0.	4764.2
16493	4.9886	4.7273	5.e-002	12.432
16494	4.9886	4.4545	0.	4705.8
16495	4.8962	4.5455	0.	4739.9
16496	4.9886	4.5455	5.e-002	12.415
16497	4.9886	4.2727	0.	4685.5
16498	4.8962	4.3636	0.	4717.7
16499	4.9886	4.3636	5.e-002	12.392
16500	4.9886	4.0909	0.	4667.6
16501	4.8962	4.1818	0.	4697.8
16502	4.9886	4.1818	5.e-002	12.365
16503	4.9886	3.9091	0.	4652.1
16504	4.8962	4.	0.	4680.4
16505	4.9886	4.	5.e-002	12.336
16506	4.9886	3.7273	0.	4639.2
16507	4.8962	3.8182	0.	4665.7
16508	4.9886	3.8182	5.e-002	12.307
16509	4.9886	3.5455	0.	4629.1
16510	4.8962	3.6364	0.	4653.7
16511	4.9886	3.6364	5.e-002	12.282
16512	4.9886	3.3636	0.	4621.8
16513	4.8962	3.4545	0.	4644.6
16514	4.9886	3.4545	5.e-002	12.261
16515	4.9886	3.1818	0.	4617.4
16516	4.8962	3.2727	0.	4638.5
16517	4.9886	3.2727	5.e-002	12.246
16518	4.9886	3.	0.	4615.9
16519	4.8962	3.0909	0.	4635.4
16520	4.9886	3.0909	5.e-002	12.238
16521	4.9886	2.8182	0.	4617.4
16522	4.8962	2.9091	0.	4635.4
16523	4.9886	2.9091	5.e-002	12.238
16524	4.9886	2.6364	0.	4621.8
16525	4.8962	2.7273	0.	4638.5
16526	4.9886	2.7273	5.e-002	12.246
16527	4.9886	2.4545	0.	4629.1
16528	4.8962	2.5455	0.	4644.6
16529	4.9886	2.5455	5.e-002	12.261
16530	4.9886	2.2727	0.	4639.2
16531	4.8962	2.3636	0.	4653.7
16532	4.9886	2.3636	5.e-002	12.282
16533	4.9886	2.0909	0.	4652.1
16534	4.8962	2.1818	0.	4665.7
16535	4.9886	2.1818	5.e-002	12.307
16536	4.9886	1.9091	0.	4667.6
16537	4.8962	2.	0.	4680.4
16538	4.9886	2.	5.e-002	12.336
16539	4.9886	1.7273	0.	4685.5
16540	4.8962	1.8182	0.	4697.8
16541	4.9886	1.8182	5.e-002	12.365
16542	4.9886	1.5455	0.	4705.8
16543	4.8962	1.6364	0.	4717.7
16544	4.9886	1.6364	5.e-002	12.392
16545	4.9886	1.3636	0.	4728.1
16546	4.8962	1.4545	0.	4739.9
16547	4.9886	1.4545	5.e-002	12.415
16548	4.9886	1.1818	0.	4752.4
16549	4.8962	1.2727	0.	4764.2
16550	4.9886	1.2727	5.e-002	12.432
16551	4.9886	1.	0.	4778.4
16552	4.8962	1.0909	0.	4790.4
16553	4.9886	1.0909	5.e-002	12.44
16554	4.9886	0.81818	0.	4805.8
16555	4.8962	0.90909	0.	4818.3
16556	4.9886	0.90909	5.e-002	12.438
16557	4.9886	0.63636	0.	4834.5
16558	4.8962	0.72727	0.	4847.5
16559	4.9886	0.72727	5.e-002	12.424
16560	4.9886	0.45455	0.	4864.2
16561	4.8962	0.54545	0.	4877.9
16562	4.9886	0.54545	5.e-002	12.401
16563	4.9886	0.27273	0.	4894.8
16564	4.8962	0.36364	0.	4909.2
16565	4.9886	0.36364	5.e-002	12.403
16566	4.8962	0.18182	0.	4941.5
16567	4.9886	0.18182	5.e-002	13.174
16568	4.9886	9.0909e-002	0.	4922.4
16569	4.8038	5.7273	0.	4955.9
16570	4.7114	5.8182	0.	5004.3
16571	4.8038	5.8182	5.e-002	14.284
16572	4.8038	5.9091	0.	4985.6
16573	4.8038	5.5455	0.	4922.8
16574	4.7114	5.6364	0.	4969.3
16575	4.8038	5.6364	5.e-002	12.748
16576	4.8038	5.3636	0.	4890.8
16577	4.7114	5.4545	0.	4935.5
16578	4.8038	5.4545	5.e-002	12.701
16579	4.8038	5.1818	0.	4859.9
16580	4.7114	5.2727	0.	4902.7
16581	4.8038	5.2727	5.e-002	12.723
16582	4.8038	5.	0.	4830.3
16583	4.7114	5.0909	0.	4871.1
16584	4.8038	5.0909	5.e-002	12.738
16585	4.8038	4.8182	0.	4802.2
16586	4.7114	4.9091	0.	4841.1
16587	4.8038	4.9091	5.e-002	12.739
16588	4.8038	4.6364	0.	4776.
16589	4.7114	4.7273	0.	4812.8
16590	4.8038	4.7273	5.e-002	12.728
16591	4.8038	4.4545	0.	4751.9
16592	4.7114	4.5455	0.	4786.6
16593	4.8038	4.5455	5.e-002	12.708
16594	4.8038	4.2727	0.	4730.
16595	4.7114	4.3636	0.	4762.7
16596	4.8038	4.3636	5.e-002	12.681
16597	4.8038	4.0909	0.	4710.7
16598	4.7114	4.1818	0.	4741.2
16599	4.8038	4.1818	5.e-002	12.649
16600	4.8038	3.9091	0.	4694.
16601	4.7114	4.	0.	4722.5
16602	4.8038	4.	5.e-002	12.615
16603	4.8038	3.7273	0.	4680.1
16604	4.7114	3.8182	0.	4706.6
16605	4.8038	3.8182	5.e-002	12.582
16606	4.8038	3.5455	0.	4669.2
16607	4.7114	3.6364	0.	4693.7
16608	4.8038	3.6364	5.e-002	12.553
16609	4.8038	3.3636	0.	4661.3
16610	4.7114	3.4545	0.	4683.9
16611	4.8038	3.4545	5.e-002	12.529
16612	4.8038	3.1818	0.	4656.6
16613	4.7114	3.2727	0.	4677.4
16614	4.8038	3.2727	5.e-002	12.512
16615	4.8038	3.	0.	4655.
16616	4.7114	3.0909	0.	4674.1
16617	4.8038	3.0909	5.e-002	12.503
16618	4.8038	2.8182	0.	4656.6
16619	4.7114	2.9091	0.	4674.1
16620	4.8038	2.9091	5.e-002	12.503
16621	4.8038	2.6364	0.	4661.3
16622	4.7114	2.7273	0.	4677.4
16623	4.8038	2.7273	5.e-002	12.512
16624	4.8038	2.4545	0.	4669.2
16625	4.7114	2.5455	0.	4683.9
16626	4.8038	2.5455	5.e-002	12.529
16627	4.8038	2.2727	0.	4680.1
16628	4.7114	2.3636	0.	4693.7
16629	4.8038	2.3636	5.e-002	12.553
16630	4.8038	2.0909	0.	4694.
16631	4.7114	2.1818	0.	4706.6
16632	4.8038	2.1818	5.e-002	12.582
16633	4.8038	1.9091	0.	4710.7
16634	4.7114	2.	0.	4722.5
16635	4.8038	2.	5.e-002	12.615
16636	4.8038	1.7273	0.	4730.
16637	4.7114	1.8182	0.	4741.2
16638	4.8038	1.8182	5.e-002	12.649
16639	4.8038	1.5455	0.	4751.9
16640	4.7114	1.6364	0.	4762.7
16641	4.8038	1.6364	5.e-002	12.681
16642	4.8038	1.3636	0.	4776.
16643	4.7114	1.4545	0.	4786.6
16644	4.8038	1.4545	5.e-002	12.708
16645	4.8038	1.1818	0.	4802.2
16646	4.7114	1.2727	0.	4812.8
16647	4.8038	1.2727	5.e-002	12.728
16648	4.8038	1.	0.	4830.3
16649	4.7114	1.0909	0.	4841.1
16650	4.8038	1.0909	5.e-002	12.739
16651	4.8038	0.81818	0.	4859.9
16652	4.7114	0.90909	0.	4871.1
16653	4.8038	0.90909	5.e-002	12.738
16654	4.8038	0.63636	0.	4890.8
16655	4.7114	0.72727	0.	4902.7
16656	4.8038	0.72727	5.e-002	12.723
16657	4.8038	0.45455	0.	4922.8
16658	4.7114	0.54545	0.	4935.5
16659	4.8038	0.54545	5.e-002	12.701
16660	4.8038	0.27273	0.	4955.9
16661	4.7114	0.36364	0.	4969.3
16662	4.8038	0.36364	5.e-002	12.748
16663	4.7114	0.18182	0.	5004.3
16664	4.8038	0.18182	5.e-002	14.284
16665	4.8038	9.0909e-002	0.	4985.6
16666	4.619	5.7273	0.	5017.6
16667	4.5267	5.8182	0.	5067.7
16668	4.619	5.8182	5.e-002	15.475
16669	4.619	5.9091	0.	5049.3
16670	4.619	5.5455	0.	4981.9
16671	4.5267	5.6364	0.	5029.8
16672	4.619	5.6364	5.e-002	13.122
16673	4.619	5.3636	0.	4947.3
16674	4.5267	5.4545	0.	4993.3
16675	4.619	5.4545	5.e-002	13.028
16676	4.619	5.1818	0.	4913.9
16677	4.5267	5.2727	0.	4958.
16678	4.619	5.2727	5.e-002	13.05
16679	4.619	5.	0.	4882.
16680	4.5267	5.0909	0.	4923.9
16681	4.619	5.0909	5.e-002	13.065
16682	4.619	4.8182	0.	4851.7
16683	4.5267	4.9091	0.	4891.6
16684	4.619	4.9091	5.e-002	13.066
16685	4.619	4.6364	0.	4823.5
16686	4.5267	4.7273	0.	4861.1
16687	4.619	4.7273	5.e-002	13.054
16688	4.619	4.4545	0.	4797.4
16689	4.5267	4.5455	0.	4832.8
16690	4.619	4.5455	5.e-002	13.031
16691	4.619	4.2727	0.	4773.9
16692	4.5267	4.3636	0.	4807.1
16693	4.619	4.3636	5.e-002	12.999
16694	4.619	4.0909	0.	4753.1
16695	4.5267	4.1818	0.	4784.
16696	4.619	4.1818	5.e-002	12.963
16697	4.619	3.9091	0.	4735.1
16698	4.5267	4.	0.	4763.8
16699	4.619	4.	5.e-002	12.924
16700	4.619	3.7273	0.	4720.2
16701	4.5267	3.8182	0.	4746.7
16702	4.619	3.8182	5.e-002	12.886
16703	4.619	3.5455	0.	4708.4
16704	4.5267	3.6364	0.	4732.9
16705	4.619	3.6364	5.e-002	12.852
16706	4.619	3.3636	0.	4700.
16707	4.5267	3.4545	0.	4722.4
16708	4.619	3.4545	5.e-002	12.825
16709	4.619	3.1818	0.	4694.9
16710	4.5267	3.2727	0.	4715.3
16711	4.619	3.2727	5.e-002	12.805
16712	4.619	3.	0.	4693.2
16713	4.5267	3.0909	0.	4711.8
16714	4.619	3.0909	5.e-002	12.795
16715	4.619	2.8182	0.	4694.9
16716	4.5267	2.9091	0.	4711.8
16717	4.619	2.9091	5.e-002	12.795
16718	4.619	2.6364	0.	4700.
16719	4.5267	2.7273	0.	4715.3
16720	4.619	2.7273	5.e-002	12.805
16721	4.619	2.4545	0.	4708.4
16722	4.5267	2.5455	0.	4722.4
16723	4.619	2.5455	5.e-002	12.825
16724	4.619	2.2727	0.	4720.2
16725	4.5267	2.3636	0.	4732.9
16726	4.619	2.3636	5.e-002	12.852
16727	4.619	2.0909	0.	4735.1
16728	4.5267	2.1818	0.	4746.7
16729	4.619	2.1818	5.e-002	12.886
16730	4.619	1.9091	0.	4753.1
16731	4.5267	2.	0.	4763.8
16732	4.619	2.	5.e-002	12.924
16733	4.619	1.7273	0.	4773.9
16734	4.5267	1.8182	0.	4784.
16735	4.619	1.8182	5.e-002	12.963
16736	4.619	1.5455	0.	4797.4
16737	4.5267	1.6364	0.	4807.1
16738	4.619	1.6364	5.e-002	12.999
16739	4.619	1.3636	0.	4823.5
16740	4.5267	1.4545	0.	4832.8
16741	4.619	1.4545	5.e-002	13.031
16742	4.619	1.1818	0.	4851.7
16743	4.5267	1.2727	0.	4861.1
16744	4.619	1.2727	5.e-002	13.054
16745	4.619	1.	0.	4882.
16746	4.5267	1.0909	0.	4891.6
16747	4.619	1.0909	5.e-002	13.066
16748	4.619	0.81818	0.	4913.9
16749	4.5267	0.90909	0.	4923.9
16750	4.619	0.90909	5.e-002	13.065
16751	4.619	0.63636	0.	4947.3
16752	4.5267	0.72727	0.	4958.
16753	4.619	0.72727	5.e-002	13.05
16754	4.619	0.45455	0.	4981.9
16755	4.5267	0.54545	0.	4993.3
16756	4.619	0.54545	5.e-002	13.028
16757	4.619	0.27273	0.	5017.6
16758	4.5267	0.36364	0.	5029.8
16759	4.619	0.36364	5.e-002	13.121
16760	4.5267	0.18182	0.	5067.7
16761	4.619	0.18182	5.e-002	15.475
16762	4.619	9.0909e-002	0.	5049.3
16763	4.4343	5.7273	0.	5079.9
16764	4.3419	5.8182	0.	5131.7
16765	4.4343	5.8182	5.e-002	16.751
16766	4.4343	5.9091	0.	5113.7
16767	4.4343	5.5455	0.	5041.3
16768	4.3419	5.6364	0.	5090.8
16769	4.4343	5.6364	5.e-002	13.524
16770	4.4343	5.3636	0.	5004.
16771	4.3419	5.4545	0.	5051.4
16772	4.4343	5.4545	5.e-002	13.385
16773	4.4343	5.1818	0.	4968.
16774	4.3419	5.2727	0.	5013.3
16775	4.4343	5.2727	5.e-002	13.407
16776	4.4343	5.	0.	4933.5
16777	4.3419	5.0909	0.	4976.6
16778	4.4343	5.0909	5.e-002	13.424
16779	4.4343	4.8182	0.	4900.9
16780	4.3419	4.9091	0.	4941.7
16781	4.4343	4.9091	5.e-002	13.426
16782	4.4343	4.6364	0.	4870.5
16783	4.3419	4.7273	0.	4908.9
16784	4.4343	4.7273	5.e-002	13.412
16785	4.4343	4.4545	0.	4842.5
16786	4.3419	4.5455	0.	4878.5
16787	4.4343	4.5455	5.e-002	13.386
16788	4.4343	4.2727	0.	4817.1
16789	4.3419	4.3636	0.	4850.8
16790	4.4343	4.3636	5.e-002	13.35
16791	4.4343	4.0909	0.	4794.7
16792	4.3419	4.1818	0.	4826.
16793	4.4343	4.1818	5.e-002	13.309
16794	4.4343	3.9091	0.	4775.4
16795	4.3419	4.	0.	4804.4
16796	4.4343	4.	5.e-002	13.265
16797	4.4343	3.7273	0.	4759.4
16798	4.3419	3.8182	0.	4786.
16799	4.4343	3.8182	5.e-002	13.223
16800	4.4343	3.5455	0.	4746.8
16801	4.3419	3.6364	0.	4771.2
16802	4.4343	3.6364	5.e-002	13.185
16803	4.4343	3.3636	0.	4737.7
16804	4.3419	3.4545	0.	4760.
16805	4.4343	3.4545	5.e-002	13.154
16806	4.4343	3.1818	0.	4732.3
16807	4.3419	3.2727	0.	4752.4
16808	4.4343	3.2727	5.e-002	13.132
16809	4.4343	3.	0.	4730.4
16810	4.3419	3.0909	0.	4748.6
16811	4.4343	3.0909	5.e-002	13.12
16812	4.4343	2.8182	0.	4732.3
16813	4.3419	2.9091	0.	4748.6
16814	4.4343	2.9091	5.e-002	13.12
16815	4.4343	2.6364	0.	4737.7
16816	4.3419	2.7273	0.	4752.4
16817	4.4343	2.7273	5.e-002	13.132
16818	4.4343	2.4545	0.	4746.8
16819	4.3419	2.5455	0.	4760.
16820	4.4343	2.5455	5.e-002	13.154
16821	4.4343	2.2727	0.	4759.4
16822	4.3419	2.3636	0.	4771.2
16823	4.4343	2.3636	5.e-002	13.185
16824	4.4343	2.0909	0.	4775.4
16825	4.3419	2.1818	0.	4786.
16826	4.4343	2.1818	5.e-002	13.223
16827	4.4343	1.9091	0.	4794.7
16828	4.3419	2.	0.	4804.4
16829	4.4343	2.	5.e-002	13.265
16830	4.4343	1.7273	0.	4817.1
16831	4.3419	1.8182	0.	4826.
16832	4.4343	1.8182	5.e-002	13.309
16833	4.4343	1.5455	0.	4842.5
16834	4.3419	1.6364	0.	4850.8
16835	4.4343	1.6364	5.e-002	13.35
16836	4.4343	1.3636	0.	4870.5
16837	4.3419	1.4545	0.	4878.5
16838	4.4343	1.4545	5.e-002	13.386
16839	4.4343	1.1818	0.	4900.9
16840	4.3419	1.2727	0.	4908.9
16841	4.4343	1.2727	5.e-002	13.412
16842	4.4343	1.	0.	4933.5
16843	4.3419	1.0909	0.	4941.7
16844	4.4343	1.0909	5.e-002	13.426
16845	4.4343	0.81818	0.	4968.
16846	4.3419	0.90909	0.	4976.6
16847	4.4343	0.90909	5.e-002	13.424
16848	4.4343	0.63636	0.	5004.
16849	4.3419	0.72727	0.	5013.3
16850	4.4343	0.72727	5.e-002	13.407
16851	4.4343	0.45455	0.	5041.3
16852	4.3419	0.54545	0.	5051.4
16853	4.4343	0.54545	5.e-002	13.385
16854	4.4343	0.27273	0.	5079.9
16855	4.3419	0.36364	0.	5090.8
16856	4.4343	0.36364	5.e-002	13.524
16857	4.3419	0.18182	0.	5131.7
16858	4.4343	0.18182	5.e-002	16.751
16859	4.4343	9.0909e-002	0.	5113.7
16860	4.2495	5.7273	0.	5142.7
16861	4.1571	5.8182	0.	5196.5
16862	4.2495	5.8182	5.e-002	18.117
16863	4.2495	5.9091	0.	5178.7
16864	4.2495	5.5455	0.	5101.
16865	4.1571	5.6364	0.	5152.2
16866	4.2495	5.6364	5.e-002	13.959
16867	4.2495	5.3636	0.	5060.8
16868	4.1571	5.4545	0.	5109.8
16869	4.2495	5.4545	5.e-002	13.773
16870	4.2495	5.1818	0.	5022.
16871	4.1571	5.2727	0.	5068.7
16872	4.2495	5.2727	5.e-002	13.797
16873	4.2495	5.	0.	4984.9
16874	4.1571	5.0909	0.	5029.2
16875	4.2495	5.0909	5.e-002	13.818
16876	4.2495	4.8182	0.	4949.8
16877	4.1571	4.9091	0.	4991.6
16878	4.2495	4.9091	5.e-002	13.821
16879	4.2495	4.6364	0.	4917.
16880	4.1571	4.7273	0.	4956.4
16881	4.2495	4.7273	5.e-002	13.806
16882	4.2495	4.4545	0.	4886.9
16883	4.1571	4.5455	0.	4923.7
16884	4.2495	4.5455	5.e-002	13.778
16885	4.2495	4.2727	0.	4859.7
16886	4.1571	4.3636	0.	4894.
16887	4.2495	4.3636	5.e-002	13.739
16888	4.2495	4.0909	0.	4835.7
16889	4.1571	4.1818	0.	4867.4
16890	4.2495	4.1818	5.e-002	13.693
16891	4.2495	3.9091	0.	4815.
16892	4.1571	4.	0.	4844.2
16893	4.2495	4.	5.e-002	13.644
16894	4.2495	3.7273	0.	4797.8
16895	4.1571	3.8182	0.	4824.6
16896	4.2495	3.8182	5.e-002	13.597
16897	4.2495	3.5455	0.	4784.4
16898	4.1571	3.6364	0.	4808.7
16899	4.2495	3.6364	5.e-002	13.555
16900	4.2495	3.3636	0.	4774.7
16901	4.1571	3.4545	0.	4796.8
16902	4.2495	3.4545	5.e-002	13.52
16903	4.2495	3.1818	0.	4768.8
16904	4.1571	3.2727	0.	4788.7
16905	4.2495	3.2727	5.e-002	13.496
16906	4.2495	3.	0.	4766.9
16907	4.1571	3.0909	0.	4784.7
16908	4.2495	3.0909	5.e-002	13.483
16909	4.2495	2.8182	0.	4768.8
16910	4.1571	2.9091	0.	4784.7
16911	4.2495	2.9091	5.e-002	13.483
16912	4.2495	2.6364	0.	4774.7
16913	4.1571	2.7273	0.	4788.7
16914	4.2495	2.7273	5.e-002	13.496
16915	4.2495	2.4545	0.	4784.4
16916	4.1571	2.5455	0.	4796.8
16917	4.2495	2.5455	5.e-002	13.52
16918	4.2495	2.2727	0.	4797.8
16919	4.1571	2.3636	0.	4808.7
16920	4.2495	2.3636	5.e-002	13.555
16921	4.2495	2.0909	0.	4815.
16922	4.1571	2.1818	0.	4824.6
16923	4.2495	2.1818	5.e-002	13.597
16924	4.2495	1.9091	0.	4835.7
16925	4.1571	2.	0.	4844.2
16926	4.2495	2.	5.e-002	13.644
16927	4.2495	1.7273	0.	4859.7
16928	4.1571	1.8182	0.	4867.4
16929	4.2495	1.8182	5.e-002	13.693
16930	4.2495	1.5455	0.	4886.9
16931	4.1571	1.6364	0.	4894.
16932	4.2495	1.6364	5.e-002	13.739
16933	4.2495	1.3636	0.	4917.
16934	4.1571	1.4545	0.	4923.7
16935	4.2495	1.4545	5.e-002	13.778
16936	4.2495	1.1818	0.	4949.8
16937	4.1571	1.2727	0.	4956.4
16938	4.2495	1.2727	5.e-002	13.806
16939	4.2495	1.	0.	4984.9
16940	4.1571	1.0909	0.	4991.6
16941	4.2495	1.0909	5.e-002	13.821
16942	4.2495	0.81818	0.	5022.
16943	4.1571	0.90909	0.	5029.2
16944	4.2495	0.90909	5.e-002	13.818
16945	4.2495	0.63636	0.	5060.8
16946	4.1571	0.72727	0.	5068.7
16947	4.2495	0.72727	5.e-002	13.797
16948	4.2495	0.45455	0.	5101.
16949	4.1571	0.54545	0.	5109.8
16950	4.2495	0.54545	5.e-002	13.773
16951	4.2495	0.27273	0.	5142.7
16952	4.1571	0.36364	0.	5152.2
16953	4.2495	0.36364	5.e-002	13.959
16954	4.1571	0.18182	0.	5196.5
16955	4.2495	0.18182	5.e-002	18.117
16956	4.2495	9.0909e-002	0.	5178.7
16957	4.0648	5.7273	0.	5206.
16958	3.9724	5.8182	0.	5262.
16959	4.0648	5.8182	5.e-002	19.576
16960	4.0648	5.9091	0.	5244.2
16961	4.0648	5.5455	0.	5161.
16962	3.9724	5.6364	0.	5214.
16963	4.0648	5.6364	5.e-002	14.427
16964	4.0648	5.3636	0.	5117.7
16965	3.9724	5.4545	0.	5168.3
16966	4.0648	5.4545	5.e-002	14.195
16967	4.0648	5.1818	0.	5075.9
16968	3.9724	5.2727	0.	5124.
16969	4.0648	5.2727	5.e-002	14.224
16970	4.0648	5.	0.	5035.9
16971	3.9724	5.0909	0.	5081.5
16972	4.0648	5.0909	5.e-002	14.251
16973	4.0648	4.8182	0.	4998.2
16974	3.9724	4.9091	0.	5041.1
16975	4.0648	4.9091	5.e-002	14.256
16976	4.0648	4.6364	0.	4963.
16977	3.9724	4.7273	0.	5003.3
16978	4.0648	4.7273	5.e-002	14.242
16979	4.0648	4.4545	0.	4930.8
16980	3.9724	4.5455	0.	4968.3
16981	4.0648	4.5455	5.e-002	14.212
16982	4.0648	4.2727	0.	4901.6
16983	3.9724	4.3636	0.	4936.4
16984	4.0648	4.3636	5.e-002	14.17
16985	4.0648	4.0909	0.	4875.9
16986	3.9724	4.1818	0.	4908.
16987	4.0648	4.1818	5.e-002	14.12
16988	4.0648	3.9091	0.	4853.8
16989	3.9724	4.	0.	4883.3
16990	4.0648	4.	5.e-002	14.067
16991	4.0648	3.7273	0.	4835.5
16992	3.9724	3.8182	0.	4862.4
16993	4.0648	3.8182	5.e-002	14.015
16994	4.0648	3.5455	0.	4821.1
16995	3.9724	3.6364	0.	4845.6
16996	4.0648	3.6364	5.e-002	13.969
16997	4.0648	3.3636	0.	4810.8
16998	3.9724	3.4545	0.	4832.8
16999	4.0648	3.4545	5.e-002	13.931
17000	4.0648	3.1818	0.	4804.6
17001	3.9724	3.2727	0.	4824.3
17002	4.0648	3.2727	5.e-002	13.905
17003	4.0648	3.	0.	4802.5
17004	3.9724	3.0909	0.	4820.
17005	4.0648	3.0909	5.e-002	13.891
17006	4.0648	2.8182	0.	4804.6
17007	3.9724	2.9091	0.	4820.
17008	4.0648	2.9091	5.e-002	13.891
17009	4.0648	2.6364	0.	4810.8
17010	3.9724	2.7273	0.	4824.3
17011	4.0648	2.7273	5.e-002	13.905
17012	4.0648	2.4545	0.	4821.1
17013	3.9724	2.5455	0.	4832.8
17014	4.0648	2.5455	5.e-002	13.931
17015	4.0648	2.2727	0.	4835.5
17016	3.9724	2.3636	0.	4845.6
17017	4.0648	2.3636	5.e-002	13.969
17018	4.0648	2.0909	0.	4853.8
17019	3.9724	2.1818	0.	4862.4
17020	4.0648	2.1818	5.e-002	14.015
17021	4.0648	1.9091	0.	4875.9
17022	3.9724	2.	0.	4883.3
17023	4.0648	2.	5.e-002	14.067
17024	4.0648	1.7273	0.	4901.6
17025	3.9724	1.8182	0.	4908.
17026	4.0648	1.8182	5.e-002	14.12
17027	4.0648	1.5455	0.	4930.8
17028	3.9724	1.6364	0.	4936.4
17029	4.0648	1.6364	5.e-002	14.17
17030	4.0648	1.3636	0.	4963.
17031	3.9724	1.4545	0.	4968.3
17032	4.0648	1.4545	5.e-002	14.212
17033	4.0648	1.1818	0.	4998.2
17034	3.9724	1.2727	0.	5003.3
17035	4.0648	1.2727	5.e-002	14.242
17036	4.0648	1.	0.	5035.9
17037	3.9724	1.0909	0.	5041.1
17038	4.0648	1.0909	5.e-002	14.256
17039	4.0648	0.81818	0.	5075.9
17040	3.9724	0.90909	0.	5081.5
17041	4.0648	0.90909	5.e-002	14.251
17042	4.0648	0.63636	0.	5117.7
17043	3.9724	0.72727	0.	5124.
17044	4.0648	0.72727	5.e-002	14.224
17045	4.0648	0.45455	0.	5161.
17046	3.9724	0.54545	0.	5168.3
17047	4.0648	0.54545	5.e-002	14.195
17048	4.0648	0.27273	0.	5206.
17049	3.9724	0.36364	0.	5214.
17050	4.0648	0.36364	5.e-002	14.427
17051	3.9724	0.18182	0.	5262.
17052	4.0648	0.18182	5.e-002	19.576
17053	4.0648	9.0909e-002	0.	5244.2
17054	3.88	5.7273	0.	5269.9
17055	3.7876	5.8182	0.	5328.1
17056	3.88	5.8182	5.e-002	21.131
17057	3.88	5.9091	0.	5310.3
17058	3.88	5.5455	0.	5221.2
17059	3.7876	5.6364	0.	5276.1
17060	3.88	5.6364	5.e-002	14.93
17061	3.88	5.3636	0.	5174.6
17062	3.7876	5.4545	0.	5226.8
17063	3.88	5.4545	5.e-002	14.655
17064	3.88	5.1818	0.	5129.6
17065	3.7876	5.2727	0.	5179.2
17066	3.88	5.2727	5.e-002	14.692
17067	3.88	5.	0.	5086.7
17068	3.7876	5.0909	0.	5133.5
17069	3.88	5.0909	5.e-002	14.726
17070	3.88	4.8182	0.	5046.2
17071	3.7876	4.9091	0.	5090.2
17072	3.88	4.9091	5.e-002	14.737
17073	3.88	4.6364	0.	5008.5
17074	3.7876	4.7273	0.	5049.7
17075	3.88	4.7273	5.e-002	14.725
17076	3.88	4.4545	0.	4974.
17077	3.7876	4.5455	0.	5012.2
17078	3.88	4.5455	5.e-002	14.694
17079	3.88	4.2727	0.	4942.8
17080	3.7876	4.3636	0.	4978.2
17081	3.88	4.3636	5.e-002	14.649
17082	3.88	4.0909	0.	4915.4
17083	3.7876	4.1818	0.	4948.
17084	3.88	4.1818	5.e-002	14.596
17085	3.88	3.9091	0.	4891.9
17086	3.7876	4.	0.	4921.7
17087	3.88	4.	5.e-002	14.539
17088	3.88	3.7273	0.	4872.5
17089	3.7876	3.8182	0.	4899.6
17090	3.88	3.8182	5.e-002	14.483
17091	3.88	3.5455	0.	4857.2
17092	3.7876	3.6364	0.	4881.7
17093	3.88	3.6364	5.e-002	14.434
17094	3.88	3.3636	0.	4846.3
17095	3.7876	3.4545	0.	4868.3
17096	3.88	3.4545	5.e-002	14.393
17097	3.88	3.1818	0.	4839.7
17098	3.7876	3.2727	0.	4859.3
17099	3.88	3.2727	5.e-002	14.365
17100	3.88	3.	0.	4837.5
17101	3.7876	3.0909	0.	4854.8
17102	3.88	3.0909	5.e-002	14.35
17103	3.88	2.8182	0.	4839.7
17104	3.7876	2.9091	0.	4854.8
17105	3.88	2.9091	5.e-002	14.35
17106	3.88	2.6364	0.	4846.3
17107	3.7876	2.7273	0.	4859.3
17108	3.88	2.7273	5.e-002	14.365
17109	3.88	2.4545	0.	4857.2
17110	3.7876	2.5455	0.	4868.3
17111	3.88	2.5455	5.e-002	14.393
17112	3.88	2.2727	0.	4872.5
17113	3.7876	2.3636	0.	4881.7
17114	3.88	2.3636	5.e-002	14.434
17115	3.88	2.0909	0.	4891.9
17116	3.7876	2.1818	0.	4899.6
17117	3.88	2.1818	5.e-002	14.483
17118	3.88	1.9091	0.	4915.4
17119	3.7876	2.	0.	4921.7
17120	3.88	2.	5.e-002	14.539
17121	3.88	1.7273	0.	4942.8
17122	3.7876	1.8182	0.	4948.
17123	3.88	1.8182	5.e-002	14.596
17124	3.88	1.5455	0.	4974.
17125	3.7876	1.6364	0.	4978.2
17126	3.88	1.6364	5.e-002	14.649
17127	3.88	1.3636	0.	5008.5
17128	3.7876	1.4545	0.	5012.2
17129	3.88	1.4545	5.e-002	14.694
17130	3.88	1.1818	0.	5046.2
17131	3.7876	1.2727	0.	5049.7
17132	3.88	1.2727	5.e-002	14.725
17133	3.88	1.	0.	5086.7
17134	3.7876	1.0909	0.	5090.2
17135	3.88	1.0909	5.e-002	14.737
17136	3.88	0.81818	0.	5129.6
17137	3.7876	0.90909	0.	5133.5
17138	3.88	0.90909	5.e-002	14.726
17139	3.88	0.63636	0.	5174.6
17140	3.7876	0.72727	0.	5179.2
17141	3.88	0.72727	5.e-002	14.692
17142	3.88	0.45455	0.	5221.2
17143	3.7876	0.54545	0.	5226.8
17144	3.88	0.54545	5.e-002	14.655
17145	3.88	0.27273	0.	5269.9
17146	3.7876	0.36364	0.	5276.1
17147	3.88	0.36364	5.e-002	14.93
17148	3.7876	0.18182	0.	5328.1
17149	3.88	0.18182	5.e-002	21.131
17150	3.88	9.0909e-002	0.	5310.3
17151	3.6952	5.7273	0.	5334.3
17152	3.6029	5.8182	0.	5394.9
17153	3.6952	5.8182	5.e-002	22.784
17154	3.6952	5.9091	0.	5376.8
17155	3.6952	5.5455	0.	5281.6
17156	3.6029	5.6364	0.	5338.4
17157	3.6952	5.6364	5.e-002	15.471
17158	3.6952	5.3636	0.	5231.4
17159	3.6029	5.4545	0.	5285.4
17160	3.6952	5.4545	5.e-002	15.157
17161	3.6952	5.1818	0.	5183.1
17162	3.6029	5.2727	0.	5234.2
17163	3.6952	5.2727	5.e-002	15.205
17164	3.6952	5.	0.	5137.
17165	3.6029	5.0909	0.	5185.2
17166	3.6952	5.0909	5.e-002	15.251
17167	3.6952	4.8182	0.	5093.7
17168	3.6029	4.9091	0.	5138.7
17169	3.6952	4.9091	5.e-002	15.269
17170	3.6952	4.6364	0.	5053.3
17171	3.6029	4.7273	0.	5095.4
17172	3.6952	4.7273	5.e-002	15.26
17173	3.6952	4.4545	0.	5016.5
17174	3.6029	4.5455	0.	5055.5
17175	3.6952	4.5455	5.e-002	15.23
17176	3.6952	4.2727	0.	4983.4
17177	3.6029	4.3636	0.	5019.3
17178	3.6952	4.3636	5.e-002	15.184
17179	3.6952	4.0909	0.	4954.3
17180	3.6029	4.1818	0.	4987.3
17181	3.6952	4.1818	5.e-002	15.128
17182	3.6952	3.9091	0.	4929.4
17183	3.6029	4.	0.	4959.5
17184	3.6952	4.	5.e-002	15.068
17185	3.6952	3.7273	0.	4908.9
17186	3.6029	3.8182	0.	4936.2
17187	3.6952	3.8182	5.e-002	15.01
17188	3.6952	3.5455	0.	4892.8
17189	3.6029	3.6364	0.	4917.5
17190	3.6952	3.6364	5.e-002	14.958
17191	3.6952	3.3636	0.	4881.3
17192	3.6029	3.4545	0.	4903.3
17193	3.6952	3.4545	5.e-002	14.915
17194	3.6952	3.1818	0.	4874.3
17195	3.6029	3.2727	0.	4893.9
17196	3.6952	3.2727	5.e-002	14.886
17197	3.6952	3.	0.	4872.
17198	3.6029	3.0909	0.	4889.2
17199	3.6952	3.0909	5.e-002	14.871
17200	3.6952	2.8182	0.	4874.3
17201	3.6029	2.9091	0.	4889.2
17202	3.6952	2.9091	5.e-002	14.871
17203	3.6952	2.6364	0.	4881.3
17204	3.6029	2.7273	0.	4893.9
17205	3.6952	2.7273	5.e-002	14.886
17206	3.6952	2.4545	0.	4892.8
17207	3.6029	2.5455	0.	4903.3
17208	3.6952	2.5455	5.e-002	14.915
17209	3.6952	2.2727	0.	4908.9
17210	3.6029	2.3636	0.	4917.5
17211	3.6952	2.3636	5.e-002	14.958
17212	3.6952	2.0909	0.	4929.4
17213	3.6029	2.1818	0.	4936.2
17214	3.6952	2.1818	5.e-002	15.01
17215	3.6952	1.9091	0.	4954.3
17216	3.6029	2.	0.	4959.5
17217	3.6952	2.	5.e-002	15.068
17218	3.6952	1.7273	0.	4983.4
17219	3.6029	1.8182	0.	4987.3
17220	3.6952	1.8182	5.e-002	15.128
17221	3.6952	1.5455	0.	5016.5
17222	3.6029	1.6364	0.	5019.3
17223	3.6952	1.6364	5.e-002	15.184
17224	3.6952	1.3636	0.	5053.3
17225	3.6029	1.4545	0.	5055.5
17226	3.6952	1.4545	5.e-002	15.23
17227	3.6952	1.1818	0.	5093.7
17228	3.6029	1.2727	0.	5095.4
17229	3.6952	1.2727	5.e-002	15.26
17230	3.6952	1.	0.	5137.
17231	3.6029	1.0909	0.	5138.7
17232	3.6952	1.0909	5.e-002	15.269
17233	3.6952	0.81818	0.	5183.1
17234	3.6029	0.90909	0.	5185.2
17235	3.6952	0.90909	5.e-002	15.251
17236	3.6952	0.63636	0.	5231.4
17237	3.6029	0.72727	0.	5234.2
17238	3.6952	0.72727	5.e-002	15.205
17239	3.6952	0.45455	0.	5281.6
17240	3.6029	0.54545	0.	5285.4
17241	3.6952	0.54545	5.e-002	15.157
17242	3.6952	0.27273	0.	5334.3
17243	3.6029	0.36364	0.	5338.4
17244	3.6952	0.36364	5.e-002	15.471
17245	3.6029	0.18182	0.	5394.9
17246	3.6952	0.18182	5.e-002	22.784
17247	3.6952	9.0909e-002	0.	5376.8
17248	3.5105	5.7273	0.	5399.
17249	3.4181	5.8182	0.	5462.
17250	3.5105	5.8182	5.e-002	24.538
17251	3.5105	5.9091	0.	5443.7
17252	3.5105	5.5455	0.	5342.1
17253	3.4181	5.6364	0.	5400.8
17254	3.5105	5.6364	5.e-002	16.051
17255	3.5105	5.3636	0.	5288.1
17256	3.4181	5.4545	0.	5343.7
17257	3.5105	5.4545	5.e-002	15.705
17258	3.5105	5.1818	0.	5236.2
17259	3.4181	5.2727	0.	5288.8
17260	3.5105	5.2727	5.e-002	15.769
17261	3.5105	5.	0.	5186.8
17262	3.4181	5.0909	0.	5236.2
17263	3.5105	5.0909	5.e-002	15.831
17264	3.5105	4.8182	0.	5140.5
17265	3.4181	4.9091	0.	5186.6
17266	3.5105	4.9091	5.e-002	15.859
17267	3.5105	4.6364	0.	5097.5
17268	3.4181	4.7273	0.	5140.4
17269	3.5105	4.7273	5.e-002	15.856
17270	3.5105	4.4545	0.	5058.3
17271	3.4181	4.5455	0.	5098.
17272	3.5105	4.5455	5.e-002	15.828
17273	3.5105	4.2727	0.	5023.2
17274	3.4181	4.3636	0.	5059.8
17275	3.5105	4.3636	5.e-002	15.781
17276	3.5105	4.0909	0.	4992.5
17277	3.4181	4.1818	0.	5026.
17278	3.5105	4.1818	5.e-002	15.724
17279	3.5105	3.9091	0.	4966.3
17280	3.4181	4.	0.	4996.8
17281	3.5105	4.	5.e-002	15.663
17282	3.5105	3.7273	0.	4944.8
17283	3.4181	3.8182	0.	4972.4
17284	3.5105	3.8182	5.e-002	15.603
17285	3.5105	3.5455	0.	4928.
17286	3.4181	3.6364	0.	4952.9
17287	3.5105	3.6364	5.e-002	15.55
17288	3.5105	3.3636	0.	4915.9
17289	3.4181	3.4545	0.	4938.2
17290	3.5105	3.4545	5.e-002	15.508
17291	3.5105	3.1818	0.	4908.7
17292	3.4181	3.2727	0.	4928.4
17293	3.5105	3.2727	5.e-002	15.478
17294	3.5105	3.	0.	4906.3
17295	3.4181	3.0909	0.	4923.5
17296	3.5105	3.0909	5.e-002	15.463
17297	3.5105	2.8182	0.	4908.7
17298	3.4181	2.9091	0.	4923.5
17299	3.5105	2.9091	5.e-002	15.463
17300	3.5105	2.6364	0.	4915.9
17301	3.4181	2.7273	0.	4928.4
17302	3.5105	2.7273	5.e-002	15.478
17303	3.5105	2.4545	0.	4928.
17304	3.4181	2.5455	0.	4938.2
17305	3.5105	2.5455	5.e-002	15.508
17306	3.5105	2.2727	0.	4944.8
17307	3.4181	2.3636	0.	4952.9
17308	3.5105	2.3636	5.e-002	15.55
17309	3.5105	2.0909	0.	4966.3
17310	3.4181	2.1818	0.	4972.4
17311	3.5105	2.1818	5.e-002	15.603
17312	3.5105	1.9091	0.	4992.5
17313	3.4181	2.	0.	4996.8
17314	3.5105	2.	5.e-002	15.663
17315	3.5105	1.7273	0.	5023.2
17316	3.4181	1.8182	0.	5026.
17317	3.5105	1.8182	5.e-002	15.724
17318	3.5105	1.5455	0.	5058.3
17319	3.4181	1.6364	0.	5059.8
17320	3.5105	1.6364	5.e-002	15.781
17321	3.5105	1.3636	0.	5097.5
17322	3.4181	1.4545	0.	5098.
17323	3.5105	1.4545	5.e-002	15.828
17324	3.5105	1.1818	0.	5140.5
17325	3.4181	1.2727	0.	5140.4
17326	3.5105	1.2727	5.e-002	15.856
17327	3.5105	1.	0.	5186.8
17328	3.4181	1.0909	0.	5186.6
17329	3.5105	1.0909	5.e-002	15.859
17330	3.5105	0.81818	0.	5236.2
17331	3.4181	0.90909	0.	5236.2
17332	3.5105	0.90909	5.e-002	15.831
17333	3.5105	0.63636	0.	5288.1
17334	3.4181	0.72727	0.	5288.8
17335	3.5105	0.72727	5.e-002	15.769
17336	3.5105	0.45455	0.	5342.1
17337	3.4181	0.54545	0.	5343.7
17338	3.5105	0.54545	5.e-002	15.705
17339	3.5105	0.27273	0.	5399.
17340	3.4181	0.36364	0.	5400.8
17341	3.5105	0.36364	5.e-002	16.051
17342	3.4181	0.18182	0.	5462.
17343	3.5105	0.18182	5.e-002	24.538
17344	3.5105	9.0909e-002	0.	5443.7
17345	3.3257	5.7273	0.	5463.9
17346	3.2333	5.8182	0.	5529.5
17347	3.3257	5.8182	5.e-002	26.39
17348	3.3257	5.9091	0.	5510.6
17349	3.3257	5.5455	0.	5402.4
17350	3.2333	5.6364	0.	5463.1
17351	3.3257	5.6364	5.e-002	16.674
17352	3.3257	5.3636	0.	5344.4
17353	3.2333	5.4545	0.	5401.7
17354	3.3257	5.4545	5.e-002	16.305
17355	3.3257	5.1818	0.	5288.7
17356	3.2333	5.2727	0.	5342.7
17357	3.3257	5.2727	5.e-002	16.393
17358	3.3257	5.	0.	5235.9
17359	3.2333	5.0909	0.	5286.5
17360	3.3257	5.0909	5.e-002	16.474
17361	3.3257	4.8182	0.	5186.5
17362	3.2333	4.9091	0.	5233.6
17363	3.3257	4.9091	5.e-002	16.516
17364	3.3257	4.6364	0.	5140.8
17365	3.2333	4.7273	0.	5184.5
17366	3.3257	4.7273	5.e-002	16.521
17367	3.3257	4.4545	0.	5099.4
17368	3.2333	4.5455	0.	5139.7
17369	3.3257	4.5455	5.e-002	16.496
17370	3.3257	4.2727	0.	5062.5
17371	3.2333	4.3636	0.	5099.5
17372	3.3257	4.3636	5.e-002	16.451
17373	3.3257	4.0909	0.	5030.2
17374	3.2333	4.1818	0.	5064.1
17375	3.3257	4.1818	5.e-002	16.394
17376	3.3257	3.9091	0.	5002.9
17377	3.2333	4.	0.	5033.8
17378	3.3257	4.	5.e-002	16.333
17379	3.3257	3.7273	0.	4980.5
17380	3.2333	3.8182	0.	5008.5
17381	3.3257	3.8182	5.e-002	16.275
17382	3.3257	3.5455	0.	4963.1
17383	3.2333	3.6364	0.	4988.3
17384	3.3257	3.6364	5.e-002	16.223
17385	3.3257	3.3636	0.	4950.6
17386	3.2333	3.4545	0.	4973.2
17387	3.3257	3.4545	5.e-002	16.182
17388	3.3257	3.1818	0.	4943.2
17389	3.2333	3.2727	0.	4963.2
17390	3.3257	3.2727	5.e-002	16.154
17391	3.3257	3.	0.	4940.7
17392	3.2333	3.0909	0.	4958.2
17393	3.3257	3.0909	5.e-002	16.139
17394	3.3257	2.8182	0.	4943.2
17395	3.2333	2.9091	0.	4958.2
17396	3.3257	2.9091	5.e-002	16.139
17397	3.3257	2.6364	0.	4950.6
17398	3.2333	2.7273	0.	4963.2
17399	3.3257	2.7273	5.e-002	16.154
17400	3.3257	2.4545	0.	4963.1
17401	3.2333	2.5455	0.	4973.2
17402	3.3257	2.5455	5.e-002	16.182
17403	3.3257	2.2727	0.	4980.5
17404	3.2333	2.3636	0.	4988.3
17405	3.3257	2.3636	5.e-002	16.223
17406	3.3257	2.0909	0.	5002.9
17407	3.2333	2.1818	0.	5008.5
17408	3.3257	2.1818	5.e-002	16.275
17409	3.3257	1.9091	0.	5030.2
17410	3.2333	2.	0.	5033.8
17411	3.3257	2.	5.e-002	16.333
17412	3.3257	1.7273	0.	5062.5
17413	3.2333	1.8182	0.	5064.1
17414	3.3257	1.8182	5.e-002	16.394
17415	3.3257	1.5455	0.	5099.4
17416	3.2333	1.6364	0.	5099.5
17417	3.3257	1.6364	5.e-002	16.451
17418	3.3257	1.3636	0.	5140.8
17419	3.2333	1.4545	0.	5139.7
17420	3.3257	1.4545	5.e-002	16.496
17421	3.3257	1.1818	0.	5186.5
17422	3.2333	1.2727	0.	5184.5
17423	3.3257	1.2727	5.e-002	16.521
17424	3.3257	1.	0.	5235.9
17425	3.2333	1.0909	0.	5233.6
17426	3.3257	1.0909	5.e-002	16.516
17427	3.3257	0.81818	0.	5288.7
17428	3.2333	0.90909	0.	5286.5
17429	3.3257	0.90909	5.e-002	16.474
17430	3.3257	0.63636	0.	5344.4
17431	3.2333	0.72727	0.	5342.7
17432	3.3257	0.72727	5.e-002	16.393
17433	3.3257	0.45455	0.	5402.4
17434	3.2333	0.54545	0.	5401.7
17435	3.3257	0.54545	5.e-002	16.305
17436	3.3257	0.27273	0.	5463.9
17437	3.2333	0.36364	0.	5463.1
17438	3.3257	0.36364	5.e-002	16.674
17439	3.2333	0.18182	0.	5529.5
17440	3.3257	0.18182	5.e-002	26.39
17441	3.3257	9.0909e-002	0.	5510.6
17442	3.141	5.7273	0.	5528.7
17443	3.0486	5.8182	0.	5597.1
17444	3.141	5.8182	5.e-002	28.341
17445	3.141	5.9091	0.	5577.5
17446	3.141	5.5455	0.	5462.3
17447	3.0486	5.6364	0.	5524.9
17448	3.141	5.6364	5.e-002	17.345
17449	3.141	5.3636	0.	5400.
17450	3.0486	5.4545	0.	5458.9
17451	3.141	5.4545	5.e-002	16.966
17452	3.141	5.1818	0.	5340.4
17453	3.0486	5.2727	0.	5395.7
17454	3.141	5.2727	5.e-002	17.085
17455	3.141	5.	0.	5284.1
17456	3.0486	5.0909	0.	5335.7
17457	3.141	5.0909	5.e-002	17.192
17458	3.141	4.8182	0.	5231.5
17459	3.0486	4.9091	0.	5279.4
17460	3.141	4.9091	5.e-002	17.25
17461	3.141	4.6364	0.	5183.3
17462	3.0486	4.7273	0.	5227.5
17463	3.141	4.7273	5.e-002	17.265
17464	3.141	4.4545	0.	5139.7
17465	3.0486	4.5455	0.	5180.4
17466	3.141	4.5455	5.e-002	17.246
17467	3.141	4.2727	0.	5101.1
17468	3.0486	4.3636	0.	5138.4
17469	3.141	4.3636	5.e-002	17.204
17470	3.141	4.0909	0.	5067.6
17471	3.0486	4.1818	0.	5101.8
17472	3.141	4.1818	5.e-002	17.15
17473	3.141	3.9091	0.	5039.3
17474	3.0486	4.	0.	5070.5
17475	3.141	4.	5.e-002	17.092
17476	3.141	3.7273	0.	5016.3
17477	3.0486	3.8182	0.	5044.7
17478	3.141	3.8182	5.e-002	17.037
17479	3.141	3.5455	0.	4998.4
17480	3.0486	3.6364	0.	5024.1
17481	3.141	3.6364	5.e-002	16.989
17482	3.141	3.3636	0.	4985.7
17483	3.0486	3.4545	0.	5008.8
17484	3.141	3.4545	5.e-002	16.953
17485	3.141	3.1818	0.	4978.1
17486	3.0486	3.2727	0.	4998.7
17487	3.141	3.2727	5.e-002	16.928
17488	3.141	3.	0.	4975.6
17489	3.0486	3.0909	0.	4993.7
17490	3.141	3.0909	5.e-002	16.915
17491	3.141	2.8182	0.	4978.1
17492	3.0486	2.9091	0.	4993.7
17493	3.141	2.9091	5.e-002	16.915
17494	3.141	2.6364	0.	4985.7
17495	3.0486	2.7273	0.	4998.7
17496	3.141	2.7273	5.e-002	16.928
17497	3.141	2.4545	0.	4998.4
17498	3.0486	2.5455	0.	5008.8
17499	3.141	2.5455	5.e-002	16.953
17500	3.141	2.2727	0.	5016.3
17501	3.0486	2.3636	0.	5024.1
17502	3.141	2.3636	5.e-002	16.989
17503	3.141	2.0909	0.	5039.3
17504	3.0486	2.1818	0.	5044.7
17505	3.141	2.1818	5.e-002	17.037
17506	3.141	1.9091	0.	5067.6
17507	3.0486	2.	0.	5070.5
17508	3.141	2.	5.e-002	17.092
17509	3.141	1.7273	0.	5101.1
17510	3.0486	1.8182	0.	5101.8
17511	3.141	1.8182	5.e-002	17.15
17512	3.141	1.5455	0.	5139.7
17513	3.0486	1.6364	0.	5138.4
17514	3.141	1.6364	5.e-002	17.204
17515	3.141	1.3636	0.	5183.3
17516	3.0486	1.4545	0.	5180.4
17517	3.141	1.4545	5.e-002	17.246
17518	3.141	1.1818	0.	5231.5
17519	3.0486	1.2727	0.	5227.5
17520	3.141	1.2727	5.e-002	17.265
17521	3.141	1.	0.	5284.1
17522	3.0486	1.0909	0.	5279.4
17523	3.141	1.0909	5.e-002	17.25
17524	3.141	0.81818	0.	5340.4
17525	3.0486	0.90909	0.	5335.7
17526	3.141	0.90909	5.e-002	17.192
17527	3.141	0.63636	0.	5400.
17528	3.0486	0.72727	0.	5395.7
17529	3.141	0.72727	5.e-002	17.085
17530	3.141	0.45455	0.	5462.3
17531	3.0486	0.54545	0.	5458.9
17532	3.141	0.54545	5.e-002	16.966
17533	3.141	0.27273	0.	5528.7
17534	3.0486	0.36364	0.	5524.9
17535	3.141	0.36364	5.e-002	17.345
17536	3.0486	0.18182	0.	5597.1
17537	3.141	0.18182	5.e-002	28.341
17538	3.141	9.0909e-002	0.	5577.5
17539	2.9562	5.7273	0.	5593.2
17540	2.8638	5.8182	0.	5664.4
17541	2.9562	5.8182	5.e-002	30.384
17542	2.9562	5.9091	0.	5643.9
17543	2.9562	5.5455	0.	5521.5
17544	2.8638	5.6364	0.	5585.9
17545	2.9562	5.6364	5.e-002	18.069
17546	2.9562	5.3636	0.	5454.6
17547	2.8638	5.4545	0.	5515.
17548	2.9562	5.4545	5.e-002	17.699
17549	2.9562	5.1818	0.	5390.9
17550	2.8638	5.2727	0.	5447.3
17551	2.9562	5.2727	5.e-002	17.859
17552	2.9562	5.	0.	5330.9
17553	2.8638	5.0909	0.	5383.4
17554	2.9562	5.0909	5.e-002	17.997
17555	2.9562	4.8182	0.	5275.3
17556	2.8638	4.9091	0.	5323.8
17557	2.9562	4.9091	5.e-002	18.075
17558	2.9562	4.6364	0.	5224.6
17559	2.8638	4.7273	0.	5269.3
17560	2.9562	4.7273	5.e-002	18.102
17561	2.9562	4.4545	0.	5179.1
17562	2.8638	4.5455	0.	5220.1
17563	2.9562	4.5455	5.e-002	18.09
17564	2.9562	4.2727	0.	5139.1
17565	2.8638	4.3636	0.	5176.7
17566	2.9562	4.3636	5.e-002	18.052
17567	2.9562	4.0909	0.	5104.7
17568	2.8638	4.1818	0.	5139.2
17569	2.9562	4.1818	5.e-002	18.003
17570	2.9562	3.9091	0.	5075.8
17571	2.8638	4.	0.	5107.4
17572	2.9562	4.	5.e-002	17.951
17573	2.9562	3.7273	0.	5052.5
17574	2.8638	3.8182	0.	5081.3
17575	2.9562	3.8182	5.e-002	17.904
17576	2.9562	3.5455	0.	5034.5
17577	2.8638	3.6364	0.	5060.8
17578	2.9562	3.6364	5.e-002	17.865
17579	2.9562	3.3636	0.	5021.8
17580	2.8638	3.4545	0.	5045.6
17581	2.9562	3.4545	5.e-002	17.836
17582	2.9562	3.1818	0.	5014.2
17583	2.8638	3.2727	0.	5035.6
17584	2.9562	3.2727	5.e-002	17.817
17585	2.9562	3.	0.	5011.7
17586	2.8638	3.0909	0.	5030.7
17587	2.9562	3.0909	5.e-002	17.807
17588	2.9562	2.8182	0.	5014.2
17589	2.8638	2.9091	0.	5030.7
17590	2.9562	2.9091	5.e-002	17.807
17591	2.9562	2.6364	0.	5021.8
17592	2.8638	2.7273	0.	5035.6
17593	2.9562	2.7273	5.e-002	17.817
17594	2.9562	2.4545	0.	5034.5
17595	2.8638	2.5455	0.	5045.6
17596	2.9562	2.5455	5.e-002	17.836
17597	2.9562	2.2727	0.	5052.5
17598	2.8638	2.3636	0.	5060.8
17599	2.9562	2.3636	5.e-002	17.865
17600	2.9562	2.0909	0.	5075.8
17601	2.8638	2.1818	0.	5081.3
17602	2.9562	2.1818	5.e-002	17.904
17603	2.9562	1.9091	0.	5104.7
17604	2.8638	2.	0.	5107.4
17605	2.9562	2.	5.e-002	17.951
17606	2.9562	1.7273	0.	5139.1
17607	2.8638	1.8182	0.	5139.2
17608	2.9562	1.8182	5.e-002	18.003
17609	2.9562	1.5455	0.	5179.1
17610	2.8638	1.6364	0.	5176.7
17611	2.9562	1.6364	5.e-002	18.052
17612	2.9562	1.3636	0.	5224.6
17613	2.8638	1.4545	0.	5220.1
17614	2.9562	1.4545	5.e-002	18.09
17615	2.9562	1.1818	0.	5275.3
17616	2.8638	1.2727	0.	5269.3
17617	2.9562	1.2727	5.e-002	18.102
17618	2.9562	1.	0.	5330.9
17619	2.8638	1.0909	0.	5323.8
17620	2.9562	1.0909	5.e-002	18.075
17621	2.9562	0.81818	0.	5390.9
17622	2.8638	0.90909	0.	5383.4
17623	2.9562	0.90909	5.e-002	17.997
17624	2.9562	0.63636	0.	5454.6
17625	2.8638	0.72727	0.	5447.3
17626	2.9562	0.72727	5.e-002	17.859
17627	2.9562	0.45455	0.	5521.5
17628	2.8638	0.54545	0.	5515.
17629	2.9562	0.54545	5.e-002	17.699
17630	2.9562	0.27273	0.	5593.2
17631	2.8638	0.36364	0.	5585.9
17632	2.9562	0.36364	5.e-002	18.069
17633	2.8638	0.18182	0.	5664.4
17634	2.9562	0.18182	5.e-002	30.384
17635	2.9562	9.0909e-002	0.	5643.9
17636	2.7714	5.7273	0.	5657.
17637	2.679	5.8182	0.	5730.9
17638	2.7714	5.8182	5.e-002	32.512
17639	2.7714	5.9091	0.	5709.3
17640	2.7714	5.5455	0.	5579.4
17641	2.679	5.6364	0.	5645.6
17642	2.7714	5.6364	5.e-002	18.856
17643	2.7714	5.3636	0.	5507.7
17644	2.679	5.4545	0.	5569.3
17645	2.7714	5.4545	5.e-002	18.52
17646	2.7714	5.1818	0.	5439.7
17647	2.679	5.2727	0.	5497.1
17648	2.7714	5.2727	5.e-002	18.732
17649	2.7714	5.	0.	5376.2
17650	2.679	5.0909	0.	5429.1
17651	2.7714	5.0909	5.e-002	18.908
17652	2.7714	4.8182	0.	5317.6
17653	2.679	4.9091	0.	5366.4
17654	2.7714	4.9091	5.e-002	19.009
17655	2.7714	4.6364	0.	5264.7
17656	2.679	4.7273	0.	5309.4
17657	2.7714	4.7273	5.e-002	19.047
17658	2.7714	4.4545	0.	5217.6
17659	2.679	4.5455	0.	5258.6
17660	2.7714	4.5455	5.e-002	19.042
17661	2.7714	4.2727	0.	5176.7
17662	2.679	4.3636	0.	5214.3
17663	2.7714	4.3636	5.e-002	19.011
17664	2.7714	4.0909	0.	5141.8
17665	2.679	4.1818	0.	5176.4
17666	2.7714	4.1818	5.e-002	18.969
17667	2.7714	3.9091	0.	5112.8
17668	2.679	4.	0.	5144.7
17669	2.7714	4.	5.e-002	18.927
17670	2.7714	3.7273	0.	5089.6
17671	2.679	3.8182	0.	5119.
17672	2.7714	3.8182	5.e-002	18.892
17673	2.7714	3.5455	0.	5071.9
17674	2.679	3.6364	0.	5099.
17675	2.7714	3.6364	5.e-002	18.866
17676	2.7714	3.3636	0.	5059.4
17677	2.679	3.4545	0.	5084.3
17678	2.7714	3.4545	5.e-002	18.849
17679	2.7714	3.1818	0.	5052.
17680	2.679	3.2727	0.	5074.7
17681	2.7714	3.2727	5.e-002	18.84
17682	2.7714	3.	0.	5049.6
17683	2.679	3.0909	0.	5069.9
17684	2.7714	3.0909	5.e-002	18.836
17685	2.7714	2.8182	0.	5052.
17686	2.679	2.9091	0.	5069.9
17687	2.7714	2.9091	5.e-002	18.836
17688	2.7714	2.6364	0.	5059.4
17689	2.679	2.7273	0.	5074.7
17690	2.7714	2.7273	5.e-002	18.84
17691	2.7714	2.4545	0.	5071.9
17692	2.679	2.5455	0.	5084.3
17693	2.7714	2.5455	5.e-002	18.849
17694	2.7714	2.2727	0.	5089.6
17695	2.679	2.3636	0.	5099.
17696	2.7714	2.3636	5.e-002	18.866
17697	2.7714	2.0909	0.	5112.8
17698	2.679	2.1818	0.	5119.
17699	2.7714	2.1818	5.e-002	18.892
17700	2.7714	1.9091	0.	5141.8
17701	2.679	2.	0.	5144.7
17702	2.7714	2.	5.e-002	18.927
17703	2.7714	1.7273	0.	5176.7
17704	2.679	1.8182	0.	5176.4
17705	2.7714	1.8182	5.e-002	18.969
17706	2.7714	1.5455	0.	5217.6
17707	2.679	1.6364	0.	5214.3
17708	2.7714	1.6364	5.e-002	19.011
17709	2.7714	1.3636	0.	5264.7
17710	2.679	1.4545	0.	5258.6
17711	2.7714	1.4545	5.e-002	19.042
17712	2.7714	1.1818	0.	5317.6
17713	2.679	1.2727	0.	5309.4
17714	2.7714	1.2727	5.e-002	19.047
17715	2.7714	1.	0.	5376.2
17716	2.679	1.0909	0.	5366.4
17717	2.7714	1.0909	5.e-002	19.009
17718	2.7714	0.81818	0.	5439.7
17719	2.679	0.90909	0.	5429.1
17720	2.7714	0.90909	5.e-002	18.908
17721	2.7714	0.63636	0.	5507.7
17722	2.679	0.72727	0.	5497.1
17723	2.7714	0.72727	5.e-002	18.732
17724	2.7714	0.45455	0.	5579.4
17725	2.679	0.54545	0.	5569.3
17726	2.7714	0.54545	5.e-002	18.52
17727	2.7714	0.27273	0.	5657.
17728	2.679	0.36364	0.	5645.6
17729	2.7714	0.36364	5.e-002	18.856
17730	2.679	0.18182	0.	5730.9
17731	2.7714	0.18182	5.e-002	32.512
17732	2.7714	9.0909e-002	0.	5709.3
17733	2.5867	5.7273	0.	5719.4
17734	2.4943	5.8182	0.	5796.
17735	2.5867	5.8182	5.e-002	34.712
17736	2.5867	5.9091	0.	5773.1
17737	2.5867	5.5455	0.	5635.4
17738	2.4943	5.6364	0.	5703.
17739	2.5867	5.6364	5.e-002	19.723
17740	2.5867	5.3636	0.	5558.6
17741	2.4943	5.4545	0.	5621.2
17742	2.5867	5.4545	5.e-002	19.454
17743	2.5867	5.1818	0.	5486.3
17744	2.4943	5.2727	0.	5544.1
17745	2.5867	5.2727	5.e-002	19.731
17746	2.5867	5.	0.	5419.2
17747	2.4943	5.0909	0.	5472.2
17748	2.5867	5.0909	5.e-002	19.949
17749	2.5867	4.8182	0.	5358.
17750	2.4943	4.9091	0.	5406.5
17751	2.5867	4.9091	5.e-002	20.072
17752	2.5867	4.6364	0.	5303.2
17753	2.4943	4.7273	0.	5347.5
17754	2.5867	4.7273	5.e-002	20.121
17755	2.5867	4.4545	0.	5255.2
17756	2.4943	4.5455	0.	5295.8
17757	2.5867	4.5455	5.e-002	20.121
17758	2.5867	4.2727	0.	5213.9
17759	2.4943	4.3636	0.	5251.3
17760	2.5867	4.3636	5.e-002	20.096
17761	2.5867	4.0909	0.	5179.2
17762	2.4943	4.1818	0.	5213.8
17763	2.5867	4.1818	5.e-002	20.065
17764	2.5867	3.9091	0.	5150.8
17765	2.4943	4.	0.	5183.
17766	2.5867	4.	5.e-002	20.038
17767	2.5867	3.7273	0.	5128.3
17768	2.4943	3.8182	0.	5158.4
17769	2.5867	3.8182	5.e-002	20.022
17770	2.5867	3.5455	0.	5111.3
17771	2.4943	3.6364	0.	5139.5
17772	2.5867	3.6364	5.e-002	20.015
17773	2.5867	3.3636	0.	5099.5
17774	2.4943	3.4545	0.	5125.8
17775	2.5867	3.4545	5.e-002	20.016
17776	2.5867	3.1818	0.	5092.5
17777	2.4943	3.2727	0.	5116.9
17778	2.5867	3.2727	5.e-002	20.019
17779	2.5867	3.	0.	5090.2
17780	2.4943	3.0909	0.	5112.5
17781	2.5867	3.0909	5.e-002	20.022
17782	2.5867	2.8182	0.	5092.5
17783	2.4943	2.9091	0.	5112.5
17784	2.5867	2.9091	5.e-002	20.022
17785	2.5867	2.6364	0.	5099.5
17786	2.4943	2.7273	0.	5116.9
17787	2.5867	2.7273	5.e-002	20.019
17788	2.5867	2.4545	0.	5111.3
17789	2.4943	2.5455	0.	5125.8
17790	2.5867	2.5455	5.e-002	20.016
17791	2.5867	2.2727	0.	5128.3
17792	2.4943	2.3636	0.	5139.5
17793	2.5867	2.3636	5.e-002	20.015
17794	2.5867	2.0909	0.	5150.8
17795	2.4943	2.1818	0.	5158.4
17796	2.5867	2.1818	5.e-002	20.022
17797	2.5867	1.9091	0.	5179.2
17798	2.4943	2.	0.	5183.
17799	2.5867	2.	5.e-002	20.038
17800	2.5867	1.7273	0.	5213.9
17801	2.4943	1.8182	0.	5213.8
17802	2.5867	1.8182	5.e-002	20.065
17803	2.5867	1.5455	0.	5255.2
17804	2.4943	1.6364	0.	5251.3
17805	2.5867	1.6364	5.e-002	20.096
17806	2.5867	1.3636	0.	5303.2
17807	2.4943	1.4545	0.	5295.8
17808	2.5867	1.4545	5.e-002	20.121
17809	2.5867	1.1818	0.	5358.
17810	2.4943	1.2727	0.	5347.5
17811	2.5867	1.2727	5.e-002	20.121
17812	2.5867	1.	0.	5419.2
17813	2.4943	1.0909	0.	5406.5
17814	2.5867	1.0909	5.e-002	20.072
17815	2.5867	0.81818	0.	5486.3
17816	2.4943	0.90909	0.	5472.2
17817	2.5867	0.90909	5.e-002	19.949
17818	2.5867	0.63636	0.	5558.6
17819	2.4943	0.72727	0.	5544.1
17820	2.5867	0.72727	5.e-002	19.731
17821	2.5867	0.45455	0.	5635.4
17822	2.4943	0.54545	0.	5621.2
17823	2.5867	0.54545	5.e-002	19.454
17824	2.5867	0.27273	0.	5719.4
17825	2.4943	0.36364	0.	5703.
17826	2.5867	0.36364	5.e-002	19.723
17827	2.4943	0.18182	0.	5796.
17828	2.5867	0.18182	5.e-002	34.712
17829	2.5867	9.0909e-002	0.	5773.1
17830	2.4019	5.7273	0.	5779.5
17831	2.3095	5.8182	0.	5858.7
17832	2.4019	5.8182	5.e-002	36.966
17833	2.4019	5.9091	0.	5834.4
17834	2.4019	5.5455	0.	5688.6
17835	2.3095	5.6364	0.	5757.3
17836	2.4019	5.6364	5.e-002	20.695
17837	2.4019	5.3636	0.	5606.5
17838	2.3095	5.4545	0.	5669.4
17839	2.4019	5.4545	5.e-002	20.536
17840	2.4019	5.1818	0.	5529.8
17841	2.3095	5.2727	0.	5587.4
17842	2.4019	5.2727	5.e-002	20.891
17843	2.4019	5.	0.	5459.3
17844	2.3095	5.0909	0.	5511.7
17845	2.4019	5.0909	5.e-002	21.152
17846	2.4019	4.8182	0.	5395.8
17847	2.3095	4.9091	0.	5443.4
17848	2.4019	4.9091	5.e-002	21.294
17849	2.4019	4.6364	0.	5339.9
17850	2.3095	4.7273	0.	5383.2
17851	2.4019	4.7273	5.e-002	21.347
17852	2.4019	4.4545	0.	5291.7
17853	2.3095	4.5455	0.	5331.4
17854	2.4019	4.5455	5.e-002	21.349
17855	2.4019	4.2727	0.	5251.
17856	2.3095	4.3636	0.	5287.7
17857	2.4019	4.3636	5.e-002	21.33
17858	2.4019	4.0909	0.	5217.4
17859	2.3095	4.1818	0.	5251.7
17860	2.4019	4.1818	5.e-002	21.312
17861	2.4019	3.9091	0.	5190.4
17862	2.3095	4.	0.	5222.8
17863	2.4019	4.	5.e-002	21.306
17864	2.4019	3.7273	0.	5169.4
17865	2.3095	3.8182	0.	5200.2
17866	2.4019	3.8182	5.e-002	21.314
17867	2.4019	3.5455	0.	5153.8
17868	2.3095	3.6364	0.	5183.2
17869	2.4019	3.6364	5.e-002	21.334
17870	2.4019	3.3636	0.	5143.1
17871	2.3095	3.4545	0.	5171.1
17872	2.4019	3.4545	5.e-002	21.357
17873	2.4019	3.1818	0.	5136.8
17874	2.3095	3.2727	0.	5163.4
17875	2.4019	3.2727	5.e-002	21.378
17876	2.4019	3.	0.	5134.7
17877	2.3095	3.0909	0.	5159.6
17878	2.4019	3.0909	5.e-002	21.39
17879	2.4019	2.8182	0.	5136.8
17880	2.3095	2.9091	0.	5159.6
17881	2.4019	2.9091	5.e-002	21.39
17882	2.4019	2.6364	0.	5143.1
17883	2.3095	2.7273	0.	5163.4
17884	2.4019	2.7273	5.e-002	21.378
17885	2.4019	2.4545	0.	5153.8
17886	2.3095	2.5455	0.	5171.1
17887	2.4019	2.5455	5.e-002	21.357
17888	2.4019	2.2727	0.	5169.4
17889	2.3095	2.3636	0.	5183.2
17890	2.4019	2.3636	5.e-002	21.334
17891	2.4019	2.0909	0.	5190.4
17892	2.3095	2.1818	0.	5200.2
17893	2.4019	2.1818	5.e-002	21.314
17894	2.4019	1.9091	0.	5217.4
17895	2.3095	2.	0.	5222.8
17896	2.4019	2.	5.e-002	21.306
17897	2.4019	1.7273	0.	5251.
17898	2.3095	1.8182	0.	5251.7
17899	2.4019	1.8182	5.e-002	21.312
17900	2.4019	1.5455	0.	5291.7
17901	2.3095	1.6364	0.	5287.7
17902	2.4019	1.6364	5.e-002	21.33
17903	2.4019	1.3636	0.	5339.9
17904	2.3095	1.4545	0.	5331.4
17905	2.4019	1.4545	5.e-002	21.349
17906	2.4019	1.1818	0.	5395.8
17907	2.3095	1.2727	0.	5383.2
17908	2.4019	1.2727	5.e-002	21.347
17909	2.4019	1.	0.	5459.3
17910	2.3095	1.0909	0.	5443.4
17911	2.4019	1.0909	5.e-002	21.294
17912	2.4019	0.81818	0.	5529.8
17913	2.3095	0.90909	0.	5511.7
17914	2.4019	0.90909	5.e-002	21.152
17915	2.4019	0.63636	0.	5606.5
17916	2.3095	0.72727	0.	5587.4
17917	2.4019	0.72727	5.e-002	20.891
17918	2.4019	0.45455	0.	5688.6
17919	2.3095	0.54545	0.	5669.4
17920	2.4019	0.54545	5.e-002	20.536
17921	2.4019	0.27273	0.	5779.5
17922	2.3095	0.36364	0.	5757.3
17923	2.4019	0.36364	5.e-002	20.695
17924	2.3095	0.18182	0.	5858.7
17925	2.4019	0.18182	5.e-002	36.966
17926	2.4019	9.0909e-002	0.	5834.4
17927	2.2171	5.7273	0.	5836.3
17928	2.1248	5.8182	0.	5917.8
17929	2.2171	5.8182	5.e-002	39.248
17930	2.2171	5.9091	0.	5892.
17931	2.2171	5.5455	0.	5737.9
17932	2.1248	5.6364	0.	5806.9
17933	2.2171	5.6364	5.e-002	21.815
17934	2.2171	5.3636	0.	5650.1
17935	2.1248	5.4545	0.	5712.6
17936	2.2171	5.4545	5.e-002	21.821
17937	2.2171	5.1818	0.	5569.
17938	2.1248	5.2727	0.	5625.6
17939	2.2171	5.2727	5.e-002	22.262
17940	2.2171	5.	0.	5495.6
17941	2.1248	5.0909	0.	5546.4
17942	2.2171	5.0909	5.e-002	22.562
17943	2.2171	4.8182	0.	5430.6
17944	2.1248	4.9091	0.	5476.3
17945	2.2171	4.9091	5.e-002	22.71
17946	2.2171	4.6364	0.	5374.4
17947	2.1248	4.7273	0.	5415.9
17948	2.2171	4.7273	5.e-002	22.756
17949	2.2171	4.4545	0.	5327.1
17950	2.1248	4.5455	0.	5365.2
17951	2.2171	4.5455	5.e-002	22.751
17952	2.2171	4.2727	0.	5288.2
17953	2.1248	4.3636	0.	5323.8
17954	2.2171	4.3636	5.e-002	22.736
17955	2.2171	4.0909	0.	5256.9
17956	2.1248	4.1818	0.	5290.7
17957	2.2171	4.1818	5.e-002	22.734
17958	2.2171	3.9091	0.	5232.5
17959	2.1248	4.	0.	5265.
17960	2.2171	4.	5.e-002	22.755
17961	2.2171	3.7273	0.	5213.9
17962	2.1248	3.8182	0.	5245.7
17963	2.2171	3.8182	5.e-002	22.796
17964	2.2171	3.5455	0.	5200.4
17965	2.1248	3.6364	0.	5231.5
17966	2.2171	3.6364	5.e-002	22.849
17967	2.2171	3.3636	0.	5191.4
17968	2.1248	3.4545	0.	5221.7
17969	2.2171	3.4545	5.e-002	22.901
17970	2.2171	3.1818	0.	5186.1
17971	2.1248	3.2727	0.	5215.6
17972	2.2171	3.2727	5.e-002	22.942
17973	2.2171	3.	0.	5184.4
17974	2.1248	3.0909	0.	5212.7
17975	2.2171	3.0909	5.e-002	22.965
17976	2.2171	2.8182	0.	5186.1
17977	2.1248	2.9091	0.	5212.7
17978	2.2171	2.9091	5.e-002	22.965
17979	2.2171	2.6364	0.	5191.4
17980	2.1248	2.7273	0.	5215.6
17981	2.2171	2.7273	5.e-002	22.942
17982	2.2171	2.4545	0.	5200.4
17983	2.1248	2.5455	0.	5221.7
17984	2.2171	2.5455	5.e-002	22.901
17985	2.2171	2.2727	0.	5213.9
17986	2.1248	2.3636	0.	5231.5
17987	2.2171	2.3636	5.e-002	22.849
17988	2.2171	2.0909	0.	5232.5
17989	2.1248	2.1818	0.	5245.7
17990	2.2171	2.1818	5.e-002	22.796
17991	2.2171	1.9091	0.	5256.9
17992	2.1248	2.	0.	5265.
17993	2.2171	2.	5.e-002	22.755
17994	2.2171	1.7273	0.	5288.2
17995	2.1248	1.8182	0.	5290.7
17996	2.2171	1.8182	5.e-002	22.734
17997	2.2171	1.5455	0.	5327.1
17998	2.1248	1.6364	0.	5323.8
17999	2.2171	1.6364	5.e-002	22.736
18000	2.2171	1.3636	0.	5374.4
18001	2.1248	1.4545	0.	5365.2
18002	2.2171	1.4545	5.e-002	22.751
18003	2.2171	1.1818	0.	5430.6
18004	2.1248	1.2727	0.	5415.9
18005	2.2171	1.2727	5.e-002	22.756
18006	2.2171	1.	0.	5495.6
18007	2.1248	1.0909	0.	5476.3
18008	2.2171	1.0909	5.e-002	22.71
18009	2.2171	0.81818	0.	5569.
18010	2.1248	0.90909	0.	5546.4
18011	2.2171	0.90909	5.e-002	22.562
18012	2.2171	0.63636	0.	5650.1
18013	2.1248	0.72727	0.	5625.6
18014	2.2171	0.72727	5.e-002	22.262
18015	2.2171	0.45455	0.	5737.9
18016	2.1248	0.54545	0.	5712.6
18017	2.2171	0.54545	5.e-002	21.821
18018	2.2171	0.27273	0.	5836.3
18019	2.1248	0.36364	0.	5806.9
18020	2.2171	0.36364	5.e-002	21.815
18021	2.1248	0.18182	0.	5917.8
18022	2.2171	0.18182	5.e-002	39.248
18023	2.2171	9.0909e-002	0.	5892.
18024	2.0324	5.7273	0.	5888.1
18025	1.94	5.8182	0.	5971.4
18026	2.0324	5.8182	5.e-002	41.517
18027	2.0324	5.9091	0.	5944.4
18028	2.0324	5.5455	0.	5781.4
18029	1.94	5.6364	0.	5849.9
18030	2.0324	5.6364	5.e-002	23.152
18031	2.0324	5.3636	0.	5687.8
18032	1.94	5.4545	0.	5748.8
18033	2.0324	5.4545	5.e-002	23.388
18034	2.0324	5.1818	0.	5602.6
18035	1.94	5.2727	0.	5656.8
18036	2.0324	5.2727	5.e-002	23.918
18037	2.0324	5.	0.	5526.8
18038	1.94	5.0909	0.	5574.8
18039	2.0324	5.0909	5.e-002	24.238
18040	2.0324	4.8182	0.	5461.4
18041	1.94	4.9091	0.	5504.1
18042	2.0324	4.9091	5.e-002	24.367
18043	2.0324	4.6364	0.	5406.4
18044	1.94	4.7273	0.	5445.
18045	2.0324	4.7273	5.e-002	24.383
18046	2.0324	4.4545	0.	5361.6
18047	1.94	4.5455	0.	5397.3
18048	2.0324	4.5455	5.e-002	24.36
18049	2.0324	4.2727	0.	5326.
18050	1.94	4.3636	0.	5360.
18051	2.0324	4.3636	5.e-002	24.344
18052	2.0324	4.0909	0.	5298.6
18053	1.94	4.1818	0.	5331.6
18054	2.0324	4.1818	5.e-002	24.362
18055	2.0324	3.9091	0.	5278.
18056	1.94	4.	0.	5310.8
18057	2.0324	4.	5.e-002	24.416
18058	2.0324	3.7273	0.	5263.1
18059	1.94	3.8182	0.	5296.
18060	2.0324	3.8182	5.e-002	24.497
18061	2.0324	3.5455	0.	5252.7
18062	1.94	3.6364	0.	5285.8
18063	2.0324	3.6364	5.e-002	24.588
18064	2.0324	3.3636	0.	5245.9
18065	1.94	3.4545	0.	5279.2
18066	2.0324	3.4545	5.e-002	24.673
18067	2.0324	3.1818	0.	5242.1
18068	1.94	3.2727	0.	5275.2
18069	2.0324	3.2727	5.e-002	24.738
18070	2.0324	3.	0.	5240.9
18071	1.94	3.0909	0.	5273.4
18072	2.0324	3.0909	5.e-002	24.773
18073	2.0324	2.8182	0.	5242.1
18074	1.94	2.9091	0.	5273.4
18075	2.0324	2.9091	5.e-002	24.773
18076	2.0324	2.6364	0.	5245.9
18077	1.94	2.7273	0.	5275.2
18078	2.0324	2.7273	5.e-002	24.738
18079	2.0324	2.4545	0.	5252.7
18080	1.94	2.5455	0.	5279.2
18081	2.0324	2.5455	5.e-002	24.673
18082	2.0324	2.2727	0.	5263.1
18083	1.94	2.3636	0.	5285.8
18084	2.0324	2.3636	5.e-002	24.588
18085	2.0324	2.0909	0.	5278.
18086	1.94	2.1818	0.	5296.
18087	2.0324	2.1818	5.e-002	24.497
18088	2.0324	1.9091	0.	5298.6
18089	1.94	2.	0.	5310.8
18090	2.0324	2.	5.e-002	24.416
18091	2.0324	1.7273	0.	5326.
18092	1.94	1.8182	0.	5331.6
18093	2.0324	1.8182	5.e-002	24.362
18094	2.0324	1.5455	0.	5361.6
18095	1.94	1.6364	0.	5360.
18096	2.0324	1.6364	5.e-002	24.344
18097	2.0324	1.3636	0.	5406.4
18098	1.94	1.4545	0.	5397.3
18099	2.0324	1.4545	5.e-002	24.36
18100	2.0324	1.1818	0.	5461.4
18101	1.94	1.2727	0.	5445.
18102	2.0324	1.2727	5.e-002	24.383
18103	2.0324	1.	0.	5526.8
18104	1.94	1.0909	0.	5504.1
18105	2.0324	1.0909	5.e-002	24.367
18106	2.0324	0.81818	0.	5602.6
18107	1.94	0.90909	0.	5574.8
18108	2.0324	0.90909	5.e-002	24.238
18109	2.0324	0.63636	0.	5687.8
18110	1.94	0.72727	0.	5656.8
18111	2.0324	0.72727	5.e-002	23.918
18112	2.0324	0.45455	0.	5781.4
18113	1.94	0.54545	0.	5748.8
18114	2.0324	0.54545	5.e-002	23.388
18115	2.0324	0.27273	0.	5888.1
18116	1.94	0.36364	0.	5849.9
18117	2.0324	0.36364	5.e-002	23.152
18118	1.94	0.18182	0.	5971.4
18119	2.0324	0.18182	5.e-002	41.517
18120	2.0324	9.0909e-002	0.	5944.4
18121	1.8476	5.7273	0.	5932.8
18122	1.7552	5.8182	0.	6017.
18123	1.8476	5.8182	5.e-002	43.722
18124	1.8476	5.9091	0.	5989.1
18125	1.8476	5.5455	0.	5817.
18126	1.7552	5.6364	0.	5883.6
18127	1.8476	5.6364	5.e-002	24.821
18128	1.8476	5.3636	0.	5717.5
18129	1.7552	5.4545	0.	5775.3
18130	1.8476	5.4545	5.e-002	25.359
18131	1.8476	5.1818	0.	5628.6
18132	1.7552	5.2727	0.	5678.7
18133	1.8476	5.2727	5.e-002	25.962
18134	1.8476	5.	0.	5551.6
18135	1.7552	5.0909	0.	5595.
18136	1.8476	5.0909	5.e-002	26.259
18137	1.8476	4.8182	0.	5487.3
18138	1.7552	4.9091	0.	5525.4
18139	1.8476	4.9091	5.e-002	26.323
18140	1.8476	4.6364	0.	5435.5
18141	1.7552	4.7273	0.	5469.9
18142	1.8476	4.7273	5.e-002	26.275
18143	1.8476	4.4545	0.	5395.3
18144	1.7552	4.5455	0.	5427.7
18145	1.8476	4.5455	5.e-002	26.213
18146	1.8476	4.2727	0.	5365.2
18147	1.7552	4.3636	0.	5396.9
18148	1.8476	4.3636	5.e-002	26.192
18149	1.8476	4.0909	0.	5343.5
18150	1.7552	4.1818	0.	5375.6
18151	1.8476	4.1818	5.e-002	26.232
18152	1.8476	3.9091	0.	5328.5
18153	1.7552	4.	0.	5361.5
18154	1.8476	4.	5.e-002	26.324
18155	1.8476	3.7273	0.	5318.5
18156	1.7552	3.8182	0.	5352.8
18157	1.8476	3.8182	5.e-002	26.449
18158	1.8476	3.5455	0.	5312.1
18159	1.7552	3.6364	0.	5347.9
18160	1.8476	3.6364	5.e-002	26.583
18161	1.8476	3.3636	0.	5308.4
18162	1.7552	3.4545	0.	5345.3
18163	1.8476	3.4545	5.e-002	26.702
18164	1.8476	3.1818	0.	5306.4
18165	1.7552	3.2727	0.	5344.1
18166	1.8476	3.2727	5.e-002	26.79
18167	1.8476	3.	0.	5305.8
18168	1.7552	3.0909	0.	5343.7
18169	1.8476	3.0909	5.e-002	26.837
18170	1.8476	2.8182	0.	5306.4
18171	1.7552	2.9091	0.	5343.7
18172	1.8476	2.9091	5.e-002	26.837
18173	1.8476	2.6364	0.	5308.4
18174	1.7552	2.7273	0.	5344.1
18175	1.8476	2.7273	5.e-002	26.79
18176	1.8476	2.4545	0.	5312.1
18177	1.7552	2.5455	0.	5345.3
18178	1.8476	2.5455	5.e-002	26.702
18179	1.8476	2.2727	0.	5318.5
18180	1.7552	2.3636	0.	5347.9
18181	1.8476	2.3636	5.e-002	26.583
18182	1.8476	2.0909	0.	5328.5
18183	1.7552	2.1818	0.	5352.8
18184	1.8476	2.1818	5.e-002	26.449
18185	1.8476	1.9091	0.	5343.5
18186	1.7552	2.	0.	5361.5
18187	1.8476	2.	5.e-002	26.324
18188	1.8476	1.7273	0.	5365.2
18189	1.7552	1.8182	0.	5375.6
18190	1.8476	1.8182	5.e-002	26.232
18191	1.8476	1.5455	0.	5395.3
18192	1.7552	1.6364	0.	5396.9
18193	1.8476	1.6364	5.e-002	26.192
18194	1.8476	1.3636	0.	5435.5
18195	1.7552	1.4545	0.	5427.7
18196	1.8476	1.4545	5.e-002	26.213
18197	1.8476	1.1818	0.	5487.3
18198	1.7552	1.2727	0.	5469.9
18199	1.8476	1.2727	5.e-002	26.275
18200	1.8476	1.	0.	5551.6
18201	1.7552	1.0909	0.	5525.4
18202	1.8476	1.0909	5.e-002	26.323
18203	1.8476	0.81818	0.	5628.6
18204	1.7552	0.90909	0.	5595.
18205	1.8476	0.90909	5.e-002	26.259
18206	1.8476	0.63636	0.	5717.5
18207	1.7552	0.72727	0.	5678.7
18208	1.8476	0.72727	5.e-002	25.962
18209	1.8476	0.45455	0.	5817.
18210	1.7552	0.54545	0.	5775.3
18211	1.8476	0.54545	5.e-002	25.359
18212	1.8476	0.27273	0.	5932.8
18213	1.7552	0.36364	0.	5883.6
18214	1.8476	0.36364	5.e-002	24.821
18215	1.7552	0.18182	0.	6017.
18216	1.8476	0.18182	5.e-002	43.722
18217	1.8476	9.0909e-002	0.	5989.1
18218	1.6629	5.7273	0.	5967.3
18219	1.5705	5.8182	0.	6051.1
18220	1.6629	5.8182	5.e-002	45.789
18221	1.6629	5.9091	0.	6023.2
18222	1.6629	5.5455	0.	5841.5
18223	1.5705	5.6364	0.	5904.
18224	1.6629	5.6364	5.e-002	27.011
18225	1.6629	5.3636	0.	5736.
18226	1.5705	5.4545	0.	5788.3
18227	1.6629	5.4545	5.e-002	27.918
18228	1.6629	5.1818	0.	5644.5
18229	1.5705	5.2727	0.	5688.
18230	1.6629	5.2727	5.e-002	28.536
18231	1.6629	5.	0.	5568.1
18232	1.5705	5.0909	0.	5604.5
18233	1.6629	5.0909	5.e-002	28.727
18234	1.6629	4.8182	0.	5507.4
18235	1.5705	4.9091	0.	5538.8
18236	1.6629	4.9091	5.e-002	28.65
18237	1.6629	4.6364	0.	5461.6
18238	1.5705	4.7273	0.	5490.3
18239	1.6629	4.7273	5.e-002	28.486
18240	1.6629	4.4545	0.	5428.9
18241	1.5705	4.5455	0.	5457.
18242	1.6629	4.5455	5.e-002	28.359
18243	1.6629	4.2727	0.	5406.9
18244	1.5705	4.3636	0.	5435.9
18245	1.6629	4.3636	5.e-002	28.326
18246	1.6629	4.0909	0.	5393.2
18247	1.5705	4.1818	0.	5424.2
18248	1.6629	4.1818	5.e-002	28.388
18249	1.6629	3.9091	0.	5385.6
18250	1.5705	4.	0.	5419.2
18251	1.6629	4.	5.e-002	28.522
18252	1.6629	3.7273	0.	5382.
18253	1.5705	3.8182	0.	5418.4
18254	1.6629	3.8182	5.e-002	28.691
18255	1.6629	3.5455	0.	5380.9
18256	1.5705	3.6364	0.	5419.8
18257	1.6629	3.6364	5.e-002	28.862
18258	1.6629	3.3636	0.	5380.9
18259	1.5705	3.4545	0.	5422.2
18260	1.6629	3.4545	5.e-002	29.011
18261	1.6629	3.1818	0.	5381.2
18262	1.5705	3.2727	0.	5424.3
18263	1.6629	3.2727	5.e-002	29.119
18264	1.6629	3.	0.	5381.4
18265	1.5705	3.0909	0.	5425.5
18266	1.6629	3.0909	5.e-002	29.176
18267	1.6629	2.8182	0.	5381.2
18268	1.5705	2.9091	0.	5425.5
18269	1.6629	2.9091	5.e-002	29.176
18270	1.6629	2.6364	0.	5380.9
18271	1.5705	2.7273	0.	5424.3
18272	1.6629	2.7273	5.e-002	29.119
18273	1.6629	2.4545	0.	5380.9
18274	1.5705	2.5455	0.	5422.2
18275	1.6629	2.5455	5.e-002	29.011
18276	1.6629	2.2727	0.	5382.
18277	1.5705	2.3636	0.	5419.8
18278	1.6629	2.3636	5.e-002	28.862
18279	1.6629	2.0909	0.	5385.6
18280	1.5705	2.1818	0.	5418.4
18281	1.6629	2.1818	5.e-002	28.691
18282	1.6629	1.9091	0.	5393.2
18283	1.5705	2.	0.	5419.2
18284	1.6629	2.	5.e-002	28.522
18285	1.6629	1.7273	0.	5406.9
18286	1.5705	1.8182	0.	5424.2
18287	1.6629	1.8182	5.e-002	28.388
18288	1.6629	1.5455	0.	5428.9
18289	1.5705	1.6364	0.	5435.9
18290	1.6629	1.6364	5.e-002	28.326
18291	1.6629	1.3636	0.	5461.6
18292	1.5705	1.4545	0.	5457.
18293	1.6629	1.4545	5.e-002	28.359
18294	1.6629	1.1818	0.	5507.4
18295	1.5705	1.2727	0.	5490.3
18296	1.6629	1.2727	5.e-002	28.486
18297	1.6629	1.	0.	5568.1
18298	1.5705	1.0909	0.	5538.8
18299	1.6629	1.0909	5.e-002	28.65
18300	1.6629	0.81818	0.	5644.5
18301	1.5705	0.90909	0.	5604.5
18302	1.6629	0.90909	5.e-002	28.727
18303	1.6629	0.63636	0.	5736.
18304	1.5705	0.72727	0.	5688.
18305	1.6629	0.72727	5.e-002	28.536
18306	1.6629	0.45455	0.	5841.5
18307	1.5705	0.54545	0.	5788.3
18308	1.6629	0.54545	5.e-002	27.918
18309	1.6629	0.27273	0.	5967.3
18310	1.5705	0.36364	0.	5904.
18311	1.6629	0.36364	5.e-002	27.011
18312	1.5705	0.18182	0.	6051.1
18313	1.6629	0.18182	5.e-002	45.789
18314	1.6629	9.0909e-002	0.	6023.2
18315	1.4781	5.7273	0.	5987.1
18316	1.3857	5.8182	0.	6068.2
18317	1.4781	5.8182	5.e-002	47.63
18318	1.4781	5.9091	0.	6042.1
18319	1.4781	5.5455	0.	5850.3
18320	1.3857	5.6364	0.	5905.8
18321	1.4781	5.6364	5.e-002	30.036
18322	1.4781	5.3636	0.	5739.5
18323	1.3857	5.4545	0.	5782.6
18324	1.4781	5.4545	5.e-002	31.335
18325	1.4781	5.1818	0.	5647.1
18326	1.3857	5.2727	0.	5680.4
18327	1.4781	5.2727	5.e-002	31.839
18328	1.4781	5.	0.	5574.3
18329	1.3857	5.0909	0.	5600.5
18330	1.4781	5.0909	5.e-002	31.771
18331	1.4781	4.8182	0.	5520.9
18332	1.3857	4.9091	0.	5543.3
18333	1.4781	4.9091	5.e-002	31.431
18334	1.4781	4.6364	0.	5485.
18335	1.3857	4.7273	0.	5506.6
18336	1.4781	4.7273	5.e-002	31.081
18337	1.4781	4.4545	0.	5463.5
18338	1.3857	4.5455	0.	5486.6
18339	1.4781	4.5455	5.e-002	30.862
18340	1.4781	4.2727	0.	5452.8
18341	1.3857	4.3636	0.	5479.2
18342	1.4781	4.3636	5.e-002	30.809
18343	1.4781	4.0909	0.	5449.9
18344	1.3857	4.1818	0.	5480.3
18345	1.4781	4.1818	5.e-002	30.892
18346	1.4781	3.9091	0.	5451.7
18347	1.3857	4.	0.	5486.6
18348	1.4781	4.	5.e-002	31.06
18349	1.4781	3.7273	0.	5456.
18350	1.3857	3.8182	0.	5495.3
18351	1.4781	3.8182	5.e-002	31.262
18352	1.4781	3.5455	0.	5461.
18353	1.3857	3.6364	0.	5504.3
18354	1.4781	3.6364	5.e-002	31.458
18355	1.4781	3.3636	0.	5465.4
18356	1.3857	3.4545	0.	5512.3
18357	1.4781	3.4545	5.e-002	31.623
18358	1.4781	3.1818	0.	5468.4
18359	1.3857	3.2727	0.	5518.1
18360	1.4781	3.2727	5.e-002	31.74
18361	1.4781	3.	0.	5469.5
18362	1.3857	3.0909	0.	5521.2
18363	1.4781	3.0909	5.e-002	31.8
18364	1.4781	2.8182	0.	5468.4
18365	1.3857	2.9091	0.	5521.2
18366	1.4781	2.9091	5.e-002	31.8
18367	1.4781	2.6364	0.	5465.4
18368	1.3857	2.7273	0.	5518.1
18369	1.4781	2.7273	5.e-002	31.74
18370	1.4781	2.4545	0.	5461.
18371	1.3857	2.5455	0.	5512.3
18372	1.4781	2.5455	5.e-002	31.623
18373	1.4781	2.2727	0.	5456.
18374	1.3857	2.3636	0.	5504.3
18375	1.4781	2.3636	5.e-002	31.458
18376	1.4781	2.0909	0.	5451.7
18377	1.3857	2.1818	0.	5495.3
18378	1.4781	2.1818	5.e-002	31.262
18379	1.4781	1.9091	0.	5449.9
18380	1.3857	2.	0.	5486.6
18381	1.4781	2.	5.e-002	31.06
18382	1.4781	1.7273	0.	5452.8
18383	1.3857	1.8182	0.	5480.3
18384	1.4781	1.8182	5.e-002	30.892
18385	1.4781	1.5455	0.	5463.5
18386	1.3857	1.6364	0.	5479.2
18387	1.4781	1.6364	5.e-002	30.809
18388	1.4781	1.3636	0.	5485.
18389	1.3857	1.4545	0.	5486.6
18390	1.4781	1.4545	5.e-002	30.862
18391	1.4781	1.1818	0.	5520.9
18392	1.3857	1.2727	0.	5506.6
18393	1.4781	1.2727	5.e-002	31.081
18394	1.4781	1.	0.	5574.3
18395	1.3857	1.0909	0.	5543.3
18396	1.4781	1.0909	5.e-002	31.431
18397	1.4781	0.81818	0.	5647.1
18398	1.3857	0.90909	0.	5600.5
18399	1.4781	0.90909	5.e-002	31.771
18400	1.4781	0.63636	0.	5739.5
18401	1.3857	0.72727	0.	5680.4
18402	1.4781	0.72727	5.e-002	31.839
18403	1.4781	0.45455	0.	5850.3
18404	1.3857	0.54545	0.	5782.6
18405	1.4781	0.54545	5.e-002	31.335
18406	1.4781	0.27273	0.	5987.1
18407	1.3857	0.36364	0.	5905.8
18408	1.4781	0.36364	5.e-002	30.036
18409	1.3857	0.18182	0.	6068.2
18410	1.4781	0.18182	5.e-002	47.63
18411	1.4781	9.0909e-002	0.	6042.1
18412	1.2933	5.7273	0.	5985.9
18413	1.201	5.8182	0.	6060.3
18414	1.2933	5.8182	5.e-002	49.143
18415	1.2933	5.9091	0.	6039.2
18416	1.2933	5.5455	0.	5837.3
18417	1.201	5.6364	0.	5880.2
18418	1.2933	5.6364	5.e-002	34.406
18419	1.2933	5.3636	0.	5722.5
18420	1.201	5.4545	0.	5750.6
18421	1.2933	5.4545	5.e-002	36.011
18422	1.2933	5.1818	0.	5632.6
18423	1.201	5.2727	0.	5650.1
18424	1.2933	5.2727	5.e-002	36.125
18425	1.2933	5.	0.	5568.4
18426	1.201	5.0909	0.	5579.8
18427	1.2933	5.0909	5.e-002	35.536
18428	1.2933	4.8182	0.	5528.
18429	1.201	4.9091	0.	5538.
18430	1.2933	4.9091	5.e-002	34.76
18431	1.2933	4.6364	0.	5507.4
18432	1.201	4.7273	0.	5519.8
18433	1.2933	4.7273	5.e-002	34.142
18434	1.2933	4.4545	0.	5501.7
18435	1.201	4.5455	0.	5519.
18436	1.2933	4.5455	5.e-002	33.803
18437	1.2933	4.2727	0.	5506.2
18438	1.201	4.3636	0.	5529.6
18439	1.2933	4.3636	5.e-002	33.719
18440	1.2933	4.0909	0.	5516.7
18441	1.201	4.1818	0.	5546.7
18442	1.2933	4.1818	5.e-002	33.809
18443	1.2933	3.9091	0.	5529.9
18444	1.201	4.	0.	5566.5
18445	1.2933	4.	5.e-002	33.988
18446	1.2933	3.7273	0.	5543.4
18447	1.201	3.8182	0.	5586.1
18448	1.2933	3.8182	5.e-002	34.193
18449	1.2933	3.5455	0.	5555.5
18450	1.201	3.6364	0.	5603.5
18451	1.2933	3.6364	5.e-002	34.384
18452	1.2933	3.3636	0.	5564.9
18453	1.201	3.4545	0.	5617.6
18454	1.2933	3.4545	5.e-002	34.538
18455	1.2933	3.1818	0.	5570.8
18456	1.201	3.2727	0.	5627.4
18457	1.2933	3.2727	5.e-002	34.645
18458	1.2933	3.	0.	5572.8
18459	1.201	3.0909	0.	5632.4
18460	1.2933	3.0909	5.e-002	34.699
18461	1.2933	2.8182	0.	5570.8
18462	1.201	2.9091	0.	5632.4
18463	1.2933	2.9091	5.e-002	34.699
18464	1.2933	2.6364	0.	5564.9
18465	1.201	2.7273	0.	5627.4
18466	1.2933	2.7273	5.e-002	34.645
18467	1.2933	2.4545	0.	5555.5
18468	1.201	2.5455	0.	5617.6
18469	1.2933	2.5455	5.e-002	34.538
18470	1.2933	2.2727	0.	5543.4
18471	1.201	2.3636	0.	5603.5
18472	1.2933	2.3636	5.e-002	34.384
18473	1.2933	2.0909	0.	5529.9
18474	1.201	2.1818	0.	5586.1
18475	1.2933	2.1818	5.e-002	34.193
18476	1.2933	1.9091	0.	5516.7
18477	1.201	2.	0.	5566.5
18478	1.2933	2.	5.e-002	33.988
18479	1.2933	1.7273	0.	5506.2
18480	1.201	1.8182	0.	5546.7
18481	1.2933	1.8182	5.e-002	33.809
18482	1.2933	1.5455	0.	5501.7
18483	1.201	1.6364	0.	5529.6
18484	1.2933	1.6364	5.e-002	33.719
18485	1.2933	1.3636	0.	5507.4
18486	1.201	1.4545	0.	5519.
18487	1.2933	1.4545	5.e-002	33.803
18488	1.2933	1.1818	0.	5528.
18489	1.201	1.2727	0.	5519.8
18490	1.2933	1.2727	5.e-002	34.142
18491	1.2933	1.	0.	5568.4
18492	1.201	1.0909	0.	5538.
18493	1.2933	1.0909	5.e-002	34.76
18494	1.2933	0.81818	0.	5632.6
18495	1.201	0.90909	0.	5579.8
18496	1.2933	0.90909	5.e-002	35.536
18497	1.2933	0.63636	0.	5722.5
18498	1.201	0.72727	0.	5650.1
18499	1.2933	0.72727	5.e-002	36.125
18500	1.2933	0.45455	0.	5837.3
18501	1.201	0.54545	0.	5750.6
18502	1.2933	0.54545	5.e-002	36.011
18503	1.2933	0.27273	0.	5985.9
18504	1.201	0.36364	0.	5880.2
18505	1.2933	0.36364	5.e-002	34.406
18506	1.201	0.18182	0.	6060.3
18507	1.2933	0.18182	5.e-002	49.143
18508	1.2933	9.0909e-002	0.	6039.2
18509	1.1086	5.7273	0.	5953.3
18510	1.0162	5.8182	0.	6015.
18511	1.1086	5.8182	5.e-002	50.345
18512	1.1086	5.9091	0.	6004.3
18513	1.1086	5.5455	0.	5792.3
18514	1.0162	5.6364	0.	5815.6
18515	1.1086	5.6364	5.e-002	40.977
18516	1.1086	5.3636	0.	5676.7
18517	1.0162	5.4545	0.	5682.9
18518	1.1086	5.4545	5.e-002	42.519
18519	1.1086	5.1818	0.	5595.6
18520	1.0162	5.2727	0.	5592.
18521	1.1086	5.2727	5.e-002	41.71
18522	1.1086	5.	0.	5548.
18523	1.0162	5.0909	0.	5542.
18524	1.1086	5.0909	5.e-002	40.187
18525	1.1086	4.8182	0.	5528.7
18526	1.0162	4.9091	0.	5526.5
18527	1.1086	4.9091	5.e-002	38.762
18528	1.1086	4.6364	0.	5530.6
18529	1.0162	4.7273	0.	5535.9
18530	1.1086	4.7273	5.e-002	37.803
18531	1.1086	4.4545	0.	5546.3
18532	1.0162	4.5455	0.	5561.1
18533	1.1086	4.5455	5.e-002	37.326
18534	1.1086	4.2727	0.	5569.8
18535	1.0162	4.3636	0.	5594.4
18536	1.1086	4.3636	5.e-002	37.192
18537	1.1086	4.0909	0.	5596.3
18538	1.0162	4.1818	0.	5630.3
18539	1.1086	4.1818	5.e-002	37.25
18540	1.1086	3.9091	0.	5622.4
18541	1.0162	4.	0.	5665.1
18542	1.1086	4.	5.e-002	37.387
18543	1.1086	3.7273	0.	5646.
18544	1.0162	3.8182	0.	5696.3
18545	1.1086	3.8182	5.e-002	37.54
18546	1.1086	3.5455	0.	5665.6
18547	1.0162	3.6364	0.	5722.5
18548	1.1086	3.6364	5.e-002	37.675
18549	1.1086	3.3636	0.	5680.1
18550	1.0162	3.4545	0.	5742.8
18551	1.1086	3.4545	5.e-002	37.778
18552	1.1086	3.1818	0.	5689.
18553	1.0162	3.2727	0.	5756.5
18554	1.1086	3.2727	5.e-002	37.846
18555	1.1086	3.	0.	5692.
18556	1.0162	3.0909	0.	5763.4
18557	1.1086	3.0909	5.e-002	37.88
18558	1.1086	2.8182	0.	5689.
18559	1.0162	2.9091	0.	5763.4
18560	1.1086	2.9091	5.e-002	37.88
18561	1.1086	2.6364	0.	5680.1
18562	1.0162	2.7273	0.	5756.5
18563	1.1086	2.7273	5.e-002	37.846
18564	1.1086	2.4545	0.	5665.6
18565	1.0162	2.5455	0.	5742.8
18566	1.1086	2.5455	5.e-002	37.778
18567	1.1086	2.2727	0.	5646.
18568	1.0162	2.3636	0.	5722.5
18569	1.1086	2.3636	5.e-002	37.675
18570	1.1086	2.0909	0.	5622.4
18571	1.0162	2.1818	0.	5696.3
18572	1.1086	2.1818	5.e-002	37.54
18573	1.1086	1.9091	0.	5596.3
18574	1.0162	2.	0.	5665.1
18575	1.1086	2.	5.e-002	37.387
18576	1.1086	1.7273	0.	5569.8
18577	1.0162	1.8182	0.	5630.3
18578	1.1086	1.8182	5.e-002	37.25
18579	1.1086	1.5455	0.	5546.3
18580	1.0162	1.6364	0.	5594.4
18581	1.1086	1.6364	5.e-002	37.192
18582	1.1086	1.3636	0.	5530.6
18583	1.0162	1.4545	0.	5561.1
18584	1.1086	1.4545	5.e-002	37.326
18585	1.1086	1.1818	0.	5528.7
18586	1.0162	1.2727	0.	5536.
18587	1.1086	1.2727	5.e-002	37.803
18588	1.1086	1.	0.	5548.
18589	1.0162	1.0909	0.	5526.5
18590	1.1086	1.0909	5.e-002	38.762
18591	1.1086	0.81818	0.	5595.6
18592	1.0162	0.90909	0.	5542.
18593	1.1086	0.90909	5.e-002	40.187
18594	1.1086	0.63636	0.	5676.7
18595	1.0162	0.72727	0.	5592.
18596	1.1086	0.72727	5.e-002	41.71
18597	1.1086	0.45455	0.	5792.3
18598	1.0162	0.54545	0.	5682.9
18599	1.1086	0.54545	5.e-002	42.519
18600	1.1086	0.27273	0.	5953.3
18601	1.0162	0.36364	0.	5815.6
18602	1.1086	0.36364	5.e-002	40.977
18603	1.0162	0.18182	0.	6015.
18604	1.1086	0.18182	5.e-002	50.345
18605	1.1086	9.0909e-002	0.	6004.3
18606	0.92381	5.7273	0.	5875.2
18607	0.83143	5.8182	0.	5909.2
18608	0.92381	5.8182	5.e-002	51.576
18609	0.92381	5.9091	0.	5921.6
18610	0.92381	5.5455	0.	5704.2
18611	0.83143	5.6364	0.	5688.
18612	0.92381	5.6364	5.e-002	51.1
18613	0.92381	5.3636	0.	5596.
18614	0.83143	5.4545	0.	5559.8
18615	0.92381	5.4545	5.e-002	51.648
18616	0.92381	5.1818	0.	5536.2
18617	0.83143	5.2727	0.	5494.2
18618	0.92381	5.2727	5.e-002	48.904
18619	0.92381	5.	0.	5518.8
18620	0.83143	5.0909	0.	5482.2
18621	0.92381	5.0909	5.e-002	45.834
18622	0.92381	4.8182	0.	5532.6
18623	0.83143	4.9091	0.	5508.1
18624	0.92381	4.9091	5.e-002	43.537
18625	0.92381	4.6364	0.	5565.8
18626	0.83143	4.7273	0.	5556.
18627	0.92381	4.7273	5.e-002	42.186
18628	0.92381	4.4545	0.	5608.8
18629	0.83143	4.5455	0.	5613.6
18630	0.92381	4.5455	5.e-002	41.533
18631	0.92381	4.2727	0.	5654.7
18632	0.83143	4.3636	0.	5673.
18633	0.92381	4.3636	5.e-002	41.275
18634	0.92381	4.0909	0.	5699.
18635	0.83143	4.1818	0.	5729.
18636	0.92381	4.1818	5.e-002	41.201
18637	0.92381	3.9091	0.	5738.9
18638	0.83143	4.	0.	5779.1
18639	0.92381	4.	5.e-002	41.193
18640	0.92381	3.7273	0.	5772.8
18641	0.83143	3.8182	0.	5821.6
18642	0.92381	3.8182	5.e-002	41.198
18643	0.92381	3.5455	0.	5799.7
18644	0.83143	3.6364	0.	5855.9
18645	0.92381	3.6364	5.e-002	41.199
18646	0.92381	3.3636	0.	5819.1
18647	0.83143	3.4545	0.	5881.7
18648	0.92381	3.4545	5.e-002	41.193
18649	0.92381	3.1818	0.	5830.9
18650	0.83143	3.2727	0.	5898.9
18651	0.92381	3.2727	5.e-002	41.185
18652	0.92381	3.	0.	5834.8
18653	0.83143	3.0909	0.	5907.5
18654	0.92381	3.0909	5.e-002	41.18
18655	0.92381	2.8182	0.	5830.9
18656	0.83143	2.9091	0.	5907.5
18657	0.92381	2.9091	5.e-002	41.18
18658	0.92381	2.6364	0.	5819.1
18659	0.83143	2.7273	0.	5898.9
18660	0.92381	2.7273	5.e-002	41.185
18661	0.92381	2.4545	0.	5799.7
18662	0.83143	2.5455	0.	5881.7
18663	0.92381	2.5455	5.e-002	41.193
18664	0.92381	2.2727	0.	5772.8
18665	0.83143	2.3636	0.	5855.9
18666	0.92381	2.3636	5.e-002	41.199
18667	0.92381	2.0909	0.	5738.9
18668	0.83143	2.1818	0.	5821.6
18669	0.92381	2.1818	5.e-002	41.198
18670	0.92381	1.9091	0.	5699.
18671	0.83143	2.	0.	5779.1
18672	0.92381	2.	5.e-002	41.193
18673	0.92381	1.7273	0.	5654.7
18674	0.83143	1.8182	0.	5729.
18675	0.92381	1.8182	5.e-002	41.201
18676	0.92381	1.5455	0.	5608.8
18677	0.83143	1.6364	0.	5673.
18678	0.92381	1.6364	5.e-002	41.275
18679	0.92381	1.3636	0.	5565.8
18680	0.83143	1.4545	0.	5613.6
18681	0.92381	1.4545	5.e-002	41.533
18682	0.92381	1.1818	0.	5532.6
18683	0.83143	1.2727	0.	5556.
18684	0.92381	1.2727	5.e-002	42.186
18685	0.92381	1.	0.	5518.8
18686	0.83143	1.0909	0.	5508.1
18687	0.92381	1.0909	5.e-002	43.537
18688	0.92381	0.81818	0.	5536.2
18689	0.83143	0.90909	0.	5482.2
18690	0.92381	0.90909	5.e-002	45.834
18691	0.92381	0.63636	0.	5596.
18692	0.83143	0.72727	0.	5494.2
18693	0.92381	0.72727	5.e-002	48.904
18694	0.92381	0.45455	0.	5704.2
18695	0.83143	0.54545	0.	5559.8
18696	0.92381	0.54545	5.e-002	51.648
18697	0.92381	0.27273	0.	5875.2
18698	0.83143	0.36364	0.	5688.
18699	0.92381	0.36364	5.e-002	51.1
18700	0.83143	0.18182	0.	5909.2
18701	0.92381	0.18182	5.e-002	51.576
18702	0.92381	9.0909e-002	0.	5921.6
18703	0.73905	5.7273	0.	5718.5
18704	0.64667	5.8182	0.	5708.2
18705	0.73905	5.8182	5.e-002	55.531
18706	0.73905	5.9091	0.	5761.4
18707	0.73905	5.5455	0.	5540.1
18708	0.64667	5.6364	0.	5477.7
18709	0.73905	5.6364	5.e-002	67.152
18710	0.73905	5.3636	0.	5454.5
18711	0.64667	5.4545	0.	5383.8
18712	0.73905	5.4545	5.e-002	64.322
18713	0.73905	5.1818	0.	5437.4
18714	0.64667	5.2727	0.	5380.6
18715	0.73905	5.2727	5.e-002	57.972
18716	0.73905	5.	0.	5469.7
18717	0.64667	5.0909	0.	5438.4
18718	0.73905	5.0909	5.e-002	52.803
18719	0.73905	4.8182	0.	5530.6
18720	0.64667	4.9091	0.	5526.7
18721	0.73905	4.9091	5.e-002	49.62
18722	0.73905	4.6364	0.	5603.4
18723	0.64667	4.7273	0.	5624.4
18724	0.73905	4.7273	5.e-002	47.915
18725	0.73905	4.4545	0.	5677.7
18726	0.64667	4.5455	0.	5719.7
18727	0.73905	4.5455	5.e-002	47.023
18728	0.73905	4.2727	0.	5747.3
18729	0.64667	4.3636	0.	5806.4
18730	0.73905	4.3636	5.e-002	46.504
18731	0.73905	4.0909	0.	5809.1
18732	0.64667	4.1818	0.	5882.2
18733	0.73905	4.1818	5.e-002	46.14
18734	0.73905	3.9091	0.	5861.8
18735	0.64667	4.	0.	5946.2
18736	0.73905	4.	5.e-002	45.842
18737	0.73905	3.7273	0.	5904.7
18738	0.64667	3.8182	0.	5998.5
18739	0.73905	3.8182	5.e-002	45.582
18740	0.73905	3.5455	0.	5937.9
18741	0.64667	3.6364	0.	6039.6
18742	0.73905	3.6364	5.e-002	45.359
18743	0.73905	3.3636	0.	5961.4
18744	0.64667	3.4545	0.	6069.8
18745	0.73905	3.4545	5.e-002	45.182
18746	0.73905	3.1818	0.	5975.5
18747	0.64667	3.2727	0.	6089.7
18748	0.73905	3.2727	5.e-002	45.058
18749	0.73905	3.	0.	5980.1
18750	0.64667	3.0909	0.	6099.6
18751	0.73905	3.0909	5.e-002	44.995
18752	0.73905	2.8182	0.	5975.5
18753	0.64667	2.9091	0.	6099.6
18754	0.73905	2.9091	5.e-002	44.995
18755	0.73905	2.6364	0.	5961.4
18756	0.64667	2.7273	0.	6089.7
18757	0.73905	2.7273	5.e-002	45.058
18758	0.73905	2.4545	0.	5937.9
18759	0.64667	2.5455	0.	6069.8
18760	0.73905	2.5455	5.e-002	45.182
18761	0.73905	2.2727	0.	5904.7
18762	0.64667	2.3636	0.	6039.6
18763	0.73905	2.3636	5.e-002	45.359
18764	0.73905	2.0909	0.	5861.8
18765	0.64667	2.1818	0.	5998.5
18766	0.73905	2.1818	5.e-002	45.582
18767	0.73905	1.9091	0.	5809.1
18768	0.64667	2.	0.	5946.2
18769	0.73905	2.	5.e-002	45.842
18770	0.73905	1.7273	0.	5747.3
18771	0.64667	1.8182	0.	5882.2
18772	0.73905	1.8182	5.e-002	46.14
18773	0.73905	1.5455	0.	5677.7
18774	0.64667	1.6364	0.	5806.4
18775	0.73905	1.6364	5.e-002	46.504
18776	0.73905	1.3636	0.	5603.4
18777	0.64667	1.4545	0.	5719.7
18778	0.73905	1.4545	5.e-002	47.023
18779	0.73905	1.1818	0.	5530.6
18780	0.64667	1.2727	0.	5624.4
18781	0.73905	1.2727	5.e-002	47.915
18782	0.73905	1.	0.	5469.7
18783	0.64667	1.0909	0.	5526.7
18784	0.73905	1.0909	5.e-002	49.62
18785	0.73905	0.81818	0.	5437.4
18786	0.64667	0.90909	0.	5438.4
18787	0.73905	0.90909	5.e-002	52.803
18788	0.73905	0.63636	0.	5454.5
18789	0.64667	0.72727	0.	5380.6
18790	0.73905	0.72727	5.e-002	57.972
18791	0.73905	0.45455	0.	5540.1
18792	0.64667	0.54545	0.	5383.8
18793	0.73905	0.54545	5.e-002	64.322
18794	0.73905	0.27273	0.	5718.5
18795	0.64667	0.36364	0.	5477.7
18796	0.73905	0.36364	5.e-002	67.152
18797	0.64667	0.18182	0.	5708.2
18798	0.73905	0.18182	5.e-002	55.531
18799	0.73905	9.0909e-002	0.	5761.4
18800	0.55429	5.7273	0.	5460.5
18801	0.4619	5.8182	0.	5307.9
18802	0.55429	5.8182	5.e-002	69.371
18803	0.55429	5.9091	0.	5477.1
18804	0.55429	5.5455	0.	5315.3
18805	0.4619	5.6364	0.	5068.7
18806	0.55429	5.6364	5.e-002	93.147
18807	0.55429	5.3636	0.	5305.6
18808	0.4619	5.4545	0.	5062.5
18809	0.55429	5.4545	5.e-002	81.139
18810	0.55429	5.1818	0.	5379.7
18811	0.4619	5.2727	0.	5177.1
18812	0.55429	5.2727	5.e-002	68.622
18813	0.55429	5.	0.	5495.1
18814	0.4619	5.0909	0.	5335.2
18815	0.55429	5.0909	5.e-002	60.886
18816	0.55429	4.8182	0.	5621.1
18817	0.4619	4.9091	0.	5496.5
18818	0.55429	4.9091	5.e-002	56.603
18819	0.55429	4.6364	0.	5741.5
18820	0.4619	4.7273	0.	5643.7
18821	0.55429	4.7273	5.e-002	54.181
18822	0.55429	4.4545	0.	5849.2
18823	0.4619	4.5455	0.	5771.4
18824	0.55429	4.5455	5.e-002	52.59
18825	0.55429	4.2727	0.	5942.
18826	0.4619	4.3636	0.	5879.3
18827	0.55429	4.3636	5.e-002	51.381
18828	0.55429	4.0909	0.	6019.8
18829	0.4619	4.1818	0.	5968.7
18830	0.55429	4.1818	5.e-002	50.381
18831	0.55429	3.9091	0.	6083.3
18832	0.4619	4.	0.	6041.4
18833	0.55429	4.	5.e-002	49.531
18834	0.55429	3.7273	0.	6133.6
18835	0.4619	3.8182	0.	6099.1
18836	0.55429	3.8182	5.e-002	48.819
18837	0.55429	3.5455	0.	6171.7
18838	0.4619	3.6364	0.	6143.5
18839	0.55429	3.6364	5.e-002	48.244
18840	0.55429	3.3636	0.	6198.2
18841	0.4619	3.4545	0.	6175.8
18842	0.55429	3.4545	5.e-002	47.808
18843	0.55429	3.1818	0.	6213.9
18844	0.4619	3.2727	0.	6196.8
18845	0.55429	3.2727	5.e-002	47.516
18846	0.55429	3.	0.	6219.1
18847	0.4619	3.0909	0.	6207.2
18848	0.55429	3.0909	5.e-002	47.37
18849	0.55429	2.8182	0.	6213.9
18850	0.4619	2.9091	0.	6207.2
18851	0.55429	2.9091	5.e-002	47.37
18852	0.55429	2.6364	0.	6198.2
18853	0.4619	2.7273	0.	6196.8
18854	0.55429	2.7273	5.e-002	47.516
18855	0.55429	2.4545	0.	6171.7
18856	0.4619	2.5455	0.	6175.8
18857	0.55429	2.5455	5.e-002	47.808
18858	0.55429	2.2727	0.	6133.6
18859	0.4619	2.3636	0.	6143.5
18860	0.55429	2.3636	5.e-002	48.244
18861	0.55429	2.0909	0.	6083.3
18862	0.4619	2.1818	0.	6099.1
18863	0.55429	2.1818	5.e-002	48.819
18864	0.55429	1.9091	0.	6019.8
18865	0.4619	2.	0.	6041.4
18866	0.55429	2.	5.e-002	49.531
18867	0.55429	1.7273	0.	5942.
18868	0.4619	1.8182	0.	5968.7
18869	0.55429	1.8182	5.e-002	50.381
18870	0.55429	1.5455	0.	5849.2
18871	0.4619	1.6364	0.	5879.3
18872	0.55429	1.6364	5.e-002	51.381
18873	0.55429	1.3636	0.	5741.5
18874	0.4619	1.4545	0.	5771.4
18875	0.55429	1.4545	5.e-002	52.59
18876	0.55429	1.1818	0.	5621.1
18877	0.4619	1.2727	0.	5643.7
18878	0.55429	1.2727	5.e-002	54.181
18879	0.55429	1.	0.	5495.1
18880	0.4619	1.0909	0.	5496.5
18881	0.55429	1.0909	5.e-002	56.603
18882	0.55429	0.81818	0.	5379.7
18883	0.4619	0.90909	0.	5335.2
18884	0.55429	0.90909	5.e-002	60.886
18885	0.55429	0.63636	0.	5305.6
18886	0.4619	0.72727	0.	5177.1
18887	0.55429	0.72727	5.e-002	68.622
18888	0.55429	0.45455	0.	5315.3
18889	0.4619	0.54545	0.	5062.5
18890	0.55429	0.54545	5.e-002	81.139
18891	0.55429	0.27273	0.	5460.5
18892	0.4619	0.36364	0.	5068.7
18893	0.55429	0.36364	5.e-002	93.147
18894	0.4619	0.18182	0.	5307.9
18895	0.55429	0.18182	5.e-002	69.371
18896	0.55429	9.0909e-002	0.	5477.1
18897	0.36952	5.7273	0.	4901.3
18898	0.27714	5.8182	0.	4546.9
18899	0.36952	5.8182	5.e-002	121.27
18900	0.36952	5.9091	0.	4934.9
18901	0.36952	5.5455	0.	4802.7
18902	0.27714	5.6364	0.	4648.4
18903	0.36952	5.6364	5.e-002	135.01
18904	0.36952	5.3636	0.	4927.2
18905	0.27714	5.4545	0.	5006.8
18906	0.36952	5.4545	5.e-002	102.85
18907	0.36952	5.1818	0.	5130.5
18908	0.27714	5.2727	0.	5367.2
18909	0.36952	5.2727	5.e-002	84.661
18910	0.36952	5.	0.	5336.5
18911	0.27714	5.0909	0.	5673.4
18912	0.36952	5.0909	5.e-002	75.338
18913	0.36952	4.8182	0.	5519.5
18914	0.27714	4.9091	0.	5921.6
18915	0.36952	4.9091	5.e-002	70.394
18916	0.36952	4.6364	0.	5674.3
18917	0.27714	4.7273	0.	6120.
18918	0.36952	4.7273	5.e-002	67.059
18919	0.36952	4.4545	0.	5802.2
18920	0.27714	4.5455	0.	6278.3
18921	0.36952	4.5455	5.e-002	64.473
18922	0.36952	4.2727	0.	5906.5
18923	0.27714	4.3636	0.	6404.6
18924	0.36952	4.3636	5.e-002	62.338
18925	0.36952	4.0909	0.	5990.7
18926	0.27714	4.1818	0.	6505.1
18927	0.36952	4.1818	5.e-002	60.551
18928	0.36952	3.9091	0.	6057.5
18929	0.27714	4.	0.	6584.5
18930	0.36952	4.	5.e-002	59.064
18931	0.36952	3.7273	0.	6109.3
18932	0.27714	3.8182	0.	6646.3
18933	0.36952	3.8182	5.e-002	57.855
18934	0.36952	3.5455	0.	6148.
18935	0.27714	3.6364	0.	6693.1
18936	0.36952	3.6364	5.e-002	56.905
18937	0.36952	3.3636	0.	6174.7
18938	0.27714	3.4545	0.	6726.7
18939	0.36952	3.4545	5.e-002	56.203
18940	0.36952	3.1818	0.	6190.4
18941	0.27714	3.2727	0.	6748.4
18942	0.36952	3.2727	5.e-002	55.74
18943	0.36952	3.	0.	6195.5
18944	0.27714	3.0909	0.	6759.1
18945	0.36952	3.0909	5.e-002	55.51
18946	0.36952	2.8182	0.	6190.4
18947	0.27714	2.9091	0.	6759.1
18948	0.36952	2.9091	5.e-002	55.51
18949	0.36952	2.6364	0.	6174.7
18950	0.27714	2.7273	0.	6748.4
18951	0.36952	2.7273	5.e-002	55.74
18952	0.36952	2.4545	0.	6148.
18953	0.27714	2.5455	0.	6726.7
18954	0.36952	2.5455	5.e-002	56.203
18955	0.36952	2.2727	0.	6109.3
18956	0.27714	2.3636	0.	6693.1
18957	0.36952	2.3636	5.e-002	56.905
18958	0.36952	2.0909	0.	6057.5
18959	0.27714	2.1818	0.	6646.3
18960	0.36952	2.1818	5.e-002	57.855
18961	0.36952	1.9091	0.	5990.7
18962	0.27714	2.	0.	6584.5
18963	0.36952	2.	5.e-002	59.064
18964	0.36952	1.7273	0.	5906.5
18965	0.27714	1.8182	0.	6505.1
18966	0.36952	1.8182	5.e-002	60.551
18967	0.36952	1.5455	0.	5802.2
18968	0.27714	1.6364	0.	6404.6
18969	0.36952	1.6364	5.e-002	62.338
18970	0.36952	1.3636	0.	5674.3
18971	0.27714	1.4545	0.	6278.3
18972	0.36952	1.4545	5.e-002	64.473
18973	0.36952	1.1818	0.	5519.5
18974	0.27714	1.2727	0.	6120.
18975	0.36952	1.2727	5.e-002	67.059
18976	0.36952	1.	0.	5336.5
18977	0.27714	1.0909	0.	5921.6
18978	0.36952	1.0909	5.e-002	70.394
18979	0.36952	0.81818	0.	5130.5
18980	0.27714	0.90909	0.	5673.4
18981	0.36952	0.90909	5.e-002	75.338
18982	0.36952	0.63636	0.	4927.2
18983	0.27714	0.72727	0.	5367.2
18984	0.36952	0.72727	5.e-002	84.661
18985	0.36952	0.45455	0.	4802.7
18986	0.27714	0.54545	0.	5006.8
18987	0.36952	0.54545	5.e-002	102.85
18988	0.36952	0.27273	0.	4901.3
18989	0.27714	0.36364	0.	4648.4
18990	0.36952	0.36364	5.e-002	135.01
18991	0.27714	0.18182	0.	4546.9
18992	0.36952	0.18182	5.e-002	121.27
18993	0.36952	9.0909e-002	0.	4934.9
18994	0.18476	5.7273	0.	4260.4
18995	0.18476	5.8182	5.e-002	293.78
18996	0.18476	5.9091	0.	3853.4
18997	9.2381e-002	5.8182	0.	2713.3
18998	0.18476	5.5455	0.	4878.1
18999	0.18476	5.6364	5.e-002	187.4
19000	9.2381e-002	5.6364	0.	3409.7
19001	0.18476	5.3636	0.	5477.2
19002	0.18476	5.4545	5.e-002	127.14
19003	9.2381e-002	5.4545	0.	3989.2
19004	0.18476	5.1818	0.	5933.5
19005	0.18476	5.2727	5.e-002	97.299
19006	9.2381e-002	5.2727	0.	4404.6
19007	0.18476	5.	0.	6275.7
19008	0.18476	5.0909	5.e-002	81.813
19009	9.2381e-002	5.0909	0.	4703.4
19010	0.18476	4.8182	0.	6535.2
19011	0.18476	4.9091	5.e-002	71.239
19012	9.2381e-002	4.9091	0.	4924.6
19013	0.18476	4.6364	0.	6734.8
19014	0.18476	4.7273	5.e-002	63.526
19015	9.2381e-002	4.7273	0.	5091.9
19016	0.18476	4.4545	0.	6890.1
19017	0.18476	4.5455	5.e-002	57.636
19018	9.2381e-002	4.5455	0.	5220.7
19019	0.18476	4.2727	0.	7011.6
19020	0.18476	4.3636	5.e-002	53.04
19021	9.2381e-002	4.3636	0.	5320.9
19022	0.18476	4.0909	0.	7106.8
19023	0.18476	4.1818	5.e-002	49.42
19024	9.2381e-002	4.1818	0.	5399.1
19025	0.18476	3.9091	0.	7180.7
19026	0.18476	4.	5.e-002	46.572
19027	9.2381e-002	4.	0.	5460.1
19028	0.18476	3.7273	0.	7237.2
19029	0.18476	3.8182	5.e-002	44.356
19030	9.2381e-002	3.8182	0.	5507.2
19031	0.18476	3.5455	0.	7278.8
19032	0.18476	3.6364	5.e-002	42.677
19033	9.2381e-002	3.6364	0.	5542.5
19034	0.18476	3.3636	0.	7307.3
19035	0.18476	3.4545	5.e-002	41.469
19036	9.2381e-002	3.4545	0.	5567.7
19037	0.18476	3.1818	0.	7324.
19038	0.18476	3.2727	5.e-002	40.686
19039	9.2381e-002	3.2727	0.	5584.
19040	0.18476	3.	0.	7329.5
19041	0.18476	3.0909	5.e-002	40.301
19042	9.2381e-002	3.0909	0.	5591.9
19043	0.18476	2.8182	0.	7324.
19044	0.18476	2.9091	5.e-002	40.301
19045	9.2381e-002	2.9091	0.	5591.9
19046	0.18476	2.6364	0.	7307.3
19047	0.18476	2.7273	5.e-002	40.686
19048	9.2381e-002	2.7273	0.	5584.
19049	0.18476	2.4545	0.	7278.8
19050	0.18476	2.5455	5.e-002	41.469
19051	9.2381e-002	2.5455	0.	5567.7
19052	0.18476	2.2727	0.	7237.2
19053	0.18476	2.3636	5.e-002	42.677
19054	9.2381e-002	2.3636	0.	5542.5
19055	0.18476	2.0909	0.	7180.7
19056	0.18476	2.1818	5.e-002	44.356
19057	9.2381e-002	2.1818	0.	5507.2
19058	0.18476	1.9091	0.	7106.8
19059	0.18476	2.	5.e-002	46.572
19060	9.2381e-002	2.	0.	5460.1
19061	0.18476	1.7273	0.	7011.6
19062	0.18476	1.8182	5.e-002	49.42
19063	9.2381e-002	1.8182	0.	5399.1
19064	0.18476	1.5455	0.	6890.1
19065	0.18476	1.6364	5.e-002	53.04
19066	9.2381e-002	1.6364	0.	5320.9
19067	0.18476	1.3636	0.	6734.8
19068	0.18476	1.4545	5.e-002	57.636
19069	9.2381e-002	1.4545	0.	5220.7
19070	0.18476	1.1818	0.	6535.2
19071	0.18476	1.2727	5.e-002	63.526
19072	9.2381e-002	1.2727	0.	5091.9
19073	0.18476	1.	0.	6275.7
19074	0.18476	1.0909	5.e-002	71.239
19075	9.2381e-002	1.0909	0.	4924.6
19076	0.18476	0.81818	0.	5933.5
19077	0.18476	0.90909	5.e-002	81.813
19078	9.2381e-002	0.90909	0.	4703.4
19079	0.18476	0.63636	0.	5477.2
19080	0.18476	0.72727	5.e-002	97.299
19081	9.2381e-002	0.72727	0.	4404.6
19082	0.18476	0.45455	0.	4878.1
19083	0.18476	0.54545	5.e-002	127.14
19084	9.2381e-002	0.54545	0.	3989.2
19085	0.18476	0.27273	0.	4260.4
19086	0.18476	0.36364	5.e-002	187.4
19087	9.2381e-002	0.36364	0.	3409.7
19088	0.18476	0.18182	5.e-002	293.78
19089	0.18476	9.0909e-002	0.	3853.4
19090	9.2381e-002	0.18182	0.	2713.3
19091	19.751	0.27273	0.	185.42
19092	19.844	0.18182	0.	183.23
19093	19.751	0.18182	5.e-002	19.838
19094	19.751	9.0909e-002	0.	117.44
19095	19.659	0.18182	0.	107.42
19096	19.751	0.45455	0.	265.6
19097	19.844	0.36364	0.	232.77
19098	19.751	0.36364	5.e-002	18.226
19099	19.659	0.36364	0.	177.58
19100	19.751	0.63636	0.	360.65
19101	19.844	0.54545	0.	307.77
19102	19.751	0.54545	5.e-002	19.953
19103	19.659	0.54545	0.	254.74
19104	19.751	0.81818	0.	470.05
19105	19.844	0.72727	0.	397.98
19106	19.751	0.72727	5.e-002	23.067
19107	19.659	0.72727	0.	339.7
19108	19.751	1.	0.	599.77
19109	19.844	0.90909	0.	504.38
19110	19.751	0.90909	5.e-002	27.618
19111	19.659	0.90909	0.	437.12
19112	19.751	1.1818	0.	760.38
19113	19.844	1.0909	0.	632.09
19114	19.751	1.0909	5.e-002	34.021
19115	19.659	1.0909	0.	553.94
19116	19.751	1.3636	0.	969.42
19117	19.844	1.2727	0.	790.48
19118	19.751	1.2727	5.e-002	43.709
19119	19.659	1.2727	0.	701.48
19120	19.751	1.5455	0.	1266.1
19121	19.844	1.4545	0.	993.38
19122	19.751	1.4545	5.e-002	56.528
19123	19.659	1.4545	0.	901.26
19124	19.751	1.7273	0.	1705.8
19125	19.844	1.6364	0.	1269.2
19126	19.751	1.6364	5.e-002	86.488
19127	19.659	1.6364	0.	1176.5
19128	19.751	1.9091	0.	2220.2
19129	19.844	1.8182	0.	1672.5
19130	19.751	1.8182	5.e-002	146.48
19131	19.659	1.8182	0.	1715.6
19132	19.751	2.0909	0.	2521.7
19133	19.844	2.	0.	2063.6
19134	19.751	2.	5.e-002	253.57
19135	19.659	2.	0.	3793.5
19136	19.751	2.2727	0.	2526.2
19137	19.844	2.1818	0.	2234.1
19138	19.751	2.1818	5.e-002	169.63
19139	19.751	2.4545	0.	2382.4
19140	19.844	2.3636	0.	2209.7
19141	19.751	2.3636	5.e-002	73.41
19142	19.751	2.6364	0.	2238.4
19143	19.844	2.5455	0.	2117.8
19144	19.751	2.5455	5.e-002	40.964
19145	19.751	2.8182	0.	2159.1
19146	19.844	2.7273	0.	2050.6
19147	19.751	2.7273	5.e-002	25.464
19148	19.751	3.	0.	2133.5
19149	19.844	2.9091	0.	2016.4
19150	19.751	2.9091	5.e-002	20.206
19151	19.751	3.1818	0.	2159.1
19152	19.844	3.0909	0.	2016.4
19153	19.751	3.0909	5.e-002	20.206
19154	19.751	3.3636	0.	2238.4
19155	19.844	3.2727	0.	2050.6
19156	19.751	3.2727	5.e-002	25.464
19157	19.751	3.5455	0.	2382.4
19158	19.844	3.4545	0.	2117.8
19159	19.751	3.4545	5.e-002	40.964
19160	19.751	3.7273	0.	2526.2
19161	19.844	3.6364	0.	2209.7
19162	19.751	3.6364	5.e-002	73.41
19163	19.751	3.9091	0.	2521.7
19164	19.844	3.8182	0.	2234.1
19165	19.751	3.8182	5.e-002	169.63
19166	19.751	4.0909	0.	2220.2
19167	19.844	4.	0.	2063.6
19168	19.751	4.	5.e-002	253.57
19169	19.659	4.	0.	3793.5
19170	19.751	4.2727	0.	1705.8
19171	19.844	4.1818	0.	1672.5
19172	19.751	4.1818	5.e-002	146.48
19173	19.659	4.1818	0.	1715.6
19174	19.751	4.4545	0.	1266.1
19175	19.844	4.3636	0.	1269.2
19176	19.751	4.3636	5.e-002	86.488
19177	19.659	4.3636	0.	1176.5
19178	19.751	4.6364	0.	969.42
19179	19.844	4.5455	0.	993.38
19180	19.751	4.5455	5.e-002	56.528
19181	19.659	4.5455	0.	901.26
19182	19.751	4.8182	0.	760.38
19183	19.844	4.7273	0.	790.48
19184	19.751	4.7273	5.e-002	43.709
19185	19.659	4.7273	0.	701.48
19186	19.751	5.	0.	599.77
19187	19.844	4.9091	0.	632.09
19188	19.751	4.9091	5.e-002	34.021
19189	19.659	4.9091	0.	553.94
19190	19.751	5.1818	0.	470.05
19191	19.844	5.0909	0.	504.38
19192	19.751	5.0909	5.e-002	27.618
19193	19.659	5.0909	0.	437.12
19194	19.751	5.3636	0.	360.65
19195	19.844	5.2727	0.	397.98
19196	19.751	5.2727	5.e-002	23.067
19197	19.659	5.2727	0.	339.7
19198	19.751	5.5455	0.	265.6
19199	19.844	5.4545	0.	307.77
19200	19.751	5.4545	5.e-002	19.953
19201	19.659	5.4545	0.	254.74
19202	19.751	5.7273	0.	185.42
19203	19.844	5.6364	0.	232.77
19204	19.751	5.6364	5.e-002	18.226
19205	19.659	5.6364	0.	177.58
19206	19.844	5.8182	0.	183.23
19207	19.751	5.8182	5.e-002	19.838
19208	19.751	5.9091	0.	117.44
19209	19.659	5.8182	0.	107.42
19210	19.936	0.27273	0.	237.03
19211	20.028	0.18182	0.	255.19
19212	19.936	0.18182	5.e-002	16.731
19213	19.936	9.0909e-002	0.	199.06
19214	19.936	0.45455	0.	285.26
19215	20.028	0.36364	0.	281.16
19216	19.936	0.36364	5.e-002	14.277
19217	19.936	0.63636	0.	356.28
19218	20.028	0.54545	0.	333.02
19219	19.936	0.54545	5.e-002	14.651
19220	19.936	0.81818	0.	444.31
19221	20.028	0.72727	0.	402.99
19222	19.936	0.72727	5.e-002	15.817
19223	19.936	1.	0.	550.31
19224	20.028	0.90909	0.	489.37
19225	19.936	0.90909	5.e-002	17.746
19226	19.936	1.1818	0.	678.87
19227	20.028	1.0909	0.	593.51
19228	19.936	1.0909	5.e-002	20.587
19229	19.936	1.3636	0.	836.12
19230	20.028	1.2727	0.	718.96
19231	19.936	1.2727	5.e-002	24.161
19232	19.936	1.5455	0.	1028.6
19233	20.028	1.4545	0.	869.71
19234	19.936	1.4545	5.e-002	30.615
19235	19.936	1.7273	0.	1264.9
19236	20.028	1.6364	0.	1049.
19237	19.936	1.6364	5.e-002	34.851
19238	19.936	1.9091	0.	1514.6
19239	20.028	1.8182	0.	1259.5
19240	19.936	1.8182	5.e-002	52.655
19241	19.936	2.0909	0.	1745.6
19242	20.028	2.	0.	1467.1
19243	19.936	2.	5.e-002	51.754
19244	19.936	2.2727	0.	1892.8
19245	20.028	2.1818	0.	1653.2
19246	19.936	2.1818	5.e-002	76.044
19247	19.936	2.4545	0.	1935.5
19248	20.028	2.3636	0.	1749.4
19249	19.936	2.3636	5.e-002	59.155
19250	19.936	2.6364	0.	1924.7
19251	20.028	2.5455	0.	1777.3
19252	19.936	2.5455	5.e-002	44.18
19253	19.936	2.8182	0.	1903.8
19254	20.028	2.7273	0.	1775.
19255	19.936	2.7273	5.e-002	32.568
19256	19.936	3.	0.	1895.4
19257	20.028	2.9091	0.	1769.4
19258	19.936	2.9091	5.e-002	27.469
19259	19.936	3.1818	0.	1903.8
19260	20.028	3.0909	0.	1769.4
19261	19.936	3.0909	5.e-002	27.469
19262	19.936	3.3636	0.	1924.7
19263	20.028	3.2727	0.	1775.
19264	19.936	3.2727	5.e-002	32.568
19265	19.936	3.5455	0.	1935.5
19266	20.028	3.4545	0.	1777.3
19267	19.936	3.4545	5.e-002	44.18
19268	19.936	3.7273	0.	1892.8
19269	20.028	3.6364	0.	1749.4
19270	19.936	3.6364	5.e-002	59.155
19271	19.936	3.9091	0.	1745.6
19272	20.028	3.8182	0.	1653.2
19273	19.936	3.8182	5.e-002	76.044
19274	19.936	4.0909	0.	1514.6
19275	20.028	4.	0.	1467.1
19276	19.936	4.	5.e-002	51.754
19277	19.936	4.2727	0.	1264.9
19278	20.028	4.1818	0.	1259.5
19279	19.936	4.1818	5.e-002	52.655
19280	19.936	4.4545	0.	1028.6
19281	20.028	4.3636	0.	1049.
19282	19.936	4.3636	5.e-002	34.851
19283	19.936	4.6364	0.	836.12
19284	20.028	4.5455	0.	869.71
19285	19.936	4.5455	5.e-002	30.615
19286	19.936	4.8182	0.	678.87
19287	20.028	4.7273	0.	718.96
19288	19.936	4.7273	5.e-002	24.161
19289	19.936	5.	0.	550.32
19290	20.028	4.9091	0.	593.51
19291	19.936	4.9091	5.e-002	20.587
19292	19.936	5.1818	0.	444.31
19293	20.028	5.0909	0.	489.37
19294	19.936	5.0909	5.e-002	17.746
19295	19.936	5.3636	0.	356.28
19296	20.028	5.2727	0.	402.99
19297	19.936	5.2727	5.e-002	15.817
19298	19.936	5.5455	0.	285.26
19299	20.028	5.4545	0.	333.02
19300	19.936	5.4545	5.e-002	14.651
19301	19.936	5.7273	0.	237.03
19302	20.028	5.6364	0.	281.16
19303	19.936	5.6364	5.e-002	14.277
19304	20.028	5.8182	0.	255.19
19305	19.936	5.8182	5.e-002	16.731
19306	19.936	5.9091	0.	199.06
19307	20.121	0.27273	0.	300.59
19308	20.213	0.18182	0.	318.83
19309	20.121	0.18182	5.e-002	14.784
19310	20.121	9.0909e-002	0.	271.49
19311	20.121	0.45455	0.	333.03
19312	20.213	0.36364	0.	336.37
19313	20.121	0.36364	5.e-002	12.114
19314	20.121	0.63636	0.	386.16
19315	20.213	0.54545	0.	374.17
19316	20.121	0.54545	5.e-002	12.358
19317	20.121	0.81818	0.	456.07
19318	20.213	0.72727	0.	428.1
19319	20.121	0.72727	5.e-002	13.079
19320	20.121	1.	0.	541.95
19321	20.213	0.90909	0.	496.85
19322	20.121	0.90909	5.e-002	14.156
19323	20.121	1.1818	0.	644.38
19324	20.213	1.0909	0.	580.09
19325	20.121	1.0909	5.e-002	15.558
19326	20.121	1.3636	0.	764.52
19327	20.213	1.2727	0.	677.95
19328	20.121	1.2727	5.e-002	17.336
19329	20.121	1.5455	0.	901.09
19330	20.213	1.4545	0.	790.64
19331	20.121	1.4545	5.e-002	19.12
19332	20.121	1.7273	0.	1051.9
19333	20.213	1.6364	0.	915.5
19334	20.121	1.6364	5.e-002	21.537
19335	20.121	1.9091	0.	1213.6
19336	20.213	1.8182	0.	1051.
19337	20.121	1.8182	5.e-002	27.456
19338	20.121	2.0909	0.	1371.
19339	20.213	2.	0.	1192.1
19340	20.121	2.	5.e-002	34.788
19341	20.121	2.2727	0.	1500.3
19342	20.213	2.1818	0.	1322.9
19343	20.121	2.1818	5.e-002	40.256
19344	20.121	2.4545	0.	1582.4
19345	20.213	2.3636	0.	1423.4
19346	20.121	2.3636	5.e-002	43.14
19347	20.121	2.6364	0.	1621.2
19348	20.213	2.5455	0.	1482.5
19349	20.121	2.5455	5.e-002	37.666
19350	20.121	2.8182	0.	1635.6
19351	20.213	2.7273	0.	1511.6
19352	20.121	2.7273	5.e-002	32.797
19353	20.121	3.	0.	1638.8
19354	20.213	2.9091	0.	1522.6
19355	20.121	2.9091	5.e-002	29.857
19356	20.121	3.1818	0.	1635.6
19357	20.213	3.0909	0.	1522.6
19358	20.121	3.0909	5.e-002	29.857
19359	20.121	3.3636	0.	1621.2
19360	20.213	3.2727	0.	1511.6
19361	20.121	3.2727	5.e-002	32.797
19362	20.121	3.5455	0.	1582.4
19363	20.213	3.4545	0.	1482.5
19364	20.121	3.4545	5.e-002	37.666
19365	20.121	3.7273	0.	1500.3
19366	20.213	3.6364	0.	1423.4
19367	20.121	3.6364	5.e-002	43.14
19368	20.121	3.9091	0.	1371.
19369	20.213	3.8182	0.	1322.9
19370	20.121	3.8182	5.e-002	40.256
19371	20.121	4.0909	0.	1213.6
19372	20.213	4.	0.	1192.1
19373	20.121	4.	5.e-002	34.788
19374	20.121	4.2727	0.	1051.9
19375	20.213	4.1818	0.	1051.
19376	20.121	4.1818	5.e-002	27.457
19377	20.121	4.4545	0.	901.09
19378	20.213	4.3636	0.	915.5
19379	20.121	4.3636	5.e-002	21.537
19380	20.121	4.6364	0.	764.52
19381	20.213	4.5455	0.	790.64
19382	20.121	4.5455	5.e-002	19.12
19383	20.121	4.8182	0.	644.38
19384	20.213	4.7273	0.	677.95
19385	20.121	4.7273	5.e-002	17.336
19386	20.121	5.	0.	541.95
19387	20.213	4.9091	0.	580.09
19388	20.121	4.9091	5.e-002	15.558
19389	20.121	5.1818	0.	456.07
19390	20.213	5.0909	0.	496.85
19391	20.121	5.0909	5.e-002	14.156
19392	20.121	5.3636	0.	386.16
19393	20.213	5.2727	0.	428.1
19394	20.121	5.2727	5.e-002	13.079
19395	20.121	5.5455	0.	333.03
19396	20.213	5.4545	0.	374.17
19397	20.121	5.4545	5.e-002	12.358
19398	20.121	5.7273	0.	300.59
19399	20.213	5.6364	0.	336.37
19400	20.121	5.6364	5.e-002	12.114
19401	20.213	5.8182	0.	318.83
19402	20.121	5.8182	5.e-002	14.784
19403	20.121	5.9091	0.	271.49
19404	20.306	0.27273	0.	355.19
19405	20.398	0.18182	0.	369.14
19406	20.306	0.18182	5.e-002	12.639
19407	20.306	9.0909e-002	0.	330.54
19408	20.306	0.45455	0.	379.27
19409	20.398	0.36364	0.	382.72
19410	20.306	0.36364	5.e-002	9.7341
19411	20.306	0.63636	0.	419.5
19412	20.398	0.54545	0.	411.53
19413	20.306	0.54545	5.e-002	9.8967
19414	20.306	0.81818	0.	473.66
19415	20.398	0.72727	0.	452.92
19416	20.306	0.72727	5.e-002	10.359
19417	20.306	1.	0.	540.82
19418	20.398	0.90909	0.	506.25
19419	20.306	0.90909	5.e-002	10.974
19420	20.306	1.1818	0.	620.14
19421	20.398	1.0909	0.	570.77
19422	20.306	1.0909	5.e-002	11.76
19423	20.306	1.3636	0.	710.57
19424	20.398	1.2727	0.	645.5
19425	20.306	1.2727	5.e-002	12.774
19426	20.306	1.5455	0.	810.73
19427	20.398	1.4545	0.	729.15
19428	20.306	1.4545	5.e-002	14.473
19429	20.306	1.7273	0.	918.65
19430	20.398	1.6364	0.	820.21
19431	20.306	1.6364	5.e-002	17.366
19432	20.306	1.9091	0.	1031.9
19433	20.398	1.8182	0.	916.74
19434	20.306	1.8182	5.e-002	20.745
19435	20.306	2.0909	0.	1144.1
19436	20.398	2.	0.	1016.4
19437	20.306	2.	5.e-002	24.917
19438	20.306	2.2727	0.	1243.2
19439	20.398	2.1818	0.	1111.7
19440	20.306	2.1818	5.e-002	29.076
19441	20.306	2.4545	0.	1319.1
19442	20.398	2.3636	0.	1192.2
19443	20.306	2.3636	5.e-002	31.414
19444	20.306	2.6364	0.	1368.3
19445	20.398	2.5455	0.	1250.8
19446	20.306	2.5455	5.e-002	31.331
19447	20.306	2.8182	0.	1394.3
19448	20.398	2.7273	0.	1286.6
19449	20.306	2.7273	5.e-002	29.893
19450	20.306	3.	0.	1402.3
19451	20.398	2.9091	0.	1303.2
19452	20.306	2.9091	5.e-002	28.806
19453	20.306	3.1818	0.	1394.3
19454	20.398	3.0909	0.	1303.2
19455	20.306	3.0909	5.e-002	28.806
19456	20.306	3.3636	0.	1368.3
19457	20.398	3.2727	0.	1286.6
19458	20.306	3.2727	5.e-002	29.893
19459	20.306	3.5455	0.	1319.1
19460	20.398	3.4545	0.	1250.8
19461	20.306	3.4545	5.e-002	31.331
19462	20.306	3.7273	0.	1243.2
19463	20.398	3.6364	0.	1192.2
19464	20.306	3.6364	5.e-002	31.414
19465	20.306	3.9091	0.	1144.1
19466	20.398	3.8182	0.	1111.7
19467	20.306	3.8182	5.e-002	29.076
19468	20.306	4.0909	0.	1031.9
19469	20.398	4.	0.	1016.4
19470	20.306	4.	5.e-002	24.917
19471	20.306	4.2727	0.	918.65
19472	20.398	4.1818	0.	916.74
19473	20.306	4.1818	5.e-002	20.745
19474	20.306	4.4545	0.	810.73
19475	20.398	4.3636	0.	820.21
19476	20.306	4.3636	5.e-002	17.366
19477	20.306	4.6364	0.	710.57
19478	20.398	4.5455	0.	729.15
19479	20.306	4.5455	5.e-002	14.473
19480	20.306	4.8182	0.	620.14
19481	20.398	4.7273	0.	645.5
19482	20.306	4.7273	5.e-002	12.774
19483	20.306	5.	0.	540.82
19484	20.398	4.9091	0.	570.77
19485	20.306	4.9091	5.e-002	11.76
19486	20.306	5.1818	0.	473.66
19487	20.398	5.0909	0.	506.25
19488	20.306	5.0909	5.e-002	10.974
19489	20.306	5.3636	0.	419.5
19490	20.398	5.2727	0.	452.92
19491	20.306	5.2727	5.e-002	10.359
19492	20.306	5.5455	0.	379.27
19493	20.398	5.4545	0.	411.53
19494	20.306	5.4545	5.e-002	9.8967
19495	20.306	5.7273	0.	355.19
19496	20.398	5.6364	0.	382.72
19497	20.306	5.6364	5.e-002	9.7341
19498	20.398	5.8182	0.	369.14
19499	20.306	5.8182	5.e-002	12.639
19500	20.306	5.9091	0.	330.54
19501	20.49	0.27273	0.	397.08
19502	20.583	0.18182	0.	405.91
19503	20.49	0.18182	5.e-002	10.392
19504	20.49	9.0909e-002	0.	375.71
19505	20.49	0.45455	0.	415.88
19506	20.583	0.36364	0.	416.94
19507	20.49	0.36364	5.e-002	7.3715
19508	20.49	0.63636	0.	446.75
19509	20.583	0.54545	0.	439.37
19510	20.49	0.54545	5.e-002	7.4987
19511	20.49	0.81818	0.	488.21
19512	20.583	0.72727	0.	471.12
19513	20.49	0.72727	5.e-002	7.8839
19514	20.49	1.	0.	539.57
19515	20.583	0.90909	0.	511.85
19516	20.49	0.90909	5.e-002	8.3975
19517	20.49	1.1818	0.	599.83
19518	20.583	1.0909	0.	560.89
19519	20.49	1.0909	5.e-002	9.1277
19520	20.49	1.3636	0.	667.72
19521	20.583	1.2727	0.	617.2
19522	20.49	1.2727	5.e-002	10.261
19523	20.49	1.5455	0.	741.8
19524	20.583	1.4545	0.	679.55
19525	20.49	1.4545	5.e-002	11.986
19526	20.49	1.7273	0.	820.84
19527	20.583	1.6364	0.	746.67
19528	20.49	1.6364	5.e-002	14.366
19529	20.49	1.9091	0.	903.04
19530	20.583	1.8182	0.	817.48
19531	20.49	1.8182	5.e-002	17.195
19532	20.49	2.0909	0.	984.76
19533	20.583	2.	0.	889.91
19534	20.49	2.	5.e-002	20.08
19535	20.49	2.2727	0.	1060.
19536	20.583	2.1818	0.	960.07
19537	20.49	2.1818	5.e-002	22.839
19538	20.49	2.4545	0.	1121.9
19539	20.583	2.3636	0.	1022.1
19540	20.49	2.3636	5.e-002	25.012
19541	20.49	2.6364	0.	1166.4
19542	20.583	2.5455	0.	1070.8
19543	20.49	2.5455	5.e-002	26.106
19544	20.49	2.8182	0.	1192.6
19545	20.583	2.7273	0.	1103.3
19546	20.49	2.7273	5.e-002	26.282
19547	20.49	3.	0.	1201.1
19548	20.583	2.9091	0.	1119.4
19549	20.49	2.9091	5.e-002	26.161
19550	20.49	3.1818	0.	1192.6
19551	20.583	3.0909	0.	1119.4
19552	20.49	3.0909	5.e-002	26.161
19553	20.49	3.3636	0.	1166.4
19554	20.583	3.2727	0.	1103.3
19555	20.49	3.2727	5.e-002	26.282
19556	20.49	3.5455	0.	1121.9
19557	20.583	3.4545	0.	1070.8
19558	20.49	3.4545	5.e-002	26.106
19559	20.49	3.7273	0.	1060.
19560	20.583	3.6364	0.	1022.1
19561	20.49	3.6364	5.e-002	25.012
19562	20.49	3.9091	0.	984.76
19563	20.583	3.8182	0.	960.07
19564	20.49	3.8182	5.e-002	22.839
19565	20.49	4.0909	0.	903.04
19566	20.583	4.	0.	889.91
19567	20.49	4.	5.e-002	20.08
19568	20.49	4.2727	0.	820.84
19569	20.583	4.1818	0.	817.48
19570	20.49	4.1818	5.e-002	17.195
19571	20.49	4.4545	0.	741.8
19572	20.583	4.3636	0.	746.67
19573	20.49	4.3636	5.e-002	14.366
19574	20.49	4.6364	0.	667.72
19575	20.583	4.5455	0.	679.55
19576	20.49	4.5455	5.e-002	11.986
19577	20.49	4.8182	0.	599.83
19578	20.583	4.7273	0.	617.2
19579	20.49	4.7273	5.e-002	10.261
19580	20.49	5.	0.	539.57
19581	20.583	4.9091	0.	560.89
19582	20.49	4.9091	5.e-002	9.1277
19583	20.49	5.1818	0.	488.21
19584	20.583	5.0909	0.	511.85
19585	20.49	5.0909	5.e-002	8.3975
19586	20.49	5.3636	0.	446.75
19587	20.583	5.2727	0.	471.12
19588	20.49	5.2727	5.e-002	7.8839
19589	20.49	5.5455	0.	415.88
19590	20.583	5.4545	0.	439.37
19591	20.49	5.4545	5.e-002	7.4987
19592	20.49	5.7273	0.	397.08
19593	20.583	5.6364	0.	416.94
19594	20.49	5.6364	5.e-002	7.3715
19595	20.583	5.8182	0.	405.91
19596	20.49	5.8182	5.e-002	10.392
19597	20.49	5.9091	0.	375.71
19598	20.675	0.27273	0.	426.07
19599	20.767	0.18182	0.	430.06
19600	20.675	0.18182	5.e-002	8.1864
19601	20.675	9.0909e-002	0.	407.65
19602	20.675	0.45455	0.	440.96
19603	20.767	0.36364	0.	438.98
19604	20.675	0.36364	5.e-002	5.1791
19605	20.675	0.63636	0.	464.74
19606	20.767	0.54545	0.	456.51
19607	20.675	0.54545	5.e-002	5.3774
19608	20.675	0.81818	0.	496.25
19609	20.767	0.72727	0.	480.77
19610	20.675	0.72727	5.e-002	5.8705
19611	20.675	1.	0.	535.04
19612	20.767	0.90909	0.	511.56
19613	20.675	0.90909	5.e-002	6.5438
19614	20.675	1.1818	0.	580.32
19615	20.767	1.0909	0.	548.4
19616	20.675	1.0909	5.e-002	7.4889
19617	20.675	1.3636	0.	631.07
19618	20.767	1.2727	0.	590.51
19619	20.675	1.2727	5.e-002	8.8128
19620	20.675	1.5455	0.	686.28
19621	20.767	1.4545	0.	636.96
19622	20.675	1.4545	5.e-002	10.555
19623	20.675	1.7273	0.	744.91
19624	20.767	1.6364	0.	686.87
19625	20.675	1.6364	5.e-002	12.607
19626	20.675	1.9091	0.	805.61
19627	20.767	1.8182	0.	739.29
19628	20.675	1.8182	5.e-002	14.794
19629	20.675	2.0909	0.	865.96
19630	20.767	2.	0.	792.74
19631	20.675	2.	5.e-002	16.99
19632	20.675	2.2727	0.	922.22
19633	20.767	2.1818	0.	844.61
19634	20.675	2.1818	5.e-002	19.098
19635	20.675	2.4545	0.	970.16
19636	20.767	2.3636	0.	891.33
19637	20.675	2.3636	5.e-002	20.904
19638	20.675	2.6364	0.	1006.2
19639	20.767	2.5455	0.	929.25
19640	20.675	2.5455	5.e-002	22.171
19641	20.675	2.8182	0.	1028.4
19642	20.767	2.7273	0.	955.65
19643	20.675	2.7273	5.e-002	22.856
19644	20.675	3.	0.	1035.8
19645	20.767	2.9091	0.	969.11
19646	20.675	2.9091	5.e-002	23.12
19647	20.675	3.1818	0.	1028.4
19648	20.767	3.0909	0.	969.11
19649	20.675	3.0909	5.e-002	23.12
19650	20.675	3.3636	0.	1006.2
19651	20.767	3.2727	0.	955.65
19652	20.675	3.2727	5.e-002	22.856
19653	20.675	3.5455	0.	970.16
19654	20.767	3.4545	0.	929.25
19655	20.675	3.4545	5.e-002	22.171
19656	20.675	3.7273	0.	922.22
19657	20.767	3.6364	0.	891.33
19658	20.675	3.6364	5.e-002	20.904
19659	20.675	3.9091	0.	865.96
19660	20.767	3.8182	0.	844.61
19661	20.675	3.8182	5.e-002	19.098
19662	20.675	4.0909	0.	805.61
19663	20.767	4.	0.	792.74
19664	20.675	4.	5.e-002	16.99
19665	20.675	4.2727	0.	744.91
19666	20.767	4.1818	0.	739.29
19667	20.675	4.1818	5.e-002	14.794
19668	20.675	4.4545	0.	686.28
19669	20.767	4.3636	0.	686.87
19670	20.675	4.3636	5.e-002	12.607
19671	20.675	4.6364	0.	631.07
19672	20.767	4.5455	0.	636.96
19673	20.675	4.5455	5.e-002	10.555
19674	20.675	4.8182	0.	580.32
19675	20.767	4.7273	0.	590.51
19676	20.675	4.7273	5.e-002	8.8128
19677	20.675	5.	0.	535.04
19678	20.767	4.9091	0.	548.4
19679	20.675	4.9091	5.e-002	7.4889
19680	20.675	5.1818	0.	496.25
19681	20.767	5.0909	0.	511.56
19682	20.675	5.0909	5.e-002	6.5438
19683	20.675	5.3636	0.	464.74
19684	20.767	5.2727	0.	480.77
19685	20.675	5.2727	5.e-002	5.8705
19686	20.675	5.5455	0.	440.96
19687	20.767	5.4545	0.	456.51
19688	20.675	5.4545	5.e-002	5.3774
19689	20.675	5.7273	0.	426.07
19690	20.767	5.6364	0.	438.98
19691	20.675	5.6364	5.e-002	5.1791
19692	20.767	5.8182	0.	430.06
19693	20.675	5.8182	5.e-002	8.1864
19694	20.675	5.9091	0.	407.65
19695	20.86	0.27273	0.	443.16
19696	20.952	0.18182	0.	442.94
19697	20.86	0.18182	5.e-002	6.1318
19698	20.86	9.0909e-002	0.	427.47
19699	20.86	0.45455	0.	454.86
19700	20.952	0.36364	0.	449.95
19701	20.86	0.36364	5.e-002	3.2834
19702	20.86	0.63636	0.	473.1
19703	20.952	0.54545	0.	463.54
19704	20.86	0.54545	5.e-002	3.7133
19705	20.86	0.81818	0.	496.89
19706	20.952	0.72727	0.	481.95
19707	20.86	0.72727	5.e-002	4.4661
19708	20.86	1.	0.	525.94
19709	20.952	0.90909	0.	505.05
19710	20.86	0.90909	5.e-002	5.4059
19711	20.86	1.1818	0.	559.73
19712	20.952	1.0909	0.	532.52
19713	20.86	1.0909	5.e-002	6.5693
19714	20.86	1.3636	0.	597.54
19715	20.952	1.2727	0.	563.83
19716	20.86	1.2727	5.e-002	7.9772
19717	20.86	1.5455	0.	638.65
19718	20.952	1.4545	0.	598.35
19719	20.86	1.4545	5.e-002	9.5985
19720	20.86	1.7273	0.	682.24
19721	20.952	1.6364	0.	635.44
19722	20.86	1.6364	5.e-002	11.349
19723	20.86	1.9091	0.	727.24
19724	20.952	1.8182	0.	674.32
19725	20.86	1.8182	5.e-002	13.13
19726	20.86	2.0909	0.	771.94
19727	20.952	2.	0.	713.84
19728	20.86	2.	5.e-002	14.878
19729	20.86	2.2727	0.	813.85
19730	20.952	2.1818	0.	752.2
19731	20.86	2.1818	5.e-002	16.538
19732	20.86	2.4545	0.	850.07
19733	20.952	2.3636	0.	786.99
19734	20.86	2.3636	5.e-002	18.007
19735	20.86	2.6364	0.	877.89
19736	20.952	2.5455	0.	815.63
19737	20.86	2.5455	5.e-002	19.154
19738	20.86	2.8182	0.	895.31
19739	20.952	2.7273	0.	835.94
19740	20.86	2.7273	5.e-002	19.903
19741	20.86	3.	0.	901.24
19742	20.952	2.9091	0.	846.44
19743	20.86	2.9091	5.e-002	20.26
19744	20.86	3.1818	0.	895.31
19745	20.952	3.0909	0.	846.44
19746	20.86	3.0909	5.e-002	20.26
19747	20.86	3.3636	0.	877.89
19748	20.952	3.2727	0.	835.94
19749	20.86	3.2727	5.e-002	19.903
19750	20.86	3.5455	0.	850.07
19751	20.952	3.4545	0.	815.63
19752	20.86	3.4545	5.e-002	19.154
19753	20.86	3.7273	0.	813.85
19754	20.952	3.6364	0.	786.99
19755	20.86	3.6364	5.e-002	18.007
19756	20.86	3.9091	0.	771.94
19757	20.952	3.8182	0.	752.2
19758	20.86	3.8182	5.e-002	16.538
19759	20.86	4.0909	0.	727.24
19760	20.952	4.	0.	713.84
19761	20.86	4.	5.e-002	14.878
19762	20.86	4.2727	0.	682.24
19763	20.952	4.1818	0.	674.32
19764	20.86	4.1818	5.e-002	13.13
19765	20.86	4.4545	0.	638.65
19766	20.952	4.3636	0.	635.44
19767	20.86	4.3636	5.e-002	11.349
19768	20.86	4.6364	0.	597.54
19769	20.952	4.5455	0.	598.35
19770	20.86	4.5455	5.e-002	9.5985
19771	20.86	4.8182	0.	559.73
19772	20.952	4.7273	0.	563.83
19773	20.86	4.7273	5.e-002	7.9772
19774	20.86	5.	0.	525.94
19775	20.952	4.9091	0.	532.52
19776	20.86	4.9091	5.e-002	6.5693
19777	20.86	5.1818	0.	496.89
19778	20.952	5.0909	0.	505.05
19779	20.86	5.0909	5.e-002	5.4059
19780	20.86	5.3636	0.	473.1
19781	20.952	5.2727	0.	481.95
19782	20.86	5.2727	5.e-002	4.4661
19783	20.86	5.5455	0.	454.86
19784	20.952	5.4545	0.	463.54
19785	20.86	5.4545	5.e-002	3.7133
19786	20.86	5.7273	0.	443.16
19787	20.952	5.6364	0.	449.95
19788	20.86	5.6364	5.e-002	3.2834
19789	20.952	5.8182	0.	442.94
19790	20.86	5.8182	5.e-002	6.1318
19791	20.86	5.9091	0.	427.47
19792	21.044	0.27273	0.	449.82
19793	21.137	0.18182	0.	446.08
19794	21.044	0.18182	5.e-002	4.2931
19795	21.044	9.0909e-002	0.	436.59
19796	21.044	0.45455	0.	458.82
19797	21.137	0.36364	0.	451.33
19798	21.044	0.36364	5.e-002	1.8764
19799	21.044	0.63636	0.	472.7
19800	21.137	0.54545	0.	461.75
19801	21.044	0.54545	5.e-002	2.7322
19802	21.044	0.81818	0.	490.54
19803	21.137	0.72727	0.	475.6
19804	21.044	0.72727	5.e-002	3.7603
19805	21.044	1.	0.	512.16
19806	21.137	0.90909	0.	492.8
19807	21.044	0.90909	5.e-002	4.8859
19808	21.044	1.1818	0.	537.22
19809	21.137	1.0909	0.	513.15
19810	21.044	1.0909	5.e-002	6.1299
19811	21.044	1.3636	0.	565.26
19812	21.137	1.2727	0.	536.3
19813	21.044	1.2727	5.e-002	7.4922
19814	21.044	1.5455	0.	595.77
19815	21.137	1.4545	0.	561.85
19816	21.044	1.4545	5.e-002	8.9421
19817	21.044	1.7273	0.	628.11
19818	21.137	1.6364	0.	589.3
19819	21.044	1.6364	5.e-002	10.427
19820	21.044	1.9091	0.	661.43
19821	21.137	1.8182	0.	618.05
19822	21.044	1.8182	5.e-002	11.898
19823	21.044	2.0909	0.	694.46
19824	21.137	2.	0.	647.19
19825	21.044	2.	5.e-002	13.317
19826	21.044	2.2727	0.	725.47
19827	21.137	2.1818	0.	675.43
19828	21.044	2.1818	5.e-002	14.648
19829	21.044	2.4545	0.	752.41
19830	21.137	2.3636	0.	701.08
19831	21.044	2.3636	5.e-002	15.833
19832	21.044	2.6364	0.	773.27
19833	21.137	2.5455	0.	722.32
19834	21.044	2.5455	5.e-002	16.791
19835	21.044	2.8182	0.	786.47
19836	21.137	2.7273	0.	737.49
19837	21.044	2.7273	5.e-002	17.455
19838	21.044	3.	0.	790.98
19839	21.137	2.9091	0.	745.38
19840	21.044	2.9091	5.e-002	17.791
19841	21.044	3.1818	0.	786.47
19842	21.137	3.0909	0.	745.38
19843	21.044	3.0909	5.e-002	17.791
19844	21.044	3.3636	0.	773.27
19845	21.137	3.2727	0.	737.49
19846	21.044	3.2727	5.e-002	17.455
19847	21.044	3.5455	0.	752.41
19848	21.137	3.4545	0.	722.32
19849	21.044	3.4545	5.e-002	16.791
19850	21.044	3.7273	0.	725.47
19851	21.137	3.6364	0.	701.08
19852	21.044	3.6364	5.e-002	15.833
19853	21.044	3.9091	0.	694.46
19854	21.137	3.8182	0.	675.43
19855	21.044	3.8182	5.e-002	14.648
19856	21.044	4.0909	0.	661.43
19857	21.137	4.	0.	647.19
19858	21.044	4.	5.e-002	13.317
19859	21.044	4.2727	0.	628.11
19860	21.137	4.1818	0.	618.05
19861	21.044	4.1818	5.e-002	11.898
19862	21.044	4.4545	0.	595.77
19863	21.137	4.3636	0.	589.3
19864	21.044	4.3636	5.e-002	10.427
19865	21.044	4.6364	0.	565.26
19866	21.137	4.5455	0.	561.85
19867	21.044	4.5455	5.e-002	8.9421
19868	21.044	4.8182	0.	537.22
19869	21.137	4.7273	0.	536.3
19870	21.044	4.7273	5.e-002	7.4922
19871	21.044	5.	0.	512.16
19872	21.137	4.9091	0.	513.15
19873	21.044	4.9091	5.e-002	6.1299
19874	21.044	5.1818	0.	490.54
19875	21.137	5.0909	0.	492.8
19876	21.044	5.0909	5.e-002	4.8859
19877	21.044	5.3636	0.	472.7
19878	21.137	5.2727	0.	475.6
19879	21.044	5.2727	5.e-002	3.7603
19880	21.044	5.5455	0.	458.82
19881	21.137	5.4545	0.	461.75
19882	21.044	5.4545	5.e-002	2.7322
19883	21.044	5.7273	0.	449.82
19884	21.137	5.6364	0.	451.33
19885	21.044	5.6364	5.e-002	1.8764
19886	21.137	5.8182	0.	446.08
19887	21.044	5.8182	5.e-002	4.2931
19888	21.044	5.9091	0.	436.59
19889	21.229	0.27273	0.	447.61
19890	21.322	0.18182	0.	440.99
19891	21.229	0.18182	5.e-002	2.6964
19892	21.229	9.0909e-002	0.	436.53
19893	21.229	0.45455	0.	454.36
19894	21.322	0.36364	0.	444.7
19895	21.229	0.36364	5.e-002	1.4956
19896	21.229	0.63636	0.	464.8
19897	21.322	0.54545	0.	452.56
19898	21.229	0.54545	5.e-002	2.6117
19899	21.229	0.81818	0.	478.08
19900	21.322	0.72727	0.	462.89
19901	21.229	0.72727	5.e-002	3.6856
19902	21.229	1.	0.	494.06
19903	21.322	0.90909	0.	475.61
19904	21.229	0.90909	5.e-002	4.806
19905	21.229	1.1818	0.	512.54
19906	21.322	1.0909	0.	490.59
19907	21.229	1.0909	5.e-002	5.9858
19908	21.229	1.3636	0.	533.22
19909	21.322	1.2727	0.	507.61
19910	21.229	1.2727	5.e-002	7.2173
19911	21.229	1.5455	0.	555.73
19912	21.322	1.4545	0.	526.39
19913	21.229	1.4545	5.e-002	8.4769
19914	21.229	1.7273	0.	579.58
19915	21.322	1.6364	0.	546.57
19916	21.229	1.6364	5.e-002	9.7319
19917	21.229	1.9091	0.	604.11
19918	21.322	1.8182	0.	567.67
19919	21.229	1.8182	5.e-002	10.952
19920	21.229	2.0909	0.	628.38
19921	21.322	2.	0.	589.02
19922	21.229	2.	5.e-002	12.114
19923	21.229	2.2727	0.	651.14
19924	21.322	2.1818	0.	609.65
19925	21.229	2.1818	5.e-002	13.19
19926	21.229	2.4545	0.	670.93
19927	21.322	2.3636	0.	628.38
19928	21.229	2.3636	5.e-002	14.141
19929	21.229	2.6364	0.	686.31
19930	21.322	2.5455	0.	643.91
19931	21.229	2.5455	5.e-002	14.916
19932	21.229	2.8182	0.	696.07
19933	21.322	2.7273	0.	655.02
19934	21.229	2.7273	5.e-002	15.462
19935	21.229	3.	0.	699.41
19936	21.322	2.9091	0.	660.83
19937	21.229	2.9091	5.e-002	15.744
19938	21.229	3.1818	0.	696.07
19939	21.322	3.0909	0.	660.83
19940	21.229	3.0909	5.e-002	15.744
19941	21.229	3.3636	0.	686.31
19942	21.322	3.2727	0.	655.02
19943	21.229	3.2727	5.e-002	15.462
19944	21.229	3.5455	0.	670.93
19945	21.322	3.4545	0.	643.91
19946	21.229	3.4545	5.e-002	14.916
19947	21.229	3.7273	0.	651.14
19948	21.322	3.6364	0.	628.38
19949	21.229	3.6364	5.e-002	14.141
19950	21.229	3.9091	0.	628.38
19951	21.322	3.8182	0.	609.65
19952	21.229	3.8182	5.e-002	13.19
19953	21.229	4.0909	0.	604.11
19954	21.322	4.	0.	589.02
19955	21.229	4.	5.e-002	12.114
19956	21.229	4.2727	0.	579.58
19957	21.322	4.1818	0.	567.67
19958	21.229	4.1818	5.e-002	10.952
19959	21.229	4.4545	0.	555.73
19960	21.322	4.3636	0.	546.57
19961	21.229	4.3636	5.e-002	9.732
19962	21.229	4.6364	0.	533.22
19963	21.322	4.5455	0.	526.39
19964	21.229	4.5455	5.e-002	8.4769
19965	21.229	4.8182	0.	512.54
19966	21.322	4.7273	0.	507.61
19967	21.229	4.7273	5.e-002	7.2173
19968	21.229	5.	0.	494.06
19969	21.322	4.9091	0.	490.59
19970	21.229	4.9091	5.e-002	5.9858
19971	21.229	5.1818	0.	478.08
19972	21.322	5.0909	0.	475.61
19973	21.229	5.0909	5.e-002	4.806
19974	21.229	5.3636	0.	464.8
19975	21.322	5.2727	0.	462.89
19976	21.229	5.2727	5.e-002	3.6856
19977	21.229	5.5455	0.	454.36
19978	21.322	5.4545	0.	452.56
19979	21.229	5.4545	5.e-002	2.6117
19980	21.229	5.7273	0.	447.61
19981	21.322	5.6364	0.	444.7
19982	21.229	5.6364	5.e-002	1.4956
19983	21.322	5.8182	0.	440.99
19984	21.229	5.8182	5.e-002	2.6964
19985	21.229	5.9091	0.	436.53
19986	21.414	0.27273	0.	438.03
19987	21.506	0.18182	0.	429.1
19988	21.414	0.18182	5.e-002	1.3406
19989	21.414	9.0909e-002	0.	428.77
19990	21.414	0.45455	0.	442.94
19991	21.506	0.36364	0.	431.49
19992	21.414	0.36364	5.e-002	2.1406
19993	21.414	0.63636	0.	450.71
19994	21.506	0.54545	0.	437.34
19995	21.414	0.54545	5.e-002	3.0755
19996	21.414	0.81818	0.	460.52
19997	21.506	0.72727	0.	444.99
19998	21.414	0.72727	5.e-002	3.9885
19999	21.414	1.	0.	472.26
20000	21.506	0.90909	0.	454.34
20001	21.414	0.90909	5.e-002	4.9711
20002	21.414	1.1818	0.	485.8
20003	21.506	1.0909	0.	465.3
20004	21.414	1.0909	5.e-002	6.0058
20005	21.414	1.3636	0.	500.94
20006	21.506	1.2727	0.	477.72
20007	21.414	1.2727	5.e-002	7.0712
20008	21.414	1.5455	0.	517.41
20009	21.506	1.4545	0.	491.41
20010	21.414	1.4545	5.e-002	8.1433
20011	21.414	1.7273	0.	534.85
20012	21.506	1.6364	0.	506.1
20013	21.414	1.6364	5.e-002	9.197
20014	21.414	1.9091	0.	552.75
20015	21.506	1.8182	0.	521.45
20016	21.414	1.8182	5.e-002	10.21
20017	21.414	2.0909	0.	570.42
20018	21.506	2.	0.	536.92
20019	21.414	2.	5.e-002	11.163
20020	21.414	2.2727	0.	586.96
20021	21.506	2.1818	0.	551.85
20022	21.414	2.1818	5.e-002	12.036
20023	21.414	2.4545	0.	601.33
20024	21.506	2.3636	0.	565.36
20025	21.414	2.3636	5.e-002	12.799
20026	21.414	2.6364	0.	612.5
20027	21.506	2.5455	0.	576.56
20028	21.414	2.5455	5.e-002	13.418
20029	21.414	2.8182	0.	619.6
20030	21.506	2.7273	0.	584.58
20031	21.414	2.7273	5.e-002	13.855
20032	21.414	3.	0.	622.03
20033	21.506	2.9091	0.	588.77
20034	21.414	2.9091	5.e-002	14.081
20035	21.414	3.1818	0.	619.6
20036	21.506	3.0909	0.	588.77
20037	21.414	3.0909	5.e-002	14.081
20038	21.414	3.3636	0.	612.5
20039	21.506	3.2727	0.	584.58
20040	21.414	3.2727	5.e-002	13.855
20041	21.414	3.5455	0.	601.33
20042	21.506	3.4545	0.	576.56
20043	21.414	3.4545	5.e-002	13.418
20044	21.414	3.7273	0.	586.96
20045	21.506	3.6364	0.	565.36
20046	21.414	3.6364	5.e-002	12.799
20047	21.414	3.9091	0.	570.42
20048	21.506	3.8182	0.	551.85
20049	21.414	3.8182	5.e-002	12.036
20050	21.414	4.0909	0.	552.75
20051	21.506	4.	0.	536.92
20052	21.414	4.	5.e-002	11.163
20053	21.414	4.2727	0.	534.85
20054	21.506	4.1818	0.	521.45
20055	21.414	4.1818	5.e-002	10.21
20056	21.414	4.4545	0.	517.41
20057	21.506	4.3636	0.	506.1
20058	21.414	4.3636	5.e-002	9.197
20059	21.414	4.6364	0.	500.94
20060	21.506	4.5455	0.	491.41
20061	21.414	4.5455	5.e-002	8.1433
20062	21.414	4.8182	0.	485.8
20063	21.506	4.7273	0.	477.72
20064	21.414	4.7273	5.e-002	7.0712
20065	21.414	5.	0.	472.26
20066	21.506	4.9091	0.	465.3
20067	21.414	4.9091	5.e-002	6.0058
20068	21.414	5.1818	0.	460.52
20069	21.506	5.0909	0.	454.34
20070	21.414	5.0909	5.e-002	4.9711
20071	21.414	5.3636	0.	450.71
20072	21.506	5.2727	0.	444.99
20073	21.414	5.2727	5.e-002	3.9885
20074	21.414	5.5455	0.	442.94
20075	21.506	5.4545	0.	437.34
20076	21.414	5.4545	5.e-002	3.0755
20077	21.414	5.7273	0.	438.03
20078	21.506	5.6364	0.	431.49
20079	21.414	5.6364	5.e-002	2.1406
20080	21.506	5.8182	0.	429.1
20081	21.414	5.8182	5.e-002	1.3406
20082	21.414	5.9091	0.	428.77
20083	21.599	0.27273	0.	422.45
20084	21.691	0.18182	0.	411.66
20085	21.599	0.18182	5.e-002	0.21404
20086	21.599	9.0909e-002	0.	414.66
20087	21.599	0.45455	0.	425.89
20088	21.691	0.36364	0.	412.99
20089	21.599	0.36364	5.e-002	2.9715
20090	21.599	0.63636	0.	431.62
20091	21.691	0.54545	0.	417.29
20092	21.599	0.54545	5.e-002	3.7041
20093	21.599	0.81818	0.	438.83
20094	21.691	0.72727	0.	422.93
20095	21.599	0.72727	5.e-002	4.4271
20096	21.599	1.	0.	447.41
20097	21.691	0.90909	0.	429.78
20098	21.599	0.90909	5.e-002	5.2378
20099	21.599	1.1818	0.	457.27
20100	21.691	1.0909	0.	437.76
20101	21.599	1.0909	5.e-002	6.1062
20102	21.599	1.3636	0.	468.25
20103	21.691	1.2727	0.	446.76
20104	21.599	1.2727	5.e-002	7.0029
20105	21.599	1.5455	0.	480.18
20106	21.691	1.4545	0.	456.65
20107	21.599	1.4545	5.e-002	7.9021
20108	21.599	1.7273	0.	492.79
20109	21.691	1.6364	0.	467.22
20110	21.599	1.6364	5.e-002	8.781
20111	21.599	1.9091	0.	505.71
20112	21.691	1.8182	0.	478.23
20113	21.599	1.8182	5.e-002	9.6204
20114	21.599	2.0909	0.	518.42
20115	21.691	2.	0.	489.31
20116	21.599	2.	5.e-002	10.403
20117	21.599	2.2727	0.	530.29
20118	21.691	2.1818	0.	499.95
20119	21.599	2.1818	5.e-002	11.112
20120	21.599	2.4545	0.	540.58
20121	21.691	2.3636	0.	509.57
20122	21.599	2.3636	5.e-002	11.725
20123	21.599	2.6364	0.	548.58
20124	21.691	2.5455	0.	517.52
20125	21.599	2.5455	5.e-002	12.218
20126	21.599	2.8182	0.	553.66
20127	21.691	2.7273	0.	523.22
20128	21.599	2.7273	5.e-002	12.564
20129	21.599	3.	0.	555.4
20130	21.691	2.9091	0.	526.19
20131	21.599	2.9091	5.e-002	12.743
20132	21.599	3.1818	0.	553.66
20133	21.691	3.0909	0.	526.19
20134	21.599	3.0909	5.e-002	12.743
20135	21.599	3.3636	0.	548.58
20136	21.691	3.2727	0.	523.22
20137	21.599	3.2727	5.e-002	12.564
20138	21.599	3.5455	0.	540.58
20139	21.691	3.4545	0.	517.52
20140	21.599	3.4545	5.e-002	12.218
20141	21.599	3.7273	0.	530.29
20142	21.691	3.6364	0.	509.57
20143	21.599	3.6364	5.e-002	11.725
20144	21.599	3.9091	0.	518.42
20145	21.691	3.8182	0.	499.95
20146	21.599	3.8182	5.e-002	11.112
20147	21.599	4.0909	0.	505.71
20148	21.691	4.	0.	489.31
20149	21.599	4.	5.e-002	10.403
20150	21.599	4.2727	0.	492.79
20151	21.691	4.1818	0.	478.23
20152	21.599	4.1818	5.e-002	9.6204
20153	21.599	4.4545	0.	480.18
20154	21.691	4.3636	0.	467.22
20155	21.599	4.3636	5.e-002	8.781
20156	21.599	4.6364	0.	468.25
20157	21.691	4.5455	0.	456.65
20158	21.599	4.5455	5.e-002	7.9021
20159	21.599	4.8182	0.	457.27
20160	21.691	4.7273	0.	446.76
20161	21.599	4.7273	5.e-002	7.0029
20162	21.599	5.	0.	447.41
20163	21.691	4.9091	0.	437.76
20164	21.599	4.9091	5.e-002	6.1063
20165	21.599	5.1818	0.	438.83
20166	21.691	5.0909	0.	429.78
20167	21.599	5.0909	5.e-002	5.2378
20168	21.599	5.3636	0.	431.62
20169	21.691	5.2727	0.	422.93
20170	21.599	5.2727	5.e-002	4.4271
20171	21.599	5.5455	0.	425.89
20172	21.691	5.4545	0.	417.29
20173	21.599	5.4545	5.e-002	3.7041
20174	21.599	5.7273	0.	422.45
20175	21.691	5.6364	0.	412.99
20176	21.599	5.6364	5.e-002	2.9715
20177	21.691	5.8182	0.	411.66
20178	21.599	5.8182	5.e-002	0.21404
20179	21.599	5.9091	0.	414.66
20180	21.783	0.27273	0.	402.04
20181	21.876	0.18182	0.	389.76
20182	21.783	0.18182	5.e-002	0.73813
20183	21.783	9.0909e-002	0.	395.38
20184	21.783	0.45455	0.	404.34
20185	21.876	0.36364	0.	390.26
20186	21.783	0.36364	5.e-002	3.718
20187	21.783	0.63636	0.	408.57
20188	21.876	0.54545	0.	393.43
20189	21.783	0.54545	5.e-002	4.3068
20190	21.783	0.81818	0.	413.86
20191	21.876	0.72727	0.	397.62
20192	21.783	0.72727	5.e-002	4.8723
20193	21.783	1.	0.	420.13
20194	21.876	0.90909	0.	402.66
20195	21.783	0.90909	5.e-002	5.5253
20196	21.783	1.1818	0.	427.26
20197	21.876	1.0909	0.	408.46
20198	21.783	1.0909	5.e-002	6.2381
20199	21.783	1.3636	0.	435.17
20200	21.876	1.2727	0.	414.95
20201	21.783	1.2727	5.e-002	6.9805
20202	21.783	1.5455	0.	443.71
20203	21.876	1.4545	0.	422.01
20204	21.783	1.4545	5.e-002	7.727
20205	21.783	1.7273	0.	452.7
20206	21.876	1.6364	0.	429.52
20207	21.783	1.6364	5.e-002	8.456
20208	21.783	1.9091	0.	461.88
20209	21.876	1.8182	0.	437.29
20210	21.783	1.8182	5.e-002	9.1496
20211	21.783	2.0909	0.	470.88
20212	21.876	2.	0.	445.07
20213	21.783	2.	5.e-002	9.7924
20214	21.783	2.2727	0.	479.25
20215	21.876	2.1818	0.	452.52
20216	21.783	2.1818	5.e-002	10.369
20217	21.783	2.4545	0.	486.51
20218	21.876	2.3636	0.	459.24
20219	21.783	2.3636	5.e-002	10.863
20220	21.783	2.6364	0.	492.13
20221	21.876	2.5455	0.	464.78
20222	21.783	2.5455	5.e-002	11.256
20223	21.783	2.8182	0.	495.7
20224	21.876	2.7273	0.	468.75
20225	21.783	2.7273	5.e-002	11.531
20226	21.783	3.	0.	496.93
20227	21.876	2.9091	0.	470.81
20228	21.783	2.9091	5.e-002	11.672
20229	21.783	3.1818	0.	495.7
20230	21.876	3.0909	0.	470.81
20231	21.783	3.0909	5.e-002	11.672
20232	21.783	3.3636	0.	492.13
20233	21.876	3.2727	0.	468.75
20234	21.783	3.2727	5.e-002	11.531
20235	21.783	3.5455	0.	486.51
20236	21.876	3.4545	0.	464.78
20237	21.783	3.4545	5.e-002	11.256
20238	21.783	3.7273	0.	479.25
20239	21.876	3.6364	0.	459.24
20240	21.783	3.6364	5.e-002	10.863
20241	21.783	3.9091	0.	470.88
20242	21.876	3.8182	0.	452.52
20243	21.783	3.8182	5.e-002	10.369
20244	21.783	4.0909	0.	461.88
20245	21.876	4.	0.	445.07
20246	21.783	4.	5.e-002	9.7924
20247	21.783	4.2727	0.	452.7
20248	21.876	4.1818	0.	437.29
20249	21.783	4.1818	5.e-002	9.1496
20250	21.783	4.4545	0.	443.71
20251	21.876	4.3636	0.	429.52
20252	21.783	4.3636	5.e-002	8.456
20253	21.783	4.6364	0.	435.17
20254	21.876	4.5455	0.	422.01
20255	21.783	4.5455	5.e-002	7.727
20256	21.783	4.8182	0.	427.26
20257	21.876	4.7273	0.	414.95
20258	21.783	4.7273	5.e-002	6.9805
20259	21.783	5.	0.	420.13
20260	21.876	4.9091	0.	408.46
20261	21.783	4.9091	5.e-002	6.2381
20262	21.783	5.1818	0.	413.86
20263	21.876	5.0909	0.	402.66
20264	21.783	5.0909	5.e-002	5.5253
20265	21.783	5.3636	0.	408.57
20266	21.876	5.2727	0.	397.62
20267	21.783	5.2727	5.e-002	4.8723
20268	21.783	5.5455	0.	404.34
20269	21.876	5.4545	0.	393.43
20270	21.783	5.4545	5.e-002	4.3068
20271	21.783	5.7273	0.	402.04
20272	21.876	5.6364	0.	390.26
20273	21.783	5.6364	5.e-002	3.718
20274	21.876	5.8182	0.	389.76
20275	21.783	5.8182	5.e-002	0.73812
20276	21.783	5.9091	0.	395.38
20277	21.968	0.27273	0.	377.79
20278	22.06	0.18182	0.	364.31
20279	21.968	0.18182	5.e-002	1.512
20280	21.968	9.0909e-002	0.	371.96
20281	21.968	0.45455	0.	379.28
20282	22.06	0.36364	0.	364.23
20283	21.968	0.36364	5.e-002	4.3421
20284	21.968	0.63636	0.	382.43
20285	22.06	0.54545	0.	366.62
20286	21.968	0.54545	5.e-002	4.8289
20287	21.968	0.81818	0.	386.37
20288	22.06	0.72727	0.	369.8
20289	21.968	0.72727	5.e-002	5.2733
20290	21.968	1.	0.	390.97
20291	22.06	0.90909	0.	373.58
20292	21.968	0.90909	5.e-002	5.7957
20293	21.968	1.1818	0.	396.13
20294	22.06	1.0909	0.	377.84
20295	21.968	1.0909	5.e-002	6.3749
20296	21.968	1.3636	0.	401.78
20297	22.06	1.2727	0.	382.51
20298	21.968	1.2727	5.e-002	6.9843
20299	21.968	1.5455	0.	407.82
20300	22.06	1.4545	0.	387.5
20301	21.968	1.4545	5.e-002	7.5999
20302	21.968	1.7273	0.	414.12
20303	22.06	1.6364	0.	392.75
20304	21.968	1.6364	5.e-002	8.202
20305	21.968	1.9091	0.	420.51
20306	22.06	1.8182	0.	398.12
20307	21.968	1.8182	5.e-002	8.774
20308	21.968	2.0909	0.	426.74
20309	22.06	2.	0.	403.45
20310	21.968	2.	5.e-002	9.3015
20311	21.968	2.2727	0.	432.53
20312	22.06	2.1818	0.	408.54
20313	21.968	2.1818	5.e-002	9.7714
20314	21.968	2.4545	0.	437.52
20315	22.06	2.3636	0.	413.1
20316	21.968	2.3636	5.e-002	10.171
20317	21.968	2.6364	0.	441.39
20318	22.06	2.5455	0.	416.86
20319	21.968	2.5455	5.e-002	10.486
20320	21.968	2.8182	0.	443.84
20321	22.06	2.7273	0.	419.55
20322	21.968	2.7273	5.e-002	10.704
20323	21.968	3.	0.	444.68
20324	22.06	2.9091	0.	420.95
20325	21.968	2.9091	5.e-002	10.816
20326	21.968	3.1818	0.	443.84
20327	22.06	3.0909	0.	420.95
20328	21.968	3.0909	5.e-002	10.816
20329	21.968	3.3636	0.	441.39
20330	22.06	3.2727	0.	419.55
20331	21.968	3.2727	5.e-002	10.704
20332	21.968	3.5455	0.	437.52
20333	22.06	3.4545	0.	416.86
20334	21.968	3.4545	5.e-002	10.486
20335	21.968	3.7273	0.	432.53
20336	22.06	3.6364	0.	413.1
20337	21.968	3.6364	5.e-002	10.171
20338	21.968	3.9091	0.	426.74
20339	22.06	3.8182	0.	408.54
20340	21.968	3.8182	5.e-002	9.7714
20341	21.968	4.0909	0.	420.51
20342	22.06	4.	0.	403.45
20343	21.968	4.	5.e-002	9.3015
20344	21.968	4.2727	0.	414.12
20345	22.06	4.1818	0.	398.12
20346	21.968	4.1818	5.e-002	8.774
20347	21.968	4.4545	0.	407.82
20348	22.06	4.3636	0.	392.75
20349	21.968	4.3636	5.e-002	8.202
20350	21.968	4.6364	0.	401.78
20351	22.06	4.5455	0.	387.5
20352	21.968	4.5455	5.e-002	7.5999
20353	21.968	4.8182	0.	396.13
20354	22.06	4.7273	0.	382.51
20355	21.968	4.7273	5.e-002	6.9843
20356	21.968	5.	0.	390.97
20357	22.06	4.9091	0.	377.84
20358	21.968	4.9091	5.e-002	6.3749
20359	21.968	5.1818	0.	386.37
20360	22.06	5.0909	0.	373.58
20361	21.968	5.0909	5.e-002	5.7957
20362	21.968	5.3636	0.	382.43
20363	22.06	5.2727	0.	369.8
20364	21.968	5.2727	5.e-002	5.2733
20365	21.968	5.5455	0.	379.28
20366	22.06	5.4545	0.	366.62
20367	21.968	5.4545	5.e-002	4.8289
20368	21.968	5.7273	0.	377.79
20369	22.06	5.6364	0.	364.23
20370	21.968	5.6364	5.e-002	4.3421
20371	22.06	5.8182	0.	364.31
20372	21.968	5.8182	5.e-002	1.512
20373	21.968	5.9091	0.	371.96
20374	22.153	0.27273	0.	350.52
20375	22.245	0.18182	0.	336.06
20376	22.153	0.18182	5.e-002	2.1524
20377	22.153	9.0909e-002	0.	345.25
20378	22.153	0.45455	0.	351.48
20379	22.245	0.36364	0.	335.63
20380	22.153	0.36364	5.e-002	4.8508
20381	22.153	0.63636	0.	353.93
20382	22.245	0.54545	0.	337.57
20383	22.153	0.54545	5.e-002	5.2629
20384	22.153	0.81818	0.	356.97
20385	22.245	0.72727	0.	340.13
20386	22.153	0.72727	5.e-002	5.6158
20387	22.153	1.	0.	360.42
20388	22.245	0.90909	0.	343.08
20389	22.153	0.90909	5.e-002	6.0342
20390	22.153	1.1818	0.	364.19
20391	22.245	1.0909	0.	346.29
20392	22.153	1.0909	5.e-002	6.5039
20393	22.153	1.3636	0.	368.22
20394	22.245	1.2727	0.	349.67
20395	22.153	1.2727	5.e-002	7.0023
20396	22.153	1.5455	0.	372.43
20397	22.245	1.4545	0.	353.18
20398	22.153	1.4545	5.e-002	7.5084
20399	22.153	1.7273	0.	376.75
20400	22.245	1.6364	0.	356.77
20401	22.153	1.6364	5.e-002	8.0045
20402	22.153	1.9091	0.	381.08
20403	22.245	1.8182	0.	360.37
20404	22.153	1.8182	5.e-002	8.4753
20405	22.153	2.0909	0.	385.27
20406	22.245	2.	0.	363.91
20407	22.153	2.	5.e-002	8.9082
20408	22.153	2.2727	0.	389.13
20409	22.245	2.1818	0.	367.25
20410	22.153	2.1818	5.e-002	9.2917
20411	22.153	2.4545	0.	392.46
20412	22.245	2.3636	0.	370.23
20413	22.153	2.3636	5.e-002	9.6152
20414	22.153	2.6364	0.	395.03
20415	22.245	2.5455	0.	372.67
20416	22.153	2.5455	5.e-002	9.8688
20417	22.153	2.8182	0.	396.66
20418	22.245	2.7273	0.	374.42
20419	22.153	2.7273	5.e-002	10.044
20420	22.153	3.	0.	397.22
20421	22.245	2.9091	0.	375.33
20422	22.153	2.9091	5.e-002	10.133
20423	22.153	3.1818	0.	396.66
20424	22.245	3.0909	0.	375.33
20425	22.153	3.0909	5.e-002	10.133
20426	22.153	3.3636	0.	395.03
20427	22.245	3.2727	0.	374.42
20428	22.153	3.2727	5.e-002	10.044
20429	22.153	3.5455	0.	392.46
20430	22.245	3.4545	0.	372.67
20431	22.153	3.4545	5.e-002	9.8688
20432	22.153	3.7273	0.	389.13
20433	22.245	3.6364	0.	370.23
20434	22.153	3.6364	5.e-002	9.6152
20435	22.153	3.9091	0.	385.27
20436	22.245	3.8182	0.	367.25
20437	22.153	3.8182	5.e-002	9.2917
20438	22.153	4.0909	0.	381.08
20439	22.245	4.	0.	363.91
20440	22.153	4.	5.e-002	8.9082
20441	22.153	4.2727	0.	376.75
20442	22.245	4.1818	0.	360.37
20443	22.153	4.1818	5.e-002	8.4754
20444	22.153	4.4545	0.	372.43
20445	22.245	4.3636	0.	356.77
20446	22.153	4.3636	5.e-002	8.0045
20447	22.153	4.6364	0.	368.22
20448	22.245	4.5455	0.	353.18
20449	22.153	4.5455	5.e-002	7.5084
20450	22.153	4.8182	0.	364.19
20451	22.245	4.7273	0.	349.67
20452	22.153	4.7273	5.e-002	7.0023
20453	22.153	5.	0.	360.42
20454	22.245	4.9091	0.	346.29
20455	22.153	4.9091	5.e-002	6.5039
20456	22.153	5.1818	0.	356.97
20457	22.245	5.0909	0.	343.08
20458	22.153	5.0909	5.e-002	6.0342
20459	22.153	5.3636	0.	353.93
20460	22.245	5.2727	0.	340.13
20461	22.153	5.2727	5.e-002	5.6158
20462	22.153	5.5455	0.	351.48
20463	22.245	5.4545	0.	337.57
20464	22.153	5.4545	5.e-002	5.2629
20465	22.153	5.7273	0.	350.52
20466	22.245	5.6364	0.	335.63
20467	22.153	5.6364	5.e-002	4.8508
20468	22.245	5.8182	0.	336.06
20469	22.153	5.8182	5.e-002	2.1524
20470	22.153	5.9091	0.	345.25
20471	22.337	0.27273	0.	320.92
20472	22.43	0.18182	0.	305.64
20473	22.337	0.18182	5.e-002	2.6871
20474	22.337	9.0909e-002	0.	315.95
20475	22.337	0.45455	0.	321.61
20476	22.43	0.36364	0.	305.09
20477	22.337	0.36364	5.e-002	5.2602
20478	22.337	0.63636	0.	323.69
20479	22.43	0.54545	0.	306.86
20480	22.337	0.54545	5.e-002	5.6165
20481	22.337	0.81818	0.	326.19
20482	22.43	0.72727	0.	309.12
20483	22.337	0.72727	5.e-002	5.9006
20484	22.337	1.	0.	328.91
20485	22.43	0.90909	0.	311.6
20486	22.337	0.90909	5.e-002	6.2382
20487	22.337	1.1818	0.	331.74
20488	22.43	1.0909	0.	314.14
20489	22.337	1.0909	5.e-002	6.6202
20490	22.337	1.3636	0.	334.62
20491	22.43	1.2727	0.	316.65
20492	22.337	1.2727	5.e-002	7.0281
20493	22.337	1.5455	0.	337.52
20494	22.43	1.4545	0.	319.11
20495	22.337	1.4545	5.e-002	7.4441
20496	22.337	1.7273	0.	340.4
20497	22.43	1.6364	0.	321.51
20498	22.337	1.6364	5.e-002	7.8524
20499	22.337	1.9091	0.	343.22
20500	22.43	1.8182	0.	323.83
20501	22.337	1.8182	5.e-002	8.2397
20502	22.337	2.0909	0.	345.91
20503	22.43	2.	0.	326.04
20504	22.337	2.	5.e-002	8.5948
20505	22.337	2.2727	0.	348.37
20506	22.43	2.1818	0.	328.1
20507	22.337	2.1818	5.e-002	8.908
20508	22.337	2.4545	0.	350.47
20509	22.43	2.3636	0.	329.92
20510	22.337	2.3636	5.e-002	9.1708
20511	22.337	2.6364	0.	352.09
20512	22.43	2.5455	0.	331.41
20513	22.337	2.5455	5.e-002	9.3757
20514	22.337	2.8182	0.	353.11
20515	22.43	2.7273	0.	332.46
20516	22.337	2.7273	5.e-002	9.5163
20517	22.337	3.	0.	353.46
20518	22.43	2.9091	0.	333.01
20519	22.337	2.9091	5.e-002	9.5879
20520	22.337	3.1818	0.	353.11
20521	22.43	3.0909	0.	333.01
20522	22.337	3.0909	5.e-002	9.5879
20523	22.337	3.3636	0.	352.09
20524	22.43	3.2727	0.	332.46
20525	22.337	3.2727	5.e-002	9.5163
20526	22.337	3.5455	0.	350.47
20527	22.43	3.4545	0.	331.41
20528	22.337	3.4545	5.e-002	9.3757
20529	22.337	3.7273	0.	348.37
20530	22.43	3.6364	0.	329.92
20531	22.337	3.6364	5.e-002	9.1708
20532	22.337	3.9091	0.	345.91
20533	22.43	3.8182	0.	328.1
20534	22.337	3.8182	5.e-002	8.908
20535	22.337	4.0909	0.	343.22
20536	22.43	4.	0.	326.04
20537	22.337	4.	5.e-002	8.5948
20538	22.337	4.2727	0.	340.4
20539	22.43	4.1818	0.	323.83
20540	22.337	4.1818	5.e-002	8.2397
20541	22.337	4.4545	0.	337.52
20542	22.43	4.3636	0.	321.51
20543	22.337	4.3636	5.e-002	7.8524
20544	22.337	4.6364	0.	334.62
20545	22.43	4.5455	0.	319.11
20546	22.337	4.5455	5.e-002	7.4441
20547	22.337	4.8182	0.	331.74
20548	22.43	4.7273	0.	316.65
20549	22.337	4.7273	5.e-002	7.0281
20550	22.337	5.	0.	328.91
20551	22.43	4.9091	0.	314.14
20552	22.337	4.9091	5.e-002	6.6202
20553	22.337	5.1818	0.	326.19
20554	22.43	5.0909	0.	311.6
20555	22.337	5.0909	5.e-002	6.2382
20556	22.337	5.3636	0.	323.69
20557	22.43	5.2727	0.	309.12
20558	22.337	5.2727	5.e-002	5.9006
20559	22.337	5.5455	0.	321.61
20560	22.43	5.4545	0.	306.86
20561	22.337	5.4545	5.e-002	5.6165
20562	22.337	5.7273	0.	320.92
20563	22.43	5.6364	0.	305.09
20564	22.337	5.6364	5.e-002	5.2602
20565	22.43	5.8182	0.	305.64
20566	22.337	5.8182	5.e-002	2.6871
20567	22.337	5.9091	0.	315.95
20568	22.522	0.27273	0.	289.53
20569	22.615	0.18182	0.	273.55
20570	22.522	0.18182	5.e-002	3.1417
20571	22.522	9.0909e-002	0.	284.65
20572	22.522	0.45455	0.	290.22
20573	22.615	0.36364	0.	273.11
20574	22.522	0.36364	5.e-002	5.5879
20575	22.522	0.63636	0.	292.21
20576	22.615	0.54545	0.	274.98
20577	22.522	0.54545	5.e-002	5.9017
20578	22.522	0.81818	0.	294.48
20579	22.615	0.72727	0.	277.24
20580	22.522	0.72727	5.e-002	6.1347
20581	22.522	1.	0.	296.8
20582	22.615	0.90909	0.	279.54
20583	22.522	0.90909	5.e-002	6.4106
20584	22.522	1.1818	0.	299.04
20585	22.615	1.0909	0.	281.7
20586	22.522	1.0909	5.e-002	6.7237
20587	22.522	1.3636	0.	301.14
20588	22.615	1.2727	0.	283.66
20589	22.522	1.2727	5.e-002	7.0589
20590	22.522	1.5455	0.	303.12
20591	22.615	1.4545	0.	285.41
20592	22.522	1.4545	5.e-002	7.4013
20593	22.522	1.7273	0.	304.96
20594	22.615	1.6364	0.	286.96
20595	22.522	1.6364	5.e-002	7.7374
20596	22.522	1.9091	0.	306.68
20597	22.615	1.8182	0.	288.35
20598	22.522	1.8182	5.e-002	8.0558
20599	22.522	2.0909	0.	308.27
20600	22.615	2.	0.	289.6
20601	22.522	2.	5.e-002	8.347
20602	22.522	2.2727	0.	309.7
20603	22.615	2.1818	0.	290.72
20604	22.522	2.1818	5.e-002	8.6028
20605	22.522	2.4545	0.	310.9
20606	22.615	2.3636	0.	291.68
20607	22.522	2.3636	5.e-002	8.8164
20608	22.522	2.6364	0.	311.83
20609	22.615	2.5455	0.	292.46
20610	22.522	2.5455	5.e-002	8.9822
20611	22.522	2.8182	0.	312.41
20612	22.615	2.7273	0.	293.02
20613	22.522	2.7273	5.e-002	9.0955
20614	22.522	3.	0.	312.61
20615	22.615	2.9091	0.	293.3
20616	22.522	2.9091	5.e-002	9.1531
20617	22.522	3.1818	0.	312.41
20618	22.615	3.0909	0.	293.3
20619	22.522	3.0909	5.e-002	9.1531
20620	22.522	3.3636	0.	311.83
20621	22.615	3.2727	0.	293.02
20622	22.522	3.2727	5.e-002	9.0955
20623	22.522	3.5455	0.	310.9
20624	22.615	3.4545	0.	292.46
20625	22.522	3.4545	5.e-002	8.9822
20626	22.522	3.7273	0.	309.7
20627	22.615	3.6364	0.	291.68
20628	22.522	3.6364	5.e-002	8.8164
20629	22.522	3.9091	0.	308.27
20630	22.615	3.8182	0.	290.72
20631	22.522	3.8182	5.e-002	8.6028
20632	22.522	4.0909	0.	306.68
20633	22.615	4.	0.	289.6
20634	22.522	4.	5.e-002	8.347
20635	22.522	4.2727	0.	304.96
20636	22.615	4.1818	0.	288.35
20637	22.522	4.1818	5.e-002	8.0558
20638	22.522	4.4545	0.	303.12
20639	22.615	4.3636	0.	286.96
20640	22.522	4.3636	5.e-002	7.7374
20641	22.522	4.6364	0.	301.14
20642	22.615	4.5455	0.	285.41
20643	22.522	4.5455	5.e-002	7.4013
20644	22.522	4.8182	0.	299.04
20645	22.615	4.7273	0.	283.66
20646	22.522	4.7273	5.e-002	7.0589
20647	22.522	5.	0.	296.8
20648	22.615	4.9091	0.	281.7
20649	22.522	4.9091	5.e-002	6.7237
20650	22.522	5.1818	0.	294.48
20651	22.615	5.0909	0.	279.54
20652	22.522	5.0909	5.e-002	6.4106
20653	22.522	5.3636	0.	292.21
20654	22.615	5.2727	0.	277.24
20655	22.522	5.2727	5.e-002	6.1347
20656	22.522	5.5455	0.	290.22
20657	22.615	5.4545	0.	274.98
20658	22.522	5.4545	5.e-002	5.9017
20659	22.522	5.7273	0.	289.53
20660	22.615	5.6364	0.	273.11
20661	22.522	5.6364	5.e-002	5.5879
20662	22.615	5.8182	0.	273.55
20663	22.522	5.8182	5.e-002	3.1417
20664	22.522	5.9091	0.	284.65
20665	22.707	0.27273	0.	256.81
20666	22.799	0.18182	0.	240.2
20667	22.707	0.18182	5.e-002	3.5397
20668	22.707	9.0909e-002	0.	251.82
20669	22.707	0.45455	0.	257.75
20670	22.799	0.36364	0.	240.14
20671	22.707	0.36364	5.e-002	5.8502
20672	22.707	0.63636	0.	259.93
20673	22.799	0.54545	0.	242.38
20674	22.707	0.54545	5.e-002	6.1318
20675	22.707	0.81818	0.	262.25
20676	22.799	0.72727	0.	244.89
20677	22.707	0.72727	5.e-002	6.3277
20678	22.707	1.	0.	264.42
20679	22.799	0.90909	0.	247.25
20680	22.707	0.90909	5.e-002	6.5571
20681	22.707	1.1818	0.	266.33
20682	22.799	1.0909	0.	249.27
20683	22.707	1.0909	5.e-002	6.8167
20684	22.707	1.3636	0.	267.94
20685	22.799	1.2727	0.	250.91
20686	22.707	1.2727	5.e-002	7.094
20687	22.707	1.5455	0.	269.28
20688	22.799	1.4545	0.	252.18
20689	22.707	1.4545	5.e-002	7.3767
20690	22.707	1.7273	0.	270.38
20691	22.799	1.6364	0.	253.13
20692	22.707	1.6364	5.e-002	7.6535
20693	22.707	1.9091	0.	271.31
20694	22.799	1.8182	0.	253.85
20695	22.707	1.8182	5.e-002	7.9149
20696	22.707	2.0909	0.	272.1
20697	22.799	2.	0.	254.4
20698	22.707	2.	5.e-002	8.1531
20699	22.707	2.2727	0.	272.77
20700	22.799	2.1818	0.	254.83
20701	22.707	2.1818	5.e-002	8.3615
20702	22.707	2.4545	0.	273.31
20703	22.799	2.3636	0.	255.17
20704	22.707	2.3636	5.e-002	8.5348
20705	22.707	2.6364	0.	273.73
20706	22.799	2.5455	0.	255.44
20707	22.707	2.5455	5.e-002	8.6687
20708	22.707	2.8182	0.	273.99
20709	22.799	2.7273	0.	255.62
20710	22.707	2.7273	5.e-002	8.76
20711	22.707	3.	0.	274.07
20712	22.799	2.9091	0.	255.71
20713	22.707	2.9091	5.e-002	8.8062
20714	22.707	3.1818	0.	273.99
20715	22.799	3.0909	0.	255.71
20716	22.707	3.0909	5.e-002	8.8062
20717	22.707	3.3636	0.	273.73
20718	22.799	3.2727	0.	255.62
20719	22.707	3.2727	5.e-002	8.76
20720	22.707	3.5455	0.	273.31
20721	22.799	3.4545	0.	255.44
20722	22.707	3.4545	5.e-002	8.6687
20723	22.707	3.7273	0.	272.77
20724	22.799	3.6364	0.	255.17
20725	22.707	3.6364	5.e-002	8.5348
20726	22.707	3.9091	0.	272.1
20727	22.799	3.8182	0.	254.83
20728	22.707	3.8182	5.e-002	8.3615
20729	22.707	4.0909	0.	271.31
20730	22.799	4.	0.	254.4
20731	22.707	4.	5.e-002	8.1531
20732	22.707	4.2727	0.	270.38
20733	22.799	4.1818	0.	253.85
20734	22.707	4.1818	5.e-002	7.9149
20735	22.707	4.4545	0.	269.28
20736	22.799	4.3636	0.	253.13
20737	22.707	4.3636	5.e-002	7.6535
20738	22.707	4.6364	0.	267.94
20739	22.799	4.5455	0.	252.18
20740	22.707	4.5455	5.e-002	7.3767
20741	22.707	4.8182	0.	266.33
20742	22.799	4.7273	0.	250.91
20743	22.707	4.7273	5.e-002	7.094
20744	22.707	5.	0.	264.42
20745	22.799	4.9091	0.	249.27
20746	22.707	4.9091	5.e-002	6.8167
20747	22.707	5.1818	0.	262.25
20748	22.799	5.0909	0.	247.25
20749	22.707	5.0909	5.e-002	6.5571
20750	22.707	5.3636	0.	259.93
20751	22.799	5.2727	0.	244.89
20752	22.707	5.2727	5.e-002	6.3277
20753	22.707	5.5455	0.	257.75
20754	22.799	5.4545	0.	242.38
20755	22.707	5.4545	5.e-002	6.1318
20756	22.707	5.7273	0.	256.81
20757	22.799	5.6364	0.	240.14
20758	22.707	5.6364	5.e-002	5.8502
20759	22.799	5.8182	0.	240.2
20760	22.707	5.8182	5.e-002	3.5397
20761	22.707	5.9091	0.	251.82
20762	22.892	0.27273	0.	223.16
20763	22.984	0.18182	0.	205.94
20764	22.892	0.18182	5.e-002	3.9025
20765	22.892	9.0909e-002	0.	217.86
20766	22.892	0.45455	0.	224.63
20767	22.984	0.36364	0.	206.56
20768	22.892	0.36364	5.e-002	6.0618
20769	22.892	0.63636	0.	227.26
20770	22.984	0.54545	0.	209.46
20771	22.892	0.54545	5.e-002	6.3194
20772	22.892	0.81818	0.	229.85
20773	22.984	0.72727	0.	212.46
20774	22.892	0.72727	5.e-002	6.4899
20775	22.892	1.	0.	232.1
20776	22.984	0.90909	0.	215.08
20777	22.892	0.90909	5.e-002	6.6854
20778	22.892	1.1818	0.	233.88
20779	22.984	1.0909	0.	217.14
20780	22.892	1.0909	5.e-002	6.9038
20781	22.892	1.3636	0.	235.19
20782	22.984	1.2727	0.	218.62
20783	22.892	1.2727	5.e-002	7.1349
20784	22.892	1.5455	0.	236.1
20785	22.984	1.4545	0.	219.58
20786	22.892	1.4545	5.e-002	7.3687
20787	22.892	1.7273	0.	236.67
20788	22.984	1.6364	0.	220.12
20789	22.892	1.6364	5.e-002	7.5962
20790	22.892	1.9091	0.	237.02
20791	22.984	1.8182	0.	220.35
20792	22.892	1.8182	5.e-002	7.81
20793	22.892	2.0909	0.	237.22
20794	22.984	2.	0.	220.38
20795	22.892	2.	5.e-002	8.0037
20796	22.892	2.2727	0.	237.34
20797	22.984	2.1818	0.	220.31
20798	22.892	2.1818	5.e-002	8.1723
20799	22.892	2.4545	0.	237.4
20800	22.984	2.3636	0.	220.19
20801	22.892	2.3636	5.e-002	8.312
20802	22.892	2.6364	0.	237.44
20803	22.984	2.5455	0.	220.07
20804	22.892	2.5455	5.e-002	8.4194
20805	22.892	2.8182	0.	237.46
20806	22.984	2.7273	0.	219.98
20807	22.892	2.7273	5.e-002	8.4924
20808	22.892	3.	0.	237.47
20809	22.984	2.9091	0.	219.93
20810	22.892	2.9091	5.e-002	8.5293
20811	22.892	3.1818	0.	237.46
20812	22.984	3.0909	0.	219.93
20813	22.892	3.0909	5.e-002	8.5293
20814	22.892	3.3636	0.	237.44
20815	22.984	3.2727	0.	219.98
20816	22.892	3.2727	5.e-002	8.4924
20817	22.892	3.5455	0.	237.4
20818	22.984	3.4545	0.	220.07
20819	22.892	3.4545	5.e-002	8.4194
20820	22.892	3.7273	0.	237.34
20821	22.984	3.6364	0.	220.19
20822	22.892	3.6364	5.e-002	8.312
20823	22.892	3.9091	0.	237.22
20824	22.984	3.8182	0.	220.31
20825	22.892	3.8182	5.e-002	8.1723
20826	22.892	4.0909	0.	237.02
20827	22.984	4.	0.	220.38
20828	22.892	4.	5.e-002	8.0037
20829	22.892	4.2727	0.	236.67
20830	22.984	4.1818	0.	220.35
20831	22.892	4.1818	5.e-002	7.81
20832	22.892	4.4545	0.	236.1
20833	22.984	4.3636	0.	220.12
20834	22.892	4.3636	5.e-002	7.5962
20835	22.892	4.6364	0.	235.19
20836	22.984	4.5455	0.	219.58
20837	22.892	4.5455	5.e-002	7.3687
20838	22.892	4.8182	0.	233.88
20839	22.984	4.7273	0.	218.62
20840	22.892	4.7273	5.e-002	7.1349
20841	22.892	5.	0.	232.1
20842	22.984	4.9091	0.	217.14
20843	22.892	4.9091	5.e-002	6.9038
20844	22.892	5.1818	0.	229.85
20845	22.984	5.0909	0.	215.08
20846	22.892	5.0909	5.e-002	6.6854
20847	22.892	5.3636	0.	227.26
20848	22.984	5.2727	0.	212.46
20849	22.892	5.2727	5.e-002	6.4899
20850	22.892	5.5455	0.	224.63
20851	22.984	5.4545	0.	209.46
20852	22.892	5.4545	5.e-002	6.3194
20853	22.892	5.7273	0.	223.16
20854	22.984	5.6364	0.	206.56
20855	22.892	5.6364	5.e-002	6.0618
20856	22.984	5.8182	0.	205.94
20857	22.892	5.8182	5.e-002	3.9025
20858	22.892	5.9091	0.	217.86
20859	23.076	0.27273	0.	188.92
20860	23.169	0.18182	0.	171.07
20861	23.076	0.18182	5.e-002	4.2502
20862	23.076	9.0909e-002	0.	183.12
20863	23.076	0.45455	0.	191.25
20864	23.169	0.36364	0.	172.78
20865	23.076	0.36364	5.e-002	6.2369
20866	23.076	0.63636	0.	194.6
20867	23.169	0.54545	0.	176.68
20868	23.076	0.54545	5.e-002	6.4781
20869	23.076	0.81818	0.	197.69
20870	23.169	0.72727	0.	180.4
20871	23.076	0.72727	5.e-002	6.6333
20872	23.076	1.	0.	200.17
20873	23.169	0.90909	0.	183.44
20874	23.076	0.90909	5.e-002	6.8045
20875	23.076	1.1818	0.	201.97
20876	23.169	1.0909	0.	185.66
20877	23.076	1.0909	5.e-002	6.9908
20878	23.076	1.3636	0.	203.12
20879	23.169	1.2727	0.	187.09
20880	23.076	1.2727	5.e-002	7.1841
20881	23.076	1.5455	0.	203.73
20882	23.169	1.4545	0.	187.85
20883	23.076	1.4545	5.e-002	7.3768
20884	23.076	1.7273	0.	203.93
20885	23.169	1.6364	0.	188.1
20886	23.076	1.6364	5.e-002	7.5624
20887	23.076	1.9091	0.	203.85
20888	23.169	1.8182	0.	187.97
20889	23.076	1.8182	5.e-002	7.7353
20890	23.076	2.0909	0.	203.62
20891	23.169	2.	0.	187.62
20892	23.076	2.	5.e-002	7.8908
20893	23.076	2.2727	0.	203.31
20894	23.169	2.1818	0.	187.16
20895	23.076	2.1818	5.e-002	8.0254
20896	23.076	2.4545	0.	203.02
20897	23.169	2.3636	0.	186.69
20898	23.076	2.3636	5.e-002	8.1363
20899	23.076	2.6364	0.	202.77
20900	23.169	2.5455	0.	186.28
20901	23.076	2.5455	5.e-002	8.2212
20902	23.076	2.8182	0.	202.62
20903	23.169	2.7273	0.	185.98
20904	23.076	2.7273	5.e-002	8.2787
20905	23.076	3.	0.	202.56
20906	23.169	2.9091	0.	185.83
20907	23.076	2.9091	5.e-002	8.3076
20908	23.076	3.1818	0.	202.62
20909	23.169	3.0909	0.	185.83
20910	23.076	3.0909	5.e-002	8.3076
20911	23.076	3.3636	0.	202.77
20912	23.169	3.2727	0.	185.98
20913	23.076	3.2727	5.e-002	8.2787
20914	23.076	3.5455	0.	203.02
20915	23.169	3.4545	0.	186.28
20916	23.076	3.4545	5.e-002	8.2212
20917	23.076	3.7273	0.	203.31
20918	23.169	3.6364	0.	186.69
20919	23.076	3.6364	5.e-002	8.1363
20920	23.076	3.9091	0.	203.62
20921	23.169	3.8182	0.	187.16
20922	23.076	3.8182	5.e-002	8.0254
20923	23.076	4.0909	0.	203.85
20924	23.169	4.	0.	187.62
20925	23.076	4.	5.e-002	7.8908
20926	23.076	4.2727	0.	203.93
20927	23.169	4.1818	0.	187.97
20928	23.076	4.1818	5.e-002	7.7353
20929	23.076	4.4545	0.	203.73
20930	23.169	4.3636	0.	188.1
20931	23.076	4.3636	5.e-002	7.5624
20932	23.076	4.6364	0.	203.12
20933	23.169	4.5455	0.	187.85
20934	23.076	4.5455	5.e-002	7.3768
20935	23.076	4.8182	0.	201.97
20936	23.169	4.7273	0.	187.09
20937	23.076	4.7273	5.e-002	7.1841
20938	23.076	5.	0.	200.17
20939	23.169	4.9091	0.	185.66
20940	23.076	4.9091	5.e-002	6.9908
20941	23.076	5.1818	0.	197.69
20942	23.169	5.0909	0.	183.44
20943	23.076	5.0909	5.e-002	6.8045
20944	23.076	5.3636	0.	194.6
20945	23.169	5.2727	0.	180.4
20946	23.076	5.2727	5.e-002	6.6333
20947	23.076	5.5455	0.	191.25
20948	23.169	5.4545	0.	176.68
20949	23.076	5.4545	5.e-002	6.4781
20950	23.076	5.7273	0.	188.92
20951	23.169	5.6364	0.	172.78
20952	23.076	5.6364	5.e-002	6.2369
20953	23.169	5.8182	0.	171.07
20954	23.076	5.8182	5.e-002	4.2502
20955	23.076	5.9091	0.	183.12
20956	23.261	0.27273	0.	154.45
20957	23.353	0.18182	0.	135.91
20958	23.261	0.18182	5.e-002	4.6039
20959	23.261	9.0909e-002	0.	147.89
20960	23.261	0.45455	0.	158.07
20961	23.353	0.36364	0.	139.31
20962	23.261	0.36364	5.e-002	6.3899
20963	23.261	0.63636	0.	162.46
20964	23.353	0.54545	0.	144.6
20965	23.261	0.54545	5.e-002	6.624
20966	23.261	0.81818	0.	166.22
20967	23.353	0.72727	0.	149.25
20968	23.261	0.72727	5.e-002	6.7721
20969	23.261	1.	0.	169.06
20970	23.353	0.90909	0.	152.82
20971	23.261	0.90909	5.e-002	6.9255
20972	23.261	1.1818	0.	170.95
20973	23.353	1.0909	0.	155.27
20974	23.261	1.0909	5.e-002	7.0848
20975	23.261	1.3636	0.	172.03
20976	23.353	1.2727	0.	156.73
20977	23.261	1.2727	5.e-002	7.2451
20978	23.261	1.5455	0.	172.45
20979	23.353	1.4545	0.	157.38
20980	23.261	1.4545	5.e-002	7.4015
20981	23.261	1.7273	0.	172.37
20982	23.353	1.6364	0.	157.41
20983	23.261	1.6364	5.e-002	7.5499
20984	23.261	1.9091	0.	171.98
20985	23.353	1.8182	0.	157.02
20986	23.261	1.8182	5.e-002	7.6864
20987	23.261	2.0909	0.	171.41
20988	23.353	2.	0.	156.36
20989	23.261	2.	5.e-002	7.8081
20990	23.261	2.2727	0.	170.79
20991	23.353	2.1818	0.	155.6
20992	23.261	2.1818	5.e-002	7.9126
20993	23.261	2.4545	0.	170.21
20994	23.353	2.3636	0.	154.86
20995	23.261	2.3636	5.e-002	7.9981
20996	23.261	2.6364	0.	169.75
20997	23.353	2.5455	0.	154.22
20998	23.261	2.5455	5.e-002	8.0632
20999	23.261	2.8182	0.	169.46
21000	23.353	2.7273	0.	153.76
21001	23.261	2.7273	5.e-002	8.1071
21002	23.261	3.	0.	169.36
21003	23.353	2.9091	0.	153.52
21004	23.261	2.9091	5.e-002	8.1292
21005	23.261	3.1818	0.	169.46
21006	23.353	3.0909	0.	153.52
21007	23.261	3.0909	5.e-002	8.1292
21008	23.261	3.3636	0.	169.75
21009	23.353	3.2727	0.	153.76
21010	23.261	3.2727	5.e-002	8.1071
21011	23.261	3.5455	0.	170.21
21012	23.353	3.4545	0.	154.22
21013	23.261	3.4545	5.e-002	8.0632
21014	23.261	3.7273	0.	170.79
21015	23.353	3.6364	0.	154.86
21016	23.261	3.6364	5.e-002	7.9981
21017	23.261	3.9091	0.	171.41
21018	23.353	3.8182	0.	155.6
21019	23.261	3.8182	5.e-002	7.9126
21020	23.261	4.0909	0.	171.98
21021	23.353	4.	0.	156.36
21022	23.261	4.	5.e-002	7.8081
21023	23.261	4.2727	0.	172.37
21024	23.353	4.1818	0.	157.02
21025	23.261	4.1818	5.e-002	7.6864
21026	23.261	4.4545	0.	172.45
21027	23.353	4.3636	0.	157.41
21028	23.261	4.3636	5.e-002	7.5499
21029	23.261	4.6364	0.	172.03
21030	23.353	4.5455	0.	157.38
21031	23.261	4.5455	5.e-002	7.4015
21032	23.261	4.8182	0.	170.95
21033	23.353	4.7273	0.	156.73
21034	23.261	4.7273	5.e-002	7.2451
21035	23.261	5.	0.	169.06
21036	23.353	4.9091	0.	155.27
21037	23.261	4.9091	5.e-002	7.0848
21038	23.261	5.1818	0.	166.22
21039	23.353	5.0909	0.	152.82
21040	23.261	5.0909	5.e-002	6.9255
21041	23.261	5.3636	0.	162.46
21042	23.353	5.2727	0.	149.25
21043	23.261	5.2727	5.e-002	6.7721
21044	23.261	5.5455	0.	158.07
21045	23.353	5.4545	0.	144.6
21046	23.261	5.4545	5.e-002	6.624
21047	23.261	5.7273	0.	154.45
21048	23.353	5.6364	0.	139.31
21049	23.261	5.6364	5.e-002	6.3899
21050	23.353	5.8182	0.	135.91
21051	23.261	5.8182	5.e-002	4.6039
21052	23.261	5.9091	0.	147.89
21053	23.446	0.27273	0.	120.22
21054	23.538	0.18182	0.	100.92
21055	23.446	0.18182	5.e-002	4.984
21056	23.446	9.0909e-002	0.	112.5
21057	23.446	0.45455	0.	125.76
21058	23.538	0.36364	0.	107.05
21059	23.446	0.36364	5.e-002	6.5425
21060	23.446	0.63636	0.	131.51
21061	23.538	0.54545	0.	114.17
21062	23.446	0.54545	5.e-002	6.7805
21063	23.446	0.81818	0.	136.09
21064	23.538	0.72727	0.	119.9
21065	23.446	0.72727	5.e-002	6.9247
21066	23.446	1.	0.	139.35
21067	23.538	0.90909	0.	124.06
21068	23.446	0.90909	5.e-002	7.0607
21069	23.446	1.1818	0.	141.41
21070	23.538	1.0909	0.	126.79
21071	23.446	1.0909	5.e-002	7.1932
21072	23.446	1.3636	0.	142.47
21073	23.538	1.2727	0.	128.33
21074	23.446	1.2727	5.e-002	7.3211
21075	23.446	1.5455	0.	142.76
21076	23.538	1.4545	0.	128.93
21077	23.446	1.4545	5.e-002	7.4427
21078	23.446	1.7273	0.	142.48
21079	23.538	1.6364	0.	128.81
21080	23.446	1.6364	5.e-002	7.5559
21081	23.446	1.9091	0.	141.84
21082	23.538	1.8182	0.	128.2
21083	23.446	1.8182	5.e-002	7.6586
21084	23.446	2.0909	0.	141.
21085	23.538	2.	0.	127.31
21086	23.446	2.	5.e-002	7.7491
21087	23.446	2.2727	0.	140.12
21088	23.538	2.1818	0.	126.3
21089	23.446	2.1818	5.e-002	7.826
21090	23.446	2.4545	0.	139.32
21091	23.538	2.3636	0.	125.33
21092	23.446	2.3636	5.e-002	7.8884
21093	23.446	2.6364	0.	138.68
21094	23.538	2.5455	0.	124.5
21095	23.446	2.5455	5.e-002	7.9355
21096	23.446	2.8182	0.	138.28
21097	23.538	2.7273	0.	123.9
21098	23.446	2.7273	5.e-002	7.9672
21099	23.446	3.	0.	138.14
21100	23.538	2.9091	0.	123.58
21101	23.446	2.9091	5.e-002	7.983
21102	23.446	3.1818	0.	138.28
21103	23.538	3.0909	0.	123.58
21104	23.446	3.0909	5.e-002	7.983
21105	23.446	3.3636	0.	138.68
21106	23.538	3.2727	0.	123.9
21107	23.446	3.2727	5.e-002	7.9672
21108	23.446	3.5455	0.	139.32
21109	23.538	3.4545	0.	124.5
21110	23.446	3.4545	5.e-002	7.9355
21111	23.446	3.7273	0.	140.12
21112	23.538	3.6364	0.	125.33
21113	23.446	3.6364	5.e-002	7.8884
21114	23.446	3.9091	0.	141.
21115	23.538	3.8182	0.	126.3
21116	23.446	3.8182	5.e-002	7.826
21117	23.446	4.0909	0.	141.84
21118	23.538	4.	0.	127.31
21119	23.446	4.	5.e-002	7.7491
21120	23.446	4.2727	0.	142.48
21121	23.538	4.1818	0.	128.2
21122	23.446	4.1818	5.e-002	7.6586
21123	23.446	4.4545	0.	142.76
21124	23.538	4.3636	0.	128.81
21125	23.446	4.3636	5.e-002	7.5559
21126	23.446	4.6364	0.	142.47
21127	23.538	4.5455	0.	128.93
21128	23.446	4.5455	5.e-002	7.4427
21129	23.446	4.8182	0.	141.41
21130	23.538	4.7273	0.	128.33
21131	23.446	4.7273	5.e-002	7.3211
21132	23.446	5.	0.	139.35
21133	23.538	4.9091	0.	126.79
21134	23.446	4.9091	5.e-002	7.1932
21135	23.446	5.1818	0.	136.09
21136	23.538	5.0909	0.	124.06
21137	23.446	5.0909	5.e-002	7.0607
21138	23.446	5.3636	0.	131.51
21139	23.538	5.2727	0.	119.9
21140	23.446	5.2727	5.e-002	6.9247
21141	23.446	5.5455	0.	125.76
21142	23.538	5.4545	0.	114.17
21143	23.446	5.4545	5.e-002	6.7805
21144	23.446	5.7273	0.	120.22
21145	23.538	5.6364	0.	107.05
21146	23.446	5.6364	5.e-002	6.5425
21147	23.538	5.8182	0.	100.92
21148	23.446	5.8182	5.e-002	4.984
21149	23.446	5.9091	0.	112.5
21150	23.631	0.27273	0.	87.194
21151	23.723	0.18182	0.	67.518
21152	23.631	0.18182	5.e-002	5.4435
21153	23.631	9.0909e-002	0.	77.508
21154	23.631	0.45455	0.	95.613
21155	23.723	0.36364	0.	77.872
21156	23.631	0.36364	5.e-002	6.7565
21157	23.631	0.63636	0.	102.99
21158	23.723	0.54545	0.	87.054
21159	23.631	0.54545	5.e-002	6.9886
21160	23.631	0.81818	0.	108.45
21161	23.723	0.72727	0.	93.886
21162	23.631	0.72727	5.e-002	7.1192
21163	23.631	1.	0.	112.16
21164	23.723	0.90909	0.	98.648
21165	23.631	0.90909	5.e-002	7.2262
21166	23.631	1.1818	0.	114.43
21167	23.723	1.0909	0.	101.7
21168	23.631	1.0909	5.e-002	7.3244
21169	23.631	1.3636	0.	115.54
21170	23.723	1.2727	0.	103.36
21171	23.631	1.2727	5.e-002	7.416
21172	23.631	1.5455	0.	115.76
21173	23.723	1.4545	0.	103.95
21174	23.631	1.4545	5.e-002	7.5011
21175	23.631	1.7273	0.	115.33
21176	23.723	1.6364	0.	103.73
21177	23.631	1.6364	5.e-002	7.5791
21178	23.631	1.9091	0.	114.48
21179	23.723	1.8182	0.	102.96
21180	23.631	1.8182	5.e-002	7.6488
21181	23.631	2.0909	0.	113.43
21182	23.723	2.	0.	101.87
21183	23.631	2.	5.e-002	7.7094
21184	23.631	2.2727	0.	112.33
21185	23.723	2.1818	0.	100.65
21186	23.631	2.1818	5.e-002	7.7601
21187	23.631	2.4545	0.	111.33
21188	23.723	2.3636	0.	99.464
21189	23.631	2.3636	5.e-002	7.8008
21190	23.631	2.6364	0.	110.54
21191	23.723	2.5455	0.	98.459
21192	23.631	2.5455	5.e-002	7.8312
21193	23.631	2.8182	0.	110.03
21194	23.723	2.7273	0.	97.733
21195	23.631	2.7273	5.e-002	7.8514
21196	23.631	3.	0.	109.86
21197	23.723	2.9091	0.	97.353
21198	23.631	2.9091	5.e-002	7.8614
21199	23.631	3.1818	0.	110.03
21200	23.723	3.0909	0.	97.353
21201	23.631	3.0909	5.e-002	7.8614
21202	23.631	3.3636	0.	110.54
21203	23.723	3.2727	0.	97.733
21204	23.631	3.2727	5.e-002	7.8514
21205	23.631	3.5455	0.	111.33
21206	23.723	3.4545	0.	98.459
21207	23.631	3.4545	5.e-002	7.8312
21208	23.631	3.7273	0.	112.33
21209	23.723	3.6364	0.	99.464
21210	23.631	3.6364	5.e-002	7.8008
21211	23.631	3.9091	0.	113.43
21212	23.723	3.8182	0.	100.65
21213	23.631	3.8182	5.e-002	7.7601
21214	23.631	4.0909	0.	114.49
21215	23.723	4.	0.	101.87
21216	23.631	4.	5.e-002	7.7094
21217	23.631	4.2727	0.	115.33
21218	23.723	4.1818	0.	102.96
21219	23.631	4.1818	5.e-002	7.6488
21220	23.631	4.4545	0.	115.76
21221	23.723	4.3636	0.	103.73
21222	23.631	4.3636	5.e-002	7.5791
21223	23.631	4.6364	0.	115.54
21224	23.723	4.5455	0.	103.95
21225	23.631	4.5455	5.e-002	7.5011
21226	23.631	4.8182	0.	114.43
21227	23.723	4.7273	0.	103.36
21228	23.631	4.7273	5.e-002	7.416
21229	23.631	5.	0.	112.16
21230	23.723	4.9091	0.	101.7
21231	23.631	4.9091	5.e-002	7.3244
21232	23.631	5.1818	0.	108.45
21233	23.723	5.0909	0.	98.648
21234	23.631	5.0909	5.e-002	7.2262
21235	23.631	5.3636	0.	102.99
21236	23.723	5.2727	0.	93.886
21237	23.631	5.2727	5.e-002	7.1192
21238	23.631	5.5455	0.	95.613
21239	23.723	5.4545	0.	87.054
21240	23.631	5.4545	5.e-002	6.9886
21241	23.631	5.7273	0.	87.194
21242	23.723	5.6364	0.	77.872
21243	23.631	5.6364	5.e-002	6.7565
21244	23.723	5.8182	0.	67.518
21245	23.631	5.8182	5.e-002	5.4435
21246	23.631	5.9091	0.	77.508
21247	23.815	0.27273	0.	58.19
21248	23.815	0.18182	5.e-002	6.3029
21249	23.815	9.0909e-002	0.	44.108
21250	23.908	0.18182	0.	39.566
21251	23.815	0.45455	0.	70.31
21252	23.815	0.36364	5.e-002	7.2593
21253	23.908	0.36364	0.	55.379
21254	23.815	0.63636	0.	79.232
21255	23.815	0.54545	5.e-002	7.378
21256	23.908	0.54545	0.	66.641
21257	23.815	0.81818	0.	85.499
21258	23.815	0.72727	5.e-002	7.4233
21259	23.908	0.72727	0.	74.606
21260	23.815	1.	0.	89.662
21261	23.815	0.90909	5.e-002	7.4632
21262	23.908	0.90909	0.	80.043
21263	23.815	1.1818	0.	92.156
21264	23.815	1.0909	5.e-002	7.5019
21265	23.908	1.0909	0.	83.505
21266	23.815	1.3636	0.	93.337
21267	23.815	1.2727	5.e-002	7.541
21268	23.908	1.2727	0.	85.408
21269	23.815	1.5455	0.	93.52
21270	23.815	1.4545	5.e-002	7.5796
21271	23.908	1.4545	0.	86.104
21272	23.815	1.7273	0.	92.984
21273	23.815	1.6364	5.e-002	7.6166
21274	23.908	1.6364	0.	85.902
21275	23.815	1.9091	0.	91.982
21276	23.815	1.8182	5.e-002	7.6504
21277	23.908	1.8182	0.	85.079
21278	23.815	2.0909	0.	90.737
21279	23.815	2.	5.e-002	7.6801
21280	23.908	2.	0.	83.884
21281	23.815	2.2727	0.	89.445
21282	23.815	2.1818	5.e-002	7.7049
21283	23.908	2.1818	0.	82.535
21284	23.815	2.4545	0.	88.268
21285	23.815	2.3636	5.e-002	7.7247
21286	23.908	2.3636	0.	81.221
21287	23.815	2.6364	0.	87.335
21288	23.815	2.5455	5.e-002	7.7393
21289	23.908	2.5455	0.	80.097
21290	23.815	2.8182	0.	86.737
21291	23.815	2.7273	5.e-002	7.7489
21292	23.908	2.7273	0.	79.28
21293	23.815	3.	0.	86.532
21294	23.815	2.9091	5.e-002	7.7536
21295	23.908	2.9091	0.	78.852
21296	23.815	3.1818	0.	86.737
21297	23.815	3.0909	5.e-002	7.7536
21298	23.908	3.0909	0.	78.852
21299	23.815	3.3636	0.	87.335
21300	23.815	3.2727	5.e-002	7.7489
21301	23.908	3.2727	0.	79.28
21302	23.815	3.5455	0.	88.268
21303	23.815	3.4545	5.e-002	7.7393
21304	23.908	3.4545	0.	80.097
21305	23.815	3.7273	0.	89.445
21306	23.815	3.6364	5.e-002	7.7247
21307	23.908	3.6364	0.	81.221
21308	23.815	3.9091	0.	90.737
21309	23.815	3.8182	5.e-002	7.7049
21310	23.908	3.8182	0.	82.535
21311	23.815	4.0909	0.	91.982
21312	23.815	4.	5.e-002	7.68
21313	23.908	4.	0.	83.884
21314	23.815	4.2727	0.	92.984
21315	23.815	4.1818	5.e-002	7.6504
21316	23.908	4.1818	0.	85.079
21317	23.815	4.4545	0.	93.52
21318	23.815	4.3636	5.e-002	7.6166
21319	23.908	4.3636	0.	85.902
21320	23.815	4.6364	0.	93.337
21321	23.815	4.5455	5.e-002	7.5796
21322	23.908	4.5455	0.	86.104
21323	23.815	4.8182	0.	92.156
21324	23.815	4.7273	5.e-002	7.5409
21325	23.908	4.7273	0.	85.408
21326	23.815	5.	0.	89.662
21327	23.815	4.9091	5.e-002	7.5019
21328	23.908	4.9091	0.	83.505
21329	23.815	5.1818	0.	85.5
21330	23.815	5.0909	5.e-002	7.4632
21331	23.908	5.0909	0.	80.044
21332	23.815	5.3636	0.	79.232
21333	23.815	5.2727	5.e-002	7.4233
21334	23.908	5.2727	0.	74.606
21335	23.815	5.5455	0.	70.31
21336	23.815	5.4545	5.e-002	7.378
21337	23.908	5.4545	0.	66.641
21338	23.815	5.7273	0.	58.19
21339	23.815	5.6364	5.e-002	7.2593
21340	23.908	5.6364	0.	55.379
21341	23.815	5.8182	5.e-002	6.3029
21342	23.908	5.8182	0.	39.566
21343	23.815	5.9091	0.	44.108
21344	23.815	5.7273	0.1	58.19
21345	23.723	5.8182	0.1	67.518
21346	23.815	5.9091	0.1	44.108
21347	23.908	5.8182	0.1	39.566
21348	23.815	5.5455	0.1	70.31
21349	23.723	5.6364	0.1	77.872
21350	23.908	5.6364	0.1	55.379
21351	23.815	5.3636	0.1	79.232
21352	23.723	5.4545	0.1	87.054
21353	23.908	5.4545	0.1	66.641
21354	23.815	5.1818	0.1	85.5
21355	23.723	5.2727	0.1	93.886
21356	23.908	5.2727	0.1	74.606
21357	23.815	5.	0.1	89.662
21358	23.723	5.0909	0.1	98.648
21359	23.908	5.0909	0.1	80.044
21360	23.815	4.8182	0.1	92.156
21361	23.723	4.9091	0.1	101.7
21362	23.908	4.9091	0.1	83.505
21363	23.815	4.6364	0.1	93.337
21364	23.723	4.7273	0.1	103.36
21365	23.908	4.7273	0.1	85.408
21366	23.815	4.4545	0.1	93.52
21367	23.723	4.5455	0.1	103.95
21368	23.908	4.5455	0.1	86.104
21369	23.815	4.2727	0.1	92.984
21370	23.723	4.3636	0.1	103.73
21371	23.908	4.3636	0.1	85.902
21372	23.815	4.0909	0.1	91.982
21373	23.723	4.1818	0.1	102.96
21374	23.908	4.1818	0.1	85.079
21375	23.815	3.9091	0.1	90.737
21376	23.723	4.	0.1	101.87
21377	23.908	4.	0.1	83.884
21378	23.815	3.7273	0.1	89.445
21379	23.723	3.8182	0.1	100.65
21380	23.908	3.8182	0.1	82.535
21381	23.815	3.5455	0.1	88.268
21382	23.723	3.6364	0.1	99.464
21383	23.908	3.6364	0.1	81.221
21384	23.815	3.3636	0.1	87.335
21385	23.723	3.4545	0.1	98.459
21386	23.908	3.4545	0.1	80.097
21387	23.815	3.1818	0.1	86.737
21388	23.723	3.2727	0.1	97.733
21389	23.908	3.2727	0.1	79.28
21390	23.815	3.	0.1	86.532
21391	23.723	3.0909	0.1	97.353
21392	23.908	3.0909	0.1	78.852
21393	23.815	2.8182	0.1	86.737
21394	23.723	2.9091	0.1	97.353
21395	23.908	2.9091	0.1	78.852
21396	23.815	2.6364	0.1	87.335
21397	23.723	2.7273	0.1	97.733
21398	23.908	2.7273	0.1	79.28
21399	23.815	2.4545	0.1	88.268
21400	23.723	2.5455	0.1	98.459
21401	23.908	2.5455	0.1	80.097
21402	23.815	2.2727	0.1	89.445
21403	23.723	2.3636	0.1	99.464
21404	23.908	2.3636	0.1	81.221
21405	23.815	2.0909	0.1	90.737
21406	23.723	2.1818	0.1	100.65
21407	23.908	2.1818	0.1	82.535
21408	23.815	1.9091	0.1	91.982
21409	23.723	2.	0.1	101.87
21410	23.908	2.	0.1	83.884
21411	23.815	1.7273	0.1	92.984
21412	23.723	1.8182	0.1	102.96
21413	23.908	1.8182	0.1	85.079
21414	23.815	1.5455	0.1	93.52
21415	23.723	1.6364	0.1	103.73
21416	23.908	1.6364	0.1	85.902
21417	23.815	1.3636	0.1	93.337
21418	23.723	1.4545	0.1	103.95
21419	23.908	1.4545	0.1	86.104
21420	23.815	1.1818	0.1	92.156
21421	23.723	1.2727	0.1	103.36
21422	23.908	1.2727	0.1	85.408
21423	23.815	1.	0.1	89.662
21424	23.723	1.0909	0.1	101.7
21425	23.908	1.0909	0.1	83.505
21426	23.815	0.81818	0.1	85.499
21427	23.723	0.90909	0.1	98.648
21428	23.908	0.90909	0.1	80.043
21429	23.815	0.63636	0.1	79.232
21430	23.723	0.72727	0.1	93.886
21431	23.908	0.72727	0.1	74.606
21432	23.815	0.45455	0.1	70.31
21433	23.723	0.54545	0.1	87.054
21434	23.908	0.54545	0.1	66.641
21435	23.815	0.27273	0.1	58.19
21436	23.723	0.36364	0.1	77.872
21437	23.908	0.36364	0.1	55.379
21438	23.723	0.18182	0.1	67.518
21439	23.908	0.18182	0.1	39.566
21440	23.815	9.0909e-002	0.1	44.108
21441	23.631	5.7273	0.1	87.194
21442	23.538	5.8182	0.1	100.92
21443	23.631	5.9091	0.1	77.508
21444	23.631	5.5455	0.1	95.613
21445	23.538	5.6364	0.1	107.05
21446	23.631	5.3636	0.1	102.99
21447	23.538	5.4545	0.1	114.17
21448	23.631	5.1818	0.1	108.45
21449	23.538	5.2727	0.1	119.9
21450	23.631	5.	0.1	112.16
21451	23.538	5.0909	0.1	124.06
21452	23.631	4.8182	0.1	114.43
21453	23.538	4.9091	0.1	126.79
21454	23.631	4.6364	0.1	115.54
21455	23.538	4.7273	0.1	128.33
21456	23.631	4.4545	0.1	115.76
21457	23.538	4.5455	0.1	128.93
21458	23.631	4.2727	0.1	115.33
21459	23.538	4.3636	0.1	128.81
21460	23.631	4.0909	0.1	114.49
21461	23.538	4.1818	0.1	128.2
21462	23.631	3.9091	0.1	113.43
21463	23.538	4.	0.1	127.31
21464	23.631	3.7273	0.1	112.33
21465	23.538	3.8182	0.1	126.3
21466	23.631	3.5455	0.1	111.33
21467	23.538	3.6364	0.1	125.33
21468	23.631	3.3636	0.1	110.54
21469	23.538	3.4545	0.1	124.5
21470	23.631	3.1818	0.1	110.03
21471	23.538	3.2727	0.1	123.9
21472	23.631	3.	0.1	109.86
21473	23.538	3.0909	0.1	123.58
21474	23.631	2.8182	0.1	110.03
21475	23.538	2.9091	0.1	123.58
21476	23.631	2.6364	0.1	110.54
21477	23.538	2.7273	0.1	123.9
21478	23.631	2.4545	0.1	111.33
21479	23.538	2.5455	0.1	124.5
21480	23.631	2.2727	0.1	112.33
21481	23.538	2.3636	0.1	125.33
21482	23.631	2.0909	0.1	113.43
21483	23.538	2.1818	0.1	126.3
21484	23.631	1.9091	0.1	114.48
21485	23.538	2.	0.1	127.31
21486	23.631	1.7273	0.1	115.33
21487	23.538	1.8182	0.1	128.2
21488	23.631	1.5455	0.1	115.76
21489	23.538	1.6364	0.1	128.81
21490	23.631	1.3636	0.1	115.54
21491	23.538	1.4545	0.1	128.93
21492	23.631	1.1818	0.1	114.43
21493	23.538	1.2727	0.1	128.33
21494	23.631	1.	0.1	112.16
21495	23.538	1.0909	0.1	126.79
21496	23.631	0.81818	0.1	108.45
21497	23.538	0.90909	0.1	124.06
21498	23.631	0.63636	0.1	102.99
21499	23.538	0.72727	0.1	119.9
21500	23.631	0.45455	0.1	95.613
21501	23.538	0.54545	0.1	114.17
21502	23.631	0.27273	0.1	87.194
21503	23.538	0.36364	0.1	107.05
21504	23.538	0.18182	0.1	100.92
21505	23.631	9.0909e-002	0.1	77.508
21506	23.446	5.7273	0.1	120.22
21507	23.353	5.8182	0.1	135.91
21508	23.446	5.9091	0.1	112.5
21509	23.446	5.5455	0.1	125.76
21510	23.353	5.6364	0.1	139.31
21511	23.446	5.3636	0.1	131.51
21512	23.353	5.4545	0.1	144.6
21513	23.446	5.1818	0.1	136.09
21514	23.353	5.2727	0.1	149.25
21515	23.446	5.	0.1	139.35
21516	23.353	5.0909	0.1	152.82
21517	23.446	4.8182	0.1	141.41
21518	23.353	4.9091	0.1	155.27
21519	23.446	4.6364	0.1	142.47
21520	23.353	4.7273	0.1	156.73
21521	23.446	4.4545	0.1	142.76
21522	23.353	4.5455	0.1	157.38
21523	23.446	4.2727	0.1	142.48
21524	23.353	4.3636	0.1	157.41
21525	23.446	4.0909	0.1	141.84
21526	23.353	4.1818	0.1	157.02
21527	23.446	3.9091	0.1	141.
21528	23.353	4.	0.1	156.36
21529	23.446	3.7273	0.1	140.12
21530	23.353	3.8182	0.1	155.6
21531	23.446	3.5455	0.1	139.32
21532	23.353	3.6364	0.1	154.86
21533	23.446	3.3636	0.1	138.68
21534	23.353	3.4545	0.1	154.22
21535	23.446	3.1818	0.1	138.28
21536	23.353	3.2727	0.1	153.76
21537	23.446	3.	0.1	138.14
21538	23.353	3.0909	0.1	153.52
21539	23.446	2.8182	0.1	138.28
21540	23.353	2.9091	0.1	153.52
21541	23.446	2.6364	0.1	138.68
21542	23.353	2.7273	0.1	153.76
21543	23.446	2.4545	0.1	139.32
21544	23.353	2.5455	0.1	154.22
21545	23.446	2.2727	0.1	140.12
21546	23.353	2.3636	0.1	154.86
21547	23.446	2.0909	0.1	141.
21548	23.353	2.1818	0.1	155.6
21549	23.446	1.9091	0.1	141.84
21550	23.353	2.	0.1	156.36
21551	23.446	1.7273	0.1	142.48
21552	23.353	1.8182	0.1	157.02
21553	23.446	1.5455	0.1	142.76
21554	23.353	1.6364	0.1	157.41
21555	23.446	1.3636	0.1	142.47
21556	23.353	1.4545	0.1	157.38
21557	23.446	1.1818	0.1	141.41
21558	23.353	1.2727	0.1	156.73
21559	23.446	1.	0.1	139.35
21560	23.353	1.0909	0.1	155.27
21561	23.446	0.81818	0.1	136.09
21562	23.353	0.90909	0.1	152.82
21563	23.446	0.63636	0.1	131.51
21564	23.353	0.72727	0.1	149.25
21565	23.446	0.45455	0.1	125.76
21566	23.353	0.54545	0.1	144.6
21567	23.446	0.27273	0.1	120.22
21568	23.353	0.36364	0.1	139.31
21569	23.353	0.18182	0.1	135.91
21570	23.446	9.0909e-002	0.1	112.5
21571	23.261	5.7273	0.1	154.45
21572	23.169	5.8182	0.1	171.07
21573	23.261	5.9091	0.1	147.89
21574	23.261	5.5455	0.1	158.07
21575	23.169	5.6364	0.1	172.78
21576	23.261	5.3636	0.1	162.46
21577	23.169	5.4545	0.1	176.68
21578	23.261	5.1818	0.1	166.22
21579	23.169	5.2727	0.1	180.4
21580	23.261	5.	0.1	169.06
21581	23.169	5.0909	0.1	183.44
21582	23.261	4.8182	0.1	170.95
21583	23.169	4.9091	0.1	185.66
21584	23.261	4.6364	0.1	172.03
21585	23.169	4.7273	0.1	187.09
21586	23.261	4.4545	0.1	172.45
21587	23.169	4.5455	0.1	187.85
21588	23.261	4.2727	0.1	172.37
21589	23.169	4.3636	0.1	188.1
21590	23.261	4.0909	0.1	171.98
21591	23.169	4.1818	0.1	187.97
21592	23.261	3.9091	0.1	171.41
21593	23.169	4.	0.1	187.62
21594	23.261	3.7273	0.1	170.79
21595	23.169	3.8182	0.1	187.16
21596	23.261	3.5455	0.1	170.21
21597	23.169	3.6364	0.1	186.69
21598	23.261	3.3636	0.1	169.75
21599	23.169	3.4545	0.1	186.28
21600	23.261	3.1818	0.1	169.46
21601	23.169	3.2727	0.1	185.98
21602	23.261	3.	0.1	169.36
21603	23.169	3.0909	0.1	185.83
21604	23.261	2.8182	0.1	169.46
21605	23.169	2.9091	0.1	185.83
21606	23.261	2.6364	0.1	169.75
21607	23.169	2.7273	0.1	185.98
21608	23.261	2.4545	0.1	170.21
21609	23.169	2.5455	0.1	186.28
21610	23.261	2.2727	0.1	170.79
21611	23.169	2.3636	0.1	186.69
21612	23.261	2.0909	0.1	171.41
21613	23.169	2.1818	0.1	187.16
21614	23.261	1.9091	0.1	171.98
21615	23.169	2.	0.1	187.62
21616	23.261	1.7273	0.1	172.37
21617	23.169	1.8182	0.1	187.97
21618	23.261	1.5455	0.1	172.45
21619	23.169	1.6364	0.1	188.1
21620	23.261	1.3636	0.1	172.03
21621	23.169	1.4545	0.1	187.85
21622	23.261	1.1818	0.1	170.95
21623	23.169	1.2727	0.1	187.09
21624	23.261	1.	0.1	169.06
21625	23.169	1.0909	0.1	185.66
21626	23.261	0.81818	0.1	166.22
21627	23.169	0.90909	0.1	183.44
21628	23.261	0.63636	0.1	162.46
21629	23.169	0.72727	0.1	180.4
21630	23.261	0.45455	0.1	158.07
21631	23.169	0.54545	0.1	176.68
21632	23.261	0.27273	0.1	154.45
21633	23.169	0.36364	0.1	172.78
21634	23.169	0.18182	0.1	171.07
21635	23.261	9.0909e-002	0.1	147.89
21636	23.076	5.7273	0.1	188.92
21637	22.984	5.8182	0.1	205.94
21638	23.076	5.9091	0.1	183.12
21639	23.076	5.5455	0.1	191.25
21640	22.984	5.6364	0.1	206.56
21641	23.076	5.3636	0.1	194.6
21642	22.984	5.4545	0.1	209.46
21643	23.076	5.1818	0.1	197.69
21644	22.984	5.2727	0.1	212.46
21645	23.076	5.	0.1	200.17
21646	22.984	5.0909	0.1	215.08
21647	23.076	4.8182	0.1	201.97
21648	22.984	4.9091	0.1	217.14
21649	23.076	4.6364	0.1	203.12
21650	22.984	4.7273	0.1	218.62
21651	23.076	4.4545	0.1	203.73
21652	22.984	4.5455	0.1	219.58
21653	23.076	4.2727	0.1	203.93
21654	22.984	4.3636	0.1	220.12
21655	23.076	4.0909	0.1	203.85
21656	22.984	4.1818	0.1	220.35
21657	23.076	3.9091	0.1	203.62
21658	22.984	4.	0.1	220.38
21659	23.076	3.7273	0.1	203.31
21660	22.984	3.8182	0.1	220.31
21661	23.076	3.5455	0.1	203.02
21662	22.984	3.6364	0.1	220.19
21663	23.076	3.3636	0.1	202.77
21664	22.984	3.4545	0.1	220.07
21665	23.076	3.1818	0.1	202.62
21666	22.984	3.2727	0.1	219.98
21667	23.076	3.	0.1	202.56
21668	22.984	3.0909	0.1	219.93
21669	23.076	2.8182	0.1	202.62
21670	22.984	2.9091	0.1	219.93
21671	23.076	2.6364	0.1	202.77
21672	22.984	2.7273	0.1	219.98
21673	23.076	2.4545	0.1	203.02
21674	22.984	2.5455	0.1	220.07
21675	23.076	2.2727	0.1	203.31
21676	22.984	2.3636	0.1	220.19
21677	23.076	2.0909	0.1	203.62
21678	22.984	2.1818	0.1	220.31
21679	23.076	1.9091	0.1	203.85
21680	22.984	2.	0.1	220.38
21681	23.076	1.7273	0.1	203.93
21682	22.984	1.8182	0.1	220.35
21683	23.076	1.5455	0.1	203.73
21684	22.984	1.6364	0.1	220.12
21685	23.076	1.3636	0.1	203.12
21686	22.984	1.4545	0.1	219.58
21687	23.076	1.1818	0.1	201.97
21688	22.984	1.2727	0.1	218.62
21689	23.076	1.	0.1	200.17
21690	22.984	1.0909	0.1	217.14
21691	23.076	0.81818	0.1	197.69
21692	22.984	0.90909	0.1	215.08
21693	23.076	0.63636	0.1	194.6
21694	22.984	0.72727	0.1	212.46
21695	23.076	0.45455	0.1	191.25
21696	22.984	0.54545	0.1	209.46
21697	23.076	0.27273	0.1	188.92
21698	22.984	0.36364	0.1	206.56
21699	22.984	0.18182	0.1	205.94
21700	23.076	9.0909e-002	0.1	183.12
21701	22.892	5.7273	0.1	223.16
21702	22.799	5.8182	0.1	240.2
21703	22.892	5.9091	0.1	217.86
21704	22.892	5.5455	0.1	224.63
21705	22.799	5.6364	0.1	240.14
21706	22.892	5.3636	0.1	227.26
21707	22.799	5.4545	0.1	242.38
21708	22.892	5.1818	0.1	229.85
21709	22.799	5.2727	0.1	244.89
21710	22.892	5.	0.1	232.1
21711	22.799	5.0909	0.1	247.25
21712	22.892	4.8182	0.1	233.88
21713	22.799	4.9091	0.1	249.27
21714	22.892	4.6364	0.1	235.19
21715	22.799	4.7273	0.1	250.91
21716	22.892	4.4545	0.1	236.1
21717	22.799	4.5455	0.1	252.18
21718	22.892	4.2727	0.1	236.67
21719	22.799	4.3636	0.1	253.13
21720	22.892	4.0909	0.1	237.02
21721	22.799	4.1818	0.1	253.85
21722	22.892	3.9091	0.1	237.22
21723	22.799	4.	0.1	254.4
21724	22.892	3.7273	0.1	237.34
21725	22.799	3.8182	0.1	254.83
21726	22.892	3.5455	0.1	237.4
21727	22.799	3.6364	0.1	255.17
21728	22.892	3.3636	0.1	237.44
21729	22.799	3.4545	0.1	255.44
21730	22.892	3.1818	0.1	237.46
21731	22.799	3.2727	0.1	255.62
21732	22.892	3.	0.1	237.47
21733	22.799	3.0909	0.1	255.71
21734	22.892	2.8182	0.1	237.46
21735	22.799	2.9091	0.1	255.71
21736	22.892	2.6364	0.1	237.44
21737	22.799	2.7273	0.1	255.62
21738	22.892	2.4545	0.1	237.4
21739	22.799	2.5455	0.1	255.44
21740	22.892	2.2727	0.1	237.34
21741	22.799	2.3636	0.1	255.17
21742	22.892	2.0909	0.1	237.22
21743	22.799	2.1818	0.1	254.83
21744	22.892	1.9091	0.1	237.02
21745	22.799	2.	0.1	254.4
21746	22.892	1.7273	0.1	236.67
21747	22.799	1.8182	0.1	253.85
21748	22.892	1.5455	0.1	236.1
21749	22.799	1.6364	0.1	253.13
21750	22.892	1.3636	0.1	235.19
21751	22.799	1.4545	0.1	252.18
21752	22.892	1.1818	0.1	233.88
21753	22.799	1.2727	0.1	250.91
21754	22.892	1.	0.1	232.1
21755	22.799	1.0909	0.1	249.27
21756	22.892	0.81818	0.1	229.85
21757	22.799	0.90909	0.1	247.25
21758	22.892	0.63636	0.1	227.26
21759	22.799	0.72727	0.1	244.89
21760	22.892	0.45455	0.1	224.63
21761	22.799	0.54545	0.1	242.38
21762	22.892	0.27273	0.1	223.16
21763	22.799	0.36364	0.1	240.14
21764	22.799	0.18182	0.1	240.2
21765	22.892	9.0909e-002	0.1	217.86
21766	22.707	5.7273	0.1	256.81
21767	22.615	5.8182	0.1	273.55
21768	22.707	5.9091	0.1	251.82
21769	22.707	5.5455	0.1	257.75
21770	22.615	5.6364	0.1	273.11
21771	22.707	5.3636	0.1	259.93
21772	22.615	5.4545	0.1	274.98
21773	22.707	5.1818	0.1	262.25
21774	22.615	5.2727	0.1	277.24
21775	22.707	5.	0.1	264.42
21776	22.615	5.0909	0.1	279.54
21777	22.707	4.8182	0.1	266.33
21778	22.615	4.9091	0.1	281.7
21779	22.707	4.6364	0.1	267.94
21780	22.615	4.7273	0.1	283.66
21781	22.707	4.4545	0.1	269.28
21782	22.615	4.5455	0.1	285.41
21783	22.707	4.2727	0.1	270.38
21784	22.615	4.3636	0.1	286.96
21785	22.707	4.0909	0.1	271.31
21786	22.615	4.1818	0.1	288.35
21787	22.707	3.9091	0.1	272.1
21788	22.615	4.	0.1	289.6
21789	22.707	3.7273	0.1	272.77
21790	22.615	3.8182	0.1	290.72
21791	22.707	3.5455	0.1	273.31
21792	22.615	3.6364	0.1	291.68
21793	22.707	3.3636	0.1	273.73
21794	22.615	3.4545	0.1	292.46
21795	22.707	3.1818	0.1	273.99
21796	22.615	3.2727	0.1	293.02
21797	22.707	3.	0.1	274.07
21798	22.615	3.0909	0.1	293.3
21799	22.707	2.8182	0.1	273.99
21800	22.615	2.9091	0.1	293.3
21801	22.707	2.6364	0.1	273.73
21802	22.615	2.7273	0.1	293.02
21803	22.707	2.4545	0.1	273.31
21804	22.615	2.5455	0.1	292.46
21805	22.707	2.2727	0.1	272.77
21806	22.615	2.3636	0.1	291.68
21807	22.707	2.0909	0.1	272.1
21808	22.615	2.1818	0.1	290.72
21809	22.707	1.9091	0.1	271.31
21810	22.615	2.	0.1	289.6
21811	22.707	1.7273	0.1	270.38
21812	22.615	1.8182	0.1	288.35
21813	22.707	1.5455	0.1	269.28
21814	22.615	1.6364	0.1	286.96
21815	22.707	1.3636	0.1	267.94
21816	22.615	1.4545	0.1	285.41
21817	22.707	1.1818	0.1	266.33
21818	22.615	1.2727	0.1	283.66
21819	22.707	1.	0.1	264.42
21820	22.615	1.0909	0.1	281.7
21821	22.707	0.81818	0.1	262.25
21822	22.615	0.90909	0.1	279.54
21823	22.707	0.63636	0.1	259.93
21824	22.615	0.72727	0.1	277.24
21825	22.707	0.45455	0.1	257.75
21826	22.615	0.54545	0.1	274.98
21827	22.707	0.27273	0.1	256.81
21828	22.615	0.36364	0.1	273.11
21829	22.615	0.18182	0.1	273.55
21830	22.707	9.0909e-002	0.1	251.82
21831	22.522	5.7273	0.1	289.53
21832	22.43	5.8182	0.1	305.64
21833	22.522	5.9091	0.1	284.65
21834	22.522	5.5455	0.1	290.22
21835	22.43	5.6364	0.1	305.09
21836	22.522	5.3636	0.1	292.21
21837	22.43	5.4545	0.1	306.86
21838	22.522	5.1818	0.1	294.48
21839	22.43	5.2727	0.1	309.12
21840	22.522	5.	0.1	296.8
21841	22.43	5.0909	0.1	311.6
21842	22.522	4.8182	0.1	299.04
21843	22.43	4.9091	0.1	314.14
21844	22.522	4.6364	0.1	301.14
21845	22.43	4.7273	0.1	316.65
21846	22.522	4.4545	0.1	303.12
21847	22.43	4.5455	0.1	319.11
21848	22.522	4.2727	0.1	304.96
21849	22.43	4.3636	0.1	321.51
21850	22.522	4.0909	0.1	306.68
21851	22.43	4.1818	0.1	323.83
21852	22.522	3.9091	0.1	308.27
21853	22.43	4.	0.1	326.04
21854	22.522	3.7273	0.1	309.7
21855	22.43	3.8182	0.1	328.1
21856	22.522	3.5455	0.1	310.9
21857	22.43	3.6364	0.1	329.92
21858	22.522	3.3636	0.1	311.83
21859	22.43	3.4545	0.1	331.41
21860	22.522	3.1818	0.1	312.41
21861	22.43	3.2727	0.1	332.46
21862	22.522	3.	0.1	312.61
21863	22.43	3.0909	0.1	333.01
21864	22.522	2.8182	0.1	312.41
21865	22.43	2.9091	0.1	333.01
21866	22.522	2.6364	0.1	311.83
21867	22.43	2.7273	0.1	332.46
21868	22.522	2.4545	0.1	310.9
21869	22.43	2.5455	0.1	331.41
21870	22.522	2.2727	0.1	309.7
21871	22.43	2.3636	0.1	329.92
21872	22.522	2.0909	0.1	308.27
21873	22.43	2.1818	0.1	328.1
21874	22.522	1.9091	0.1	306.68
21875	22.43	2.	0.1	326.04
21876	22.522	1.7273	0.1	304.96
21877	22.43	1.8182	0.1	323.83
21878	22.522	1.5455	0.1	303.12
21879	22.43	1.6364	0.1	321.51
21880	22.522	1.3636	0.1	301.14
21881	22.43	1.4545	0.1	319.11
21882	22.522	1.1818	0.1	299.04
21883	22.43	1.2727	0.1	316.65
21884	22.522	1.	0.1	296.8
21885	22.43	1.0909	0.1	314.14
21886	22.522	0.81818	0.1	294.48
21887	22.43	0.90909	0.1	311.6
21888	22.522	0.63636	0.1	292.21
21889	22.43	0.72727	0.1	309.12
21890	22.522	0.45455	0.1	290.22
21891	22.43	0.54545	0.1	306.86
21892	22.522	0.27273	0.1	289.53
21893	22.43	0.36364	0.1	305.09
21894	22.43	0.18182	0.1	305.64
21895	22.522	9.0909e-002	0.1	284.65
21896	22.337	5.7273	0.1	320.92
21897	22.245	5.8182	0.1	336.06
21898	22.337	5.9091	0.1	315.95
21899	22.337	5.5455	0.1	321.61
21900	22.245	5.6364	0.1	335.63
21901	22.337	5.3636	0.1	323.69
21902	22.245	5.4545	0.1	337.57
21903	22.337	5.1818	0.1	326.19
21904	22.245	5.2727	0.1	340.13
21905	22.337	5.	0.1	328.91
21906	22.245	5.0909	0.1	343.08
21907	22.337	4.8182	0.1	331.74
21908	22.245	4.9091	0.1	346.29
21909	22.337	4.6364	0.1	334.62
21910	22.245	4.7273	0.1	349.67
21911	22.337	4.4545	0.1	337.52
21912	22.245	4.5455	0.1	353.18
21913	22.337	4.2727	0.1	340.4
21914	22.245	4.3636	0.1	356.77
21915	22.337	4.0909	0.1	343.22
21916	22.245	4.1818	0.1	360.37
21917	22.337	3.9091	0.1	345.91
21918	22.245	4.	0.1	363.91
21919	22.337	3.7273	0.1	348.36
21920	22.245	3.8182	0.1	367.25
21921	22.337	3.5455	0.1	350.47
21922	22.245	3.6364	0.1	370.23
21923	22.337	3.3636	0.1	352.09
21924	22.245	3.4545	0.1	372.67
21925	22.337	3.1818	0.1	353.11
21926	22.245	3.2727	0.1	374.42
21927	22.337	3.	0.1	353.46
21928	22.245	3.0909	0.1	375.33
21929	22.337	2.8182	0.1	353.11
21930	22.245	2.9091	0.1	375.33
21931	22.337	2.6364	0.1	352.09
21932	22.245	2.7273	0.1	374.42
21933	22.337	2.4545	0.1	350.47
21934	22.245	2.5455	0.1	372.67
21935	22.337	2.2727	0.1	348.37
21936	22.245	2.3636	0.1	370.23
21937	22.337	2.0909	0.1	345.91
21938	22.245	2.1818	0.1	367.25
21939	22.337	1.9091	0.1	343.22
21940	22.245	2.	0.1	363.91
21941	22.337	1.7273	0.1	340.4
21942	22.245	1.8182	0.1	360.37
21943	22.337	1.5455	0.1	337.52
21944	22.245	1.6364	0.1	356.77
21945	22.337	1.3636	0.1	334.62
21946	22.245	1.4545	0.1	353.18
21947	22.337	1.1818	0.1	331.74
21948	22.245	1.2727	0.1	349.67
21949	22.337	1.	0.1	328.91
21950	22.245	1.0909	0.1	346.29
21951	22.337	0.81818	0.1	326.19
21952	22.245	0.90909	0.1	343.08
21953	22.337	0.63636	0.1	323.69
21954	22.245	0.72727	0.1	340.13
21955	22.337	0.45455	0.1	321.61
21956	22.245	0.54545	0.1	337.57
21957	22.337	0.27273	0.1	320.92
21958	22.245	0.36364	0.1	335.63
21959	22.245	0.18182	0.1	336.06
21960	22.337	9.0909e-002	0.1	315.95
21961	22.153	5.7273	0.1	350.52
21962	22.06	5.8182	0.1	364.31
21963	22.153	5.9091	0.1	345.25
21964	22.153	5.5455	0.1	351.48
21965	22.06	5.6364	0.1	364.23
21966	22.153	5.3636	0.1	353.93
21967	22.06	5.4545	0.1	366.62
21968	22.153	5.1818	0.1	356.97
21969	22.06	5.2727	0.1	369.8
21970	22.153	5.	0.1	360.42
21971	22.06	5.0909	0.1	373.58
21972	22.153	4.8182	0.1	364.19
21973	22.06	4.9091	0.1	377.84
21974	22.153	4.6364	0.1	368.22
21975	22.06	4.7273	0.1	382.51
21976	22.153	4.4545	0.1	372.43
21977	22.06	4.5455	0.1	387.5
21978	22.153	4.2727	0.1	376.75
21979	22.06	4.3636	0.1	392.75
21980	22.153	4.0909	0.1	381.08
21981	22.06	4.1818	0.1	398.12
21982	22.153	3.9091	0.1	385.27
21983	22.06	4.	0.1	403.45
21984	22.153	3.7273	0.1	389.13
21985	22.06	3.8182	0.1	408.54
21986	22.153	3.5455	0.1	392.46
21987	22.06	3.6364	0.1	413.1
21988	22.153	3.3636	0.1	395.03
21989	22.06	3.4545	0.1	416.86
21990	22.153	3.1818	0.1	396.66
21991	22.06	3.2727	0.1	419.55
21992	22.153	3.	0.1	397.22
21993	22.06	3.0909	0.1	420.95
21994	22.153	2.8182	0.1	396.66
21995	22.06	2.9091	0.1	420.95
21996	22.153	2.6364	0.1	395.03
21997	22.06	2.7273	0.1	419.55
21998	22.153	2.4545	0.1	392.46
21999	22.06	2.5455	0.1	416.86
22000	22.153	2.2727	0.1	389.13
22001	22.06	2.3636	0.1	413.1
22002	22.153	2.0909	0.1	385.27
22003	22.06	2.1818	0.1	408.54
22004	22.153	1.9091	0.1	381.08
22005	22.06	2.	0.1	403.45
22006	22.153	1.7273	0.1	376.75
22007	22.06	1.8182	0.1	398.12
22008	22.153	1.5455	0.1	372.43
22009	22.06	1.6364	0.1	392.75
22010	22.153	1.3636	0.1	368.22
22011	22.06	1.4545	0.1	387.5
22012	22.153	1.1818	0.1	364.19
22013	22.06	1.2727	0.1	382.51
22014	22.153	1.	0.1	360.42
22015	22.06	1.0909	0.1	377.84
22016	22.153	0.81818	0.1	356.97
22017	22.06	0.90909	0.1	373.58
22018	22.153	0.63636	0.1	353.93
22019	22.06	0.72727	0.1	369.8
22020	22.153	0.45455	0.1	351.48
22021	22.06	0.54545	0.1	366.62
22022	22.153	0.27273	0.1	350.52
22023	22.06	0.36364	0.1	364.23
22024	22.06	0.18182	0.1	364.31
22025	22.153	9.0909e-002	0.1	345.25
22026	21.968	5.7273	0.1	377.79
22027	21.876	5.8182	0.1	389.76
22028	21.968	5.9091	0.1	371.96
22029	21.968	5.5455	0.1	379.28
22030	21.876	5.6364	0.1	390.26
22031	21.968	5.3636	0.1	382.43
22032	21.876	5.4545	0.1	393.43
22033	21.968	5.1818	0.1	386.37
22034	21.876	5.2727	0.1	397.62
22035	21.968	5.	0.1	390.97
22036	21.876	5.0909	0.1	402.66
22037	21.968	4.8182	0.1	396.13
22038	21.876	4.9091	0.1	408.46
22039	21.968	4.6364	0.1	401.78
22040	21.876	4.7273	0.1	414.95
22041	21.968	4.4545	0.1	407.82
22042	21.876	4.5455	0.1	422.01
22043	21.968	4.2727	0.1	414.12
22044	21.876	4.3636	0.1	429.52
22045	21.968	4.0909	0.1	420.51
22046	21.876	4.1818	0.1	437.29
22047	21.968	3.9091	0.1	426.74
22048	21.876	4.	0.1	445.07
22049	21.968	3.7273	0.1	432.53
22050	21.876	3.8182	0.1	452.52
22051	21.968	3.5455	0.1	437.52
22052	21.876	3.6364	0.1	459.24
22053	21.968	3.3636	0.1	441.39
22054	21.876	3.4545	0.1	464.78
22055	21.968	3.1818	0.1	443.84
22056	21.876	3.2727	0.1	468.75
22057	21.968	3.	0.1	444.68
22058	21.876	3.0909	0.1	470.81
22059	21.968	2.8182	0.1	443.84
22060	21.876	2.9091	0.1	470.81
22061	21.968	2.6364	0.1	441.39
22062	21.876	2.7273	0.1	468.75
22063	21.968	2.4545	0.1	437.52
22064	21.876	2.5455	0.1	464.78
22065	21.968	2.2727	0.1	432.53
22066	21.876	2.3636	0.1	459.24
22067	21.968	2.0909	0.1	426.74
22068	21.876	2.1818	0.1	452.52
22069	21.968	1.9091	0.1	420.51
22070	21.876	2.	0.1	445.07
22071	21.968	1.7273	0.1	414.12
22072	21.876	1.8182	0.1	437.29
22073	21.968	1.5455	0.1	407.82
22074	21.876	1.6364	0.1	429.52
22075	21.968	1.3636	0.1	401.78
22076	21.876	1.4545	0.1	422.01
22077	21.968	1.1818	0.1	396.13
22078	21.876	1.2727	0.1	414.95
22079	21.968	1.	0.1	390.97
22080	21.876	1.0909	0.1	408.46
22081	21.968	0.81818	0.1	386.37
22082	21.876	0.90909	0.1	402.66
22083	21.968	0.63636	0.1	382.43
22084	21.876	0.72727	0.1	397.62
22085	21.968	0.45455	0.1	379.28
22086	21.876	0.54545	0.1	393.43
22087	21.968	0.27273	0.1	377.79
22088	21.876	0.36364	0.1	390.26
22089	21.876	0.18182	0.1	389.76
22090	21.968	9.0909e-002	0.1	371.96
22091	21.783	5.7273	0.1	402.04
22092	21.691	5.8182	0.1	411.66
22093	21.783	5.9091	0.1	395.38
22094	21.783	5.5455	0.1	404.34
22095	21.691	5.6364	0.1	412.99
22096	21.783	5.3636	0.1	408.57
22097	21.691	5.4545	0.1	417.29
22098	21.783	5.1818	0.1	413.86
22099	21.691	5.2727	0.1	422.93
22100	21.783	5.	0.1	420.13
22101	21.691	5.0909	0.1	429.78
22102	21.783	4.8182	0.1	427.26
22103	21.691	4.9091	0.1	437.76
22104	21.783	4.6364	0.1	435.17
22105	21.691	4.7273	0.1	446.76
22106	21.783	4.4545	0.1	443.71
22107	21.691	4.5455	0.1	456.65
22108	21.783	4.2727	0.1	452.7
22109	21.691	4.3636	0.1	467.22
22110	21.783	4.0909	0.1	461.88
22111	21.691	4.1818	0.1	478.23
22112	21.783	3.9091	0.1	470.88
22113	21.691	4.	0.1	489.31
22114	21.783	3.7273	0.1	479.25
22115	21.691	3.8182	0.1	499.95
22116	21.783	3.5455	0.1	486.51
22117	21.691	3.6364	0.1	509.57
22118	21.783	3.3636	0.1	492.13
22119	21.691	3.4545	0.1	517.52
22120	21.783	3.1818	0.1	495.7
22121	21.691	3.2727	0.1	523.22
22122	21.783	3.	0.1	496.93
22123	21.691	3.0909	0.1	526.19
22124	21.783	2.8182	0.1	495.7
22125	21.691	2.9091	0.1	526.19
22126	21.783	2.6364	0.1	492.13
22127	21.691	2.7273	0.1	523.22
22128	21.783	2.4545	0.1	486.51
22129	21.691	2.5455	0.1	517.52
22130	21.783	2.2727	0.1	479.25
22131	21.691	2.3636	0.1	509.57
22132	21.783	2.0909	0.1	470.88
22133	21.691	2.1818	0.1	499.95
22134	21.783	1.9091	0.1	461.88
22135	21.691	2.	0.1	489.31
22136	21.783	1.7273	0.1	452.7
22137	21.691	1.8182	0.1	478.23
22138	21.783	1.5455	0.1	443.71
22139	21.691	1.6364	0.1	467.22
22140	21.783	1.3636	0.1	435.17
22141	21.691	1.4545	0.1	456.65
22142	21.783	1.1818	0.1	427.26
22143	21.691	1.2727	0.1	446.76
22144	21.783	1.	0.1	420.13
22145	21.691	1.0909	0.1	437.76
22146	21.783	0.81818	0.1	413.86
22147	21.691	0.90909	0.1	429.78
22148	21.783	0.63636	0.1	408.57
22149	21.691	0.72727	0.1	422.93
22150	21.783	0.45455	0.1	404.34
22151	21.691	0.54545	0.1	417.29
22152	21.783	0.27273	0.1	402.04
22153	21.691	0.36364	0.1	412.99
22154	21.691	0.18182	0.1	411.66
22155	21.783	9.0909e-002	0.1	395.38
22156	21.599	5.7273	0.1	422.45
22157	21.506	5.8182	0.1	429.1
22158	21.599	5.9091	0.1	414.66
22159	21.599	5.5455	0.1	425.89
22160	21.506	5.6364	0.1	431.49
22161	21.599	5.3636	0.1	431.62
22162	21.506	5.4545	0.1	437.34
22163	21.599	5.1818	0.1	438.83
22164	21.506	5.2727	0.1	444.99
22165	21.599	5.	0.1	447.41
22166	21.506	5.0909	0.1	454.34
22167	21.599	4.8182	0.1	457.27
22168	21.506	4.9091	0.1	465.3
22169	21.599	4.6364	0.1	468.25
22170	21.506	4.7273	0.1	477.72
22171	21.599	4.4545	0.1	480.18
22172	21.506	4.5455	0.1	491.41
22173	21.599	4.2727	0.1	492.79
22174	21.506	4.3636	0.1	506.1
22175	21.599	4.0909	0.1	505.71
22176	21.506	4.1818	0.1	521.45
22177	21.599	3.9091	0.1	518.42
22178	21.506	4.	0.1	536.92
22179	21.599	3.7273	0.1	530.29
22180	21.506	3.8182	0.1	551.85
22181	21.599	3.5455	0.1	540.58
22182	21.506	3.6364	0.1	565.36
22183	21.599	3.3636	0.1	548.58
22184	21.506	3.4545	0.1	576.56
22185	21.599	3.1818	0.1	553.66
22186	21.506	3.2727	0.1	584.58
22187	21.599	3.	0.1	555.4
22188	21.506	3.0909	0.1	588.77
22189	21.599	2.8182	0.1	553.66
22190	21.506	2.9091	0.1	588.77
22191	21.599	2.6364	0.1	548.58
22192	21.506	2.7273	0.1	584.58
22193	21.599	2.4545	0.1	540.58
22194	21.506	2.5455	0.1	576.56
22195	21.599	2.2727	0.1	530.29
22196	21.506	2.3636	0.1	565.36
22197	21.599	2.0909	0.1	518.42
22198	21.506	2.1818	0.1	551.85
22199	21.599	1.9091	0.1	505.71
22200	21.506	2.	0.1	536.92
22201	21.599	1.7273	0.1	492.79
22202	21.506	1.8182	0.1	521.45
22203	21.599	1.5455	0.1	480.18
22204	21.506	1.6364	0.1	506.1
22205	21.599	1.3636	0.1	468.25
22206	21.506	1.4545	0.1	491.41
22207	21.599	1.1818	0.1	457.27
22208	21.506	1.2727	0.1	477.72
22209	21.599	1.	0.1	447.41
22210	21.506	1.0909	0.1	465.3
22211	21.599	0.81818	0.1	438.83
22212	21.506	0.90909	0.1	454.34
22213	21.599	0.63636	0.1	431.62
22214	21.506	0.72727	0.1	444.99
22215	21.599	0.45455	0.1	425.89
22216	21.506	0.54545	0.1	437.34
22217	21.599	0.27273	0.1	422.45
22218	21.506	0.36364	0.1	431.49
22219	21.506	0.18182	0.1	429.1
22220	21.599	9.0909e-002	0.1	414.66
22221	21.414	5.7273	0.1	438.03
22222	21.322	5.8182	0.1	440.99
22223	21.414	5.9091	0.1	428.77
22224	21.414	5.5455	0.1	442.94
22225	21.322	5.6364	0.1	444.7
22226	21.414	5.3636	0.1	450.71
22227	21.322	5.4545	0.1	452.56
22228	21.414	5.1818	0.1	460.52
22229	21.322	5.2727	0.1	462.89
22230	21.414	5.	0.1	472.26
22231	21.322	5.0909	0.1	475.61
22232	21.414	4.8182	0.1	485.8
22233	21.322	4.9091	0.1	490.59
22234	21.414	4.6364	0.1	500.94
22235	21.322	4.7273	0.1	507.61
22236	21.414	4.4545	0.1	517.41
22237	21.322	4.5455	0.1	526.39
22238	21.414	4.2727	0.1	534.85
22239	21.322	4.3636	0.1	546.57
22240	21.414	4.0909	0.1	552.75
22241	21.322	4.1818	0.1	567.67
22242	21.414	3.9091	0.1	570.42
22243	21.322	4.	0.1	589.02
22244	21.414	3.7273	0.1	586.96
22245	21.322	3.8182	0.1	609.65
22246	21.414	3.5455	0.1	601.33
22247	21.322	3.6364	0.1	628.38
22248	21.414	3.3636	0.1	612.5
22249	21.322	3.4545	0.1	643.91
22250	21.414	3.1818	0.1	619.6
22251	21.322	3.2727	0.1	655.02
22252	21.414	3.	0.1	622.03
22253	21.322	3.0909	0.1	660.83
22254	21.414	2.8182	0.1	619.6
22255	21.322	2.9091	0.1	660.83
22256	21.414	2.6364	0.1	612.5
22257	21.322	2.7273	0.1	655.02
22258	21.414	2.4545	0.1	601.33
22259	21.322	2.5455	0.1	643.91
22260	21.414	2.2727	0.1	586.96
22261	21.322	2.3636	0.1	628.38
22262	21.414	2.0909	0.1	570.42
22263	21.322	2.1818	0.1	609.65
22264	21.414	1.9091	0.1	552.75
22265	21.322	2.	0.1	589.02
22266	21.414	1.7273	0.1	534.85
22267	21.322	1.8182	0.1	567.67
22268	21.414	1.5455	0.1	517.41
22269	21.322	1.6364	0.1	546.57
22270	21.414	1.3636	0.1	500.94
22271	21.322	1.4545	0.1	526.39
22272	21.414	1.1818	0.1	485.8
22273	21.322	1.2727	0.1	507.61
22274	21.414	1.	0.1	472.26
22275	21.322	1.0909	0.1	490.59
22276	21.414	0.81818	0.1	460.52
22277	21.322	0.90909	0.1	475.61
22278	21.414	0.63636	0.1	450.71
22279	21.322	0.72727	0.1	462.89
22280	21.414	0.45455	0.1	442.94
22281	21.322	0.54545	0.1	452.56
22282	21.414	0.27273	0.1	438.03
22283	21.322	0.36364	0.1	444.7
22284	21.322	0.18182	0.1	440.99
22285	21.414	9.0909e-002	0.1	428.77
22286	21.229	5.7273	0.1	447.61
22287	21.137	5.8182	0.1	446.08
22288	21.229	5.9091	0.1	436.53
22289	21.229	5.5455	0.1	454.36
22290	21.137	5.6364	0.1	451.33
22291	21.229	5.3636	0.1	464.8
22292	21.137	5.4545	0.1	461.75
22293	21.229	5.1818	0.1	478.08
22294	21.137	5.2727	0.1	475.6
22295	21.229	5.	0.1	494.06
22296	21.137	5.0909	0.1	492.8
22297	21.229	4.8182	0.1	512.54
22298	21.137	4.9091	0.1	513.15
22299	21.229	4.6364	0.1	533.22
22300	21.137	4.7273	0.1	536.3
22301	21.229	4.4545	0.1	555.72
22302	21.137	4.5455	0.1	561.85
22303	21.229	4.2727	0.1	579.58
22304	21.137	4.3636	0.1	589.3
22305	21.229	4.0909	0.1	604.11
22306	21.137	4.1818	0.1	618.05
22307	21.229	3.9091	0.1	628.38
22308	21.137	4.	0.1	647.19
22309	21.229	3.7273	0.1	651.14
22310	21.137	3.8182	0.1	675.43
22311	21.229	3.5455	0.1	670.93
22312	21.137	3.6364	0.1	701.08
22313	21.229	3.3636	0.1	686.31
22314	21.137	3.4545	0.1	722.32
22315	21.229	3.1818	0.1	696.07
22316	21.137	3.2727	0.1	737.49
22317	21.229	3.	0.1	699.41
22318	21.137	3.0909	0.1	745.38
22319	21.229	2.8182	0.1	696.07
22320	21.137	2.9091	0.1	745.38
22321	21.229	2.6364	0.1	686.31
22322	21.137	2.7273	0.1	737.49
22323	21.229	2.4545	0.1	670.93
22324	21.137	2.5455	0.1	722.32
22325	21.229	2.2727	0.1	651.14
22326	21.137	2.3636	0.1	701.08
22327	21.229	2.0909	0.1	628.38
22328	21.137	2.1818	0.1	675.43
22329	21.229	1.9091	0.1	604.11
22330	21.137	2.	0.1	647.19
22331	21.229	1.7273	0.1	579.58
22332	21.137	1.8182	0.1	618.05
22333	21.229	1.5455	0.1	555.73
22334	21.137	1.6364	0.1	589.3
22335	21.229	1.3636	0.1	533.22
22336	21.137	1.4545	0.1	561.85
22337	21.229	1.1818	0.1	512.54
22338	21.137	1.2727	0.1	536.3
22339	21.229	1.	0.1	494.06
22340	21.137	1.0909	0.1	513.15
22341	21.229	0.81818	0.1	478.08
22342	21.137	0.90909	0.1	492.8
22343	21.229	0.63636	0.1	464.8
22344	21.137	0.72727	0.1	475.6
22345	21.229	0.45455	0.1	454.36
22346	21.137	0.54545	0.1	461.75
22347	21.229	0.27273	0.1	447.61
22348	21.137	0.36364	0.1	451.33
22349	21.137	0.18182	0.1	446.08
22350	21.229	9.0909e-002	0.1	436.53
22351	21.044	5.7273	0.1	449.82
22352	20.952	5.8182	0.1	442.94
22353	21.044	5.9091	0.1	436.59
22354	21.044	5.5455	0.1	458.82
22355	20.952	5.6364	0.1	449.95
22356	21.044	5.3636	0.1	472.7
22357	20.952	5.4545	0.1	463.54
22358	21.044	5.1818	0.1	490.54
22359	20.952	5.2727	0.1	481.95
22360	21.044	5.	0.1	512.16
22361	20.952	5.0909	0.1	505.05
22362	21.044	4.8182	0.1	537.22
22363	20.952	4.9091	0.1	532.52
22364	21.044	4.6364	0.1	565.26
22365	20.952	4.7273	0.1	563.83
22366	21.044	4.4545	0.1	595.77
22367	20.952	4.5455	0.1	598.35
22368	21.044	4.2727	0.1	628.11
22369	20.952	4.3636	0.1	635.44
22370	21.044	4.0909	0.1	661.43
22371	20.952	4.1818	0.1	674.32
22372	21.044	3.9091	0.1	694.46
22373	20.952	4.	0.1	713.84
22374	21.044	3.7273	0.1	725.47
22375	20.952	3.8182	0.1	752.2
22376	21.044	3.5455	0.1	752.41
22377	20.952	3.6364	0.1	786.99
22378	21.044	3.3636	0.1	773.27
22379	20.952	3.4545	0.1	815.63
22380	21.044	3.1818	0.1	786.47
22381	20.952	3.2727	0.1	835.94
22382	21.044	3.	0.1	790.98
22383	20.952	3.0909	0.1	846.44
22384	21.044	2.8182	0.1	786.47
22385	20.952	2.9091	0.1	846.44
22386	21.044	2.6364	0.1	773.27
22387	20.952	2.7273	0.1	835.94
22388	21.044	2.4545	0.1	752.41
22389	20.952	2.5455	0.1	815.63
22390	21.044	2.2727	0.1	725.47
22391	20.952	2.3636	0.1	786.99
22392	21.044	2.0909	0.1	694.46
22393	20.952	2.1818	0.1	752.2
22394	21.044	1.9091	0.1	661.43
22395	20.952	2.	0.1	713.84
22396	21.044	1.7273	0.1	628.11
22397	20.952	1.8182	0.1	674.32
22398	21.044	1.5455	0.1	595.77
22399	20.952	1.6364	0.1	635.44
22400	21.044	1.3636	0.1	565.26
22401	20.952	1.4545	0.1	598.35
22402	21.044	1.1818	0.1	537.22
22403	20.952	1.2727	0.1	563.83
22404	21.044	1.	0.1	512.16
22405	20.952	1.0909	0.1	532.52
22406	21.044	0.81818	0.1	490.54
22407	20.952	0.90909	0.1	505.05
22408	21.044	0.63636	0.1	472.7
22409	20.952	0.72727	0.1	481.95
22410	21.044	0.45455	0.1	458.82
22411	20.952	0.54545	0.1	463.54
22412	21.044	0.27273	0.1	449.82
22413	20.952	0.36364	0.1	449.95
22414	20.952	0.18182	0.1	442.94
22415	21.044	9.0909e-002	0.1	436.59
22416	20.86	5.7273	0.1	443.16
22417	20.767	5.8182	0.1	430.06
22418	20.86	5.9091	0.1	427.47
22419	20.86	5.5455	0.1	454.86
22420	20.767	5.6364	0.1	438.98
22421	20.86	5.3636	0.1	473.1
22422	20.767	5.4545	0.1	456.51
22423	20.86	5.1818	0.1	496.89
22424	20.767	5.2727	0.1	480.77
22425	20.86	5.	0.1	525.94
22426	20.767	5.0909	0.1	511.56
22427	20.86	4.8182	0.1	559.73
22428	20.767	4.9091	0.1	548.4
22429	20.86	4.6364	0.1	597.54
22430	20.767	4.7273	0.1	590.51
22431	20.86	4.4545	0.1	638.65
22432	20.767	4.5455	0.1	636.96
22433	20.86	4.2727	0.1	682.24
22434	20.767	4.3636	0.1	686.87
22435	20.86	4.0909	0.1	727.24
22436	20.767	4.1818	0.1	739.29
22437	20.86	3.9091	0.1	771.94
22438	20.767	4.	0.1	792.74
22439	20.86	3.7273	0.1	813.85
22440	20.767	3.8182	0.1	844.61
22441	20.86	3.5455	0.1	850.07
22442	20.767	3.6364	0.1	891.33
22443	20.86	3.3636	0.1	877.89
22444	20.767	3.4545	0.1	929.25
22445	20.86	3.1818	0.1	895.31
22446	20.767	3.2727	0.1	955.65
22447	20.86	3.	0.1	901.24
22448	20.767	3.0909	0.1	969.11
22449	20.86	2.8182	0.1	895.31
22450	20.767	2.9091	0.1	969.11
22451	20.86	2.6364	0.1	877.89
22452	20.767	2.7273	0.1	955.65
22453	20.86	2.4545	0.1	850.07
22454	20.767	2.5455	0.1	929.25
22455	20.86	2.2727	0.1	813.85
22456	20.767	2.3636	0.1	891.33
22457	20.86	2.0909	0.1	771.94
22458	20.767	2.1818	0.1	844.61
22459	20.86	1.9091	0.1	727.24
22460	20.767	2.	0.1	792.74
22461	20.86	1.7273	0.1	682.24
22462	20.767	1.8182	0.1	739.29
22463	20.86	1.5455	0.1	638.65
22464	20.767	1.6364	0.1	686.87
22465	20.86	1.3636	0.1	597.54
22466	20.767	1.4545	0.1	636.96
22467	20.86	1.1818	0.1	559.73
22468	20.767	1.2727	0.1	590.51
22469	20.86	1.	0.1	525.94
22470	20.767	1.0909	0.1	548.4
22471	20.86	0.81818	0.1	496.89
22472	20.767	0.90909	0.1	511.56
22473	20.86	0.63636	0.1	473.1
22474	20.767	0.72727	0.1	480.77
22475	20.86	0.45455	0.1	454.86
22476	20.767	0.54545	0.1	456.51
22477	20.86	0.27273	0.1	443.16
22478	20.767	0.36364	0.1	438.98
22479	20.767	0.18182	0.1	430.06
22480	20.86	9.0909e-002	0.1	427.47
22481	20.675	5.7273	0.1	426.07
22482	20.583	5.8182	0.1	405.91
22483	20.675	5.9091	0.1	407.65
22484	20.675	5.5455	0.1	440.96
22485	20.583	5.6364	0.1	416.94
22486	20.675	5.3636	0.1	464.74
22487	20.583	5.4545	0.1	439.37
22488	20.675	5.1818	0.1	496.25
22489	20.583	5.2727	0.1	471.12
22490	20.675	5.	0.1	535.04
22491	20.583	5.0909	0.1	511.85
22492	20.675	4.8182	0.1	580.32
22493	20.583	4.9091	0.1	560.89
22494	20.675	4.6364	0.1	631.07
22495	20.583	4.7273	0.1	617.2
22496	20.675	4.4545	0.1	686.28
22497	20.583	4.5455	0.1	679.55
22498	20.675	4.2727	0.1	744.91
22499	20.583	4.3636	0.1	746.67
22500	20.675	4.0909	0.1	805.61
22501	20.583	4.1818	0.1	817.48
22502	20.675	3.9091	0.1	865.96
22503	20.583	4.	0.1	889.91
22504	20.675	3.7273	0.1	922.22
22505	20.583	3.8182	0.1	960.07
22506	20.675	3.5455	0.1	970.16
22507	20.583	3.6364	0.1	1022.1
22508	20.675	3.3636	0.1	1006.2
22509	20.583	3.4545	0.1	1070.8
22510	20.675	3.1818	0.1	1028.4
22511	20.583	3.2727	0.1	1103.3
22512	20.675	3.	0.1	1035.8
22513	20.583	3.0909	0.1	1119.4
22514	20.675	2.8182	0.1	1028.4
22515	20.583	2.9091	0.1	1119.4
22516	20.675	2.6364	0.1	1006.2
22517	20.583	2.7273	0.1	1103.3
22518	20.675	2.4545	0.1	970.16
22519	20.583	2.5455	0.1	1070.8
22520	20.675	2.2727	0.1	922.22
22521	20.583	2.3636	0.1	1022.1
22522	20.675	2.0909	0.1	865.96
22523	20.583	2.1818	0.1	960.07
22524	20.675	1.9091	0.1	805.61
22525	20.583	2.	0.1	889.91
22526	20.675	1.7273	0.1	744.91
22527	20.583	1.8182	0.1	817.48
22528	20.675	1.5455	0.1	686.28
22529	20.583	1.6364	0.1	746.67
22530	20.675	1.3636	0.1	631.07
22531	20.583	1.4545	0.1	679.55
22532	20.675	1.1818	0.1	580.32
22533	20.583	1.2727	0.1	617.2
22534	20.675	1.	0.1	535.04
22535	20.583	1.0909	0.1	560.89
22536	20.675	0.81818	0.1	496.25
22537	20.583	0.90909	0.1	511.85
22538	20.675	0.63636	0.1	464.74
22539	20.583	0.72727	0.1	471.12
22540	20.675	0.45455	0.1	440.96
22541	20.583	0.54545	0.1	439.37
22542	20.675	0.27273	0.1	426.07
22543	20.583	0.36364	0.1	416.94
22544	20.583	0.18182	0.1	405.91
22545	20.675	9.0909e-002	0.1	407.65
22546	20.49	5.7273	0.1	397.08
22547	20.398	5.8182	0.1	369.14
22548	20.49	5.9091	0.1	375.71
22549	20.49	5.5455	0.1	415.88
22550	20.398	5.6364	0.1	382.72
22551	20.49	5.3636	0.1	446.75
22552	20.398	5.4545	0.1	411.53
22553	20.49	5.1818	0.1	488.21
22554	20.398	5.2727	0.1	452.92
22555	20.49	5.	0.1	539.57
22556	20.398	5.0909	0.1	506.25
22557	20.49	4.8182	0.1	599.83
22558	20.398	4.9091	0.1	570.77
22559	20.49	4.6364	0.1	667.72
22560	20.398	4.7273	0.1	645.5
22561	20.49	4.4545	0.1	741.8
22562	20.398	4.5455	0.1	729.15
22563	20.49	4.2727	0.1	820.84
22564	20.398	4.3636	0.1	820.21
22565	20.49	4.0909	0.1	903.04
22566	20.398	4.1818	0.1	916.74
22567	20.49	3.9091	0.1	984.76
22568	20.398	4.	0.1	1016.4
22569	20.49	3.7273	0.1	1060.
22570	20.398	3.8182	0.1	1111.7
22571	20.49	3.5455	0.1	1121.9
22572	20.398	3.6364	0.1	1192.2
22573	20.49	3.3636	0.1	1166.4
22574	20.398	3.4545	0.1	1250.8
22575	20.49	3.1818	0.1	1192.6
22576	20.398	3.2727	0.1	1286.6
22577	20.49	3.	0.1	1201.1
22578	20.398	3.0909	0.1	1303.2
22579	20.49	2.8182	0.1	1192.6
22580	20.398	2.9091	0.1	1303.2
22581	20.49	2.6364	0.1	1166.4
22582	20.398	2.7273	0.1	1286.6
22583	20.49	2.4545	0.1	1121.9
22584	20.398	2.5455	0.1	1250.8
22585	20.49	2.2727	0.1	1060.
22586	20.398	2.3636	0.1	1192.2
22587	20.49	2.0909	0.1	984.76
22588	20.398	2.1818	0.1	1111.7
22589	20.49	1.9091	0.1	903.04
22590	20.398	2.	0.1	1016.4
22591	20.49	1.7273	0.1	820.84
22592	20.398	1.8182	0.1	916.74
22593	20.49	1.5455	0.1	741.8
22594	20.398	1.6364	0.1	820.21
22595	20.49	1.3636	0.1	667.72
22596	20.398	1.4545	0.1	729.15
22597	20.49	1.1818	0.1	599.83
22598	20.398	1.2727	0.1	645.5
22599	20.49	1.	0.1	539.57
22600	20.398	1.0909	0.1	570.77
22601	20.49	0.81818	0.1	488.21
22602	20.398	0.90909	0.1	506.25
22603	20.49	0.63636	0.1	446.75
22604	20.398	0.72727	0.1	452.92
22605	20.49	0.45455	0.1	415.88
22606	20.398	0.54545	0.1	411.53
22607	20.49	0.27273	0.1	397.08
22608	20.398	0.36364	0.1	382.72
22609	20.398	0.18182	0.1	369.14
22610	20.49	9.0909e-002	0.1	375.71
22611	20.306	5.7273	0.1	355.19
22612	20.213	5.8182	0.1	318.83
22613	20.306	5.9091	0.1	330.54
22614	20.306	5.5455	0.1	379.27
22615	20.213	5.6364	0.1	336.37
22616	20.306	5.3636	0.1	419.5
22617	20.213	5.4545	0.1	374.17
22618	20.306	5.1818	0.1	473.66
22619	20.213	5.2727	0.1	428.1
22620	20.306	5.	0.1	540.82
22621	20.213	5.0909	0.1	496.85
22622	20.306	4.8182	0.1	620.14
22623	20.213	4.9091	0.1	580.09
22624	20.306	4.6364	0.1	710.57
22625	20.213	4.7273	0.1	677.95
22626	20.306	4.4545	0.1	810.73
22627	20.213	4.5455	0.1	790.64
22628	20.306	4.2727	0.1	918.65
22629	20.213	4.3636	0.1	915.5
22630	20.306	4.0909	0.1	1031.9
22631	20.213	4.1818	0.1	1051.
22632	20.306	3.9091	0.1	1144.1
22633	20.213	4.	0.1	1192.1
22634	20.306	3.7273	0.1	1243.2
22635	20.213	3.8182	0.1	1322.9
22636	20.306	3.5455	0.1	1319.1
22637	20.213	3.6364	0.1	1423.4
22638	20.306	3.3636	0.1	1368.3
22639	20.213	3.4545	0.1	1482.5
22640	20.306	3.1818	0.1	1394.3
22641	20.213	3.2727	0.1	1511.6
22642	20.306	3.	0.1	1402.3
22643	20.213	3.0909	0.1	1522.6
22644	20.306	2.8182	0.1	1394.3
22645	20.213	2.9091	0.1	1522.6
22646	20.306	2.6364	0.1	1368.3
22647	20.213	2.7273	0.1	1511.6
22648	20.306	2.4545	0.1	1319.1
22649	20.213	2.5455	0.1	1482.5
22650	20.306	2.2727	0.1	1243.2
22651	20.213	2.3636	0.1	1423.4
22652	20.306	2.0909	0.1	1144.1
22653	20.213	2.1818	0.1	1322.9
22654	20.306	1.9091	0.1	1031.9
22655	20.213	2.	0.1	1192.1
22656	20.306	1.7273	0.1	918.65
22657	20.213	1.8182	0.1	1051.
22658	20.306	1.5455	0.1	810.73
22659	20.213	1.6364	0.1	915.5
22660	20.306	1.3636	0.1	710.57
22661	20.213	1.4545	0.1	790.64
22662	20.306	1.1818	0.1	620.14
22663	20.213	1.2727	0.1	677.95
22664	20.306	1.	0.1	540.82
22665	20.213	1.0909	0.1	580.09
22666	20.306	0.81818	0.1	473.66
22667	20.213	0.90909	0.1	496.85
22668	20.306	0.63636	0.1	419.5
22669	20.213	0.72727	0.1	428.1
22670	20.306	0.45455	0.1	379.27
22671	20.213	0.54545	0.1	374.17
22672	20.306	0.27273	0.1	355.19
22673	20.213	0.36364	0.1	336.37
22674	20.213	0.18182	0.1	318.83
22675	20.306	9.0909e-002	0.1	330.54
22676	20.121	5.7273	0.1	300.59
22677	20.028	5.8182	0.1	255.19
22678	20.121	5.9091	0.1	271.49
22679	20.121	5.5455	0.1	333.03
22680	20.028	5.6364	0.1	281.16
22681	20.121	5.3636	0.1	386.16
22682	20.028	5.4545	0.1	333.02
22683	20.121	5.1818	0.1	456.07
22684	20.028	5.2727	0.1	402.99
22685	20.121	5.	0.1	541.95
22686	20.028	5.0909	0.1	489.37
22687	20.121	4.8182	0.1	644.38
22688	20.028	4.9091	0.1	593.51
22689	20.121	4.6364	0.1	764.52
22690	20.028	4.7273	0.1	718.96
22691	20.121	4.4545	0.1	901.09
22692	20.028	4.5455	0.1	869.71
22693	20.121	4.2727	0.1	1051.9
22694	20.028	4.3636	0.1	1049.
22695	20.121	4.0909	0.1	1213.6
22696	20.028	4.1818	0.1	1259.5
22697	20.121	3.9091	0.1	1371.
22698	20.028	4.	0.1	1467.1
22699	20.121	3.7273	0.1	1500.3
22700	20.028	3.8182	0.1	1653.2
22701	20.121	3.5455	0.1	1582.4
22702	20.028	3.6364	0.1	1749.4
22703	20.121	3.3636	0.1	1621.2
22704	20.028	3.4545	0.1	1777.3
22705	20.121	3.1818	0.1	1635.6
22706	20.028	3.2727	0.1	1775.
22707	20.121	3.	0.1	1638.8
22708	20.028	3.0909	0.1	1769.4
22709	20.121	2.8182	0.1	1635.6
22710	20.028	2.9091	0.1	1769.4
22711	20.121	2.6364	0.1	1621.2
22712	20.028	2.7273	0.1	1775.
22713	20.121	2.4545	0.1	1582.4
22714	20.028	2.5455	0.1	1777.3
22715	20.121	2.2727	0.1	1500.3
22716	20.028	2.3636	0.1	1749.4
22717	20.121	2.0909	0.1	1371.
22718	20.028	2.1818	0.1	1653.2
22719	20.121	1.9091	0.1	1213.6
22720	20.028	2.	0.1	1467.1
22721	20.121	1.7273	0.1	1051.9
22722	20.028	1.8182	0.1	1259.5
22723	20.121	1.5455	0.1	901.09
22724	20.028	1.6364	0.1	1049.
22725	20.121	1.3636	0.1	764.52
22726	20.028	1.4545	0.1	869.71
22727	20.121	1.1818	0.1	644.38
22728	20.028	1.2727	0.1	718.96
22729	20.121	1.	0.1	541.95
22730	20.028	1.0909	0.1	593.51
22731	20.121	0.81818	0.1	456.07
22732	20.028	0.90909	0.1	489.37
22733	20.121	0.63636	0.1	386.16
22734	20.028	0.72727	0.1	402.99
22735	20.121	0.45455	0.1	333.03
22736	20.028	0.54545	0.1	333.02
22737	20.121	0.27273	0.1	300.59
22738	20.028	0.36364	0.1	281.16
22739	20.028	0.18182	0.1	255.19
22740	20.121	9.0909e-002	0.1	271.49
22741	19.936	5.7273	0.1	237.03
22742	19.844	5.8182	0.1	183.23
22743	19.936	5.9091	0.1	199.06
22744	19.936	5.5455	0.1	285.26
22745	19.844	5.6364	0.1	232.77
22746	19.936	5.3636	0.1	356.28
22747	19.844	5.4545	0.1	307.77
22748	19.936	5.1818	0.1	444.31
22749	19.844	5.2727	0.1	397.98
22750	19.936	5.	0.1	550.32
22751	19.844	5.0909	0.1	504.38
22752	19.936	4.8182	0.1	678.87
22753	19.844	4.9091	0.1	632.09
22754	19.936	4.6364	0.1	836.12
22755	19.844	4.7273	0.1	790.48
22756	19.936	4.4545	0.1	1028.6
22757	19.844	4.5455	0.1	993.38
22758	19.936	4.2727	0.1	1264.9
22759	19.844	4.3636	0.1	1269.2
22760	19.936	4.0909	0.1	1514.6
22761	19.844	4.1818	0.1	1672.5
22762	19.936	3.9091	0.1	1745.6
22763	19.844	4.	0.1	2063.6
22764	19.936	3.7273	0.1	1892.8
22765	19.844	3.8182	0.1	2234.1
22766	19.936	3.5455	0.1	1935.5
22767	19.844	3.6364	0.1	2209.7
22768	19.936	3.3636	0.1	1924.7
22769	19.844	3.4545	0.1	2117.8
22770	19.936	3.1818	0.1	1903.8
22771	19.844	3.2727	0.1	2050.6
22772	19.936	3.	0.1	1895.4
22773	19.844	3.0909	0.1	2016.4
22774	19.936	2.8182	0.1	1903.8
22775	19.844	2.9091	0.1	2016.4
22776	19.936	2.6364	0.1	1924.7
22777	19.844	2.7273	0.1	2050.6
22778	19.936	2.4545	0.1	1935.5
22779	19.844	2.5455	0.1	2117.8
22780	19.936	2.2727	0.1	1892.8
22781	19.844	2.3636	0.1	2209.7
22782	19.936	2.0909	0.1	1745.6
22783	19.844	2.1818	0.1	2234.1
22784	19.936	1.9091	0.1	1514.6
22785	19.844	2.	0.1	2063.6
22786	19.936	1.7273	0.1	1264.9
22787	19.844	1.8182	0.1	1672.5
22788	19.936	1.5455	0.1	1028.6
22789	19.844	1.6364	0.1	1269.2
22790	19.936	1.3636	0.1	836.12
22791	19.844	1.4545	0.1	993.38
22792	19.936	1.1818	0.1	678.87
22793	19.844	1.2727	0.1	790.48
22794	19.936	1.	0.1	550.31
22795	19.844	1.0909	0.1	632.09
22796	19.936	0.81818	0.1	444.31
22797	19.844	0.90909	0.1	504.38
22798	19.936	0.63636	0.1	356.28
22799	19.844	0.72727	0.1	397.98
22800	19.936	0.45455	0.1	285.26
22801	19.844	0.54545	0.1	307.77
22802	19.936	0.27273	0.1	237.03
22803	19.844	0.36364	0.1	232.77
22804	19.844	0.18182	0.1	183.23
22805	19.936	9.0909e-002	0.1	199.06
22806	19.751	5.7273	0.1	185.42
22807	19.659	5.8182	0.1	107.42
22808	19.751	5.9091	0.1	117.44
22809	19.751	5.5455	0.1	265.6
22810	19.659	5.6364	0.1	177.58
22811	19.751	5.3636	0.1	360.65
22812	19.659	5.4545	0.1	254.74
22813	19.751	5.1818	0.1	470.05
22814	19.659	5.2727	0.1	339.7
22815	19.751	5.	0.1	599.77
22816	19.659	5.0909	0.1	437.12
22817	19.751	4.8182	0.1	760.38
22818	19.659	4.9091	0.1	553.94
22819	19.751	4.6364	0.1	969.42
22820	19.659	4.7273	0.1	701.48
22821	19.751	4.4545	0.1	1266.1
22822	19.659	4.5455	0.1	901.26
22823	19.751	4.2727	0.1	1705.8
22824	19.659	4.3636	0.1	1176.5
22825	19.751	4.0909	0.1	2220.2
22826	19.659	4.1818	0.1	1715.6
22827	19.751	3.9091	0.1	2521.7
22828	19.659	4.	0.1	3793.5
22829	19.751	3.7273	0.1	2526.2
22830	19.659	3.8182	0.1	3103.2
22831	19.751	3.5455	0.1	2382.4
22832	19.659	3.6364	0.1	2684.1
22833	19.751	3.3636	0.1	2238.4
22834	19.659	3.4545	0.1	2421.5
22835	19.751	3.1818	0.1	2159.1
22836	19.659	3.2727	0.1	2279.7
22837	19.751	3.	0.1	2133.5
22838	19.659	3.0909	0.1	2216.3
22839	19.751	2.8182	0.1	2159.1
22840	19.659	2.9091	0.1	2216.3
22841	19.751	2.6364	0.1	2238.4
22842	19.659	2.7273	0.1	2279.7
22843	19.751	2.4545	0.1	2382.4
22844	19.659	2.5455	0.1	2421.5
22845	19.751	2.2727	0.1	2526.2
22846	19.659	2.3636	0.1	2684.1
22847	19.751	2.0909	0.1	2521.7
22848	19.659	2.1818	0.1	3103.2
22849	19.751	1.9091	0.1	2220.2
22850	19.659	2.	0.1	3793.5
22851	19.751	1.7273	0.1	1705.8
22852	19.659	1.8182	0.1	1715.6
22853	19.751	1.5455	0.1	1266.1
22854	19.659	1.6364	0.1	1176.5
22855	19.751	1.3636	0.1	969.42
22856	19.659	1.4545	0.1	901.26
22857	19.751	1.1818	0.1	760.38
22858	19.659	1.2727	0.1	701.48
22859	19.751	1.	0.1	599.77
22860	19.659	1.0909	0.1	553.94
22861	19.751	0.81818	0.1	470.05
22862	19.659	0.90909	0.1	437.12
22863	19.751	0.63636	0.1	360.65
22864	19.659	0.72727	0.1	339.7
22865	19.751	0.45455	0.1	265.6
22866	19.659	0.54545	0.1	254.74
22867	19.751	0.27273	0.1	185.42
22868	19.659	0.36364	0.1	177.58
22869	19.659	0.18182	0.1	107.42
22870	19.751	9.0909e-002	0.1	117.44
22871	0.18476	0.27273	0.1	4260.4
22872	0.27714	0.18182	0.1	4546.9
22873	9.2381e-002	0.18182	0.1	2713.3
22874	0.18476	9.0909e-002	0.1	3853.4
22875	0.18476	0.45455	0.1	4878.1
22876	0.27714	0.36364	0.1	4648.4
22877	9.2381e-002	0.36364	0.1	3409.7
22878	0.18476	0.63636	0.1	5477.2
22879	0.27714	0.54545	0.1	5006.8
22880	9.2381e-002	0.54545	0.1	3989.2
22881	0.18476	0.81818	0.1	5933.5
22882	0.27714	0.72727	0.1	5367.2
22883	9.2381e-002	0.72727	0.1	4404.6
22884	0.18476	1.	0.1	6275.7
22885	0.27714	0.90909	0.1	5673.4
22886	9.2381e-002	0.90909	0.1	4703.4
22887	0.18476	1.1818	0.1	6535.2
22888	0.27714	1.0909	0.1	5921.6
22889	9.2381e-002	1.0909	0.1	4924.6
22890	0.18476	1.3636	0.1	6734.8
22891	0.27714	1.2727	0.1	6120.
22892	9.2381e-002	1.2727	0.1	5091.9
22893	0.18476	1.5455	0.1	6890.1
22894	0.27714	1.4545	0.1	6278.3
22895	9.2381e-002	1.4545	0.1	5220.7
22896	0.18476	1.7273	0.1	7011.6
22897	0.27714	1.6364	0.1	6404.6
22898	9.2381e-002	1.6364	0.1	5320.9
22899	0.18476	1.9091	0.1	7106.8
22900	0.27714	1.8182	0.1	6505.1
22901	9.2381e-002	1.8182	0.1	5399.1
22902	0.18476	2.0909	0.1	7180.7
22903	0.27714	2.	0.1	6584.5
22904	9.2381e-002	2.	0.1	5460.1
22905	0.18476	2.2727	0.1	7237.2
22906	0.27714	2.1818	0.1	6646.3
22907	9.2381e-002	2.1818	0.1	5507.2
22908	0.18476	2.4545	0.1	7278.8
22909	0.27714	2.3636	0.1	6693.1
22910	9.2381e-002	2.3636	0.1	5542.5
22911	0.18476	2.6364	0.1	7307.3
22912	0.27714	2.5455	0.1	6726.7
22913	9.2381e-002	2.5455	0.1	5567.7
22914	0.18476	2.8182	0.1	7324.
22915	0.27714	2.7273	0.1	6748.4
22916	9.2381e-002	2.7273	0.1	5584.
22917	0.18476	3.	0.1	7329.5
22918	0.27714	2.9091	0.1	6759.1
22919	9.2381e-002	2.9091	0.1	5591.9
22920	0.18476	3.1818	0.1	7324.
22921	0.27714	3.0909	0.1	6759.1
22922	9.2381e-002	3.0909	0.1	5591.9
22923	0.18476	3.3636	0.1	7307.3
22924	0.27714	3.2727	0.1	6748.4
22925	9.2381e-002	3.2727	0.1	5584.
22926	0.18476	3.5455	0.1	7278.8
22927	0.27714	3.4545	0.1	6726.7
22928	9.2381e-002	3.4545	0.1	5567.7
22929	0.18476	3.7273	0.1	7237.2
22930	0.27714	3.6364	0.1	6693.1
22931	9.2381e-002	3.6364	0.1	5542.5
22932	0.18476	3.9091	0.1	7180.7
22933	0.27714	3.8182	0.1	6646.3
22934	9.2381e-002	3.8182	0.1	5507.2
22935	0.18476	4.0909	0.1	7106.8
22936	0.27714	4.	0.1	6584.5
22937	9.2381e-002	4.	0.1	5460.1
22938	0.18476	4.2727	0.1	7011.6
22939	0.27714	4.1818	0.1	6505.1
22940	9.2381e-002	4.1818	0.1	5399.1
22941	0.18476	4.4545	0.1	6890.1
22942	0.27714	4.3636	0.1	6404.6
22943	9.2381e-002	4.3636	0.1	5320.9
22944	0.18476	4.6364	0.1	6734.8
22945	0.27714	4.5455	0.1	6278.3
22946	9.2381e-002	4.5455	0.1	5220.7
22947	0.18476	4.8182	0.1	6535.2
22948	0.27714	4.7273	0.1	6120.
22949	9.2381e-002	4.7273	0.1	5091.9
22950	0.18476	5.	0.1	6275.7
22951	0.27714	4.9091	0.1	5921.6
22952	9.2381e-002	4.9091	0.1	4924.6
22953	0.18476	5.1818	0.1	5933.5
22954	0.27714	5.0909	0.1	5673.4
22955	9.2381e-002	5.0909	0.1	4703.4
22956	0.18476	5.3636	0.1	5477.2
22957	0.27714	5.2727	0.1	5367.2
22958	9.2381e-002	5.2727	0.1	4404.6
22959	0.18476	5.5455	0.1	4878.1
22960	0.27714	5.4545	0.1	5006.8
22961	9.2381e-002	5.4545	0.1	3989.2
22962	0.18476	5.7273	0.1	4260.4
22963	0.27714	5.6364	0.1	4648.4
22964	9.2381e-002	5.6364	0.1	3409.7
22965	0.27714	5.8182	0.1	4546.9
22966	9.2381e-002	5.8182	0.1	2713.3
22967	0.18476	5.9091	0.1	3853.4
22968	0.36952	0.27273	0.1	4901.3
22969	0.4619	0.18182	0.1	5307.9
22970	0.36952	9.0909e-002	0.1	4934.9
22971	0.36952	0.45455	0.1	4802.7
22972	0.4619	0.36364	0.1	5068.7
22973	0.36952	0.63636	0.1	4927.2
22974	0.4619	0.54545	0.1	5062.5
22975	0.36952	0.81818	0.1	5130.5
22976	0.4619	0.72727	0.1	5177.1
22977	0.36952	1.	0.1	5336.5
22978	0.4619	0.90909	0.1	5335.2
22979	0.36952	1.1818	0.1	5519.5
22980	0.4619	1.0909	0.1	5496.5
22981	0.36952	1.3636	0.1	5674.3
22982	0.4619	1.2727	0.1	5643.7
22983	0.36952	1.5455	0.1	5802.2
22984	0.4619	1.4545	0.1	5771.4
22985	0.36952	1.7273	0.1	5906.5
22986	0.4619	1.6364	0.1	5879.3
22987	0.36952	1.9091	0.1	5990.7
22988	0.4619	1.8182	0.1	5968.7
22989	0.36952	2.0909	0.1	6057.5
22990	0.4619	2.	0.1	6041.4
22991	0.36952	2.2727	0.1	6109.3
22992	0.4619	2.1818	0.1	6099.1
22993	0.36952	2.4545	0.1	6148.
22994	0.4619	2.3636	0.1	6143.5
22995	0.36952	2.6364	0.1	6174.7
22996	0.4619	2.5455	0.1	6175.8
22997	0.36952	2.8182	0.1	6190.4
22998	0.4619	2.7273	0.1	6196.8
22999	0.36952	3.	0.1	6195.5
23000	0.4619	2.9091	0.1	6207.2
23001	0.36952	3.1818	0.1	6190.4
23002	0.4619	3.0909	0.1	6207.2
23003	0.36952	3.3636	0.1	6174.7
23004	0.4619	3.2727	0.1	6196.8
23005	0.36952	3.5455	0.1	6148.
23006	0.4619	3.4545	0.1	6175.8
23007	0.36952	3.7273	0.1	6109.3
23008	0.4619	3.6364	0.1	6143.5
23009	0.36952	3.9091	0.1	6057.5
23010	0.4619	3.8182	0.1	6099.1
23011	0.36952	4.0909	0.1	5990.7
23012	0.4619	4.	0.1	6041.4
23013	0.36952	4.2727	0.1	5906.5
23014	0.4619	4.1818	0.1	5968.7
23015	0.36952	4.4545	0.1	5802.2
23016	0.4619	4.3636	0.1	5879.3
23017	0.36952	4.6364	0.1	5674.3
23018	0.4619	4.5455	0.1	5771.4
23019	0.36952	4.8182	0.1	5519.5
23020	0.4619	4.7273	0.1	5643.7
23021	0.36952	5.	0.1	5336.5
23022	0.4619	4.9091	0.1	5496.5
23023	0.36952	5.1818	0.1	5130.5
23024	0.4619	5.0909	0.1	5335.2
23025	0.36952	5.3636	0.1	4927.2
23026	0.4619	5.2727	0.1	5177.1
23027	0.36952	5.5455	0.1	4802.7
23028	0.4619	5.4545	0.1	5062.5
23029	0.36952	5.7273	0.1	4901.3
23030	0.4619	5.6364	0.1	5068.7
23031	0.4619	5.8182	0.1	5307.9
23032	0.36952	5.9091	0.1	4934.9
23033	0.55429	0.27273	0.1	5460.5
23034	0.64667	0.18182	0.1	5708.2
23035	0.55429	9.0909e-002	0.1	5477.1
23036	0.55429	0.45455	0.1	5315.3
23037	0.64667	0.36364	0.1	5477.7
23038	0.55429	0.63636	0.1	5305.6
23039	0.64667	0.54545	0.1	5383.8
23040	0.55429	0.81818	0.1	5379.7
23041	0.64667	0.72727	0.1	5380.6
23042	0.55429	1.	0.1	5495.1
23043	0.64667	0.90909	0.1	5438.4
23044	0.55429	1.1818	0.1	5621.1
23045	0.64667	1.0909	0.1	5526.7
23046	0.55429	1.3636	0.1	5741.5
23047	0.64667	1.2727	0.1	5624.4
23048	0.55429	1.5455	0.1	5849.2
23049	0.64667	1.4545	0.1	5719.7
23050	0.55429	1.7273	0.1	5942.
23051	0.64667	1.6364	0.1	5806.4
23052	0.55429	1.9091	0.1	6019.8
23053	0.64667	1.8182	0.1	5882.2
23054	0.55429	2.0909	0.1	6083.3
23055	0.64667	2.	0.1	5946.2
23056	0.55429	2.2727	0.1	6133.6
23057	0.64667	2.1818	0.1	5998.5
23058	0.55429	2.4545	0.1	6171.7
23059	0.64667	2.3636	0.1	6039.6
23060	0.55429	2.6364	0.1	6198.2
23061	0.64667	2.5455	0.1	6069.8
23062	0.55429	2.8182	0.1	6213.9
23063	0.64667	2.7273	0.1	6089.7
23064	0.55429	3.	0.1	6219.1
23065	0.64667	2.9091	0.1	6099.6
23066	0.55429	3.1818	0.1	6213.9
23067	0.64667	3.0909	0.1	6099.6
23068	0.55429	3.3636	0.1	6198.2
23069	0.64667	3.2727	0.1	6089.7
23070	0.55429	3.5455	0.1	6171.7
23071	0.64667	3.4545	0.1	6069.8
23072	0.55429	3.7273	0.1	6133.6
23073	0.64667	3.6364	0.1	6039.6
23074	0.55429	3.9091	0.1	6083.3
23075	0.64667	3.8182	0.1	5998.5
23076	0.55429	4.0909	0.1	6019.8
23077	0.64667	4.	0.1	5946.2
23078	0.55429	4.2727	0.1	5942.
23079	0.64667	4.1818	0.1	5882.2
23080	0.55429	4.4545	0.1	5849.2
23081	0.64667	4.3636	0.1	5806.4
23082	0.55429	4.6364	0.1	5741.5
23083	0.64667	4.5455	0.1	5719.7
23084	0.55429	4.8182	0.1	5621.1
23085	0.64667	4.7273	0.1	5624.4
23086	0.55429	5.	0.1	5495.1
23087	0.64667	4.9091	0.1	5526.7
23088	0.55429	5.1818	0.1	5379.7
23089	0.64667	5.0909	0.1	5438.4
23090	0.55429	5.3636	0.1	5305.6
23091	0.64667	5.2727	0.1	5380.6
23092	0.55429	5.5455	0.1	5315.3
23093	0.64667	5.4545	0.1	5383.8
23094	0.55429	5.7273	0.1	5460.5
23095	0.64667	5.6364	0.1	5477.7
23096	0.64667	5.8182	0.1	5708.2
23097	0.55429	5.9091	0.1	5477.1
23098	0.73905	0.27273	0.1	5718.5
23099	0.83143	0.18182	0.1	5909.2
23100	0.73905	9.0909e-002	0.1	5761.4
23101	0.73905	0.45455	0.1	5540.1
23102	0.83143	0.36364	0.1	5688.
23103	0.73905	0.63636	0.1	5454.5
23104	0.83143	0.54545	0.1	5559.8
23105	0.73905	0.81818	0.1	5437.4
23106	0.83143	0.72727	0.1	5494.2
23107	0.73905	1.	0.1	5469.7
23108	0.83143	0.90909	0.1	5482.2
23109	0.73905	1.1818	0.1	5530.6
23110	0.83143	1.0909	0.1	5508.1
23111	0.73905	1.3636	0.1	5603.4
23112	0.83143	1.2727	0.1	5556.
23113	0.73905	1.5455	0.1	5677.7
23114	0.83143	1.4545	0.1	5613.6
23115	0.73905	1.7273	0.1	5747.3
23116	0.83143	1.6364	0.1	5673.
23117	0.73905	1.9091	0.1	5809.1
23118	0.83143	1.8182	0.1	5729.
23119	0.73905	2.0909	0.1	5861.8
23120	0.83143	2.	0.1	5779.1
23121	0.73905	2.2727	0.1	5904.7
23122	0.83143	2.1818	0.1	5821.6
23123	0.73905	2.4545	0.1	5937.9
23124	0.83143	2.3636	0.1	5855.9
23125	0.73905	2.6364	0.1	5961.4
23126	0.83143	2.5455	0.1	5881.7
23127	0.73905	2.8182	0.1	5975.5
23128	0.83143	2.7273	0.1	5898.9
23129	0.73905	3.	0.1	5980.1
23130	0.83143	2.9091	0.1	5907.5
23131	0.73905	3.1818	0.1	5975.5
23132	0.83143	3.0909	0.1	5907.5
23133	0.73905	3.3636	0.1	5961.4
23134	0.83143	3.2727	0.1	5898.9
23135	0.73905	3.5455	0.1	5937.9
23136	0.83143	3.4545	0.1	5881.7
23137	0.73905	3.7273	0.1	5904.7
23138	0.83143	3.6364	0.1	5855.9
23139	0.73905	3.9091	0.1	5861.8
23140	0.83143	3.8182	0.1	5821.6
23141	0.73905	4.0909	0.1	5809.1
23142	0.83143	4.	0.1	5779.1
23143	0.73905	4.2727	0.1	5747.3
23144	0.83143	4.1818	0.1	5729.
23145	0.73905	4.4545	0.1	5677.7
23146	0.83143	4.3636	0.1	5673.
23147	0.73905	4.6364	0.1	5603.4
23148	0.83143	4.5455	0.1	5613.6
23149	0.73905	4.8182	0.1	5530.6
23150	0.83143	4.7273	0.1	5556.
23151	0.73905	5.	0.1	5469.7
23152	0.83143	4.9091	0.1	5508.1
23153	0.73905	5.1818	0.1	5437.4
23154	0.83143	5.0909	0.1	5482.2
23155	0.73905	5.3636	0.1	5454.5
23156	0.83143	5.2727	0.1	5494.2
23157	0.73905	5.5455	0.1	5540.1
23158	0.83143	5.4545	0.1	5559.8
23159	0.73905	5.7273	0.1	5718.5
23160	0.83143	5.6364	0.1	5688.
23161	0.83143	5.8182	0.1	5909.2
23162	0.73905	5.9091	0.1	5761.4
23163	0.92381	0.27273	0.1	5875.2
23164	1.0162	0.18182	0.1	6015.
23165	0.92381	9.0909e-002	0.1	5921.6
23166	0.92381	0.45455	0.1	5704.2
23167	1.0162	0.36364	0.1	5815.6
23168	0.92381	0.63636	0.1	5596.
23169	1.0162	0.54545	0.1	5682.9
23170	0.92381	0.81818	0.1	5536.2
23171	1.0162	0.72727	0.1	5592.
23172	0.92381	1.	0.1	5518.8
23173	1.0162	0.90909	0.1	5542.
23174	0.92381	1.1818	0.1	5532.6
23175	1.0162	1.0909	0.1	5526.5
23176	0.92381	1.3636	0.1	5565.8
23177	1.0162	1.2727	0.1	5535.9
23178	0.92381	1.5455	0.1	5608.8
23179	1.0162	1.4545	0.1	5561.1
23180	0.92381	1.7273	0.1	5654.7
23181	1.0162	1.6364	0.1	5594.4
23182	0.92381	1.9091	0.1	5699.
23183	1.0162	1.8182	0.1	5630.3
23184	0.92381	2.0909	0.1	5738.9
23185	1.0162	2.	0.1	5665.1
23186	0.92381	2.2727	0.1	5772.8
23187	1.0162	2.1818	0.1	5696.3
23188	0.92381	2.4545	0.1	5799.7
23189	1.0162	2.3636	0.1	5722.5
23190	0.92381	2.6364	0.1	5819.1
23191	1.0162	2.5455	0.1	5742.8
23192	0.92381	2.8182	0.1	5830.9
23193	1.0162	2.7273	0.1	5756.5
23194	0.92381	3.	0.1	5834.8
23195	1.0162	2.9091	0.1	5763.4
23196	0.92381	3.1818	0.1	5830.9
23197	1.0162	3.0909	0.1	5763.4
23198	0.92381	3.3636	0.1	5819.1
23199	1.0162	3.2727	0.1	5756.5
23200	0.92381	3.5455	0.1	5799.7
23201	1.0162	3.4545	0.1	5742.8
23202	0.92381	3.7273	0.1	5772.8
23203	1.0162	3.6364	0.1	5722.5
23204	0.92381	3.9091	0.1	5738.9
23205	1.0162	3.8182	0.1	5696.3
23206	0.92381	4.0909	0.1	5699.
23207	1.0162	4.	0.1	5665.1
23208	0.92381	4.2727	0.1	5654.7
23209	1.0162	4.1818	0.1	5630.3
23210	0.92381	4.4545	0.1	5608.8
23211	1.0162	4.3636	0.1	5594.4
23212	0.92381	4.6364	0.1	5565.8
23213	1.0162	4.5455	0.1	5561.1
23214	0.92381	4.8182	0.1	5532.6
23215	1.0162	4.7273	0.1	5535.9
23216	0.92381	5.	0.1	5518.8
23217	1.0162	4.9091	0.1	5526.5
23218	0.92381	5.1818	0.1	5536.2
23219	1.0162	5.0909	0.1	5542.
23220	0.92381	5.3636	0.1	5596.
23221	1.0162	5.2727	0.1	5592.
23222	0.92381	5.5455	0.1	5704.2
23223	1.0162	5.4545	0.1	5682.9
23224	0.92381	5.7273	0.1	5875.2
23225	1.0162	5.6364	0.1	5815.6
23226	1.0162	5.8182	0.1	6015.
23227	0.92381	5.9091	0.1	5921.6
23228	1.1086	0.27273	0.1	5953.3
23229	1.201	0.18182	0.1	6060.3
23230	1.1086	9.0909e-002	0.1	6004.3
23231	1.1086	0.45455	0.1	5792.3
23232	1.201	0.36364	0.1	5880.2
23233	1.1086	0.63636	0.1	5676.7
23234	1.201	0.54545	0.1	5750.6
23235	1.1086	0.81818	0.1	5595.6
23236	1.201	0.72727	0.1	5650.1
23237	1.1086	1.	0.1	5548.
23238	1.201	0.90909	0.1	5579.8
23239	1.1086	1.1818	0.1	5528.7
23240	1.201	1.0909	0.1	5538.
23241	1.1086	1.3636	0.1	5530.6
23242	1.201	1.2727	0.1	5519.8
23243	1.1086	1.5455	0.1	5546.3
23244	1.201	1.4545	0.1	5519.
23245	1.1086	1.7273	0.1	5569.8
23246	1.201	1.6364	0.1	5529.6
23247	1.1086	1.9091	0.1	5596.3
23248	1.201	1.8182	0.1	5546.7
23249	1.1086	2.0909	0.1	5622.4
23250	1.201	2.	0.1	5566.5
23251	1.1086	2.2727	0.1	5646.
23252	1.201	2.1818	0.1	5586.1
23253	1.1086	2.4545	0.1	5665.6
23254	1.201	2.3636	0.1	5603.5
23255	1.1086	2.6364	0.1	5680.1
23256	1.201	2.5455	0.1	5617.6
23257	1.1086	2.8182	0.1	5689.
23258	1.201	2.7273	0.1	5627.4
23259	1.1086	3.	0.1	5692.
23260	1.201	2.9091	0.1	5632.4
23261	1.1086	3.1818	0.1	5689.
23262	1.201	3.0909	0.1	5632.4
23263	1.1086	3.3636	0.1	5680.1
23264	1.201	3.2727	0.1	5627.4
23265	1.1086	3.5455	0.1	5665.6
23266	1.201	3.4545	0.1	5617.6
23267	1.1086	3.7273	0.1	5646.
23268	1.201	3.6364	0.1	5603.5
23269	1.1086	3.9091	0.1	5622.4
23270	1.201	3.8182	0.1	5586.1
23271	1.1086	4.0909	0.1	5596.3
23272	1.201	4.	0.1	5566.5
23273	1.1086	4.2727	0.1	5569.8
23274	1.201	4.1818	0.1	5546.7
23275	1.1086	4.4545	0.1	5546.3
23276	1.201	4.3636	0.1	5529.6
23277	1.1086	4.6364	0.1	5530.6
23278	1.201	4.5455	0.1	5519.
23279	1.1086	4.8182	0.1	5528.7
23280	1.201	4.7273	0.1	5519.8
23281	1.1086	5.	0.1	5548.
23282	1.201	4.9091	0.1	5538.
23283	1.1086	5.1818	0.1	5595.6
23284	1.201	5.0909	0.1	5579.8
23285	1.1086	5.3636	0.1	5676.7
23286	1.201	5.2727	0.1	5650.1
23287	1.1086	5.5455	0.1	5792.3
23288	1.201	5.4545	0.1	5750.6
23289	1.1086	5.7273	0.1	5953.3
23290	1.201	5.6364	0.1	5880.2
23291	1.201	5.8182	0.1	6060.3
23292	1.1086	5.9091	0.1	6004.3
23293	1.2933	0.27273	0.1	5985.9
23294	1.3857	0.18182	0.1	6068.2
23295	1.2933	9.0909e-002	0.1	6039.2
23296	1.2933	0.45455	0.1	5837.3
23297	1.3857	0.36364	0.1	5905.8
23298	1.2933	0.63636	0.1	5722.5
23299	1.3857	0.54545	0.1	5782.6
23300	1.2933	0.81818	0.1	5632.6
23301	1.3857	0.72727	0.1	5680.4
23302	1.2933	1.	0.1	5568.4
23303	1.3857	0.90909	0.1	5600.5
23304	1.2933	1.1818	0.1	5528.
23305	1.3857	1.0909	0.1	5543.3
23306	1.2933	1.3636	0.1	5507.4
23307	1.3857	1.2727	0.1	5506.6
23308	1.2933	1.5455	0.1	5501.7
23309	1.3857	1.4545	0.1	5486.6
23310	1.2933	1.7273	0.1	5506.2
23311	1.3857	1.6364	0.1	5479.2
23312	1.2933	1.9091	0.1	5516.7
23313	1.3857	1.8182	0.1	5480.3
23314	1.2933	2.0909	0.1	5529.9
23315	1.3857	2.	0.1	5486.6
23316	1.2933	2.2727	0.1	5543.4
23317	1.3857	2.1818	0.1	5495.3
23318	1.2933	2.4545	0.1	5555.5
23319	1.3857	2.3636	0.1	5504.3
23320	1.2933	2.6364	0.1	5564.9
23321	1.3857	2.5455	0.1	5512.3
23322	1.2933	2.8182	0.1	5570.8
23323	1.3857	2.7273	0.1	5518.1
23324	1.2933	3.	0.1	5572.8
23325	1.3857	2.9091	0.1	5521.2
23326	1.2933	3.1818	0.1	5570.8
23327	1.3857	3.0909	0.1	5521.2
23328	1.2933	3.3636	0.1	5564.9
23329	1.3857	3.2727	0.1	5518.1
23330	1.2933	3.5455	0.1	5555.5
23331	1.3857	3.4545	0.1	5512.3
23332	1.2933	3.7273	0.1	5543.4
23333	1.3857	3.6364	0.1	5504.3
23334	1.2933	3.9091	0.1	5529.9
23335	1.3857	3.8182	0.1	5495.3
23336	1.2933	4.0909	0.1	5516.7
23337	1.3857	4.	0.1	5486.6
23338	1.2933	4.2727	0.1	5506.2
23339	1.3857	4.1818	0.1	5480.3
23340	1.2933	4.4545	0.1	5501.7
23341	1.3857	4.3636	0.1	5479.2
23342	1.2933	4.6364	0.1	5507.4
23343	1.3857	4.5455	0.1	5486.6
23344	1.2933	4.8182	0.1	5528.
23345	1.3857	4.7273	0.1	5506.6
23346	1.2933	5.	0.1	5568.4
23347	1.3857	4.9091	0.1	5543.3
23348	1.2933	5.1818	0.1	5632.6
23349	1.3857	5.0909	0.1	5600.5
23350	1.2933	5.3636	0.1	5722.5
23351	1.3857	5.2727	0.1	5680.4
23352	1.2933	5.5455	0.1	5837.3
23353	1.3857	5.4545	0.1	5782.6
23354	1.2933	5.7273	0.1	5985.9
23355	1.3857	5.6364	0.1	5905.8
23356	1.3857	5.8182	0.1	6068.2
23357	1.2933	5.9091	0.1	6039.2
23358	1.4781	0.27273	0.1	5987.1
23359	1.5705	0.18182	0.1	6051.1
23360	1.4781	9.0909e-002	0.1	6042.1
23361	1.4781	0.45455	0.1	5850.3
23362	1.5705	0.36364	0.1	5904.
23363	1.4781	0.63636	0.1	5739.5
23364	1.5705	0.54545	0.1	5788.3
23365	1.4781	0.81818	0.1	5647.1
23366	1.5705	0.72727	0.1	5688.
23367	1.4781	1.	0.1	5574.3
23368	1.5705	0.90909	0.1	5604.5
23369	1.4781	1.1818	0.1	5520.9
23370	1.5705	1.0909	0.1	5538.8
23371	1.4781	1.3636	0.1	5485.
23372	1.5705	1.2727	0.1	5490.3
23373	1.4781	1.5455	0.1	5463.5
23374	1.5705	1.4545	0.1	5457.
23375	1.4781	1.7273	0.1	5452.8
23376	1.5705	1.6364	0.1	5435.9
23377	1.4781	1.9091	0.1	5449.9
23378	1.5705	1.8182	0.1	5424.2
23379	1.4781	2.0909	0.1	5451.7
23380	1.5705	2.	0.1	5419.2
23381	1.4781	2.2727	0.1	5456.
23382	1.5705	2.1818	0.1	5418.4
23383	1.4781	2.4545	0.1	5461.
23384	1.5705	2.3636	0.1	5419.8
23385	1.4781	2.6364	0.1	5465.4
23386	1.5705	2.5455	0.1	5422.2
23387	1.4781	2.8182	0.1	5468.4
23388	1.5705	2.7273	0.1	5424.3
23389	1.4781	3.	0.1	5469.5
23390	1.5705	2.9091	0.1	5425.5
23391	1.4781	3.1818	0.1	5468.4
23392	1.5705	3.0909	0.1	5425.5
23393	1.4781	3.3636	0.1	5465.4
23394	1.5705	3.2727	0.1	5424.3
23395	1.4781	3.5455	0.1	5461.
23396	1.5705	3.4545	0.1	5422.2
23397	1.4781	3.7273	0.1	5456.
23398	1.5705	3.6364	0.1	5419.8
23399	1.4781	3.9091	0.1	5451.7
23400	1.5705	3.8182	0.1	5418.4
23401	1.4781	4.0909	0.1	5449.9
23402	1.5705	4.	0.1	5419.2
23403	1.4781	4.2727	0.1	5452.8
23404	1.5705	4.1818	0.1	5424.2
23405	1.4781	4.4545	0.1	5463.5
23406	1.5705	4.3636	0.1	5435.9
23407	1.4781	4.6364	0.1	5485.
23408	1.5705	4.5455	0.1	5457.
23409	1.4781	4.8182	0.1	5520.9
23410	1.5705	4.7273	0.1	5490.3
23411	1.4781	5.	0.1	5574.3
23412	1.5705	4.9091	0.1	5538.8
23413	1.4781	5.1818	0.1	5647.1
23414	1.5705	5.0909	0.1	5604.5
23415	1.4781	5.3636	0.1	5739.5
23416	1.5705	5.2727	0.1	5688.
23417	1.4781	5.5455	0.1	5850.3
23418	1.5705	5.4545	0.1	5788.3
23419	1.4781	5.7273	0.1	5987.1
23420	1.5705	5.6364	0.1	5904.
23421	1.5705	5.8182	0.1	6051.1
23422	1.4781	5.9091	0.1	6042.1
23423	1.6629	0.27273	0.1	5967.3
23424	1.7552	0.18182	0.1	6017.
23425	1.6629	9.0909e-002	0.1	6023.2
23426	1.6629	0.45455	0.1	5841.5
23427	1.7552	0.36364	0.1	5883.6
23428	1.6629	0.63636	0.1	5736.
23429	1.7552	0.54545	0.1	5775.3
23430	1.6629	0.81818	0.1	5644.5
23431	1.7552	0.72727	0.1	5678.7
23432	1.6629	1.	0.1	5568.1
23433	1.7552	0.90909	0.1	5595.
23434	1.6629	1.1818	0.1	5507.4
23435	1.7552	1.0909	0.1	5525.4
23436	1.6629	1.3636	0.1	5461.6
23437	1.7552	1.2727	0.1	5469.9
23438	1.6629	1.5455	0.1	5428.9
23439	1.7552	1.4545	0.1	5427.7
23440	1.6629	1.7273	0.1	5406.9
23441	1.7552	1.6364	0.1	5396.9
23442	1.6629	1.9091	0.1	5393.2
23443	1.7552	1.8182	0.1	5375.6
23444	1.6629	2.0909	0.1	5385.6
23445	1.7552	2.	0.1	5361.5
23446	1.6629	2.2727	0.1	5382.
23447	1.7552	2.1818	0.1	5352.8
23448	1.6629	2.4545	0.1	5380.9
23449	1.7552	2.3636	0.1	5347.9
23450	1.6629	2.6364	0.1	5380.9
23451	1.7552	2.5455	0.1	5345.3
23452	1.6629	2.8182	0.1	5381.2
23453	1.7552	2.7273	0.1	5344.1
23454	1.6629	3.	0.1	5381.4
23455	1.7552	2.9091	0.1	5343.7
23456	1.6629	3.1818	0.1	5381.2
23457	1.7552	3.0909	0.1	5343.7
23458	1.6629	3.3636	0.1	5380.9
23459	1.7552	3.2727	0.1	5344.1
23460	1.6629	3.5455	0.1	5380.9
23461	1.7552	3.4545	0.1	5345.3
23462	1.6629	3.7273	0.1	5382.
23463	1.7552	3.6364	0.1	5347.9
23464	1.6629	3.9091	0.1	5385.6
23465	1.7552	3.8182	0.1	5352.8
23466	1.6629	4.0909	0.1	5393.2
23467	1.7552	4.	0.1	5361.5
23468	1.6629	4.2727	0.1	5406.9
23469	1.7552	4.1818	0.1	5375.6
23470	1.6629	4.4545	0.1	5428.9
23471	1.7552	4.3636	0.1	5396.9
23472	1.6629	4.6364	0.1	5461.6
23473	1.7552	4.5455	0.1	5427.7
23474	1.6629	4.8182	0.1	5507.4
23475	1.7552	4.7273	0.1	5469.9
23476	1.6629	5.	0.1	5568.1
23477	1.7552	4.9091	0.1	5525.4
23478	1.6629	5.1818	0.1	5644.5
23479	1.7552	5.0909	0.1	5595.
23480	1.6629	5.3636	0.1	5736.
23481	1.7552	5.2727	0.1	5678.7
23482	1.6629	5.5455	0.1	5841.5
23483	1.7552	5.4545	0.1	5775.3
23484	1.6629	5.7273	0.1	5967.3
23485	1.7552	5.6364	0.1	5883.6
23486	1.7552	5.8182	0.1	6017.
23487	1.6629	5.9091	0.1	6023.2
23488	1.8476	0.27273	0.1	5932.8
23489	1.94	0.18182	0.1	5971.4
23490	1.8476	9.0909e-002	0.1	5989.1
23491	1.8476	0.45455	0.1	5817.
23492	1.94	0.36364	0.1	5849.9
23493	1.8476	0.63636	0.1	5717.5
23494	1.94	0.54545	0.1	5748.8
23495	1.8476	0.81818	0.1	5628.6
23496	1.94	0.72727	0.1	5656.8
23497	1.8476	1.	0.1	5551.6
23498	1.94	0.90909	0.1	5574.8
23499	1.8476	1.1818	0.1	5487.3
23500	1.94	1.0909	0.1	5504.1
23501	1.8476	1.3636	0.1	5435.5
23502	1.94	1.2727	0.1	5445.
23503	1.8476	1.5455	0.1	5395.3
23504	1.94	1.4545	0.1	5397.3
23505	1.8476	1.7273	0.1	5365.2
23506	1.94	1.6364	0.1	5360.
23507	1.8476	1.9091	0.1	5343.5
23508	1.94	1.8182	0.1	5331.6
23509	1.8476	2.0909	0.1	5328.5
23510	1.94	2.	0.1	5310.8
23511	1.8476	2.2727	0.1	5318.5
23512	1.94	2.1818	0.1	5296.
23513	1.8476	2.4545	0.1	5312.1
23514	1.94	2.3636	0.1	5285.8
23515	1.8476	2.6364	0.1	5308.4
23516	1.94	2.5455	0.1	5279.2
23517	1.8476	2.8182	0.1	5306.4
23518	1.94	2.7273	0.1	5275.2
23519	1.8476	3.	0.1	5305.8
23520	1.94	2.9091	0.1	5273.4
23521	1.8476	3.1818	0.1	5306.4
23522	1.94	3.0909	0.1	5273.4
23523	1.8476	3.3636	0.1	5308.4
23524	1.94	3.2727	0.1	5275.2
23525	1.8476	3.5455	0.1	5312.1
23526	1.94	3.4545	0.1	5279.2
23527	1.8476	3.7273	0.1	5318.5
23528	1.94	3.6364	0.1	5285.8
23529	1.8476	3.9091	0.1	5328.5
23530	1.94	3.8182	0.1	5296.
23531	1.8476	4.0909	0.1	5343.5
23532	1.94	4.	0.1	5310.8
23533	1.8476	4.2727	0.1	5365.2
23534	1.94	4.1818	0.1	5331.6
23535	1.8476	4.4545	0.1	5395.3
23536	1.94	4.3636	0.1	5360.
23537	1.8476	4.6364	0.1	5435.5
23538	1.94	4.5455	0.1	5397.3
23539	1.8476	4.8182	0.1	5487.3
23540	1.94	4.7273	0.1	5445.
23541	1.8476	5.	0.1	5551.6
23542	1.94	4.9091	0.1	5504.1
23543	1.8476	5.1818	0.1	5628.6
23544	1.94	5.0909	0.1	5574.8
23545	1.8476	5.3636	0.1	5717.5
23546	1.94	5.2727	0.1	5656.8
23547	1.8476	5.5455	0.1	5817.
23548	1.94	5.4545	0.1	5748.8
23549	1.8476	5.7273	0.1	5932.8
23550	1.94	5.6364	0.1	5849.9
23551	1.94	5.8182	0.1	5971.4
23552	1.8476	5.9091	0.1	5989.1
23553	2.0324	0.27273	0.1	5888.1
23554	2.1248	0.18182	0.1	5917.8
23555	2.0324	9.0909e-002	0.1	5944.4
23556	2.0324	0.45455	0.1	5781.4
23557	2.1248	0.36364	0.1	5806.9
23558	2.0324	0.63636	0.1	5687.8
23559	2.1248	0.54545	0.1	5712.6
23560	2.0324	0.81818	0.1	5602.6
23561	2.1248	0.72727	0.1	5625.6
23562	2.0324	1.	0.1	5526.8
23563	2.1248	0.90909	0.1	5546.4
23564	2.0324	1.1818	0.1	5461.4
23565	2.1248	1.0909	0.1	5476.3
23566	2.0324	1.3636	0.1	5406.4
23567	2.1248	1.2727	0.1	5415.9
23568	2.0324	1.5455	0.1	5361.6
23569	2.1248	1.4545	0.1	5365.2
23570	2.0324	1.7273	0.1	5326.
23571	2.1248	1.6364	0.1	5323.8
23572	2.0324	1.9091	0.1	5298.6
23573	2.1248	1.8182	0.1	5290.7
23574	2.0324	2.0909	0.1	5278.
23575	2.1248	2.	0.1	5265.
23576	2.0324	2.2727	0.1	5263.1
23577	2.1248	2.1818	0.1	5245.7
23578	2.0324	2.4545	0.1	5252.7
23579	2.1248	2.3636	0.1	5231.5
23580	2.0324	2.6364	0.1	5245.9
23581	2.1248	2.5455	0.1	5221.7
23582	2.0324	2.8182	0.1	5242.1
23583	2.1248	2.7273	0.1	5215.6
23584	2.0324	3.	0.1	5240.9
23585	2.1248	2.9091	0.1	5212.7
23586	2.0324	3.1818	0.1	5242.1
23587	2.1248	3.0909	0.1	5212.7
23588	2.0324	3.3636	0.1	5245.9
23589	2.1248	3.2727	0.1	5215.6
23590	2.0324	3.5455	0.1	5252.7
23591	2.1248	3.4545	0.1	5221.7
23592	2.0324	3.7273	0.1	5263.1
23593	2.1248	3.6364	0.1	5231.5
23594	2.0324	3.9091	0.1	5278.
23595	2.1248	3.8182	0.1	5245.7
23596	2.0324	4.0909	0.1	5298.6
23597	2.1248	4.	0.1	5265.
23598	2.0324	4.2727	0.1	5326.
23599	2.1248	4.1818	0.1	5290.7
23600	2.0324	4.4545	0.1	5361.6
23601	2.1248	4.3636	0.1	5323.8
23602	2.0324	4.6364	0.1	5406.4
23603	2.1248	4.5455	0.1	5365.2
23604	2.0324	4.8182	0.1	5461.4
23605	2.1248	4.7273	0.1	5415.9
23606	2.0324	5.	0.1	5526.8
23607	2.1248	4.9091	0.1	5476.3
23608	2.0324	5.1818	0.1	5602.6
23609	2.1248	5.0909	0.1	5546.4
23610	2.0324	5.3636	0.1	5687.8
23611	2.1248	5.2727	0.1	5625.6
23612	2.0324	5.5455	0.1	5781.4
23613	2.1248	5.4545	0.1	5712.6
23614	2.0324	5.7273	0.1	5888.1
23615	2.1248	5.6364	0.1	5806.9
23616	2.1248	5.8182	0.1	5917.8
23617	2.0324	5.9091	0.1	5944.4
23618	2.2171	0.27273	0.1	5836.3
23619	2.3095	0.18182	0.1	5858.7
23620	2.2171	9.0909e-002	0.1	5892.
23621	2.2171	0.45455	0.1	5737.9
23622	2.3095	0.36364	0.1	5757.3
23623	2.2171	0.63636	0.1	5650.1
23624	2.3095	0.54545	0.1	5669.4
23625	2.2171	0.81818	0.1	5569.
23626	2.3095	0.72727	0.1	5587.4
23627	2.2171	1.	0.1	5495.6
23628	2.3095	0.90909	0.1	5511.7
23629	2.2171	1.1818	0.1	5430.6
23630	2.3095	1.0909	0.1	5443.4
23631	2.2171	1.3636	0.1	5374.4
23632	2.3095	1.2727	0.1	5383.2
23633	2.2171	1.5455	0.1	5327.1
23634	2.3095	1.4545	0.1	5331.4
23635	2.2171	1.7273	0.1	5288.2
23636	2.3095	1.6364	0.1	5287.7
23637	2.2171	1.9091	0.1	5256.9
23638	2.3095	1.8182	0.1	5251.7
23639	2.2171	2.0909	0.1	5232.5
23640	2.3095	2.	0.1	5222.8
23641	2.2171	2.2727	0.1	5213.9
23642	2.3095	2.1818	0.1	5200.2
23643	2.2171	2.4545	0.1	5200.4
23644	2.3095	2.3636	0.1	5183.2
23645	2.2171	2.6364	0.1	5191.4
23646	2.3095	2.5455	0.1	5171.1
23647	2.2171	2.8182	0.1	5186.1
23648	2.3095	2.7273	0.1	5163.4
23649	2.2171	3.	0.1	5184.4
23650	2.3095	2.9091	0.1	5159.6
23651	2.2171	3.1818	0.1	5186.1
23652	2.3095	3.0909	0.1	5159.6
23653	2.2171	3.3636	0.1	5191.4
23654	2.3095	3.2727	0.1	5163.4
23655	2.2171	3.5455	0.1	5200.4
23656	2.3095	3.4545	0.1	5171.1
23657	2.2171	3.7273	0.1	5213.9
23658	2.3095	3.6364	0.1	5183.2
23659	2.2171	3.9091	0.1	5232.5
23660	2.3095	3.8182	0.1	5200.2
23661	2.2171	4.0909	0.1	5256.9
23662	2.3095	4.	0.1	5222.8
23663	2.2171	4.2727	0.1	5288.2
23664	2.3095	4.1818	0.1	5251.7
23665	2.2171	4.4545	0.1	5327.1
23666	2.3095	4.3636	0.1	5287.7
23667	2.2171	4.6364	0.1	5374.4
23668	2.3095	4.5455	0.1	5331.4
23669	2.2171	4.8182	0.1	5430.6
23670	2.3095	4.7273	0.1	5383.2
23671	2.2171	5.	0.1	5495.6
23672	2.3095	4.9091	0.1	5443.4
23673	2.2171	5.1818	0.1	5569.
23674	2.3095	5.0909	0.1	5511.7
23675	2.2171	5.3636	0.1	5650.1
23676	2.3095	5.2727	0.1	5587.4
23677	2.2171	5.5455	0.1	5737.9
23678	2.3095	5.4545	0.1	5669.4
23679	2.2171	5.7273	0.1	5836.3
23680	2.3095	5.6364	0.1	5757.3
23681	2.3095	5.8182	0.1	5858.7
23682	2.2171	5.9091	0.1	5892.
23683	2.4019	0.27273	0.1	5779.5
23684	2.4943	0.18182	0.1	5796.
23685	2.4019	9.0909e-002	0.1	5834.4
23686	2.4019	0.45455	0.1	5688.6
23687	2.4943	0.36364	0.1	5703.
23688	2.4019	0.63636	0.1	5606.5
23689	2.4943	0.54545	0.1	5621.2
23690	2.4019	0.81818	0.1	5529.8
23691	2.4943	0.72727	0.1	5544.1
23692	2.4019	1.	0.1	5459.3
23693	2.4943	0.90909	0.1	5472.2
23694	2.4019	1.1818	0.1	5395.8
23695	2.4943	1.0909	0.1	5406.5
23696	2.4019	1.3636	0.1	5339.9
23697	2.4943	1.2727	0.1	5347.5
23698	2.4019	1.5455	0.1	5291.7
23699	2.4943	1.4545	0.1	5295.8
23700	2.4019	1.7273	0.1	5251.
23701	2.4943	1.6364	0.1	5251.3
23702	2.4019	1.9091	0.1	5217.4
23703	2.4943	1.8182	0.1	5213.8
23704	2.4019	2.0909	0.1	5190.4
23705	2.4943	2.	0.1	5183.
23706	2.4019	2.2727	0.1	5169.4
23707	2.4943	2.1818	0.1	5158.4
23708	2.4019	2.4545	0.1	5153.8
23709	2.4943	2.3636	0.1	5139.5
23710	2.4019	2.6364	0.1	5143.1
23711	2.4943	2.5455	0.1	5125.8
23712	2.4019	2.8182	0.1	5136.8
23713	2.4943	2.7273	0.1	5116.9
23714	2.4019	3.	0.1	5134.7
23715	2.4943	2.9091	0.1	5112.5
23716	2.4019	3.1818	0.1	5136.8
23717	2.4943	3.0909	0.1	5112.5
23718	2.4019	3.3636	0.1	5143.1
23719	2.4943	3.2727	0.1	5116.9
23720	2.4019	3.5455	0.1	5153.8
23721	2.4943	3.4545	0.1	5125.8
23722	2.4019	3.7273	0.1	5169.4
23723	2.4943	3.6364	0.1	5139.5
23724	2.4019	3.9091	0.1	5190.4
23725	2.4943	3.8182	0.1	5158.4
23726	2.4019	4.0909	0.1	5217.4
23727	2.4943	4.	0.1	5183.
23728	2.4019	4.2727	0.1	5251.
23729	2.4943	4.1818	0.1	5213.8
23730	2.4019	4.4545	0.1	5291.7
23731	2.4943	4.3636	0.1	5251.3
23732	2.4019	4.6364	0.1	5339.9
23733	2.4943	4.5455	0.1	5295.8
23734	2.4019	4.8182	0.1	5395.8
23735	2.4943	4.7273	0.1	5347.5
23736	2.4019	5.	0.1	5459.3
23737	2.4943	4.9091	0.1	5406.5
23738	2.4019	5.1818	0.1	5529.8
23739	2.4943	5.0909	0.1	5472.2
23740	2.4019	5.3636	0.1	5606.5
23741	2.4943	5.2727	0.1	5544.1
23742	2.4019	5.5455	0.1	5688.6
23743	2.4943	5.4545	0.1	5621.2
23744	2.4019	5.7273	0.1	5779.5
23745	2.4943	5.6364	0.1	5703.
23746	2.4943	5.8182	0.1	5796.
23747	2.4019	5.9091	0.1	5834.4
23748	2.5867	0.27273	0.1	5719.4
23749	2.679	0.18182	0.1	5730.9
23750	2.5867	9.0909e-002	0.1	5773.1
23751	2.5867	0.45455	0.1	5635.4
23752	2.679	0.36364	0.1	5645.6
23753	2.5867	0.63636	0.1	5558.6
23754	2.679	0.54545	0.1	5569.3
23755	2.5867	0.81818	0.1	5486.3
23756	2.679	0.72727	0.1	5497.1
23757	2.5867	1.	0.1	5419.2
23758	2.679	0.90909	0.1	5429.1
23759	2.5867	1.1818	0.1	5358.
23760	2.679	1.0909	0.1	5366.4
23761	2.5867	1.3636	0.1	5303.2
23762	2.679	1.2727	0.1	5309.4
23763	2.5867	1.5455	0.1	5255.2
23764	2.679	1.4545	0.1	5258.6
23765	2.5867	1.7273	0.1	5213.9
23766	2.679	1.6364	0.1	5214.3
23767	2.5867	1.9091	0.1	5179.2
23768	2.679	1.8182	0.1	5176.4
23769	2.5867	2.0909	0.1	5150.8
23770	2.679	2.	0.1	5144.7
23771	2.5867	2.2727	0.1	5128.3
23772	2.679	2.1818	0.1	5119.
23773	2.5867	2.4545	0.1	5111.3
23774	2.679	2.3636	0.1	5099.
23775	2.5867	2.6364	0.1	5099.5
23776	2.679	2.5455	0.1	5084.3
23777	2.5867	2.8182	0.1	5092.5
23778	2.679	2.7273	0.1	5074.7
23779	2.5867	3.	0.1	5090.2
23780	2.679	2.9091	0.1	5069.9
23781	2.5867	3.1818	0.1	5092.5
23782	2.679	3.0909	0.1	5069.9
23783	2.5867	3.3636	0.1	5099.5
23784	2.679	3.2727	0.1	5074.7
23785	2.5867	3.5455	0.1	5111.3
23786	2.679	3.4545	0.1	5084.3
23787	2.5867	3.7273	0.1	5128.3
23788	2.679	3.6364	0.1	5099.
23789	2.5867	3.9091	0.1	5150.8
23790	2.679	3.8182	0.1	5119.
23791	2.5867	4.0909	0.1	5179.2
23792	2.679	4.	0.1	5144.7
23793	2.5867	4.2727	0.1	5213.9
23794	2.679	4.1818	0.1	5176.4
23795	2.5867	4.4545	0.1	5255.2
23796	2.679	4.3636	0.1	5214.3
23797	2.5867	4.6364	0.1	5303.2
23798	2.679	4.5455	0.1	5258.6
23799	2.5867	4.8182	0.1	5358.
23800	2.679	4.7273	0.1	5309.4
23801	2.5867	5.	0.1	5419.2
23802	2.679	4.9091	0.1	5366.4
23803	2.5867	5.1818	0.1	5486.3
23804	2.679	5.0909	0.1	5429.1
23805	2.5867	5.3636	0.1	5558.6
23806	2.679	5.2727	0.1	5497.1
23807	2.5867	5.5455	0.1	5635.4
23808	2.679	5.4545	0.1	5569.3
23809	2.5867	5.7273	0.1	5719.4
23810	2.679	5.6364	0.1	5645.6
23811	2.679	5.8182	0.1	5730.9
23812	2.5867	5.9091	0.1	5773.1
23813	2.7714	0.27273	0.1	5657.
23814	2.8638	0.18182	0.1	5664.4
23815	2.7714	9.0909e-002	0.1	5709.3
23816	2.7714	0.45455	0.1	5579.4
23817	2.8638	0.36364	0.1	5585.9
23818	2.7714	0.63636	0.1	5507.7
23819	2.8638	0.54545	0.1	5515.
23820	2.7714	0.81818	0.1	5439.7
23821	2.8638	0.72727	0.1	5447.3
23822	2.7714	1.	0.1	5376.2
23823	2.8638	0.90909	0.1	5383.4
23824	2.7714	1.1818	0.1	5317.6
23825	2.8638	1.0909	0.1	5323.8
23826	2.7714	1.3636	0.1	5264.7
23827	2.8638	1.2727	0.1	5269.3
23828	2.7714	1.5455	0.1	5217.6
23829	2.8638	1.4545	0.1	5220.1
23830	2.7714	1.7273	0.1	5176.7
23831	2.8638	1.6364	0.1	5176.7
23832	2.7714	1.9091	0.1	5141.8
23833	2.8638	1.8182	0.1	5139.2
23834	2.7714	2.0909	0.1	5112.8
23835	2.8638	2.	0.1	5107.4
23836	2.7714	2.2727	0.1	5089.6
23837	2.8638	2.1818	0.1	5081.3
23838	2.7714	2.4545	0.1	5071.9
23839	2.8638	2.3636	0.1	5060.8
23840	2.7714	2.6364	0.1	5059.4
23841	2.8638	2.5455	0.1	5045.6
23842	2.7714	2.8182	0.1	5052.
23843	2.8638	2.7273	0.1	5035.6
23844	2.7714	3.	0.1	5049.6
23845	2.8638	2.9091	0.1	5030.7
23846	2.7714	3.1818	0.1	5052.
23847	2.8638	3.0909	0.1	5030.7
23848	2.7714	3.3636	0.1	5059.4
23849	2.8638	3.2727	0.1	5035.6
23850	2.7714	3.5455	0.1	5071.9
23851	2.8638	3.4545	0.1	5045.6
23852	2.7714	3.7273	0.1	5089.6
23853	2.8638	3.6364	0.1	5060.8
23854	2.7714	3.9091	0.1	5112.8
23855	2.8638	3.8182	0.1	5081.3
23856	2.7714	4.0909	0.1	5141.8
23857	2.8638	4.	0.1	5107.4
23858	2.7714	4.2727	0.1	5176.7
23859	2.8638	4.1818	0.1	5139.2
23860	2.7714	4.4545	0.1	5217.6
23861	2.8638	4.3636	0.1	5176.7
23862	2.7714	4.6364	0.1	5264.7
23863	2.8638	4.5455	0.1	5220.1
23864	2.7714	4.8182	0.1	5317.6
23865	2.8638	4.7273	0.1	5269.3
23866	2.7714	5.	0.1	5376.2
23867	2.8638	4.9091	0.1	5323.8
23868	2.7714	5.1818	0.1	5439.7
23869	2.8638	5.0909	0.1	5383.4
23870	2.7714	5.3636	0.1	5507.7
23871	2.8638	5.2727	0.1	5447.3
23872	2.7714	5.5455	0.1	5579.4
23873	2.8638	5.4545	0.1	5515.
23874	2.7714	5.7273	0.1	5657.
23875	2.8638	5.6364	0.1	5585.9
23876	2.8638	5.8182	0.1	5664.4
23877	2.7714	5.9091	0.1	5709.3
23878	2.9562	0.27273	0.1	5593.2
23879	3.0486	0.18182	0.1	5597.1
23880	2.9562	9.0909e-002	0.1	5643.9
23881	2.9562	0.45455	0.1	5521.5
23882	3.0486	0.36364	0.1	5524.9
23883	2.9562	0.63636	0.1	5454.6
23884	3.0486	0.54545	0.1	5458.9
23885	2.9562	0.81818	0.1	5390.9
23886	3.0486	0.72727	0.1	5395.7
23887	2.9562	1.	0.1	5330.9
23888	3.0486	0.90909	0.1	5335.7
23889	2.9562	1.1818	0.1	5275.3
23890	3.0486	1.0909	0.1	5279.4
23891	2.9562	1.3636	0.1	5224.6
23892	3.0486	1.2727	0.1	5227.5
23893	2.9562	1.5455	0.1	5179.1
23894	3.0486	1.4545	0.1	5180.4
23895	2.9562	1.7273	0.1	5139.1
23896	3.0486	1.6364	0.1	5138.4
23897	2.9562	1.9091	0.1	5104.7
23898	3.0486	1.8182	0.1	5101.8
23899	2.9562	2.0909	0.1	5075.8
23900	3.0486	2.	0.1	5070.5
23901	2.9562	2.2727	0.1	5052.5
23902	3.0486	2.1818	0.1	5044.7
23903	2.9562	2.4545	0.1	5034.5
23904	3.0486	2.3636	0.1	5024.1
23905	2.9562	2.6364	0.1	5021.8
23906	3.0486	2.5455	0.1	5008.8
23907	2.9562	2.8182	0.1	5014.2
23908	3.0486	2.7273	0.1	4998.7
23909	2.9562	3.	0.1	5011.7
23910	3.0486	2.9091	0.1	4993.7
23911	2.9562	3.1818	0.1	5014.2
23912	3.0486	3.0909	0.1	4993.7
23913	2.9562	3.3636	0.1	5021.8
23914	3.0486	3.2727	0.1	4998.7
23915	2.9562	3.5455	0.1	5034.5
23916	3.0486	3.4545	0.1	5008.8
23917	2.9562	3.7273	0.1	5052.5
23918	3.0486	3.6364	0.1	5024.1
23919	2.9562	3.9091	0.1	5075.8
23920	3.0486	3.8182	0.1	5044.7
23921	2.9562	4.0909	0.1	5104.7
23922	3.0486	4.	0.1	5070.5
23923	2.9562	4.2727	0.1	5139.1
23924	3.0486	4.1818	0.1	5101.8
23925	2.9562	4.4545	0.1	5179.1
23926	3.0486	4.3636	0.1	5138.4
23927	2.9562	4.6364	0.1	5224.6
23928	3.0486	4.5455	0.1	5180.4
23929	2.9562	4.8182	0.1	5275.3
23930	3.0486	4.7273	0.1	5227.5
23931	2.9562	5.	0.1	5330.9
23932	3.0486	4.9091	0.1	5279.4
23933	2.9562	5.1818	0.1	5390.9
23934	3.0486	5.0909	0.1	5335.7
23935	2.9562	5.3636	0.1	5454.6
23936	3.0486	5.2727	0.1	5395.7
23937	2.9562	5.5455	0.1	5521.5
23938	3.0486	5.4545	0.1	5458.9
23939	2.9562	5.7273	0.1	5593.2
23940	3.0486	5.6364	0.1	5524.9
23941	3.0486	5.8182	0.1	5597.1
23942	2.9562	5.9091	0.1	5643.9
23943	3.141	0.27273	0.1	5528.7
23944	3.2333	0.18182	0.1	5529.5
23945	3.141	9.0909e-002	0.1	5577.5
23946	3.141	0.45455	0.1	5462.3
23947	3.2333	0.36364	0.1	5463.1
23948	3.141	0.63636	0.1	5400.
23949	3.2333	0.54545	0.1	5401.7
23950	3.141	0.81818	0.1	5340.4
23951	3.2333	0.72727	0.1	5342.7
23952	3.141	1.	0.1	5284.1
23953	3.2333	0.90909	0.1	5286.5
23954	3.141	1.1818	0.1	5231.5
23955	3.2333	1.0909	0.1	5233.6
23956	3.141	1.3636	0.1	5183.3
23957	3.2333	1.2727	0.1	5184.5
23958	3.141	1.5455	0.1	5139.7
23959	3.2333	1.4545	0.1	5139.7
23960	3.141	1.7273	0.1	5101.1
23961	3.2333	1.6364	0.1	5099.5
23962	3.141	1.9091	0.1	5067.6
23963	3.2333	1.8182	0.1	5064.1
23964	3.141	2.0909	0.1	5039.3
23965	3.2333	2.	0.1	5033.8
23966	3.141	2.2727	0.1	5016.3
23967	3.2333	2.1818	0.1	5008.5
23968	3.141	2.4545	0.1	4998.4
23969	3.2333	2.3636	0.1	4988.3
23970	3.141	2.6364	0.1	4985.7
23971	3.2333	2.5455	0.1	4973.2
23972	3.141	2.8182	0.1	4978.1
23973	3.2333	2.7273	0.1	4963.2
23974	3.141	3.	0.1	4975.6
23975	3.2333	2.9091	0.1	4958.2
23976	3.141	3.1818	0.1	4978.1
23977	3.2333	3.0909	0.1	4958.2
23978	3.141	3.3636	0.1	4985.7
23979	3.2333	3.2727	0.1	4963.2
23980	3.141	3.5455	0.1	4998.4
23981	3.2333	3.4545	0.1	4973.2
23982	3.141	3.7273	0.1	5016.3
23983	3.2333	3.6364	0.1	4988.3
23984	3.141	3.9091	0.1	5039.3
23985	3.2333	3.8182	0.1	5008.5
23986	3.141	4.0909	0.1	5067.6
23987	3.2333	4.	0.1	5033.8
23988	3.141	4.2727	0.1	5101.1
23989	3.2333	4.1818	0.1	5064.1
23990	3.141	4.4545	0.1	5139.7
23991	3.2333	4.3636	0.1	5099.5
23992	3.141	4.6364	0.1	5183.3
23993	3.2333	4.5455	0.1	5139.7
23994	3.141	4.8182	0.1	5231.5
23995	3.2333	4.7273	0.1	5184.5
23996	3.141	5.	0.1	5284.1
23997	3.2333	4.9091	0.1	5233.6
23998	3.141	5.1818	0.1	5340.4
23999	3.2333	5.0909	0.1	5286.5
24000	3.141	5.3636	0.1	5400.
24001	3.2333	5.2727	0.1	5342.7
24002	3.141	5.5455	0.1	5462.3
24003	3.2333	5.4545	0.1	5401.7
24004	3.141	5.7273	0.1	5528.7
24005	3.2333	5.6364	0.1	5463.1
24006	3.2333	5.8182	0.1	5529.5
24007	3.141	5.9091	0.1	5577.5
24008	3.3257	0.27273	0.1	5463.9
24009	3.4181	0.18182	0.1	5462.
24010	3.3257	9.0909e-002	0.1	5510.6
24011	3.3257	0.45455	0.1	5402.4
24012	3.4181	0.36364	0.1	5400.8
24013	3.3257	0.63636	0.1	5344.4
24014	3.4181	0.54545	0.1	5343.7
24015	3.3257	0.81818	0.1	5288.7
24016	3.4181	0.72727	0.1	5288.8
24017	3.3257	1.	0.1	5235.9
24018	3.4181	0.90909	0.1	5236.2
24019	3.3257	1.1818	0.1	5186.5
24020	3.4181	1.0909	0.1	5186.6
24021	3.3257	1.3636	0.1	5140.8
24022	3.4181	1.2727	0.1	5140.4
24023	3.3257	1.5455	0.1	5099.4
24024	3.4181	1.4545	0.1	5098.
24025	3.3257	1.7273	0.1	5062.5
24026	3.4181	1.6364	0.1	5059.8
24027	3.3257	1.9091	0.1	5030.2
24028	3.4181	1.8182	0.1	5026.
24029	3.3257	2.0909	0.1	5002.9
24030	3.4181	2.	0.1	4996.8
24031	3.3257	2.2727	0.1	4980.5
24032	3.4181	2.1818	0.1	4972.4
24033	3.3257	2.4545	0.1	4963.1
24034	3.4181	2.3636	0.1	4952.9
24035	3.3257	2.6364	0.1	4950.6
24036	3.4181	2.5455	0.1	4938.2
24037	3.3257	2.8182	0.1	4943.2
24038	3.4181	2.7273	0.1	4928.4
24039	3.3257	3.	0.1	4940.7
24040	3.4181	2.9091	0.1	4923.5
24041	3.3257	3.1818	0.1	4943.2
24042	3.4181	3.0909	0.1	4923.5
24043	3.3257	3.3636	0.1	4950.6
24044	3.4181	3.2727	0.1	4928.4
24045	3.3257	3.5455	0.1	4963.1
24046	3.4181	3.4545	0.1	4938.2
24047	3.3257	3.7273	0.1	4980.5
24048	3.4181	3.6364	0.1	4952.9
24049	3.3257	3.9091	0.1	5002.9
24050	3.4181	3.8182	0.1	4972.4
24051	3.3257	4.0909	0.1	5030.2
24052	3.4181	4.	0.1	4996.8
24053	3.3257	4.2727	0.1	5062.5
24054	3.4181	4.1818	0.1	5026.
24055	3.3257	4.4545	0.1	5099.4
24056	3.4181	4.3636	0.1	5059.8
24057	3.3257	4.6364	0.1	5140.8
24058	3.4181	4.5455	0.1	5098.
24059	3.3257	4.8182	0.1	5186.5
24060	3.4181	4.7273	0.1	5140.4
24061	3.3257	5.	0.1	5235.9
24062	3.4181	4.9091	0.1	5186.6
24063	3.3257	5.1818	0.1	5288.7
24064	3.4181	5.0909	0.1	5236.2
24065	3.3257	5.3636	0.1	5344.4
24066	3.4181	5.2727	0.1	5288.8
24067	3.3257	5.5455	0.1	5402.4
24068	3.4181	5.4545	0.1	5343.7
24069	3.3257	5.7273	0.1	5463.9
24070	3.4181	5.6364	0.1	5400.8
24071	3.4181	5.8182	0.1	5462.
24072	3.3257	5.9091	0.1	5510.6
24073	3.5105	0.27273	0.1	5399.
24074	3.6029	0.18182	0.1	5394.9
24075	3.5105	9.0909e-002	0.1	5443.7
24076	3.5105	0.45455	0.1	5342.1
24077	3.6029	0.36364	0.1	5338.4
24078	3.5105	0.63636	0.1	5288.1
24079	3.6029	0.54545	0.1	5285.4
24080	3.5105	0.81818	0.1	5236.2
24081	3.6029	0.72727	0.1	5234.2
24082	3.5105	1.	0.1	5186.8
24083	3.6029	0.90909	0.1	5185.2
24084	3.5105	1.1818	0.1	5140.5
24085	3.6029	1.0909	0.1	5138.7
24086	3.5105	1.3636	0.1	5097.5
24087	3.6029	1.2727	0.1	5095.4
24088	3.5105	1.5455	0.1	5058.3
24089	3.6029	1.4545	0.1	5055.5
24090	3.5105	1.7273	0.1	5023.2
24091	3.6029	1.6364	0.1	5019.3
24092	3.5105	1.9091	0.1	4992.5
24093	3.6029	1.8182	0.1	4987.3
24094	3.5105	2.0909	0.1	4966.3
24095	3.6029	2.	0.1	4959.5
24096	3.5105	2.2727	0.1	4944.8
24097	3.6029	2.1818	0.1	4936.2
24098	3.5105	2.4545	0.1	4928.
24099	3.6029	2.3636	0.1	4917.5
24100	3.5105	2.6364	0.1	4915.9
24101	3.6029	2.5455	0.1	4903.3
24102	3.5105	2.8182	0.1	4908.7
24103	3.6029	2.7273	0.1	4893.9
24104	3.5105	3.	0.1	4906.3
24105	3.6029	2.9091	0.1	4889.2
24106	3.5105	3.1818	0.1	4908.7
24107	3.6029	3.0909	0.1	4889.2
24108	3.5105	3.3636	0.1	4915.9
24109	3.6029	3.2727	0.1	4893.9
24110	3.5105	3.5455	0.1	4928.
24111	3.6029	3.4545	0.1	4903.3
24112	3.5105	3.7273	0.1	4944.8
24113	3.6029	3.6364	0.1	4917.5
24114	3.5105	3.9091	0.1	4966.3
24115	3.6029	3.8182	0.1	4936.2
24116	3.5105	4.0909	0.1	4992.5
24117	3.6029	4.	0.1	4959.5
24118	3.5105	4.2727	0.1	5023.2
24119	3.6029	4.1818	0.1	4987.3
24120	3.5105	4.4545	0.1	5058.3
24121	3.6029	4.3636	0.1	5019.3
24122	3.5105	4.6364	0.1	5097.5
24123	3.6029	4.5455	0.1	5055.5
24124	3.5105	4.8182	0.1	5140.5
24125	3.6029	4.7273	0.1	5095.4
24126	3.5105	5.	0.1	5186.8
24127	3.6029	4.9091	0.1	5138.7
24128	3.5105	5.1818	0.1	5236.2
24129	3.6029	5.0909	0.1	5185.2
24130	3.5105	5.3636	0.1	5288.1
24131	3.6029	5.2727	0.1	5234.2
24132	3.5105	5.5455	0.1	5342.1
24133	3.6029	5.4545	0.1	5285.4
24134	3.5105	5.7273	0.1	5399.
24135	3.6029	5.6364	0.1	5338.4
24136	3.6029	5.8182	0.1	5394.9
24137	3.5105	5.9091	0.1	5443.7
24138	3.6952	0.27273	0.1	5334.3
24139	3.7876	0.18182	0.1	5328.1
24140	3.6952	9.0909e-002	0.1	5376.8
24141	3.6952	0.45455	0.1	5281.6
24142	3.7876	0.36364	0.1	5276.1
24143	3.6952	0.63636	0.1	5231.4
24144	3.7876	0.54545	0.1	5226.8
24145	3.6952	0.81818	0.1	5183.1
24146	3.7876	0.72727	0.1	5179.2
24147	3.6952	1.	0.1	5137.
24148	3.7876	0.90909	0.1	5133.5
24149	3.6952	1.1818	0.1	5093.7
24150	3.7876	1.0909	0.1	5090.2
24151	3.6952	1.3636	0.1	5053.3
24152	3.7876	1.2727	0.1	5049.7
24153	3.6952	1.5455	0.1	5016.5
24154	3.7876	1.4545	0.1	5012.2
24155	3.6952	1.7273	0.1	4983.4
24156	3.7876	1.6364	0.1	4978.2
24157	3.6952	1.9091	0.1	4954.3
24158	3.7876	1.8182	0.1	4948.
24159	3.6952	2.0909	0.1	4929.4
24160	3.7876	2.	0.1	4921.7
24161	3.6952	2.2727	0.1	4908.9
24162	3.7876	2.1818	0.1	4899.6
24163	3.6952	2.4545	0.1	4892.8
24164	3.7876	2.3636	0.1	4881.7
24165	3.6952	2.6364	0.1	4881.3
24166	3.7876	2.5455	0.1	4868.3
24167	3.6952	2.8182	0.1	4874.3
24168	3.7876	2.7273	0.1	4859.3
24169	3.6952	3.	0.1	4872.
24170	3.7876	2.9091	0.1	4854.8
24171	3.6952	3.1818	0.1	4874.3
24172	3.7876	3.0909	0.1	4854.8
24173	3.6952	3.3636	0.1	4881.3
24174	3.7876	3.2727	0.1	4859.3
24175	3.6952	3.5455	0.1	4892.8
24176	3.7876	3.4545	0.1	4868.3
24177	3.6952	3.7273	0.1	4908.9
24178	3.7876	3.6364	0.1	4881.7
24179	3.6952	3.9091	0.1	4929.4
24180	3.7876	3.8182	0.1	4899.6
24181	3.6952	4.0909	0.1	4954.3
24182	3.7876	4.	0.1	4921.7
24183	3.6952	4.2727	0.1	4983.4
24184	3.7876	4.1818	0.1	4948.
24185	3.6952	4.4545	0.1	5016.5
24186	3.7876	4.3636	0.1	4978.2
24187	3.6952	4.6364	0.1	5053.3
24188	3.7876	4.5455	0.1	5012.2
24189	3.6952	4.8182	0.1	5093.7
24190	3.7876	4.7273	0.1	5049.7
24191	3.6952	5.	0.1	5137.
24192	3.7876	4.9091	0.1	5090.2
24193	3.6952	5.1818	0.1	5183.1
24194	3.7876	5.0909	0.1	5133.5
24195	3.6952	5.3636	0.1	5231.4
24196	3.7876	5.2727	0.1	5179.2
24197	3.6952	5.5455	0.1	5281.6
24198	3.7876	5.4545	0.1	5226.8
24199	3.6952	5.7273	0.1	5334.3
24200	3.7876	5.6364	0.1	5276.1
24201	3.7876	5.8182	0.1	5328.1
24202	3.6952	5.9091	0.1	5376.8
24203	3.88	0.27273	0.1	5269.9
24204	3.9724	0.18182	0.1	5262.
24205	3.88	9.0909e-002	0.1	5310.3
24206	3.88	0.45455	0.1	5221.2
24207	3.9724	0.36364	0.1	5214.
24208	3.88	0.63636	0.1	5174.6
24209	3.9724	0.54545	0.1	5168.3
24210	3.88	0.81818	0.1	5129.6
24211	3.9724	0.72727	0.1	5124.
24212	3.88	1.	0.1	5086.7
24213	3.9724	0.90909	0.1	5081.5
24214	3.88	1.1818	0.1	5046.2
24215	3.9724	1.0909	0.1	5041.1
24216	3.88	1.3636	0.1	5008.5
24217	3.9724	1.2727	0.1	5003.3
24218	3.88	1.5455	0.1	4974.
24219	3.9724	1.4545	0.1	4968.3
24220	3.88	1.7273	0.1	4942.8
24221	3.9724	1.6364	0.1	4936.4
24222	3.88	1.9091	0.1	4915.4
24223	3.9724	1.8182	0.1	4908.
24224	3.88	2.0909	0.1	4891.9
24225	3.9724	2.	0.1	4883.3
24226	3.88	2.2727	0.1	4872.5
24227	3.9724	2.1818	0.1	4862.4
24228	3.88	2.4545	0.1	4857.2
24229	3.9724	2.3636	0.1	4845.6
24230	3.88	2.6364	0.1	4846.3
24231	3.9724	2.5455	0.1	4832.8
24232	3.88	2.8182	0.1	4839.7
24233	3.9724	2.7273	0.1	4824.3
24234	3.88	3.	0.1	4837.5
24235	3.9724	2.9091	0.1	4820.
24236	3.88	3.1818	0.1	4839.7
24237	3.9724	3.0909	0.1	4820.
24238	3.88	3.3636	0.1	4846.3
24239	3.9724	3.2727	0.1	4824.3
24240	3.88	3.5455	0.1	4857.2
24241	3.9724	3.4545	0.1	4832.8
24242	3.88	3.7273	0.1	4872.5
24243	3.9724	3.6364	0.1	4845.6
24244	3.88	3.9091	0.1	4891.9
24245	3.9724	3.8182	0.1	4862.4
24246	3.88	4.0909	0.1	4915.4
24247	3.9724	4.	0.1	4883.3
24248	3.88	4.2727	0.1	4942.8
24249	3.9724	4.1818	0.1	4908.
24250	3.88	4.4545	0.1	4974.
24251	3.9724	4.3636	0.1	4936.4
24252	3.88	4.6364	0.1	5008.5
24253	3.9724	4.5455	0.1	4968.3
24254	3.88	4.8182	0.1	5046.2
24255	3.9724	4.7273	0.1	5003.3
24256	3.88	5.	0.1	5086.7
24257	3.9724	4.9091	0.1	5041.1
24258	3.88	5.1818	0.1	5129.6
24259	3.9724	5.0909	0.1	5081.5
24260	3.88	5.3636	0.1	5174.6
24261	3.9724	5.2727	0.1	5124.
24262	3.88	5.5455	0.1	5221.2
24263	3.9724	5.4545	0.1	5168.3
24264	3.88	5.7273	0.1	5269.9
24265	3.9724	5.6364	0.1	5214.
24266	3.9724	5.8182	0.1	5262.
24267	3.88	5.9091	0.1	5310.3
24268	4.0648	0.27273	0.1	5206.
24269	4.1571	0.18182	0.1	5196.5
24270	4.0648	9.0909e-002	0.1	5244.2
24271	4.0648	0.45455	0.1	5161.
24272	4.1571	0.36364	0.1	5152.2
24273	4.0648	0.63636	0.1	5117.7
24274	4.1571	0.54545	0.1	5109.8
24275	4.0648	0.81818	0.1	5075.9
24276	4.1571	0.72727	0.1	5068.7
24277	4.0648	1.	0.1	5035.9
24278	4.1571	0.90909	0.1	5029.2
24279	4.0648	1.1818	0.1	4998.2
24280	4.1571	1.0909	0.1	4991.6
24281	4.0648	1.3636	0.1	4963.
24282	4.1571	1.2727	0.1	4956.4
24283	4.0648	1.5455	0.1	4930.8
24284	4.1571	1.4545	0.1	4923.7
24285	4.0648	1.7273	0.1	4901.6
24286	4.1571	1.6364	0.1	4894.
24287	4.0648	1.9091	0.1	4875.9
24288	4.1571	1.8182	0.1	4867.4
24289	4.0648	2.0909	0.1	4853.8
24290	4.1571	2.	0.1	4844.2
24291	4.0648	2.2727	0.1	4835.5
24292	4.1571	2.1818	0.1	4824.6
24293	4.0648	2.4545	0.1	4821.1
24294	4.1571	2.3636	0.1	4808.7
24295	4.0648	2.6364	0.1	4810.8
24296	4.1571	2.5455	0.1	4796.8
24297	4.0648	2.8182	0.1	4804.6
24298	4.1571	2.7273	0.1	4788.7
24299	4.0648	3.	0.1	4802.5
24300	4.1571	2.9091	0.1	4784.7
24301	4.0648	3.1818	0.1	4804.6
24302	4.1571	3.0909	0.1	4784.7
24303	4.0648	3.3636	0.1	4810.8
24304	4.1571	3.2727	0.1	4788.7
24305	4.0648	3.5455	0.1	4821.1
24306	4.1571	3.4545	0.1	4796.8
24307	4.0648	3.7273	0.1	4835.5
24308	4.1571	3.6364	0.1	4808.7
24309	4.0648	3.9091	0.1	4853.8
24310	4.1571	3.8182	0.1	4824.6
24311	4.0648	4.0909	0.1	4875.9
24312	4.1571	4.	0.1	4844.2
24313	4.0648	4.2727	0.1	4901.6
24314	4.1571	4.1818	0.1	4867.4
24315	4.0648	4.4545	0.1	4930.8
24316	4.1571	4.3636	0.1	4894.
24317	4.0648	4.6364	0.1	4963.
24318	4.1571	4.5455	0.1	4923.7
24319	4.0648	4.8182	0.1	4998.2
24320	4.1571	4.7273	0.1	4956.4
24321	4.0648	5.	0.1	5035.9
24322	4.1571	4.9091	0.1	4991.6
24323	4.0648	5.1818	0.1	5075.9
24324	4.1571	5.0909	0.1	5029.2
24325	4.0648	5.3636	0.1	5117.7
24326	4.1571	5.2727	0.1	5068.7
24327	4.0648	5.5455	0.1	5161.
24328	4.1571	5.4545	0.1	5109.8
24329	4.0648	5.7273	0.1	5206.
24330	4.1571	5.6364	0.1	5152.2
24331	4.1571	5.8182	0.1	5196.5
24332	4.0648	5.9091	0.1	5244.2
24333	4.2495	0.27273	0.1	5142.7
24334	4.3419	0.18182	0.1	5131.7
24335	4.2495	9.0909e-002	0.1	5178.7
24336	4.2495	0.45455	0.1	5101.
24337	4.3419	0.36364	0.1	5090.8
24338	4.2495	0.63636	0.1	5060.8
24339	4.3419	0.54545	0.1	5051.4
24340	4.2495	0.81818	0.1	5022.
24341	4.3419	0.72727	0.1	5013.3
24342	4.2495	1.	0.1	4984.9
24343	4.3419	0.90909	0.1	4976.6
24344	4.2495	1.1818	0.1	4949.8
24345	4.3419	1.0909	0.1	4941.7
24346	4.2495	1.3636	0.1	4917.
24347	4.3419	1.2727	0.1	4908.9
24348	4.2495	1.5455	0.1	4886.9
24349	4.3419	1.4545	0.1	4878.5
24350	4.2495	1.7273	0.1	4859.7
24351	4.3419	1.6364	0.1	4850.8
24352	4.2495	1.9091	0.1	4835.7
24353	4.3419	1.8182	0.1	4826.
24354	4.2495	2.0909	0.1	4815.
24355	4.3419	2.	0.1	4804.4
24356	4.2495	2.2727	0.1	4797.8
24357	4.3419	2.1818	0.1	4786.
24358	4.2495	2.4545	0.1	4784.4
24359	4.3419	2.3636	0.1	4771.2
24360	4.2495	2.6364	0.1	4774.7
24361	4.3419	2.5455	0.1	4760.
24362	4.2495	2.8182	0.1	4768.8
24363	4.3419	2.7273	0.1	4752.4
24364	4.2495	3.	0.1	4766.9
24365	4.3419	2.9091	0.1	4748.6
24366	4.2495	3.1818	0.1	4768.8
24367	4.3419	3.0909	0.1	4748.6
24368	4.2495	3.3636	0.1	4774.7
24369	4.3419	3.2727	0.1	4752.4
24370	4.2495	3.5455	0.1	4784.4
24371	4.3419	3.4545	0.1	4760.
24372	4.2495	3.7273	0.1	4797.8
24373	4.3419	3.6364	0.1	4771.2
24374	4.2495	3.9091	0.1	4815.
24375	4.3419	3.8182	0.1	4786.
24376	4.2495	4.0909	0.1	4835.7
24377	4.3419	4.	0.1	4804.4
24378	4.2495	4.2727	0.1	4859.7
24379	4.3419	4.1818	0.1	4826.
24380	4.2495	4.4545	0.1	4886.9
24381	4.3419	4.3636	0.1	4850.8
24382	4.2495	4.6364	0.1	4917.
24383	4.3419	4.5455	0.1	4878.5
24384	4.2495	4.8182	0.1	4949.8
24385	4.3419	4.7273	0.1	4908.9
24386	4.2495	5.	0.1	4984.9
24387	4.3419	4.9091	0.1	4941.7
24388	4.2495	5.1818	0.1	5022.
24389	4.3419	5.0909	0.1	4976.6
24390	4.2495	5.3636	0.1	5060.8
24391	4.3419	5.2727	0.1	5013.3
24392	4.2495	5.5455	0.1	5101.
24393	4.3419	5.4545	0.1	5051.4
24394	4.2495	5.7273	0.1	5142.7
24395	4.3419	5.6364	0.1	5090.8
24396	4.3419	5.8182	0.1	5131.7
24397	4.2495	5.9091	0.1	5178.7
24398	4.4343	0.27273	0.1	5079.9
24399	4.5267	0.18182	0.1	5067.7
24400	4.4343	9.0909e-002	0.1	5113.7
24401	4.4343	0.45455	0.1	5041.3
24402	4.5267	0.36364	0.1	5029.8
24403	4.4343	0.63636	0.1	5004.
24404	4.5267	0.54545	0.1	4993.3
24405	4.4343	0.81818	0.1	4968.
24406	4.5267	0.72727	0.1	4958.
24407	4.4343	1.	0.1	4933.5
24408	4.5267	0.90909	0.1	4923.9
24409	4.4343	1.1818	0.1	4900.9
24410	4.5267	1.0909	0.1	4891.6
24411	4.4343	1.3636	0.1	4870.5
24412	4.5267	1.2727	0.1	4861.1
24413	4.4343	1.5455	0.1	4842.5
24414	4.5267	1.4545	0.1	4832.8
24415	4.4343	1.7273	0.1	4817.1
24416	4.5267	1.6364	0.1	4807.1
24417	4.4343	1.9091	0.1	4794.7
24418	4.5267	1.8182	0.1	4784.
24419	4.4343	2.0909	0.1	4775.4
24420	4.5267	2.	0.1	4763.8
24421	4.4343	2.2727	0.1	4759.4
24422	4.5267	2.1818	0.1	4746.7
24423	4.4343	2.4545	0.1	4746.8
24424	4.5267	2.3636	0.1	4732.9
24425	4.4343	2.6364	0.1	4737.7
24426	4.5267	2.5455	0.1	4722.4
24427	4.4343	2.8182	0.1	4732.3
24428	4.5267	2.7273	0.1	4715.3
24429	4.4343	3.	0.1	4730.4
24430	4.5267	2.9091	0.1	4711.8
24431	4.4343	3.1818	0.1	4732.3
24432	4.5267	3.0909	0.1	4711.8
24433	4.4343	3.3636	0.1	4737.7
24434	4.5267	3.2727	0.1	4715.3
24435	4.4343	3.5455	0.1	4746.8
24436	4.5267	3.4545	0.1	4722.4
24437	4.4343	3.7273	0.1	4759.4
24438	4.5267	3.6364	0.1	4732.9
24439	4.4343	3.9091	0.1	4775.4
24440	4.5267	3.8182	0.1	4746.7
24441	4.4343	4.0909	0.1	4794.7
24442	4.5267	4.	0.1	4763.8
24443	4.4343	4.2727	0.1	4817.1
24444	4.5267	4.1818	0.1	4784.
24445	4.4343	4.4545	0.1	4842.5
24446	4.5267	4.3636	0.1	4807.1
24447	4.4343	4.6364	0.1	4870.5
24448	4.5267	4.5455	0.1	4832.8
24449	4.4343	4.8182	0.1	4900.9
24450	4.5267	4.7273	0.1	4861.1
24451	4.4343	5.	0.1	4933.5
24452	4.5267	4.9091	0.1	4891.6
24453	4.4343	5.1818	0.1	4968.
24454	4.5267	5.0909	0.1	4923.9
24455	4.4343	5.3636	0.1	5004.
24456	4.5267	5.2727	0.1	4958.
24457	4.4343	5.5455	0.1	5041.3
24458	4.5267	5.4545	0.1	4993.3
24459	4.4343	5.7273	0.1	5079.9
24460	4.5267	5.6364	0.1	5029.8
24461	4.5267	5.8182	0.1	5067.7
24462	4.4343	5.9091	0.1	5113.7
24463	4.619	0.27273	0.1	5017.6
24464	4.7114	0.18182	0.1	5004.3
24465	4.619	9.0909e-002	0.1	5049.3
24466	4.619	0.45455	0.1	4981.9
24467	4.7114	0.36364	0.1	4969.3
24468	4.619	0.63636	0.1	4947.3
24469	4.7114	0.54545	0.1	4935.5
24470	4.619	0.81818	0.1	4913.9
24471	4.7114	0.72727	0.1	4902.7
24472	4.619	1.	0.1	4882.
24473	4.7114	0.90909	0.1	4871.1
24474	4.619	1.1818	0.1	4851.7
24475	4.7114	1.0909	0.1	4841.1
24476	4.619	1.3636	0.1	4823.5
24477	4.7114	1.2727	0.1	4812.8
24478	4.619	1.5455	0.1	4797.4
24479	4.7114	1.4545	0.1	4786.6
24480	4.619	1.7273	0.1	4773.9
24481	4.7114	1.6364	0.1	4762.7
24482	4.619	1.9091	0.1	4753.1
24483	4.7114	1.8182	0.1	4741.2
24484	4.619	2.0909	0.1	4735.1
24485	4.7114	2.	0.1	4722.5
24486	4.619	2.2727	0.1	4720.2
24487	4.7114	2.1818	0.1	4706.6
24488	4.619	2.4545	0.1	4708.4
24489	4.7114	2.3636	0.1	4693.7
24490	4.619	2.6364	0.1	4700.
24491	4.7114	2.5455	0.1	4683.9
24492	4.619	2.8182	0.1	4694.9
24493	4.7114	2.7273	0.1	4677.4
24494	4.619	3.	0.1	4693.2
24495	4.7114	2.9091	0.1	4674.1
24496	4.619	3.1818	0.1	4694.9
24497	4.7114	3.0909	0.1	4674.1
24498	4.619	3.3636	0.1	4700.
24499	4.7114	3.2727	0.1	4677.4
24500	4.619	3.5455	0.1	4708.4
24501	4.7114	3.4545	0.1	4683.9
24502	4.619	3.7273	0.1	4720.2
24503	4.7114	3.6364	0.1	4693.7
24504	4.619	3.9091	0.1	4735.1
24505	4.7114	3.8182	0.1	4706.6
24506	4.619	4.0909	0.1	4753.1
24507	4.7114	4.	0.1	4722.5
24508	4.619	4.2727	0.1	4773.9
24509	4.7114	4.1818	0.1	4741.2
24510	4.619	4.4545	0.1	4797.4
24511	4.7114	4.3636	0.1	4762.7
24512	4.619	4.6364	0.1	4823.5
24513	4.7114	4.5455	0.1	4786.6
24514	4.619	4.8182	0.1	4851.7
24515	4.7114	4.7273	0.1	4812.8
24516	4.619	5.	0.1	4882.
24517	4.7114	4.9091	0.1	4841.1
24518	4.619	5.1818	0.1	4913.9
24519	4.7114	5.0909	0.1	4871.1
24520	4.619	5.3636	0.1	4947.3
24521	4.7114	5.2727	0.1	4902.7
24522	4.619	5.5455	0.1	4981.9
24523	4.7114	5.4545	0.1	4935.5
24524	4.619	5.7273	0.1	5017.6
24525	4.7114	5.6364	0.1	4969.3
24526	4.7114	5.8182	0.1	5004.3
24527	4.619	5.9091	0.1	5049.3
24528	4.8038	0.27273	0.1	4955.9
24529	4.8962	0.18182	0.1	4941.5
24530	4.8038	9.0909e-002	0.1	4985.6
24531	4.8038	0.45455	0.1	4922.8
24532	4.8962	0.36364	0.1	4909.2
24533	4.8038	0.63636	0.1	4890.8
24534	4.8962	0.54545	0.1	4877.9
24535	4.8038	0.81818	0.1	4859.9
24536	4.8962	0.72727	0.1	4847.5
24537	4.8038	1.	0.1	4830.3
24538	4.8962	0.90909	0.1	4818.3
24539	4.8038	1.1818	0.1	4802.2
24540	4.8962	1.0909	0.1	4790.4
24541	4.8038	1.3636	0.1	4776.
24542	4.8962	1.2727	0.1	4764.2
24543	4.8038	1.5455	0.1	4751.9
24544	4.8962	1.4545	0.1	4739.9
24545	4.8038	1.7273	0.1	4730.
24546	4.8962	1.6364	0.1	4717.7
24547	4.8038	1.9091	0.1	4710.7
24548	4.8962	1.8182	0.1	4697.8
24549	4.8038	2.0909	0.1	4694.
24550	4.8962	2.	0.1	4680.4
24551	4.8038	2.2727	0.1	4680.1
24552	4.8962	2.1818	0.1	4665.7
24553	4.8038	2.4545	0.1	4669.2
24554	4.8962	2.3636	0.1	4653.7
24555	4.8038	2.6364	0.1	4661.3
24556	4.8962	2.5455	0.1	4644.6
24557	4.8038	2.8182	0.1	4656.6
24558	4.8962	2.7273	0.1	4638.5
24559	4.8038	3.	0.1	4655.
24560	4.8962	2.9091	0.1	4635.4
24561	4.8038	3.1818	0.1	4656.6
24562	4.8962	3.0909	0.1	4635.4
24563	4.8038	3.3636	0.1	4661.3
24564	4.8962	3.2727	0.1	4638.5
24565	4.8038	3.5455	0.1	4669.2
24566	4.8962	3.4545	0.1	4644.6
24567	4.8038	3.7273	0.1	4680.1
24568	4.8962	3.6364	0.1	4653.7
24569	4.8038	3.9091	0.1	4694.
24570	4.8962	3.8182	0.1	4665.7
24571	4.8038	4.0909	0.1	4710.7
24572	4.8962	4.	0.1	4680.4
24573	4.8038	4.2727	0.1	4730.
24574	4.8962	4.1818	0.1	4697.8
24575	4.8038	4.4545	0.1	4751.9
24576	4.8962	4.3636	0.1	4717.7
24577	4.8038	4.6364	0.1	4776.
24578	4.8962	4.5455	0.1	4739.9
24579	4.8038	4.8182	0.1	4802.2
24580	4.8962	4.7273	0.1	4764.2
24581	4.8038	5.	0.1	4830.3
24582	4.8962	4.9091	0.1	4790.4
24583	4.8038	5.1818	0.1	4859.9
24584	4.8962	5.0909	0.1	4818.3
24585	4.8038	5.3636	0.1	4890.8
24586	4.8962	5.2727	0.1	4847.5
24587	4.8038	5.5455	0.1	4922.8
24588	4.8962	5.4545	0.1	4877.9
24589	4.8038	5.7273	0.1	4955.9
24590	4.8962	5.6364	0.1	4909.2
24591	4.8962	5.8182	0.1	4941.5
24592	4.8038	5.9091	0.1	4985.6
24593	4.9886	0.27273	0.1	4894.8
24594	5.081	0.18182	0.1	4879.5
24595	4.9886	9.0909e-002	0.1	4922.4
24596	4.9886	0.45455	0.1	4864.2
24597	5.081	0.36364	0.1	4849.5
24598	4.9886	0.63636	0.1	4834.5
24599	5.081	0.54545	0.1	4820.5
24600	4.9886	0.81818	0.1	4805.8
24601	5.081	0.72727	0.1	4792.4
24602	4.9886	1.	0.1	4778.4
24603	5.081	0.90909	0.1	4765.3
24604	4.9886	1.1818	0.1	4752.4
24605	5.081	1.0909	0.1	4739.5
24606	4.9886	1.3636	0.1	4728.1
24607	5.081	1.2727	0.1	4715.3
24608	4.9886	1.5455	0.1	4705.8
24609	5.081	1.4545	0.1	4692.8
24610	4.9886	1.7273	0.1	4685.5
24611	5.081	1.6364	0.1	4672.2
24612	4.9886	1.9091	0.1	4667.6
24613	5.081	1.8182	0.1	4653.8
24614	4.9886	2.0909	0.1	4652.1
24615	5.081	2.	0.1	4637.6
24616	4.9886	2.2727	0.1	4639.2
24617	5.081	2.1818	0.1	4623.9
24618	4.9886	2.4545	0.1	4629.1
24619	5.081	2.3636	0.1	4612.8
24620	4.9886	2.6364	0.1	4621.8
24621	5.081	2.5455	0.1	4604.4
24622	4.9886	2.8182	0.1	4617.4
24623	5.081	2.7273	0.1	4598.8
24624	4.9886	3.	0.1	4615.9
24625	5.081	2.9091	0.1	4595.9
24626	4.9886	3.1818	0.1	4617.4
24627	5.081	3.0909	0.1	4595.9
24628	4.9886	3.3636	0.1	4621.8
24629	5.081	3.2727	0.1	4598.8
24630	4.9886	3.5455	0.1	4629.1
24631	5.081	3.4545	0.1	4604.4
24632	4.9886	3.7273	0.1	4639.2
24633	5.081	3.6364	0.1	4612.8
24634	4.9886	3.9091	0.1	4652.1
24635	5.081	3.8182	0.1	4623.9
24636	4.9886	4.0909	0.1	4667.6
24637	5.081	4.	0.1	4637.6
24638	4.9886	4.2727	0.1	4685.5
24639	5.081	4.1818	0.1	4653.8
24640	4.9886	4.4545	0.1	4705.8
24641	5.081	4.3636	0.1	4672.2
24642	4.9886	4.6364	0.1	4728.1
24643	5.081	4.5455	0.1	4692.8
24644	4.9886	4.8182	0.1	4752.4
24645	5.081	4.7273	0.1	4715.3
24646	4.9886	5.	0.1	4778.4
24647	5.081	4.9091	0.1	4739.5
24648	4.9886	5.1818	0.1	4805.8
24649	5.081	5.0909	0.1	4765.3
24650	4.9886	5.3636	0.1	4834.5
24651	5.081	5.2727	0.1	4792.4
24652	4.9886	5.5455	0.1	4864.2
24653	5.081	5.4545	0.1	4820.5
24654	4.9886	5.7273	0.1	4894.8
24655	5.081	5.6364	0.1	4849.5
24656	5.081	5.8182	0.1	4879.5
24657	4.9886	5.9091	0.1	4922.4
24658	5.1733	0.27273	0.1	4834.2
24659	5.2657	0.18182	0.1	4818.
24660	5.1733	9.0909e-002	0.1	4859.9
24661	5.1733	0.45455	0.1	4805.9
24662	5.2657	0.36364	0.1	4790.3
24663	5.1733	0.63636	0.1	4778.4
24664	5.2657	0.54545	0.1	4763.5
24665	5.1733	0.81818	0.1	4751.8
24666	5.2657	0.72727	0.1	4737.4
24667	5.1733	1.	0.1	4726.4
24668	5.2657	0.90909	0.1	4712.3
24669	5.1733	1.1818	0.1	4702.4
24670	5.2657	1.0909	0.1	4688.5
24671	5.1733	1.3636	0.1	4679.9
24672	5.2657	1.2727	0.1	4666.
24673	5.1733	1.5455	0.1	4659.2
24674	5.2657	1.4545	0.1	4645.2
24675	5.1733	1.7273	0.1	4640.4
24676	5.2657	1.6364	0.1	4626.2
24677	5.1733	1.9091	0.1	4623.8
24678	5.2657	1.8182	0.1	4609.1
24679	5.1733	2.0909	0.1	4609.5
24680	5.2657	2.	0.1	4594.2
24681	5.1733	2.2727	0.1	4597.6
24682	5.2657	2.1818	0.1	4581.5
24683	5.1733	2.4545	0.1	4588.2
24684	5.2657	2.3636	0.1	4571.2
24685	5.1733	2.6364	0.1	4581.4
24686	5.2657	2.5455	0.1	4563.4
24687	5.1733	2.8182	0.1	4577.3
24688	5.2657	2.7273	0.1	4558.2
24689	5.1733	3.	0.1	4576.
24690	5.2657	2.9091	0.1	4555.5
24691	5.1733	3.1818	0.1	4577.3
24692	5.2657	3.0909	0.1	4555.5
24693	5.1733	3.3636	0.1	4581.4
24694	5.2657	3.2727	0.1	4558.2
24695	5.1733	3.5455	0.1	4588.2
24696	5.2657	3.4545	0.1	4563.4
24697	5.1733	3.7273	0.1	4597.6
24698	5.2657	3.6364	0.1	4571.2
24699	5.1733	3.9091	0.1	4609.5
24700	5.2657	3.8182	0.1	4581.5
24701	5.1733	4.0909	0.1	4623.8
24702	5.2657	4.	0.1	4594.2
24703	5.1733	4.2727	0.1	4640.4
24704	5.2657	4.1818	0.1	4609.1
24705	5.1733	4.4545	0.1	4659.2
24706	5.2657	4.3636	0.1	4626.2
24707	5.1733	4.6364	0.1	4679.9
24708	5.2657	4.5455	0.1	4645.2
24709	5.1733	4.8182	0.1	4702.4
24710	5.2657	4.7273	0.1	4666.
24711	5.1733	5.	0.1	4726.4
24712	5.2657	4.9091	0.1	4688.5
24713	5.1733	5.1818	0.1	4751.8
24714	5.2657	5.0909	0.1	4712.3
24715	5.1733	5.3636	0.1	4778.4
24716	5.2657	5.2727	0.1	4737.4
24717	5.1733	5.5455	0.1	4805.9
24718	5.2657	5.4545	0.1	4763.5
24719	5.1733	5.7273	0.1	4834.2
24720	5.2657	5.6364	0.1	4790.3
24721	5.2657	5.8182	0.1	4818.
24722	5.1733	5.9091	0.1	4859.9
24723	5.3581	0.27273	0.1	4774.2
24724	5.4505	0.18182	0.1	4757.2
24725	5.3581	9.0909e-002	0.1	4798.
24726	5.3581	0.45455	0.1	4747.9
24727	5.4505	0.36364	0.1	4731.5
24728	5.3581	0.63636	0.1	4722.5
24729	5.4505	0.54545	0.1	4706.7
24730	5.3581	0.81818	0.1	4697.9
24731	5.4505	0.72727	0.1	4682.5
24732	5.3581	1.	0.1	4674.4
24733	5.4505	0.90909	0.1	4659.3
24734	5.3581	1.1818	0.1	4652.1
24735	5.4505	1.0909	0.1	4637.3
24736	5.3581	1.3636	0.1	4631.3
24737	5.4505	1.2727	0.1	4616.5
24738	5.3581	1.5455	0.1	4612.2
24739	5.4505	1.4545	0.1	4597.2
24740	5.3581	1.7273	0.1	4594.8
24741	5.4505	1.6364	0.1	4579.6
24742	5.3581	1.9091	0.1	4579.4
24743	5.4505	1.8182	0.1	4563.8
24744	5.3581	2.0909	0.1	4566.2
24745	5.4505	2.	0.1	4550.
24746	5.3581	2.2727	0.1	4555.1
24747	5.4505	2.1818	0.1	4538.3
24748	5.3581	2.4545	0.1	4546.4
24749	5.4505	2.3636	0.1	4528.8
24750	5.3581	2.6364	0.1	4540.2
24751	5.4505	2.5455	0.1	4521.6
24752	5.3581	2.8182	0.1	4536.4
24753	5.4505	2.7273	0.1	4516.7
24754	5.3581	3.	0.1	4535.1
24755	5.4505	2.9091	0.1	4514.3
24756	5.3581	3.1818	0.1	4536.4
24757	5.4505	3.0909	0.1	4514.3
24758	5.3581	3.3636	0.1	4540.2
24759	5.4505	3.2727	0.1	4516.7
24760	5.3581	3.5455	0.1	4546.4
24761	5.4505	3.4545	0.1	4521.6
24762	5.3581	3.7273	0.1	4555.1
24763	5.4505	3.6364	0.1	4528.8
24764	5.3581	3.9091	0.1	4566.2
24765	5.4505	3.8182	0.1	4538.3
24766	5.3581	4.0909	0.1	4579.4
24767	5.4505	4.	0.1	4550.
24768	5.3581	4.2727	0.1	4594.8
24769	5.4505	4.1818	0.1	4563.8
24770	5.3581	4.4545	0.1	4612.2
24771	5.4505	4.3636	0.1	4579.6
24772	5.3581	4.6364	0.1	4631.3
24773	5.4505	4.5455	0.1	4597.2
24774	5.3581	4.8182	0.1	4652.1
24775	5.4505	4.7273	0.1	4616.5
24776	5.3581	5.	0.1	4674.4
24777	5.4505	4.9091	0.1	4637.3
24778	5.3581	5.1818	0.1	4697.9
24779	5.4505	5.0909	0.1	4659.3
24780	5.3581	5.3636	0.1	4722.5
24781	5.4505	5.2727	0.1	4682.5
24782	5.3581	5.5455	0.1	4747.9
24783	5.4505	5.4545	0.1	4706.7
24784	5.3581	5.7273	0.1	4774.2
24785	5.4505	5.6364	0.1	4731.5
24786	5.4505	5.8182	0.1	4757.2
24787	5.3581	5.9091	0.1	4798.
24788	5.5429	0.27273	0.1	4714.6
24789	5.6352	0.18182	0.1	4697.
24790	5.5429	9.0909e-002	0.1	4736.6
24791	5.5429	0.45455	0.1	4690.3
24792	5.6352	0.36364	0.1	4673.2
24793	5.5429	0.63636	0.1	4666.7
24794	5.6352	0.54545	0.1	4650.1
24795	5.5429	0.81818	0.1	4644.
24796	5.6352	0.72727	0.1	4627.8
24797	5.5429	1.	0.1	4622.2
24798	5.6352	0.90909	0.1	4606.3
24799	5.5429	1.1818	0.1	4601.6
24800	5.6352	1.0909	0.1	4585.9
24801	5.5429	1.3636	0.1	4582.4
24802	5.6352	1.2727	0.1	4566.7
24803	5.5429	1.5455	0.1	4564.7
24804	5.6352	1.4545	0.1	4548.9
24805	5.5429	1.7273	0.1	4548.6
24806	5.6352	1.6364	0.1	4532.6
24807	5.5429	1.9091	0.1	4534.4
24808	5.6352	1.8182	0.1	4518.
24809	5.5429	2.0909	0.1	4522.2
24810	5.6352	2.	0.1	4505.2
24811	5.5429	2.2727	0.1	4512.
24812	5.6352	2.1818	0.1	4494.4
24813	5.5429	2.4545	0.1	4503.9
24814	5.6352	2.3636	0.1	4485.6
24815	5.5429	2.6364	0.1	4498.1
24816	5.6352	2.5455	0.1	4479.
24817	5.5429	2.8182	0.1	4494.6
24818	5.6352	2.7273	0.1	4474.5
24819	5.5429	3.	0.1	4493.5
24820	5.6352	2.9091	0.1	4472.2
24821	5.5429	3.1818	0.1	4494.6
24822	5.6352	3.0909	0.1	4472.2
24823	5.5429	3.3636	0.1	4498.1
24824	5.6352	3.2727	0.1	4474.5
24825	5.5429	3.5455	0.1	4503.9
24826	5.6352	3.4545	0.1	4479.
24827	5.5429	3.7273	0.1	4512.
24828	5.6352	3.6364	0.1	4485.6
24829	5.5429	3.9091	0.1	4522.2
24830	5.6352	3.8182	0.1	4494.4
24831	5.5429	4.0909	0.1	4534.4
24832	5.6352	4.	0.1	4505.2
24833	5.5429	4.2727	0.1	4548.6
24834	5.6352	4.1818	0.1	4518.
24835	5.5429	4.4545	0.1	4564.7
24836	5.6352	4.3636	0.1	4532.6
24837	5.5429	4.6364	0.1	4582.4
24838	5.6352	4.5455	0.1	4548.9
24839	5.5429	4.8182	0.1	4601.6
24840	5.6352	4.7273	0.1	4566.7
24841	5.5429	5.	0.1	4622.2
24842	5.6352	4.9091	0.1	4585.9
24843	5.5429	5.1818	0.1	4644.
24844	5.6352	5.0909	0.1	4606.3
24845	5.5429	5.3636	0.1	4666.7
24846	5.6352	5.2727	0.1	4627.8
24847	5.5429	5.5455	0.1	4690.3
24848	5.6352	5.4545	0.1	4650.1
24849	5.5429	5.7273	0.1	4714.6
24850	5.6352	5.6364	0.1	4673.2
24851	5.6352	5.8182	0.1	4697.
24852	5.5429	5.9091	0.1	4736.6
24853	5.7276	0.27273	0.1	4655.5
24854	5.82	0.18182	0.1	4637.3
24855	5.7276	9.0909e-002	0.1	4675.8
24856	5.7276	0.45455	0.1	4633.
24857	5.82	0.36364	0.1	4615.2
24858	5.7276	0.63636	0.1	4611.2
24859	5.82	0.54545	0.1	4593.8
24860	5.7276	0.81818	0.1	4590.2
24861	5.82	0.72727	0.1	4573.2
24862	5.7276	1.	0.1	4570.
24863	5.82	0.90909	0.1	4553.3
24864	5.7276	1.1818	0.1	4551.
24865	5.82	1.0909	0.1	4534.5
24866	5.7276	1.3636	0.1	4533.2
24867	5.82	1.2727	0.1	4516.7
24868	5.7276	1.5455	0.1	4516.8
24869	5.82	1.4545	0.1	4500.2
24870	5.7276	1.7273	0.1	4502.
24871	5.82	1.6364	0.1	4485.2
24872	5.7276	1.9091	0.1	4488.8
24873	5.82	1.8182	0.1	4471.7
24874	5.7276	2.0909	0.1	4477.5
24875	5.82	2.	0.1	4459.9
24876	5.7276	2.2727	0.1	4468.1
24877	5.82	2.1818	0.1	4449.9
24878	5.7276	2.4545	0.1	4460.7
24879	5.82	2.3636	0.1	4441.8
24880	5.7276	2.6364	0.1	4455.3
24881	5.82	2.5455	0.1	4435.6
24882	5.7276	2.8182	0.1	4452.1
24883	5.82	2.7273	0.1	4431.5
24884	5.7276	3.	0.1	4451.
24885	5.82	2.9091	0.1	4429.4
24886	5.7276	3.1818	0.1	4452.1
24887	5.82	3.0909	0.1	4429.4
24888	5.7276	3.3636	0.1	4455.3
24889	5.82	3.2727	0.1	4431.5
24890	5.7276	3.5455	0.1	4460.7
24891	5.82	3.4545	0.1	4435.6
24892	5.7276	3.7273	0.1	4468.1
24893	5.82	3.6364	0.1	4441.8
24894	5.7276	3.9091	0.1	4477.5
24895	5.82	3.8182	0.1	4449.9
24896	5.7276	4.0909	0.1	4488.8
24897	5.82	4.	0.1	4459.9
24898	5.7276	4.2727	0.1	4502.
24899	5.82	4.1818	0.1	4471.7
24900	5.7276	4.4545	0.1	4516.8
24901	5.82	4.3636	0.1	4485.2
24902	5.7276	4.6364	0.1	4533.2
24903	5.82	4.5455	0.1	4500.2
24904	5.7276	4.8182	0.1	4551.
24905	5.82	4.7273	0.1	4516.7
24906	5.7276	5.	0.1	4570.
24907	5.82	4.9091	0.1	4534.5
24908	5.7276	5.1818	0.1	4590.2
24909	5.82	5.0909	0.1	4553.3
24910	5.7276	5.3636	0.1	4611.2
24911	5.82	5.2727	0.1	4573.2
24912	5.7276	5.5455	0.1	4633.
24913	5.82	5.4545	0.1	4593.8
24914	5.7276	5.7273	0.1	4655.5
24915	5.82	5.6364	0.1	4615.2
24916	5.82	5.8182	0.1	4637.3
24917	5.7276	5.9091	0.1	4675.8
24918	5.9124	0.27273	0.1	4596.9
24919	6.0048	0.18182	0.1	4578.1
24920	5.9124	9.0909e-002	0.1	4615.6
24921	5.9124	0.45455	0.1	4576.
24922	6.0048	0.36364	0.1	4557.6
24923	5.9124	0.63636	0.1	4555.8
24924	6.0048	0.54545	0.1	4537.8
24925	5.9124	0.81818	0.1	4536.4
24926	6.0048	0.72727	0.1	4518.7
24927	5.9124	1.	0.1	4517.8
24928	6.0048	0.90909	0.1	4500.3
24929	5.9124	1.1818	0.1	4500.2
24930	6.0048	1.0909	0.1	4482.9
24931	5.9124	1.3636	0.1	4483.7
24932	6.0048	1.2727	0.1	4466.5
24933	5.9124	1.5455	0.1	4468.6
24934	6.0048	1.4545	0.1	4451.2
24935	5.9124	1.7273	0.1	4454.9
24936	6.0048	1.6364	0.1	4437.3
24937	5.9124	1.9091	0.1	4442.7
24938	6.0048	1.8182	0.1	4424.9
24939	5.9124	2.0909	0.1	4432.3
24940	6.0048	2.	0.1	4414.
24941	5.9124	2.2727	0.1	4423.6
24942	6.0048	2.1818	0.1	4404.7
24943	5.9124	2.4545	0.1	4416.7
24944	6.0048	2.3636	0.1	4397.2
24945	5.9124	2.6364	0.1	4411.8
24946	6.0048	2.5455	0.1	4391.6
24947	5.9124	2.8182	0.1	4408.8
24948	6.0048	2.7273	0.1	4387.7
24949	5.9124	3.	0.1	4407.8
24950	6.0048	2.9091	0.1	4385.8
24951	5.9124	3.1818	0.1	4408.8
24952	6.0048	3.0909	0.1	4385.8
24953	5.9124	3.3636	0.1	4411.8
24954	6.0048	3.2727	0.1	4387.7
24955	5.9124	3.5455	0.1	4416.7
24956	6.0048	3.4545	0.1	4391.6
24957	5.9124	3.7273	0.1	4423.6
24958	6.0048	3.6364	0.1	4397.2
24959	5.9124	3.9091	0.1	4432.3
24960	6.0048	3.8182	0.1	4404.7
24961	5.9124	4.0909	0.1	4442.7
24962	6.0048	4.	0.1	4414.
24963	5.9124	4.2727	0.1	4454.9
24964	6.0048	4.1818	0.1	4424.9
24965	5.9124	4.4545	0.1	4468.6
24966	6.0048	4.3636	0.1	4437.3
24967	5.9124	4.6364	0.1	4483.7
24968	6.0048	4.5455	0.1	4451.2
24969	5.9124	4.8182	0.1	4500.2
24970	6.0048	4.7273	0.1	4466.5
24971	5.9124	5.	0.1	4517.8
24972	6.0048	4.9091	0.1	4482.9
24973	5.9124	5.1818	0.1	4536.4
24974	6.0048	5.0909	0.1	4500.3
24975	5.9124	5.3636	0.1	4555.8
24976	6.0048	5.2727	0.1	4518.7
24977	5.9124	5.5455	0.1	4576.
24978	6.0048	5.4545	0.1	4537.8
24979	5.9124	5.7273	0.1	4596.9
24980	6.0048	5.6364	0.1	4557.6
24981	6.0048	5.8182	0.1	4578.1
24982	5.9124	5.9091	0.1	4615.6
24983	6.0971	0.27273	0.1	4538.7
24984	6.1895	0.18182	0.1	4519.4
24985	6.0971	9.0909e-002	0.1	4555.8
24986	6.0971	0.45455	0.1	4519.3
24987	6.1895	0.36364	0.1	4500.3
24988	6.0971	0.63636	0.1	4500.7
24989	6.1895	0.54545	0.1	4482.
24990	6.0971	0.81818	0.1	4482.7
24991	6.1895	0.72727	0.1	4464.3
24992	6.0971	1.	0.1	4465.5
24993	6.1895	0.90909	0.1	4447.4
24994	6.0971	1.1818	0.1	4449.2
24995	6.1895	1.0909	0.1	4431.2
24996	6.0971	1.3636	0.1	4434.
24997	6.1895	1.2727	0.1	4416.
24998	6.0971	1.5455	0.1	4420.
24999	6.1895	1.4545	0.1	4402.
25000	6.0971	1.7273	0.1	4407.3
25001	6.1895	1.6364	0.1	4389.1
25002	6.0971	1.9091	0.1	4396.1
25003	6.1895	1.8182	0.1	4377.6
25004	6.0971	2.0909	0.1	4386.5
25005	6.1895	2.	0.1	4367.6
25006	6.0971	2.2727	0.1	4378.4
25007	6.1895	2.1818	0.1	4359.
25008	6.0971	2.4545	0.1	4372.1
25009	6.1895	2.3636	0.1	4352.1
25010	6.0971	2.6364	0.1	4367.5
25011	6.1895	2.5455	0.1	4346.9
25012	6.0971	2.8182	0.1	4364.8
25013	6.1895	2.7273	0.1	4343.3
25014	6.0971	3.	0.1	4363.9
25015	6.1895	2.9091	0.1	4341.6
25016	6.0971	3.1818	0.1	4364.8
25017	6.1895	3.0909	0.1	4341.6
25018	6.0971	3.3636	0.1	4367.5
25019	6.1895	3.2727	0.1	4343.3
25020	6.0971	3.5455	0.1	4372.1
25021	6.1895	3.4545	0.1	4346.9
25022	6.0971	3.7273	0.1	4378.4
25023	6.1895	3.6364	0.1	4352.1
25024	6.0971	3.9091	0.1	4386.5
25025	6.1895	3.8182	0.1	4359.
25026	6.0971	4.0909	0.1	4396.1
25027	6.1895	4.	0.1	4367.6
25028	6.0971	4.2727	0.1	4407.3
25029	6.1895	4.1818	0.1	4377.6
25030	6.0971	4.4545	0.1	4420.
25031	6.1895	4.3636	0.1	4389.1
25032	6.0971	4.6364	0.1	4434.
25033	6.1895	4.5455	0.1	4402.
25034	6.0971	4.8182	0.1	4449.2
25035	6.1895	4.7273	0.1	4416.
25036	6.0971	5.	0.1	4465.5
25037	6.1895	4.9091	0.1	4431.2
25038	6.0971	5.1818	0.1	4482.7
25039	6.1895	5.0909	0.1	4447.4
25040	6.0971	5.3636	0.1	4500.7
25041	6.1895	5.2727	0.1	4464.3
25042	6.0971	5.5455	0.1	4519.3
25043	6.1895	5.4545	0.1	4482.
25044	6.0971	5.7273	0.1	4538.7
25045	6.1895	5.6364	0.1	4500.3
25046	6.1895	5.8182	0.1	4519.4
25047	6.0971	5.9091	0.1	4555.8
25048	6.2819	0.27273	0.1	4480.9
25049	6.3743	0.18182	0.1	4461.1
25050	6.2819	9.0909e-002	0.1	4496.6
25051	6.2819	0.45455	0.1	4463.
25052	6.3743	0.36364	0.1	4443.4
25053	6.2819	0.63636	0.1	4445.7
25054	6.3743	0.54545	0.1	4426.5
25055	6.2819	0.81818	0.1	4429.
25056	6.3743	0.72727	0.1	4410.1
25057	6.2819	1.	0.1	4413.1
25058	6.3743	0.90909	0.1	4394.4
25059	6.2819	1.1818	0.1	4398.1
25060	6.3743	1.0909	0.1	4379.5
25061	6.2819	1.3636	0.1	4384.
25062	6.3743	1.2727	0.1	4365.5
25063	6.2819	1.5455	0.1	4371.1
25064	6.3743	1.4545	0.1	4352.5
25065	6.2819	1.7273	0.1	4359.4
25066	6.3743	1.6364	0.1	4340.6
25067	6.2819	1.9091	0.1	4349.1
25068	6.3743	1.8182	0.1	4330.
25069	6.2819	2.0909	0.1	4340.1
25070	6.3743	2.	0.1	4320.7
25071	6.2819	2.2727	0.1	4332.7
25072	6.3743	2.1818	0.1	4312.8
25073	6.2819	2.4545	0.1	4326.9
25074	6.3743	2.3636	0.1	4306.4
25075	6.2819	2.6364	0.1	4322.7
25076	6.3743	2.5455	0.1	4301.6
25077	6.2819	2.8182	0.1	4320.1
25078	6.3743	2.7273	0.1	4298.3
25079	6.2819	3.	0.1	4319.3
25080	6.3743	2.9091	0.1	4296.7
25081	6.2819	3.1818	0.1	4320.1
25082	6.3743	3.0909	0.1	4296.7
25083	6.2819	3.3636	0.1	4322.7
25084	6.3743	3.2727	0.1	4298.3
25085	6.2819	3.5455	0.1	4326.9
25086	6.3743	3.4545	0.1	4301.6
25087	6.2819	3.7273	0.1	4332.7
25088	6.3743	3.6364	0.1	4306.4
25089	6.2819	3.9091	0.1	4340.1
25090	6.3743	3.8182	0.1	4312.8
25091	6.2819	4.0909	0.1	4349.1
25092	6.3743	4.	0.1	4320.7
25093	6.2819	4.2727	0.1	4359.4
25094	6.3743	4.1818	0.1	4330.
25095	6.2819	4.4545	0.1	4371.1
25096	6.3743	4.3636	0.1	4340.6
25097	6.2819	4.6364	0.1	4384.
25098	6.3743	4.5455	0.1	4352.5
25099	6.2819	4.8182	0.1	4398.1
25100	6.3743	4.7273	0.1	4365.5
25101	6.2819	5.	0.1	4413.1
25102	6.3743	4.9091	0.1	4379.5
25103	6.2819	5.1818	0.1	4429.
25104	6.3743	5.0909	0.1	4394.4
25105	6.2819	5.3636	0.1	4445.7
25106	6.3743	5.2727	0.1	4410.1
25107	6.2819	5.5455	0.1	4463.
25108	6.3743	5.4545	0.1	4426.5
25109	6.2819	5.7273	0.1	4480.9
25110	6.3743	5.6364	0.1	4443.4
25111	6.3743	5.8182	0.1	4461.1
25112	6.2819	5.9091	0.1	4496.6
25113	6.4667	0.27273	0.1	4423.6
25114	6.559	0.18182	0.1	4403.3
25115	6.4667	9.0909e-002	0.1	4437.8
25116	6.4667	0.45455	0.1	4406.9
25117	6.559	0.36364	0.1	4386.8
25118	6.4667	0.63636	0.1	4390.9
25119	6.559	0.54545	0.1	4371.1
25120	6.4667	0.81818	0.1	4375.5
25121	6.559	0.72727	0.1	4356.
25122	6.4667	1.	0.1	4360.8
25123	6.559	0.90909	0.1	4341.5
25124	6.4667	1.1818	0.1	4346.8
25125	6.559	1.0909	0.1	4327.7
25126	6.4667	1.3636	0.1	4333.9
25127	6.559	1.2727	0.1	4314.7
25128	6.4667	1.5455	0.1	4321.9
25129	6.559	1.4545	0.1	4302.7
25130	6.4667	1.7273	0.1	4311.1
25131	6.559	1.6364	0.1	4291.7
25132	6.4667	1.9091	0.1	4301.6
25133	6.559	1.8182	0.1	4281.9
25134	6.4667	2.0909	0.1	4293.3
25135	6.559	2.	0.1	4273.4
25136	6.4667	2.2727	0.1	4286.5
25137	6.559	2.1818	0.1	4266.1
25138	6.4667	2.4545	0.1	4281.1
25139	6.559	2.3636	0.1	4260.2
25140	6.4667	2.6364	0.1	4277.2
25141	6.559	2.5455	0.1	4255.7
25142	6.4667	2.8182	0.1	4274.9
25143	6.559	2.7273	0.1	4252.7
25144	6.4667	3.	0.1	4274.1
25145	6.559	2.9091	0.1	4251.2
25146	6.4667	3.1818	0.1	4274.9
25147	6.559	3.0909	0.1	4251.2
25148	6.4667	3.3636	0.1	4277.2
25149	6.559	3.2727	0.1	4252.7
25150	6.4667	3.5455	0.1	4281.1
25151	6.559	3.4545	0.1	4255.7
25152	6.4667	3.7273	0.1	4286.5
25153	6.559	3.6364	0.1	4260.2
25154	6.4667	3.9091	0.1	4293.3
25155	6.559	3.8182	0.1	4266.1
25156	6.4667	4.0909	0.1	4301.6
25157	6.559	4.	0.1	4273.4
25158	6.4667	4.2727	0.1	4311.1
25159	6.559	4.1818	0.1	4281.9
25160	6.4667	4.4545	0.1	4321.9
25161	6.559	4.3636	0.1	4291.7
25162	6.4667	4.6364	0.1	4333.9
25163	6.559	4.5455	0.1	4302.7
25164	6.4667	4.8182	0.1	4346.8
25165	6.559	4.7273	0.1	4314.7
25166	6.4667	5.	0.1	4360.8
25167	6.559	4.9091	0.1	4327.7
25168	6.4667	5.1818	0.1	4375.5
25169	6.559	5.0909	0.1	4341.5
25170	6.4667	5.3636	0.1	4390.9
25171	6.559	5.2727	0.1	4356.
25172	6.4667	5.5455	0.1	4406.9
25173	6.559	5.4545	0.1	4371.1
25174	6.4667	5.7273	0.1	4423.6
25175	6.559	5.6364	0.1	4386.8
25176	6.559	5.8182	0.1	4403.3
25177	6.4667	5.9091	0.1	4437.8
25178	6.6514	0.27273	0.1	4366.5
25179	6.7438	0.18182	0.1	4345.9
25180	6.6514	9.0909e-002	0.1	4379.5
25181	6.6514	0.45455	0.1	4351.1
25182	6.7438	0.36364	0.1	4330.5
25183	6.6514	0.63636	0.1	4336.2
25184	6.7438	0.54545	0.1	4316.
25185	6.6514	0.81818	0.1	4322.
25186	6.7438	0.72727	0.1	4302.
25187	6.6514	1.	0.1	4308.4
25188	6.7438	0.90909	0.1	4288.6
25189	6.6514	1.1818	0.1	4295.5
25190	6.7438	1.0909	0.1	4275.8
25191	6.6514	1.3636	0.1	4283.5
25192	6.7438	1.2727	0.1	4263.8
25193	6.6514	1.5455	0.1	4272.5
25194	6.7438	1.4545	0.1	4252.7
25195	6.6514	1.7273	0.1	4262.5
25196	6.7438	1.6364	0.1	4242.6
25197	6.6514	1.9091	0.1	4253.7
25198	6.7438	1.8182	0.1	4233.6
25199	6.6514	2.0909	0.1	4246.1
25200	6.7438	2.	0.1	4225.7
25201	6.6514	2.2727	0.1	4239.8
25202	6.7438	2.1818	0.1	4218.9
25203	6.6514	2.4545	0.1	4234.8
25204	6.7438	2.3636	0.1	4213.5
25205	6.6514	2.6364	0.1	4231.2
25206	6.7438	2.5455	0.1	4209.4
25207	6.6514	2.8182	0.1	4229.1
25208	6.7438	2.7273	0.1	4206.6
25209	6.6514	3.	0.1	4228.4
25210	6.7438	2.9091	0.1	4205.2
25211	6.6514	3.1818	0.1	4229.1
25212	6.7438	3.0909	0.1	4205.2
25213	6.6514	3.3636	0.1	4231.2
25214	6.7438	3.2727	0.1	4206.6
25215	6.6514	3.5455	0.1	4234.8
25216	6.7438	3.4545	0.1	4209.4
25217	6.6514	3.7273	0.1	4239.8
25218	6.7438	3.6364	0.1	4213.5
25219	6.6514	3.9091	0.1	4246.1
25220	6.7438	3.8182	0.1	4218.9
25221	6.6514	4.0909	0.1	4253.7
25222	6.7438	4.	0.1	4225.7
25223	6.6514	4.2727	0.1	4262.5
25224	6.7438	4.1818	0.1	4233.6
25225	6.6514	4.4545	0.1	4272.5
25226	6.7438	4.3636	0.1	4242.6
25227	6.6514	4.6364	0.1	4283.5
25228	6.7438	4.5455	0.1	4252.7
25229	6.6514	4.8182	0.1	4295.5
25230	6.7438	4.7273	0.1	4263.8
25231	6.6514	5.	0.1	4308.4
25232	6.7438	4.9091	0.1	4275.8
25233	6.6514	5.1818	0.1	4322.
25234	6.7438	5.0909	0.1	4288.6
25235	6.6514	5.3636	0.1	4336.2
25236	6.7438	5.2727	0.1	4302.
25237	6.6514	5.5455	0.1	4351.1
25238	6.7438	5.4545	0.1	4316.
25239	6.6514	5.7273	0.1	4366.5
25240	6.7438	5.6364	0.1	4330.5
25241	6.7438	5.8182	0.1	4345.9
25242	6.6514	5.9091	0.1	4379.5
25243	6.8362	0.27273	0.1	4309.9
25244	6.9286	0.18182	0.1	4288.9
25245	6.8362	9.0909e-002	0.1	4321.6
25246	6.8362	0.45455	0.1	4295.5
25247	6.9286	0.36364	0.1	4274.6
25248	6.8362	0.63636	0.1	4281.8
25249	6.9286	0.54545	0.1	4261.1
25250	6.8362	0.81818	0.1	4268.6
25251	6.9286	0.72727	0.1	4248.2
25252	6.8362	1.	0.1	4256.
25253	6.9286	0.90909	0.1	4235.7
25254	6.8362	1.1818	0.1	4244.1
25255	6.9286	1.0909	0.1	4223.9
25256	6.8362	1.3636	0.1	4233.
25257	6.9286	1.2727	0.1	4212.9
25258	6.8362	1.5455	0.1	4222.9
25259	6.9286	1.4545	0.1	4202.6
25260	6.8362	1.7273	0.1	4213.7
25261	6.9286	1.6364	0.1	4193.3
25262	6.8362	1.9091	0.1	4205.5
25263	6.9286	1.8182	0.1	4184.9
25264	6.8362	2.0909	0.1	4198.5
25265	6.9286	2.	0.1	4177.6
25266	6.8362	2.2727	0.1	4192.7
25267	6.9286	2.1818	0.1	4171.4
25268	6.8362	2.4545	0.1	4188.1
25269	6.9286	2.3636	0.1	4166.4
25270	6.8362	2.6364	0.1	4184.8
25271	6.9286	2.5455	0.1	4162.6
25272	6.8362	2.8182	0.1	4182.8
25273	6.9286	2.7273	0.1	4160.
25274	6.8362	3.	0.1	4182.1
25275	6.9286	2.9091	0.1	4158.7
25276	6.8362	3.1818	0.1	4182.8
25277	6.9286	3.0909	0.1	4158.7
25278	6.8362	3.3636	0.1	4184.8
25279	6.9286	3.2727	0.1	4160.
25280	6.8362	3.5455	0.1	4188.1
25281	6.9286	3.4545	0.1	4162.6
25282	6.8362	3.7273	0.1	4192.7
25283	6.9286	3.6364	0.1	4166.4
25284	6.8362	3.9091	0.1	4198.5
25285	6.9286	3.8182	0.1	4171.4
25286	6.8362	4.0909	0.1	4205.5
25287	6.9286	4.	0.1	4177.6
25288	6.8362	4.2727	0.1	4213.7
25289	6.9286	4.1818	0.1	4184.9
25290	6.8362	4.4545	0.1	4222.9
25291	6.9286	4.3636	0.1	4193.3
25292	6.8362	4.6364	0.1	4233.
25293	6.9286	4.5455	0.1	4202.6
25294	6.8362	4.8182	0.1	4244.1
25295	6.9286	4.7273	0.1	4212.9
25296	6.8362	5.	0.1	4256.
25297	6.9286	4.9091	0.1	4223.9
25298	6.8362	5.1818	0.1	4268.6
25299	6.9286	5.0909	0.1	4235.7
25300	6.8362	5.3636	0.1	4281.8
25301	6.9286	5.2727	0.1	4248.2
25302	6.8362	5.5455	0.1	4295.5
25303	6.9286	5.4545	0.1	4261.1
25304	6.8362	5.7273	0.1	4309.9
25305	6.9286	5.6364	0.1	4274.6
25306	6.9286	5.8182	0.1	4288.9
25307	6.8362	5.9091	0.1	4321.6
25308	7.021	0.27273	0.1	4253.6
25309	7.1133	0.18182	0.1	4232.3
25310	7.021	9.0909e-002	0.1	4264.1
25311	7.021	0.45455	0.1	4240.2
25312	7.1133	0.36364	0.1	4218.9
25313	7.021	0.63636	0.1	4227.5
25314	7.1133	0.54545	0.1	4206.4
25315	7.021	0.81818	0.1	4215.3
25316	7.1133	0.72727	0.1	4194.4
25317	7.021	1.	0.1	4203.6
25318	7.1133	0.90909	0.1	4182.9
25319	7.021	1.1818	0.1	4192.7
25320	7.1133	1.0909	0.1	4172.
25321	7.021	1.3636	0.1	4182.4
25322	7.1133	1.2727	0.1	4161.8
25323	7.021	1.5455	0.1	4173.
25324	7.1133	1.4545	0.1	4152.3
25325	7.021	1.7273	0.1	4164.5
25326	7.1133	1.6364	0.1	4143.7
25327	7.021	1.9091	0.1	4157.
25328	7.1133	1.8182	0.1	4136.
25329	7.021	2.0909	0.1	4150.5
25330	7.1133	2.	0.1	4129.2
25331	7.021	2.2727	0.1	4145.1
25332	7.1133	2.1818	0.1	4123.5
25333	7.021	2.4545	0.1	4140.9
25334	7.1133	2.3636	0.1	4118.9
25335	7.021	2.6364	0.1	4137.8
25336	7.1133	2.5455	0.1	4115.4
25337	7.021	2.8182	0.1	4136.
25338	7.1133	2.7273	0.1	4113.
25339	7.021	3.	0.1	4135.4
25340	7.1133	2.9091	0.1	4111.8
25341	7.021	3.1818	0.1	4136.
25342	7.1133	3.0909	0.1	4111.8
25343	7.021	3.3636	0.1	4137.8
25344	7.1133	3.2727	0.1	4113.
25345	7.021	3.5455	0.1	4140.9
25346	7.1133	3.4545	0.1	4115.4
25347	7.021	3.7273	0.1	4145.1
25348	7.1133	3.6364	0.1	4118.9
25349	7.021	3.9091	0.1	4150.5
25350	7.1133	3.8182	0.1	4123.5
25351	7.021	4.0909	0.1	4157.
25352	7.1133	4.	0.1	4129.2
25353	7.021	4.2727	0.1	4164.5
25354	7.1133	4.1818	0.1	4136.
25355	7.021	4.4545	0.1	4173.
25356	7.1133	4.3636	0.1	4143.7
25357	7.021	4.6364	0.1	4182.4
25358	7.1133	4.5455	0.1	4152.3
25359	7.021	4.8182	0.1	4192.7
25360	7.1133	4.7273	0.1	4161.8
25361	7.021	5.	0.1	4203.6
25362	7.1133	4.9091	0.1	4172.
25363	7.021	5.1818	0.1	4215.3
25364	7.1133	5.0909	0.1	4182.9
25365	7.021	5.3636	0.1	4227.5
25366	7.1133	5.2727	0.1	4194.4
25367	7.021	5.5455	0.1	4240.2
25368	7.1133	5.4545	0.1	4206.4
25369	7.021	5.7273	0.1	4253.6
25370	7.1133	5.6364	0.1	4218.9
25371	7.1133	5.8182	0.1	4232.3
25372	7.021	5.9091	0.1	4264.1
25373	7.2057	0.27273	0.1	4197.6
25374	7.2981	0.18182	0.1	4176.
25375	7.2057	9.0909e-002	0.1	4207.1
25376	7.2057	0.45455	0.1	4185.1
25377	7.2981	0.36364	0.1	4163.5
25378	7.2057	0.63636	0.1	4173.4
25379	7.2981	0.54545	0.1	4151.9
25380	7.2057	0.81818	0.1	4162.1
25381	7.2981	0.72727	0.1	4140.8
25382	7.2057	1.	0.1	4151.3
25383	7.2981	0.90909	0.1	4130.2
25384	7.2057	1.1818	0.1	4141.1
25385	7.2981	1.0909	0.1	4120.1
25386	7.2057	1.3636	0.1	4131.7
25387	7.2981	1.2727	0.1	4110.6
25388	7.2057	1.5455	0.1	4123.
25389	7.2981	1.4545	0.1	4101.9
25390	7.2057	1.7273	0.1	4115.1
25391	7.2981	1.6364	0.1	4093.9
25392	7.2057	1.9091	0.1	4108.2
25393	7.2981	1.8182	0.1	4086.8
25394	7.2057	2.0909	0.1	4102.2
25395	7.2981	2.	0.1	4080.5
25396	7.2057	2.2727	0.1	4097.2
25397	7.2981	2.1818	0.1	4075.3
25398	7.2057	2.4545	0.1	4093.3
25399	7.2981	2.3636	0.1	4071.
25400	7.2057	2.6364	0.1	4090.5
25401	7.2981	2.5455	0.1	4067.8
25402	7.2057	2.8182	0.1	4088.8
25403	7.2981	2.7273	0.1	4065.6
25404	7.2057	3.	0.1	4088.2
25405	7.2981	2.9091	0.1	4064.5
25406	7.2057	3.1818	0.1	4088.8
25407	7.2981	3.0909	0.1	4064.5
25408	7.2057	3.3636	0.1	4090.5
25409	7.2981	3.2727	0.1	4065.6
25410	7.2057	3.5455	0.1	4093.3
25411	7.2981	3.4545	0.1	4067.8
25412	7.2057	3.7273	0.1	4097.2
25413	7.2981	3.6364	0.1	4071.
25414	7.2057	3.9091	0.1	4102.2
25415	7.2981	3.8182	0.1	4075.3
25416	7.2057	4.0909	0.1	4108.2
25417	7.2981	4.	0.1	4080.5
25418	7.2057	4.2727	0.1	4115.1
25419	7.2981	4.1818	0.1	4086.8
25420	7.2057	4.4545	0.1	4123.
25421	7.2981	4.3636	0.1	4093.9
25422	7.2057	4.6364	0.1	4131.7
25423	7.2981	4.5455	0.1	4101.9
25424	7.2057	4.8182	0.1	4141.1
25425	7.2981	4.7273	0.1	4110.6
25426	7.2057	5.	0.1	4151.3
25427	7.2981	4.9091	0.1	4120.1
25428	7.2057	5.1818	0.1	4162.1
25429	7.2981	5.0909	0.1	4130.2
25430	7.2057	5.3636	0.1	4173.4
25431	7.2981	5.2727	0.1	4140.8
25432	7.2057	5.5455	0.1	4185.1
25433	7.2981	5.4545	0.1	4151.9
25434	7.2057	5.7273	0.1	4197.6
25435	7.2981	5.6364	0.1	4163.5
25436	7.2981	5.8182	0.1	4176.
25437	7.2057	5.9091	0.1	4207.1
25438	7.3905	0.27273	0.1	4141.9
25439	7.4829	0.18182	0.1	4120.1
25440	7.3905	9.0909e-002	0.1	4150.3
25441	7.3905	0.45455	0.1	4130.3
25442	7.4829	0.36364	0.1	4108.3
25443	7.3905	0.63636	0.1	4119.4
25444	7.4829	0.54545	0.1	4097.6
25445	7.3905	0.81818	0.1	4108.9
25446	7.4829	0.72727	0.1	4087.4
25447	7.3905	1.	0.1	4099.
25448	7.4829	0.90909	0.1	4077.5
25449	7.3905	1.1818	0.1	4089.6
25450	7.4829	1.0909	0.1	4068.2
25451	7.3905	1.3636	0.1	4080.8
25452	7.4829	1.2727	0.1	4059.4
25453	7.3905	1.5455	0.1	4072.8
25454	7.4829	1.4545	0.1	4051.3
25455	7.3905	1.7273	0.1	4065.5
25456	7.4829	1.6364	0.1	4044.
25457	7.3905	1.9091	0.1	4059.1
25458	7.4829	1.8182	0.1	4037.4
25459	7.3905	2.0909	0.1	4053.6
25460	7.4829	2.	0.1	4031.6
25461	7.3905	2.2727	0.1	4049.
25462	7.4829	2.1818	0.1	4026.8
25463	7.3905	2.4545	0.1	4045.4
25464	7.4829	2.3636	0.1	4022.8
25465	7.3905	2.6364	0.1	4042.8
25466	7.4829	2.5455	0.1	4019.8
25467	7.3905	2.8182	0.1	4041.3
25468	7.4829	2.7273	0.1	4017.8
25469	7.3905	3.	0.1	4040.7
25470	7.4829	2.9091	0.1	4016.8
25471	7.3905	3.1818	0.1	4041.3
25472	7.4829	3.0909	0.1	4016.8
25473	7.3905	3.3636	0.1	4042.8
25474	7.4829	3.2727	0.1	4017.8
25475	7.3905	3.5455	0.1	4045.4
25476	7.4829	3.4545	0.1	4019.8
25477	7.3905	3.7273	0.1	4049.
25478	7.4829	3.6364	0.1	4022.8
25479	7.3905	3.9091	0.1	4053.6
25480	7.4829	3.8182	0.1	4026.8
25481	7.3905	4.0909	0.1	4059.1
25482	7.4829	4.	0.1	4031.6
25483	7.3905	4.2727	0.1	4065.5
25484	7.4829	4.1818	0.1	4037.4
25485	7.3905	4.4545	0.1	4072.8
25486	7.4829	4.3636	0.1	4044.
25487	7.3905	4.6364	0.1	4080.8
25488	7.4829	4.5455	0.1	4051.3
25489	7.3905	4.8182	0.1	4089.6
25490	7.4829	4.7273	0.1	4059.4
25491	7.3905	5.	0.1	4099.
25492	7.4829	4.9091	0.1	4068.2
25493	7.3905	5.1818	0.1	4108.9
25494	7.4829	5.0909	0.1	4077.5
25495	7.3905	5.3636	0.1	4119.4
25496	7.4829	5.2727	0.1	4087.4
25497	7.3905	5.5455	0.1	4130.3
25498	7.4829	5.4545	0.1	4097.6
25499	7.3905	5.7273	0.1	4141.9
25500	7.4829	5.6364	0.1	4108.3
25501	7.4829	5.8182	0.1	4120.1
25502	7.3905	5.9091	0.1	4150.3
25503	7.5752	0.27273	0.1	4086.5
25504	7.6676	0.18182	0.1	4064.5
25505	7.5752	9.0909e-002	0.1	4094.
25506	7.5752	0.45455	0.1	4075.7
25507	7.6676	0.36364	0.1	4053.5
25508	7.5752	0.63636	0.1	4065.6
25509	7.6676	0.54545	0.1	4043.5
25510	7.5752	0.81818	0.1	4055.9
25511	7.6676	0.72727	0.1	4034.
25512	7.5752	1.	0.1	4046.7
25513	7.6676	0.90909	0.1	4024.9
25514	7.5752	1.1818	0.1	4038.
25515	7.6676	1.0909	0.1	4016.3
25516	7.5752	1.3636	0.1	4029.9
25517	7.6676	1.2727	0.1	4008.2
25518	7.5752	1.5455	0.1	4022.5
25519	7.6676	1.4545	0.1	4000.7
25520	7.5752	1.7273	0.1	4015.8
25521	7.6676	1.6364	0.1	3993.9
25522	7.5752	1.9091	0.1	4009.9
25523	7.6676	1.8182	0.1	3987.8
25524	7.5752	2.0909	0.1	4004.8
25525	7.6676	2.	0.1	3982.5
25526	7.5752	2.2727	0.1	4000.5
25527	7.6676	2.1818	0.1	3978.
25528	7.5752	2.4545	0.1	3997.2
25529	7.6676	2.3636	0.1	3974.4
25530	7.5752	2.6364	0.1	3994.8
25531	7.6676	2.5455	0.1	3971.6
25532	7.5752	2.8182	0.1	3993.4
25533	7.6676	2.7273	0.1	3969.7
25534	7.5752	3.	0.1	3992.9
25535	7.6676	2.9091	0.1	3968.8
25536	7.5752	3.1818	0.1	3993.4
25537	7.6676	3.0909	0.1	3968.8
25538	7.5752	3.3636	0.1	3994.8
25539	7.6676	3.2727	0.1	3969.7
25540	7.5752	3.5455	0.1	3997.2
25541	7.6676	3.4545	0.1	3971.6
25542	7.5752	3.7273	0.1	4000.5
25543	7.6676	3.6364	0.1	3974.4
25544	7.5752	3.9091	0.1	4004.8
25545	7.6676	3.8182	0.1	3978.
25546	7.5752	4.0909	0.1	4009.9
25547	7.6676	4.	0.1	3982.5
25548	7.5752	4.2727	0.1	4015.8
25549	7.6676	4.1818	0.1	3987.8
25550	7.5752	4.4545	0.1	4022.5
25551	7.6676	4.3636	0.1	3993.9
25552	7.5752	4.6364	0.1	4029.9
25553	7.6676	4.5455	0.1	4000.7
25554	7.5752	4.8182	0.1	4038.
25555	7.6676	4.7273	0.1	4008.2
25556	7.5752	5.	0.1	4046.7
25557	7.6676	4.9091	0.1	4016.3
25558	7.5752	5.1818	0.1	4055.9
25559	7.6676	5.0909	0.1	4024.9
25560	7.5752	5.3636	0.1	4065.6
25561	7.6676	5.2727	0.1	4034.
25562	7.5752	5.5455	0.1	4075.7
25563	7.6676	5.4545	0.1	4043.5
25564	7.5752	5.7273	0.1	4086.5
25565	7.6676	5.6364	0.1	4053.5
25566	7.6676	5.8182	0.1	4064.5
25567	7.5752	5.9091	0.1	4094.
25568	7.76	0.27273	0.1	4031.4
25569	7.8524	0.18182	0.1	4009.2
25570	7.76	9.0909e-002	0.1	4038.
25571	7.76	0.45455	0.1	4021.3
25572	7.8524	0.36364	0.1	3998.8
25573	7.76	0.63636	0.1	4011.9
25574	7.8524	0.54545	0.1	3989.6
25575	7.76	0.81818	0.1	4003.
25576	7.8524	0.72727	0.1	3980.8
25577	7.76	1.	0.1	3994.5
25578	7.8524	0.90909	0.1	3972.4
25579	7.76	1.1818	0.1	3986.4
25580	7.8524	1.0909	0.1	3964.4
25581	7.76	1.3636	0.1	3978.9
25582	7.8524	1.2727	0.1	3956.9
25583	7.76	1.5455	0.1	3972.1
25584	7.8524	1.4545	0.1	3950.
25585	7.76	1.7273	0.1	3965.9
25586	7.8524	1.6364	0.1	3943.7
25587	7.76	1.9091	0.1	3960.4
25588	7.8524	1.8182	0.1	3938.1
25589	7.76	2.0909	0.1	3955.7
25590	7.8524	2.	0.1	3933.2
25591	7.76	2.2727	0.1	3951.8
25592	7.8524	2.1818	0.1	3929.
25593	7.76	2.4545	0.1	3948.7
25594	7.8524	2.3636	0.1	3925.6
25595	7.76	2.6364	0.1	3946.5
25596	7.8524	2.5455	0.1	3923.1
25597	7.76	2.8182	0.1	3945.2
25598	7.8524	2.7273	0.1	3921.4
25599	7.76	3.	0.1	3944.7
25600	7.8524	2.9091	0.1	3920.5
25601	7.76	3.1818	0.1	3945.2
25602	7.8524	3.0909	0.1	3920.5
25603	7.76	3.3636	0.1	3946.5
25604	7.8524	3.2727	0.1	3921.4
25605	7.76	3.5455	0.1	3948.7
25606	7.8524	3.4545	0.1	3923.1
25607	7.76	3.7273	0.1	3951.8
25608	7.8524	3.6364	0.1	3925.6
25609	7.76	3.9091	0.1	3955.7
25610	7.8524	3.8182	0.1	3929.
25611	7.76	4.0909	0.1	3960.4
25612	7.8524	4.	0.1	3933.2
25613	7.76	4.2727	0.1	3965.9
25614	7.8524	4.1818	0.1	3938.1
25615	7.76	4.4545	0.1	3972.1
25616	7.8524	4.3636	0.1	3943.7
25617	7.76	4.6364	0.1	3978.9
25618	7.8524	4.5455	0.1	3950.
25619	7.76	4.8182	0.1	3986.4
25620	7.8524	4.7273	0.1	3956.9
25621	7.76	5.	0.1	3994.5
25622	7.8524	4.9091	0.1	3964.4
25623	7.76	5.1818	0.1	4003.
25624	7.8524	5.0909	0.1	3972.4
25625	7.76	5.3636	0.1	4011.9
25626	7.8524	5.2727	0.1	3980.8
25627	7.76	5.5455	0.1	4021.3
25628	7.8524	5.4545	0.1	3989.6
25629	7.76	5.7273	0.1	4031.4
25630	7.8524	5.6364	0.1	3998.8
25631	7.8524	5.8182	0.1	4009.2
25632	7.76	5.9091	0.1	4038.
25633	7.9448	0.27273	0.1	3976.6
25634	8.0371	0.18182	0.1	3954.2
25635	7.9448	9.0909e-002	0.1	3982.3
25636	7.9448	0.45455	0.1	3967.1
25637	8.0371	0.36364	0.1	3944.4
25638	7.9448	0.63636	0.1	3958.5
25639	8.0371	0.54545	0.1	3935.9
25640	7.9448	0.81818	0.1	3950.2
25641	8.0371	0.72727	0.1	3927.7
25642	7.9448	1.	0.1	3942.3
25643	8.0371	0.90909	0.1	3919.9
25644	7.9448	1.1818	0.1	3934.8
25645	8.0371	1.0909	0.1	3912.5
25646	7.9448	1.3636	0.1	3927.9
25647	8.0371	1.2727	0.1	3905.6
25648	7.9448	1.5455	0.1	3921.6
25649	8.0371	1.4545	0.1	3899.2
25650	7.9448	1.7273	0.1	3915.9
25651	8.0371	1.6364	0.1	3893.4
25652	7.9448	1.9091	0.1	3910.8
25653	8.0371	1.8182	0.1	3888.2
25654	7.9448	2.0909	0.1	3906.5
25655	8.0371	2.	0.1	3883.7
25656	7.9448	2.2727	0.1	3902.9
25657	8.0371	2.1818	0.1	3879.8
25658	7.9448	2.4545	0.1	3900.
25659	8.0371	2.3636	0.1	3876.7
25660	7.9448	2.6364	0.1	3898.
25661	8.0371	2.5455	0.1	3874.4
25662	7.9448	2.8182	0.1	3896.7
25663	8.0371	2.7273	0.1	3872.8
25664	7.9448	3.	0.1	3896.3
25665	8.0371	2.9091	0.1	3872.
25666	7.9448	3.1818	0.1	3896.7
25667	8.0371	3.0909	0.1	3872.
25668	7.9448	3.3636	0.1	3898.
25669	8.0371	3.2727	0.1	3872.8
25670	7.9448	3.5455	0.1	3900.
25671	8.0371	3.4545	0.1	3874.4
25672	7.9448	3.7273	0.1	3902.9
25673	8.0371	3.6364	0.1	3876.7
25674	7.9448	3.9091	0.1	3906.5
25675	8.0371	3.8182	0.1	3879.8
25676	7.9448	4.0909	0.1	3910.8
25677	8.0371	4.	0.1	3883.7
25678	7.9448	4.2727	0.1	3915.9
25679	8.0371	4.1818	0.1	3888.2
25680	7.9448	4.4545	0.1	3921.6
25681	8.0371	4.3636	0.1	3893.4
25682	7.9448	4.6364	0.1	3927.9
25683	8.0371	4.5455	0.1	3899.2
25684	7.9448	4.8182	0.1	3934.8
25685	8.0371	4.7273	0.1	3905.6
25686	7.9448	5.	0.1	3942.3
25687	8.0371	4.9091	0.1	3912.5
25688	7.9448	5.1818	0.1	3950.2
25689	8.0371	5.0909	0.1	3919.9
25690	7.9448	5.3636	0.1	3958.5
25691	8.0371	5.2727	0.1	3927.7
25692	7.9448	5.5455	0.1	3967.1
25693	8.0371	5.4545	0.1	3935.9
25694	7.9448	5.7273	0.1	3976.6
25695	8.0371	5.6364	0.1	3944.4
25696	8.0371	5.8182	0.1	3954.2
25697	7.9448	5.9091	0.1	3982.3
25698	8.1295	0.27273	0.1	3922.
25699	8.2219	0.18182	0.1	3899.5
25700	8.1295	9.0909e-002	0.1	3927.
25701	8.1295	0.45455	0.1	3913.2
25702	8.2219	0.36364	0.1	3890.3
25703	8.1295	0.63636	0.1	3905.2
25704	8.2219	0.54545	0.1	3882.4
25705	8.1295	0.81818	0.1	3897.5
25706	8.2219	0.72727	0.1	3874.8
25707	8.1295	1.	0.1	3890.2
25708	8.2219	0.90909	0.1	3867.6
25709	8.1295	1.1818	0.1	3883.3
25710	8.2219	1.0909	0.1	3860.7
25711	8.1295	1.3636	0.1	3876.9
25712	8.2219	1.2727	0.1	3854.3
25713	8.1295	1.5455	0.1	3871.
25714	8.2219	1.4545	0.1	3848.4
25715	8.1295	1.7273	0.1	3865.7
25716	8.2219	1.6364	0.1	3843.
25717	8.1295	1.9091	0.1	3861.1
25718	8.2219	1.8182	0.1	3838.2
25719	8.1295	2.0909	0.1	3857.
25720	8.2219	2.	0.1	3834.
25721	8.1295	2.2727	0.1	3853.7
25722	8.2219	2.1818	0.1	3830.5
25723	8.1295	2.4545	0.1	3851.1
25724	8.2219	2.3636	0.1	3827.6
25725	8.1295	2.6364	0.1	3849.2
25726	8.2219	2.5455	0.1	3825.5
25727	8.1295	2.8182	0.1	3848.1
25728	8.2219	2.7273	0.1	3824.
25729	8.1295	3.	0.1	3847.7
25730	8.2219	2.9091	0.1	3823.3
25731	8.1295	3.1818	0.1	3848.1
25732	8.2219	3.0909	0.1	3823.3
25733	8.1295	3.3636	0.1	3849.2
25734	8.2219	3.2727	0.1	3824.
25735	8.1295	3.5455	0.1	3851.1
25736	8.2219	3.4545	0.1	3825.5
25737	8.1295	3.7273	0.1	3853.7
25738	8.2219	3.6364	0.1	3827.6
25739	8.1295	3.9091	0.1	3857.
25740	8.2219	3.8182	0.1	3830.5
25741	8.1295	4.0909	0.1	3861.1
25742	8.2219	4.	0.1	3834.
25743	8.1295	4.2727	0.1	3865.7
25744	8.2219	4.1818	0.1	3838.2
25745	8.1295	4.4545	0.1	3871.
25746	8.2219	4.3636	0.1	3843.
25747	8.1295	4.6364	0.1	3876.9
25748	8.2219	4.5455	0.1	3848.4
25749	8.1295	4.8182	0.1	3883.3
25750	8.2219	4.7273	0.1	3854.3
25751	8.1295	5.	0.1	3890.2
25752	8.2219	4.9091	0.1	3860.7
25753	8.1295	5.1818	0.1	3897.5
25754	8.2219	5.0909	0.1	3867.6
25755	8.1295	5.3636	0.1	3905.2
25756	8.2219	5.2727	0.1	3874.8
25757	8.1295	5.5455	0.1	3913.2
25758	8.2219	5.4545	0.1	3882.4
25759	8.1295	5.7273	0.1	3922.
25760	8.2219	5.6364	0.1	3890.3
25761	8.2219	5.8182	0.1	3899.5
25762	8.1295	5.9091	0.1	3927.
25763	8.3143	0.27273	0.1	3867.7
25764	8.4067	0.18182	0.1	3845.1
25765	8.3143	9.0909e-002	0.1	3871.9
25766	8.3143	0.45455	0.1	3859.5
25767	8.4067	0.36364	0.1	3836.4
25768	8.3143	0.63636	0.1	3852.
25769	8.4067	0.54545	0.1	3829.
25770	8.3143	0.81818	0.1	3844.9
25771	8.4067	0.72727	0.1	3822.
25772	8.3143	1.	0.1	3838.1
25773	8.4067	0.90909	0.1	3815.3
25774	8.3143	1.1818	0.1	3831.8
25775	8.4067	1.0909	0.1	3809.
25776	8.3143	1.3636	0.1	3825.8
25777	8.4067	1.2727	0.1	3803.1
25778	8.3143	1.5455	0.1	3820.4
25779	8.4067	1.4545	0.1	3797.6
25780	8.3143	1.7273	0.1	3815.5
25781	8.4067	1.6364	0.1	3792.6
25782	8.3143	1.9091	0.1	3811.2
25783	8.4067	1.8182	0.1	3788.2
25784	8.3143	2.0909	0.1	3807.5
25785	8.4067	2.	0.1	3784.3
25786	8.3143	2.2727	0.1	3804.4
25787	8.4067	2.1818	0.1	3781.
25788	8.3143	2.4545	0.1	3802.
25789	8.4067	2.3636	0.1	3778.4
25790	8.3143	2.6364	0.1	3800.3
25791	8.4067	2.5455	0.1	3776.4
25792	8.3143	2.8182	0.1	3799.2
25793	8.4067	2.7273	0.1	3775.
25794	8.3143	3.	0.1	3798.9
25795	8.4067	2.9091	0.1	3774.4
25796	8.3143	3.1818	0.1	3799.2
25797	8.4067	3.0909	0.1	3774.4
25798	8.3143	3.3636	0.1	3800.3
25799	8.4067	3.2727	0.1	3775.
25800	8.3143	3.5455	0.1	3802.
25801	8.4067	3.4545	0.1	3776.4
25802	8.3143	3.7273	0.1	3804.4
25803	8.4067	3.6364	0.1	3778.4
25804	8.3143	3.9091	0.1	3807.5
25805	8.4067	3.8182	0.1	3781.
25806	8.3143	4.0909	0.1	3811.2
25807	8.4067	4.	0.1	3784.3
25808	8.3143	4.2727	0.1	3815.5
25809	8.4067	4.1818	0.1	3788.2
25810	8.3143	4.4545	0.1	3820.4
25811	8.4067	4.3636	0.1	3792.6
25812	8.3143	4.6364	0.1	3825.8
25813	8.4067	4.5455	0.1	3797.6
25814	8.3143	4.8182	0.1	3831.8
25815	8.4067	4.7273	0.1	3803.1
25816	8.3143	5.	0.1	3838.1
25817	8.4067	4.9091	0.1	3809.
25818	8.3143	5.1818	0.1	3844.9
25819	8.4067	5.0909	0.1	3815.3
25820	8.3143	5.3636	0.1	3852.
25821	8.4067	5.2727	0.1	3822.
25822	8.3143	5.5455	0.1	3859.5
25823	8.4067	5.4545	0.1	3829.
25824	8.3143	5.7273	0.1	3867.7
25825	8.4067	5.6364	0.1	3836.4
25826	8.4067	5.8182	0.1	3845.1
25827	8.3143	5.9091	0.1	3871.9
25828	8.499	0.27273	0.1	3813.7
25829	8.5914	0.18182	0.1	3790.9
25830	8.499	9.0909e-002	0.1	3817.2
25831	8.499	0.45455	0.1	3806.
25832	8.5914	0.36364	0.1	3782.7
25833	8.499	0.63636	0.1	3799.
25834	8.5914	0.54545	0.1	3775.9
25835	8.499	0.81818	0.1	3792.4
25836	8.5914	0.72727	0.1	3769.4
25837	8.499	1.	0.1	3786.2
25838	8.5914	0.90909	0.1	3763.2
25839	8.499	1.1818	0.1	3780.3
25840	8.5914	1.0909	0.1	3757.3
25841	8.499	1.3636	0.1	3774.8
25842	8.5914	1.2727	0.1	3751.8
25843	8.499	1.5455	0.1	3769.8
25844	8.5914	1.4545	0.1	3746.8
25845	8.499	1.7273	0.1	3765.3
25846	8.5914	1.6364	0.1	3742.2
25847	8.499	1.9091	0.1	3761.3
25848	8.5914	1.8182	0.1	3738.1
25849	8.499	2.0909	0.1	3757.8
25850	8.5914	2.	0.1	3734.5
25851	8.499	2.2727	0.1	3755.
25852	8.5914	2.1818	0.1	3731.5
25853	8.499	2.4545	0.1	3752.8
25854	8.5914	2.3636	0.1	3729.
25855	8.499	2.6364	0.1	3751.1
25856	8.5914	2.5455	0.1	3727.2
25857	8.499	2.8182	0.1	3750.2
25858	8.5914	2.7273	0.1	3725.9
25859	8.499	3.	0.1	3749.9
25860	8.5914	2.9091	0.1	3725.3
25861	8.499	3.1818	0.1	3750.2
25862	8.5914	3.0909	0.1	3725.3
25863	8.499	3.3636	0.1	3751.1
25864	8.5914	3.2727	0.1	3725.9
25865	8.499	3.5455	0.1	3752.8
25866	8.5914	3.4545	0.1	3727.2
25867	8.499	3.7273	0.1	3755.
25868	8.5914	3.6364	0.1	3729.
25869	8.499	3.9091	0.1	3757.8
25870	8.5914	3.8182	0.1	3731.5
25871	8.499	4.0909	0.1	3761.3
25872	8.5914	4.	0.1	3734.5
25873	8.499	4.2727	0.1	3765.3
25874	8.5914	4.1818	0.1	3738.1
25875	8.499	4.4545	0.1	3769.8
25876	8.5914	4.3636	0.1	3742.2
25877	8.499	4.6364	0.1	3774.8
25878	8.5914	4.5455	0.1	3746.8
25879	8.499	4.8182	0.1	3780.3
25880	8.5914	4.7273	0.1	3751.8
25881	8.499	5.	0.1	3786.2
25882	8.5914	4.9091	0.1	3757.3
25883	8.499	5.1818	0.1	3792.4
25884	8.5914	5.0909	0.1	3763.2
25885	8.499	5.3636	0.1	3799.
25886	8.5914	5.2727	0.1	3769.4
25887	8.499	5.5455	0.1	3806.
25888	8.5914	5.4545	0.1	3775.9
25889	8.499	5.7273	0.1	3813.7
25890	8.5914	5.6364	0.1	3782.7
25891	8.5914	5.8182	0.1	3790.9
25892	8.499	5.9091	0.1	3817.2
25893	8.6838	0.27273	0.1	3759.9
25894	8.7762	0.18182	0.1	3737.1
25895	8.6838	9.0909e-002	0.1	3762.8
25896	8.6838	0.45455	0.1	3752.6
25897	8.7762	0.36364	0.1	3729.3
25898	8.6838	0.63636	0.1	3746.2
25899	8.7762	0.54545	0.1	3722.9
25900	8.6838	0.81818	0.1	3740.1
25901	8.7762	0.72727	0.1	3716.9
25902	8.6838	1.	0.1	3734.3
25903	8.7762	0.90909	0.1	3711.1
25904	8.6838	1.1818	0.1	3728.8
25905	8.7762	1.0909	0.1	3705.7
25906	8.6838	1.3636	0.1	3723.8
25907	8.7762	1.2727	0.1	3700.6
25908	8.6838	1.5455	0.1	3719.1
25909	8.7762	1.4545	0.1	3695.9
25910	8.6838	1.7273	0.1	3714.9
25911	8.7762	1.6364	0.1	3691.7
25912	8.6838	1.9091	0.1	3711.3
25913	8.7762	1.8182	0.1	3687.9
25914	8.6838	2.0909	0.1	3708.1
25915	8.7762	2.	0.1	3684.6
25916	8.6838	2.2727	0.1	3705.5
25917	8.7762	2.1818	0.1	3681.8
25918	8.6838	2.4545	0.1	3703.4
25919	8.7762	2.3636	0.1	3679.5
25920	8.6838	2.6364	0.1	3701.9
25921	8.7762	2.5455	0.1	3677.8
25922	8.6838	2.8182	0.1	3701.
25923	8.7762	2.7273	0.1	3676.7
25924	8.6838	3.	0.1	3700.7
25925	8.7762	2.9091	0.1	3676.1
25926	8.6838	3.1818	0.1	3701.
25927	8.7762	3.0909	0.1	3676.1
25928	8.6838	3.3636	0.1	3701.9
25929	8.7762	3.2727	0.1	3676.7
25930	8.6838	3.5455	0.1	3703.4
25931	8.7762	3.4545	0.1	3677.8
25932	8.6838	3.7273	0.1	3705.5
25933	8.7762	3.6364	0.1	3679.5
25934	8.6838	3.9091	0.1	3708.1
25935	8.7762	3.8182	0.1	3681.8
25936	8.6838	4.0909	0.1	3711.3
25937	8.7762	4.	0.1	3684.6
25938	8.6838	4.2727	0.1	3714.9
25939	8.7762	4.1818	0.1	3687.9
25940	8.6838	4.4545	0.1	3719.1
25941	8.7762	4.3636	0.1	3691.7
25942	8.6838	4.6364	0.1	3723.8
25943	8.7762	4.5455	0.1	3695.9
25944	8.6838	4.8182	0.1	3728.8
25945	8.7762	4.7273	0.1	3700.6
25946	8.6838	5.	0.1	3734.3
25947	8.7762	4.9091	0.1	3705.7
25948	8.6838	5.1818	0.1	3740.1
25949	8.7762	5.0909	0.1	3711.1
25950	8.6838	5.3636	0.1	3746.2
25951	8.7762	5.2727	0.1	3716.9
25952	8.6838	5.5455	0.1	3752.6
25953	8.7762	5.4545	0.1	3722.9
25954	8.6838	5.7273	0.1	3759.9
25955	8.7762	5.6364	0.1	3729.3
25956	8.7762	5.8182	0.1	3737.1
25957	8.6838	5.9091	0.1	3762.8
25958	8.8686	0.27273	0.1	3706.3
25959	8.961	0.18182	0.1	3683.4
25960	8.8686	9.0909e-002	0.1	3708.6
25961	8.8686	0.45455	0.1	3699.5
25962	8.961	0.36364	0.1	3676.
25963	8.8686	0.63636	0.1	3693.6
25964	8.961	0.54545	0.1	3670.1
25965	8.8686	0.81818	0.1	3687.9
25966	8.961	0.72727	0.1	3664.5
25967	8.8686	1.	0.1	3682.5
25968	8.961	0.90909	0.1	3659.2
25969	8.8686	1.1818	0.1	3677.5
25970	8.961	1.0909	0.1	3654.2
25971	8.8686	1.3636	0.1	3672.8
25972	8.961	1.2727	0.1	3649.5
25973	8.8686	1.5455	0.1	3668.5
25974	8.961	1.4545	0.1	3645.1
25975	8.8686	1.7273	0.1	3664.6
25976	8.961	1.6364	0.1	3641.2
25977	8.8686	1.9091	0.1	3661.2
25978	8.961	1.8182	0.1	3637.7
25979	8.8686	2.0909	0.1	3658.3
25980	8.961	2.	0.1	3634.6
25981	8.8686	2.2727	0.1	3655.8
25982	8.961	2.1818	0.1	3632.1
25983	8.8686	2.4545	0.1	3653.9
25984	8.961	2.3636	0.1	3630.
25985	8.8686	2.6364	0.1	3652.6
25986	8.961	2.5455	0.1	3628.4
25987	8.8686	2.8182	0.1	3651.7
25988	8.961	2.7273	0.1	3627.3
25989	8.8686	3.	0.1	3651.5
25990	8.961	2.9091	0.1	3626.8
25991	8.8686	3.1818	0.1	3651.7
25992	8.961	3.0909	0.1	3626.8
25993	8.8686	3.3636	0.1	3652.6
25994	8.961	3.2727	0.1	3627.3
25995	8.8686	3.5455	0.1	3653.9
25996	8.961	3.4545	0.1	3628.4
25997	8.8686	3.7273	0.1	3655.8
25998	8.961	3.6364	0.1	3630.
25999	8.8686	3.9091	0.1	3658.3
26000	8.961	3.8182	0.1	3632.1
26001	8.8686	4.0909	0.1	3661.2
26002	8.961	4.	0.1	3634.6
26003	8.8686	4.2727	0.1	3664.6
26004	8.961	4.1818	0.1	3637.7
26005	8.8686	4.4545	0.1	3668.5
26006	8.961	4.3636	0.1	3641.2
26007	8.8686	4.6364	0.1	3672.8
26008	8.961	4.5455	0.1	3645.1
26009	8.8686	4.8182	0.1	3677.5
26010	8.961	4.7273	0.1	3649.5
26011	8.8686	5.	0.1	3682.5
26012	8.961	4.9091	0.1	3654.2
26013	8.8686	5.1818	0.1	3687.9
26014	8.961	5.0909	0.1	3659.2
26015	8.8686	5.3636	0.1	3693.6
26016	8.961	5.2727	0.1	3664.5
26017	8.8686	5.5455	0.1	3699.5
26018	8.961	5.4545	0.1	3670.1
26019	8.8686	5.7273	0.1	3706.3
26020	8.961	5.6364	0.1	3676.
26021	8.961	5.8182	0.1	3683.4
26022	8.8686	5.9091	0.1	3708.6
26023	9.0533	0.27273	0.1	3653.
26024	9.1457	0.18182	0.1	3630.1
26025	9.0533	9.0909e-002	0.1	3654.7
26026	9.0533	0.45455	0.1	3646.6
26027	9.1457	0.36364	0.1	3623.
26028	9.0533	0.63636	0.1	3641.1
26029	9.1457	0.54545	0.1	3617.5
26030	9.0533	0.81818	0.1	3635.8
26031	9.1457	0.72727	0.1	3612.3
26032	9.0533	1.	0.1	3630.8
26033	9.1457	0.90909	0.1	3607.4
26034	9.0533	1.1818	0.1	3626.2
26035	9.1457	1.0909	0.1	3602.7
26036	9.0533	1.3636	0.1	3621.8
26037	9.1457	1.2727	0.1	3598.4
26038	9.0533	1.5455	0.1	3617.9
26039	9.1457	1.4545	0.1	3594.4
26040	9.0533	1.7273	0.1	3614.3
26041	9.1457	1.6364	0.1	3590.7
26042	9.0533	1.9091	0.1	3611.1
26043	9.1457	1.8182	0.1	3587.5
26044	9.0533	2.0909	0.1	3608.4
26045	9.1457	2.	0.1	3584.7
26046	9.0533	2.2727	0.1	3606.2
26047	9.1457	2.1818	0.1	3582.3
26048	9.0533	2.4545	0.1	3604.4
26049	9.1457	2.3636	0.1	3580.4
26050	9.0533	2.6364	0.1	3603.1
26051	9.1457	2.5455	0.1	3578.9
26052	9.0533	2.8182	0.1	3602.4
26053	9.1457	2.7273	0.1	3577.9
26054	9.0533	3.	0.1	3602.1
26055	9.1457	2.9091	0.1	3577.4
26056	9.0533	3.1818	0.1	3602.4
26057	9.1457	3.0909	0.1	3577.4
26058	9.0533	3.3636	0.1	3603.1
26059	9.1457	3.2727	0.1	3577.9
26060	9.0533	3.5455	0.1	3604.4
26061	9.1457	3.4545	0.1	3578.9
26062	9.0533	3.7273	0.1	3606.2
26063	9.1457	3.6364	0.1	3580.4
26064	9.0533	3.9091	0.1	3608.4
26065	9.1457	3.8182	0.1	3582.3
26066	9.0533	4.0909	0.1	3611.1
26067	9.1457	4.	0.1	3584.7
26068	9.0533	4.2727	0.1	3614.3
26069	9.1457	4.1818	0.1	3587.5
26070	9.0533	4.4545	0.1	3617.9
26071	9.1457	4.3636	0.1	3590.7
26072	9.0533	4.6364	0.1	3621.8
26073	9.1457	4.5455	0.1	3594.4
26074	9.0533	4.8182	0.1	3626.2
26075	9.1457	4.7273	0.1	3598.4
26076	9.0533	5.	0.1	3630.8
26077	9.1457	4.9091	0.1	3602.7
26078	9.0533	5.1818	0.1	3635.8
26079	9.1457	5.0909	0.1	3607.4
26080	9.0533	5.3636	0.1	3641.1
26081	9.1457	5.2727	0.1	3612.3
26082	9.0533	5.5455	0.1	3646.6
26083	9.1457	5.4545	0.1	3617.5
26084	9.0533	5.7273	0.1	3653.
26085	9.1457	5.6364	0.1	3623.
26086	9.1457	5.8182	0.1	3630.1
26087	9.0533	5.9091	0.1	3654.7
26088	9.2381	0.27273	0.1	3599.9
26089	9.3305	0.18182	0.1	3576.9
26090	9.2381	9.0909e-002	0.1	3601.1
26091	9.2381	0.45455	0.1	3593.9
26092	9.3305	0.36364	0.1	3570.2
26093	9.2381	0.63636	0.1	3588.8
26094	9.3305	0.54545	0.1	3565.1
26095	9.2381	0.81818	0.1	3583.9
26096	9.3305	0.72727	0.1	3560.3
26097	9.2381	1.	0.1	3579.3
26098	9.3305	0.90909	0.1	3555.7
26099	9.2381	1.1818	0.1	3574.9
26100	9.3305	1.0909	0.1	3551.4
26101	9.2381	1.3636	0.1	3570.9
26102	9.3305	1.2727	0.1	3547.4
26103	9.2381	1.5455	0.1	3567.3
26104	9.3305	1.4545	0.1	3543.7
26105	9.2381	1.7273	0.1	3563.9
26106	9.3305	1.6364	0.1	3540.3
26107	9.2381	1.9091	0.1	3561.
26108	9.3305	1.8182	0.1	3537.3
26109	9.2381	2.0909	0.1	3558.5
26110	9.3305	2.	0.1	3534.7
26111	9.2381	2.2727	0.1	3556.5
26112	9.3305	2.1818	0.1	3532.5
26113	9.2381	2.4545	0.1	3554.8
26114	9.3305	2.3636	0.1	3530.7
26115	9.2381	2.6364	0.1	3553.7
26116	9.3305	2.5455	0.1	3529.4
26117	9.2381	2.8182	0.1	3553.
26118	9.3305	2.7273	0.1	3528.5
26119	9.2381	3.	0.1	3552.7
26120	9.3305	2.9091	0.1	3528.
26121	9.2381	3.1818	0.1	3553.
26122	9.3305	3.0909	0.1	3528.
26123	9.2381	3.3636	0.1	3553.7
26124	9.3305	3.2727	0.1	3528.5
26125	9.2381	3.5455	0.1	3554.8
26126	9.3305	3.4545	0.1	3529.4
26127	9.2381	3.7273	0.1	3556.5
26128	9.3305	3.6364	0.1	3530.7
26129	9.2381	3.9091	0.1	3558.5
26130	9.3305	3.8182	0.1	3532.5
26131	9.2381	4.0909	0.1	3561.
26132	9.3305	4.	0.1	3534.7
26133	9.2381	4.2727	0.1	3563.9
26134	9.3305	4.1818	0.1	3537.3
26135	9.2381	4.4545	0.1	3567.3
26136	9.3305	4.3636	0.1	3540.3
26137	9.2381	4.6364	0.1	3570.9
26138	9.3305	4.5455	0.1	3543.7
26139	9.2381	4.8182	0.1	3574.9
26140	9.3305	4.7273	0.1	3547.4
26141	9.2381	5.	0.1	3579.3
26142	9.3305	4.9091	0.1	3551.4
26143	9.2381	5.1818	0.1	3583.9
26144	9.3305	5.0909	0.1	3555.7
26145	9.2381	5.3636	0.1	3588.8
26146	9.3305	5.2727	0.1	3560.3
26147	9.2381	5.5455	0.1	3593.9
26148	9.3305	5.4545	0.1	3565.1
26149	9.2381	5.7273	0.1	3599.9
26150	9.3305	5.6364	0.1	3570.2
26151	9.3305	5.8182	0.1	3576.9
26152	9.2381	5.9091	0.1	3601.1
26153	9.4229	0.27273	0.1	3547.1
26154	9.5152	0.18182	0.1	3524.
26155	9.4229	9.0909e-002	0.1	3547.8
26156	9.4229	0.45455	0.1	3541.4
26157	9.5152	0.36364	0.1	3517.6
26158	9.4229	0.63636	0.1	3536.6
26159	9.5152	0.54545	0.1	3512.9
26160	9.4229	0.81818	0.1	3532.1
26161	9.5152	0.72727	0.1	3508.4
26162	9.4229	1.	0.1	3527.8
26163	9.5152	0.90909	0.1	3504.2
26164	9.4229	1.1818	0.1	3523.8
26165	9.5152	1.0909	0.1	3500.2
26166	9.4229	1.3636	0.1	3520.1
26167	9.5152	1.2727	0.1	3496.5
26168	9.4229	1.5455	0.1	3516.7
26169	9.5152	1.4545	0.1	3493.
26170	9.4229	1.7273	0.1	3513.6
26171	9.5152	1.6364	0.1	3489.9
26172	9.4229	1.9091	0.1	3511.
26173	9.5152	1.8182	0.1	3487.1
26174	9.4229	2.0909	0.1	3508.6
26175	9.5152	2.	0.1	3484.7
26176	9.4229	2.2727	0.1	3506.7
26177	9.5152	2.1818	0.1	3482.7
26178	9.4229	2.4545	0.1	3505.2
26179	9.5152	2.3636	0.1	3481.
26180	9.4229	2.6364	0.1	3504.1
26181	9.5152	2.5455	0.1	3479.8
26182	9.4229	2.8182	0.1	3503.5
26183	9.5152	2.7273	0.1	3479.
26184	9.4229	3.	0.1	3503.3
26185	9.5152	2.9091	0.1	3478.5
26186	9.4229	3.1818	0.1	3503.5
26187	9.5152	3.0909	0.1	3478.5
26188	9.4229	3.3636	0.1	3504.1
26189	9.5152	3.2727	0.1	3479.
26190	9.4229	3.5455	0.1	3505.2
26191	9.5152	3.4545	0.1	3479.8
26192	9.4229	3.7273	0.1	3506.7
26193	9.5152	3.6364	0.1	3481.
26194	9.4229	3.9091	0.1	3508.6
26195	9.5152	3.8182	0.1	3482.7
26196	9.4229	4.0909	0.1	3511.
26197	9.5152	4.	0.1	3484.7
26198	9.4229	4.2727	0.1	3513.6
26199	9.5152	4.1818	0.1	3487.1
26200	9.4229	4.4545	0.1	3516.7
26201	9.5152	4.3636	0.1	3489.9
26202	9.4229	4.6364	0.1	3520.1
26203	9.5152	4.5455	0.1	3493.
26204	9.4229	4.8182	0.1	3523.8
26205	9.5152	4.7273	0.1	3496.5
26206	9.4229	5.	0.1	3527.8
26207	9.5152	4.9091	0.1	3500.2
26208	9.4229	5.1818	0.1	3532.1
26209	9.5152	5.0909	0.1	3504.2
26210	9.4229	5.3636	0.1	3536.6
26211	9.5152	5.2727	0.1	3508.4
26212	9.4229	5.5455	0.1	3541.4
26213	9.5152	5.4545	0.1	3512.9
26214	9.4229	5.7273	0.1	3547.1
26215	9.5152	5.6364	0.1	3517.6
26216	9.5152	5.8182	0.1	3524.
26217	9.4229	5.9091	0.1	3547.8
26218	9.6076	0.27273	0.1	3494.5
26219	9.7	0.18182	0.1	3471.4
26220	9.6076	9.0909e-002	0.1	3494.7
26221	9.6076	0.45455	0.1	3489.1
26222	9.7	0.36364	0.1	3465.3
26223	9.6076	0.63636	0.1	3484.7
26224	9.7	0.54545	0.1	3460.9
26225	9.6076	0.81818	0.1	3480.5
26226	9.7	0.72727	0.1	3456.7
26227	9.6076	1.	0.1	3476.5
26228	9.7	0.90909	0.1	3452.8
26229	9.6076	1.1818	0.1	3472.8
26230	9.7	1.0909	0.1	3449.1
26231	9.6076	1.3636	0.1	3469.3
26232	9.7	1.2727	0.1	3445.6
26233	9.6076	1.5455	0.1	3466.2
26234	9.7	1.4545	0.1	3442.4
26235	9.6076	1.7273	0.1	3463.4
26236	9.7	1.6364	0.1	3439.6
26237	9.6076	1.9091	0.1	3460.9
26238	9.7	1.8182	0.1	3437.
26239	9.6076	2.0909	0.1	3458.8
26240	9.7	2.	0.1	3434.8
26241	9.6076	2.2727	0.1	3457.
26242	9.7	2.1818	0.1	3432.9
26243	9.6076	2.4545	0.1	3455.6
26244	9.7	2.3636	0.1	3431.4
26245	9.6076	2.6364	0.1	3454.6
26246	9.7	2.5455	0.1	3430.2
26247	9.6076	2.8182	0.1	3454.
26248	9.7	2.7273	0.1	3429.5
26249	9.6076	3.	0.1	3453.8
26250	9.7	2.9091	0.1	3429.1
26251	9.6076	3.1818	0.1	3454.
26252	9.7	3.0909	0.1	3429.1
26253	9.6076	3.3636	0.1	3454.6
26254	9.7	3.2727	0.1	3429.5
26255	9.6076	3.5455	0.1	3455.6
26256	9.7	3.4545	0.1	3430.2
26257	9.6076	3.7273	0.1	3457.
26258	9.7	3.6364	0.1	3431.4
26259	9.6076	3.9091	0.1	3458.8
26260	9.7	3.8182	0.1	3432.9
26261	9.6076	4.0909	0.1	3460.9
26262	9.7	4.	0.1	3434.8
26263	9.6076	4.2727	0.1	3463.4
26264	9.7	4.1818	0.1	3437.
26265	9.6076	4.4545	0.1	3466.2
26266	9.7	4.3636	0.1	3439.6
26267	9.6076	4.6364	0.1	3469.3
26268	9.7	4.5455	0.1	3442.4
26269	9.6076	4.8182	0.1	3472.8
26270	9.7	4.7273	0.1	3445.6
26271	9.6076	5.	0.1	3476.5
26272	9.7	4.9091	0.1	3449.1
26273	9.6076	5.1818	0.1	3480.5
26274	9.7	5.0909	0.1	3452.8
26275	9.6076	5.3636	0.1	3484.7
26276	9.7	5.2727	0.1	3456.7
26277	9.6076	5.5455	0.1	3489.1
26278	9.7	5.4545	0.1	3460.9
26279	9.6076	5.7273	0.1	3494.5
26280	9.7	5.6364	0.1	3465.3
26281	9.7	5.8182	0.1	3471.4
26282	9.6076	5.9091	0.1	3494.7
26283	9.7924	0.27273	0.1	3442.1
26284	9.8848	0.18182	0.1	3418.9
26285	9.7924	9.0909e-002	0.1	3441.8
26286	9.7924	0.45455	0.1	3437.
26287	9.8848	0.36364	0.1	3413.1
26288	9.7924	0.63636	0.1	3432.9
26289	9.8848	0.54545	0.1	3409.
26290	9.7924	0.81818	0.1	3429.
26291	9.8848	0.72727	0.1	3405.1
26292	9.7924	1.	0.1	3425.3
26293	9.8848	0.90909	0.1	3401.5
26294	9.7924	1.1818	0.1	3421.9
26295	9.8848	1.0909	0.1	3398.1
26296	9.7924	1.3636	0.1	3418.7
26297	9.8848	1.2727	0.1	3394.9
26298	9.7924	1.5455	0.1	3415.8
26299	9.8848	1.4545	0.1	3391.9
26300	9.7924	1.7273	0.1	3413.2
26301	9.8848	1.6364	0.1	3389.3
26302	9.7924	1.9091	0.1	3410.9
26303	9.8848	1.8182	0.1	3386.9
26304	9.7924	2.0909	0.1	3408.9
26305	9.8848	2.	0.1	3384.9
26306	9.7924	2.2727	0.1	3407.3
26307	9.8848	2.1818	0.1	3383.1
26308	9.7924	2.4545	0.1	3406.
26309	9.8848	2.3636	0.1	3381.7
26310	9.7924	2.6364	0.1	3405.1
26311	9.8848	2.5455	0.1	3380.7
26312	9.7924	2.8182	0.1	3404.5
26313	9.8848	2.7273	0.1	3380.
26314	9.7924	3.	0.1	3404.3
26315	9.8848	2.9091	0.1	3379.6
26316	9.7924	3.1818	0.1	3404.5
26317	9.8848	3.0909	0.1	3379.6
26318	9.7924	3.3636	0.1	3405.1
26319	9.8848	3.2727	0.1	3380.
26320	9.7924	3.5455	0.1	3406.
26321	9.8848	3.4545	0.1	3380.7
26322	9.7924	3.7273	0.1	3407.3
26323	9.8848	3.6364	0.1	3381.7
26324	9.7924	3.9091	0.1	3408.9
26325	9.8848	3.8182	0.1	3383.1
26326	9.7924	4.0909	0.1	3410.9
26327	9.8848	4.	0.1	3384.9
26328	9.7924	4.2727	0.1	3413.2
26329	9.8848	4.1818	0.1	3386.9
26330	9.7924	4.4545	0.1	3415.8
26331	9.8848	4.3636	0.1	3389.3
26332	9.7924	4.6364	0.1	3418.7
26333	9.8848	4.5455	0.1	3391.9
26334	9.7924	4.8182	0.1	3421.9
26335	9.8848	4.7273	0.1	3394.9
26336	9.7924	5.	0.1	3425.3
26337	9.8848	4.9091	0.1	3398.1
26338	9.7924	5.1818	0.1	3429.
26339	9.8848	5.0909	0.1	3401.5
26340	9.7924	5.3636	0.1	3432.9
26341	9.8848	5.2727	0.1	3405.1
26342	9.7924	5.5455	0.1	3437.
26343	9.8848	5.4545	0.1	3409.
26344	9.7924	5.7273	0.1	3442.1
26345	9.8848	5.6364	0.1	3413.1
26346	9.8848	5.8182	0.1	3418.9
26347	9.7924	5.9091	0.1	3441.8
26348	9.9771	0.27273	0.1	3389.9
26349	10.07	0.18182	0.1	3366.7
26350	9.9771	9.0909e-002	0.1	3389.2
26351	9.9771	0.45455	0.1	3385.1
26352	10.07	0.36364	0.1	3361.2
26353	9.9771	0.63636	0.1	3381.2
26354	10.07	0.54545	0.1	3357.3
26355	9.9771	0.81818	0.1	3377.6
26356	10.07	0.72727	0.1	3353.8
26357	9.9771	1.	0.1	3374.2
26358	10.07	0.90909	0.1	3350.4
26359	9.9771	1.1818	0.1	3371.1
26360	10.07	1.0909	0.1	3347.2
26361	9.9771	1.3636	0.1	3368.1
26362	10.07	1.2727	0.1	3344.3
26363	9.9771	1.5455	0.1	3365.4
26364	10.07	1.4545	0.1	3341.5
26365	9.9771	1.7273	0.1	3363.
26366	10.07	1.6364	0.1	3339.1
26367	9.9771	1.9091	0.1	3360.9
26368	10.07	1.8182	0.1	3336.9
26369	9.9771	2.0909	0.1	3359.1
26370	10.07	2.	0.1	3335.
26371	9.9771	2.2727	0.1	3357.6
26372	10.07	2.1818	0.1	3333.4
26373	9.9771	2.4545	0.1	3356.4
26374	10.07	2.3636	0.1	3332.1
26375	9.9771	2.6364	0.1	3355.6
26376	10.07	2.5455	0.1	3331.1
26377	9.9771	2.8182	0.1	3355.
26378	10.07	2.7273	0.1	3330.5
26379	9.9771	3.	0.1	3354.9
26380	10.07	2.9091	0.1	3330.2
26381	9.9771	3.1818	0.1	3355.
26382	10.07	3.0909	0.1	3330.2
26383	9.9771	3.3636	0.1	3355.6
26384	10.07	3.2727	0.1	3330.5
26385	9.9771	3.5455	0.1	3356.4
26386	10.07	3.4545	0.1	3331.1
26387	9.9771	3.7273	0.1	3357.6
26388	10.07	3.6364	0.1	3332.1
26389	9.9771	3.9091	0.1	3359.1
26390	10.07	3.8182	0.1	3333.4
26391	9.9771	4.0909	0.1	3360.9
26392	10.07	4.	0.1	3335.
26393	9.9771	4.2727	0.1	3363.
26394	10.07	4.1818	0.1	3336.9
26395	9.9771	4.4545	0.1	3365.4
26396	10.07	4.3636	0.1	3339.1
26397	9.9771	4.6364	0.1	3368.1
26398	10.07	4.5455	0.1	3341.5
26399	9.9771	4.8182	0.1	3371.1
26400	10.07	4.7273	0.1	3344.3
26401	9.9771	5.	0.1	3374.2
26402	10.07	4.9091	0.1	3347.2
26403	9.9771	5.1818	0.1	3377.6
26404	10.07	5.0909	0.1	3350.4
26405	9.9771	5.3636	0.1	3381.2
26406	10.07	5.2727	0.1	3353.8
26407	9.9771	5.5455	0.1	3385.1
26408	10.07	5.4545	0.1	3357.3
26409	9.9771	5.7273	0.1	3389.9
26410	10.07	5.6364	0.1	3361.2
26411	10.07	5.8182	0.1	3366.7
26412	9.9771	5.9091	0.1	3389.2
26413	10.162	0.27273	0.1	3337.9
26414	10.254	0.18182	0.1	3314.7
26415	10.162	9.0909e-002	0.1	3336.8
26416	10.162	0.45455	0.1	3333.4
26417	10.254	0.36364	0.1	3309.4
26418	10.162	0.63636	0.1	3329.8
26419	10.254	0.54545	0.1	3305.8
26420	10.162	0.81818	0.1	3326.5
26421	10.254	0.72727	0.1	3302.5
26422	10.162	1.	0.1	3323.3
26423	10.254	0.90909	0.1	3299.4
26424	10.162	1.1818	0.1	3320.4
26425	10.254	1.0909	0.1	3296.5
26426	10.162	1.3636	0.1	3317.7
26427	10.254	1.2727	0.1	3293.7
26428	10.162	1.5455	0.1	3315.2
26429	10.254	1.4545	0.1	3291.2
26430	10.162	1.7273	0.1	3313.
26431	10.254	1.6364	0.1	3289.
26432	10.162	1.9091	0.1	3311.
26433	10.254	1.8182	0.1	3287.
26434	10.162	2.0909	0.1	3309.3
26435	10.254	2.	0.1	3285.2
26436	10.162	2.2727	0.1	3307.9
26437	10.254	2.1818	0.1	3283.7
26438	10.162	2.4545	0.1	3306.8
26439	10.254	2.3636	0.1	3282.6
26440	10.162	2.6364	0.1	3306.1
26441	10.254	2.5455	0.1	3281.7
26442	10.162	2.8182	0.1	3305.6
26443	10.254	2.7273	0.1	3281.1
26444	10.162	3.	0.1	3305.4
26445	10.254	2.9091	0.1	3280.8
26446	10.162	3.1818	0.1	3305.6
26447	10.254	3.0909	0.1	3280.8
26448	10.162	3.3636	0.1	3306.1
26449	10.254	3.2727	0.1	3281.1
26450	10.162	3.5455	0.1	3306.8
26451	10.254	3.4545	0.1	3281.7
26452	10.162	3.7273	0.1	3307.9
26453	10.254	3.6364	0.1	3282.6
26454	10.162	3.9091	0.1	3309.3
26455	10.254	3.8182	0.1	3283.7
26456	10.162	4.0909	0.1	3311.
26457	10.254	4.	0.1	3285.2
26458	10.162	4.2727	0.1	3313.
26459	10.254	4.1818	0.1	3287.
26460	10.162	4.4545	0.1	3315.2
26461	10.254	4.3636	0.1	3289.
26462	10.162	4.6364	0.1	3317.7
26463	10.254	4.5455	0.1	3291.2
26464	10.162	4.8182	0.1	3320.4
26465	10.254	4.7273	0.1	3293.7
26466	10.162	5.	0.1	3323.3
26467	10.254	4.9091	0.1	3296.5
26468	10.162	5.1818	0.1	3326.5
26469	10.254	5.0909	0.1	3299.4
26470	10.162	5.3636	0.1	3329.8
26471	10.254	5.2727	0.1	3302.5
26472	10.162	5.5455	0.1	3333.4
26473	10.254	5.4545	0.1	3305.8
26474	10.162	5.7273	0.1	3337.9
26475	10.254	5.6364	0.1	3309.4
26476	10.254	5.8182	0.1	3314.7
26477	10.162	5.9091	0.1	3336.8
26478	10.347	0.27273	0.1	3286.1
26479	10.439	0.18182	0.1	3263.
26480	10.347	9.0909e-002	0.1	3284.7
26481	10.347	0.45455	0.1	3281.8
26482	10.439	0.36364	0.1	3257.8
26483	10.347	0.63636	0.1	3278.5
26484	10.439	0.54545	0.1	3254.5
26485	10.347	0.81818	0.1	3275.4
26486	10.439	0.72727	0.1	3251.5
26487	10.347	1.	0.1	3272.5
26488	10.439	0.90909	0.1	3248.6
26489	10.347	1.1818	0.1	3269.8
26490	10.439	1.0909	0.1	3245.9
26491	10.347	1.3636	0.1	3267.3
26492	10.439	1.2727	0.1	3243.4
26493	10.347	1.5455	0.1	3265.
26494	10.439	1.4545	0.1	3241.
26495	10.347	1.7273	0.1	3263.
26496	10.439	1.6364	0.1	3239.
26497	10.347	1.9091	0.1	3261.2
26498	10.439	1.8182	0.1	3237.1
26499	10.347	2.0909	0.1	3259.6
26500	10.439	2.	0.1	3235.5
26501	10.347	2.2727	0.1	3258.3
26502	10.439	2.1818	0.1	3234.1
26503	10.347	2.4545	0.1	3257.3
26504	10.439	2.3636	0.1	3233.1
26505	10.347	2.6364	0.1	3256.6
26506	10.439	2.5455	0.1	3232.2
26507	10.347	2.8182	0.1	3256.2
26508	10.439	2.7273	0.1	3231.7
26509	10.347	3.	0.1	3256.1
26510	10.439	2.9091	0.1	3231.4
26511	10.347	3.1818	0.1	3256.2
26512	10.439	3.0909	0.1	3231.4
26513	10.347	3.3636	0.1	3256.6
26514	10.439	3.2727	0.1	3231.7
26515	10.347	3.5455	0.1	3257.3
26516	10.439	3.4545	0.1	3232.2
26517	10.347	3.7273	0.1	3258.3
26518	10.439	3.6364	0.1	3233.1
26519	10.347	3.9091	0.1	3259.6
26520	10.439	3.8182	0.1	3234.1
26521	10.347	4.0909	0.1	3261.2
26522	10.439	4.	0.1	3235.5
26523	10.347	4.2727	0.1	3263.
26524	10.439	4.1818	0.1	3237.1
26525	10.347	4.4545	0.1	3265.
26526	10.439	4.3636	0.1	3239.
26527	10.347	4.6364	0.1	3267.3
26528	10.439	4.5455	0.1	3241.
26529	10.347	4.8182	0.1	3269.8
26530	10.439	4.7273	0.1	3243.4
26531	10.347	5.	0.1	3272.5
26532	10.439	4.9091	0.1	3245.9
26533	10.347	5.1818	0.1	3275.4
26534	10.439	5.0909	0.1	3248.6
26535	10.347	5.3636	0.1	3278.5
26536	10.439	5.2727	0.1	3251.5
26537	10.347	5.5455	0.1	3281.8
26538	10.439	5.4545	0.1	3254.5
26539	10.347	5.7273	0.1	3286.1
26540	10.439	5.6364	0.1	3257.8
26541	10.439	5.8182	0.1	3263.
26542	10.347	5.9091	0.1	3284.7
26543	10.531	0.27273	0.1	3234.6
26544	10.624	0.18182	0.1	3211.4
26545	10.531	9.0909e-002	0.1	3232.8
26546	10.531	0.45455	0.1	3230.5
26547	10.624	0.36364	0.1	3206.5
26548	10.531	0.63636	0.1	3227.4
26549	10.624	0.54545	0.1	3203.4
26550	10.531	0.81818	0.1	3224.6
26551	10.624	0.72727	0.1	3200.6
26552	10.531	1.	0.1	3221.9
26553	10.624	0.90909	0.1	3197.9
26554	10.531	1.1818	0.1	3219.4
26555	10.624	1.0909	0.1	3195.4
26556	10.531	1.3636	0.1	3217.1
26557	10.624	1.2727	0.1	3193.1
26558	10.531	1.5455	0.1	3215.
26559	10.624	1.4545	0.1	3191.
26560	10.531	1.7273	0.1	3213.1
26561	10.624	1.6364	0.1	3189.1
26562	10.531	1.9091	0.1	3211.4
26563	10.624	1.8182	0.1	3187.4
26564	10.531	2.0909	0.1	3210.
26565	10.624	2.	0.1	3185.9
26566	10.531	2.2727	0.1	3208.8
26567	10.624	2.1818	0.1	3184.6
26568	10.531	2.4545	0.1	3207.9
26569	10.624	2.3636	0.1	3183.6
26570	10.531	2.6364	0.1	3207.3
26571	10.624	2.5455	0.1	3182.9
26572	10.531	2.8182	0.1	3206.9
26573	10.624	2.7273	0.1	3182.4
26574	10.531	3.	0.1	3206.7
26575	10.624	2.9091	0.1	3182.1
26576	10.531	3.1818	0.1	3206.9
26577	10.624	3.0909	0.1	3182.1
26578	10.531	3.3636	0.1	3207.3
26579	10.624	3.2727	0.1	3182.4
26580	10.531	3.5455	0.1	3207.9
26581	10.624	3.4545	0.1	3182.9
26582	10.531	3.7273	0.1	3208.8
26583	10.624	3.6364	0.1	3183.6
26584	10.531	3.9091	0.1	3210.
26585	10.624	3.8182	0.1	3184.6
26586	10.531	4.0909	0.1	3211.4
26587	10.624	4.	0.1	3185.9
26588	10.531	4.2727	0.1	3213.1
26589	10.624	4.1818	0.1	3187.4
26590	10.531	4.4545	0.1	3215.
26591	10.624	4.3636	0.1	3189.1
26592	10.531	4.6364	0.1	3217.1
26593	10.624	4.5455	0.1	3191.
26594	10.531	4.8182	0.1	3219.4
26595	10.624	4.7273	0.1	3193.1
26596	10.531	5.	0.1	3221.9
26597	10.624	4.9091	0.1	3195.4
26598	10.531	5.1818	0.1	3224.6
26599	10.624	5.0909	0.1	3197.9
26600	10.531	5.3636	0.1	3227.4
26601	10.624	5.2727	0.1	3200.6
26602	10.531	5.5455	0.1	3230.5
26603	10.624	5.4545	0.1	3203.4
26604	10.531	5.7273	0.1	3234.6
26605	10.624	5.6364	0.1	3206.5
26606	10.624	5.8182	0.1	3211.4
26607	10.531	5.9091	0.1	3232.8
26608	10.716	0.27273	0.1	3183.2
26609	10.809	0.18182	0.1	3160.1
26610	10.716	9.0909e-002	0.1	3181.1
26611	10.716	0.45455	0.1	3179.4
26612	10.809	0.36364	0.1	3155.3
26613	10.716	0.63636	0.1	3176.5
26614	10.809	0.54545	0.1	3152.5
26615	10.716	0.81818	0.1	3173.9
26616	10.809	0.72727	0.1	3149.9
26617	10.716	1.	0.1	3171.4
26618	10.809	0.90909	0.1	3147.4
26619	10.716	1.1818	0.1	3169.1
26620	10.809	1.0909	0.1	3145.1
26621	10.716	1.3636	0.1	3167.
26622	10.809	1.2727	0.1	3143.
26623	10.716	1.5455	0.1	3165.
26624	10.809	1.4545	0.1	3141.
26625	10.716	1.7273	0.1	3163.3
26626	10.809	1.6364	0.1	3139.3
26627	10.716	1.9091	0.1	3161.8
26628	10.809	1.8182	0.1	3137.7
26629	10.716	2.0909	0.1	3160.5
26630	10.809	2.	0.1	3136.4
26631	10.716	2.2727	0.1	3159.4
26632	10.809	2.1818	0.1	3135.2
26633	10.716	2.4545	0.1	3158.6
26634	10.809	2.3636	0.1	3134.3
26635	10.716	2.6364	0.1	3158.
26636	10.809	2.5455	0.1	3133.6
26637	10.716	2.8182	0.1	3157.6
26638	10.809	2.7273	0.1	3133.1
26639	10.716	3.	0.1	3157.5
26640	10.809	2.9091	0.1	3132.9
26641	10.716	3.1818	0.1	3157.6
26642	10.809	3.0909	0.1	3132.9
26643	10.716	3.3636	0.1	3158.
26644	10.809	3.2727	0.1	3133.1
26645	10.716	3.5455	0.1	3158.6
26646	10.809	3.4545	0.1	3133.6
26647	10.716	3.7273	0.1	3159.4
26648	10.809	3.6364	0.1	3134.3
26649	10.716	3.9091	0.1	3160.5
26650	10.809	3.8182	0.1	3135.2
26651	10.716	4.0909	0.1	3161.8
26652	10.809	4.	0.1	3136.4
26653	10.716	4.2727	0.1	3163.3
26654	10.809	4.1818	0.1	3137.7
26655	10.716	4.4545	0.1	3165.
26656	10.809	4.3636	0.1	3139.3
26657	10.716	4.6364	0.1	3167.
26658	10.809	4.5455	0.1	3141.
26659	10.716	4.8182	0.1	3169.1
26660	10.809	4.7273	0.1	3143.
26661	10.716	5.	0.1	3171.4
26662	10.809	4.9091	0.1	3145.1
26663	10.716	5.1818	0.1	3173.9
26664	10.809	5.0909	0.1	3147.4
26665	10.716	5.3636	0.1	3176.5
26666	10.809	5.2727	0.1	3149.9
26667	10.716	5.5455	0.1	3179.4
26668	10.809	5.4545	0.1	3152.5
26669	10.716	5.7273	0.1	3183.2
26670	10.809	5.6364	0.1	3155.3
26671	10.809	5.8182	0.1	3160.1
26672	10.716	5.9091	0.1	3181.1
26673	10.901	0.27273	0.1	3132.1
26674	10.993	0.18182	0.1	3109.
26675	10.901	9.0909e-002	0.1	3129.7
26676	10.901	0.45455	0.1	3128.4
26677	10.993	0.36364	0.1	3104.4
26678	10.901	0.63636	0.1	3125.8
26679	10.993	0.54545	0.1	3101.7
26680	10.901	0.81818	0.1	3123.4
26681	10.993	0.72727	0.1	3099.3
26682	10.901	1.	0.1	3121.1
26683	10.993	0.90909	0.1	3097.1
26684	10.901	1.1818	0.1	3119.
26685	10.993	1.0909	0.1	3094.9
26686	10.901	1.3636	0.1	3117.
26687	10.993	1.2727	0.1	3093.
26688	10.901	1.5455	0.1	3115.2
26689	10.993	1.4545	0.1	3091.2
26690	10.901	1.7273	0.1	3113.6
26691	10.993	1.6364	0.1	3089.6
26692	10.901	1.9091	0.1	3112.2
26693	10.993	1.8182	0.1	3088.2
26694	10.901	2.0909	0.1	3111.1
26695	10.993	2.	0.1	3086.9
26696	10.901	2.2727	0.1	3110.1
26697	10.993	2.1818	0.1	3085.9
26698	10.901	2.4545	0.1	3109.3
26699	10.993	2.3636	0.1	3085.1
26700	10.901	2.6364	0.1	3108.8
26701	10.993	2.5455	0.1	3084.4
26702	10.901	2.8182	0.1	3108.4
26703	10.993	2.7273	0.1	3084.
26704	10.901	3.	0.1	3108.3
26705	10.993	2.9091	0.1	3083.8
26706	10.901	3.1818	0.1	3108.4
26707	10.993	3.0909	0.1	3083.8
26708	10.901	3.3636	0.1	3108.8
26709	10.993	3.2727	0.1	3084.
26710	10.901	3.5455	0.1	3109.3
26711	10.993	3.4545	0.1	3084.4
26712	10.901	3.7273	0.1	3110.1
26713	10.993	3.6364	0.1	3085.1
26714	10.901	3.9091	0.1	3111.1
26715	10.993	3.8182	0.1	3085.9
26716	10.901	4.0909	0.1	3112.2
26717	10.993	4.	0.1	3086.9
26718	10.901	4.2727	0.1	3113.6
26719	10.993	4.1818	0.1	3088.2
26720	10.901	4.4545	0.1	3115.2
26721	10.993	4.3636	0.1	3089.6
26722	10.901	4.6364	0.1	3117.
26723	10.993	4.5455	0.1	3091.2
26724	10.901	4.8182	0.1	3119.
26725	10.993	4.7273	0.1	3093.
26726	10.901	5.	0.1	3121.1
26727	10.993	4.9091	0.1	3094.9
26728	10.901	5.1818	0.1	3123.4
26729	10.993	5.0909	0.1	3097.1
26730	10.901	5.3636	0.1	3125.8
26731	10.993	5.2727	0.1	3099.3
26732	10.901	5.5455	0.1	3128.4
26733	10.993	5.4545	0.1	3101.7
26734	10.901	5.7273	0.1	3132.1
26735	10.993	5.6364	0.1	3104.4
26736	10.993	5.8182	0.1	3109.
26737	10.901	5.9091	0.1	3129.7
26738	11.086	0.27273	0.1	3081.1
26739	11.178	0.18182	0.1	3058.1
26740	11.086	9.0909e-002	0.1	3078.5
26741	11.086	0.45455	0.1	3077.7
26742	11.178	0.36364	0.1	3053.6
26743	11.086	0.63636	0.1	3075.2
26744	11.178	0.54545	0.1	3051.2
26745	11.086	0.81818	0.1	3073.
26746	11.178	0.72727	0.1	3049.
26747	11.086	1.	0.1	3070.9
26748	11.178	0.90909	0.1	3046.9
26749	11.086	1.1818	0.1	3069.
26750	11.178	1.0909	0.1	3045.
26751	11.086	1.3636	0.1	3067.2
26752	11.178	1.2727	0.1	3043.2
26753	11.086	1.5455	0.1	3065.6
26754	11.178	1.4545	0.1	3041.5
26755	11.086	1.7273	0.1	3064.1
26756	11.178	1.6364	0.1	3040.1
26757	11.086	1.9091	0.1	3062.8
26758	11.178	1.8182	0.1	3038.8
26759	11.086	2.0909	0.1	3061.7
26760	11.178	2.	0.1	3037.6
26761	11.086	2.2727	0.1	3060.8
26762	11.178	2.1818	0.1	3036.7
26763	11.086	2.4545	0.1	3060.1
26764	11.178	2.3636	0.1	3035.9
26765	11.086	2.6364	0.1	3059.6
26766	11.178	2.5455	0.1	3035.4
26767	11.086	2.8182	0.1	3059.3
26768	11.178	2.7273	0.1	3035.
26769	11.086	3.	0.1	3059.2
26770	11.178	2.9091	0.1	3034.8
26771	11.086	3.1818	0.1	3059.3
26772	11.178	3.0909	0.1	3034.8
26773	11.086	3.3636	0.1	3059.6
26774	11.178	3.2727	0.1	3035.
26775	11.086	3.5455	0.1	3060.1
26776	11.178	3.4545	0.1	3035.4
26777	11.086	3.7273	0.1	3060.8
26778	11.178	3.6364	0.1	3035.9
26779	11.086	3.9091	0.1	3061.7
26780	11.178	3.8182	0.1	3036.7
26781	11.086	4.0909	0.1	3062.8
26782	11.178	4.	0.1	3037.6
26783	11.086	4.2727	0.1	3064.1
26784	11.178	4.1818	0.1	3038.8
26785	11.086	4.4545	0.1	3065.6
26786	11.178	4.3636	0.1	3040.1
26787	11.086	4.6364	0.1	3067.2
26788	11.178	4.5455	0.1	3041.5
26789	11.086	4.8182	0.1	3069.
26790	11.178	4.7273	0.1	3043.2
26791	11.086	5.	0.1	3070.9
26792	11.178	4.9091	0.1	3045.
26793	11.086	5.1818	0.1	3073.
26794	11.178	5.0909	0.1	3046.9
26795	11.086	5.3636	0.1	3075.2
26796	11.178	5.2727	0.1	3049.
26797	11.086	5.5455	0.1	3077.7
26798	11.178	5.4545	0.1	3051.2
26799	11.086	5.7273	0.1	3081.1
26800	11.178	5.6364	0.1	3053.6
26801	11.178	5.8182	0.1	3058.1
26802	11.086	5.9091	0.1	3078.5
26803	11.27	0.27273	0.1	3030.4
26804	11.363	0.18182	0.1	3007.3
26805	11.27	9.0909e-002	0.1	3027.4
26806	11.27	0.45455	0.1	3027.1
26807	11.363	0.36364	0.1	3003.1
26808	11.27	0.63636	0.1	3024.9
26809	11.363	0.54545	0.1	3000.8
26810	11.27	0.81818	0.1	3022.8
26811	11.363	0.72727	0.1	2998.8
26812	11.27	1.	0.1	3020.9
26813	11.363	0.90909	0.1	2996.9
26814	11.27	1.1818	0.1	3019.1
26815	11.363	1.0909	0.1	2995.1
26816	11.27	1.3636	0.1	3017.5
26817	11.363	1.2727	0.1	2993.5
26818	11.27	1.5455	0.1	3016.
26819	11.363	1.4545	0.1	2992.
26820	11.27	1.7273	0.1	3014.7
26821	11.363	1.6364	0.1	2990.7
26822	11.27	1.9091	0.1	3013.5
26823	11.363	1.8182	0.1	2989.5
26824	11.27	2.0909	0.1	3012.6
26825	11.363	2.	0.1	2988.5
26826	11.27	2.2727	0.1	3011.7
26827	11.363	2.1818	0.1	2987.6
26828	11.27	2.4545	0.1	3011.1
26829	11.363	2.3636	0.1	2986.9
26830	11.27	2.6364	0.1	3010.6
26831	11.363	2.5455	0.1	2986.4
26832	11.27	2.8182	0.1	3010.4
26833	11.363	2.7273	0.1	2986.1
26834	11.27	3.	0.1	3010.3
26835	11.363	2.9091	0.1	2985.9
26836	11.27	3.1818	0.1	3010.4
26837	11.363	3.0909	0.1	2985.9
26838	11.27	3.3636	0.1	3010.6
26839	11.363	3.2727	0.1	2986.1
26840	11.27	3.5455	0.1	3011.1
26841	11.363	3.4545	0.1	2986.4
26842	11.27	3.7273	0.1	3011.7
26843	11.363	3.6364	0.1	2986.9
26844	11.27	3.9091	0.1	3012.6
26845	11.363	3.8182	0.1	2987.6
26846	11.27	4.0909	0.1	3013.5
26847	11.363	4.	0.1	2988.5
26848	11.27	4.2727	0.1	3014.7
26849	11.363	4.1818	0.1	2989.5
26850	11.27	4.4545	0.1	3016.
26851	11.363	4.3636	0.1	2990.7
26852	11.27	4.6364	0.1	3017.5
26853	11.363	4.5455	0.1	2992.
26854	11.27	4.8182	0.1	3019.1
26855	11.363	4.7273	0.1	2993.5
26856	11.27	5.	0.1	3020.9
26857	11.363	4.9091	0.1	2995.1
26858	11.27	5.1818	0.1	3022.8
26859	11.363	5.0909	0.1	2996.9
26860	11.27	5.3636	0.1	3024.9
26861	11.363	5.2727	0.1	2998.8
26862	11.27	5.5455	0.1	3027.1
26863	11.363	5.4545	0.1	3000.8
26864	11.27	5.7273	0.1	3030.4
26865	11.363	5.6364	0.1	3003.1
26866	11.363	5.8182	0.1	3007.3
26867	11.27	5.9091	0.1	3027.4
26868	11.455	0.27273	0.1	2979.9
26869	11.548	0.18182	0.1	2956.8
26870	11.455	9.0909e-002	0.1	2976.6
26871	11.455	0.45455	0.1	2976.7
26872	11.548	0.36364	0.1	2952.7
26873	11.455	0.63636	0.1	2974.7
26874	11.548	0.54545	0.1	2950.6
26875	11.455	0.81818	0.1	2972.8
26876	11.548	0.72727	0.1	2948.8
26877	11.455	1.	0.1	2971.1
26878	11.548	0.90909	0.1	2947.
26879	11.455	1.1818	0.1	2969.4
26880	11.548	1.0909	0.1	2945.4
26881	11.455	1.3636	0.1	2968.
26882	11.548	1.2727	0.1	2944.
26883	11.455	1.5455	0.1	2966.6
26884	11.548	1.4545	0.1	2942.6
26885	11.455	1.7273	0.1	2965.4
26886	11.548	1.6364	0.1	2941.4
26887	11.455	1.9091	0.1	2964.4
26888	11.548	1.8182	0.1	2940.4
26889	11.455	2.0909	0.1	2963.5
26890	11.548	2.	0.1	2939.4
26891	11.455	2.2727	0.1	2962.8
26892	11.548	2.1818	0.1	2938.7
26893	11.455	2.4545	0.1	2962.2
26894	11.548	2.3636	0.1	2938.
26895	11.455	2.6364	0.1	2961.8
26896	11.548	2.5455	0.1	2937.6
26897	11.455	2.8182	0.1	2961.5
26898	11.548	2.7273	0.1	2937.3
26899	11.455	3.	0.1	2961.4
26900	11.548	2.9091	0.1	2937.1
26901	11.455	3.1818	0.1	2961.5
26902	11.548	3.0909	0.1	2937.1
26903	11.455	3.3636	0.1	2961.8
26904	11.548	3.2727	0.1	2937.3
26905	11.455	3.5455	0.1	2962.2
26906	11.548	3.4545	0.1	2937.6
26907	11.455	3.7273	0.1	2962.8
26908	11.548	3.6364	0.1	2938.
26909	11.455	3.9091	0.1	2963.5
26910	11.548	3.8182	0.1	2938.7
26911	11.455	4.0909	0.1	2964.4
26912	11.548	4.	0.1	2939.4
26913	11.455	4.2727	0.1	2965.4
26914	11.548	4.1818	0.1	2940.4
26915	11.455	4.4545	0.1	2966.6
26916	11.548	4.3636	0.1	2941.4
26917	11.455	4.6364	0.1	2968.
26918	11.548	4.5455	0.1	2942.6
26919	11.455	4.8182	0.1	2969.4
26920	11.548	4.7273	0.1	2944.
26921	11.455	5.	0.1	2971.1
26922	11.548	4.9091	0.1	2945.4
26923	11.455	5.1818	0.1	2972.8
26924	11.548	5.0909	0.1	2947.
26925	11.455	5.3636	0.1	2974.7
26926	11.548	5.2727	0.1	2948.8
26927	11.455	5.5455	0.1	2976.7
26928	11.548	5.4545	0.1	2950.6
26929	11.455	5.7273	0.1	2979.9
26930	11.548	5.6364	0.1	2952.7
26931	11.548	5.8182	0.1	2956.8
26932	11.455	5.9091	0.1	2976.6
26933	11.64	0.27273	0.1	2929.5
26934	11.732	0.18182	0.1	2906.5
26935	11.64	9.0909e-002	0.1	2926.
26936	11.64	0.45455	0.1	2926.6
26937	11.732	0.36364	0.1	2902.5
26938	11.64	0.63636	0.1	2924.7
26939	11.732	0.54545	0.1	2900.6
26940	11.64	0.81818	0.1	2923.
26941	11.732	0.72727	0.1	2899.
26942	11.64	1.	0.1	2921.4
26943	11.732	0.90909	0.1	2897.4
26944	11.64	1.1818	0.1	2919.9
26945	11.732	1.0909	0.1	2895.9
26946	11.64	1.3636	0.1	2918.6
26947	11.732	1.2727	0.1	2894.6
26948	11.64	1.5455	0.1	2917.4
26949	11.732	1.4545	0.1	2893.4
26950	11.64	1.7273	0.1	2916.3
26951	11.732	1.6364	0.1	2892.3
26952	11.64	1.9091	0.1	2915.4
26953	11.732	1.8182	0.1	2891.4
26954	11.64	2.0909	0.1	2914.6
26955	11.732	2.	0.1	2890.6
26956	11.64	2.2727	0.1	2913.9
26957	11.732	2.1818	0.1	2889.9
26958	11.64	2.4545	0.1	2913.4
26959	11.732	2.3636	0.1	2889.3
26960	11.64	2.6364	0.1	2913.
26961	11.732	2.5455	0.1	2888.9
26962	11.64	2.8182	0.1	2912.8
26963	11.732	2.7273	0.1	2888.6
26964	11.64	3.	0.1	2912.7
26965	11.732	2.9091	0.1	2888.5
26966	11.64	3.1818	0.1	2912.8
26967	11.732	3.0909	0.1	2888.5
26968	11.64	3.3636	0.1	2913.
26969	11.732	3.2727	0.1	2888.6
26970	11.64	3.5455	0.1	2913.4
26971	11.732	3.4545	0.1	2888.9
26972	11.64	3.7273	0.1	2913.9
26973	11.732	3.6364	0.1	2889.3
26974	11.64	3.9091	0.1	2914.6
26975	11.732	3.8182	0.1	2889.9
26976	11.64	4.0909	0.1	2915.4
26977	11.732	4.	0.1	2890.6
26978	11.64	4.2727	0.1	2916.3
26979	11.732	4.1818	0.1	2891.4
26980	11.64	4.4545	0.1	2917.4
26981	11.732	4.3636	0.1	2892.3
26982	11.64	4.6364	0.1	2918.6
26983	11.732	4.5455	0.1	2893.4
26984	11.64	4.8182	0.1	2919.9
26985	11.732	4.7273	0.1	2894.6
26986	11.64	5.	0.1	2921.4
26987	11.732	4.9091	0.1	2895.9
26988	11.64	5.1818	0.1	2923.
26989	11.732	5.0909	0.1	2897.4
26990	11.64	5.3636	0.1	2924.7
26991	11.732	5.2727	0.1	2899.
26992	11.64	5.5455	0.1	2926.6
26993	11.732	5.4545	0.1	2900.6
26994	11.64	5.7273	0.1	2929.5
26995	11.732	5.6364	0.1	2902.5
26996	11.732	5.8182	0.1	2906.5
26997	11.64	5.9091	0.1	2926.
26998	11.825	0.27273	0.1	2879.4
26999	11.917	0.18182	0.1	2856.4
27000	11.825	9.0909e-002	0.1	2875.6
27001	11.825	0.45455	0.1	2876.6
27002	11.917	0.36364	0.1	2852.6
27003	11.825	0.63636	0.1	2874.9
27004	11.917	0.54545	0.1	2850.8
27005	11.825	0.81818	0.1	2873.3
27006	11.917	0.72727	0.1	2849.3
27007	11.825	1.	0.1	2871.9
27008	11.917	0.90909	0.1	2847.9
27009	11.825	1.1818	0.1	2870.6
27010	11.917	1.0909	0.1	2846.6
27011	11.825	1.3636	0.1	2869.4
27012	11.917	1.2727	0.1	2845.4
27013	11.825	1.5455	0.1	2868.3
27014	11.917	1.4545	0.1	2844.4
27015	11.825	1.7273	0.1	2867.4
27016	11.917	1.6364	0.1	2843.4
27017	11.825	1.9091	0.1	2866.5
27018	11.917	1.8182	0.1	2842.6
27019	11.825	2.0909	0.1	2865.8
27020	11.917	2.	0.1	2841.8
27021	11.825	2.2727	0.1	2865.2
27022	11.917	2.1818	0.1	2841.2
27023	11.825	2.4545	0.1	2864.8
27024	11.917	2.3636	0.1	2840.7
27025	11.825	2.6364	0.1	2864.4
27026	11.917	2.5455	0.1	2840.4
27027	11.825	2.8182	0.1	2864.2
27028	11.917	2.7273	0.1	2840.1
27029	11.825	3.	0.1	2864.2
27030	11.917	2.9091	0.1	2840.
27031	11.825	3.1818	0.1	2864.2
27032	11.917	3.0909	0.1	2840.
27033	11.825	3.3636	0.1	2864.4
27034	11.917	3.2727	0.1	2840.1
27035	11.825	3.5455	0.1	2864.8
27036	11.917	3.4545	0.1	2840.4
27037	11.825	3.7273	0.1	2865.2
27038	11.917	3.6364	0.1	2840.7
27039	11.825	3.9091	0.1	2865.8
27040	11.917	3.8182	0.1	2841.2
27041	11.825	4.0909	0.1	2866.5
27042	11.917	4.	0.1	2841.8
27043	11.825	4.2727	0.1	2867.4
27044	11.917	4.1818	0.1	2842.6
27045	11.825	4.4545	0.1	2868.3
27046	11.917	4.3636	0.1	2843.4
27047	11.825	4.6364	0.1	2869.4
27048	11.917	4.5455	0.1	2844.4
27049	11.825	4.8182	0.1	2870.6
27050	11.917	4.7273	0.1	2845.4
27051	11.825	5.	0.1	2871.9
27052	11.917	4.9091	0.1	2846.6
27053	11.825	5.1818	0.1	2873.3
27054	11.917	5.0909	0.1	2847.9
27055	11.825	5.3636	0.1	2874.9
27056	11.917	5.2727	0.1	2849.3
27057	11.825	5.5455	0.1	2876.6
27058	11.917	5.4545	0.1	2850.8
27059	11.825	5.7273	0.1	2879.4
27060	11.917	5.6364	0.1	2852.6
27061	11.917	5.8182	0.1	2856.4
27062	11.825	5.9091	0.1	2875.6
27063	12.01	0.27273	0.1	2829.4
27064	12.102	0.18182	0.1	2806.4
27065	12.01	9.0909e-002	0.1	2825.5
27066	12.01	0.45455	0.1	2826.8
27067	12.102	0.36364	0.1	2802.8
27068	12.01	0.63636	0.1	2825.2
27069	12.102	0.54545	0.1	2801.2
27070	12.01	0.81818	0.1	2823.9
27071	12.102	0.72727	0.1	2799.9
27072	12.01	1.	0.1	2822.6
27073	12.102	0.90909	0.1	2798.6
27074	12.01	1.1818	0.1	2821.4
27075	12.102	1.0909	0.1	2797.5
27076	12.01	1.3636	0.1	2820.4
27077	12.102	1.2727	0.1	2796.4
27078	12.01	1.5455	0.1	2819.4
27079	12.102	1.4545	0.1	2795.5
27080	12.01	1.7273	0.1	2818.6
27081	12.102	1.6364	0.1	2794.7
27082	12.01	1.9091	0.1	2817.8
27083	12.102	1.8182	0.1	2793.9
27084	12.01	2.0909	0.1	2817.2
27085	12.102	2.	0.1	2793.3
27086	12.01	2.2727	0.1	2816.7
27087	12.102	2.1818	0.1	2792.7
27088	12.01	2.4545	0.1	2816.3
27089	12.102	2.3636	0.1	2792.3
27090	12.01	2.6364	0.1	2816.
27091	12.102	2.5455	0.1	2792.
27092	12.01	2.8182	0.1	2815.8
27093	12.102	2.7273	0.1	2791.8
27094	12.01	3.	0.1	2815.8
27095	12.102	2.9091	0.1	2791.7
27096	12.01	3.1818	0.1	2815.8
27097	12.102	3.0909	0.1	2791.7
27098	12.01	3.3636	0.1	2816.
27099	12.102	3.2727	0.1	2791.8
27100	12.01	3.5455	0.1	2816.3
27101	12.102	3.4545	0.1	2792.
27102	12.01	3.7273	0.1	2816.7
27103	12.102	3.6364	0.1	2792.3
27104	12.01	3.9091	0.1	2817.2
27105	12.102	3.8182	0.1	2792.7
27106	12.01	4.0909	0.1	2817.8
27107	12.102	4.	0.1	2793.3
27108	12.01	4.2727	0.1	2818.6
27109	12.102	4.1818	0.1	2793.9
27110	12.01	4.4545	0.1	2819.4
27111	12.102	4.3636	0.1	2794.7
27112	12.01	4.6364	0.1	2820.4
27113	12.102	4.5455	0.1	2795.5
27114	12.01	4.8182	0.1	2821.4
27115	12.102	4.7273	0.1	2796.4
27116	12.01	5.	0.1	2822.6
27117	12.102	4.9091	0.1	2797.5
27118	12.01	5.1818	0.1	2823.9
27119	12.102	5.0909	0.1	2798.6
27120	12.01	5.3636	0.1	2825.2
27121	12.102	5.2727	0.1	2799.9
27122	12.01	5.5455	0.1	2826.8
27123	12.102	5.4545	0.1	2801.2
27124	12.01	5.7273	0.1	2829.4
27125	12.102	5.6364	0.1	2802.8
27126	12.102	5.8182	0.1	2806.4
27127	12.01	5.9091	0.1	2825.5
27128	12.194	0.27273	0.1	2779.6
27129	12.287	0.18182	0.1	2756.7
27130	12.194	9.0909e-002	0.1	2775.5
27131	12.194	0.45455	0.1	2777.2
27132	12.287	0.36364	0.1	2753.2
27133	12.194	0.63636	0.1	2775.8
27134	12.287	0.54545	0.1	2751.8
27135	12.194	0.81818	0.1	2774.6
27136	12.287	0.72727	0.1	2750.6
27137	12.194	1.	0.1	2773.5
27138	12.287	0.90909	0.1	2749.5
27139	12.194	1.1818	0.1	2772.4
27140	12.287	1.0909	0.1	2748.5
27141	12.194	1.3636	0.1	2771.5
27142	12.287	1.2727	0.1	2747.6
27143	12.194	1.5455	0.1	2770.7
27144	12.287	1.4545	0.1	2746.8
27145	12.194	1.7273	0.1	2770.
27146	12.287	1.6364	0.1	2746.1
27147	12.194	1.9091	0.1	2769.3
27148	12.287	1.8182	0.1	2745.4
27149	12.194	2.0909	0.1	2768.8
27150	12.287	2.	0.1	2744.9
27151	12.194	2.2727	0.1	2768.3
27152	12.287	2.1818	0.1	2744.4
27153	12.194	2.4545	0.1	2768.
27154	12.287	2.3636	0.1	2744.1
27155	12.194	2.6364	0.1	2767.7
27156	12.287	2.5455	0.1	2743.8
27157	12.194	2.8182	0.1	2767.6
27158	12.287	2.7273	0.1	2743.6
27159	12.194	3.	0.1	2767.5
27160	12.287	2.9091	0.1	2743.5
27161	12.194	3.1818	0.1	2767.6
27162	12.287	3.0909	0.1	2743.5
27163	12.194	3.3636	0.1	2767.7
27164	12.287	3.2727	0.1	2743.6
27165	12.194	3.5455	0.1	2768.
27166	12.287	3.4545	0.1	2743.8
27167	12.194	3.7273	0.1	2768.3
27168	12.287	3.6364	0.1	2744.1
27169	12.194	3.9091	0.1	2768.8
27170	12.287	3.8182	0.1	2744.4
27171	12.194	4.0909	0.1	2769.3
27172	12.287	4.	0.1	2744.9
27173	12.194	4.2727	0.1	2770.
27174	12.287	4.1818	0.1	2745.4
27175	12.194	4.4545	0.1	2770.7
27176	12.287	4.3636	0.1	2746.1
27177	12.194	4.6364	0.1	2771.5
27178	12.287	4.5455	0.1	2746.8
27179	12.194	4.8182	0.1	2772.4
27180	12.287	4.7273	0.1	2747.6
27181	12.194	5.	0.1	2773.5
27182	12.287	4.9091	0.1	2748.5
27183	12.194	5.1818	0.1	2774.6
27184	12.287	5.0909	0.1	2749.5
27185	12.194	5.3636	0.1	2775.8
27186	12.287	5.2727	0.1	2750.6
27187	12.194	5.5455	0.1	2777.2
27188	12.287	5.4545	0.1	2751.8
27189	12.194	5.7273	0.1	2779.6
27190	12.287	5.6364	0.1	2753.2
27191	12.287	5.8182	0.1	2756.7
27192	12.194	5.9091	0.1	2775.5
27193	12.379	0.27273	0.1	2730.1
27194	12.471	0.18182	0.1	2707.1
27195	12.379	9.0909e-002	0.1	2725.6
27196	12.379	0.45455	0.1	2727.7
27197	12.471	0.36364	0.1	2703.7
27198	12.379	0.63636	0.1	2726.5
27199	12.471	0.54545	0.1	2702.5
27200	12.379	0.81818	0.1	2725.5
27201	12.471	0.72727	0.1	2701.5
27202	12.379	1.	0.1	2724.5
27203	12.471	0.90909	0.1	2700.6
27204	12.379	1.1818	0.1	2723.6
27205	12.471	1.0909	0.1	2699.7
27206	12.379	1.3636	0.1	2722.8
27207	12.471	1.2727	0.1	2699.
27208	12.379	1.5455	0.1	2722.1
27209	12.471	1.4545	0.1	2698.3
27210	12.379	1.7273	0.1	2721.5
27211	12.471	1.6364	0.1	2697.7
27212	12.379	1.9091	0.1	2721.
27213	12.471	1.8182	0.1	2697.1
27214	12.379	2.0909	0.1	2720.5
27215	12.471	2.	0.1	2696.7
27216	12.379	2.2727	0.1	2720.1
27217	12.471	2.1818	0.1	2696.3
27218	12.379	2.4545	0.1	2719.8
27219	12.471	2.3636	0.1	2696.
27220	12.379	2.6364	0.1	2719.6
27221	12.471	2.5455	0.1	2695.8
27222	12.379	2.8182	0.1	2719.5
27223	12.471	2.7273	0.1	2695.6
27224	12.379	3.	0.1	2719.5
27225	12.471	2.9091	0.1	2695.5
27226	12.379	3.1818	0.1	2719.5
27227	12.471	3.0909	0.1	2695.5
27228	12.379	3.3636	0.1	2719.6
27229	12.471	3.2727	0.1	2695.6
27230	12.379	3.5455	0.1	2719.8
27231	12.471	3.4545	0.1	2695.8
27232	12.379	3.7273	0.1	2720.1
27233	12.471	3.6364	0.1	2696.
27234	12.379	3.9091	0.1	2720.5
27235	12.471	3.8182	0.1	2696.3
27236	12.379	4.0909	0.1	2721.
27237	12.471	4.	0.1	2696.7
27238	12.379	4.2727	0.1	2721.5
27239	12.471	4.1818	0.1	2697.1
27240	12.379	4.4545	0.1	2722.1
27241	12.471	4.3636	0.1	2697.7
27242	12.379	4.6364	0.1	2722.8
27243	12.471	4.5455	0.1	2698.3
27244	12.379	4.8182	0.1	2723.6
27245	12.471	4.7273	0.1	2699.
27246	12.379	5.	0.1	2724.5
27247	12.471	4.9091	0.1	2699.7
27248	12.379	5.1818	0.1	2725.5
27249	12.471	5.0909	0.1	2700.6
27250	12.379	5.3636	0.1	2726.5
27251	12.471	5.2727	0.1	2701.5
27252	12.379	5.5455	0.1	2727.7
27253	12.471	5.4545	0.1	2702.5
27254	12.379	5.7273	0.1	2730.1
27255	12.471	5.6364	0.1	2703.7
27256	12.471	5.8182	0.1	2707.1
27257	12.379	5.9091	0.1	2725.6
27258	12.564	0.27273	0.1	2680.7
27259	12.656	0.18182	0.1	2657.7
27260	12.564	9.0909e-002	0.1	2676.
27261	12.564	0.45455	0.1	2678.5
27262	12.656	0.36364	0.1	2654.5
27263	12.564	0.63636	0.1	2677.4
27264	12.656	0.54545	0.1	2653.4
27265	12.564	0.81818	0.1	2676.5
27266	12.656	0.72727	0.1	2652.6
27267	12.564	1.	0.1	2675.7
27268	12.656	0.90909	0.1	2651.8
27269	12.564	1.1818	0.1	2675.
27270	12.656	1.0909	0.1	2651.1
27271	12.564	1.3636	0.1	2674.4
27272	12.656	1.2727	0.1	2650.5
27273	12.564	1.5455	0.1	2673.8
27274	12.656	1.4545	0.1	2650.
27275	12.564	1.7273	0.1	2673.3
27276	12.656	1.6364	0.1	2649.5
27277	12.564	1.9091	0.1	2672.8
27278	12.656	1.8182	0.1	2649.
27279	12.564	2.0909	0.1	2672.4
27280	12.656	2.	0.1	2648.7
27281	12.564	2.2727	0.1	2672.1
27282	12.656	2.1818	0.1	2648.4
27283	12.564	2.4545	0.1	2671.9
27284	12.656	2.3636	0.1	2648.1
27285	12.564	2.6364	0.1	2671.7
27286	12.656	2.5455	0.1	2647.9
27287	12.564	2.8182	0.1	2671.6
27288	12.656	2.7273	0.1	2647.8
27289	12.564	3.	0.1	2671.6
27290	12.656	2.9091	0.1	2647.7
27291	12.564	3.1818	0.1	2671.6
27292	12.656	3.0909	0.1	2647.7
27293	12.564	3.3636	0.1	2671.7
27294	12.656	3.2727	0.1	2647.8
27295	12.564	3.5455	0.1	2671.9
27296	12.656	3.4545	0.1	2647.9
27297	12.564	3.7273	0.1	2672.1
27298	12.656	3.6364	0.1	2648.1
27299	12.564	3.9091	0.1	2672.4
27300	12.656	3.8182	0.1	2648.4
27301	12.564	4.0909	0.1	2672.8
27302	12.656	4.	0.1	2648.7
27303	12.564	4.2727	0.1	2673.3
27304	12.656	4.1818	0.1	2649.
27305	12.564	4.4545	0.1	2673.8
27306	12.656	4.3636	0.1	2649.5
27307	12.564	4.6364	0.1	2674.4
27308	12.656	4.5455	0.1	2650.
27309	12.564	4.8182	0.1	2675.
27310	12.656	4.7273	0.1	2650.5
27311	12.564	5.	0.1	2675.7
27312	12.656	4.9091	0.1	2651.1
27313	12.564	5.1818	0.1	2676.5
27314	12.656	5.0909	0.1	2651.8
27315	12.564	5.3636	0.1	2677.4
27316	12.656	5.2727	0.1	2652.6
27317	12.564	5.5455	0.1	2678.5
27318	12.656	5.4545	0.1	2653.4
27319	12.564	5.7273	0.1	2680.7
27320	12.656	5.6364	0.1	2654.5
27321	12.656	5.8182	0.1	2657.7
27322	12.564	5.9091	0.1	2676.
27323	12.749	0.27273	0.1	2631.4
27324	12.841	0.18182	0.1	2608.5
27325	12.749	9.0909e-002	0.1	2626.6
27326	12.749	0.45455	0.1	2629.4
27327	12.841	0.36364	0.1	2605.4
27328	12.749	0.63636	0.1	2628.5
27329	12.841	0.54545	0.1	2604.5
27330	12.749	0.81818	0.1	2627.8
27331	12.841	0.72727	0.1	2603.9
27332	12.749	1.	0.1	2627.2
27333	12.841	0.90909	0.1	2603.3
27334	12.749	1.1818	0.1	2626.6
27335	12.841	1.0909	0.1	2602.7
27336	12.749	1.3636	0.1	2626.1
27337	12.841	1.2727	0.1	2602.2
27338	12.749	1.5455	0.1	2625.6
27339	12.841	1.4545	0.1	2601.8
27340	12.749	1.7273	0.1	2625.2
27341	12.841	1.6364	0.1	2601.5
27342	12.749	1.9091	0.1	2624.9
27343	12.841	1.8182	0.1	2601.1
27344	12.749	2.0909	0.1	2624.6
27345	12.841	2.	0.1	2600.8
27346	12.749	2.2727	0.1	2624.3
27347	12.841	2.1818	0.1	2600.6
27348	12.749	2.4545	0.1	2624.1
27349	12.841	2.3636	0.1	2600.4
27350	12.749	2.6364	0.1	2624.
27351	12.841	2.5455	0.1	2600.3
27352	12.749	2.8182	0.1	2623.9
27353	12.841	2.7273	0.1	2600.2
27354	12.749	3.	0.1	2623.9
27355	12.841	2.9091	0.1	2600.1
27356	12.749	3.1818	0.1	2623.9
27357	12.841	3.0909	0.1	2600.1
27358	12.749	3.3636	0.1	2624.
27359	12.841	3.2727	0.1	2600.2
27360	12.749	3.5455	0.1	2624.1
27361	12.841	3.4545	0.1	2600.3
27362	12.749	3.7273	0.1	2624.3
27363	12.841	3.6364	0.1	2600.4
27364	12.749	3.9091	0.1	2624.6
27365	12.841	3.8182	0.1	2600.6
27366	12.749	4.0909	0.1	2624.9
27367	12.841	4.	0.1	2600.8
27368	12.749	4.2727	0.1	2625.2
27369	12.841	4.1818	0.1	2601.1
27370	12.749	4.4545	0.1	2625.6
27371	12.841	4.3636	0.1	2601.5
27372	12.749	4.6364	0.1	2626.1
27373	12.841	4.5455	0.1	2601.8
27374	12.749	4.8182	0.1	2626.6
27375	12.841	4.7273	0.1	2602.2
27376	12.749	5.	0.1	2627.2
27377	12.841	4.9091	0.1	2602.7
27378	12.749	5.1818	0.1	2627.8
27379	12.841	5.0909	0.1	2603.3
27380	12.749	5.3636	0.1	2628.5
27381	12.841	5.2727	0.1	2603.9
27382	12.749	5.5455	0.1	2629.4
27383	12.841	5.4545	0.1	2604.5
27384	12.749	5.7273	0.1	2631.4
27385	12.841	5.6364	0.1	2605.4
27386	12.841	5.8182	0.1	2608.5
27387	12.749	5.9091	0.1	2626.6
27388	12.933	0.27273	0.1	2582.4
27389	13.026	0.18182	0.1	2559.5
27390	12.933	9.0909e-002	0.1	2577.3
27391	12.933	0.45455	0.1	2580.5
27392	13.026	0.36364	0.1	2556.5
27393	12.933	0.63636	0.1	2579.8
27394	13.026	0.54545	0.1	2555.8
27395	12.933	0.81818	0.1	2579.3
27396	13.026	0.72727	0.1	2555.3
27397	12.933	1.	0.1	2578.8
27398	13.026	0.90909	0.1	2554.9
27399	12.933	1.1818	0.1	2578.4
27400	13.026	1.0909	0.1	2554.5
27401	12.933	1.3636	0.1	2578.
27402	13.026	1.2727	0.1	2554.2
27403	12.933	1.5455	0.1	2577.6
27404	13.026	1.4545	0.1	2553.9
27405	12.933	1.7273	0.1	2577.3
27406	13.026	1.6364	0.1	2553.7
27407	12.933	1.9091	0.1	2577.1
27408	13.026	1.8182	0.1	2553.4
27409	12.933	2.0909	0.1	2576.9
27410	13.026	2.	0.1	2553.2
27411	12.933	2.2727	0.1	2576.7
27412	13.026	2.1818	0.1	2553.1
27413	12.933	2.4545	0.1	2576.6
27414	13.026	2.3636	0.1	2552.9
27415	12.933	2.6364	0.1	2576.5
27416	13.026	2.5455	0.1	2552.8
27417	12.933	2.8182	0.1	2576.4
27418	13.026	2.7273	0.1	2552.8
27419	12.933	3.	0.1	2576.4
27420	13.026	2.9091	0.1	2552.7
27421	12.933	3.1818	0.1	2576.4
27422	13.026	3.0909	0.1	2552.7
27423	12.933	3.3636	0.1	2576.5
27424	13.026	3.2727	0.1	2552.8
27425	12.933	3.5455	0.1	2576.6
27426	13.026	3.4545	0.1	2552.8
27427	12.933	3.7273	0.1	2576.7
27428	13.026	3.6364	0.1	2552.9
27429	12.933	3.9091	0.1	2576.9
27430	13.026	3.8182	0.1	2553.1
27431	12.933	4.0909	0.1	2577.1
27432	13.026	4.	0.1	2553.2
27433	12.933	4.2727	0.1	2577.3
27434	13.026	4.1818	0.1	2553.4
27435	12.933	4.4545	0.1	2577.6
27436	13.026	4.3636	0.1	2553.7
27437	12.933	4.6364	0.1	2578.
27438	13.026	4.5455	0.1	2553.9
27439	12.933	4.8182	0.1	2578.4
27440	13.026	4.7273	0.1	2554.2
27441	12.933	5.	0.1	2578.8
27442	13.026	4.9091	0.1	2554.5
27443	12.933	5.1818	0.1	2579.3
27444	13.026	5.0909	0.1	2554.9
27445	12.933	5.3636	0.1	2579.8
27446	13.026	5.2727	0.1	2555.3
27447	12.933	5.5455	0.1	2580.5
27448	13.026	5.4545	0.1	2555.8
27449	12.933	5.7273	0.1	2582.4
27450	13.026	5.6364	0.1	2556.5
27451	13.026	5.8182	0.1	2559.5
27452	12.933	5.9091	0.1	2577.3
27453	13.118	0.27273	0.1	2533.5
27454	13.21	0.18182	0.1	2510.5
27455	13.118	9.0909e-002	0.1	2528.2
27456	13.118	0.45455	0.1	2531.8
27457	13.21	0.36364	0.1	2507.8
27458	13.118	0.63636	0.1	2531.3
27459	13.21	0.54545	0.1	2507.3
27460	13.118	0.81818	0.1	2530.9
27461	13.21	0.72727	0.1	2507.
27462	13.118	1.	0.1	2530.6
27463	13.21	0.90909	0.1	2506.7
27464	13.118	1.1818	0.1	2530.3
27465	13.21	1.0909	0.1	2506.5
27466	13.118	1.3636	0.1	2530.1
27467	13.21	1.2727	0.1	2506.3
27468	13.118	1.5455	0.1	2529.9
27469	13.21	1.4545	0.1	2506.2
27470	13.118	1.7273	0.1	2529.7
27471	13.21	1.6364	0.1	2506.1
27472	13.118	1.9091	0.1	2529.5
27473	13.21	1.8182	0.1	2505.9
27474	13.118	2.0909	0.1	2529.4
27475	13.21	2.	0.1	2505.8
27476	13.118	2.2727	0.1	2529.3
27477	13.21	2.1818	0.1	2505.8
27478	13.118	2.4545	0.1	2529.2
27479	13.21	2.3636	0.1	2505.7
27480	13.118	2.6364	0.1	2529.1
27481	13.21	2.5455	0.1	2505.6
27482	13.118	2.8182	0.1	2529.1
27483	13.21	2.7273	0.1	2505.6
27484	13.118	3.	0.1	2529.1
27485	13.21	2.9091	0.1	2505.6
27486	13.118	3.1818	0.1	2529.1
27487	13.21	3.0909	0.1	2505.6
27488	13.118	3.3636	0.1	2529.1
27489	13.21	3.2727	0.1	2505.6
27490	13.118	3.5455	0.1	2529.2
27491	13.21	3.4545	0.1	2505.6
27492	13.118	3.7273	0.1	2529.3
27493	13.21	3.6364	0.1	2505.7
27494	13.118	3.9091	0.1	2529.4
27495	13.21	3.8182	0.1	2505.8
27496	13.118	4.0909	0.1	2529.5
27497	13.21	4.	0.1	2505.8
27498	13.118	4.2727	0.1	2529.7
27499	13.21	4.1818	0.1	2505.9
27500	13.118	4.4545	0.1	2529.9
27501	13.21	4.3636	0.1	2506.1
27502	13.118	4.6364	0.1	2530.1
27503	13.21	4.5455	0.1	2506.2
27504	13.118	4.8182	0.1	2530.3
27505	13.21	4.7273	0.1	2506.3
27506	13.118	5.	0.1	2530.6
27507	13.21	4.9091	0.1	2506.5
27508	13.118	5.1818	0.1	2530.9
27509	13.21	5.0909	0.1	2506.7
27510	13.118	5.3636	0.1	2531.3
27511	13.21	5.2727	0.1	2507.
27512	13.118	5.5455	0.1	2531.8
27513	13.21	5.4545	0.1	2507.3
27514	13.118	5.7273	0.1	2533.5
27515	13.21	5.6364	0.1	2507.8
27516	13.21	5.8182	0.1	2510.5
27517	13.118	5.9091	0.1	2528.2
27518	13.303	0.27273	0.1	2484.7
27519	13.395	0.18182	0.1	2461.8
27520	13.303	9.0909e-002	0.1	2479.3
27521	13.303	0.45455	0.1	2483.3
27522	13.395	0.36364	0.1	2459.2
27523	13.303	0.63636	0.1	2482.9
27524	13.395	0.54545	0.1	2458.9
27525	13.303	0.81818	0.1	2482.7
27526	13.395	0.72727	0.1	2458.8
27527	13.303	1.	0.1	2482.6
27528	13.395	0.90909	0.1	2458.7
27529	13.303	1.1818	0.1	2482.5
27530	13.395	1.0909	0.1	2458.7
27531	13.303	1.3636	0.1	2482.4
27532	13.395	1.2727	0.1	2458.7
27533	13.303	1.5455	0.1	2482.3
27534	13.395	1.4545	0.1	2458.7
27535	13.303	1.7273	0.1	2482.3
27536	13.395	1.6364	0.1	2458.7
27537	13.303	1.9091	0.1	2482.2
27538	13.395	1.8182	0.1	2458.7
27539	13.303	2.0909	0.1	2482.2
27540	13.395	2.	0.1	2458.7
27541	13.303	2.2727	0.1	2482.1
27542	13.395	2.1818	0.1	2458.7
27543	13.303	2.4545	0.1	2482.1
27544	13.395	2.3636	0.1	2458.7
27545	13.303	2.6364	0.1	2482.1
27546	13.395	2.5455	0.1	2458.7
27547	13.303	2.8182	0.1	2482.
27548	13.395	2.7273	0.1	2458.6
27549	13.303	3.	0.1	2482.
27550	13.395	2.9091	0.1	2458.6
27551	13.303	3.1818	0.1	2482.
27552	13.395	3.0909	0.1	2458.6
27553	13.303	3.3636	0.1	2482.1
27554	13.395	3.2727	0.1	2458.6
27555	13.303	3.5455	0.1	2482.1
27556	13.395	3.4545	0.1	2458.7
27557	13.303	3.7273	0.1	2482.1
27558	13.395	3.6364	0.1	2458.7
27559	13.303	3.9091	0.1	2482.2
27560	13.395	3.8182	0.1	2458.7
27561	13.303	4.0909	0.1	2482.2
27562	13.395	4.	0.1	2458.7
27563	13.303	4.2727	0.1	2482.3
27564	13.395	4.1818	0.1	2458.7
27565	13.303	4.4545	0.1	2482.3
27566	13.395	4.3636	0.1	2458.7
27567	13.303	4.6364	0.1	2482.4
27568	13.395	4.5455	0.1	2458.7
27569	13.303	4.8182	0.1	2482.5
27570	13.395	4.7273	0.1	2458.7
27571	13.303	5.	0.1	2482.6
27572	13.395	4.9091	0.1	2458.7
27573	13.303	5.1818	0.1	2482.7
27574	13.395	5.0909	0.1	2458.7
27575	13.303	5.3636	0.1	2482.9
27576	13.395	5.2727	0.1	2458.8
27577	13.303	5.5455	0.1	2483.3
27578	13.395	5.4545	0.1	2458.9
27579	13.303	5.7273	0.1	2484.7
27580	13.395	5.6364	0.1	2459.2
27581	13.395	5.8182	0.1	2461.8
27582	13.303	5.9091	0.1	2479.3
27583	13.488	0.27273	0.1	2436.1
27584	13.58	0.18182	0.1	2413.2
27585	13.488	9.0909e-002	0.1	2430.5
27586	13.488	0.45455	0.1	2434.9
27587	13.58	0.36364	0.1	2410.8
27588	13.488	0.63636	0.1	2434.7
27589	13.58	0.54545	0.1	2410.7
27590	13.488	0.81818	0.1	2434.7
27591	13.58	0.72727	0.1	2410.8
27592	13.488	1.	0.1	2434.8
27593	13.58	0.90909	0.1	2410.9
27594	13.488	1.1818	0.1	2434.9
27595	13.58	1.0909	0.1	2411.1
27596	13.488	1.3636	0.1	2434.9
27597	13.58	1.2727	0.1	2411.3
27598	13.488	1.5455	0.1	2435.
27599	13.58	1.4545	0.1	2411.4
27600	13.488	1.7273	0.1	2435.1
27601	13.58	1.6364	0.1	2411.6
27602	13.488	1.9091	0.1	2435.1
27603	13.58	1.8182	0.1	2411.7
27604	13.488	2.0909	0.1	2435.2
27605	13.58	2.	0.1	2411.8
27606	13.488	2.2727	0.1	2435.2
27607	13.58	2.1818	0.1	2411.8
27608	13.488	2.4545	0.1	2435.2
27609	13.58	2.3636	0.1	2411.9
27610	13.488	2.6364	0.1	2435.2
27611	13.58	2.5455	0.1	2411.9
27612	13.488	2.8182	0.1	2435.2
27613	13.58	2.7273	0.1	2411.9
27614	13.488	3.	0.1	2435.2
27615	13.58	2.9091	0.1	2412.
27616	13.488	3.1818	0.1	2435.2
27617	13.58	3.0909	0.1	2412.
27618	13.488	3.3636	0.1	2435.2
27619	13.58	3.2727	0.1	2411.9
27620	13.488	3.5455	0.1	2435.2
27621	13.58	3.4545	0.1	2411.9
27622	13.488	3.7273	0.1	2435.2
27623	13.58	3.6364	0.1	2411.9
27624	13.488	3.9091	0.1	2435.2
27625	13.58	3.8182	0.1	2411.8
27626	13.488	4.0909	0.1	2435.1
27627	13.58	4.	0.1	2411.8
27628	13.488	4.2727	0.1	2435.1
27629	13.58	4.1818	0.1	2411.7
27630	13.488	4.4545	0.1	2435.
27631	13.58	4.3636	0.1	2411.6
27632	13.488	4.6364	0.1	2434.9
27633	13.58	4.5455	0.1	2411.4
27634	13.488	4.8182	0.1	2434.9
27635	13.58	4.7273	0.1	2411.3
27636	13.488	5.	0.1	2434.8
27637	13.58	4.9091	0.1	2411.1
27638	13.488	5.1818	0.1	2434.7
27639	13.58	5.0909	0.1	2410.9
27640	13.488	5.3636	0.1	2434.7
27641	13.58	5.2727	0.1	2410.8
27642	13.488	5.5455	0.1	2434.9
27643	13.58	5.4545	0.1	2410.7
27644	13.488	5.7273	0.1	2436.1
27645	13.58	5.6364	0.1	2410.8
27646	13.58	5.8182	0.1	2413.2
27647	13.488	5.9091	0.1	2430.5
27648	13.672	0.27273	0.1	2387.7
27649	13.765	0.18182	0.1	2364.6
27650	13.672	9.0909e-002	0.1	2381.8
27651	13.672	0.45455	0.1	2386.6
27652	13.765	0.36364	0.1	2362.5
27653	13.672	0.63636	0.1	2386.7
27654	13.765	0.54545	0.1	2362.7
27655	13.672	0.81818	0.1	2386.9
27656	13.765	0.72727	0.1	2363.
27657	13.672	1.	0.1	2387.2
27658	13.765	0.90909	0.1	2363.3
27659	13.672	1.1818	0.1	2387.5
27660	13.765	1.0909	0.1	2363.7
27661	13.672	1.3636	0.1	2387.7
27662	13.765	1.2727	0.1	2364.
27663	13.672	1.5455	0.1	2387.9
27664	13.765	1.4545	0.1	2364.4
27665	13.672	1.7273	0.1	2388.1
27666	13.765	1.6364	0.1	2364.7
27667	13.672	1.9091	0.1	2388.3
27668	13.765	1.8182	0.1	2364.9
27669	13.672	2.0909	0.1	2388.4
27670	13.765	2.	0.1	2365.1
27671	13.672	2.2727	0.1	2388.5
27672	13.765	2.1818	0.1	2365.3
27673	13.672	2.4545	0.1	2388.6
27674	13.765	2.3636	0.1	2365.4
27675	13.672	2.6364	0.1	2388.6
27676	13.765	2.5455	0.1	2365.5
27677	13.672	2.8182	0.1	2388.7
27678	13.765	2.7273	0.1	2365.5
27679	13.672	3.	0.1	2388.7
27680	13.765	2.9091	0.1	2365.5
27681	13.672	3.1818	0.1	2388.7
27682	13.765	3.0909	0.1	2365.5
27683	13.672	3.3636	0.1	2388.6
27684	13.765	3.2727	0.1	2365.5
27685	13.672	3.5455	0.1	2388.6
27686	13.765	3.4545	0.1	2365.5
27687	13.672	3.7273	0.1	2388.5
27688	13.765	3.6364	0.1	2365.4
27689	13.672	3.9091	0.1	2388.4
27690	13.765	3.8182	0.1	2365.3
27691	13.672	4.0909	0.1	2388.3
27692	13.765	4.	0.1	2365.1
27693	13.672	4.2727	0.1	2388.1
27694	13.765	4.1818	0.1	2364.9
27695	13.672	4.4545	0.1	2387.9
27696	13.765	4.3636	0.1	2364.7
27697	13.672	4.6364	0.1	2387.7
27698	13.765	4.5455	0.1	2364.4
27699	13.672	4.8182	0.1	2387.5
27700	13.765	4.7273	0.1	2364.
27701	13.672	5.	0.1	2387.2
27702	13.765	4.9091	0.1	2363.7
27703	13.672	5.1818	0.1	2386.9
27704	13.765	5.0909	0.1	2363.3
27705	13.672	5.3636	0.1	2386.7
27706	13.765	5.2727	0.1	2363.
27707	13.672	5.5455	0.1	2386.6
27708	13.765	5.4545	0.1	2362.7
27709	13.672	5.7273	0.1	2387.7
27710	13.765	5.6364	0.1	2362.5
27711	13.765	5.8182	0.1	2364.6
27712	13.672	5.9091	0.1	2381.8
27713	13.857	0.27273	0.1	2339.3
27714	13.95	0.18182	0.1	2316.2
27715	13.857	9.0909e-002	0.1	2333.2
27716	13.857	0.45455	0.1	2338.5
27717	13.95	0.36364	0.1	2314.4
27718	13.857	0.63636	0.1	2338.9
27719	13.95	0.54545	0.1	2314.8
27720	13.857	0.81818	0.1	2339.3
27721	13.95	0.72727	0.1	2315.3
27722	13.857	1.	0.1	2339.8
27723	13.95	0.90909	0.1	2315.9
27724	13.857	1.1818	0.1	2340.3
27725	13.95	1.0909	0.1	2316.5
27726	13.857	1.3636	0.1	2340.7
27727	13.95	1.2727	0.1	2317.1
27728	13.857	1.5455	0.1	2341.1
27729	13.95	1.4545	0.1	2317.6
27730	13.857	1.7273	0.1	2341.4
27731	13.95	1.6364	0.1	2318.
27732	13.857	1.9091	0.1	2341.7
27733	13.95	1.8182	0.1	2318.4
27734	13.857	2.0909	0.1	2341.9
27735	13.95	2.	0.1	2318.7
27736	13.857	2.2727	0.1	2342.1
27737	13.95	2.1818	0.1	2318.9
27738	13.857	2.4545	0.1	2342.2
27739	13.95	2.3636	0.1	2319.1
27740	13.857	2.6364	0.1	2342.3
27741	13.95	2.5455	0.1	2319.3
27742	13.857	2.8182	0.1	2342.4
27743	13.95	2.7273	0.1	2319.3
27744	13.857	3.	0.1	2342.4
27745	13.95	2.9091	0.1	2319.4
27746	13.857	3.1818	0.1	2342.4
27747	13.95	3.0909	0.1	2319.4
27748	13.857	3.3636	0.1	2342.3
27749	13.95	3.2727	0.1	2319.3
27750	13.857	3.5455	0.1	2342.2
27751	13.95	3.4545	0.1	2319.3
27752	13.857	3.7273	0.1	2342.1
27753	13.95	3.6364	0.1	2319.1
27754	13.857	3.9091	0.1	2341.9
27755	13.95	3.8182	0.1	2318.9
27756	13.857	4.0909	0.1	2341.7
27757	13.95	4.	0.1	2318.7
27758	13.857	4.2727	0.1	2341.4
27759	13.95	4.1818	0.1	2318.4
27760	13.857	4.4545	0.1	2341.1
27761	13.95	4.3636	0.1	2318.
27762	13.857	4.6364	0.1	2340.7
27763	13.95	4.5455	0.1	2317.6
27764	13.857	4.8182	0.1	2340.3
27765	13.95	4.7273	0.1	2317.1
27766	13.857	5.	0.1	2339.8
27767	13.95	4.9091	0.1	2316.5
27768	13.857	5.1818	0.1	2339.3
27769	13.95	5.0909	0.1	2315.9
27770	13.857	5.3636	0.1	2338.9
27771	13.95	5.2727	0.1	2315.3
27772	13.857	5.5455	0.1	2338.5
27773	13.95	5.4545	0.1	2314.8
27774	13.857	5.7273	0.1	2339.3
27775	13.95	5.6364	0.1	2314.4
27776	13.95	5.8182	0.1	2316.2
27777	13.857	5.9091	0.1	2333.2
27778	14.042	0.27273	0.1	2291.1
27779	14.134	0.18182	0.1	2267.9
27780	14.042	9.0909e-002	0.1	2284.7
27781	14.042	0.45455	0.1	2290.6
27782	14.134	0.36364	0.1	2266.3
27783	14.042	0.63636	0.1	2291.2
27784	14.134	0.54545	0.1	2267.
27785	14.042	0.81818	0.1	2291.9
27786	14.134	0.72727	0.1	2267.9
27787	14.042	1.	0.1	2292.6
27788	14.134	0.90909	0.1	2268.7
27789	14.042	1.1818	0.1	2293.3
27790	14.134	1.0909	0.1	2269.5
27791	14.042	1.3636	0.1	2293.9
27792	14.134	1.2727	0.1	2270.3
27793	14.042	1.5455	0.1	2294.5
27794	14.134	1.4545	0.1	2271.
27795	14.042	1.7273	0.1	2295.
27796	14.134	1.6364	0.1	2271.6
27797	14.042	1.9091	0.1	2295.4
27798	14.134	1.8182	0.1	2272.1
27799	14.042	2.0909	0.1	2295.7
27800	14.134	2.	0.1	2272.6
27801	14.042	2.2727	0.1	2296.
27802	14.134	2.1818	0.1	2272.9
27803	14.042	2.4545	0.1	2296.1
27804	14.134	2.3636	0.1	2273.2
27805	14.042	2.6364	0.1	2296.3
27806	14.134	2.5455	0.1	2273.4
27807	14.042	2.8182	0.1	2296.4
27808	14.134	2.7273	0.1	2273.5
27809	14.042	3.	0.1	2296.4
27810	14.134	2.9091	0.1	2273.6
27811	14.042	3.1818	0.1	2296.4
27812	14.134	3.0909	0.1	2273.6
27813	14.042	3.3636	0.1	2296.3
27814	14.134	3.2727	0.1	2273.5
27815	14.042	3.5455	0.1	2296.1
27816	14.134	3.4545	0.1	2273.4
27817	14.042	3.7273	0.1	2296.
27818	14.134	3.6364	0.1	2273.2
27819	14.042	3.9091	0.1	2295.7
27820	14.134	3.8182	0.1	2272.9
27821	14.042	4.0909	0.1	2295.4
27822	14.134	4.	0.1	2272.6
27823	14.042	4.2727	0.1	2295.
27824	14.134	4.1818	0.1	2272.1
27825	14.042	4.4545	0.1	2294.5
27826	14.134	4.3636	0.1	2271.6
27827	14.042	4.6364	0.1	2293.9
27828	14.134	4.5455	0.1	2271.
27829	14.042	4.8182	0.1	2293.3
27830	14.134	4.7273	0.1	2270.3
27831	14.042	5.	0.1	2292.6
27832	14.134	4.9091	0.1	2269.5
27833	14.042	5.1818	0.1	2291.9
27834	14.134	5.0909	0.1	2268.7
27835	14.042	5.3636	0.1	2291.2
27836	14.134	5.2727	0.1	2267.9
27837	14.042	5.5455	0.1	2290.6
27838	14.134	5.4545	0.1	2267.
27839	14.042	5.7273	0.1	2291.1
27840	14.134	5.6364	0.1	2266.3
27841	14.134	5.8182	0.1	2267.9
27842	14.042	5.9091	0.1	2284.7
27843	14.227	0.27273	0.1	2243.
27844	14.319	0.18182	0.1	2219.6
27845	14.227	9.0909e-002	0.1	2236.3
27846	14.227	0.45455	0.1	2242.7
27847	14.319	0.36364	0.1	2218.4
27848	14.227	0.63636	0.1	2243.6
27849	14.319	0.54545	0.1	2219.4
27850	14.227	0.81818	0.1	2244.6
27851	14.319	0.72727	0.1	2220.5
27852	14.227	1.	0.1	2245.6
27853	14.319	0.90909	0.1	2221.7
27854	14.227	1.1818	0.1	2246.5
27855	14.319	1.0909	0.1	2222.8
27856	14.227	1.3636	0.1	2247.4
27857	14.319	1.2727	0.1	2223.8
27858	14.227	1.5455	0.1	2248.1
27859	14.319	1.4545	0.1	2224.7
27860	14.227	1.7273	0.1	2248.8
27861	14.319	1.6364	0.1	2225.5
27862	14.227	1.9091	0.1	2249.3
27863	14.319	1.8182	0.1	2226.2
27864	14.227	2.0909	0.1	2249.8
27865	14.319	2.	0.1	2226.8
27866	14.227	2.2727	0.1	2250.1
27867	14.319	2.1818	0.1	2227.2
27868	14.227	2.4545	0.1	2250.4
27869	14.319	2.3636	0.1	2227.6
27870	14.227	2.6364	0.1	2250.6
27871	14.319	2.5455	0.1	2227.8
27872	14.227	2.8182	0.1	2250.7
27873	14.319	2.7273	0.1	2228.
27874	14.227	3.	0.1	2250.7
27875	14.319	2.9091	0.1	2228.
27876	14.227	3.1818	0.1	2250.7
27877	14.319	3.0909	0.1	2228.
27878	14.227	3.3636	0.1	2250.6
27879	14.319	3.2727	0.1	2228.
27880	14.227	3.5455	0.1	2250.4
27881	14.319	3.4545	0.1	2227.8
27882	14.227	3.7273	0.1	2250.1
27883	14.319	3.6364	0.1	2227.6
27884	14.227	3.9091	0.1	2249.8
27885	14.319	3.8182	0.1	2227.2
27886	14.227	4.0909	0.1	2249.3
27887	14.319	4.	0.1	2226.8
27888	14.227	4.2727	0.1	2248.8
27889	14.319	4.1818	0.1	2226.2
27890	14.227	4.4545	0.1	2248.1
27891	14.319	4.3636	0.1	2225.5
27892	14.227	4.6364	0.1	2247.4
27893	14.319	4.5455	0.1	2224.7
27894	14.227	4.8182	0.1	2246.5
27895	14.319	4.7273	0.1	2223.8
27896	14.227	5.	0.1	2245.6
27897	14.319	4.9091	0.1	2222.8
27898	14.227	5.1818	0.1	2244.6
27899	14.319	5.0909	0.1	2221.7
27900	14.227	5.3636	0.1	2243.6
27901	14.319	5.2727	0.1	2220.5
27902	14.227	5.5455	0.1	2242.7
27903	14.319	5.4545	0.1	2219.4
27904	14.227	5.7273	0.1	2243.
27905	14.319	5.6364	0.1	2218.4
27906	14.319	5.8182	0.1	2219.6
27907	14.227	5.9091	0.1	2236.3
27908	14.411	0.27273	0.1	2194.9
27909	14.504	0.18182	0.1	2171.3
27910	14.411	9.0909e-002	0.1	2188.
27911	14.411	0.45455	0.1	2195.
27912	14.504	0.36364	0.1	2170.5
27913	14.411	0.63636	0.1	2196.2
27914	14.504	0.54545	0.1	2171.8
27915	14.411	0.81818	0.1	2197.5
27916	14.504	0.72727	0.1	2173.3
27917	14.411	1.	0.1	2198.8
27918	14.504	0.90909	0.1	2174.8
27919	14.411	1.1818	0.1	2200.
27920	14.504	1.0909	0.1	2176.2
27921	14.411	1.3636	0.1	2201.1
27922	14.504	1.2727	0.1	2177.5
27923	14.411	1.5455	0.1	2202.1
27924	14.504	1.4545	0.1	2178.7
27925	14.411	1.7273	0.1	2202.9
27926	14.504	1.6364	0.1	2179.7
27927	14.411	1.9091	0.1	2203.6
27928	14.504	1.8182	0.1	2180.6
27929	14.411	2.0909	0.1	2204.2
27930	14.504	2.	0.1	2181.3
27931	14.411	2.2727	0.1	2204.6
27932	14.504	2.1818	0.1	2181.8
27933	14.411	2.4545	0.1	2204.9
27934	14.504	2.3636	0.1	2182.3
27935	14.411	2.6364	0.1	2205.2
27936	14.504	2.5455	0.1	2182.6
27937	14.411	2.8182	0.1	2205.3
27938	14.504	2.7273	0.1	2182.8
27939	14.411	3.	0.1	2205.4
27940	14.504	2.9091	0.1	2182.9
27941	14.411	3.1818	0.1	2205.3
27942	14.504	3.0909	0.1	2182.9
27943	14.411	3.3636	0.1	2205.2
27944	14.504	3.2727	0.1	2182.8
27945	14.411	3.5455	0.1	2204.9
27946	14.504	3.4545	0.1	2182.6
27947	14.411	3.7273	0.1	2204.6
27948	14.504	3.6364	0.1	2182.3
27949	14.411	3.9091	0.1	2204.2
27950	14.504	3.8182	0.1	2181.8
27951	14.411	4.0909	0.1	2203.6
27952	14.504	4.	0.1	2181.3
27953	14.411	4.2727	0.1	2202.9
27954	14.504	4.1818	0.1	2180.6
27955	14.411	4.4545	0.1	2202.1
27956	14.504	4.3636	0.1	2179.7
27957	14.411	4.6364	0.1	2201.1
27958	14.504	4.5455	0.1	2178.7
27959	14.411	4.8182	0.1	2200.
27960	14.504	4.7273	0.1	2177.5
27961	14.411	5.	0.1	2198.8
27962	14.504	4.9091	0.1	2176.2
27963	14.411	5.1818	0.1	2197.5
27964	14.504	5.0909	0.1	2174.8
27965	14.411	5.3636	0.1	2196.2
27966	14.504	5.2727	0.1	2173.3
27967	14.411	5.5455	0.1	2195.
27968	14.504	5.4545	0.1	2171.8
27969	14.411	5.7273	0.1	2194.9
27970	14.504	5.6364	0.1	2170.5
27971	14.504	5.8182	0.1	2171.3
27972	14.411	5.9091	0.1	2188.
27973	14.596	0.27273	0.1	2146.8
27974	14.689	0.18182	0.1	2123.
27975	14.596	9.0909e-002	0.1	2139.6
27976	14.596	0.45455	0.1	2147.3
27977	14.689	0.36364	0.1	2122.6
27978	14.596	0.63636	0.1	2148.9
27979	14.689	0.54545	0.1	2124.4
27980	14.596	0.81818	0.1	2150.6
27981	14.689	0.72727	0.1	2126.3
27982	14.596	1.	0.1	2152.2
27983	14.689	0.90909	0.1	2128.1
27984	14.596	1.1818	0.1	2153.7
27985	14.689	1.0909	0.1	2129.9
27986	14.596	1.3636	0.1	2155.1
27987	14.689	1.2727	0.1	2131.5
27988	14.596	1.5455	0.1	2156.3
27989	14.689	1.4545	0.1	2133.
27990	14.596	1.7273	0.1	2157.3
27991	14.689	1.6364	0.1	2134.2
27992	14.596	1.9091	0.1	2158.2
27993	14.689	1.8182	0.1	2135.3
27994	14.596	2.0909	0.1	2158.9
27995	14.689	2.	0.1	2136.2
27996	14.596	2.2727	0.1	2159.5
27997	14.689	2.1818	0.1	2136.8
27998	14.596	2.4545	0.1	2159.9
27999	14.689	2.3636	0.1	2137.4
28000	14.596	2.6364	0.1	2160.2
28001	14.689	2.5455	0.1	2137.8
28002	14.596	2.8182	0.1	2160.3
28003	14.689	2.7273	0.1	2138.
28004	14.596	3.	0.1	2160.4
28005	14.689	2.9091	0.1	2138.1
28006	14.596	3.1818	0.1	2160.3
28007	14.689	3.0909	0.1	2138.1
28008	14.596	3.3636	0.1	2160.2
28009	14.689	3.2727	0.1	2138.
28010	14.596	3.5455	0.1	2159.9
28011	14.689	3.4545	0.1	2137.8
28012	14.596	3.7273	0.1	2159.5
28013	14.689	3.6364	0.1	2137.4
28014	14.596	3.9091	0.1	2158.9
28015	14.689	3.8182	0.1	2136.8
28016	14.596	4.0909	0.1	2158.2
28017	14.689	4.	0.1	2136.2
28018	14.596	4.2727	0.1	2157.3
28019	14.689	4.1818	0.1	2135.3
28020	14.596	4.4545	0.1	2156.3
28021	14.689	4.3636	0.1	2134.2
28022	14.596	4.6364	0.1	2155.1
28023	14.689	4.5455	0.1	2133.
28024	14.596	4.8182	0.1	2153.7
28025	14.689	4.7273	0.1	2131.5
28026	14.596	5.	0.1	2152.2
28027	14.689	4.9091	0.1	2129.9
28028	14.596	5.1818	0.1	2150.6
28029	14.689	5.0909	0.1	2128.1
28030	14.596	5.3636	0.1	2148.9
28031	14.689	5.2727	0.1	2126.3
28032	14.596	5.5455	0.1	2147.3
28033	14.689	5.4545	0.1	2124.4
28034	14.596	5.7273	0.1	2146.8
28035	14.689	5.6364	0.1	2122.6
28036	14.689	5.8182	0.1	2123.
28037	14.596	5.9091	0.1	2139.6
28038	14.781	0.27273	0.1	2098.7
28039	14.873	0.18182	0.1	2074.6
28040	14.781	9.0909e-002	0.1	2091.2
28041	14.781	0.45455	0.1	2099.6
28042	14.873	0.36364	0.1	2074.7
28043	14.781	0.63636	0.1	2101.7
28044	14.873	0.54545	0.1	2076.9
28045	14.781	0.81818	0.1	2103.8
28046	14.873	0.72727	0.1	2079.3
28047	14.781	1.	0.1	2105.8
28048	14.873	0.90909	0.1	2081.6
28049	14.781	1.1818	0.1	2107.7
28050	14.873	1.0909	0.1	2083.8
28051	14.781	1.3636	0.1	2109.3
28052	14.873	1.2727	0.1	2085.7
28053	14.781	1.5455	0.1	2110.8
28054	14.873	1.4545	0.1	2087.5
28055	14.781	1.7273	0.1	2112.1
28056	14.873	1.6364	0.1	2089.1
28057	14.781	1.9091	0.1	2113.2
28058	14.873	1.8182	0.1	2090.3
28059	14.781	2.0909	0.1	2114.1
28060	14.873	2.	0.1	2091.4
28061	14.781	2.2727	0.1	2114.7
28062	14.873	2.1818	0.1	2092.3
28063	14.781	2.4545	0.1	2115.2
28064	14.873	2.3636	0.1	2092.9
28065	14.781	2.6364	0.1	2115.6
28066	14.873	2.5455	0.1	2093.4
28067	14.781	2.8182	0.1	2115.8
28068	14.873	2.7273	0.1	2093.7
28069	14.781	3.	0.1	2115.8
28070	14.873	2.9091	0.1	2093.8
28071	14.781	3.1818	0.1	2115.8
28072	14.873	3.0909	0.1	2093.8
28073	14.781	3.3636	0.1	2115.6
28074	14.873	3.2727	0.1	2093.7
28075	14.781	3.5455	0.1	2115.2
28076	14.873	3.4545	0.1	2093.4
28077	14.781	3.7273	0.1	2114.7
28078	14.873	3.6364	0.1	2092.9
28079	14.781	3.9091	0.1	2114.1
28080	14.873	3.8182	0.1	2092.3
28081	14.781	4.0909	0.1	2113.2
28082	14.873	4.	0.1	2091.4
28083	14.781	4.2727	0.1	2112.1
28084	14.873	4.1818	0.1	2090.3
28085	14.781	4.4545	0.1	2110.8
28086	14.873	4.3636	0.1	2089.1
28087	14.781	4.6364	0.1	2109.3
28088	14.873	4.5455	0.1	2087.5
28089	14.781	4.8182	0.1	2107.7
28090	14.873	4.7273	0.1	2085.7
28091	14.781	5.	0.1	2105.8
28092	14.873	4.9091	0.1	2083.8
28093	14.781	5.1818	0.1	2103.8
28094	14.873	5.0909	0.1	2081.6
28095	14.781	5.3636	0.1	2101.7
28096	14.873	5.2727	0.1	2079.3
28097	14.781	5.5455	0.1	2099.6
28098	14.873	5.4545	0.1	2076.9
28099	14.781	5.7273	0.1	2098.7
28100	14.873	5.6364	0.1	2074.7
28101	14.873	5.8182	0.1	2074.6
28102	14.781	5.9091	0.1	2091.2
28103	14.966	0.27273	0.1	2050.5
28104	15.058	0.18182	0.1	2026.1
28105	14.966	9.0909e-002	0.1	2042.7
28106	14.966	0.45455	0.1	2052.
28107	15.058	0.36364	0.1	2026.8
28108	14.966	0.63636	0.1	2054.5
28109	15.058	0.54545	0.1	2029.5
28110	14.966	0.81818	0.1	2057.1
28111	15.058	0.72727	0.1	2032.4
28112	14.966	1.	0.1	2059.5
28113	15.058	0.90909	0.1	2035.2
28114	14.966	1.1818	0.1	2061.8
28115	15.058	1.0909	0.1	2037.8
28116	14.966	1.3636	0.1	2063.9
28117	15.058	1.2727	0.1	2040.2
28118	14.966	1.5455	0.1	2065.7
28119	15.058	1.4545	0.1	2042.4
28120	14.966	1.7273	0.1	2067.3
28121	15.058	1.6364	0.1	2044.3
28122	14.966	1.9091	0.1	2068.6
28123	15.058	1.8182	0.1	2045.8
28124	14.966	2.0909	0.1	2069.6
28125	15.058	2.	0.1	2047.1
28126	14.966	2.2727	0.1	2070.4
28127	15.058	2.1818	0.1	2048.1
28128	14.966	2.4545	0.1	2071.
28129	15.058	2.3636	0.1	2048.9
28130	14.966	2.6364	0.1	2071.4
28131	15.058	2.5455	0.1	2049.5
28132	14.966	2.8182	0.1	2071.7
28133	15.058	2.7273	0.1	2049.8
28134	14.966	3.	0.1	2071.8
28135	15.058	2.9091	0.1	2050.
28136	14.966	3.1818	0.1	2071.7
28137	15.058	3.0909	0.1	2050.
28138	14.966	3.3636	0.1	2071.4
28139	15.058	3.2727	0.1	2049.8
28140	14.966	3.5455	0.1	2071.
28141	15.058	3.4545	0.1	2049.5
28142	14.966	3.7273	0.1	2070.4
28143	15.058	3.6364	0.1	2048.9
28144	14.966	3.9091	0.1	2069.6
28145	15.058	3.8182	0.1	2048.1
28146	14.966	4.0909	0.1	2068.6
28147	15.058	4.	0.1	2047.1
28148	14.966	4.2727	0.1	2067.3
28149	15.058	4.1818	0.1	2045.8
28150	14.966	4.4545	0.1	2065.7
28151	15.058	4.3636	0.1	2044.3
28152	14.966	4.6364	0.1	2063.9
28153	15.058	4.5455	0.1	2042.4
28154	14.966	4.8182	0.1	2061.8
28155	15.058	4.7273	0.1	2040.2
28156	14.966	5.	0.1	2059.5
28157	15.058	4.9091	0.1	2037.8
28158	14.966	5.1818	0.1	2057.1
28159	15.058	5.0909	0.1	2035.2
28160	14.966	5.3636	0.1	2054.5
28161	15.058	5.2727	0.1	2032.4
28162	14.966	5.5455	0.1	2052.
28163	15.058	5.4545	0.1	2029.5
28164	14.966	5.7273	0.1	2050.5
28165	15.058	5.6364	0.1	2026.8
28166	15.058	5.8182	0.1	2026.1
28167	14.966	5.9091	0.1	2042.7
28168	15.15	0.27273	0.1	2002.2
28169	15.243	0.18182	0.1	1977.3
28170	15.15	9.0909e-002	0.1	1993.9
28171	15.15	0.45455	0.1	2004.3
28172	15.243	0.36364	0.1	1978.7
28173	15.15	0.63636	0.1	2007.4
28174	15.243	0.54545	0.1	1982.
28175	15.15	0.81818	0.1	2010.5
28176	15.243	0.72727	0.1	1985.5
28177	15.15	1.	0.1	2013.5
28178	15.243	0.90909	0.1	1988.9
28179	15.15	1.1818	0.1	2016.2
28180	15.243	1.0909	0.1	1992.1
28181	15.15	1.3636	0.1	2018.7
28182	15.243	1.2727	0.1	1995.
28183	15.15	1.5455	0.1	2020.9
28184	15.243	1.4545	0.1	1997.6
28185	15.15	1.7273	0.1	2022.8
28186	15.243	1.6364	0.1	1999.8
28187	15.15	1.9091	0.1	2024.4
28188	15.243	1.8182	0.1	2001.7
28189	15.15	2.0909	0.1	2025.6
28190	15.243	2.	0.1	2003.3
28191	15.15	2.2727	0.1	2026.6
28192	15.243	2.1818	0.1	2004.5
28193	15.15	2.4545	0.1	2027.3
28194	15.243	2.3636	0.1	2005.5
28195	15.15	2.6364	0.1	2027.8
28196	15.243	2.5455	0.1	2006.1
28197	15.15	2.8182	0.1	2028.1
28198	15.243	2.7273	0.1	2006.6
28199	15.15	3.	0.1	2028.2
28200	15.243	2.9091	0.1	2006.8
28201	15.15	3.1818	0.1	2028.1
28202	15.243	3.0909	0.1	2006.8
28203	15.15	3.3636	0.1	2027.8
28204	15.243	3.2727	0.1	2006.6
28205	15.15	3.5455	0.1	2027.3
28206	15.243	3.4545	0.1	2006.1
28207	15.15	3.7273	0.1	2026.6
28208	15.243	3.6364	0.1	2005.5
28209	15.15	3.9091	0.1	2025.6
28210	15.243	3.8182	0.1	2004.5
28211	15.15	4.0909	0.1	2024.4
28212	15.243	4.	0.1	2003.3
28213	15.15	4.2727	0.1	2022.8
28214	15.243	4.1818	0.1	2001.7
28215	15.15	4.4545	0.1	2020.9
28216	15.243	4.3636	0.1	1999.8
28217	15.15	4.6364	0.1	2018.7
28218	15.243	4.5455	0.1	1997.6
28219	15.15	4.8182	0.1	2016.2
28220	15.243	4.7273	0.1	1995.
28221	15.15	5.	0.1	2013.5
28222	15.243	4.9091	0.1	1992.1
28223	15.15	5.1818	0.1	2010.5
28224	15.243	5.0909	0.1	1988.9
28225	15.15	5.3636	0.1	2007.4
28226	15.243	5.2727	0.1	1985.5
28227	15.15	5.5455	0.1	2004.3
28228	15.243	5.4545	0.1	1982.
28229	15.15	5.7273	0.1	2002.2
28230	15.243	5.6364	0.1	1978.7
28231	15.243	5.8182	0.1	1977.3
28232	15.15	5.9091	0.1	1993.9
28233	15.335	0.27273	0.1	1953.6
28234	15.428	0.18182	0.1	1928.2
28235	15.335	9.0909e-002	0.1	1944.9
28236	15.335	0.45455	0.1	1956.4
28237	15.428	0.36364	0.1	1930.3
28238	15.335	0.63636	0.1	1960.2
28239	15.428	0.54545	0.1	1934.4
28240	15.335	0.81818	0.1	1963.9
28241	15.428	0.72727	0.1	1938.7
28242	15.335	1.	0.1	1967.5
28243	15.428	0.90909	0.1	1942.7
28244	15.335	1.1818	0.1	1970.9
28245	15.428	1.0909	0.1	1946.6
28246	15.335	1.3636	0.1	1973.9
28247	15.428	1.2727	0.1	1950.1
28248	15.335	1.5455	0.1	1976.5
28249	15.428	1.4545	0.1	1953.2
28250	15.335	1.7273	0.1	1978.8
28251	15.428	1.6364	0.1	1955.9
28252	15.335	1.9091	0.1	1980.6
28253	15.428	1.8182	0.1	1958.1
28254	15.335	2.0909	0.1	1982.2
28255	15.428	2.	0.1	1960.
28256	15.335	2.2727	0.1	1983.3
28257	15.428	2.1818	0.1	1961.5
28258	15.335	2.4545	0.1	1984.2
28259	15.428	2.3636	0.1	1962.6
28260	15.335	2.6364	0.1	1984.8
28261	15.428	2.5455	0.1	1963.4
28262	15.335	2.8182	0.1	1985.2
28263	15.428	2.7273	0.1	1964.
28264	15.335	3.	0.1	1985.3
28265	15.428	2.9091	0.1	1964.2
28266	15.335	3.1818	0.1	1985.2
28267	15.428	3.0909	0.1	1964.2
28268	15.335	3.3636	0.1	1984.8
28269	15.428	3.2727	0.1	1964.
28270	15.335	3.5455	0.1	1984.2
28271	15.428	3.4545	0.1	1963.4
28272	15.335	3.7273	0.1	1983.3
28273	15.428	3.6364	0.1	1962.6
28274	15.335	3.9091	0.1	1982.2
28275	15.428	3.8182	0.1	1961.5
28276	15.335	4.0909	0.1	1980.6
28277	15.428	4.	0.1	1960.
28278	15.335	4.2727	0.1	1978.8
28279	15.428	4.1818	0.1	1958.1
28280	15.335	4.4545	0.1	1976.5
28281	15.428	4.3636	0.1	1955.9
28282	15.335	4.6364	0.1	1973.9
28283	15.428	4.5455	0.1	1953.2
28284	15.335	4.8182	0.1	1970.9
28285	15.428	4.7273	0.1	1950.1
28286	15.335	5.	0.1	1967.5
28287	15.428	4.9091	0.1	1946.6
28288	15.335	5.1818	0.1	1963.9
28289	15.428	5.0909	0.1	1942.7
28290	15.335	5.3636	0.1	1960.2
28291	15.428	5.2727	0.1	1938.7
28292	15.335	5.5455	0.1	1956.4
28293	15.428	5.4545	0.1	1934.4
28294	15.335	5.7273	0.1	1953.6
28295	15.428	5.6364	0.1	1930.3
28296	15.428	5.8182	0.1	1928.2
28297	15.335	5.9091	0.1	1944.9
28298	15.52	0.27273	0.1	1904.8
28299	15.612	0.18182	0.1	1878.7
28300	15.52	9.0909e-002	0.1	1895.6
28301	15.52	0.45455	0.1	1908.3
28302	15.612	0.36364	0.1	1881.7
28303	15.52	0.63636	0.1	1912.9
28304	15.612	0.54545	0.1	1886.6
28305	15.52	0.81818	0.1	1917.4
28306	15.612	0.72727	0.1	1891.7
28307	15.52	1.	0.1	1921.7
28308	15.612	0.90909	0.1	1896.6
28309	15.52	1.1818	0.1	1925.7
28310	15.612	1.0909	0.1	1901.2
28311	15.52	1.3636	0.1	1929.3
28312	15.612	1.2727	0.1	1905.4
28313	15.52	1.5455	0.1	1932.5
28314	15.612	1.4545	0.1	1909.1
28315	15.52	1.7273	0.1	1935.2
28316	15.612	1.6364	0.1	1912.4
28317	15.52	1.9091	0.1	1937.5
28318	15.612	1.8182	0.1	1915.1
28319	15.52	2.0909	0.1	1939.3
28320	15.612	2.	0.1	1917.4
28321	15.52	2.2727	0.1	1940.7
28322	15.612	2.1818	0.1	1919.1
28323	15.52	2.4545	0.1	1941.8
28324	15.612	2.3636	0.1	1920.5
28325	15.52	2.6364	0.1	1942.5
28326	15.612	2.5455	0.1	1921.5
28327	15.52	2.8182	0.1	1942.9
28328	15.612	2.7273	0.1	1922.1
28329	15.52	3.	0.1	1943.1
28330	15.612	2.9091	0.1	1922.4
28331	15.52	3.1818	0.1	1942.9
28332	15.612	3.0909	0.1	1922.4
28333	15.52	3.3636	0.1	1942.5
28334	15.612	3.2727	0.1	1922.1
28335	15.52	3.5455	0.1	1941.8
28336	15.612	3.4545	0.1	1921.5
28337	15.52	3.7273	0.1	1940.7
28338	15.612	3.6364	0.1	1920.5
28339	15.52	3.9091	0.1	1939.3
28340	15.612	3.8182	0.1	1919.1
28341	15.52	4.0909	0.1	1937.5
28342	15.612	4.	0.1	1917.4
28343	15.52	4.2727	0.1	1935.2
28344	15.612	4.1818	0.1	1915.1
28345	15.52	4.4545	0.1	1932.5
28346	15.612	4.3636	0.1	1912.4
28347	15.52	4.6364	0.1	1929.3
28348	15.612	4.5455	0.1	1909.1
28349	15.52	4.8182	0.1	1925.7
28350	15.612	4.7273	0.1	1905.4
28351	15.52	5.	0.1	1921.7
28352	15.612	4.9091	0.1	1901.2
28353	15.52	5.1818	0.1	1917.4
28354	15.612	5.0909	0.1	1896.6
28355	15.52	5.3636	0.1	1912.9
28356	15.612	5.2727	0.1	1891.7
28357	15.52	5.5455	0.1	1908.3
28358	15.612	5.4545	0.1	1886.6
28359	15.52	5.7273	0.1	1904.8
28360	15.612	5.6364	0.1	1881.7
28361	15.612	5.8182	0.1	1878.7
28362	15.52	5.9091	0.1	1895.6
28363	15.705	0.27273	0.1	1855.4
28364	15.797	0.18182	0.1	1828.5
28365	15.705	9.0909e-002	0.1	1845.6
28366	15.705	0.45455	0.1	1859.9
28367	15.797	0.36364	0.1	1832.5
28368	15.705	0.63636	0.1	1865.4
28369	15.797	0.54545	0.1	1838.5
28370	15.705	0.81818	0.1	1870.8
28371	15.797	0.72727	0.1	1844.5
28372	15.705	1.	0.1	1876.
28373	15.797	0.90909	0.1	1850.4
28374	15.705	1.1818	0.1	1880.8
28375	15.797	1.0909	0.1	1855.9
28376	15.705	1.3636	0.1	1885.1
28377	15.797	1.2727	0.1	1860.9
28378	15.705	1.5455	0.1	1888.9
28379	15.797	1.4545	0.1	1865.5
28380	15.705	1.7273	0.1	1892.2
28381	15.797	1.6364	0.1	1869.4
28382	15.705	1.9091	0.1	1895.
28383	15.797	1.8182	0.1	1872.7
28384	15.705	2.0909	0.1	1897.2
28385	15.797	2.	0.1	1875.4
28386	15.705	2.2727	0.1	1898.9
28387	15.797	2.1818	0.1	1877.6
28388	15.705	2.4545	0.1	1900.2
28389	15.797	2.3636	0.1	1879.2
28390	15.705	2.6364	0.1	1901.1
28391	15.797	2.5455	0.1	1880.4
28392	15.705	2.8182	0.1	1901.6
28393	15.797	2.7273	0.1	1881.2
28394	15.705	3.	0.1	1901.7
28395	15.797	2.9091	0.1	1881.6
28396	15.705	3.1818	0.1	1901.6
28397	15.797	3.0909	0.1	1881.6
28398	15.705	3.3636	0.1	1901.1
28399	15.797	3.2727	0.1	1881.2
28400	15.705	3.5455	0.1	1900.2
28401	15.797	3.4545	0.1	1880.4
28402	15.705	3.7273	0.1	1898.9
28403	15.797	3.6364	0.1	1879.2
28404	15.705	3.9091	0.1	1897.2
28405	15.797	3.8182	0.1	1877.6
28406	15.705	4.0909	0.1	1895.
28407	15.797	4.	0.1	1875.4
28408	15.705	4.2727	0.1	1892.2
28409	15.797	4.1818	0.1	1872.7
28410	15.705	4.4545	0.1	1888.9
28411	15.797	4.3636	0.1	1869.4
28412	15.705	4.6364	0.1	1885.1
28413	15.797	4.5455	0.1	1865.5
28414	15.705	4.8182	0.1	1880.8
28415	15.797	4.7273	0.1	1860.9
28416	15.705	5.	0.1	1876.
28417	15.797	4.9091	0.1	1855.9
28418	15.705	5.1818	0.1	1870.8
28419	15.797	5.0909	0.1	1850.4
28420	15.705	5.3636	0.1	1865.4
28421	15.797	5.2727	0.1	1844.5
28422	15.705	5.5455	0.1	1859.9
28423	15.797	5.4545	0.1	1838.5
28424	15.705	5.7273	0.1	1855.4
28425	15.797	5.6364	0.1	1832.5
28426	15.797	5.8182	0.1	1828.5
28427	15.705	5.9091	0.1	1845.6
28428	15.89	0.27273	0.1	1805.4
28429	15.982	0.18182	0.1	1777.5
28430	15.89	9.0909e-002	0.1	1795.
28431	15.89	0.45455	0.1	1811.
28432	15.982	0.36364	0.1	1782.7
28433	15.89	0.63636	0.1	1817.6
28434	15.982	0.54545	0.1	1789.9
28435	15.89	0.81818	0.1	1824.1
28436	15.982	0.72727	0.1	1797.1
28437	15.89	1.	0.1	1830.3
28438	15.982	0.90909	0.1	1804.1
28439	15.89	1.1818	0.1	1836.
28440	15.982	1.0909	0.1	1810.7
28441	15.89	1.3636	0.1	1841.3
28442	15.982	1.2727	0.1	1816.8
28443	15.89	1.5455	0.1	1845.9
28444	15.982	1.4545	0.1	1822.2
28445	15.89	1.7273	0.1	1849.8
28446	15.982	1.6364	0.1	1827.
28447	15.89	1.9091	0.1	1853.1
28448	15.982	1.8182	0.1	1831.
28449	15.89	2.0909	0.1	1855.8
28450	15.982	2.	0.1	1834.3
28451	15.89	2.2727	0.1	1857.9
28452	15.982	2.1818	0.1	1837.
28453	15.89	2.4545	0.1	1859.5
28454	15.982	2.3636	0.1	1839.
28455	15.89	2.6364	0.1	1860.6
28456	15.982	2.5455	0.1	1840.5
28457	15.89	2.8182	0.1	1861.2
28458	15.982	2.7273	0.1	1841.4
28459	15.89	3.	0.1	1861.4
28460	15.982	2.9091	0.1	1841.9
28461	15.89	3.1818	0.1	1861.2
28462	15.982	3.0909	0.1	1841.9
28463	15.89	3.3636	0.1	1860.6
28464	15.982	3.2727	0.1	1841.4
28465	15.89	3.5455	0.1	1859.5
28466	15.982	3.4545	0.1	1840.5
28467	15.89	3.7273	0.1	1857.9
28468	15.982	3.6364	0.1	1839.
28469	15.89	3.9091	0.1	1855.8
28470	15.982	3.8182	0.1	1837.
28471	15.89	4.0909	0.1	1853.1
28472	15.982	4.	0.1	1834.3
28473	15.89	4.2727	0.1	1849.8
28474	15.982	4.1818	0.1	1831.
28475	15.89	4.4545	0.1	1845.9
28476	15.982	4.3636	0.1	1827.
28477	15.89	4.6364	0.1	1841.3
28478	15.982	4.5455	0.1	1822.2
28479	15.89	4.8182	0.1	1836.
28480	15.982	4.7273	0.1	1816.8
28481	15.89	5.	0.1	1830.3
28482	15.982	4.9091	0.1	1810.7
28483	15.89	5.1818	0.1	1824.1
28484	15.982	5.0909	0.1	1804.1
28485	15.89	5.3636	0.1	1817.6
28486	15.982	5.2727	0.1	1797.1
28487	15.89	5.5455	0.1	1811.
28488	15.982	5.4545	0.1	1789.9
28489	15.89	5.7273	0.1	1805.4
28490	15.982	5.6364	0.1	1782.7
28491	15.982	5.8182	0.1	1777.5
28492	15.89	5.9091	0.1	1795.
28493	16.074	0.27273	0.1	1754.6
28494	16.167	0.18182	0.1	1725.4
28495	16.074	9.0909e-002	0.1	1743.4
28496	16.074	0.45455	0.1	1761.5
28497	16.167	0.36364	0.1	1732.1
28498	16.074	0.63636	0.1	1769.3
28499	16.167	0.54545	0.1	1740.6
28500	16.074	0.81818	0.1	1777.1
28501	16.167	0.72727	0.1	1749.2
28502	16.074	1.	0.1	1784.5
28503	16.167	0.90909	0.1	1757.6
28504	16.074	1.1818	0.1	1791.4
28505	16.167	1.0909	0.1	1765.6
28506	16.074	1.3636	0.1	1797.7
28507	16.167	1.2727	0.1	1772.9
28508	16.074	1.5455	0.1	1803.3
28509	16.167	1.4545	0.1	1779.5
28510	16.074	1.7273	0.1	1808.1
28511	16.167	1.6364	0.1	1785.2
28512	16.074	1.9091	0.1	1812.2
28513	16.167	1.8182	0.1	1790.2
28514	16.074	2.0909	0.1	1815.5
28515	16.167	2.	0.1	1794.2
28516	16.074	2.2727	0.1	1818.
28517	16.167	2.1818	0.1	1797.5
28518	16.074	2.4545	0.1	1819.9
28519	16.167	2.3636	0.1	1800.
28520	16.074	2.6364	0.1	1821.3
28521	16.167	2.5455	0.1	1801.8
28522	16.074	2.8182	0.1	1822.
28523	16.167	2.7273	0.1	1802.9
28524	16.074	3.	0.1	1822.3
28525	16.167	2.9091	0.1	1803.5
28526	16.074	3.1818	0.1	1822.
28527	16.167	3.0909	0.1	1803.5
28528	16.074	3.3636	0.1	1821.3
28529	16.167	3.2727	0.1	1802.9
28530	16.074	3.5455	0.1	1819.9
28531	16.167	3.4545	0.1	1801.8
28532	16.074	3.7273	0.1	1818.
28533	16.167	3.6364	0.1	1800.
28534	16.074	3.9091	0.1	1815.5
28535	16.167	3.8182	0.1	1797.5
28536	16.074	4.0909	0.1	1812.2
28537	16.167	4.	0.1	1794.2
28538	16.074	4.2727	0.1	1808.1
28539	16.167	4.1818	0.1	1790.2
28540	16.074	4.4545	0.1	1803.3
28541	16.167	4.3636	0.1	1785.2
28542	16.074	4.6364	0.1	1797.7
28543	16.167	4.5455	0.1	1779.5
28544	16.074	4.8182	0.1	1791.4
28545	16.167	4.7273	0.1	1772.9
28546	16.074	5.	0.1	1784.5
28547	16.167	4.9091	0.1	1765.6
28548	16.074	5.1818	0.1	1777.1
28549	16.167	5.0909	0.1	1757.6
28550	16.074	5.3636	0.1	1769.3
28551	16.167	5.2727	0.1	1749.2
28552	16.074	5.5455	0.1	1761.5
28553	16.167	5.4545	0.1	1740.6
28554	16.074	5.7273	0.1	1754.6
28555	16.167	5.6364	0.1	1732.1
28556	16.167	5.8182	0.1	1725.4
28557	16.074	5.9091	0.1	1743.4
28558	16.259	0.27273	0.1	1702.7
28559	16.351	0.18182	0.1	1671.9
28560	16.259	9.0909e-002	0.1	1690.6
28561	16.259	0.45455	0.1	1711.1
28562	16.351	0.36364	0.1	1680.3
28563	16.259	0.63636	0.1	1720.4
28564	16.351	0.54545	0.1	1690.4
28565	16.259	0.81818	0.1	1729.7
28566	16.351	0.72727	0.1	1700.7
28567	16.259	1.	0.1	1738.6
28568	16.351	0.90909	0.1	1710.8
28569	16.259	1.1818	0.1	1747.
28570	16.351	1.0909	0.1	1720.3
28571	16.259	1.3636	0.1	1754.6
28572	16.351	1.2727	0.1	1729.2
28573	16.259	1.5455	0.1	1761.4
28574	16.351	1.4545	0.1	1737.2
28575	16.259	1.7273	0.1	1767.3
28576	16.351	1.6364	0.1	1744.3
28577	16.259	1.9091	0.1	1772.2
28578	16.351	1.8182	0.1	1750.3
28579	16.259	2.0909	0.1	1776.2
28580	16.351	2.	0.1	1755.3
28581	16.259	2.2727	0.1	1779.4
28582	16.351	2.1818	0.1	1759.4
28583	16.259	2.4545	0.1	1781.8
28584	16.351	2.3636	0.1	1762.4
28585	16.259	2.6364	0.1	1783.4
28586	16.351	2.5455	0.1	1764.7
28587	16.259	2.8182	0.1	1784.4
28588	16.351	2.7273	0.1	1766.1
28589	16.259	3.	0.1	1784.7
28590	16.351	2.9091	0.1	1766.8
28591	16.259	3.1818	0.1	1784.4
28592	16.351	3.0909	0.1	1766.8
28593	16.259	3.3636	0.1	1783.4
28594	16.351	3.2727	0.1	1766.1
28595	16.259	3.5455	0.1	1781.8
28596	16.351	3.4545	0.1	1764.7
28597	16.259	3.7273	0.1	1779.4
28598	16.351	3.6364	0.1	1762.4
28599	16.259	3.9091	0.1	1776.2
28600	16.351	3.8182	0.1	1759.4
28601	16.259	4.0909	0.1	1772.2
28602	16.351	4.	0.1	1755.3
28603	16.259	4.2727	0.1	1767.3
28604	16.351	4.1818	0.1	1750.3
28605	16.259	4.4545	0.1	1761.4
28606	16.351	4.3636	0.1	1744.3
28607	16.259	4.6364	0.1	1754.6
28608	16.351	4.5455	0.1	1737.2
28609	16.259	4.8182	0.1	1747.
28610	16.351	4.7273	0.1	1729.2
28611	16.259	5.	0.1	1738.6
28612	16.351	4.9091	0.1	1720.3
28613	16.259	5.1818	0.1	1729.7
28614	16.351	5.0909	0.1	1710.8
28615	16.259	5.3636	0.1	1720.4
28616	16.351	5.2727	0.1	1700.7
28617	16.259	5.5455	0.1	1711.1
28618	16.351	5.4545	0.1	1690.4
28619	16.259	5.7273	0.1	1702.7
28620	16.351	5.6364	0.1	1680.3
28621	16.351	5.8182	0.1	1671.9
28622	16.259	5.9091	0.1	1690.6
28623	16.444	0.27273	0.1	1649.4
28624	16.536	0.18182	0.1	1616.7
28625	16.444	9.0909e-002	0.1	1636.3
28626	16.444	0.45455	0.1	1659.6
28627	16.536	0.36364	0.1	1627.
28628	16.444	0.63636	0.1	1670.7
28629	16.536	0.54545	0.1	1639.1
28630	16.444	0.81818	0.1	1681.7
28631	16.536	0.72727	0.1	1651.3
28632	16.444	1.	0.1	1692.5
28633	16.536	0.90909	0.1	1663.4
28634	16.444	1.1818	0.1	1702.5
28635	16.536	1.0909	0.1	1674.9
28636	16.444	1.3636	0.1	1711.8
28637	16.536	1.2727	0.1	1685.7
28638	16.444	1.5455	0.1	1720.1
28639	16.536	1.4545	0.1	1695.5
28640	16.444	1.7273	0.1	1727.3
28641	16.536	1.6364	0.1	1704.2
28642	16.444	1.9091	0.1	1733.4
28643	16.536	1.8182	0.1	1711.7
28644	16.444	2.0909	0.1	1738.4
28645	16.536	2.	0.1	1717.9
28646	16.444	2.2727	0.1	1742.4
28647	16.536	2.1818	0.1	1722.9
28648	16.444	2.4545	0.1	1745.3
28649	16.536	2.3636	0.1	1726.7
28650	16.444	2.6364	0.1	1747.4
28651	16.536	2.5455	0.1	1729.5
28652	16.444	2.8182	0.1	1748.6
28653	16.536	2.7273	0.1	1731.4
28654	16.444	3.	0.1	1749.
28655	16.536	2.9091	0.1	1732.3
28656	16.444	3.1818	0.1	1748.6
28657	16.536	3.0909	0.1	1732.3
28658	16.444	3.3636	0.1	1747.4
28659	16.536	3.2727	0.1	1731.4
28660	16.444	3.5455	0.1	1745.3
28661	16.536	3.4545	0.1	1729.5
28662	16.444	3.7273	0.1	1742.4
28663	16.536	3.6364	0.1	1726.7
28664	16.444	3.9091	0.1	1738.4
28665	16.536	3.8182	0.1	1722.9
28666	16.444	4.0909	0.1	1733.4
28667	16.536	4.	0.1	1717.9
28668	16.444	4.2727	0.1	1727.3
28669	16.536	4.1818	0.1	1711.7
28670	16.444	4.4545	0.1	1720.1
28671	16.536	4.3636	0.1	1704.2
28672	16.444	4.6364	0.1	1711.8
28673	16.536	4.5455	0.1	1695.5
28674	16.444	4.8182	0.1	1702.5
28675	16.536	4.7273	0.1	1685.7
28676	16.444	5.	0.1	1692.5
28677	16.536	4.9091	0.1	1674.9
28678	16.444	5.1818	0.1	1681.7
28679	16.536	5.0909	0.1	1663.4
28680	16.444	5.3636	0.1	1670.7
28681	16.536	5.2727	0.1	1651.3
28682	16.444	5.5455	0.1	1659.6
28683	16.536	5.4545	0.1	1639.1
28684	16.444	5.7273	0.1	1649.4
28685	16.536	5.6364	0.1	1627.
28686	16.536	5.8182	0.1	1616.7
28687	16.444	5.9091	0.1	1636.3
28688	16.629	0.27273	0.1	1594.2
28689	16.721	0.18182	0.1	1559.3
28690	16.629	9.0909e-002	0.1	1580.
28691	16.629	0.45455	0.1	1606.5
28692	16.721	0.36364	0.1	1571.9
28693	16.629	0.63636	0.1	1619.7
28694	16.721	0.54545	0.1	1586.2
28695	16.629	0.81818	0.1	1633.
28696	16.721	0.72727	0.1	1600.8
28697	16.629	1.	0.1	1645.9
28698	16.721	0.90909	0.1	1615.2
28699	16.629	1.1818	0.1	1658.1
28700	16.721	1.0909	0.1	1629.2
28701	16.629	1.3636	0.1	1669.4
28702	16.721	1.2727	0.1	1642.4
28703	16.629	1.5455	0.1	1679.6
28704	16.721	1.4545	0.1	1654.4
28705	16.629	1.7273	0.1	1688.5
28706	16.721	1.6364	0.1	1665.1
28707	16.629	1.9091	0.1	1696.1
28708	16.721	1.8182	0.1	1674.4
28709	16.629	2.0909	0.1	1702.3
28710	16.721	2.	0.1	1682.2
28711	16.629	2.2727	0.1	1707.3
28712	16.721	2.1818	0.1	1688.5
28713	16.629	2.4545	0.1	1711.
28714	16.721	2.3636	0.1	1693.3
28715	16.629	2.6364	0.1	1713.5
28716	16.721	2.5455	0.1	1696.9
28717	16.629	2.8182	0.1	1715.
28718	16.721	2.7273	0.1	1699.2
28719	16.629	3.	0.1	1715.5
28720	16.721	2.9091	0.1	1700.3
28721	16.629	3.1818	0.1	1715.
28722	16.721	3.0909	0.1	1700.3
28723	16.629	3.3636	0.1	1713.5
28724	16.721	3.2727	0.1	1699.2
28725	16.629	3.5455	0.1	1711.
28726	16.721	3.4545	0.1	1696.9
28727	16.629	3.7273	0.1	1707.3
28728	16.721	3.6364	0.1	1693.3
28729	16.629	3.9091	0.1	1702.3
28730	16.721	3.8182	0.1	1688.5
28731	16.629	4.0909	0.1	1696.1
28732	16.721	4.	0.1	1682.2
28733	16.629	4.2727	0.1	1688.5
28734	16.721	4.1818	0.1	1674.4
28735	16.629	4.4545	0.1	1679.6
28736	16.721	4.3636	0.1	1665.1
28737	16.629	4.6364	0.1	1669.4
28738	16.721	4.5455	0.1	1654.4
28739	16.629	4.8182	0.1	1658.1
28740	16.721	4.7273	0.1	1642.4
28741	16.629	5.	0.1	1645.9
28742	16.721	4.9091	0.1	1629.2
28743	16.629	5.1818	0.1	1633.
28744	16.721	5.0909	0.1	1615.2
28745	16.629	5.3636	0.1	1619.7
28746	16.721	5.2727	0.1	1600.8
28747	16.629	5.5455	0.1	1606.5
28748	16.721	5.4545	0.1	1586.2
28749	16.629	5.7273	0.1	1594.2
28750	16.721	5.6364	0.1	1571.9
28751	16.721	5.8182	0.1	1559.3
28752	16.629	5.9091	0.1	1580.
28753	16.813	0.27273	0.1	1536.8
28754	16.906	0.18182	0.1	1499.2
28755	16.813	9.0909e-002	0.1	1521.2
28756	16.813	0.45455	0.1	1551.5
28757	16.906	0.36364	0.1	1514.3
28758	16.813	0.63636	0.1	1567.2
28759	16.906	0.54545	0.1	1531.2
28760	16.813	0.81818	0.1	1583.1
28761	16.906	0.72727	0.1	1548.6
28762	16.813	1.	0.1	1598.6
28763	16.906	0.90909	0.1	1566.
28764	16.813	1.1818	0.1	1613.5
28765	16.906	1.0909	0.1	1583.
28766	16.813	1.3636	0.1	1627.4
28767	16.906	1.2727	0.1	1599.2
28768	16.813	1.5455	0.1	1640.
28769	16.906	1.4545	0.1	1614.
28770	16.813	1.7273	0.1	1651.1
28771	16.906	1.6364	0.1	1627.3
28772	16.813	1.9091	0.1	1660.5
28773	16.906	1.8182	0.1	1638.9
28774	16.813	2.0909	0.1	1668.3
28775	16.906	2.	0.1	1648.6
28776	16.813	2.2727	0.1	1674.5
28777	16.906	2.1818	0.1	1656.6
28778	16.813	2.4545	0.1	1679.2
28779	16.906	2.3636	0.1	1662.7
28780	16.813	2.6364	0.1	1682.5
28781	16.906	2.5455	0.1	1667.2
28782	16.813	2.8182	0.1	1684.4
28783	16.906	2.7273	0.1	1670.2
28784	16.813	3.	0.1	1685.
28785	16.906	2.9091	0.1	1671.6
28786	16.813	3.1818	0.1	1684.4
28787	16.906	3.0909	0.1	1671.6
28788	16.813	3.3636	0.1	1682.5
28789	16.906	3.2727	0.1	1670.2
28790	16.813	3.5455	0.1	1679.2
28791	16.906	3.4545	0.1	1667.2
28792	16.813	3.7273	0.1	1674.5
28793	16.906	3.6364	0.1	1662.7
28794	16.813	3.9091	0.1	1668.3
28795	16.906	3.8182	0.1	1656.6
28796	16.813	4.0909	0.1	1660.5
28797	16.906	4.	0.1	1648.6
28798	16.813	4.2727	0.1	1651.1
28799	16.906	4.1818	0.1	1638.9
28800	16.813	4.4545	0.1	1640.
28801	16.906	4.3636	0.1	1627.3
28802	16.813	4.6364	0.1	1627.4
28803	16.906	4.5455	0.1	1614.
28804	16.813	4.8182	0.1	1613.5
28805	16.906	4.7273	0.1	1599.2
28806	16.813	5.	0.1	1598.6
28807	16.906	4.9091	0.1	1583.
28808	16.813	5.1818	0.1	1583.1
28809	16.906	5.0909	0.1	1566.
28810	16.813	5.3636	0.1	1567.2
28811	16.906	5.2727	0.1	1548.6
28812	16.813	5.5455	0.1	1551.5
28813	16.906	5.4545	0.1	1531.2
28814	16.813	5.7273	0.1	1536.8
28815	16.906	5.6364	0.1	1514.3
28816	16.906	5.8182	0.1	1499.2
28817	16.813	5.9091	0.1	1521.2
28818	16.998	0.27273	0.1	1476.5
28819	17.09	0.18182	0.1	1435.7
28820	16.998	9.0909e-002	0.1	1459.3
28821	16.998	0.45455	0.1	1494.
28822	17.09	0.36364	0.1	1453.7
28823	16.998	0.63636	0.1	1512.6
28824	17.09	0.54545	0.1	1473.7
28825	16.998	0.81818	0.1	1531.6
28826	17.09	0.72727	0.1	1494.4
28827	16.998	1.	0.1	1550.5
28828	17.09	0.90909	0.1	1515.4
28829	16.998	1.1818	0.1	1568.7
28830	17.09	1.0909	0.1	1536.1
28831	16.998	1.3636	0.1	1585.8
28832	17.09	1.2727	0.1	1556.
28833	16.998	1.5455	0.1	1601.4
28834	17.09	1.4545	0.1	1574.4
28835	16.998	1.7273	0.1	1615.2
28836	17.09	1.6364	0.1	1591.1
28837	16.998	1.9091	0.1	1627.1
28838	17.09	1.8182	0.1	1605.6
28839	16.998	2.0909	0.1	1636.9
28840	17.09	2.	0.1	1617.8
28841	16.998	2.2727	0.1	1644.8
28842	17.09	2.1818	0.1	1627.8
28843	16.998	2.4545	0.1	1650.7
28844	17.09	2.3636	0.1	1635.7
28845	16.998	2.6364	0.1	1654.9
28846	17.09	2.5455	0.1	1641.4
28847	16.998	2.8182	0.1	1657.4
28848	17.09	2.7273	0.1	1645.2
28849	16.998	3.	0.1	1658.2
28850	17.09	2.9091	0.1	1647.1
28851	16.998	3.1818	0.1	1657.4
28852	17.09	3.0909	0.1	1647.1
28853	16.998	3.3636	0.1	1654.9
28854	17.09	3.2727	0.1	1645.2
28855	16.998	3.5455	0.1	1650.7
28856	17.09	3.4545	0.1	1641.4
28857	16.998	3.7273	0.1	1644.8
28858	17.09	3.6364	0.1	1635.7
28859	16.998	3.9091	0.1	1636.9
28860	17.09	3.8182	0.1	1627.8
28861	16.998	4.0909	0.1	1627.1
28862	17.09	4.	0.1	1617.8
28863	16.998	4.2727	0.1	1615.2
28864	17.09	4.1818	0.1	1605.6
28865	16.998	4.4545	0.1	1601.4
28866	17.09	4.3636	0.1	1591.1
28867	16.998	4.6364	0.1	1585.8
28868	17.09	4.5455	0.1	1574.4
28869	16.998	4.8182	0.1	1568.7
28870	17.09	4.7273	0.1	1556.
28871	16.998	5.	0.1	1550.5
28872	17.09	4.9091	0.1	1536.1
28873	16.998	5.1818	0.1	1531.6
28874	17.09	5.0909	0.1	1515.4
28875	16.998	5.3636	0.1	1512.6
28876	17.09	5.2727	0.1	1494.4
28877	16.998	5.5455	0.1	1494.
28878	17.09	5.4545	0.1	1473.7
28879	16.998	5.7273	0.1	1476.5
28880	17.09	5.6364	0.1	1453.7
28881	17.09	5.8182	0.1	1435.7
28882	16.998	5.9091	0.1	1459.3
28883	17.183	0.27273	0.1	1412.7
28884	17.275	0.18182	0.1	1368.
28885	17.183	9.0909e-002	0.1	1393.6
28886	17.183	0.45455	0.1	1433.3
28887	17.275	0.36364	0.1	1389.3
28888	17.183	0.63636	0.1	1455.4
28889	17.275	0.54545	0.1	1412.7
28890	17.183	0.81818	0.1	1478.2
28891	17.275	0.72727	0.1	1437.5
28892	17.183	1.	0.1	1501.1
28893	17.275	0.90909	0.1	1462.8
28894	17.183	1.1818	0.1	1523.5
28895	17.275	1.0909	0.1	1488.2
28896	17.183	1.3636	0.1	1544.7
28897	17.275	1.2727	0.1	1512.7
28898	17.183	1.5455	0.1	1564.1
28899	17.275	1.4545	0.1	1535.8
28900	17.183	1.7273	0.1	1581.5
28901	17.275	1.6364	0.1	1556.6
28902	17.183	1.9091	0.1	1596.4
28903	17.275	1.8182	0.1	1574.9
28904	17.183	2.0909	0.1	1608.8
28905	17.275	2.	0.1	1590.4
28906	17.183	2.2727	0.1	1618.8
28907	17.275	2.1818	0.1	1603.2
28908	17.183	2.4545	0.1	1626.4
28909	17.275	2.3636	0.1	1613.2
28910	17.183	2.6364	0.1	1631.8
28911	17.275	2.5455	0.1	1620.5
28912	17.183	2.8182	0.1	1634.9
28913	17.275	2.7273	0.1	1625.4
28914	17.183	3.	0.1	1636.
28915	17.275	2.9091	0.1	1627.9
28916	17.183	3.1818	0.1	1634.9
28917	17.275	3.0909	0.1	1627.9
28918	17.183	3.3636	0.1	1631.8
28919	17.275	3.2727	0.1	1625.4
28920	17.183	3.5455	0.1	1626.4
28921	17.275	3.4545	0.1	1620.5
28922	17.183	3.7273	0.1	1618.8
28923	17.275	3.6364	0.1	1613.2
28924	17.183	3.9091	0.1	1608.8
28925	17.275	3.8182	0.1	1603.2
28926	17.183	4.0909	0.1	1596.4
28927	17.275	4.	0.1	1590.4
28928	17.183	4.2727	0.1	1581.5
28929	17.275	4.1818	0.1	1574.9
28930	17.183	4.4545	0.1	1564.1
28931	17.275	4.3636	0.1	1556.6
28932	17.183	4.6364	0.1	1544.7
28933	17.275	4.5455	0.1	1535.8
28934	17.183	4.8182	0.1	1523.5
28935	17.275	4.7273	0.1	1512.7
28936	17.183	5.	0.1	1501.1
28937	17.275	4.9091	0.1	1488.2
28938	17.183	5.1818	0.1	1478.2
28939	17.275	5.0909	0.1	1462.8
28940	17.183	5.3636	0.1	1455.4
28941	17.275	5.2727	0.1	1437.5
28942	17.183	5.5455	0.1	1433.3
28943	17.275	5.4545	0.1	1412.7
28944	17.183	5.7273	0.1	1412.7
28945	17.275	5.6364	0.1	1389.3
28946	17.275	5.8182	0.1	1368.
28947	17.183	5.9091	0.1	1393.6
28948	17.368	0.27273	0.1	1344.4
28949	17.46	0.18182	0.1	1295.2
28950	17.368	9.0909e-002	0.1	1323.3
28951	17.368	0.45455	0.1	1368.7
28952	17.46	0.36364	0.1	1320.1
28953	17.368	0.63636	0.1	1394.8
28954	17.46	0.54545	0.1	1347.6
28955	17.368	0.81818	0.1	1422.2
28956	17.46	0.72727	0.1	1377.1
28957	17.368	1.	0.1	1450.1
28958	17.46	0.90909	0.1	1407.8
28959	17.368	1.1818	0.1	1477.6
28960	17.46	1.0909	0.1	1438.9
28961	17.368	1.3636	0.1	1504.
28962	17.46	1.2727	0.1	1469.5
28963	17.368	1.5455	0.1	1528.4
28964	17.46	1.4545	0.1	1498.3
28965	17.368	1.7273	0.1	1550.2
28966	17.46	1.6364	0.1	1524.6
28967	17.368	1.9091	0.1	1569.1
28968	17.46	1.8182	0.1	1547.8
28969	17.368	2.0909	0.1	1584.9
28970	17.46	2.	0.1	1567.4
28971	17.368	2.2727	0.1	1597.6
28972	17.46	2.1818	0.1	1583.6
28973	17.368	2.4545	0.1	1607.3
28974	17.46	2.3636	0.1	1596.4
28975	17.368	2.6364	0.1	1614.2
28976	17.46	2.5455	0.1	1605.9
28977	17.368	2.8182	0.1	1618.4
28978	17.46	2.7273	0.1	1612.3
28979	17.368	3.	0.1	1619.7
28980	17.46	2.9091	0.1	1615.4
28981	17.368	3.1818	0.1	1618.4
28982	17.46	3.0909	0.1	1615.4
28983	17.368	3.3636	0.1	1614.2
28984	17.46	3.2727	0.1	1612.3
28985	17.368	3.5455	0.1	1607.3
28986	17.46	3.4545	0.1	1605.9
28987	17.368	3.7273	0.1	1597.6
28988	17.46	3.6364	0.1	1596.4
28989	17.368	3.9091	0.1	1584.9
28990	17.46	3.8182	0.1	1583.6
28991	17.368	4.0909	0.1	1569.1
28992	17.46	4.	0.1	1567.4
28993	17.368	4.2727	0.1	1550.2
28994	17.46	4.1818	0.1	1547.8
28995	17.368	4.4545	0.1	1528.4
28996	17.46	4.3636	0.1	1524.6
28997	17.368	4.6364	0.1	1504.
28998	17.46	4.5455	0.1	1498.3
28999	17.368	4.8182	0.1	1477.6
29000	17.46	4.7273	0.1	1469.5
29001	17.368	5.	0.1	1450.1
29002	17.46	4.9091	0.1	1438.9
29003	17.368	5.1818	0.1	1422.2
29004	17.46	5.0909	0.1	1407.8
29005	17.368	5.3636	0.1	1394.8
29006	17.46	5.2727	0.1	1377.1
29007	17.368	5.5455	0.1	1368.7
29008	17.46	5.4545	0.1	1347.6
29009	17.368	5.7273	0.1	1344.4
29010	17.46	5.6364	0.1	1320.1
29011	17.46	5.8182	0.1	1295.2
29012	17.368	5.9091	0.1	1323.3
29013	17.552	0.27273	0.1	1270.8
29014	17.645	0.18182	0.1	1216.5
29015	17.552	9.0909e-002	0.1	1247.3
29016	17.552	0.45455	0.1	1299.1
29017	17.645	0.36364	0.1	1245.2
29018	17.552	0.63636	0.1	1330.
29019	17.645	0.54545	0.1	1277.2
29020	17.552	0.81818	0.1	1362.9
29021	17.645	0.72727	0.1	1312.3
29022	17.552	1.	0.1	1396.9
29023	17.645	0.90909	0.1	1349.5
29024	17.552	1.1818	0.1	1431.
29025	17.645	1.0909	0.1	1388.
29026	17.552	1.3636	0.1	1464.
29027	17.645	1.2727	0.1	1426.1
29028	17.552	1.5455	0.1	1494.8
29029	17.645	1.4545	0.1	1462.5
29030	17.552	1.7273	0.1	1522.3
29031	17.645	1.6364	0.1	1495.8
29032	17.552	1.9091	0.1	1546.2
29033	17.645	1.8182	0.1	1525.1
29034	17.552	2.0909	0.1	1566.3
29035	17.645	2.	0.1	1550.1
29036	17.552	2.2727	0.1	1582.5
29037	17.645	2.1818	0.1	1570.6
29038	17.552	2.4545	0.1	1595.
29039	17.645	2.3636	0.1	1587.
29040	17.552	2.6364	0.1	1603.9
29041	17.645	2.5455	0.1	1599.3
29042	17.552	2.8182	0.1	1609.3
29043	17.645	2.7273	0.1	1607.5
29044	17.552	3.	0.1	1611.1
29045	17.645	2.9091	0.1	1611.7
29046	17.552	3.1818	0.1	1609.3
29047	17.645	3.0909	0.1	1611.7
29048	17.552	3.3636	0.1	1603.9
29049	17.645	3.2727	0.1	1607.5
29050	17.552	3.5455	0.1	1595.
29051	17.645	3.4545	0.1	1599.3
29052	17.552	3.7273	0.1	1582.5
29053	17.645	3.6364	0.1	1587.
29054	17.552	3.9091	0.1	1566.3
29055	17.645	3.8182	0.1	1570.6
29056	17.552	4.0909	0.1	1546.2
29057	17.645	4.	0.1	1550.1
29058	17.552	4.2727	0.1	1522.3
29059	17.645	4.1818	0.1	1525.1
29060	17.552	4.4545	0.1	1494.8
29061	17.645	4.3636	0.1	1495.8
29062	17.552	4.6364	0.1	1464.
29063	17.645	4.5455	0.1	1462.5
29064	17.552	4.8182	0.1	1431.
29065	17.645	4.7273	0.1	1426.1
29066	17.552	5.	0.1	1396.9
29067	17.645	4.9091	0.1	1388.
29068	17.552	5.1818	0.1	1362.9
29069	17.645	5.0909	0.1	1349.5
29070	17.552	5.3636	0.1	1330.
29071	17.645	5.2727	0.1	1312.3
29072	17.552	5.5455	0.1	1299.1
29073	17.645	5.4545	0.1	1277.2
29074	17.552	5.7273	0.1	1270.8
29075	17.645	5.6364	0.1	1245.2
29076	17.645	5.8182	0.1	1216.5
29077	17.552	5.9091	0.1	1247.3
29078	17.737	0.27273	0.1	1190.7
29079	17.83	0.18182	0.1	1130.6
29080	17.737	9.0909e-002	0.1	1164.6
29081	17.737	0.45455	0.1	1223.4
29082	17.83	0.36364	0.1	1163.2
29083	17.737	0.63636	0.1	1259.8
29084	17.83	0.54545	0.1	1200.4
29085	17.737	0.81818	0.1	1299.3
29086	17.83	0.72727	0.1	1242.
29087	17.737	1.	0.1	1341.
29088	17.83	0.90909	0.1	1287.3
29089	17.737	1.1818	0.1	1383.5
29090	17.83	1.0909	0.1	1334.8
29091	17.737	1.3636	0.1	1425.
29092	17.83	1.2727	0.1	1382.7
29093	17.737	1.5455	0.1	1463.9
29094	17.83	1.4545	0.1	1428.8
29095	17.737	1.7273	0.1	1498.9
29096	17.83	1.6364	0.1	1471.2
29097	17.737	1.9091	0.1	1529.2
29098	17.83	1.8182	0.1	1508.6
29099	17.737	2.0909	0.1	1554.6
29100	17.83	2.	0.1	1540.2
29101	17.737	2.2727	0.1	1575.3
29102	17.83	2.1818	0.1	1566.3
29103	17.737	2.4545	0.1	1591.3
29104	17.83	2.3636	0.1	1587.2
29105	17.737	2.6364	0.1	1602.9
29106	17.83	2.5455	0.1	1603.
29107	17.737	2.8182	0.1	1609.9
29108	17.83	2.7273	0.1	1613.8
29109	17.737	3.	0.1	1612.3
29110	17.83	2.9091	0.1	1619.3
29111	17.737	3.1818	0.1	1609.9
29112	17.83	3.0909	0.1	1619.3
29113	17.737	3.3636	0.1	1602.9
29114	17.83	3.2727	0.1	1613.8
29115	17.737	3.5455	0.1	1591.3
29116	17.83	3.4545	0.1	1603.
29117	17.737	3.7273	0.1	1575.3
29118	17.83	3.6364	0.1	1587.2
29119	17.737	3.9091	0.1	1554.6
29120	17.83	3.8182	0.1	1566.3
29121	17.737	4.0909	0.1	1529.2
29122	17.83	4.	0.1	1540.2
29123	17.737	4.2727	0.1	1498.9
29124	17.83	4.1818	0.1	1508.6
29125	17.737	4.4545	0.1	1463.9
29126	17.83	4.3636	0.1	1471.2
29127	17.737	4.6364	0.1	1425.
29128	17.83	4.5455	0.1	1428.8
29129	17.737	4.8182	0.1	1383.5
29130	17.83	4.7273	0.1	1382.7
29131	17.737	5.	0.1	1341.
29132	17.83	4.9091	0.1	1334.8
29133	17.737	5.1818	0.1	1299.3
29134	17.83	5.0909	0.1	1287.3
29135	17.737	5.3636	0.1	1259.8
29136	17.83	5.2727	0.1	1242.
29137	17.737	5.5455	0.1	1223.4
29138	17.83	5.4545	0.1	1200.4
29139	17.737	5.7273	0.1	1190.7
29140	17.83	5.6364	0.1	1163.2
29141	17.83	5.8182	0.1	1130.6
29142	17.737	5.9091	0.1	1164.6
29143	17.922	0.27273	0.1	1103.
29144	18.014	0.18182	0.1	1036.5
29145	17.922	9.0909e-002	0.1	1074.1
29146	17.922	0.45455	0.1	1140.4
29147	18.014	0.36364	0.1	1073.
29148	17.922	0.63636	0.1	1183.
29149	18.014	0.54545	0.1	1115.8
29150	17.922	0.81818	0.1	1230.6
29151	18.014	0.72727	0.1	1165.1
29152	17.922	1.	0.1	1281.8
29153	18.014	0.90909	0.1	1220.2
29154	17.922	1.1818	0.1	1334.9
29155	18.014	1.0909	0.1	1279.2
29156	17.922	1.3636	0.1	1387.3
29157	18.014	1.2727	0.1	1339.7
29158	17.922	1.5455	0.1	1436.9
29159	18.014	1.4545	0.1	1398.5
29160	17.922	1.7273	0.1	1481.4
29161	18.014	1.6364	0.1	1452.8
29162	17.922	1.9091	0.1	1520.
29163	18.014	1.8182	0.1	1500.4
29164	17.922	2.0909	0.1	1552.2
29165	18.014	2.	0.1	1540.6
29166	17.922	2.2727	0.1	1578.4
29167	18.014	2.1818	0.1	1573.5
29168	17.922	2.4545	0.1	1598.9
29169	18.014	2.3636	0.1	1600.
29170	17.922	2.6364	0.1	1613.9
29171	18.014	2.5455	0.1	1620.2
29172	17.922	2.8182	0.1	1623.1
29173	18.014	2.7273	0.1	1634.2
29174	17.922	3.	0.1	1626.2
29175	18.014	2.9091	0.1	1641.3
29176	17.922	3.1818	0.1	1623.1
29177	18.014	3.0909	0.1	1641.3
29178	17.922	3.3636	0.1	1613.9
29179	18.014	3.2727	0.1	1634.2
29180	17.922	3.5455	0.1	1598.9
29181	18.014	3.4545	0.1	1620.2
29182	17.922	3.7273	0.1	1578.4
29183	18.014	3.6364	0.1	1600.
29184	17.922	3.9091	0.1	1552.2
29185	18.014	3.8182	0.1	1573.5
29186	17.922	4.0909	0.1	1520.
29187	18.014	4.	0.1	1540.6
29188	17.922	4.2727	0.1	1481.4
29189	18.014	4.1818	0.1	1500.4
29190	17.922	4.4545	0.1	1436.9
29191	18.014	4.3636	0.1	1452.8
29192	17.922	4.6364	0.1	1387.3
29193	18.014	4.5455	0.1	1398.5
29194	17.922	4.8182	0.1	1334.9
29195	18.014	4.7273	0.1	1339.7
29196	17.922	5.	0.1	1281.8
29197	18.014	4.9091	0.1	1279.2
29198	17.922	5.1818	0.1	1230.6
29199	18.014	5.0909	0.1	1220.2
29200	17.922	5.3636	0.1	1183.
29201	18.014	5.2727	0.1	1165.1
29202	17.922	5.5455	0.1	1140.4
29203	18.014	5.4545	0.1	1115.8
29204	17.922	5.7273	0.1	1103.
29205	18.014	5.6364	0.1	1073.
29206	18.014	5.8182	0.1	1036.5
29207	17.922	5.9091	0.1	1074.1
29208	18.107	0.27273	0.1	1006.5
29209	18.199	0.18182	0.1	933.24
29210	18.107	9.0909e-002	0.1	974.57
29211	18.107	0.45455	0.1	1048.7
29212	18.199	0.36364	0.1	973.35
29213	18.107	0.63636	0.1	1098.5
29214	18.199	0.54545	0.1	1022.2
29215	18.107	0.81818	0.1	1155.7
29216	18.199	0.72727	0.1	1080.5
29217	18.107	1.	0.1	1218.8
29218	18.199	0.90909	0.1	1147.4
29219	18.107	1.1818	0.1	1285.4
29220	18.199	1.0909	0.1	1220.9
29221	18.107	1.3636	0.1	1352.1
29222	18.199	1.2727	0.1	1297.7
29223	18.107	1.5455	0.1	1415.5
29224	18.199	1.4545	0.1	1373.3
29225	18.107	1.7273	0.1	1472.6
29226	18.199	1.6364	0.1	1443.4
29227	18.107	1.9091	0.1	1521.6
29228	18.199	1.8182	0.1	1504.4
29229	18.107	2.0909	0.1	1562.2
29230	18.199	2.	0.1	1555.2
29231	18.107	2.2727	0.1	1595.3
29232	18.199	2.1818	0.1	1596.4
29233	18.107	2.4545	0.1	1621.3
29234	18.199	2.3636	0.1	1629.5
29235	18.107	2.6364	0.1	1640.5
29236	18.199	2.5455	0.1	1655.1
29237	18.107	2.8182	0.1	1652.3
29238	18.199	2.7273	0.1	1672.8
29239	18.107	3.	0.1	1656.3
29240	18.199	2.9091	0.1	1681.9
29241	18.107	3.1818	0.1	1652.3
29242	18.199	3.0909	0.1	1681.9
29243	18.107	3.3636	0.1	1640.5
29244	18.199	3.2727	0.1	1672.8
29245	18.107	3.5455	0.1	1621.3
29246	18.199	3.4545	0.1	1655.1
29247	18.107	3.7273	0.1	1595.3
29248	18.199	3.6364	0.1	1629.5
29249	18.107	3.9091	0.1	1562.2
29250	18.199	3.8182	0.1	1596.4
29251	18.107	4.0909	0.1	1521.6
29252	18.199	4.	0.1	1555.2
29253	18.107	4.2727	0.1	1472.6
29254	18.199	4.1818	0.1	1504.4
29255	18.107	4.4545	0.1	1415.5
29256	18.199	4.3636	0.1	1443.4
29257	18.107	4.6364	0.1	1352.1
29258	18.199	4.5455	0.1	1373.3
29259	18.107	4.8182	0.1	1285.4
29260	18.199	4.7273	0.1	1297.7
29261	18.107	5.	0.1	1218.8
29262	18.199	4.9091	0.1	1220.9
29263	18.107	5.1818	0.1	1155.7
29264	18.199	5.0909	0.1	1147.4
29265	18.107	5.3636	0.1	1098.5
29266	18.199	5.2727	0.1	1080.5
29267	18.107	5.5455	0.1	1048.7
29268	18.199	5.4545	0.1	1022.2
29269	18.107	5.7273	0.1	1006.5
29270	18.199	5.6364	0.1	973.35
29271	18.199	5.8182	0.1	933.24
29272	18.107	5.9091	0.1	974.57
29273	18.291	0.27273	0.1	900.13
29274	18.384	0.18182	0.1	820.11
29275	18.291	9.0909e-002	0.1	865.16
29276	18.291	0.45455	0.1	947.28
29277	18.384	0.36364	0.1	863.22
29278	18.291	0.63636	0.1	1005.2
29279	18.384	0.54545	0.1	918.68
29280	18.291	0.81818	0.1	1073.8
29281	18.384	0.72727	0.1	987.43
29282	18.291	1.	0.1	1151.6
29283	18.384	0.90909	0.1	1068.7
29284	18.291	1.1818	0.1	1235.5
29285	18.384	1.0909	0.1	1160.3
29286	18.291	1.3636	0.1	1321.
29287	18.384	1.2727	0.1	1258.
29288	18.291	1.5455	0.1	1402.9
29289	18.384	1.4545	0.1	1356.1
29290	18.291	1.7273	0.1	1476.4
29291	18.384	1.6364	0.1	1447.6
29292	18.291	1.9091	0.1	1538.8
29293	18.384	1.8182	0.1	1526.5
29294	18.291	2.0909	0.1	1589.8
29295	18.384	2.	0.1	1590.6
29296	18.291	2.2727	0.1	1630.9
29297	18.384	2.1818	0.1	1641.5
29298	18.291	2.4545	0.1	1663.3
29299	18.384	2.3636	0.1	1682.1
29300	18.291	2.6364	0.1	1687.4
29301	18.384	2.5455	0.1	1713.4
29302	18.291	2.8182	0.1	1702.2
29303	18.384	2.7273	0.1	1734.9
29304	18.291	3.	0.1	1707.3
29305	18.384	2.9091	0.1	1745.8
29306	18.291	3.1818	0.1	1702.2
29307	18.384	3.0909	0.1	1745.8
29308	18.291	3.3636	0.1	1687.4
29309	18.384	3.2727	0.1	1734.9
29310	18.291	3.5455	0.1	1663.3
29311	18.384	3.4545	0.1	1713.4
29312	18.291	3.7273	0.1	1630.9
29313	18.384	3.6364	0.1	1682.1
29314	18.291	3.9091	0.1	1589.8
29315	18.384	3.8182	0.1	1641.5
29316	18.291	4.0909	0.1	1538.8
29317	18.384	4.	0.1	1590.6
29318	18.291	4.2727	0.1	1476.4
29319	18.384	4.1818	0.1	1526.5
29320	18.291	4.4545	0.1	1402.9
29321	18.384	4.3636	0.1	1447.6
29322	18.291	4.6364	0.1	1321.
29323	18.384	4.5455	0.1	1356.1
29324	18.291	4.8182	0.1	1235.5
29325	18.384	4.7273	0.1	1258.
29326	18.291	5.	0.1	1151.6
29327	18.384	4.9091	0.1	1160.3
29328	18.291	5.1818	0.1	1073.8
29329	18.384	5.0909	0.1	1068.7
29330	18.291	5.3636	0.1	1005.2
29331	18.384	5.2727	0.1	987.43
29332	18.291	5.5455	0.1	947.28
29333	18.384	5.4545	0.1	918.68
29334	18.291	5.7273	0.1	900.13
29335	18.384	5.6364	0.1	863.22
29336	18.384	5.8182	0.1	820.11
29337	18.291	5.9091	0.1	865.16
29338	18.476	0.27273	0.1	783.35
29339	18.569	0.18182	0.1	696.89
29340	18.476	9.0909e-002	0.1	745.26
29341	18.476	0.45455	0.1	835.43
29342	18.569	0.36364	0.1	742.46
29343	18.476	0.63636	0.1	902.68
29344	18.569	0.54545	0.1	805.47
29345	18.476	0.81818	0.1	985.07
29346	18.569	0.72727	0.1	886.64
29347	18.476	1.	0.1	1080.9
29348	18.569	0.90909	0.1	985.08
29349	18.476	1.1818	0.1	1186.6
29350	18.569	1.0909	0.1	1098.5
29351	18.476	1.3636	0.1	1296.8
29352	18.569	1.2727	0.1	1222.9
29353	18.476	1.5455	0.1	1403.7
29354	18.569	1.4545	0.1	1351.4
29355	18.476	1.7273	0.1	1499.6
29356	18.569	1.6364	0.1	1473.6
29357	18.476	1.9091	0.1	1579.3
29358	18.569	1.8182	0.1	1577.5
29359	18.476	2.0909	0.1	1642.7
29360	18.569	2.	0.1	1658.5
29361	18.476	2.2727	0.1	1692.8
29362	18.569	2.1818	0.1	1720.1
29363	18.476	2.4545	0.1	1732.1
29364	18.569	2.3636	0.1	1767.4
29365	18.476	2.6364	0.1	1760.7
29366	18.569	2.5455	0.1	1803.
29367	18.476	2.8182	0.1	1778.
29368	18.569	2.7273	0.1	1826.
29369	18.476	3.	0.1	1783.8
29370	18.569	2.9091	0.1	1837.2
29371	18.476	3.1818	0.1	1778.
29372	18.569	3.0909	0.1	1837.2
29373	18.476	3.3636	0.1	1760.7
29374	18.569	3.2727	0.1	1826.
29375	18.476	3.5455	0.1	1732.1
29376	18.569	3.4545	0.1	1803.
29377	18.476	3.7273	0.1	1692.8
29378	18.569	3.6364	0.1	1767.4
29379	18.476	3.9091	0.1	1642.7
29380	18.569	3.8182	0.1	1720.1
29381	18.476	4.0909	0.1	1579.3
29382	18.569	4.	0.1	1658.5
29383	18.476	4.2727	0.1	1499.6
29384	18.569	4.1818	0.1	1577.5
29385	18.476	4.4545	0.1	1403.7
29386	18.569	4.3636	0.1	1473.6
29387	18.476	4.6364	0.1	1296.8
29388	18.569	4.5455	0.1	1351.4
29389	18.476	4.8182	0.1	1186.6
29390	18.569	4.7273	0.1	1222.9
29391	18.476	5.	0.1	1080.9
29392	18.569	4.9091	0.1	1098.5
29393	18.476	5.1818	0.1	985.07
29394	18.569	5.0909	0.1	985.08
29395	18.476	5.3636	0.1	902.68
29396	18.569	5.2727	0.1	886.64
29397	18.476	5.5455	0.1	835.43
29398	18.569	5.4545	0.1	805.47
29399	18.476	5.7273	0.1	783.35
29400	18.569	5.6364	0.1	742.46
29401	18.569	5.8182	0.1	696.89
29402	18.476	5.9091	0.1	745.26
29403	18.661	0.27273	0.1	656.4
29404	18.753	0.18182	0.1	564.09
29405	18.661	9.0909e-002	0.1	614.9
29406	18.661	0.45455	0.1	713.98
29407	18.753	0.36364	0.1	612.47
29408	18.661	0.63636	0.1	792.51
29409	18.753	0.54545	0.1	685.39
29410	18.661	0.81818	0.1	891.35
29411	18.753	0.72727	0.1	781.84
29412	18.661	1.	0.1	1008.7
29413	18.753	0.90909	0.1	900.21
29414	18.661	1.1818	0.1	1141.4
29415	18.753	1.0909	0.1	1038.9
29416	18.661	1.3636	0.1	1283.8
29417	18.753	1.2727	0.1	1195.6
29418	18.661	1.5455	0.1	1426.2
29419	18.753	1.4545	0.1	1365.3
29420	18.661	1.7273	0.1	1554.4
29421	18.753	1.6364	0.1	1533.2
29422	18.661	1.9091	0.1	1657.8
29423	18.753	1.8182	0.1	1677.2
29424	18.661	2.0909	0.1	1736.
29425	18.753	2.	0.1	1781.6
29426	18.661	2.2727	0.1	1794.4
29427	18.753	2.1818	0.1	1851.3
29428	18.661	2.4545	0.1	1837.9
29429	18.753	2.3636	0.1	1902.2
29430	18.661	2.6364	0.1	1867.7
29431	18.753	2.5455	0.1	1934.1
29432	18.661	2.8182	0.1	1884.5
29433	18.753	2.7273	0.1	1950.7
29434	18.661	3.	0.1	1889.8
29435	18.753	2.9091	0.1	1957.2
29436	18.661	3.1818	0.1	1884.5
29437	18.753	3.0909	0.1	1957.2
29438	18.661	3.3636	0.1	1867.7
29439	18.753	3.2727	0.1	1950.7
29440	18.661	3.5455	0.1	1837.9
29441	18.753	3.4545	0.1	1934.1
29442	18.661	3.7273	0.1	1794.4
29443	18.753	3.6364	0.1	1902.2
29444	18.661	3.9091	0.1	1736.
29445	18.753	3.8182	0.1	1851.3
29446	18.661	4.0909	0.1	1657.8
29447	18.753	4.	0.1	1781.6
29448	18.661	4.2727	0.1	1554.4
29449	18.753	4.1818	0.1	1677.2
29450	18.661	4.4545	0.1	1426.2
29451	18.753	4.3636	0.1	1533.2
29452	18.661	4.6364	0.1	1283.8
29453	18.753	4.5455	0.1	1365.3
29454	18.661	4.8182	0.1	1141.4
29455	18.753	4.7273	0.1	1195.6
29456	18.661	5.	0.1	1008.7
29457	18.753	4.9091	0.1	1038.9
29458	18.661	5.1818	0.1	891.35
29459	18.753	5.0909	0.1	900.21
29460	18.661	5.3636	0.1	792.51
29461	18.753	5.2727	0.1	781.84
29462	18.661	5.5455	0.1	713.98
29463	18.753	5.4545	0.1	685.39
29464	18.661	5.7273	0.1	656.4
29465	18.753	5.6364	0.1	612.47
29466	18.753	5.8182	0.1	564.09
29467	18.661	5.9091	0.1	614.9
29468	18.846	0.27273	0.1	521.14
29469	18.938	0.18182	0.1	423.63
29470	18.846	9.0909e-002	0.1	474.86
29471	18.846	0.45455	0.1	586.86
29472	18.938	0.36364	0.1	478.81
29473	18.846	0.63636	0.1	680.38
29474	18.938	0.54545	0.1	567.62
29475	18.846	0.81818	0.1	798.79
29476	18.938	0.72727	0.1	683.64
29477	18.846	1.	0.1	940.4
29478	18.938	0.90909	0.1	824.02
29479	18.846	1.1818	0.1	1104.2
29480	18.938	1.0909	0.1	989.08
29481	18.846	1.3636	0.1	1288.2
29482	18.938	1.2727	0.1	1181.6
29483	18.846	1.5455	0.1	1481.4
29484	18.938	1.4545	0.1	1402.4
29485	18.846	1.7273	0.1	1660.5
29486	18.938	1.6364	0.1	1649.1
29487	18.846	1.9091	0.1	1801.7
29488	18.938	1.8182	0.1	1876.7
29489	18.846	2.0909	0.1	1895.9
29490	18.938	2.	0.1	2014.7
29491	18.846	2.2727	0.1	1957.9
29492	18.938	2.1818	0.1	2087.5
29493	18.846	2.4545	0.1	1997.3
29494	18.938	2.3636	0.1	2115.4
29495	18.846	2.6364	0.1	2015.9
29496	18.938	2.5455	0.1	2116.4
29497	18.846	2.8182	0.1	2022.4
29498	18.938	2.7273	0.1	2105.9
29499	18.846	3.	0.1	2023.7
29500	18.938	2.9091	0.1	2098.
29501	18.846	3.1818	0.1	2022.4
29502	18.938	3.0909	0.1	2098.
29503	18.846	3.3636	0.1	2015.9
29504	18.938	3.2727	0.1	2105.9
29505	18.846	3.5455	0.1	1997.3
29506	18.938	3.4545	0.1	2116.4
29507	18.846	3.7273	0.1	1957.9
29508	18.938	3.6364	0.1	2115.4
29509	18.846	3.9091	0.1	1895.9
29510	18.938	3.8182	0.1	2087.5
29511	18.846	4.0909	0.1	1801.7
29512	18.938	4.	0.1	2014.7
29513	18.846	4.2727	0.1	1660.5
29514	18.938	4.1818	0.1	1876.7
29515	18.846	4.4545	0.1	1481.4
29516	18.938	4.3636	0.1	1649.1
29517	18.846	4.6364	0.1	1288.2
29518	18.938	4.5455	0.1	1402.4
29519	18.846	4.8182	0.1	1104.2
29520	18.938	4.7273	0.1	1181.6
29521	18.846	5.	0.1	940.4
29522	18.938	4.9091	0.1	989.08
29523	18.846	5.1818	0.1	798.79
29524	18.938	5.0909	0.1	824.02
29525	18.846	5.3636	0.1	680.38
29526	18.938	5.2727	0.1	683.64
29527	18.846	5.5455	0.1	586.86
29528	18.938	5.4545	0.1	567.62
29529	18.846	5.7273	0.1	521.14
29530	18.938	5.6364	0.1	478.81
29531	18.938	5.8182	0.1	423.63
29532	18.846	5.9091	0.1	474.86
29533	19.03	0.27273	0.1	384.15
29534	19.123	0.18182	0.1	282.85
29535	19.03	9.0909e-002	0.1	327.3
29536	19.03	0.45455	0.1	466.67
29537	19.123	0.36364	0.1	364.41
29538	19.03	0.63636	0.1	581.79
29539	19.123	0.54545	0.1	483.34
29540	19.03	0.81818	0.1	722.46
29541	19.123	0.72727	0.1	625.93
29542	19.03	1.	0.1	888.5
29543	19.123	0.90909	0.1	791.2
29544	19.03	1.1818	0.1	1084.4
29545	19.123	1.0909	0.1	983.78
29546	19.03	1.3636	0.1	1315.6
29547	19.123	1.2727	0.1	1213.6
29548	19.03	1.5455	0.1	1587.9
29549	19.123	1.4545	0.1	1495.8
29550	19.03	1.7273	0.1	1875.7
29551	19.123	1.6364	0.1	1857.1
29552	19.03	1.9091	0.1	2085.6
29553	19.123	1.8182	0.1	2336.1
29554	19.03	2.0909	0.1	2200.9
29555	19.123	2.	0.1	2635.4
29556	19.03	2.2727	0.1	2241.
29557	19.123	2.1818	0.1	2548.4
29558	19.03	2.4545	0.1	2231.9
29559	19.123	2.3636	0.1	2443.2
29560	19.03	2.6364	0.1	2204.6
29561	19.123	2.5455	0.1	2337.3
29562	19.03	2.8182	0.1	2180.3
29563	19.123	2.7273	0.1	2268.6
29564	19.03	3.	0.1	2171.2
29565	19.123	2.9091	0.1	2234.4
29566	19.03	3.1818	0.1	2180.3
29567	19.123	3.0909	0.1	2234.4
29568	19.03	3.3636	0.1	2204.6
29569	19.123	3.2727	0.1	2268.6
29570	19.03	3.5455	0.1	2231.9
29571	19.123	3.4545	0.1	2337.3
29572	19.03	3.7273	0.1	2241.
29573	19.123	3.6364	0.1	2443.2
29574	19.03	3.9091	0.1	2200.9
29575	19.123	3.8182	0.1	2548.4
29576	19.03	4.0909	0.1	2085.6
29577	19.123	4.	0.1	2635.4
29578	19.03	4.2727	0.1	1875.7
29579	19.123	4.1818	0.1	2336.1
29580	19.03	4.4545	0.1	1587.9
29581	19.123	4.3636	0.1	1857.1
29582	19.03	4.6364	0.1	1315.6
29583	19.123	4.5455	0.1	1495.8
29584	19.03	4.8182	0.1	1084.4
29585	19.123	4.7273	0.1	1213.6
29586	19.03	5.	0.1	888.5
29587	19.123	4.9091	0.1	983.78
29588	19.03	5.1818	0.1	722.46
29589	19.123	5.0909	0.1	791.2
29590	19.03	5.3636	0.1	581.79
29591	19.123	5.2727	0.1	625.93
29592	19.03	5.5455	0.1	466.67
29593	19.123	5.4545	0.1	483.34
29594	19.03	5.7273	0.1	384.15
29595	19.123	5.6364	0.1	364.41
29596	19.123	5.8182	0.1	282.85
29597	19.03	5.9091	0.1	327.3
29598	19.215	0.27273	0.1	276.63
29599	19.308	0.18182	0.1	153.03
29600	19.215	9.0909e-002	0.1	178.89
29601	19.215	0.45455	0.1	400.97
29602	19.308	0.36364	0.1	254.71
29603	19.215	0.63636	0.1	549.
29604	19.308	0.54545	0.1	370.18
29605	19.215	0.81818	0.1	717.18
29606	19.308	0.72727	0.1	498.21
29607	19.215	1.	0.1	910.97
29608	19.308	0.90909	0.1	643.14
29609	19.215	1.1818	0.1	1141.5
29610	19.308	1.0909	0.1	812.48
29611	19.215	1.3636	0.1	1429.4
29612	19.308	1.2727	0.1	1018.9
29613	19.215	1.5455	0.1	1816.7
29614	19.308	1.4545	0.1	1290.1
29615	19.215	1.7273	0.1	2362.1
29616	19.308	1.6364	0.1	1650.6
29617	19.215	1.9091	0.1	2872.7
29618	19.308	1.8182	0.1	2371.
29619	19.215	2.0909	0.1	2940.5
29620	19.308	2.	0.1	4355.5
29621	19.215	2.2727	0.1	2742.3
29622	19.308	2.1818	0.1	3276.3
29623	19.215	2.4545	0.1	2546.5
29624	19.308	2.3636	0.1	2786.9
29625	19.215	2.6364	0.1	2400.6
29626	19.308	2.5455	0.1	2526.3
29627	19.215	2.8182	0.1	2322.1
29628	19.308	2.7273	0.1	2385.5
29629	19.215	3.	0.1	2296.9
29630	19.308	2.9091	0.1	2322.9
29631	19.215	3.1818	0.1	2322.1
29632	19.308	3.0909	0.1	2322.9
29633	19.215	3.3636	0.1	2400.6
29634	19.308	3.2727	0.1	2385.5
29635	19.215	3.5455	0.1	2546.5
29636	19.308	3.4545	0.1	2526.3
29637	19.215	3.7273	0.1	2742.3
29638	19.308	3.6364	0.1	2786.9
29639	19.215	3.9091	0.1	2940.5
29640	19.308	3.8182	0.1	3276.3
29641	19.215	4.0909	0.1	2872.7
29642	19.308	4.	0.1	4355.5
29643	19.215	4.2727	0.1	2362.1
29644	19.308	4.1818	0.1	2371.
29645	19.215	4.4545	0.1	1816.7
29646	19.308	4.3636	0.1	1650.6
29647	19.215	4.6364	0.1	1429.4
29648	19.308	4.5455	0.1	1290.1
29649	19.215	4.8182	0.1	1141.5
29650	19.308	4.7273	0.1	1018.9
29651	19.215	5.	0.1	910.97
29652	19.308	4.9091	0.1	812.48
29653	19.215	5.1818	0.1	717.18
29654	19.308	5.0909	0.1	643.14
29655	19.215	5.3636	0.1	549.
29656	19.308	5.2727	0.1	498.21
29657	19.215	5.5455	0.1	400.97
29658	19.308	5.4545	0.1	370.18
29659	19.215	5.7273	0.1	276.63
29660	19.308	5.6364	0.1	254.71
29661	19.308	5.8182	0.1	153.03
29662	19.215	5.9091	0.1	178.89
29663	19.567	3.7273	0.1	3273.2
29664	19.483	3.8182	0.1	3663.1
29665	19.567	3.9091	0.1	4291.
29666	19.567	3.5455	0.1	2729.
29667	19.483	3.6364	0.1	2913.7
29668	19.567	3.3636	0.1	2463.8
29669	19.483	3.4545	0.1	2575.4
29670	19.567	3.1818	0.1	2335.6
29671	19.483	3.2727	0.1	2398.8
29672	19.567	3.	0.1	2297.2
29673	19.483	3.0909	0.1	2323.2
29674	19.567	2.8182	0.1	2335.6
29675	19.483	2.9091	0.1	2323.2
29676	19.567	2.6364	0.1	2463.8
29677	19.483	2.7273	0.1	2398.8
29678	19.567	2.4545	0.1	2729.
29679	19.483	2.5455	0.1	2575.4
29680	19.567	2.2727	0.1	3273.2
29681	19.483	2.3636	0.1	2913.7
29682	19.483	2.1818	0.1	3663.1
29683	19.567	2.0909	0.1	4291.
29684	19.4	3.7273	0.1	3365.
29685	19.4	3.9091	0.1	4639.6
29686	19.4	3.5455	0.1	2777.8
29687	19.4	3.3636	0.1	2514.7
29688	19.4	3.1818	0.1	2386.9
29689	19.4	3.	0.1	2348.8
29690	19.4	2.8182	0.1	2386.9
29691	19.4	2.6364	0.1	2514.7
29692	19.4	2.4545	0.1	2777.8
29693	19.4	2.2727	0.1	3365.
29694	19.4	2.0909	0.1	4639.6
29695	19.567	5.7273	0.1	122.76
29696	19.567	5.9091	0.1	44.029
29697	19.567	5.8182	5.e-002	27.737
29698	19.567	5.5455	0.1	194.6
29699	19.567	5.6364	5.e-002	59.969
29700	19.567	5.3636	0.1	267.43
29701	19.567	5.4545	5.e-002	91.774
29702	19.567	5.1818	0.1	348.16
29703	19.567	5.2727	5.e-002	126.62
29704	19.567	5.	0.1	442.91
29705	19.567	5.0909	5.e-002	166.71
29706	19.567	4.8182	0.1	560.59
29707	19.567	4.9091	5.e-002	215.25
29708	19.567	4.6364	0.1	719.36
29709	19.567	4.7273	5.e-002	277.58
29710	19.567	4.4545	0.1	929.89
29711	19.567	4.5455	5.e-002	363.18
29712	19.567	4.2727	0.1	1431.3
29713	19.567	4.3636	5.e-002	499.13
29714	19.567	4.0909	0.1	3052.4
29715	19.567	4.1818	5.e-002	866.5
29716	19.483	4.	0.1	4563.3
29717	19.567	4.	5.e-002	775.65
29718	19.4	4.0909	0.1	3545.7
29719	19.4	4.	5.e-002	1173.
29720	19.4	4.2727	0.1	1912.
29721	19.4	4.1818	5.e-002	1219.1
29722	19.4	4.4545	0.1	1259.8
29723	19.4	4.3636	5.e-002	770.51
29724	19.4	4.6364	0.1	984.69
29725	19.4	4.5455	5.e-002	578.49
29726	19.4	4.8182	0.1	775.13
29727	19.4	4.7273	5.e-002	457.56
29728	19.4	5.	0.1	614.87
29729	19.4	4.9091	5.e-002	364.21
29730	19.4	5.1818	0.1	482.57
29731	19.4	5.0909	5.e-002	287.68
29732	19.4	5.3636	0.1	368.33
29733	19.4	5.2727	5.e-002	221.41
29734	19.4	5.5455	0.1	265.58
29735	19.4	5.4545	5.e-002	161.69
29736	19.4	5.7273	0.1	166.71
29737	19.4	5.6364	5.e-002	106.04
29738	19.4	5.9091	0.1	60.142
29739	19.4	5.8182	5.e-002	50.573
29740	19.567	0.27273	0.1	122.76
29741	19.567	9.0909e-002	0.1	44.029
29742	19.567	0.18182	5.e-002	27.737
29743	19.567	0.45455	0.1	194.6
29744	19.567	0.36364	5.e-002	59.969
29745	19.567	0.63636	0.1	267.43
29746	19.567	0.54545	5.e-002	91.774
29747	19.567	0.81818	0.1	348.16
29748	19.567	0.72727	5.e-002	126.62
29749	19.567	1.	0.1	442.91
29750	19.567	0.90909	5.e-002	166.71
29751	19.567	1.1818	0.1	560.59
29752	19.567	1.0909	5.e-002	215.25
29753	19.567	1.3636	0.1	719.36
29754	19.567	1.2727	5.e-002	277.58
29755	19.567	1.5455	0.1	929.89
29756	19.567	1.4545	5.e-002	363.18
29757	19.567	1.7273	0.1	1431.3
29758	19.567	1.6364	5.e-002	499.13
29759	19.567	1.9091	0.1	3052.4
29760	19.567	1.8182	5.e-002	866.5
29761	19.483	2.	0.1	4563.3
29762	19.567	2.	5.e-002	775.65
29763	19.4	1.9091	0.1	3545.7
29764	19.4	2.	5.e-002	1173.
29765	19.4	1.7273	0.1	1912.
29766	19.4	1.8182	5.e-002	1219.1
29767	19.4	1.5455	0.1	1259.8
29768	19.4	1.6364	5.e-002	770.51
29769	19.4	1.3636	0.1	984.69
29770	19.4	1.4545	5.e-002	578.49
29771	19.4	1.1818	0.1	775.13
29772	19.4	1.2727	5.e-002	457.56
29773	19.4	1.	0.1	614.87
29774	19.4	1.0909	5.e-002	364.21
29775	19.4	0.81818	0.1	482.57
29776	19.4	0.90909	5.e-002	287.68
29777	19.4	0.63636	0.1	368.33
29778	19.4	0.72727	5.e-002	221.41
29779	19.4	0.45455	0.1	265.58
29780	19.4	0.54545	5.e-002	161.69
29781	19.4	0.27273	0.1	166.71
29782	19.4	0.36364	5.e-002	106.04
29783	19.4	9.0909e-002	0.1	60.142
29784	19.4	0.18182	5.e-002	50.573
29785	19.659	6.	0.1	51.092
29786	19.567	6.	5.e-002	9.5789
29787	19.844	6.	0.1	143.35
29788	19.751	6.	5.e-002	10.483
29789	20.028	6.	0.1	224.52
29790	19.936	6.	5.e-002	25.025
29791	20.213	6.	0.1	290.83
29792	20.121	6.	5.e-002	33.737
29793	20.398	6.	0.1	343.47
29794	20.306	6.	5.e-002	39.484
29795	20.583	6.	0.1	382.76
29796	20.49	6.	5.e-002	43.017
29797	20.767	6.	0.1	409.53
29798	20.675	6.	5.e-002	45.049
29799	20.952	6.	0.1	424.93
29800	20.86	6.	5.e-002	46.073
29801	21.137	6.	0.1	430.36
29802	21.044	6.	5.e-002	46.452
29803	21.322	6.	0.1	427.25
29804	21.229	6.	5.e-002	46.429
29805	21.506	6.	0.1	416.99
29806	21.414	6.	5.e-002	46.157
29807	21.691	6.	0.1	400.85
29808	21.599	6.	5.e-002	45.721
29809	21.876	6.	0.1	379.91
29810	21.783	6.	5.e-002	45.156
29811	22.06	6.	0.1	355.13
29812	21.968	6.	5.e-002	44.465
29813	22.245	6.	0.1	327.3
29814	22.153	6.	5.e-002	43.629
29815	22.43	6.	0.1	297.08
29816	22.337	6.	5.e-002	42.612
29817	22.615	6.	0.1	265.01
29818	22.522	6.	5.e-002	41.368
29819	22.799	6.	0.1	231.54
29820	22.707	6.	5.e-002	39.837
29821	22.984	6.	0.1	197.05
29822	22.892	6.	5.e-002	37.95
29823	23.169	6.	0.1	161.88
29824	23.076	6.	5.e-002	35.616
29825	23.353	6.	0.1	126.32
29826	23.261	6.	5.e-002	32.715
29827	23.538	6.	0.1	90.813
29828	23.446	6.	5.e-002	29.069
29829	23.723	6.	0.1	55.737
29830	23.631	6.	5.e-002	24.348
29831	23.908	6.	0.1	23.266
29832	23.815	6.	5.e-002	17.636
29833	24.	5.9091	0.1	19.023
29834	24.	6.	5.e-002	7.9816
29835	24.	5.7273	0.1	39.778
29836	24.	5.8182	5.e-002	7.2627
29837	24.	5.5455	0.1	54.698
29838	24.	5.6364	5.e-002	7.6707
29839	24.	5.3636	0.1	64.781
29840	24.	5.4545	5.e-002	8.1056
29841	24.	5.1818	0.1	71.749
29842	24.	5.2727	5.e-002	8.3233
29843	24.	5.	0.1	76.369
29844	24.	5.0909	5.e-002	8.4193
29845	24.	4.8182	0.1	79.168
29846	24.	4.9091	5.e-002	8.4327
29847	24.	4.6364	0.1	80.546
29848	24.	4.7273	5.e-002	8.3899
29849	24.	4.4545	0.1	80.843
29850	24.	4.5455	5.e-002	8.3095
29851	24.	4.2727	0.1	80.358
29852	24.	4.3636	5.e-002	8.2054
29853	24.	4.0909	0.1	79.36
29854	24.	4.1818	5.e-002	8.0891
29855	24.	3.9091	0.1	78.086
29856	24.	4.	5.e-002	7.9701
29857	24.	3.7273	0.1	76.744
29858	24.	3.8182	5.e-002	7.8567
29859	24.	3.5455	0.1	75.512
29860	24.	3.6364	5.e-002	7.7563
29861	24.	3.3636	0.1	74.528
29862	24.	3.4545	5.e-002	7.675
29863	24.	3.1818	0.1	73.896
29864	24.	3.2727	5.e-002	7.6178
29865	24.	3.	0.1	73.679
29866	24.	3.0909	5.e-002	7.5883
29867	24.	2.8182	0.1	73.896
29868	24.	2.9091	5.e-002	7.5883
29869	24.	2.6364	0.1	74.528
29870	24.	2.7273	5.e-002	7.6178
29871	24.	2.4545	0.1	75.512
29872	24.	2.5455	5.e-002	7.675
29873	24.	2.2727	0.1	76.744
29874	24.	2.3636	5.e-002	7.7563
29875	24.	2.0909	0.1	78.086
29876	24.	2.1818	5.e-002	7.8567
29877	24.	1.9091	0.1	79.36
29878	24.	2.	5.e-002	7.9701
29879	24.	1.7273	0.1	80.358
29880	24.	1.8182	5.e-002	8.0891
29881	24.	1.5455	0.1	80.843
29882	24.	1.6364	5.e-002	8.2054
29883	24.	1.3636	0.1	80.546
29884	24.	1.4545	5.e-002	8.3094
29885	24.	1.1818	0.1	79.168
29886	24.	1.2727	5.e-002	8.3899
29887	24.	1.	0.1	76.369
29888	24.	1.0909	5.e-002	8.4327
29889	24.	0.81818	0.1	71.748
29890	24.	0.90909	5.e-002	8.4193
29891	24.	0.63636	0.1	64.781
29892	24.	0.72727	5.e-002	8.3233
29893	24.	0.45455	0.1	54.698
29894	24.	0.54545	5.e-002	8.1056
29895	24.	0.27273	0.1	39.778
29896	24.	0.36364	5.e-002	7.6707
29897	24.	9.0909e-002	0.1	19.023
29898	24.	0.18182	5.e-002	7.2627
29899	2.3842e-015	0.27273	0.1	1830.7
29900	7.9472e-016	9.0909e-002	0.1	1396.1
29901	1.6109e-015	0.18182	5.e-002	166.34
29902	3.9736e-015	0.45455	0.1	2621.6
29903	3.2219e-015	0.36364	5.e-002	85.773
29904	5.563e-015	0.63636	0.1	3046.1
29905	4.8328e-015	0.54545	5.e-002	77.35
29906	7.1525e-015	0.81818	0.1	3320.2
29907	6.4438e-015	0.72727	5.e-002	67.891
29908	8.7419e-015	1.	0.1	3508.3
29909	8.0547e-015	0.90909	5.e-002	57.654
29910	1.0331e-014	1.1818	0.1	3644.5
29911	9.6657e-015	1.0909	5.e-002	48.833
29912	1.1921e-014	1.3636	0.1	3746.4
29913	1.1277e-014	1.2727	5.e-002	41.68
29914	1.351e-014	1.5455	0.1	3824.2
29915	1.2888e-014	1.4545	5.e-002	35.869
29916	1.51e-014	1.7273	0.1	3884.2
29917	1.4498e-014	1.6364	5.e-002	31.163
29918	1.6689e-014	1.9091	0.1	3930.8
29919	1.6109e-014	1.8182	5.e-002	27.368
29920	1.8279e-014	2.0909	0.1	3966.7
29921	1.772e-014	2.	5.e-002	24.333
29922	1.9868e-014	2.2727	0.1	3993.9
29923	1.9331e-014	2.1818	5.e-002	21.946
29924	2.1457e-014	2.4545	0.1	4013.9
29925	2.0942e-014	2.3636	5.e-002	20.123
29926	2.3047e-014	2.6364	0.1	4027.5
29927	2.2553e-014	2.5455	5.e-002	18.804
29928	2.4636e-014	2.8182	0.1	4035.5
29929	2.4164e-014	2.7273	5.e-002	17.946
29930	2.6226e-014	3.	0.1	4038.1
29931	2.5775e-014	2.9091	5.e-002	17.523
29932	2.7815e-014	3.1818	0.1	4035.5
29933	2.7386e-014	3.0909	5.e-002	17.523
29934	2.9405e-014	3.3636	0.1	4027.5
29935	2.8997e-014	3.2727	5.e-002	17.946
29936	3.0994e-014	3.5455	0.1	4013.9
29937	3.0608e-014	3.4545	5.e-002	18.804
29938	3.2583e-014	3.7273	0.1	3993.9
29939	3.2219e-014	3.6364	5.e-002	20.123
29940	3.4173e-014	3.9091	0.1	3966.7
29941	3.383e-014	3.8182	5.e-002	21.946
29942	3.5762e-014	4.0909	0.1	3930.8
29943	3.5441e-014	4.	5.e-002	24.333
29944	3.7352e-014	4.2727	0.1	3884.2
29945	3.7052e-014	4.1818	5.e-002	27.368
29946	3.8941e-014	4.4545	0.1	3824.2
29947	3.8663e-014	4.3636	5.e-002	31.163
29948	4.0531e-014	4.6364	0.1	3746.4
29949	4.0274e-014	4.5455	5.e-002	35.869
29950	4.212e-014	4.8182	0.1	3644.5
29951	4.1885e-014	4.7273	5.e-002	41.68
29952	4.371e-014	5.	0.1	3508.3
29953	4.3495e-014	4.9091	5.e-002	48.833
29954	4.5299e-014	5.1818	0.1	3320.2
29955	4.5106e-014	5.0909	5.e-002	57.654
29956	4.6888e-014	5.3636	0.1	3046.1
29957	4.6717e-014	5.2727	5.e-002	67.891
29958	4.8478e-014	5.5455	0.1	2621.6
29959	4.8328e-014	5.4545	5.e-002	77.35
29960	5.0067e-014	5.7273	0.1	1830.7
29961	4.9939e-014	5.6364	5.e-002	85.773
29962	5.1657e-014	5.9091	0.1	1396.1
29963	5.155e-014	5.8182	5.e-002	166.34
29964	23.908	0.	0.1	23.266
29965	24.	0.	5.e-002	7.9816
29966	23.723	0.	0.1	55.737
29967	23.815	0.	5.e-002	17.636
29968	23.538	0.	0.1	90.813
29969	23.631	0.	5.e-002	24.348
29970	23.353	0.	0.1	126.32
29971	23.446	0.	5.e-002	29.069
29972	23.169	0.	0.1	161.88
29973	23.261	0.	5.e-002	32.715
29974	22.984	0.	0.1	197.05
29975	23.076	0.	5.e-002	35.616
29976	22.799	0.	0.1	231.54
29977	22.892	0.	5.e-002	37.95
29978	22.615	0.	0.1	265.01
29979	22.707	0.	5.e-002	39.837
29980	22.43	0.	0.1	297.08
29981	22.522	0.	5.e-002	41.368
29982	22.245	0.	0.1	327.3
29983	22.337	0.	5.e-002	42.612
29984	22.06	0.	0.1	355.13
29985	22.153	0.	5.e-002	43.629
29986	21.876	0.	0.1	379.91
29987	21.968	0.	5.e-002	44.465
29988	21.691	0.	0.1	400.85
29989	21.783	0.	5.e-002	45.156
29990	21.506	0.	0.1	416.99
29991	21.599	0.	5.e-002	45.721
29992	21.322	0.	0.1	427.25
29993	21.414	0.	5.e-002	46.157
29994	21.137	0.	0.1	430.36
29995	21.229	0.	5.e-002	46.429
29996	20.952	0.	0.1	424.93
29997	21.044	0.	5.e-002	46.452
29998	20.767	0.	0.1	409.53
29999	20.86	0.	5.e-002	46.073
30000	20.583	0.	0.1	382.76
30001	20.675	0.	5.e-002	45.049
30002	20.398	0.	0.1	343.47
30003	20.49	0.	5.e-002	43.017
30004	20.213	0.	0.1	290.83
30005	20.306	0.	5.e-002	39.484
30006	20.028	0.	0.1	224.52
30007	20.121	0.	5.e-002	33.737
30008	19.844	0.	0.1	143.35
30009	19.936	0.	5.e-002	25.024
30010	19.659	0.	0.1	51.092
30011	19.751	0.	5.e-002	10.483
30012	19.567	0.	5.e-002	9.5789
30013	19.308	-4.3467e-030	0.1	79.038
30014	19.4	-4.3675e-030	5.e-002	13.833
30015	19.123	-4.3051e-030	0.1	231.71
30016	19.215	0.	5.e-002	2.4961
30017	18.938	-4.2635e-030	0.1	385.35
30018	19.03	0.	5.e-002	9.8214
30019	18.753	-4.2219e-030	0.1	530.01
30020	18.846	0.	5.e-002	9.5228
30021	18.569	-4.1803e-030	0.1	665.77
30022	18.661	0.	5.e-002	5.3691
30023	18.384	-4.1387e-030	0.1	791.58
30024	18.476	0.	5.e-002	3.7782
30025	18.199	-4.0971e-030	0.1	907.03
30026	18.291	0.	5.e-002	11.803
30027	18.014	-4.0555e-030	0.1	1012.4
30028	18.107	0.	5.e-002	21.229
30029	17.83	-4.0139e-030	0.1	1108.3
30030	17.922	0.	5.e-002	30.854
30031	17.645	-3.9723e-030	0.1	1195.7
30032	17.737	0.	5.e-002	40.211
30033	17.46	-3.9307e-030	0.1	1275.8
30034	17.552	0.	5.e-002	49.037
30035	17.275	-3.8891e-030	0.1	1349.7
30036	17.368	0.	5.e-002	57.193
30037	17.09	-3.8475e-030	0.1	1418.3
30038	17.183	0.	5.e-002	64.625
30039	16.906	-3.8059e-030	0.1	1482.6
30040	16.998	0.	5.e-002	71.332
30041	16.721	-3.7643e-030	0.1	1543.4
30042	16.813	0.	5.e-002	77.347
30043	16.536	-3.7227e-030	0.1	1601.4
30044	16.629	0.	5.e-002	82.72
30045	16.351	-3.6811e-030	0.1	1657.
30046	16.444	0.	5.e-002	87.511
30047	16.167	-3.6396e-030	0.1	1710.9
30048	16.259	0.	5.e-002	91.781
30049	15.982	-3.598e-030	0.1	1763.4
30050	16.074	0.	5.e-002	95.588
30051	15.797	-3.5564e-030	0.1	1814.7
30052	15.89	0.	5.e-002	98.988
30053	15.612	-3.5148e-030	0.1	1865.2
30054	15.705	0.	5.e-002	102.03
30055	15.428	-3.4732e-030	0.1	1915.
30056	15.52	0.	5.e-002	104.76
30057	15.243	-3.4316e-030	0.1	1964.4
30058	15.335	0.	5.e-002	107.21
30059	15.058	-3.39e-030	0.1	2013.4
30060	15.15	0.	5.e-002	109.42
30061	14.873	-3.3484e-030	0.1	2062.2
30062	14.966	0.	5.e-002	111.42
30063	14.689	-3.3068e-030	0.1	2110.8
30064	14.781	0.	5.e-002	113.24
30065	14.504	-3.2652e-030	0.1	2159.3
30066	14.596	0.	5.e-002	114.88
30067	14.319	-3.2236e-030	0.1	2207.8
30068	14.411	0.	5.e-002	116.38
30069	14.134	-3.182e-030	0.1	2256.3
30070	14.227	0.	5.e-002	117.74
30071	13.95	-3.1404e-030	0.1	2304.8
30072	14.042	0.	5.e-002	118.98
30073	13.765	-3.0988e-030	0.1	2353.4
30074	13.857	0.	5.e-002	120.12
30075	13.58	-3.0572e-030	0.1	2402.1
30076	13.672	0.	5.e-002	121.15
30077	13.395	-3.0156e-030	0.1	2451.
30078	13.488	0.	5.e-002	122.08
30079	13.21	-2.974e-030	0.1	2500.
30080	13.303	0.	5.e-002	122.93
30081	13.026	-2.9324e-030	0.1	2549.1
30082	13.118	0.	5.e-002	123.69
30083	12.841	-2.8908e-030	0.1	2598.4
30084	12.933	0.	5.e-002	124.37
30085	12.656	-2.8492e-030	0.1	2647.8
30086	12.749	0.	5.e-002	124.97
30087	12.471	-2.8077e-030	0.1	2697.5
30088	12.564	0.	5.e-002	125.5
30089	12.287	-2.7661e-030	0.1	2747.3
30090	12.379	0.	5.e-002	125.95
30091	12.102	-2.7245e-030	0.1	2797.3
30092	12.194	0.	5.e-002	126.32
30093	11.917	-2.6829e-030	0.1	2847.5
30094	12.01	0.	5.e-002	126.62
30095	11.732	-2.6413e-030	0.1	2898.
30096	11.825	0.	5.e-002	126.84
30097	11.548	-2.5997e-030	0.1	2948.6
30098	11.64	0.	5.e-002	126.99
30099	11.363	-2.5581e-030	0.1	2999.4
30100	11.455	0.	5.e-002	127.05
30101	11.178	-2.5165e-030	0.1	3050.5
30102	11.27	0.	5.e-002	127.03
30103	10.993	-2.4749e-030	0.1	3101.7
30104	11.086	0.	5.e-002	126.93
30105	10.809	-2.4333e-030	0.1	3153.2
30106	10.901	0.	5.e-002	126.73
30107	10.624	-2.3917e-030	0.1	3205.
30108	10.716	0.	5.e-002	126.44
30109	10.439	-2.3501e-030	0.1	3256.9
30110	10.531	0.	5.e-002	126.04
30111	10.254	-2.3085e-030	0.1	3309.1
30112	10.347	0.	5.e-002	125.54
30113	10.07	-2.2669e-030	0.1	3361.6
30114	10.162	0.	5.e-002	124.93
30115	9.8848	-2.2253e-030	0.1	3414.3
30116	9.9771	0.	5.e-002	124.19
30117	9.7	-2.1837e-030	0.1	3467.2
30118	9.7924	0.	5.e-002	123.33
30119	9.5152	-2.1421e-030	0.1	3520.4
30120	9.6076	0.	5.e-002	122.32
30121	9.3305	-2.1005e-030	0.1	3573.9
30122	9.4229	0.	5.e-002	121.17
30123	9.1457	-2.0589e-030	0.1	3627.7
30124	9.2381	0.	5.e-002	119.86
30125	8.961	-2.0174e-030	0.1	3681.7
30126	9.0533	0.	5.e-002	118.37
30127	8.7762	-1.9758e-030	0.1	3736.
30128	8.8686	0.	5.e-002	116.7
30129	8.5914	-1.9342e-030	0.1	3790.6
30130	8.6838	0.	5.e-002	114.84
30131	8.4067	-1.8926e-030	0.1	3845.6
30132	8.499	0.	5.e-002	112.75
30133	8.2219	-1.851e-030	0.1	3900.8
30134	8.3143	0.	5.e-002	110.44
30135	8.0371	-1.8094e-030	0.1	3956.4
30136	8.1295	0.	5.e-002	107.87
30137	7.8524	-1.7678e-030	0.1	4012.3
30138	7.9448	0.	5.e-002	105.04
30139	7.6676	-1.7262e-030	0.1	4068.6
30140	7.76	0.	5.e-002	101.91
30141	7.4829	-1.6846e-030	0.1	4125.2
30142	7.5752	0.	5.e-002	98.473
30143	7.2981	-1.643e-030	0.1	4182.2
30144	7.3905	0.	5.e-002	94.693
30145	7.1133	-1.6014e-030	0.1	4239.6
30146	7.2057	0.	5.e-002	90.544
30147	6.9286	-1.5598e-030	0.1	4297.5
30148	7.021	0.	5.e-002	85.999
30149	6.7438	-1.5182e-030	0.1	4355.7
30150	6.8362	0.	5.e-002	81.024
30151	6.559	-1.4766e-030	0.1	4414.4
30152	6.6514	0.	5.e-002	75.585
30153	6.3743	-1.435e-030	0.1	4473.6
30154	6.4667	0.	5.e-002	69.645
30155	6.1895	-1.3934e-030	0.1	4533.3
30156	6.2819	0.	5.e-002	63.165
30157	6.0048	-1.3518e-030	0.1	4593.5
30158	6.0971	0.	5.e-002	56.1
30159	5.82	-1.3102e-030	0.1	4654.2
30160	5.9124	0.	5.e-002	48.407
30161	5.6352	-1.2686e-030	0.1	4715.5
30162	5.7276	0.	5.e-002	40.038
30163	5.4505	-1.227e-030	0.1	4777.4
30164	5.5429	0.	5.e-002	30.947
30165	5.2657	-1.1855e-030	0.1	4839.8
30166	5.3581	0.	5.e-002	21.103
30167	5.081	-1.1439e-030	0.1	4902.9
30168	5.1733	0.	5.e-002	10.596
30169	4.8962	-1.1023e-030	0.1	4966.6
30170	4.9886	0.	5.e-002	3.8158
30171	4.7114	-1.0607e-030	0.1	5030.9
30172	4.8038	0.	5.e-002	14.827
30173	4.5267	-1.0191e-030	0.1	5095.8
30174	4.619	0.	5.e-002	28.448
30175	4.3419	-9.7748e-031	0.1	5161.4
30176	4.4343	0.	5.e-002	43.362
30177	4.1571	-9.3588e-031	0.1	5227.5
30178	4.2495	0.	5.e-002	59.573
30179	3.9724	-8.9429e-031	0.1	5294.1
30180	4.0648	0.	5.e-002	77.161
30181	3.7876	-8.527e-031	0.1	5361.2
30182	3.88	0.	5.e-002	96.229
30183	3.6029	-8.111e-031	0.1	5428.6
30184	3.6952	0.	5.e-002	116.89
30185	3.4181	-7.6951e-031	0.1	5496.2
30186	3.5105	0.	5.e-002	139.28
30187	3.2333	-7.2791e-031	0.1	5563.6
30188	3.3257	0.	5.e-002	163.53
30189	3.0486	-6.8632e-031	0.1	5630.6
30190	3.141	0.	5.e-002	189.81
30191	2.8638	-6.4472e-031	0.1	5696.7
30192	2.9562	0.	5.e-002	218.28
30193	2.679	-6.0313e-031	0.1	5761.3
30194	2.7714	0.	5.e-002	249.16
30195	2.4943	-5.6153e-031	0.1	5823.7
30196	2.5867	0.	5.e-002	282.67
30197	2.3095	-5.1994e-031	0.1	5882.7
30198	2.4019	0.	5.e-002	319.08
30199	2.1248	-4.7834e-031	0.1	5936.8
30200	2.2171	0.	5.e-002	358.71
30201	1.94	-4.3675e-031	0.1	5984.2
30202	2.0324	0.	5.e-002	401.93
30203	1.7552	-3.9515e-031	0.1	6021.9
30204	1.8476	0.	5.e-002	449.23
30205	1.5705	-3.5356e-031	0.1	6046.2
30206	1.6629	0.	5.e-002	501.2
30207	1.3857	-3.1196e-031	0.1	6051.3
30208	1.4781	0.	5.e-002	558.63
30209	1.201	-2.7037e-031	0.1	6028.7
30210	1.2933	0.	5.e-002	622.55
30211	1.0162	-2.2877e-031	0.1	5965.2
30212	1.1086	0.	5.e-002	694.53
30213	0.83143	-1.8718e-031	0.1	5838.3
30214	0.92381	0.	5.e-002	776.7
30215	0.64667	-1.4558e-031	0.1	5606.
30216	0.73905	0.	5.e-002	873.4
30217	0.4619	-1.0399e-031	0.1	5189.8
30218	0.55429	0.	5.e-002	990.52
30219	0.27714	-6.2392e-032	0.1	4336.8
30220	0.36952	0.	5.e-002	1148.6
30221	9.2381e-002	-2.0797e-032	0.1	2563.7
30222	0.18476	0.	5.e-002	1462.5
30223	0.	0.	5.e-002	1938.9
30224	9.2381e-002	6.	0.1	2563.7
30225	5.2451e-014	6.	5.e-002	1938.9
30226	0.27714	6.	0.1	4336.8
30227	0.18476	6.	5.e-002	1462.5
30228	0.4619	6.	0.1	5189.8
30229	0.36952	6.	5.e-002	1148.6
30230	0.64667	6.	0.1	5606.
30231	0.55429	6.	5.e-002	990.52
30232	0.83143	6.	0.1	5838.3
30233	0.73905	6.	5.e-002	873.4
30234	1.0162	6.	0.1	5965.2
30235	0.92381	6.	5.e-002	776.7
30236	1.201	6.	0.1	6028.7
30237	1.1086	6.	5.e-002	694.53
30238	1.3857	6.	0.1	6051.3
30239	1.2933	6.	5.e-002	622.55
30240	1.5705	6.	0.1	6046.2
30241	1.4781	6.	5.e-002	558.63
30242	1.7552	6.	0.1	6021.9
30243	1.6629	6.	5.e-002	501.2
30244	1.94	6.	0.1	5984.2
30245	1.8476	6.	5.e-002	449.23
30246	2.1248	6.	0.1	5936.8
30247	2.0324	6.	5.e-002	401.93
30248	2.3095	6.	0.1	5882.7
30249	2.2171	6.	5.e-002	358.71
30250	2.4943	6.	0.1	5823.7
30251	2.4019	6.	5.e-002	319.08
30252	2.679	6.	0.1	5761.3
30253	2.5867	6.	5.e-002	282.67
30254	2.8638	6.	0.1	5696.7
30255	2.7714	6.	5.e-002	249.16
30256	3.0486	6.	0.1	5630.6
30257	2.9562	6.	5.e-002	218.28
30258	3.2333	6.	0.1	5563.6
30259	3.141	6.	5.e-002	189.81
30260	3.4181	6.	0.1	5496.2
30261	3.3257	6.	5.e-002	163.53
30262	3.6029	6.	0.1	5428.6
30263	3.5105	6.	5.e-002	139.28
30264	3.7876	6.	0.1	5361.2
30265	3.6952	6.	5.e-002	116.89
30266	3.9724	6.	0.1	5294.1
30267	3.88	6.	5.e-002	96.229
30268	4.1571	6.	0.1	5227.5
30269	4.0648	6.	5.e-002	77.161
30270	4.3419	6.	0.1	5161.4
30271	4.2495	6.	5.e-002	59.573
30272	4.5267	6.	0.1	5095.8
30273	4.4343	6.	5.e-002	43.362
30274	4.7114	6.	0.1	5030.9
30275	4.619	6.	5.e-002	28.448
30276	4.8962	6.	0.1	4966.6
30277	4.8038	6.	5.e-002	14.827
30278	5.081	6.	0.1	4902.9
30279	4.9886	6.	5.e-002	3.8159
30280	5.2657	6.	0.1	4839.8
30281	5.1733	6.	5.e-002	10.596
30282	5.4505	6.	0.1	4777.4
30283	5.3581	6.	5.e-002	21.103
30284	5.6352	6.	0.1	4715.5
30285	5.5429	6.	5.e-002	30.947
30286	5.82	6.	0.1	4654.2
30287	5.7276	6.	5.e-002	40.038
30288	6.0048	6.	0.1	4593.5
30289	5.9124	6.	5.e-002	48.407
30290	6.1895	6.	0.1	4533.3
30291	6.0971	6.	5.e-002	56.1
30292	6.3743	6.	0.1	4473.6
30293	6.2819	6.	5.e-002	63.165
30294	6.559	6.	0.1	4414.4
30295	6.4667	6.	5.e-002	69.645
30296	6.7438	6.	0.1	4355.7
30297	6.6514	6.	5.e-002	75.585
30298	6.9286	6.	0.1	4297.5
30299	6.8362	6.	5.e-002	81.024
30300	7.1133	6.	0.1	4239.6
30301	7.021	6.	5.e-002	85.999
30302	7.2981	6.	0.1	4182.2
30303	7.2057	6.	5.e-002	90.544
30304	7.4829	6.	0.1	4125.2
30305	7.3905	6.	5.e-002	94.693
30306	7.6676	6.	0.1	4068.6
30307	7.5752	6.	5.e-002	98.473
30308	7.8524	6.	0.1	4012.3
30309	7.76	6.	5.e-002	101.91
30310	8.0371	6.	0.1	3956.4
30311	7.9448	6.	5.e-002	105.04
30312	8.2219	6.	0.1	3900.8
30313	8.1295	6.	5.e-002	107.87
30314	8.4067	6.	0.1	3845.6
30315	8.3143	6.	5.e-002	110.44
30316	8.5914	6.	0.1	3790.6
30317	8.499	6.	5.e-002	112.75
30318	8.7762	6.	0.1	3736.
30319	8.6838	6.	5.e-002	114.84
30320	8.961	6.	0.1	3681.7
30321	8.8686	6.	5.e-002	116.7
30322	9.1457	6.	0.1	3627.7
30323	9.0533	6.	5.e-002	118.37
30324	9.3305	6.	0.1	3573.9
30325	9.2381	6.	5.e-002	119.86
30326	9.5152	6.	0.1	3520.4
30327	9.4229	6.	5.e-002	121.17
30328	9.7	6.	0.1	3467.2
30329	9.6076	6.	5.e-002	122.32
30330	9.8848	6.	0.1	3414.3
30331	9.7924	6.	5.e-002	123.33
30332	10.07	6.	0.1	3361.6
30333	9.9771	6.	5.e-002	124.19
30334	10.254	6.	0.1	3309.1
30335	10.162	6.	5.e-002	124.93
30336	10.439	6.	0.1	3256.9
30337	10.347	6.	5.e-002	125.54
30338	10.624	6.	0.1	3205.
30339	10.531	6.	5.e-002	126.04
30340	10.809	6.	0.1	3153.2
30341	10.716	6.	5.e-002	126.44
30342	10.993	6.	0.1	3101.7
30343	10.901	6.	5.e-002	126.73
30344	11.178	6.	0.1	3050.5
30345	11.086	6.	5.e-002	126.93
30346	11.363	6.	0.1	2999.4
30347	11.27	6.	5.e-002	127.03
30348	11.548	6.	0.1	2948.6
30349	11.455	6.	5.e-002	127.05
30350	11.732	6.	0.1	2898.
30351	11.64	6.	5.e-002	126.99
30352	11.917	6.	0.1	2847.5
30353	11.825	6.	5.e-002	126.84
30354	12.102	6.	0.1	2797.3
30355	12.01	6.	5.e-002	126.62
30356	12.287	6.	0.1	2747.3
30357	12.194	6.	5.e-002	126.32
30358	12.471	6.	0.1	2697.5
30359	12.379	6.	5.e-002	125.95
30360	12.656	6.	0.1	2647.8
30361	12.564	6.	5.e-002	125.5
30362	12.841	6.	0.1	2598.4
30363	12.749	6.	5.e-002	124.97
30364	13.026	6.	0.1	2549.1
30365	12.933	6.	5.e-002	124.37
30366	13.21	6.	0.1	2500.
30367	13.118	6.	5.e-002	123.69
30368	13.395	6.	0.1	2451.
30369	13.303	6.	5.e-002	122.93
30370	13.58	6.	0.1	2402.1
30371	13.488	6.	5.e-002	122.08
30372	13.765	6.	0.1	2353.4
30373	13.672	6.	5.e-002	121.15
30374	13.95	6.	0.1	2304.8
30375	13.857	6.	5.e-002	120.12
30376	14.134	6.	0.1	2256.3
30377	14.042	6.	5.e-002	118.98
30378	14.319	6.	0.1	2207.8
30379	14.227	6.	5.e-002	117.74
30380	14.504	6.	0.1	2159.3
30381	14.411	6.	5.e-002	116.38
30382	14.689	6.	0.1	2110.8
30383	14.596	6.	5.e-002	114.88
30384	14.873	6.	0.1	2062.2
30385	14.781	6.	5.e-002	113.24
30386	15.058	6.	0.1	2013.4
30387	14.966	6.	5.e-002	111.42
30388	15.243	6.	0.1	1964.4
30389	15.15	6.	5.e-002	109.42
30390	15.428	6.	0.1	1915.
30391	15.335	6.	5.e-002	107.21
30392	15.612	6.	0.1	1865.2
30393	15.52	6.	5.e-002	104.76
30394	15.797	6.	0.1	1814.7
30395	15.705	6.	5.e-002	102.03
30396	15.982	6.	0.1	1763.4
30397	15.89	6.	5.e-002	98.988
30398	16.167	6.	0.1	1710.9
30399	16.074	6.	5.e-002	95.588
30400	16.351	6.	0.1	1657.
30401	16.259	6.	5.e-002	91.781
30402	16.536	6.	0.1	1601.4
30403	16.444	6.	5.e-002	87.511
30404	16.721	6.	0.1	1543.4
30405	16.629	6.	5.e-002	82.72
30406	16.906	6.	0.1	1482.6
30407	16.813	6.	5.e-002	77.347
30408	17.09	6.	0.1	1418.3
30409	16.998	6.	5.e-002	71.332
30410	17.275	6.	0.1	1349.7
30411	17.183	6.	5.e-002	64.625
30412	17.46	6.	0.1	1275.8
30413	17.368	6.	5.e-002	57.193
30414	17.645	6.	0.1	1195.7
30415	17.552	6.	5.e-002	49.037
30416	17.83	6.	0.1	1108.3
30417	17.737	6.	5.e-002	40.211
30418	18.014	6.	0.1	1012.4
30419	17.922	6.	5.e-002	30.854
30420	18.199	6.	0.1	907.03
30421	18.107	6.	5.e-002	21.23
30422	18.384	6.	0.1	791.58
30423	18.291	6.	5.e-002	11.803
30424	18.569	6.	0.1	665.77
30425	18.476	6.	5.e-002	3.7782
30426	18.753	6.	0.1	530.01
30427	18.661	6.	5.e-002	5.3691
30428	18.938	6.	0.1	385.35
30429	18.846	6.	5.e-002	9.5228
30430	19.123	6.	0.1	231.71
30431	19.03	6.	5.e-002	9.8214
30432	19.308	6.	0.1	79.038
30433	19.215	6.	5.e-002	2.496
30434	19.4	6.	5.e-002	13.833
30435	19.123	6.	0.	231.71
30436	19.308	6.	0.	79.038
30437	18.938	6.	0.	385.35
30438	18.753	6.	0.	530.01
30439	18.569	6.	0.	665.77
30440	18.384	6.	0.	791.58
30441	18.199	6.	0.	907.03
30442	18.014	6.	0.	1012.4
30443	17.83	6.	0.	1108.3
30444	17.645	6.	0.	1195.7
30445	17.46	6.	0.	1275.8
30446	17.275	6.	0.	1349.7
30447	17.09	6.	0.	1418.3
30448	16.906	6.	0.	1482.6
30449	16.721	6.	0.	1543.4
30450	16.536	6.	0.	1601.4
30451	16.351	6.	0.	1657.
30452	16.167	6.	0.	1710.9
30453	15.982	6.	0.	1763.4
30454	15.797	6.	0.	1814.7
30455	15.612	6.	0.	1865.2
30456	15.428	6.	0.	1915.
30457	15.243	6.	0.	1964.4
30458	15.058	6.	0.	2013.4
30459	14.873	6.	0.	2062.2
30460	14.689	6.	0.	2110.8
30461	14.504	6.	0.	2159.3
30462	14.319	6.	0.	2207.8
30463	14.134	6.	0.	2256.3
30464	13.95	6.	0.	2304.8
30465	13.765	6.	0.	2353.4
30466	13.58	6.	0.	2402.1
30467	13.395	6.	0.	2451.
30468	13.21	6.	0.	2500.
30469	13.026	6.	0.	2549.1
30470	12.841	6.	0.	2598.4
30471	12.656	6.	0.	2647.8
30472	12.471	6.	0.	2697.5
30473	12.287	6.	0.	2747.3
30474	12.102	6.	0.	2797.3
30475	11.917	6.	0.	2847.5
30476	11.732	6.	0.	2898.
30477	11.548	6.	0.	2948.6
30478	11.363	6.	0.	2999.4
30479	11.178	6.	0.	3050.5
30480	10.993	6.	0.	3101.7
30481	10.809	6.	0.	3153.2
30482	10.624	6.	0.	3205.
30483	10.439	6.	0.	3256.9
30484	10.254	6.	0.	3309.1
30485	10.07	6.	0.	3361.6
30486	9.8848	6.	0.	3414.3
30487	9.7	6.	0.	3467.2
30488	9.5152	6.	0.	3520.4
30489	9.3305	6.	0.	3573.9
30490	9.1457	6.	0.	3627.7
30491	8.961	6.	0.	3681.7
30492	8.7762	6.	0.	3736.
30493	8.5914	6.	0.	3790.6
30494	8.4067	6.	0.	3845.6
30495	8.2219	6.	0.	3900.8
30496	8.0371	6.	0.	3956.4
30497	7.8524	6.	0.	4012.3
30498	7.6676	6.	0.	4068.6
30499	7.4829	6.	0.	4125.2
30500	7.2981	6.	0.	4182.2
30501	7.1133	6.	0.	4239.6
30502	6.9286	6.	0.	4297.5
30503	6.7438	6.	0.	4355.7
30504	6.559	6.	0.	4414.4
30505	6.3743	6.	0.	4473.6
30506	6.1895	6.	0.	4533.3
30507	6.0048	6.	0.	4593.5
30508	5.82	6.	0.	4654.2
30509	5.6352	6.	0.	4715.5
30510	5.4505	6.	0.	4777.4
30511	5.2657	6.	0.	4839.8
30512	5.081	6.	0.	4902.9
30513	4.8962	6.	0.	4966.6
30514	4.7114	6.	0.	5030.9
30515	4.5267	6.	0.	5095.8
30516	4.3419	6.	0.	5161.4
30517	4.1571	6.	0.	5227.5
30518	3.9724	6.	0.	5294.1
30519	3.7876	6.	0.	5361.2
30520	3.6029	6.	0.	5428.6
30521	3.4181	6.	0.	5496.2
30522	3.2333	6.	0.	5563.6
30523	3.0486	6.	0.	5630.6
30524	2.8638	6.	0.	5696.7
30525	2.679	6.	0.	5761.3
30526	2.4943	6.	0.	5823.7
30527	2.3095	6.	0.	5882.7
30528	2.1248	6.	0.	5936.8
30529	1.94	6.	0.	5984.2
30530	1.7552	6.	0.	6021.9
30531	1.5705	6.	0.	6046.2
30532	1.3857	6.	0.	6051.3
30533	1.201	6.	0.	6028.7
30534	1.0162	6.	0.	5965.2
30535	0.83143	6.	0.	5838.3
30536	0.64667	6.	0.	5606.
30537	0.4619	6.	0.	5189.8
30538	0.27714	6.	0.	4336.8
30539	9.2381e-002	6.	0.	2563.7
30540	19.4	5.9091	0.	60.142
30541	5.1657e-014	5.9091	0.	1396.1
30542	0.27714	-6.2392e-032	0.	4336.8
30543	9.2381e-002	-2.0797e-032	0.	2563.7
30544	0.4619	-1.0399e-031	0.	5189.8
30545	0.64667	-1.4558e-031	0.	5606.
30546	0.83143	-1.8718e-031	0.	5838.3
30547	1.0162	-2.2877e-031	0.	5965.2
30548	1.201	-2.7037e-031	0.	6028.7
30549	1.3857	-3.1196e-031	0.	6051.3
30550	1.5705	-3.5356e-031	0.	6046.2
30551	1.7552	-3.9515e-031	0.	6021.9
30552	1.94	-4.3675e-031	0.	5984.2
30553	2.1248	-4.7834e-031	0.	5936.8
30554	2.3095	-5.1994e-031	0.	5882.7
30555	2.4943	-5.6153e-031	0.	5823.7
30556	2.679	-6.0313e-031	0.	5761.3
30557	2.8638	-6.4472e-031	0.	5696.7
30558	3.0486	-6.8632e-031	0.	5630.6
30559	3.2333	-7.2791e-031	0.	5563.6
30560	3.4181	-7.6951e-031	0.	5496.2
30561	3.6029	-8.111e-031	0.	5428.6
30562	3.7876	-8.527e-031	0.	5361.2
30563	3.9724	-8.9429e-031	0.	5294.1
30564	4.1571	-9.3588e-031	0.	5227.5
30565	4.3419	-9.7748e-031	0.	5161.4
30566	4.5267	-1.0191e-030	0.	5095.8
30567	4.7114	-1.0607e-030	0.	5030.9
30568	4.8962	-1.1023e-030	0.	4966.6
30569	5.081	-1.1439e-030	0.	4902.9
30570	5.2657	-1.1855e-030	0.	4839.8
30571	5.4505	-1.227e-030	0.	4777.4
30572	5.6352	-1.2686e-030	0.	4715.5
30573	5.82	-1.3102e-030	0.	4654.2
30574	6.0048	-1.3518e-030	0.	4593.5
30575	6.1895	-1.3934e-030	0.	4533.3
30576	6.3743	-1.435e-030	0.	4473.6
30577	6.559	-1.4766e-030	0.	4414.4
30578	6.7438	-1.5182e-030	0.	4355.7
30579	6.9286	-1.5598e-030	0.	4297.5
30580	7.1133	-1.6014e-030	0.	4239.6
30581	7.2981	-1.643e-030	0.	4182.2
30582	7.4829	-1.6846e-030	0.	4125.2
30583	7.6676	-1.7262e-030	0.	4068.6
30584	7.8524	-1.7678e-030	0.	4012.3
30585	8.0371	-1.8094e-030	0.	3956.4
30586	8.2219	-1.851e-030	0.	3900.8
30587	8.4067	-1.8926e-030	0.	3845.6
30588	8.5914	-1.9342e-030	0.	3790.6
30589	8.7762	-1.9758e-030	0.	3736.
30590	8.961	-2.0174e-030	0.	3681.7
30591	9.1457	-2.0589e-030	0.	3627.7
30592	9.3305	-2.1005e-030	0.	3573.9
30593	9.5152	-2.1421e-030	0.	3520.4
30594	9.7	-2.1837e-030	0.	3467.2
30595	9.8848	-2.2253e-030	0.	3414.3
30596	10.07	-2.2669e-030	0.	3361.6
30597	10.254	-2.3085e-030	0.	3309.1
30598	10.439	-2.3501e-030	0.	3256.9
30599	10.624	-2.3917e-030	0.	3205.
30600	10.809	-2.4333e-030	0.	3153.2
30601	10.993	-2.4749e-030	0.	3101.7
30602	11.178	-2.5165e-030	0.	3050.5
30603	11.363	-2.5581e-030	0.	2999.4
30604	11.548	-2.5997e-030	0.	2948.6
30605	11.732	-2.6413e-030	0.	2898.
30606	11.917	-2.6829e-030	0.	2847.5
30607	12.102	-2.7245e-030	0.	2797.3
30608	12.287	-2.7661e-030	0.	2747.3
30609	12.471	-2.8077e-030	0.	2697.5
30610	12.656	-2.8492e-030	0.	2647.8
30611	12.841	-2.8908e-030	0.	2598.4
30612	13.026	-2.9324e-030	0.	2549.1
30613	13.21	-2.974e-030	0.	2500.
30614	13.395	-3.0156e-030	0.	2451.
30615	13.58	-3.0572e-030	0.	2402.1
30616	13.765	-3.0988e-030	0.	2353.4
30617	13.95	-3.1404e-030	0.	2304.8
30618	14.134	-3.182e-030	0.	2256.3
30619	14.319	-3.2236e-030	0.	2207.8
30620	14.504	-3.2652e-030	0.	2159.3
30621	14.689	-3.3068e-030	0.	2110.8
30622	14.873	-3.3484e-030	0.	2062.2
30623	15.058	-3.39e-030	0.	2013.4
30624	15.243	-3.4316e-030	0.	1964.4
30625	15.428	-3.4732e-030	0.	1915.
30626	15.612	-3.5148e-030	0.	1865.2
30627	15.797	-3.5564e-030	0.	1814.7
30628	15.982	-3.598e-030	0.	1763.4
30629	16.167	-3.6396e-030	0.	1710.9
30630	16.351	-3.6811e-030	0.	1657.
30631	16.536	-3.7227e-030	0.	1601.4
30632	16.721	-3.7643e-030	0.	1543.4
30633	16.906	-3.8059e-030	0.	1482.6
30634	17.09	-3.8475e-030	0.	1418.3
30635	17.275	-3.8891e-030	0.	1349.7
30636	17.46	-3.9307e-030	0.	1275.8
30637	17.645	-3.9723e-030	0.	1195.7
30638	17.83	-4.0139e-030	0.	1108.3
30639	18.014	-4.0555e-030	0.	1012.4
30640	18.199	-4.0971e-030	0.	907.03
30641	18.384	-4.1387e-030	0.	791.58
30642	18.569	-4.1803e-030	0.	665.77
30643	18.753	-4.2219e-030	0.	530.01
30644	18.938	-4.2635e-030	0.	385.35
30645	19.123	-4.3051e-030	0.	231.71
30646	19.308	-4.3467e-030	0.	79.038
30647	19.4	9.0909e-002	0.	60.142
30648	7.9472e-016	9.0909e-002	0.	1396.1
30649	19.844	0.	0.	143.35
30650	19.659	0.	0.	51.092
30651	20.028	0.	0.	224.52
30652	20.213	0.	0.	290.83
30653	20.398	0.	0.	343.47
30654	20.583	0.	0.	382.76
30655	20.767	0.	0.	409.53
30656	20.952	0.	0.	424.93
30657	21.137	0.	0.	430.36
30658	21.322	0.	0.	427.25
30659	21.506	0.	0.	416.99
30660	21.691	0.	0.	400.85
30661	21.876	0.	0.	379.91
30662	22.06	0.	0.	355.13
30663	22.245	0.	0.	327.3
30664	22.43	0.	0.	297.08
30665	22.615	0.	0.	265.01
30666	22.799	0.	0.	231.54
30667	22.984	0.	0.	197.05
30668	23.169	0.	0.	161.88
30669	23.353	0.	0.	126.32
30670	23.538	0.	0.	90.813
30671	23.723	0.	0.	55.737
30672	23.908	0.	0.	23.266
30673	19.567	9.0909e-002	0.	44.029
30674	24.	9.0909e-002	0.	19.023
30675	5.0067e-014	5.7273	0.	1830.7
30676	4.8478e-014	5.5455	0.	2621.6
30677	4.6888e-014	5.3636	0.	3046.1
30678	4.5299e-014	5.1818	0.	3320.2
30679	4.371e-014	5.	0.	3508.3
30680	4.212e-014	4.8182	0.	3644.5
30681	4.0531e-014	4.6364	0.	3746.4
30682	3.8941e-014	4.4545	0.	3824.2
30683	3.7352e-014	4.2727	0.	3884.2
30684	3.5762e-014	4.0909	0.	3930.8
30685	3.4173e-014	3.9091	0.	3966.7
30686	3.2583e-014	3.7273	0.	3993.9
30687	3.0994e-014	3.5455	0.	4013.9
30688	2.9405e-014	3.3636	0.	4027.5
30689	2.7815e-014	3.1818	0.	4035.5
30690	2.6226e-014	3.	0.	4038.1
30691	2.4636e-014	2.8182	0.	4035.5
30692	2.3047e-014	2.6364	0.	4027.5
30693	2.1457e-014	2.4545	0.	4013.9
30694	1.9868e-014	2.2727	0.	3993.9
30695	1.8279e-014	2.0909	0.	3966.7
30696	1.6689e-014	1.9091	0.	3930.8
30697	1.51e-014	1.7273	0.	3884.2
30698	1.351e-014	1.5455	0.	3824.2
30699	1.1921e-014	1.3636	0.	3746.4
30700	1.0331e-014	1.1818	0.	3644.5
30701	8.7419e-015	1.	0.	3508.3
30702	7.1525e-015	0.81818	0.	3320.2
30703	5.563e-015	0.63636	0.	3046.1
30704	3.9736e-015	0.45455	0.	2621.6
30705	2.3842e-015	0.27273	0.	1830.7
30706	24.	0.27273	0.	39.778
30707	24.	0.45455	0.	54.698
30708	24.	0.63636	0.	64.781
30709	24.	0.81818	0.	71.748
30710	24.	1.	0.	76.369
30711	24.	1.1818	0.	79.168
30712	24.	1.3636	0.	80.546
30713	24.	1.5455	0.	80.843
30714	24.	1.7273	0.	80.358
30715	24.	1.9091	0.	79.36
30716	24.	2.0909	0.	78.086
30717	24.	2.2727	0.	76.744
30718	24.	2.4545	0.	75.512
30719	24.	2.6364	0.	74.528
30720	24.	2.8182	0.	73.896
30721	24.	3.	0.	73.679
30722	24.	3.1818	0.	73.896
30723	24.	3.3636	0.	74.528
30724	24.	3.5455	0.	75.512
30725	24.	3.7273	0.	76.744
30726	24.	3.9091	0.	78.086
30727	24.	4.0909	0.	79.36
30728	24.	4.2727	0.	80.358
30729	24.	4.4545	0.	80.843
30730	24.	4.6364	0.	80.546
30731	24.	4.8182	0.	79.168
30732	24.	5.	0.	76.369
30733	24.	5.1818	0.	71.749
30734	24.	5.3636	0.	64.781
30735	24.	5.5455	0.	54.698
30736	24.	5.7273	0.	39.778
30737	24.	5.9091	0.	19.023
30738	23.908	6.	0.	23.266
30739	23.723	6.	0.	55.737
30740	23.538	6.	0.	90.813
30741	23.353	6.	0.	126.32
30742	23.169	6.	0.	161.88
30743	22.984	6.	0.	197.05
30744	22.799	6.	0.	231.54
30745	22.615	6.	0.	265.01
30746	22.43	6.	0.	297.08
30747	22.245	6.	0.	327.3
30748	22.06	6.	0.	355.13
30749	21.876	6.	0.	379.91
30750	21.691	6.	0.	400.85
30751	21.506	6.	0.	416.99
30752	21.322	6.	0.	427.25
30753	21.137	6.	0.	430.36
30754	20.952	6.	0.	424.93
30755	20.767	6.	0.	409.53
30756	20.583	6.	0.	382.76
30757	20.398	6.	0.	343.47
30758	20.213	6.	0.	290.83
30759	20.028	6.	0.	224.52
30760	19.844	6.	0.	143.35
30761	19.659	6.	0.	51.092
30762	19.567	5.9091	0.	44.029
30763	19.4	1.7273	0.	1912.
30764	19.4	1.9091	0.	3545.7
30765	19.4	1.5455	0.	1259.8
30766	19.4	1.3636	0.	984.69
30767	19.4	1.1818	0.	775.13
30768	19.4	1.	0.	614.87
30769	19.4	0.81818	0.	482.57
30770	19.4	0.63636	0.	368.33
30771	19.4	0.45455	0.	265.58
30772	19.4	0.27273	0.	166.71
30773	19.483	2.	0.	4563.3
30774	19.567	0.27273	0.	122.76
30775	19.567	0.45455	0.	194.6
30776	19.567	0.63636	0.	267.43
30777	19.567	0.81818	0.	348.16
30778	19.567	1.	0.	442.91
30779	19.567	1.1818	0.	560.59
30780	19.567	1.3636	0.	719.36
30781	19.567	1.5455	0.	929.89
30782	19.567	1.7273	0.	1431.3
30783	19.567	1.9091	0.	3052.4
30784	19.4	4.2727	0.	1912.
30785	19.4	4.0909	0.	3545.7
30786	19.4	4.4545	0.	1259.8
30787	19.4	4.6364	0.	984.69
30788	19.4	4.8182	0.	775.13
30789	19.4	5.	0.	614.87
30790	19.4	5.1818	0.	482.57
30791	19.4	5.3636	0.	368.33
30792	19.4	5.5455	0.	265.58
30793	19.4	5.7273	0.	166.71
30794	19.483	4.	0.	4563.3
30795	19.567	5.7273	0.	122.76
30796	19.567	5.5455	0.	194.6
30797	19.567	5.3636	0.	267.43
30798	19.567	5.1818	0.	348.16
30799	19.567	5.	0.	442.91
30800	19.567	4.8182	0.	560.59
30801	19.567	4.6364	0.	719.36
30802	19.567	4.4545	0.	929.89
30803	19.567	4.2727	0.	1431.3
30804	19.567	4.0909	0.	3052.4
