Node Number	X Location (in)	Y Location (in)	Z Location (in)	Minimum Principal Stress (psi)
1	3.6196	2.979	0.	-10752
2	4.2482	2.3309	0.	-5886.7
3	5.3396	3.3744	0.	-5484.7
4	2.3845	1.8552	0.	-8335.6
5	2.3132	0.72206	0.	-5358.3
6	2.1052	5.1881	0.	-5115.9
7	4.2112	5.0492	0.	-3868.9
8	4.5941	4.6765	0.	-6486.4
9	4.6432	0.64755	0.	-3565.3
10	1.0212	4.9673	0.	-5611.
11	4.4004	5.4609	0.	-3711.1
12	5.7966	0.83469	0.	-4518.8
13	5.262	2.5501	0.	-5865.2
14	1.3544	2.75	0.	-6323.3
15	1.2678	1.3203	0.	-5239.8
16	1.045	3.8794	0.	-6599.6
17	6.8844	1.0765	0.	-4154.9
18	7.9851	1.1881	0.	-3962.9
19	9.1451	1.2069	0.	-3636.3
20	10.31	1.2118	0.	-3291.2
21	11.465	1.1806	0.	-2969.3
22	12.613	1.2152	0.	-2660.
23	13.744	1.2157	0.	-2363.7
24	14.88	1.2052	0.	-2073.1
25	16.025	1.1922	0.	-1786.6
26	17.162	1.1907	0.	-1510.7
27	18.301	1.191	0.	-1241.4
28	19.439	1.1916	0.	-979.8
29	20.578	1.1915	0.	-724.97
30	21.717	1.1922	0.	-477.09
31	22.857	1.198	0.	-238.03
32	22.854	2.4018	0.	-243.03
33	22.848	3.6003	0.	-244.28
34	22.855	4.7983	0.	-238.45
35	21.709	4.8018	0.	-478.96
36	20.568	4.7897	0.	-727.31
37	19.428	4.7833	0.	-982.19
38	18.289	4.781	0.	-1244.
39	17.151	4.7793	0.	-1513.1
40	16.019	4.7924	0.	-1788.
41	14.882	4.8118	0.	-2072.1
42	13.758	4.8599	0.	-2359.9
43	12.596	4.8615	0.	-2665.7
44	11.442	4.846	0.	-2975.3
45	10.266	4.8128	0.	-3302.
46	9.0759	4.7845	0.	-3634.7
47	7.8258	4.752	0.	-4064.7
48	6.3837	4.7144	0.	-3998.4
49	5.4411	5.2374	0.	-4384.
50	6.5961	3.4899	0.	-4321.6
51	6.5789	2.2541	0.	-4059.8
52	7.8734	2.364	0.	-3937.5
53	9.0929	2.398	0.	-3619.8
54	10.292	2.4185	0.	-3283.1
55	11.454	2.4406	0.	-2965.6
56	12.592	2.4614	0.	-2660.9
57	13.726	2.458	0.	-2363.1
58	14.862	2.406	0.	-2072.2
59	16.01	2.3901	0.	-1786.7
60	17.154	2.388	0.	-1508.7
61	18.292	2.3893	0.	-1240.5
62	19.431	2.3916	0.	-979.58
63	20.57	2.3953	0.	-727.18
64	21.711	2.3997	0.	-482.12
65	21.704	3.5961	0.	-483.87
66	20.563	3.5882	0.	-728.59
67	19.424	3.5825	0.	-981.19
68	18.285	3.5796	0.	-1242.
69	17.146	3.5778	0.	-1510.5
70	16.008	3.5923	0.	-1786.5
71	14.866	3.6097	0.	-2071.5
72	13.733	3.6485	0.	-2361.9
73	12.595	3.6592	0.	-2659.2
74	11.436	3.6428	0.	-2970.
75	10.259	3.6165	0.	-3295.5
76	9.0612	3.5892	0.	-3628.9
77	7.7999	3.5579	0.	-4067.1
78	5.0924	4.1625	0.	-5263.4
79	2.6597	1.1759	0.	-4851.4
80	2.3638	2.5224	0.	-7112.6
81	2.135	4.3717	0.	-6486.
82	4.3927	1.745	0.	-6495.6
83	4.2371	3.1359	0.	-7027.
84	4.5528	1.186	0.	-4129.4
85	2.8915	3.3998	0.	-9573.8
86	3.1803	3.1378	0.	-6048.7
87	2.3005	3.7085	0.	-7525.3
88	5.0938	1.9522	0.	-5455.1
89	5.5515	1.5236	0.	-5491.6
90	5.5515	1.5236	0.1	125.3
91	5.0938	1.9522	0.1	35.806
92	2.3005	3.7085	0.1	694.76
93	3.1803	3.1378	0.1	-1745.7
94	2.8915	3.3998	0.1	-1589.6
95	4.5528	1.186	0.1	-549.42
96	4.2371	3.1359	0.1	-778.02
97	4.3927	1.745	0.1	-23.861
98	2.135	4.3717	0.1	345.36
99	2.3638	2.5224	0.1	46.087
100	2.6597	1.1759	0.1	-852.46
101	5.0924	4.1625	0.1	221.22
102	7.7999	3.5579	0.1	-37.315
103	9.0612	3.5892	0.1	7.8018
104	10.259	3.6165	0.1	-5.39
105	11.436	3.6428	0.1	1.8828
106	12.595	3.6592	0.1	-0.67966
107	13.733	3.6485	0.1	0.24997
108	14.866	3.6097	0.1	-6.5512
109	16.008	3.5923	0.1	-13.044
110	17.146	3.5778	0.1	-19.135
111	18.285	3.5796	0.1	-26.405
112	19.424	3.5825	0.1	-37.285
113	20.563	3.5882	0.1	-54.221
114	21.704	3.5961	0.1	-81.19
115	21.711	2.3997	0.1	-81.339
116	20.57	2.3953	0.1	-54.288
117	19.431	2.3916	0.1	-37.275
118	18.292	2.3893	0.1	-26.511
119	17.154	2.388	0.1	-18.96
120	16.01	2.3901	0.1	-12.916
121	14.862	2.406	0.1	-7.4112
122	13.726	2.458	0.1	-0.76879
123	12.592	2.4614	0.1	0.63811
124	11.454	2.4406	0.1	1.4275
125	10.292	2.4185	0.1	-2.8568
126	9.0929	2.398	0.1	3.7803
127	7.8734	2.364	0.1	-109.09
128	6.5789	2.2541	0.1	51.232
129	6.5961	3.4899	0.1	79.264
130	5.4411	5.2374	0.1	-29.887
131	6.3837	4.7144	0.1	-250.01
132	7.8258	4.752	0.1	28.748
133	9.0759	4.7845	0.1	15.285
134	10.266	4.8128	0.1	-3.1107
135	11.442	4.846	0.1	-0.67743
136	12.596	4.8615	0.1	-0.72369
137	13.758	4.8599	0.1	-3.1988
138	14.882	4.8118	0.1	-8.9433
139	16.019	4.7924	0.1	-13.689
140	17.151	4.7793	0.1	-18.315
141	18.289	4.781	0.1	-23.747
142	19.428	4.7833	0.1	-30.942
143	20.568	4.7897	0.1	-41.369
144	21.709	4.8018	0.1	-56.888
145	22.855	4.7983	0.1	-84.45
146	22.848	3.6003	0.1	-123.88
147	22.854	2.4018	0.1	-124.06
148	22.857	1.198	0.1	-84.367
149	21.717	1.1922	0.1	-56.737
150	20.578	1.1915	0.1	-40.919
151	19.439	1.1916	0.1	-30.825
152	18.301	1.191	0.1	-23.684
153	17.162	1.1907	0.1	-18.588
154	16.025	1.1922	0.1	-14.503
155	14.88	1.2052	0.1	-10.625
156	13.744	1.2157	0.1	-5.1377
157	12.613	1.2152	0.1	-1.1907
158	11.465	1.1806	0.1	-0.30656
159	10.31	1.2118	0.1	-1.6014
160	9.1451	1.2069	0.1	26.839
161	7.9851	1.1881	0.1	-29.032
162	6.8844	1.0765	0.1	-0.95813
163	1.045	3.8794	0.1	-994.88
164	1.2678	1.3203	0.1	-940.28
165	1.3544	2.75	0.1	-1223.9
166	5.262	2.5501	0.1	-428.4
167	5.7966	0.83469	0.1	48.677
168	4.4004	5.4609	0.1	-411.94
169	1.0212	4.9673	0.1	-1005.8
170	4.6432	0.64755	0.1	-313.4
171	4.5941	4.6765	0.1	-229.4
172	4.2112	5.0492	0.1	-409.73
173	2.1052	5.1881	0.1	7.0466
174	2.3132	0.72206	0.1	90.022
175	2.3845	1.8552	0.1	413.22
176	5.3396	3.3744	0.1	49.304
177	4.2482	2.3309	0.1	-274.35
178	3.6196	2.979	0.1	-2071.5
179	3.5067	4.	0.1	-1511.5
180	3.5067	4.5	0.1	-4434.1
181	3.5067	5.	0.1	-2548.8
182	3.5067	5.5	0.1	-450.34
183	3.34	5.5	0.1	-947.28
184	3.34	5.	0.1	-2503.9
185	3.34	4.5	0.1	-3494.8
186	3.34	4.	0.1	966.99
187	3.5067	2.	0.1	89.599
188	3.5067	1.5	0.1	-4971.
189	3.5067	1.	0.1	-1200.5
190	3.5067	0.5	0.1	-511.59
191	3.34	0.5	0.1	-1243.1
192	3.34	1.	0.1	-1095.1
193	3.34	1.5	0.1	-6296.2
194	3.34	2.	0.1	404.15
195	3.5067	6.	0.1	-223.2
196	4.6452	6.	0.1	23.311
197	5.7837	6.	0.1	-204.07
198	6.9222	6.	0.1	103.53
199	8.0607	6.	0.1	-167.27
200	9.1993	6.	0.1	4.1314
201	10.338	6.	0.1	-16.814
202	11.476	6.	0.1	-3.859
203	12.615	6.	0.1	-7.8688
204	13.753	6.	0.1	-9.3656
205	14.892	6.	0.1	-10.043
206	16.03	6.	0.1	-11.794
207	17.169	6.	0.1	-12.157
208	18.307	6.	0.1	-13.303
209	19.446	6.	0.1	-14.055
210	20.584	6.	0.1	-15.343
211	21.723	6.	0.1	-15.054
212	22.861	6.	0.1	-14.384
213	24.	6.	0.1	-22.21
214	24.	4.8	0.1	-144.26
215	24.	3.6	0.1	-184.39
216	24.	2.4	0.1	-184.66
217	24.	1.2	0.1	-144.3
218	0.	1.2	0.1	3603.3
219	0.	2.4	0.1	3851.
220	0.	3.6	0.1	3580.6
221	0.	4.8	0.1	3693.9
222	24.	0.	0.1	-20.513
223	22.861	0.	0.1	-14.647
224	21.723	0.	0.1	-15.048
225	20.584	0.	0.1	-15.309
226	19.446	0.	0.1	-14.077
227	18.307	0.	0.1	-12.93
228	17.169	0.	0.1	-11.6
229	16.03	0.	0.1	-10.452
230	14.892	0.	0.1	-9.4632
231	13.753	0.	0.1	-8.277
232	12.615	0.	0.1	-7.0732
233	11.476	0.	0.1	-5.3112
234	10.338	0.	0.1	-9.6029
235	9.1993	0.	0.1	-15.229
236	8.0607	0.	0.1	-26.529
237	6.9222	0.	0.1	-11.321
238	5.7837	0.	0.1	-71.788
239	4.6452	0.	0.1	-52.029
240	3.5067	0.	0.1	-227.95
241	3.34	0.	0.1	-336.08
242	2.2267	0.	0.1	-177.38
243	1.1133	0.	0.1	-424.15
244	0.	0.	0.1	944.02
245	0.	6.	0.1	983.43
246	1.1133	6.	0.1	-514.98
247	2.2267	6.	0.1	-215.7
248	3.34	6.	0.1	-258.29
249	2.2267	6.	0.	-4267.3
250	1.1133	6.	0.	-6244.2
251	3.34	6.	0.	-337.37
252	0.	6.	0.	-2529.7
253	1.1133	0.	0.	-6186.1
254	2.2267	0.	0.	-4194.7
255	3.34	0.	0.	-703.17
256	0.	0.	0.	-2666.7
257	4.6452	0.	0.	-3463.9
258	5.7837	0.	0.	-4318.7
259	6.9222	0.	0.	-4078.8
260	8.0607	0.	0.	-3903.8
261	9.1993	0.	0.	-3599.6
262	10.338	0.	0.	-3291.9
263	11.476	0.	0.	-2978.
264	12.615	0.	0.	-2667.3
265	13.753	0.	0.	-2365.1
266	14.892	0.	0.	-2072.2
267	16.03	0.	0.	-1787.6
268	17.169	0.	0.	-1509.7
269	18.307	0.	0.	-1239.6
270	19.446	0.	0.	-976.56
271	20.584	0.	0.	-720.06
272	21.723	0.	0.	-469.07
273	22.861	0.	0.	-219.94
274	3.5067	0.	0.	-63.147
275	24.	0.	0.	-12.054
276	0.	4.8	0.	-7563.7
277	0.	3.6	0.	-7475.7
278	0.	2.4	0.	-7800.1
279	0.	1.2	0.	-7538.4
280	24.	1.2	0.	-2.6374
281	24.	2.4	0.	-3.3955
282	24.	3.6	0.	-3.2777
283	24.	4.8	0.	-3.2185
284	24.	6.	0.	-13.051
285	22.861	6.	0.	-220.4
286	21.723	6.	0.	-469.57
287	20.584	6.	0.	-720.43
288	19.446	6.	0.	-977.
289	18.307	6.	0.	-1239.9
290	17.169	6.	0.	-1509.5
291	16.03	6.	0.	-1786.5
292	14.892	6.	0.	-2070.5
293	13.753	6.	0.	-2365.2
294	12.615	6.	0.	-2666.8
295	11.476	6.	0.	-2980.9
296	10.338	6.	0.	-3293.
297	9.1993	6.	0.	-3623.8
298	8.0607	6.	0.	-3856.3
299	6.9222	6.	0.	-4248.7
300	5.7837	6.	0.	-4490.5
301	4.6452	6.	0.	-3474.9
302	3.5067	6.	0.	-700.36
303	3.34	1.5	0.	-5092.5
304	3.34	1.	0.	-3502.9
305	3.34	0.5	0.	-1672.6
306	3.34	2.	0.	-19436
307	3.5067	0.5	0.	-1691.9
308	3.5067	1.	0.	-2838.3
309	3.5067	1.5	0.	-4747.4
310	3.5067	2.	0.	-18223
311	3.34	4.5	0.	-8082.
312	3.34	5.	0.	-4283.8
313	3.34	5.5	0.	-2098.9
314	3.34	4.	0.	-21232
315	3.5067	5.5	0.	-1044.1
316	3.5067	5.	0.	-2633.2
317	3.5067	4.5	0.	-2737.5
318	3.5067	4.	0.	-14003
319	3.9283	3.0575	0.	-8885.
320	3.3999	3.0584	0.	-8378.4
321	3.6196	2.979	5.e-002	-100.86
322	3.5631	2.4895	0.	-14354
323	3.4798	3.4895	0.	-15947
324	4.7551	2.4405	0.	-5816.8
325	4.3205	2.038	0.	-6190.9
326	4.2426	2.7334	0.	-6431.5
327	4.2482	2.3309	5.e-002	-91.552
328	3.8774	2.1655	0.	-12052
329	5.3008	2.9622	0.	-5674.8
330	5.9679	3.4321	0.	-4901.9
331	5.216	3.7684	0.	-5365.7
332	4.7883	3.2551	0.	-6247.7
333	5.3396	3.3744	5.e-002	-150.03
334	1.8261	1.5877	0.	-6785.8
335	2.5221	1.5155	0.	-6271.5
336	2.3741	2.1888	0.	-7715.5
337	2.3845	1.8552	5.e-002	-242.12
338	2.8622	1.6776	0.	-5724.
339	1.7905	1.0212	0.	-5281.7
340	2.4864	0.94895	0.	-4933.6
341	2.3132	0.72206	5.e-002	-26.533
342	2.2699	0.36103	0.	-4768.5
343	2.8266	0.61103	0.	-2870.2
344	1.5632	5.0777	0.	-5347.5
345	2.1201	4.7799	0.	-5791.3
346	2.1052	5.1881	5.e-002	-81.766
347	2.1659	5.594	0.	-4685.9
348	2.7226	5.344	0.	-3215.3
349	4.4027	4.8628	0.	-5131.
350	4.3058	5.255	0.	-3766.1
351	4.2112	5.0492	5.e-002	-149.77
352	3.8589	5.0246	0.	-2912.8
353	5.0176	4.957	0.	-5416.1
354	4.8433	4.4195	0.	-5815.5
355	4.5941	4.6765	5.e-002	-289.67
356	4.0504	4.5882	0.	-4037.
357	5.2199	0.74112	0.	-4017.9
358	4.598	0.91675	0.	-3845.7
359	4.6432	0.64755	5.e-002	-70.038
360	4.6442	0.32377	0.	-3509.7
361	4.0749	0.57377	0.	-2342.4
362	1.0331	4.4233	0.	-6097.6
363	1.0212	4.9673	5.e-002	-9.0116
364	1.0672	5.4837	0.	-5923.5
365	0.51058	4.8837	0.	-6572.9
366	4.9208	5.3492	0.	-4020.
367	4.4004	5.4609	5.e-002	-94.841
368	4.5228	5.7304	0.	-3583.8
369	3.9535	5.4804	0.	-2031.5
370	6.3405	0.9556	0.	-4336.5
371	5.674	1.1791	0.	-5004.7
372	5.7966	0.83469	5.e-002	-33.344
373	5.7901	0.41734	0.	-4418.6
374	5.9204	2.4021	0.	-4958.7
375	5.1779	2.2512	0.	-5635.7
376	5.262	2.5501	5.e-002	-245.82
377	1.3111	2.0351	0.	-5772.
378	1.1997	3.3147	0.	-6445.9
379	1.8591	2.6362	0.	-6713.3
380	1.8275	3.2292	0.	-6902.1
381	1.3544	2.75	5.e-002	-86.895
382	0.67718	2.575	0.	-7055.3
383	1.2678	1.3203	5.e-002	-35.657
384	1.1906	0.66013	0.	-5701.6
385	0.63389	1.2601	0.	-6373.5
386	1.59	4.1255	0.	-6526.9
387	1.045	3.8794	5.e-002	-65.566
388	0.52249	3.7397	0.	-7030.5
389	7.4348	1.1323	0.	-4058.3
390	6.7316	1.6653	0.	-4107.1
391	6.8844	1.0765	5.e-002	-13.795
392	6.9033	0.53826	0.	-4116.8
393	8.5651	1.1975	0.	-3799.6
394	7.9293	1.776	0.	-3950.2
395	7.9851	1.1881	5.e-002	-14.786
396	8.0229	0.59403	0.	-3933.2
397	9.7273	1.2093	0.	-3463.7
398	9.119	1.8025	0.	-3627.9
399	9.1451	1.2069	5.e-002	-1.8078
400	9.1722	0.60345	0.	-3617.8
401	10.887	1.1962	0.	-3130.2
402	10.301	1.8152	0.	-3286.8
403	10.31	1.2118	5.e-002	-0.93137
404	10.324	0.60588	0.	-3291.4
405	12.039	1.1979	0.	-2814.6
406	11.46	1.8106	0.	-2967.
407	11.465	1.1806	5.e-002	-1.3321
408	11.471	0.5903	0.	-2973.5
409	13.178	1.2155	0.	-2511.8
410	12.602	1.8383	0.	-2659.9
411	12.613	1.2152	5.e-002	-1.4914
412	12.614	0.60761	0.	-2663.5
413	14.312	1.2104	0.	-2218.4
414	13.735	1.8369	0.	-2362.8
415	13.744	1.2157	5.e-002	-1.4614
416	13.749	0.60785	0.	-2364.2
417	15.452	1.1987	0.	-1929.9
418	14.871	1.8056	0.	-2072.
419	14.88	1.2052	5.e-002	-1.3185
420	14.886	0.60259	0.	-2072.5
421	16.593	1.1914	0.	-1648.6
422	16.017	1.7911	0.	-1786.
423	16.025	1.1922	5.e-002	-1.2321
424	16.028	0.5961	0.	-1786.9
425	17.731	1.1909	0.	-1376.
426	17.158	1.7893	0.	-1508.9
427	17.162	1.1907	5.e-002	-1.127
428	17.165	0.59534	0.	-1510.
429	18.87	1.1913	0.	-1110.6
430	18.296	1.7901	0.	-1240.1
431	18.301	1.191	5.e-002	-1.092
432	18.304	0.59551	0.	-1240.3
433	20.008	1.1915	0.	-852.35
434	19.435	1.7916	0.	-978.8
435	19.439	1.1916	5.e-002	-1.1711
436	19.442	0.5958	0.	-977.88
437	21.148	1.1918	0.	-601.01
438	20.574	1.7934	0.	-725.15
439	20.578	1.1915	5.e-002	-1.2785
440	20.581	0.59574	0.	-722.08
441	22.287	1.1951	0.	-357.56
442	21.714	1.7959	0.	-478.75
443	21.717	1.1922	5.e-002	-1.5746
444	21.72	0.59609	0.	-472.33
445	22.855	1.7999	0.	-239.99
446	22.857	1.198	5.e-002	-2.2873
447	22.859	0.599	0.	-227.53
448	23.428	1.199	0.	-118.58
449	22.851	3.001	0.	-243.35
450	22.283	2.4007	0.	-362.57
451	22.854	2.4018	5.e-002	-2.4277
452	23.427	2.4009	0.	-122.11
453	22.852	4.1993	0.	-240.83
454	22.276	3.5982	0.	-364.07
455	22.848	3.6003	5.e-002	-2.3812
456	23.424	3.6001	0.	-122.68
457	22.282	4.8001	0.	-358.7
458	22.855	4.7983	5.e-002	-2.3365
459	23.428	4.7992	0.	-119.18
460	22.858	5.3992	0.	-227.98
461	21.138	4.7958	0.	-603.12
462	21.706	4.1989	0.	-480.58
463	21.709	4.8018	5.e-002	-1.5905
464	21.716	5.4009	0.	-473.48
465	19.998	4.7865	0.	-854.72
466	20.566	4.189	0.	-727.05
467	20.568	4.7897	5.e-002	-1.3893
468	20.576	5.3949	0.	-723.4
469	18.858	4.7822	0.	-1113.1
470	19.426	4.1829	0.	-980.82
471	19.428	4.7833	5.e-002	-1.3247
472	19.437	5.3917	0.	-979.26
473	17.72	4.7802	0.	-1378.5
474	18.287	4.1803	0.	-1242.2
475	18.289	4.781	5.e-002	-1.2486
476	18.298	5.3905	0.	-1241.7
477	16.585	4.7859	0.	-1650.5
478	17.148	4.1786	0.	-1511.
479	17.151	4.7793	5.e-002	-1.3291
480	17.16	5.3897	0.	-1511.1
481	15.451	4.8021	0.	-1930.
482	16.014	4.1923	0.	-1786.6
483	16.019	4.7924	5.e-002	-1.3238
484	16.025	5.3962	0.	-1787.1
485	14.32	4.8358	0.	-2216.
486	14.874	4.2107	0.	-2071.1
487	14.882	4.8118	5.e-002	-1.4002
488	14.887	5.4059	0.	-2071.1
489	13.177	4.8607	0.	-2512.8
490	13.745	4.2542	0.	-2360.3
491	13.758	4.8599	5.e-002	-0.94676
492	13.756	5.4299	0.	-2362.4
493	12.019	4.8538	0.	-2820.5
494	12.595	4.2603	0.	-2662.
495	12.596	4.8615	5.e-002	-1.2001
496	12.605	5.4307	0.	-2666.1
497	10.854	4.8294	0.	-3138.6
498	11.439	4.2444	0.	-2972.2
499	11.442	4.846	5.e-002	-1.5211
500	11.459	5.423	0.	-2978.
501	9.6708	4.7987	0.	-3468.3
502	10.262	4.2147	0.	-3298.4
503	10.266	4.8128	5.e-002	-1.8423
504	10.302	5.4064	0.	-3297.3
505	8.4508	4.7683	0.	-3849.7
506	9.0685	4.1869	0.	-3631.6
507	9.0759	4.7845	5.e-002	-1.1563
508	9.1376	5.3923	0.	-3628.9
509	7.1048	4.7332	0.	-4031.4
510	7.8129	4.155	0.	-4065.9
511	7.8258	4.752	5.e-002	-6.3618
512	7.9433	5.376	0.	-3960.4
513	5.9124	4.9759	0.	-4187.9
514	6.4899	4.1021	0.	-4159.8
515	5.7381	4.4384	0.	-4628.6
516	6.3837	4.7144	5.e-002	-36.34
517	6.653	5.3572	0.	-4117.6
518	5.4411	5.2374	5.e-002	-142.38
519	5.6124	5.6187	0.	-4414.3
520	6.5875	2.872	0.	-4189.7
521	7.198	3.5239	0.	-4194.3
522	6.5961	3.4899	5.e-002	-24.613
523	7.2261	2.3091	0.	-3998.4
524	6.0652	1.8888	0.	-4775.3
525	6.5789	2.2541	5.e-002	-40.628
526	8.4831	2.381	0.	-3778.7
527	7.8366	2.9609	0.	-4002.1
528	7.8734	2.364	5.e-002	-9.707
529	9.6925	2.4083	0.	-3451.5
530	9.077	2.9936	0.	-3624.3
531	9.0929	2.398	5.e-002	-6.5729
532	10.873	2.4296	0.	-3124.4
533	10.275	3.0175	0.	-3289.1
534	10.292	2.4185	5.e-002	-2.434
535	12.023	2.451	0.	-2813.2
536	11.445	3.0417	0.	-2967.4
537	11.454	2.4406	5.e-002	-2.3946
538	13.159	2.4597	0.	-2512.
539	12.593	3.0603	0.	-2659.6
540	12.592	2.4614	5.e-002	-2.1574
541	14.294	2.432	0.	-2217.6
542	13.73	3.0532	0.	-2361.9
543	13.726	2.458	5.e-002	-1.874
544	15.436	2.398	0.	-1929.4
545	14.864	3.0078	0.	-2071.2
546	14.862	2.406	5.e-002	-1.556
547	16.582	2.389	0.	-1647.7
548	16.009	2.9912	0.	-1785.9
549	16.01	2.3901	5.e-002	-1.3866
550	17.723	2.3886	0.	-1374.6
551	17.15	2.9829	0.	-1508.8
552	17.154	2.388	5.e-002	-1.2978
553	18.861	2.3904	0.	-1110.
554	18.288	2.9844	0.	-1240.5
555	18.292	2.3893	5.e-002	-1.3627
556	20.001	2.3935	0.	-853.38
557	19.428	2.9871	0.	-979.6
558	19.431	2.3916	5.e-002	-1.3823
559	21.141	2.3975	0.	-604.65
560	20.567	2.9918	0.	-727.15
561	20.57	2.3953	5.e-002	-1.5491
562	21.708	2.9979	0.	-482.42
563	21.711	2.3997	5.e-002	-1.9958
564	21.134	3.5921	0.	-606.23
565	21.704	3.5961	5.e-002	-1.9917
566	19.994	3.5854	0.	-854.89
567	20.563	3.5882	5.e-002	-1.5446
568	18.854	3.5811	0.	-1111.6
569	19.424	3.5825	5.e-002	-1.3964
570	17.715	3.5787	0.	-1376.2
571	18.285	3.5796	5.e-002	-1.352
572	16.577	3.585	0.	-1648.5
573	17.146	3.5778	5.e-002	-1.3384
574	15.437	3.601	0.	-1929.
575	16.008	3.5923	5.e-002	-1.2769
576	14.3	3.6291	0.	-2216.7
577	14.866	3.6097	5.e-002	-1.2578
578	13.164	3.6538	0.	-2510.5
579	13.733	3.6485	5.e-002	-1.4488
580	12.015	3.651	0.	-2814.6
581	12.595	3.6592	5.e-002	-1.633
582	10.848	3.6297	0.	-3132.7
583	11.436	3.6428	5.e-002	-1.7155
584	9.6599	3.6029	0.	-3462.2
585	10.259	3.6165	5.e-002	-3.4114
586	8.4305	3.5735	0.	-3848.
587	9.0612	3.5892	5.e-002	-5.9415
588	7.7999	3.5579	5.e-002	-16.787
589	5.0924	4.1625	5.e-002	-136.02
590	4.2996	4.0812	0.	-9431.3
591	2.6597	1.1759	5.e-002	-306.88
592	2.9998	1.0879	0.	-4093.8
593	2.6276	2.9611	0.	-8160.5
594	2.3638	2.5224	5.e-002	-289.29
595	2.8519	2.2612	0.	-13258
596	2.2178	4.0401	0.	-6992.3
597	2.135	4.3717	5.e-002	-52.81
598	2.7375	4.6858	0.	-4808.1
599	4.4728	1.4655	0.	-5309.7
600	4.7433	1.8486	0.	-5969.1
601	4.3927	1.745	5.e-002	-50.284
602	3.9497	1.6225	0.	-4894.9
603	4.2371	3.1359	5.e-002	-255.12
604	3.8719	3.568	0.	-10237
605	5.0522	1.3548	0.	-4774.6
606	4.5528	1.186	5.e-002	-88.476
607	4.0297	1.093	0.	-3039.7
608	3.0359	3.2688	0.	-7676.4
609	2.596	3.5542	0.	-8517.8
610	2.8915	3.3998	5.e-002	-646.97
611	3.1157	3.6999	0.	-15350
612	3.1803	3.1378	5.e-002	-876.49
613	3.2601	2.5689	0.	-12635
614	2.3005	3.7085	5.e-002	-73.789
615	2.8203	4.1042	0.	-7347.
616	5.3227	1.7379	0.	-5467.5
617	5.0938	1.9522	5.e-002	-296.94
618	5.5515	1.5236	5.e-002	-8.8351
619	5.3227	1.7379	0.1	86.368
620	5.0522	1.3548	0.1	-140.19
621	6.0652	1.8888	0.1	89.117
622	5.674	1.1791	0.1	90.103
623	4.7433	1.8486	0.1	15.398
624	5.1779	2.2512	0.1	-167.77
625	2.596	3.5542	0.1	-28.47
626	2.2178	4.0401	0.1	521.39
627	1.8275	3.2292	0.1	-264.55
628	2.8203	4.1042	0.1	-542.54
629	3.0359	3.2688	0.1	-1441.8
630	3.3999	3.0584	0.1	-1770.1
631	3.2601	2.5689	0.1	-566.5
632	2.6276	2.9611	0.1	-272.12
633	3.1157	3.6999	0.1	266.78
634	4.4728	1.4655	0.1	-246.61
635	4.598	0.91675	0.1	-424.22
636	4.0297	1.093	0.1	-430.91
637	4.7883	3.2551	0.1	-353.07
638	4.2426	2.7334	0.1	-140.23
639	3.9283	3.0575	0.1	-701.14
640	3.8719	3.568	0.1	-155.51
641	4.3205	2.038	0.1	-116.49
642	3.9497	1.6225	0.1	-1748.7
643	1.59	4.1255	0.1	-323.34
644	2.1201	4.7799	0.1	231.14
645	2.7375	4.6858	0.1	-320.25
646	1.8591	2.6362	0.1	-566.78
647	2.3741	2.1888	0.1	382.5
648	2.8519	2.2612	0.1	659.05
649	2.4864	0.94895	0.1	-243.91
650	2.5221	1.5155	0.1	-18.371
651	2.9998	1.0879	0.1	-741.26
652	5.7381	4.4384	0.1	16.382
653	4.8433	4.4195	0.1	65.708
654	5.216	3.7684	0.1	143.4
655	4.2996	4.0812	0.1	-156.88
656	8.4305	3.5735	0.1	-14.589
657	7.8366	2.9609	0.1	-72.687
658	7.198	3.5239	0.1	21.498
659	7.8129	4.155	0.1	-4.2012
660	9.6599	3.6029	0.1	1.2091
661	9.077	2.9936	0.1	5.8021
662	9.0685	4.1869	0.1	11.59
663	10.848	3.6297	0.1	-1.7496
664	10.275	3.0175	0.1	-4.1196
665	10.262	4.2147	0.1	-4.2438
666	12.015	3.651	0.1	0.60159
667	11.445	3.0417	0.1	1.6658
668	11.439	4.2444	0.1	0.61708
669	13.164	3.6538	0.1	-0.17979
670	12.593	3.0603	0.1	2.4596e-002
671	12.595	4.2603	0.1	-0.64021
672	14.3	3.6291	0.1	-2.8556
673	13.73	3.0532	0.1	-3.3831e-002
674	13.745	4.2542	0.1	-0.60848
675	15.437	3.601	0.1	-9.7947
676	14.864	3.0078	0.1	-6.3594
677	14.874	4.2107	0.1	-7.1057
678	16.577	3.585	0.1	-16.087
679	16.009	2.9912	0.1	-12.303
680	16.014	4.1923	0.1	-12.673
681	17.715	3.5787	0.1	-22.767
682	17.15	2.9829	0.1	-18.31
683	17.148	4.1786	0.1	-17.98
684	18.854	3.5811	0.1	-31.842
685	18.288	2.9844	0.1	-25.687
686	18.287	4.1803	0.1	-24.259
687	19.994	3.5854	0.1	-45.751
688	19.428	2.9871	0.1	-36.496
689	19.426	4.1829	0.1	-33.235
690	21.134	3.5921	0.1	-67.705
691	20.567	2.9918	0.1	-53.52
692	20.566	4.189	0.1	-46.887
693	21.708	2.9979	0.1	-80.691
694	21.706	4.1989	0.1	-68.201
695	22.276	3.5982	0.1	-102.54
696	21.141	2.3975	0.1	-67.814
697	22.283	2.4007	0.1	-102.7
698	21.714	1.7959	0.1	-68.18
699	20.001	2.3935	0.1	-45.78
700	20.574	1.7934	0.1	-46.679
701	18.861	2.3904	0.1	-31.89
702	19.435	1.7916	0.1	-33.158
703	17.723	2.3886	0.1	-22.733
704	18.296	1.7901	0.1	-24.271
705	16.582	2.389	0.1	-15.933
706	17.158	1.7893	0.1	-18.028
707	15.436	2.398	0.1	-10.151
708	16.017	1.7911	0.1	-13.026
709	14.294	2.432	0.1	-3.505
710	14.871	1.8056	0.1	-8.3723
711	13.159	2.4597	0.1	8.8902e-002
712	13.735	1.8369	0.1	-1.8525
713	12.023	2.451	0.1	1.0586
714	12.602	1.8383	0.1	-0.26861
715	10.873	2.4296	0.1	-0.70355
716	11.46	1.8106	0.1	0.56287
717	9.6925	2.4083	0.1	0.47321
718	10.301	1.8152	0.1	-2.2268
719	8.4831	2.381	0.1	-52.651
720	9.119	1.8025	0.1	15.311
721	7.2261	2.3091	0.1	-28.567
722	7.9293	1.776	0.1	-68.742
723	6.5875	2.872	0.1	68.606
724	6.7316	1.6653	0.1	56.372
725	5.9204	2.4021	0.1	-165.27
726	6.4899	4.1021	0.1	-66.569
727	5.9679	3.4321	0.1	65.435
728	5.9124	4.9759	0.1	-116.69
729	4.9208	5.3492	0.1	-151.63
730	5.0176	4.957	0.1	60.561
731	5.6124	5.6187	0.1	-97.805
732	7.1048	4.7332	0.1	-87.097
733	6.653	5.3572	0.1	-48.07
734	8.4508	4.7683	0.1	22.039
735	7.9433	5.376	0.1	-7.5335
736	9.6708	4.7987	0.1	6.158
737	9.1376	5.3923	0.1	9.993
738	10.854	4.8294	0.1	-1.8933
739	10.302	5.4064	0.1	-2.2407
740	12.019	4.8538	0.1	-0.66562
741	11.459	5.423	0.1	0.50399
742	13.177	4.8607	0.1	-1.0268
743	12.605	5.4307	0.1	-2.9308
744	14.32	4.8358	0.1	-6.045
745	13.756	5.4299	0.1	-6.172
746	15.451	4.8021	0.1	-11.295
747	14.887	5.4059	0.1	-9.3604
748	16.585	4.7859	0.1	-15.98
749	16.025	5.3962	0.1	-12.561
750	17.72	4.7802	0.1	-21.001
751	17.16	5.3897	0.1	-15.01
752	18.858	4.7822	0.1	-27.309
753	18.298	5.3905	0.1	-18.243
754	19.998	4.7865	0.1	-36.121
755	19.437	5.3917	0.1	-22.134
756	21.138	4.7958	0.1	-49.108
757	20.576	5.3949	0.1	-27.83
758	22.282	4.8001	0.1	-70.669
759	21.716	5.4009	0.1	-35.078
760	22.852	4.1993	0.1	-103.63
761	22.858	5.3992	0.1	-47.85
762	23.428	4.7992	0.1	-114.13
763	22.851	3.001	0.1	-123.67
764	23.424	3.6001	0.1	-154.13
765	22.855	1.7999	0.1	-103.67
766	23.427	2.4009	0.1	-154.36
767	22.287	1.1951	0.1	-70.551
768	23.428	1.199	0.1	-114.19
769	22.859	0.599	0.1	-47.919
770	21.148	1.1918	0.1	-48.81
771	21.72	0.59609	0.1	-35.021
772	20.008	1.1915	0.1	-35.838
773	20.581	0.59574	0.1	-27.604
774	18.87	1.1913	0.1	-27.219
775	19.442	0.5958	0.1	-22.109
776	17.731	1.1909	0.1	-21.104
777	18.304	0.59551	0.1	-18.046
778	16.593	1.1914	0.1	-16.518
779	17.165	0.59534	0.1	-14.876
780	15.452	1.1987	0.1	-12.54
781	16.028	0.5961	0.1	-12.282
782	14.312	1.2104	0.1	-7.8496
783	14.886	0.60259	0.1	-9.8819
784	13.178	1.2155	0.1	-0.9528
785	13.749	0.60785	0.1	-6.5295
786	12.039	1.1979	0.1	-0.74361
787	12.614	0.60761	0.1	-1.3994
788	10.887	1.1962	0.1	-0.93724
789	11.471	0.5903	0.1	0.22569
790	9.7273	1.2093	0.1	12.626
791	10.324	0.60588	0.1	-1.4033
792	8.5651	1.1975	0.1	-0.97234
793	9.1722	0.60345	0.1	6.8791
794	7.4348	1.1323	0.1	16.056
795	8.0229	0.59403	0.1	-8.3479
796	6.3405	0.9556	0.1	24.088
797	6.9033	0.53826	0.1	0.29092
798	1.1997	3.3147	0.1	-1109.3
799	1.0331	4.4233	0.1	-1000.1
800	0.52249	3.7397	0.1	1345.8
801	1.3111	2.0351	0.1	-1081.6
802	1.7905	1.0212	0.1	-302.79
803	1.8261	1.5877	0.1	-60.778
804	0.63389	1.2601	0.1	1383.9
805	1.1906	0.66013	0.1	-676.6
806	0.67718	2.575	0.1	1315.1
807	5.3008	2.9622	0.1	-135.68
808	4.7551	2.4405	0.1	-174.13
809	5.2199	0.74112	0.1	-110.25
810	5.7901	0.41734	0.1	-9.9965
811	4.3058	5.255	0.1	-388.04
812	3.9535	5.4804	0.1	-114.98
813	4.5228	5.7304	0.1	-178.06
814	1.5632	5.0777	0.1	-431.76
815	0.51058	4.8837	0.1	1363.
816	1.0672	5.4837	0.1	-759.93
817	4.0749	0.57377	0.1	-116.59
818	4.6442	0.32377	0.1	-164.65
819	4.4027	4.8628	0.1	-211.93
820	4.0504	4.5882	0.1	-1556.8
821	3.8589	5.0246	0.1	-1136.8
822	2.7226	5.344	0.1	-64.741
823	2.1659	5.594	0.1	-82.599
824	2.8266	0.61103	0.1	46.54
825	2.2699	0.36103	0.1	-31.329
826	2.8622	1.6776	0.1	-1912.
827	3.8774	2.1655	0.1	214.93
828	3.4798	3.4895	0.1	648.91
829	3.5631	2.4895	0.1	-497.83
830	3.5067	4.25	0.1	-2467.7
831	3.4233	4.	0.1	1011.3
832	3.5067	4.	5.e-002	-66.247
833	3.5067	4.75	0.1	-3443.9
834	3.5067	4.5	5.e-002	-177.41
835	3.5067	5.25	0.1	-1433.2
836	3.5067	5.	5.e-002	-614.5
837	3.5067	5.75	0.1	-84.312
838	3.5067	5.5	5.e-002	-167.95
839	3.34	5.25	0.1	-1710.
840	3.34	5.75	0.1	-328.13
841	3.34	5.5	5.e-002	-112.69
842	3.34	4.75	0.1	-2889.6
843	3.34	5.	5.e-002	-240.92
844	3.34	4.25	0.1	83.781
845	3.34	4.5	5.e-002	-463.11
846	3.34	4.	5.e-002	-783.74
847	3.5067	1.75	0.1	-1053.7
848	3.4233	2.	0.1	559.6
849	3.5067	2.	5.e-002	-505.06
850	3.5067	1.25	0.1	-3078.3
851	3.5067	1.5	5.e-002	-323.41
852	3.5067	0.75	0.1	-854.87
853	3.5067	1.	5.e-002	-186.84
854	3.5067	0.25	0.1	-275.97
855	3.5067	0.5	5.e-002	-132.18
856	3.34	0.75	0.1	-1067.5
857	3.34	0.25	0.1	-381.06
858	3.34	0.5	5.e-002	-95.472
859	3.34	1.25	0.1	-3680.5
860	3.34	1.	5.e-002	-529.56
861	3.34	1.75	0.1	-1494.
862	3.34	1.5	5.e-002	-439.53
863	3.34	2.	5.e-002	-684.84
864	4.0759	6.	0.1	-79.069
865	3.5067	6.	5.e-002	-62.225
866	5.2144	6.	0.1	-27.208
867	4.6452	6.	5.e-002	-33.732
868	6.353	6.	0.1	15.899
869	5.7837	6.	5.e-002	-64.902
870	7.4915	6.	0.1	31.243
871	6.9222	6.	5.e-002	-64.608
872	8.63	6.	0.1	-73.631
873	8.0607	6.	5.e-002	-11.139
874	9.7685	6.	0.1	-2.3064
875	9.1993	6.	5.e-002	-11.714
876	10.907	6.	0.1	-10.308
877	10.338	6.	5.e-002	-17.072
878	12.046	6.	0.1	-5.8047
879	11.476	6.	5.e-002	-16.684
880	13.184	6.	0.1	-8.5724
881	12.615	6.	5.e-002	-17.143
882	14.323	6.	0.1	-9.6706
883	13.753	6.	5.e-002	-17.12
884	15.461	6.	0.1	-10.872
885	14.892	6.	5.e-002	-15.853
886	16.6	6.	0.1	-11.925
887	16.03	6.	5.e-002	-15.392
888	17.738	6.	0.1	-12.659
889	17.169	6.	5.e-002	-14.787
890	18.877	6.	0.1	-13.585
891	18.307	6.	5.e-002	-14.346
892	20.015	6.	0.1	-14.556
893	19.446	6.	5.e-002	-13.55
894	21.154	6.	0.1	-14.955
895	20.584	6.	5.e-002	-12.556
896	22.292	6.	0.1	-14.366
897	21.723	6.	5.e-002	-10.763
898	23.431	6.	0.1	-14.549
899	22.861	6.	5.e-002	-7.9369
900	24.	5.4	0.1	-76.574
901	24.	6.	5.e-002	-4.09
902	24.	4.2	0.1	-164.31
903	24.	4.8	5.e-002	-3.2938
904	24.	3.	0.1	-184.4
905	24.	3.6	5.e-002	-3.0358
906	24.	1.8	0.1	-164.46
907	24.	2.4	5.e-002	-3.0213
908	24.	0.6	0.1	-76.526
909	24.	1.2	5.e-002	-3.2491
910	0.	1.8	0.1	3731.9
911	0.	0.6	0.1	2390.7
912	0.	1.2	5.e-002	-173.73
913	0.	3.	0.1	3725.5
914	0.	2.4	5.e-002	-48.745
915	0.	4.2	0.1	3637.5
916	0.	3.6	5.e-002	-171.65
917	0.	5.4	0.1	2375.1
918	0.	4.8	5.e-002	-71.908
919	23.431	0.	0.1	-14.203
920	24.	0.	5.e-002	-4.0807
921	22.292	0.	0.1	-14.48
922	22.861	0.	5.e-002	-7.9621
923	21.154	0.	0.1	-14.942
924	21.723	0.	5.e-002	-10.71
925	20.015	0.	0.1	-14.547
926	20.584	0.	5.e-002	-12.707
927	18.877	0.	0.1	-13.408
928	19.446	0.	5.e-002	-13.778
929	17.738	0.	0.1	-12.198
930	18.307	0.	5.e-002	-14.569
931	16.6	0.	0.1	-10.977
932	17.169	0.	5.e-002	-15.198
933	15.461	0.	0.1	-9.9182
934	16.03	0.	5.e-002	-15.583
935	14.323	0.	0.1	-8.8343
936	14.892	0.	5.e-002	-15.88
937	13.184	0.	0.1	-7.6368
938	13.753	0.	5.e-002	-15.749
939	12.046	0.	0.1	-6.1489
940	12.615	0.	5.e-002	-16.175
941	10.907	0.	0.1	-7.3432
942	11.476	0.	5.e-002	-17.204
943	9.7685	0.	0.1	-12.225
944	10.338	0.	5.e-002	-16.371
945	8.63	0.	0.1	-20.189
946	9.1993	0.	5.e-002	-13.7
947	7.4915	0.	0.1	-12.665
948	8.0607	0.	5.e-002	-10.393
949	6.353	0.	0.1	-41.153
950	6.9222	0.	5.e-002	-21.592
951	5.2144	0.	0.1	-44.612
952	5.7837	0.	5.e-002	-17.48
953	4.0759	0.	0.1	-6.7622
954	4.6452	0.	5.e-002	-36.96
955	3.5067	0.	5.e-002	-12.456
956	2.7833	0.	0.1	-84.559
957	3.34	0.	5.e-002	-166.57
958	1.67	0.	0.1	-259.82
959	2.2267	0.	5.e-002	-144.54
960	0.55667	0.	0.1	331.97
961	1.1133	0.	5.e-002	-49.499
962	0.	0.	5.e-002	-367.63
963	0.55667	6.	0.1	284.
964	0.	6.	5.e-002	-306.72
965	1.67	6.	0.1	-321.63
966	1.1133	6.	5.e-002	-50.946
967	2.7833	6.	0.1	-25.69
968	2.2267	6.	5.e-002	-122.87
969	3.34	6.	5.e-002	-99.27
970	1.67	6.	0.	-5255.3
971	2.7833	6.	0.	-2086.
972	0.55667	6.	0.	-4342.1
973	3.34	5.75	0.	-934.96
974	0.	5.4	0.	-4955.8
975	1.67	0.	0.	-5186.4
976	0.55667	0.	0.	-4383.2
977	2.7833	0.	0.	-2387.8
978	3.34	0.25	0.	-817.62
979	0.	0.6	0.	-5000.3
980	5.2144	0.	0.	-3883.9
981	4.0759	0.	0.	-1620.3
982	6.353	0.	0.	-4198.1
983	7.4915	0.	0.	-3991.1
984	8.63	0.	0.	-3751.7
985	9.7685	0.	0.	-3445.7
986	10.907	0.	0.	-3134.9
987	12.046	0.	0.	-2822.6
988	13.184	0.	0.	-2516.1
989	14.323	0.	0.	-2218.6
990	15.461	0.	0.	-1929.9
991	16.6	0.	0.	-1648.6
992	17.738	0.	0.	-1374.6
993	18.877	0.	0.	-1108.
994	20.015	0.	0.	-848.16
995	21.154	0.	0.	-594.33
996	22.292	0.	0.	-344.14
997	23.431	0.	0.	-112.43
998	3.5067	0.25	0.	-784.91
999	24.	0.6	0.	-3.8414
1000	0.	4.2	0.	-7518.1
1001	0.	3.	0.	-7636.4
1002	0.	1.8	0.	-7666.8
1003	24.	1.8	0.	-2.9694
1004	24.	3.	0.	-3.2627
1005	24.	4.2	0.	-3.225
1006	24.	5.4	0.	-3.9845
1007	23.431	6.	0.	-112.82
1008	22.292	6.	0.	-344.63
1009	21.154	6.	0.	-594.76
1010	20.015	6.	0.	-848.57
1011	18.877	6.	0.	-1108.4
1012	17.738	6.	0.	-1374.7
1013	16.6	6.	0.	-1648.
1014	15.461	6.	0.	-1928.4
1015	14.323	6.	0.	-2217.8
1016	13.184	6.	0.	-2516.
1017	12.046	6.	0.	-2823.8
1018	10.907	6.	0.	-3136.9
1019	9.7685	6.	0.	-3458.4
1020	8.63	6.	0.	-3739.
1021	7.4915	6.	0.	-4047.
1022	6.353	6.	0.	-4341.4
1023	5.2144	6.	0.	-3941.3
1024	4.0759	6.	0.	-2057.5
1025	3.5067	5.75	0.	-517.47
1026	3.34	1.25	0.	-4290.4
1027	3.34	1.75	0.	-10874
1028	3.34	0.75	0.	-2512.3
1029	3.4233	2.	0.	-18130
1030	3.5067	0.75	0.	-2263.8
1031	3.5067	1.25	0.	-3785.4
1032	3.5067	1.75	0.	-10449
1033	3.34	4.75	0.	-6073.2
1034	3.34	4.25	0.	-14005
1035	3.34	5.25	0.	-3175.7
1036	3.4233	4.	0.	-16926
1037	3.5067	5.25	0.	-1823.8
1038	3.5067	4.75	0.	-2650.7
1039	3.5067	4.25	0.	-7862.
