Node Number	X Location (in)	Y Location (in)	Z Location (in)	Equivalent (von-Mises) Stress (psi)
1	10.2	2.1818	0.	12532
2	10.2	2.3636	0.	9925.4
3	10.2	2.5455	0.	8758.
4	10.2	2.7273	0.	8153.3
5	10.2	2.9091	0.	7895.1
6	10.2	3.0909	0.	7895.1
7	10.2	3.2727	0.	8153.3
8	10.2	3.4545	0.	8758.
9	10.2	3.6364	0.	9925.4
10	10.2	3.8182	0.	12532
11	10.367	2.1818	0.	12373
12	10.367	2.3636	0.	9871.1
13	10.367	2.5455	0.	8697.2
14	10.367	2.7273	0.	8092.
15	10.367	2.9091	0.	7833.
16	10.367	3.0909	0.	7833.
17	10.367	3.2727	0.	8092.
18	10.367	3.4545	0.	8697.2
19	10.367	3.6364	0.	9871.1
20	10.367	3.8182	0.	12373
21	10.018	5.8182	0.	703.29
22	10.018	5.6364	0.	1033.9
23	10.018	5.4545	0.	1451.9
24	10.018	5.2727	0.	1923.2
25	10.018	5.0909	0.	2459.
26	10.018	4.9091	0.	3085.8
27	10.018	4.7273	0.	3851.4
28	10.018	4.5455	0.	4841.1
29	10.018	4.3636	0.	6250.4
30	10.018	4.1818	0.	8332.8
31	10.018	4.	0.	9894.5
32	10.018	3.8182	0.	9342.8
33	10.018	3.6364	0.	8758.
34	10.018	3.4545	0.	8134.9
35	10.018	3.2727	0.	7772.5
36	10.018	3.0909	0.	7600.3
37	10.018	2.9091	0.	7600.3
38	10.018	2.7273	0.	7772.5
39	10.018	2.5455	0.	8134.9
40	10.018	2.3636	0.	8758.
41	10.018	2.1818	0.	9342.8
42	10.018	2.	0.	9894.5
43	10.018	1.8182	0.	8332.8
44	10.018	1.6364	0.	6250.4
45	10.018	1.4545	0.	4841.1
46	10.018	1.2727	0.	3851.4
47	10.018	1.0909	0.	3085.8
48	10.018	0.90909	0.	2459.
49	10.018	0.72727	0.	1923.2
50	10.018	0.54545	0.	1451.9
51	10.018	0.36364	0.	1033.9
52	10.018	0.18182	0.	703.29
53	9.8357	5.8182	0.	1075.4
54	9.8357	5.6364	0.	1255.
55	9.8357	5.4545	0.	1553.7
56	9.8357	5.2727	0.	1932.2
57	9.8357	5.0909	0.	2382.1
58	9.8357	4.9091	0.	2911.6
59	9.8357	4.7273	0.	3543.2
60	9.8357	4.5455	0.	4293.1
61	9.8357	4.3636	0.	5190.
62	9.8357	4.1818	0.	6112.3
63	9.8357	4.	0.	6698.4
64	9.8357	3.8182	0.	7132.1
65	9.8357	3.6364	0.	7257.
66	9.8357	3.4545	0.	7213.1
67	9.8357	3.2727	0.	7116.2
68	9.8357	3.0909	0.	7055.9
69	9.8357	2.9091	0.	7055.9
70	9.8357	2.7273	0.	7116.2
71	9.8357	2.5455	0.	7213.1
72	9.8357	2.3636	0.	7257.
73	9.8357	2.1818	0.	7132.1
74	9.8357	2.	0.	6698.4
75	9.8357	1.8182	0.	6112.3
76	9.8357	1.6364	0.	5190.
77	9.8357	1.4545	0.	4293.1
78	9.8357	1.2727	0.	3543.2
79	9.8357	1.0909	0.	2911.6
80	9.8357	0.90909	0.	2382.1
81	9.8357	0.72727	0.	1932.2
82	9.8357	0.54545	0.	1553.7
83	9.8357	0.36364	0.	1255.
84	9.8357	0.18182	0.	1075.4
85	9.6536	5.8182	0.	1477.7
86	9.6536	5.6364	0.	1612.1
87	9.6536	5.4545	0.	1840.3
88	9.6536	5.2727	0.	2147.
89	9.6536	5.0909	0.	2524.1
90	9.6536	4.9091	0.	2969.3
91	9.6536	4.7273	0.	3481.4
92	9.6536	4.5455	0.	4055.2
93	9.6536	4.3636	0.	4644.1
94	9.6536	4.1818	0.	5185.
95	9.6536	4.	0.	5628.1
96	9.6536	3.8182	0.	5970.7
97	9.6536	3.6364	0.	6230.7
98	9.6536	3.4545	0.	6366.7
99	9.6536	3.2727	0.	6420.2
100	9.6536	3.0909	0.	6434.9
101	9.6536	2.9091	0.	6434.9
102	9.6536	2.7273	0.	6420.2
103	9.6536	2.5455	0.	6366.7
104	9.6536	2.3636	0.	6230.7
105	9.6536	2.1818	0.	5970.7
106	9.6536	2.	0.	5628.1
107	9.6536	1.8182	0.	5185.
108	9.6536	1.6364	0.	4644.1
109	9.6536	1.4545	0.	4055.2
110	9.6536	1.2727	0.	3481.4
111	9.6536	1.0909	0.	2969.3
112	9.6536	0.90909	0.	2524.1
113	9.6536	0.72727	0.	2147.
114	9.6536	0.54545	0.	1840.3
115	9.6536	0.36364	0.	1612.1
116	9.6536	0.18182	0.	1477.7
117	9.4714	5.8182	0.	1853.
118	9.4714	5.6364	0.	1971.1
119	9.4714	5.4545	0.	2157.1
120	9.4714	5.2727	0.	2406.5
121	9.4714	5.0909	0.	2714.8
122	9.4714	4.9091	0.	3075.7
123	9.4714	4.7273	0.	3479.3
124	9.4714	4.5455	0.	3907.4
125	9.4714	4.3636	0.	4331.2
126	9.4714	4.1818	0.	4712.6
127	9.4714	4.	0.	5042.3
128	9.4714	3.8182	0.	5322.6
129	9.4714	3.6364	0.	5549.9
130	9.4714	3.4545	0.	5715.7
131	9.4714	3.2727	0.	5815.4
132	9.4714	3.0909	0.	5860.4
133	9.4714	2.9091	0.	5860.4
134	9.4714	2.7273	0.	5815.4
135	9.4714	2.5455	0.	5715.7
136	9.4714	2.3636	0.	5549.9
137	9.4714	2.1818	0.	5322.6
138	9.4714	2.	0.	5042.3
139	9.4714	1.8182	0.	4712.6
140	9.4714	1.6364	0.	4331.2
141	9.4714	1.4545	0.	3907.4
142	9.4714	1.2727	0.	3479.3
143	9.4714	1.0909	0.	3075.7
144	9.4714	0.90909	0.	2714.8
145	9.4714	0.72727	0.	2406.5
146	9.4714	0.54545	0.	2157.1
147	9.4714	0.36364	0.	1971.1
148	9.4714	0.18182	0.	1853.
149	9.2893	5.8182	0.	2192.
150	9.2893	5.6364	0.	2300.9
151	9.2893	5.4545	0.	2458.1
152	9.2893	5.2727	0.	2662.5
153	9.2893	5.0909	0.	2911.5
154	9.2893	4.9091	0.	3198.
155	9.2893	4.7273	0.	3510.8
156	9.2893	4.5455	0.	3833.4
157	9.2893	4.3636	0.	4145.1
158	9.2893	4.1818	0.	4430.
159	9.2893	4.	0.	4681.5
160	9.2893	3.8182	0.	4901.9
161	9.2893	3.6364	0.	5089.9
162	9.2893	3.4545	0.	5236.8
163	9.2893	3.2727	0.	5335.7
164	9.2893	3.0909	0.	5384.6
165	9.2893	2.9091	0.	5384.6
166	9.2893	2.7273	0.	5335.7
167	9.2893	2.5455	0.	5236.8
168	9.2893	2.3636	0.	5089.9
169	9.2893	2.1818	0.	4901.9
170	9.2893	2.	0.	4681.5
171	9.2893	1.8182	0.	4430.
172	9.2893	1.6364	0.	4145.1
173	9.2893	1.4545	0.	3833.4
174	9.2893	1.2727	0.	3510.8
175	9.2893	1.0909	0.	3198.
176	9.2893	0.90909	0.	2911.5
177	9.2893	0.72727	0.	2662.5
178	9.2893	0.54545	0.	2458.1
179	9.2893	0.36364	0.	2300.9
180	9.2893	0.18182	0.	2192.
181	9.1071	5.8182	0.	2493.3
182	9.1071	5.6364	0.	2593.6
183	9.1071	5.4545	0.	2727.8
184	9.1071	5.2727	0.	2895.9
185	9.1071	5.0909	0.	3095.6
186	9.1071	4.9091	0.	3320.8
187	9.1071	4.7273	0.	3561.8
188	9.1071	4.5455	0.	3806.2
189	9.1071	4.3636	0.	4041.2
190	9.1071	4.1818	0.	4257.2
191	9.1071	4.	0.	4451.
192	9.1071	3.8182	0.	4622.5
193	9.1071	3.6364	0.	4770.1
194	9.1071	3.4545	0.	4888.6
195	9.1071	3.2727	0.	4971.5
196	9.1071	3.0909	0.	5013.9
197	9.1071	2.9091	0.	5013.9
198	9.1071	2.7273	0.	4971.5
199	9.1071	2.5455	0.	4888.6
200	9.1071	2.3636	0.	4770.1
201	9.1071	2.1818	0.	4622.5
202	9.1071	2.	0.	4451.
203	9.1071	1.8182	0.	4257.2
204	9.1071	1.6364	0.	4041.2
205	9.1071	1.4545	0.	3806.2
206	9.1071	1.2727	0.	3561.8
207	9.1071	1.0909	0.	3320.8
208	9.1071	0.90909	0.	3095.6
209	9.1071	0.72727	0.	2895.9
210	9.1071	0.54545	0.	2727.8
211	9.1071	0.36364	0.	2593.6
212	9.1071	0.18182	0.	2493.3
213	8.925	5.8182	0.	2758.
214	8.925	5.6364	0.	2848.7
215	8.925	5.4545	0.	2963.
216	8.925	5.2727	0.	3100.9
217	8.925	5.0909	0.	3260.4
218	8.925	4.9091	0.	3436.6
219	8.925	4.7273	0.	3622.
220	8.925	4.5455	0.	3807.9
221	8.925	4.3636	0.	3986.2
222	8.925	4.1818	0.	4151.
223	8.925	4.	0.	4299.8
224	8.925	3.8182	0.	4431.8
225	8.925	3.6364	0.	4545.5
226	8.925	3.4545	0.	4637.1
227	8.925	3.2727	0.	4701.9
228	8.925	3.0909	0.	4735.4
229	8.925	2.9091	0.	4735.4
230	8.925	2.7273	0.	4701.9
231	8.925	2.5455	0.	4637.1
232	8.925	2.3636	0.	4545.5
233	8.925	2.1818	0.	4431.8
234	8.925	2.	0.	4299.8
235	8.925	1.8182	0.	4151.
236	8.925	1.6364	0.	3986.2
237	8.925	1.4545	0.	3807.9
238	8.925	1.2727	0.	3622.
239	8.925	1.0909	0.	3436.6
240	8.925	0.90909	0.	3260.4
241	8.925	0.72727	0.	3100.9
242	8.925	0.54545	0.	2963.
243	8.925	0.36364	0.	2848.7
244	8.925	0.18182	0.	2758.
245	8.7429	5.8182	0.	2988.8
246	8.7429	5.6364	0.	3069.1
247	8.7429	5.4545	0.	3165.7
248	8.7429	5.2727	0.	3278.3
249	8.7429	5.0909	0.	3405.2
250	8.7429	4.9091	0.	3542.6
251	8.7429	4.7273	0.	3685.1
252	8.7429	4.5455	0.	3826.8
253	8.7429	4.3636	0.	3962.3
254	8.7429	4.1818	0.	4087.9
255	8.7429	4.	0.	4201.4
256	8.7429	3.8182	0.	4302.
257	8.7429	3.6364	0.	4388.2
258	8.7429	3.4545	0.	4457.4
259	8.7429	3.2727	0.	4506.2
260	8.7429	3.0909	0.	4531.5
261	8.7429	2.9091	0.	4531.5
262	8.7429	2.7273	0.	4506.2
263	8.7429	2.5455	0.	4457.4
264	8.7429	2.3636	0.	4388.2
265	8.7429	2.1818	0.	4302.
266	8.7429	2.	0.	4201.4
267	8.7429	1.8182	0.	4087.9
268	8.7429	1.6364	0.	3962.3
269	8.7429	1.4545	0.	3826.8
270	8.7429	1.2727	0.	3685.1
271	8.7429	1.0909	0.	3542.6
272	8.7429	0.90909	0.	3405.2
273	8.7429	0.72727	0.	3278.3
274	8.7429	0.54545	0.	3165.7
275	8.7429	0.36364	0.	3069.1
276	8.7429	0.18182	0.	2988.8
277	8.5607	5.8182	0.	3189.5
278	8.5607	5.6364	0.	3259.1
279	8.5607	5.4545	0.	3339.8
280	8.5607	5.2727	0.	3431.1
281	8.5607	5.0909	0.	3531.6
282	8.5607	4.9091	0.	3638.5
283	8.5607	4.7273	0.	3747.9
284	8.5607	4.5455	0.	3855.7
285	8.5607	4.3636	0.	3958.5
286	8.5607	4.1818	0.	4053.7
287	8.5607	4.	0.	4139.7
288	8.5607	3.8182	0.	4215.5
289	8.5607	3.6364	0.	4280.
290	8.5607	3.4545	0.	4331.4
291	8.5607	3.2727	0.	4367.4
292	8.5607	3.0909	0.	4386.
293	8.5607	2.9091	0.	4386.
294	8.5607	2.7273	0.	4367.4
295	8.5607	2.5455	0.	4331.4
296	8.5607	2.3636	0.	4280.
297	8.5607	2.1818	0.	4215.5
298	8.5607	2.	0.	4139.7
299	8.5607	1.8182	0.	4053.7
300	8.5607	1.6364	0.	3958.5
301	8.5607	1.4545	0.	3855.7
302	8.5607	1.2727	0.	3747.9
303	8.5607	1.0909	0.	3638.5
304	8.5607	0.90909	0.	3531.6
305	8.5607	0.72727	0.	3431.1
306	8.5607	0.54545	0.	3339.8
307	8.5607	0.36364	0.	3259.1
308	8.5607	0.18182	0.	3189.5
309	8.3786	5.8182	0.	3364.2
310	8.3786	5.6364	0.	3423.3
311	8.3786	5.4545	0.	3489.8
312	8.3786	5.2727	0.	3563.3
313	8.3786	5.0909	0.	3642.5
314	8.3786	4.9091	0.	3725.2
315	8.3786	4.7273	0.	3808.8
316	8.3786	4.5455	0.	3890.6
317	8.3786	4.3636	0.	3968.1
318	8.3786	4.1818	0.	4039.7
319	8.3786	4.	0.	4104.1
320	8.3786	3.8182	0.	4160.6
321	8.3786	3.6364	0.	4208.2
322	8.3786	3.4545	0.	4245.8
323	8.3786	3.2727	0.	4272.
324	8.3786	3.0909	0.	4285.5
325	8.3786	2.9091	0.	4285.5
326	8.3786	2.7273	0.	4272.
327	8.3786	2.5455	0.	4245.8
328	8.3786	2.3636	0.	4208.2
329	8.3786	2.1818	0.	4160.6
330	8.3786	2.	0.	4104.1
331	8.3786	1.8182	0.	4039.7
332	8.3786	1.6364	0.	3968.1
333	8.3786	1.4545	0.	3890.6
334	8.3786	1.2727	0.	3808.8
335	8.3786	1.0909	0.	3725.2
336	8.3786	0.90909	0.	3642.5
337	8.3786	0.72727	0.	3563.3
338	8.3786	0.54545	0.	3489.8
339	8.3786	0.36364	0.	3423.3
340	8.3786	0.18182	0.	3364.2
341	8.1964	5.8182	0.	3516.7
342	8.1964	5.6364	0.	3565.9
343	8.1964	5.4545	0.	3620.
344	8.1964	5.2727	0.	3678.5
345	8.1964	5.0909	0.	3740.4
346	8.1964	4.9091	0.	3804.
347	8.1964	4.7273	0.	3867.5
348	8.1964	4.5455	0.	3929.
349	8.1964	4.3636	0.	3987.
350	8.1964	4.1818	0.	4040.2
351	8.1964	4.	0.	4087.8
352	8.1964	3.8182	0.	4129.3
353	8.1964	3.6364	0.	4163.9
354	8.1964	3.4545	0.	4191.
355	8.1964	3.2727	0.	4209.8
356	8.1964	3.0909	0.	4219.4
357	8.1964	2.9091	0.	4219.4
358	8.1964	2.7273	0.	4209.8
359	8.1964	2.5455	0.	4191.
360	8.1964	2.3636	0.	4163.9
361	8.1964	2.1818	0.	4129.3
362	8.1964	2.	0.	4087.8
363	8.1964	1.8182	0.	4040.2
364	8.1964	1.6364	0.	3987.
365	8.1964	1.4545	0.	3929.
366	8.1964	1.2727	0.	3867.5
367	8.1964	1.0909	0.	3804.
368	8.1964	0.90909	0.	3740.4
369	8.1964	0.72727	0.	3678.5
370	8.1964	0.54545	0.	3620.
371	8.1964	0.36364	0.	3565.9
372	8.1964	0.18182	0.	3516.7
373	8.0143	5.8182	0.	3650.8
374	8.0143	5.6364	0.	3690.8
375	8.0143	5.4545	0.	3734.1
376	8.0143	5.2727	0.	3780.1
377	8.0143	5.0909	0.	3827.9
378	8.0143	4.9091	0.	3876.3
379	8.0143	4.7273	0.	3924.
380	8.0143	4.5455	0.	3969.7
381	8.0143	4.3636	0.	4012.4
382	8.0143	4.1818	0.	4051.4
383	8.0143	4.	0.	4086.
384	8.0143	3.8182	0.	4115.8
385	8.0143	3.6364	0.	4140.5
386	8.0143	3.4545	0.	4159.7
387	8.0143	3.2727	0.	4172.8
388	8.0143	3.0909	0.	4179.5
389	8.0143	2.9091	0.	4179.5
390	8.0143	2.7273	0.	4172.8
391	8.0143	2.5455	0.	4159.7
392	8.0143	2.3636	0.	4140.5
393	8.0143	2.1818	0.	4115.8
394	8.0143	2.	0.	4086.
395	8.0143	1.8182	0.	4051.4
396	8.0143	1.6364	0.	4012.4
397	8.0143	1.4545	0.	3969.7
398	8.0143	1.2727	0.	3924.
399	8.0143	1.0909	0.	3876.3
400	8.0143	0.90909	0.	3827.9
401	8.0143	0.72727	0.	3780.1
402	8.0143	0.54545	0.	3734.1
403	8.0143	0.36364	0.	3690.8
404	8.0143	0.18182	0.	3650.8
405	7.8321	5.8182	0.	3769.6
406	7.8321	5.6364	0.	3801.4
407	7.8321	5.4545	0.	3835.3
408	7.8321	5.2727	0.	3870.8
409	7.8321	5.0909	0.	3907.1
410	7.8321	4.9091	0.	3943.3
411	7.8321	4.7273	0.	3978.5
412	7.8321	4.5455	0.	4011.9
413	7.8321	4.3636	0.	4042.7
414	7.8321	4.1818	0.	4070.5
415	7.8321	4.	0.	4095.
416	7.8321	3.8182	0.	4116.
417	7.8321	3.6364	0.	4133.1
418	7.8321	3.4545	0.	4146.3
419	7.8321	3.2727	0.	4155.2
420	7.8321	3.0909	0.	4159.8
421	7.8321	2.9091	0.	4159.8
422	7.8321	2.7273	0.	4155.2
423	7.8321	2.5455	0.	4146.3
424	7.8321	2.3636	0.	4133.1
425	7.8321	2.1818	0.	4116.
426	7.8321	2.	0.	4095.
427	7.8321	1.8182	0.	4070.5
428	7.8321	1.6364	0.	4042.7
429	7.8321	1.4545	0.	4011.9
430	7.8321	1.2727	0.	3978.5
431	7.8321	1.0909	0.	3943.3
432	7.8321	0.90909	0.	3907.1
433	7.8321	0.72727	0.	3870.8
434	7.8321	0.54545	0.	3835.3
435	7.8321	0.36364	0.	3801.4
436	7.8321	0.18182	0.	3769.6
437	7.65	5.8182	0.	3876.
438	7.65	5.6364	0.	3900.4
439	7.65	5.4545	0.	3926.2
440	7.65	5.2727	0.	3952.9
441	7.65	5.0909	0.	3979.8
442	7.65	4.9091	0.	4006.2
443	7.65	4.7273	0.	4031.4
444	7.65	4.5455	0.	4055.1
445	7.65	4.3636	0.	4076.6
446	7.65	4.1818	0.	4095.8
447	7.65	4.	0.	4112.5
448	7.65	3.8182	0.	4126.6
449	7.65	3.6364	0.	4138.
450	7.65	3.4545	0.	4146.6
451	7.65	3.2727	0.	4152.4
452	7.65	3.0909	0.	4155.4
453	7.65	2.9091	0.	4155.4
454	7.65	2.7273	0.	4152.4
455	7.65	2.5455	0.	4146.6
456	7.65	2.3636	0.	4138.
457	7.65	2.1818	0.	4126.6
458	7.65	2.	0.	4112.5
459	7.65	1.8182	0.	4095.8
460	7.65	1.6364	0.	4076.6
461	7.65	1.4545	0.	4055.1
462	7.65	1.2727	0.	4031.4
463	7.65	1.0909	0.	4006.2
464	7.65	0.90909	0.	3979.8
465	7.65	0.72727	0.	3952.9
466	7.65	0.54545	0.	3926.2
467	7.65	0.36364	0.	3900.4
468	7.65	0.18182	0.	3876.
469	7.4679	5.8182	0.	3972.3
470	7.4679	5.6364	0.	3990.2
471	7.4679	5.4545	0.	4009.1
472	7.4679	5.2727	0.	4028.3
473	7.4679	5.0909	0.	4047.4
474	7.4679	4.9091	0.	4065.8
475	7.4679	4.7273	0.	4083.2
476	7.4679	4.5455	0.	4099.1
477	7.4679	4.3636	0.	4113.4
478	7.4679	4.1818	0.	4125.8
479	7.4679	4.	0.	4136.4
480	7.4679	3.8182	0.	4145.2
481	7.4679	3.6364	0.	4152.2
482	7.4679	3.4545	0.	4157.4
483	7.4679	3.2727	0.	4160.9
484	7.4679	3.0909	0.	4162.7
485	7.4679	2.9091	0.	4162.7
486	7.4679	2.7273	0.	4160.9
487	7.4679	2.5455	0.	4157.4
488	7.4679	2.3636	0.	4152.2
489	7.4679	2.1818	0.	4145.2
490	7.4679	2.	0.	4136.4
491	7.4679	1.8182	0.	4125.8
492	7.4679	1.6364	0.	4113.4
493	7.4679	1.4545	0.	4099.1
494	7.4679	1.2727	0.	4083.2
495	7.4679	1.0909	0.	4065.8
496	7.4679	0.90909	0.	4047.4
497	7.4679	0.72727	0.	4028.3
498	7.4679	0.54545	0.	4009.1
499	7.4679	0.36364	0.	3990.2
500	7.4679	0.18182	0.	3972.3
501	7.2857	5.8182	0.	4060.6
502	7.2857	5.6364	0.	4072.7
503	7.2857	5.4545	0.	4085.6
504	7.2857	5.2727	0.	4098.5
505	7.2857	5.0909	0.	4111.2
506	7.2857	4.9091	0.	4123.1
507	7.2857	4.7273	0.	4134.
508	7.2857	4.5455	0.	4143.8
509	7.2857	4.3636	0.	4152.3
510	7.2857	4.1818	0.	4159.4
511	7.2857	4.	0.	4165.3
512	7.2857	3.8182	0.	4170.
513	7.2857	3.6364	0.	4173.6
514	7.2857	3.4545	0.	4176.3
515	7.2857	3.2727	0.	4178.
516	7.2857	3.0909	0.	4178.8
517	7.2857	2.9091	0.	4178.8
518	7.2857	2.7273	0.	4178.
519	7.2857	2.5455	0.	4176.3
520	7.2857	2.3636	0.	4173.6
521	7.2857	2.1818	0.	4170.
522	7.2857	2.	0.	4165.3
523	7.2857	1.8182	0.	4159.4
524	7.2857	1.6364	0.	4152.3
525	7.2857	1.4545	0.	4143.8
526	7.2857	1.2727	0.	4134.
527	7.2857	1.0909	0.	4123.1
528	7.2857	0.90909	0.	4111.2
529	7.2857	0.72727	0.	4098.5
530	7.2857	0.54545	0.	4085.6
531	7.2857	0.36364	0.	4072.7
532	7.2857	0.18182	0.	4060.6
533	7.1036	5.8182	0.	4142.4
534	7.1036	5.6364	0.	4149.5
535	7.1036	5.4545	0.	4157.1
536	7.1036	5.2727	0.	4164.7
537	7.1036	5.0909	0.	4171.9
538	7.1036	4.9091	0.	4178.5
539	7.1036	4.7273	0.	4184.2
540	7.1036	4.5455	0.	4189.
541	7.1036	4.3636	0.	4192.9
542	7.1036	4.1818	0.	4195.9
543	7.1036	4.	0.	4198.
544	7.1036	3.8182	0.	4199.6
545	7.1036	3.6364	0.	4200.6
546	7.1036	3.4545	0.	4201.2
547	7.1036	3.2727	0.	4201.6
548	7.1036	3.0909	0.	4201.8
549	7.1036	2.9091	0.	4201.8
550	7.1036	2.7273	0.	4201.6
551	7.1036	2.5455	0.	4201.2
552	7.1036	2.3636	0.	4200.6
553	7.1036	2.1818	0.	4199.6
554	7.1036	2.	0.	4198.
555	7.1036	1.8182	0.	4195.9
556	7.1036	1.6364	0.	4192.9
557	7.1036	1.4545	0.	4189.
558	7.1036	1.2727	0.	4184.2
559	7.1036	1.0909	0.	4178.5
560	7.1036	0.90909	0.	4171.9
561	7.1036	0.72727	0.	4164.7
562	7.1036	0.54545	0.	4157.1
563	7.1036	0.36364	0.	4149.5
564	7.1036	0.18182	0.	4142.4
565	6.9214	5.8182	0.	4219.1
566	6.9214	5.6364	0.	4221.8
567	6.9214	5.4545	0.	4224.8
568	6.9214	5.2727	0.	4227.8
569	6.9214	5.0909	0.	4230.4
570	6.9214	4.9091	0.	4232.5
571	6.9214	4.7273	0.	4233.9
572	6.9214	4.5455	0.	4234.7
573	6.9214	4.3636	0.	4234.8
574	6.9214	4.1818	0.	4234.4
575	6.9214	4.	0.	4233.7
576	6.9214	3.8182	0.	4232.7
577	6.9214	3.6364	0.	4231.7
578	6.9214	3.4545	0.	4230.8
579	6.9214	3.2727	0.	4230.1
580	6.9214	3.0909	0.	4229.7
581	6.9214	2.9091	0.	4229.7
582	6.9214	2.7273	0.	4230.1
583	6.9214	2.5455	0.	4230.8
584	6.9214	2.3636	0.	4231.7
585	6.9214	2.1818	0.	4232.7
586	6.9214	2.	0.	4233.7
587	6.9214	1.8182	0.	4234.4
588	6.9214	1.6364	0.	4234.8
589	6.9214	1.4545	0.	4234.7
590	6.9214	1.2727	0.	4233.9
591	6.9214	1.0909	0.	4232.5
592	6.9214	0.90909	0.	4230.4
593	6.9214	0.72727	0.	4227.8
594	6.9214	0.54545	0.	4224.8
595	6.9214	0.36364	0.	4221.8
596	6.9214	0.18182	0.	4219.1
597	6.7393	5.8182	0.	4291.9
598	6.7393	5.6364	0.	4290.5
599	6.7393	5.4545	0.	4289.6
600	6.7393	5.2727	0.	4288.5
601	6.7393	5.0909	0.	4287.2
602	6.7393	4.9091	0.	4285.5
603	6.7393	4.7273	0.	4283.3
604	6.7393	4.5455	0.	4280.7
605	6.7393	4.3636	0.	4277.7
606	6.7393	4.1818	0.	4274.6
607	6.7393	4.	0.	4271.5
608	6.7393	3.8182	0.	4268.5
609	6.7393	3.6364	0.	4265.9
610	6.7393	3.4545	0.	4263.8
611	6.7393	3.2727	0.	4262.3
612	6.7393	3.0909	0.	4261.5
613	6.7393	2.9091	0.	4261.5
614	6.7393	2.7273	0.	4262.3
615	6.7393	2.5455	0.	4263.8
616	6.7393	2.3636	0.	4265.9
617	6.7393	2.1818	0.	4268.5
618	6.7393	2.	0.	4271.5
619	6.7393	1.8182	0.	4274.6
620	6.7393	1.6364	0.	4277.7
621	6.7393	1.4545	0.	4280.7
622	6.7393	1.2727	0.	4283.3
623	6.7393	1.0909	0.	4285.5
624	6.7393	0.90909	0.	4287.2
625	6.7393	0.72727	0.	4288.5
626	6.7393	0.54545	0.	4289.6
627	6.7393	0.36364	0.	4290.5
628	6.7393	0.18182	0.	4291.9
629	6.5571	5.8182	0.	4361.6
630	6.5571	5.6364	0.	4356.7
631	6.5571	5.4545	0.	4352.1
632	6.5571	5.2727	0.	4347.5
633	6.5571	5.0909	0.	4342.7
634	6.5571	4.9091	0.	4337.7
635	6.5571	4.7273	0.	4332.4
636	6.5571	4.5455	0.	4327.
637	6.5571	4.3636	0.	4321.5
638	6.5571	4.1818	0.	4316.1
639	6.5571	4.	0.	4311.
640	6.5571	3.8182	0.	4306.3
641	6.5571	3.6364	0.	4302.4
642	6.5571	3.4545	0.	4299.3
643	6.5571	3.2727	0.	4297.1
644	6.5571	3.0909	0.	4296.
645	6.5571	2.9091	0.	4296.
646	6.5571	2.7273	0.	4297.1
647	6.5571	2.5455	0.	4299.3
648	6.5571	2.3636	0.	4302.4
649	6.5571	2.1818	0.	4306.3
650	6.5571	2.	0.	4311.
651	6.5571	1.8182	0.	4316.1
652	6.5571	1.6364	0.	4321.5
653	6.5571	1.4545	0.	4327.
654	6.5571	1.2727	0.	4332.4
655	6.5571	1.0909	0.	4337.7
656	6.5571	0.90909	0.	4342.7
657	6.5571	0.72727	0.	4347.5
658	6.5571	0.54545	0.	4352.1
659	6.5571	0.36364	0.	4356.7
660	6.5571	0.18182	0.	4361.6
661	6.375	5.8182	0.	4428.9
662	6.375	5.6364	0.	4420.7
663	6.375	5.4545	0.	4412.9
664	6.375	5.2727	0.	4405.2
665	6.375	5.0909	0.	4397.3
666	6.375	4.9091	0.	4389.4
667	6.375	4.7273	0.	4381.4
668	6.375	4.5455	0.	4373.5
669	6.375	4.3636	0.	4365.7
670	6.375	4.1818	0.	4358.4
671	6.375	4.	0.	4351.6
672	6.375	3.8182	0.	4345.6
673	6.375	3.6364	0.	4340.5
674	6.375	3.4545	0.	4336.6
675	6.375	3.2727	0.	4333.9
676	6.375	3.0909	0.	4332.5
677	6.375	2.9091	0.	4332.5
678	6.375	2.7273	0.	4333.9
679	6.375	2.5455	0.	4336.6
680	6.375	2.3636	0.	4340.5
681	6.375	2.1818	0.	4345.6
682	6.375	2.	0.	4351.6
683	6.375	1.8182	0.	4358.4
684	6.375	1.6364	0.	4365.7
685	6.375	1.4545	0.	4373.5
686	6.375	1.2727	0.	4381.4
687	6.375	1.0909	0.	4389.4
688	6.375	0.90909	0.	4397.3
689	6.375	0.72727	0.	4405.2
690	6.375	0.54545	0.	4412.9
691	6.375	0.36364	0.	4420.7
692	6.375	0.18182	0.	4428.9
693	6.1929	5.8182	0.	4494.5
694	6.1929	5.6364	0.	4483.3
695	6.1929	5.4545	0.	4472.5
696	6.1929	5.2727	0.	4461.9
697	6.1929	5.0909	0.	4451.2
698	6.1929	4.9091	0.	4440.6
699	6.1929	4.7273	0.	4430.2
700	6.1929	4.5455	0.	4420.1
701	6.1929	4.3636	0.	4410.4
702	6.1929	4.1818	0.	4401.3
703	6.1929	4.	0.	4393.1
704	6.1929	3.8182	0.	4385.8
705	6.1929	3.6364	0.	4379.8
706	6.1929	3.4545	0.	4375.1
707	6.1929	3.2727	0.	4372.
708	6.1929	3.0909	0.	4370.3
709	6.1929	2.9091	0.	4370.3
710	6.1929	2.7273	0.	4372.
711	6.1929	2.5455	0.	4375.1
712	6.1929	2.3636	0.	4379.8
713	6.1929	2.1818	0.	4385.8
714	6.1929	2.	0.	4393.1
715	6.1929	1.8182	0.	4401.3
716	6.1929	1.6364	0.	4410.4
717	6.1929	1.4545	0.	4420.1
718	6.1929	1.2727	0.	4430.2
719	6.1929	1.0909	0.	4440.6
720	6.1929	0.90909	0.	4451.2
721	6.1929	0.72727	0.	4461.9
722	6.1929	0.54545	0.	4472.5
723	6.1929	0.36364	0.	4483.3
724	6.1929	0.18182	0.	4494.5
725	6.0107	5.8182	0.	4558.8
726	6.0107	5.6364	0.	4544.8
727	6.0107	5.4545	0.	4531.2
728	6.0107	5.2727	0.	4517.8
729	6.0107	5.0909	0.	4504.6
730	6.0107	4.9091	0.	4491.6
731	6.0107	4.7273	0.	4478.9
732	6.0107	4.5455	0.	4466.8
733	6.0107	4.3636	0.	4455.3
734	6.0107	4.1818	0.	4444.6
735	6.0107	4.	0.	4435.
736	6.0107	3.8182	0.	4426.7
737	6.0107	3.6364	0.	4419.8
738	6.0107	3.4545	0.	4414.5
739	6.0107	3.2727	0.	4410.9
740	6.0107	3.0909	0.	4409.
741	6.0107	2.9091	0.	4409.
742	6.0107	2.7273	0.	4410.9
743	6.0107	2.5455	0.	4414.5
744	6.0107	2.3636	0.	4419.8
745	6.0107	2.1818	0.	4426.7
746	6.0107	2.	0.	4435.
747	6.0107	1.8182	0.	4444.6
748	6.0107	1.6364	0.	4455.3
749	6.0107	1.4545	0.	4466.8
750	6.0107	1.2727	0.	4478.9
751	6.0107	1.0909	0.	4491.6
752	6.0107	0.90909	0.	4504.6
753	6.0107	0.72727	0.	4517.8
754	6.0107	0.54545	0.	4531.2
755	6.0107	0.36364	0.	4544.8
756	6.0107	0.18182	0.	4558.8
757	5.8286	5.8182	0.	4622.1
758	5.8286	5.6364	0.	4605.5
759	5.8286	5.4545	0.	4589.2
760	5.8286	5.2727	0.	4573.3
761	5.8286	5.0909	0.	4557.6
762	5.8286	4.9091	0.	4542.3
763	5.8286	4.7273	0.	4527.5
764	5.8286	4.5455	0.	4513.5
765	5.8286	4.3636	0.	4500.3
766	5.8286	4.1818	0.	4488.1
767	5.8286	4.	0.	4477.3
768	5.8286	3.8182	0.	4467.9
769	5.8286	3.6364	0.	4460.2
770	5.8286	3.4545	0.	4454.2
771	5.8286	3.2727	0.	4450.2
772	5.8286	3.0909	0.	4448.2
773	5.8286	2.9091	0.	4448.2
774	5.8286	2.7273	0.	4450.2
775	5.8286	2.5455	0.	4454.2
776	5.8286	2.3636	0.	4460.2
777	5.8286	2.1818	0.	4467.9
778	5.8286	2.	0.	4477.3
779	5.8286	1.8182	0.	4488.1
780	5.8286	1.6364	0.	4500.3
781	5.8286	1.4545	0.	4513.5
782	5.8286	1.2727	0.	4527.5
783	5.8286	1.0909	0.	4542.3
784	5.8286	0.90909	0.	4557.6
785	5.8286	0.72727	0.	4573.3
786	5.8286	0.54545	0.	4589.2
787	5.8286	0.36364	0.	4605.5
788	5.8286	0.18182	0.	4622.1
789	5.6464	5.8182	0.	4684.9
790	5.6464	5.6364	0.	4665.6
791	5.6464	5.4545	0.	4646.8
792	5.6464	5.2727	0.	4628.4
793	5.6464	5.0909	0.	4610.3
794	5.6464	4.9091	0.	4592.8
795	5.6464	4.7273	0.	4576.
796	5.6464	4.5455	0.	4560.1
797	5.6464	4.3636	0.	4545.3
798	5.6464	4.1818	0.	4531.7
799	5.6464	4.	0.	4519.6
800	5.6464	3.8182	0.	4509.2
801	5.6464	3.6364	0.	4500.7
802	5.6464	3.4545	0.	4494.2
803	5.6464	3.2727	0.	4489.7
804	5.6464	3.0909	0.	4487.5
805	5.6464	2.9091	0.	4487.5
806	5.6464	2.7273	0.	4489.7
807	5.6464	2.5455	0.	4494.2
808	5.6464	2.3636	0.	4500.7
809	5.6464	2.1818	0.	4509.2
810	5.6464	2.	0.	4519.6
811	5.6464	1.8182	0.	4531.7
812	5.6464	1.6364	0.	4545.3
813	5.6464	1.4545	0.	4560.1
814	5.6464	1.2727	0.	4576.
815	5.6464	1.0909	0.	4592.8
816	5.6464	0.90909	0.	4610.3
817	5.6464	0.72727	0.	4628.4
818	5.6464	0.54545	0.	4646.8
819	5.6464	0.36364	0.	4665.6
820	5.6464	0.18182	0.	4684.9
821	5.4643	5.8182	0.	4747.4
822	5.4643	5.6364	0.	4725.5
823	5.4643	5.4545	0.	4704.1
824	5.4643	5.2727	0.	4683.2
825	5.4643	5.0909	0.	4662.9
826	5.4643	4.9091	0.	4643.2
827	5.4643	4.7273	0.	4624.4
828	5.4643	4.5455	0.	4606.6
829	5.4643	4.3636	0.	4590.1
830	5.4643	4.1818	0.	4575.1
831	5.4643	4.	0.	4561.9
832	5.4643	3.8182	0.	4550.5
833	5.4643	3.6364	0.	4541.1
834	5.4643	3.4545	0.	4534.
835	5.4643	3.2727	0.	4529.2
836	5.4643	3.0909	0.	4526.7
837	5.4643	2.9091	0.	4526.7
838	5.4643	2.7273	0.	4529.2
839	5.4643	2.5455	0.	4534.
840	5.4643	2.3636	0.	4541.1
841	5.4643	2.1818	0.	4550.5
842	5.4643	2.	0.	4561.9
843	5.4643	1.8182	0.	4575.1
844	5.4643	1.6364	0.	4590.1
845	5.4643	1.4545	0.	4606.6
846	5.4643	1.2727	0.	4624.4
847	5.4643	1.0909	0.	4643.2
848	5.4643	0.90909	0.	4662.9
849	5.4643	0.72727	0.	4683.2
850	5.4643	0.54545	0.	4704.1
851	5.4643	0.36364	0.	4725.5
852	5.4643	0.18182	0.	4747.4
853	5.2821	5.8182	0.	4809.8
854	5.2821	5.6364	0.	4785.2
855	5.2821	5.4545	0.	4761.3
856	5.2821	5.2727	0.	4738.
857	5.2821	5.0909	0.	4715.2
858	5.2821	4.9091	0.	4693.4
859	5.2821	4.7273	0.	4672.5
860	5.2821	4.5455	0.	4652.9
861	5.2821	4.3636	0.	4634.8
862	5.2821	4.1818	0.	4618.4
863	5.2821	4.	0.	4603.9
864	5.2821	3.8182	0.	4591.4
865	5.2821	3.6364	0.	4581.3
866	5.2821	3.4545	0.	4573.5
867	5.2821	3.2727	0.	4568.3
868	5.2821	3.0909	0.	4565.7
869	5.2821	2.9091	0.	4565.7
870	5.2821	2.7273	0.	4568.3
871	5.2821	2.5455	0.	4573.5
872	5.2821	2.3636	0.	4581.3
873	5.2821	2.1818	0.	4591.4
874	5.2821	2.	0.	4603.9
875	5.2821	1.8182	0.	4618.4
876	5.2821	1.6364	0.	4634.8
877	5.2821	1.4545	0.	4652.9
878	5.2821	1.2727	0.	4672.5
879	5.2821	1.0909	0.	4693.4
880	5.2821	0.90909	0.	4715.2
881	5.2821	0.72727	0.	4738.
882	5.2821	0.54545	0.	4761.3
883	5.2821	0.36364	0.	4785.2
884	5.2821	0.18182	0.	4809.8
885	5.1	5.8182	0.	4872.2
886	5.1	5.6364	0.	4845.
887	5.1	5.4545	0.	4818.5
888	5.1	5.2727	0.	4792.6
889	5.1	5.0909	0.	4767.5
890	5.1	4.9091	0.	4743.4
891	5.1	4.7273	0.	4720.5
892	5.1	4.5455	0.	4699.
893	5.1	4.3636	0.	4679.2
894	5.1	4.1818	0.	4661.3
895	5.1	4.	0.	4645.5
896	5.1	3.8182	0.	4632.
897	5.1	3.6364	0.	4621.
898	5.1	3.4545	0.	4612.7
899	5.1	3.2727	0.	4607.
900	5.1	3.0909	0.	4604.2
901	5.1	2.9091	0.	4604.2
902	5.1	2.7273	0.	4607.
903	5.1	2.5455	0.	4612.7
904	5.1	2.3636	0.	4621.
905	5.1	2.1818	0.	4632.
906	5.1	2.	0.	4645.5
907	5.1	1.8182	0.	4661.3
908	5.1	1.6364	0.	4679.2
909	5.1	1.4545	0.	4699.
910	5.1	1.2727	0.	4720.5
911	5.1	1.0909	0.	4743.4
912	5.1	0.90909	0.	4767.5
913	5.1	0.72727	0.	4792.6
914	5.1	0.54545	0.	4818.5
915	5.1	0.36364	0.	4845.
916	5.1	0.18182	0.	4872.2
917	4.9179	5.8182	0.	4934.9
918	4.9179	5.6364	0.	4904.8
919	4.9179	5.4545	0.	4875.7
920	4.9179	5.2727	0.	4847.2
921	4.9179	5.0909	0.	4819.7
922	4.9179	4.9091	0.	4793.3
923	4.9179	4.7273	0.	4768.3
924	4.9179	4.5455	0.	4744.9
925	4.9179	4.3636	0.	4723.3
926	4.9179	4.1818	0.	4703.9
927	4.9179	4.	0.	4686.8
928	4.9179	3.8182	0.	4672.2
929	4.9179	3.6364	0.	4660.3
930	4.9179	3.4545	0.	4651.3
931	4.9179	3.2727	0.	4645.2
932	4.9179	3.0909	0.	4642.1
933	4.9179	2.9091	0.	4642.1
934	4.9179	2.7273	0.	4645.2
935	4.9179	2.5455	0.	4651.3
936	4.9179	2.3636	0.	4660.3
937	4.9179	2.1818	0.	4672.2
938	4.9179	2.	0.	4686.8
939	4.9179	1.8182	0.	4703.9
940	4.9179	1.6364	0.	4723.3
941	4.9179	1.4545	0.	4744.9
942	4.9179	1.2727	0.	4768.3
943	4.9179	1.0909	0.	4793.3
944	4.9179	0.90909	0.	4819.7
945	4.9179	0.72727	0.	4847.2
946	4.9179	0.54545	0.	4875.7
947	4.9179	0.36364	0.	4904.8
948	4.9179	0.18182	0.	4934.9
949	4.7357	5.8182	0.	4997.8
950	4.7357	5.6364	0.	4964.8
951	4.7357	5.4545	0.	4932.9
952	4.7357	5.2727	0.	4901.8
953	4.7357	5.0909	0.	4871.8
954	4.7357	4.9091	0.	4843.
955	4.7357	4.7273	0.	4815.8
956	4.7357	4.5455	0.	4790.3
957	4.7357	4.3636	0.	4767.
958	4.7357	4.1818	0.	4746.
959	4.7357	4.	0.	4727.5
960	4.7357	3.8182	0.	4711.8
961	4.7357	3.6364	0.	4699.
962	4.7357	3.4545	0.	4689.2
963	4.7357	3.2727	0.	4682.7
964	4.7357	3.0909	0.	4679.4
965	4.7357	2.9091	0.	4679.4
966	4.7357	2.7273	0.	4682.7
967	4.7357	2.5455	0.	4689.2
968	4.7357	2.3636	0.	4699.
969	4.7357	2.1818	0.	4711.8
970	4.7357	2.	0.	4727.5
971	4.7357	1.8182	0.	4746.
972	4.7357	1.6364	0.	4767.
973	4.7357	1.4545	0.	4790.3
974	4.7357	1.2727	0.	4815.8
975	4.7357	1.0909	0.	4843.
976	4.7357	0.90909	0.	4871.8
977	4.7357	0.72727	0.	4901.8
978	4.7357	0.54545	0.	4932.9
979	4.7357	0.36364	0.	4964.8
980	4.7357	0.18182	0.	4997.8
981	4.5536	5.8182	0.	5061.2
982	4.5536	5.6364	0.	5025.1
983	4.5536	5.4545	0.	4990.3
984	4.5536	5.2727	0.	4956.5
985	4.5536	5.0909	0.	4923.8
986	4.5536	4.9091	0.	4892.5
987	4.5536	4.7273	0.	4863.
988	4.5536	4.5455	0.	4835.5
989	4.5536	4.3636	0.	4810.2
990	4.5536	4.1818	0.	4787.5
991	4.5536	4.	0.	4767.6
992	4.5536	3.8182	0.	4750.7
993	4.5536	3.6364	0.	4737.
994	4.5536	3.4545	0.	4726.5
995	4.5536	3.2727	0.	4719.5
996	4.5536	3.0909	0.	4716.
997	4.5536	2.9091	0.	4716.
998	4.5536	2.7273	0.	4719.5
999	4.5536	2.5455	0.	4726.5
1000	4.5536	2.3636	0.	4737.
1001	4.5536	2.1818	0.	4750.7
1002	4.5536	2.	0.	4767.6
1003	4.5536	1.8182	0.	4787.5
1004	4.5536	1.6364	0.	4810.2
1005	4.5536	1.4545	0.	4835.5
1006	4.5536	1.2727	0.	4863.
1007	4.5536	1.0909	0.	4892.5
1008	4.5536	0.90909	0.	4923.8
1009	4.5536	0.72727	0.	4956.5
1010	4.5536	0.54545	0.	4990.3
1011	4.5536	0.36364	0.	5025.1
1012	4.5536	0.18182	0.	5061.2
1013	4.3714	5.8182	0.	5125.
1014	4.3714	5.6364	0.	5085.7
1015	4.3714	5.4545	0.	5047.9
1016	4.3714	5.2727	0.	5011.1
1017	4.3714	5.0909	0.	4975.7
1018	4.3714	4.9091	0.	4941.8
1019	4.3714	4.7273	0.	4909.9
1020	4.3714	4.5455	0.	4880.2
1021	4.3714	4.3636	0.	4853.
1022	4.3714	4.1818	0.	4828.5
1023	4.3714	4.	0.	4807.2
1024	4.3714	3.8182	0.	4789.
1025	4.3714	3.6364	0.	4774.3
1026	4.3714	3.4545	0.	4763.1
1027	4.3714	3.2727	0.	4755.6
1028	4.3714	3.0909	0.	4751.9
1029	4.3714	2.9091	0.	4751.9
1030	4.3714	2.7273	0.	4755.6
1031	4.3714	2.5455	0.	4763.1
1032	4.3714	2.3636	0.	4774.3
1033	4.3714	2.1818	0.	4789.
1034	4.3714	2.	0.	4807.2
1035	4.3714	1.8182	0.	4828.5
1036	4.3714	1.6364	0.	4853.
1037	4.3714	1.4545	0.	4880.2
1038	4.3714	1.2727	0.	4909.9
1039	4.3714	1.0909	0.	4941.8
1040	4.3714	0.90909	0.	4975.7
1041	4.3714	0.72727	0.	5011.1
1042	4.3714	0.54545	0.	5047.9
1043	4.3714	0.36364	0.	5085.7
1044	4.3714	0.18182	0.	5125.
1045	4.1893	5.8182	0.	5189.3
1046	4.1893	5.6364	0.	5146.5
1047	4.1893	5.4545	0.	5105.5
1048	4.1893	5.2727	0.	5065.8
1049	4.1893	5.0909	0.	5027.4
1050	4.1893	4.9091	0.	4990.8
1051	4.1893	4.7273	0.	4956.4
1052	4.1893	4.5455	0.	4924.4
1053	4.1893	4.3636	0.	4895.2
1054	4.1893	4.1818	0.	4869.
1055	4.1893	4.	0.	4846.1
1056	4.1893	3.8182	0.	4826.7
1057	4.1893	3.6364	0.	4811.
1058	4.1893	3.4545	0.	4799.1
1059	4.1893	3.2727	0.	4791.1
1060	4.1893	3.0909	0.	4787.1
1061	4.1893	2.9091	0.	4787.1
1062	4.1893	2.7273	0.	4791.1
1063	4.1893	2.5455	0.	4799.1
1064	4.1893	2.3636	0.	4811.
1065	4.1893	2.1818	0.	4826.7
1066	4.1893	2.	0.	4846.1
1067	4.1893	1.8182	0.	4869.
1068	4.1893	1.6364	0.	4895.2
1069	4.1893	1.4545	0.	4924.4
1070	4.1893	1.2727	0.	4956.4
1071	4.1893	1.0909	0.	4990.8
1072	4.1893	0.90909	0.	5027.4
1073	4.1893	0.72727	0.	5065.8
1074	4.1893	0.54545	0.	5105.5
1075	4.1893	0.36364	0.	5146.5
1076	4.1893	0.18182	0.	5189.3
1077	4.0071	5.8182	0.	5254.2
1078	4.0071	5.6364	0.	5207.7
1079	4.0071	5.4545	0.	5163.3
1080	4.0071	5.2727	0.	5120.4
1081	4.0071	5.0909	0.	5079.
1082	4.0071	4.9091	0.	5039.5
1083	4.0071	4.7273	0.	5002.5
1084	4.0071	4.5455	0.	4968.1
1085	4.0071	4.3636	0.	4936.8
1086	4.0071	4.1818	0.	4908.8
1087	4.0071	4.	0.	4884.4
1088	4.0071	3.8182	0.	4863.7
1089	4.0071	3.6364	0.	4847.
1090	4.0071	3.4545	0.	4834.3
1091	4.0071	3.2727	0.	4825.8
1092	4.0071	3.0909	0.	4821.6
1093	4.0071	2.9091	0.	4821.6
1094	4.0071	2.7273	0.	4825.8
1095	4.0071	2.5455	0.	4834.3
1096	4.0071	2.3636	0.	4847.
1097	4.0071	2.1818	0.	4863.7
1098	4.0071	2.	0.	4884.4
1099	4.0071	1.8182	0.	4908.8
1100	4.0071	1.6364	0.	4936.8
1101	4.0071	1.4545	0.	4968.1
1102	4.0071	1.2727	0.	5002.5
1103	4.0071	1.0909	0.	5039.5
1104	4.0071	0.90909	0.	5079.
1105	4.0071	0.72727	0.	5120.4
1106	4.0071	0.54545	0.	5163.3
1107	4.0071	0.36364	0.	5207.7
1108	4.0071	0.18182	0.	5254.2
1109	3.825	5.8182	0.	5319.7
1110	3.825	5.6364	0.	5269.1
1111	3.825	5.4545	0.	5221.2
1112	3.825	5.2727	0.	5174.8
1113	3.825	5.0909	0.	5130.2
1114	3.825	4.9091	0.	5087.9
1115	3.825	4.7273	0.	5048.1
1116	3.825	4.5455	0.	5011.3
1117	3.825	4.3636	0.	4977.8
1118	3.825	4.1818	0.	4948.
1119	3.825	4.	0.	4922.
1120	3.825	3.8182	0.	4900.1
1121	3.825	3.6364	0.	4882.4
1122	3.825	3.4545	0.	4869.
1123	3.825	3.2727	0.	4860.1
1124	3.825	3.0909	0.	4855.6
1125	3.825	2.9091	0.	4855.6
1126	3.825	2.7273	0.	4860.1
1127	3.825	2.5455	0.	4869.
1128	3.825	2.3636	0.	4882.4
1129	3.825	2.1818	0.	4900.1
1130	3.825	2.	0.	4922.
1131	3.825	1.8182	0.	4948.
1132	3.825	1.6364	0.	4977.8
1133	3.825	1.4545	0.	5011.3
1134	3.825	1.2727	0.	5048.1
1135	3.825	1.0909	0.	5087.9
1136	3.825	0.90909	0.	5130.2
1137	3.825	0.72727	0.	5174.8
1138	3.825	0.54545	0.	5221.2
1139	3.825	0.36364	0.	5269.1
1140	3.825	0.18182	0.	5319.7
1141	3.6429	5.8182	0.	5385.7
1142	3.6429	5.6364	0.	5330.7
1143	3.6429	5.4545	0.	5279.
1144	3.6429	5.2727	0.	5229.1
1145	3.6429	5.0909	0.	5181.2
1146	3.6429	4.9091	0.	5135.7
1147	3.6429	4.7273	0.	5093.1
1148	3.6429	4.5455	0.	5053.9
1149	3.6429	4.3636	0.	5018.2
1150	3.6429	4.1818	0.	4986.6
1151	3.6429	4.	0.	4959.1
1152	3.6429	3.8182	0.	4936.
1153	3.6429	3.6364	0.	4917.4
1154	3.6429	3.4545	0.	4903.3
1155	3.6429	3.2727	0.	4894.
1156	3.6429	3.0909	0.	4889.3
1157	3.6429	2.9091	0.	4889.3
1158	3.6429	2.7273	0.	4894.
1159	3.6429	2.5455	0.	4903.3
1160	3.6429	2.3636	0.	4917.4
1161	3.6429	2.1818	0.	4936.
1162	3.6429	2.	0.	4959.1
1163	3.6429	1.8182	0.	4986.6
1164	3.6429	1.6364	0.	5018.2
1165	3.6429	1.4545	0.	5053.9
1166	3.6429	1.2727	0.	5093.1
1167	3.6429	1.0909	0.	5135.7
1168	3.6429	0.90909	0.	5181.2
1169	3.6429	0.72727	0.	5229.1
1170	3.6429	0.54545	0.	5279.
1171	3.6429	0.36364	0.	5330.7
1172	3.6429	0.18182	0.	5385.7
1173	3.4607	5.8182	0.	5452.1
1174	3.4607	5.6364	0.	5392.4
1175	3.4607	5.4545	0.	5336.7
1176	3.4607	5.2727	0.	5283.
1177	3.4607	5.0909	0.	5231.6
1178	3.4607	4.9091	0.	5182.9
1179	3.4607	4.7273	0.	5137.5
1180	3.4607	4.5455	0.	5095.7
1181	3.4607	4.3636	0.	5058.
1182	3.4607	4.1818	0.	5024.6
1183	3.4607	4.	0.	4995.7
1184	3.4607	3.8182	0.	4971.5
1185	3.4607	3.6364	0.	4952.1
1186	3.4607	3.4545	0.	4937.4
1187	3.4607	3.2727	0.	4927.7
1188	3.4607	3.0909	0.	4922.8
1189	3.4607	2.9091	0.	4922.8
1190	3.4607	2.7273	0.	4927.7
1191	3.4607	2.5455	0.	4937.4
1192	3.4607	2.3636	0.	4952.1
1193	3.4607	2.1818	0.	4971.5
1194	3.4607	2.	0.	4995.7
1195	3.4607	1.8182	0.	5024.6
1196	3.4607	1.6364	0.	5058.
1197	3.4607	1.4545	0.	5095.7
1198	3.4607	1.2727	0.	5137.5
1199	3.4607	1.0909	0.	5182.9
1200	3.4607	0.90909	0.	5231.6
1201	3.4607	0.72727	0.	5283.
1202	3.4607	0.54545	0.	5336.7
1203	3.4607	0.36364	0.	5392.4
1204	3.4607	0.18182	0.	5452.1
1205	3.2786	5.8182	0.	5518.8
1206	3.2786	5.6364	0.	5454.
1207	3.2786	5.4545	0.	5394.1
1208	3.2786	5.2727	0.	5336.4
1209	3.2786	5.0909	0.	5281.3
1210	3.2786	4.9091	0.	5229.3
1211	3.2786	4.7273	0.	5181.1
1212	3.2786	4.5455	0.	5136.9
1213	3.2786	4.3636	0.	5097.1
1214	3.2786	4.1818	0.	5062.1
1215	3.2786	4.	0.	5032.
1216	3.2786	3.8182	0.	5006.8
1217	3.2786	3.6364	0.	4986.7
1218	3.2786	3.4545	0.	4971.6
1219	3.2786	3.2727	0.	4961.6
1220	3.2786	3.0909	0.	4956.6
1221	3.2786	2.9091	0.	4956.6
1222	3.2786	2.7273	0.	4961.6
1223	3.2786	2.5455	0.	4971.6
1224	3.2786	2.3636	0.	4986.7
1225	3.2786	2.1818	0.	5006.8
1226	3.2786	2.	0.	5032.
1227	3.2786	1.8182	0.	5062.1
1228	3.2786	1.6364	0.	5097.1
1229	3.2786	1.4545	0.	5136.9
1230	3.2786	1.2727	0.	5181.1
1231	3.2786	1.0909	0.	5229.3
1232	3.2786	0.90909	0.	5281.3
1233	3.2786	0.72727	0.	5336.4
1234	3.2786	0.54545	0.	5394.1
1235	3.2786	0.36364	0.	5454.
1236	3.2786	0.18182	0.	5518.8
1237	3.0964	5.8182	0.	5585.6
1238	3.0964	5.6364	0.	5515.3
1239	3.0964	5.4545	0.	5450.8
1240	3.0964	5.2727	0.	5388.9
1241	3.0964	5.0909	0.	5330.1
1242	3.0964	4.9091	0.	5274.8
1243	3.0964	4.7273	0.	5223.7
1244	3.0964	4.5455	0.	5177.1
1245	3.0964	4.3636	0.	5135.6
1246	3.0964	4.1818	0.	5099.2
1247	3.0964	4.	0.	5068.
1248	3.0964	3.8182	0.	5042.2
1249	3.0964	3.6364	0.	5021.6
1250	3.0964	3.4545	0.	5006.3
1251	3.0964	3.2727	0.	4996.1
1252	3.0964	3.0909	0.	4991.1
1253	3.0964	2.9091	0.	4991.1
1254	3.0964	2.7273	0.	4996.1
1255	3.0964	2.5455	0.	5006.3
1256	3.0964	2.3636	0.	5021.6
1257	3.0964	2.1818	0.	5042.2
1258	3.0964	2.	0.	5068.
1259	3.0964	1.8182	0.	5099.2
1260	3.0964	1.6364	0.	5135.6
1261	3.0964	1.4545	0.	5177.1
1262	3.0964	1.2727	0.	5223.7
1263	3.0964	1.0909	0.	5274.8
1264	3.0964	0.90909	0.	5330.1
1265	3.0964	0.72727	0.	5388.9
1266	3.0964	0.54545	0.	5450.8
1267	3.0964	0.36364	0.	5515.3
1268	3.0964	0.18182	0.	5585.6
1269	2.9143	5.8182	0.	5652.3
1270	2.9143	5.6364	0.	5575.8
1271	2.9143	5.4545	0.	5506.5
1272	2.9143	5.2727	0.	5440.3
1273	2.9143	5.0909	0.	5377.5
1274	2.9143	4.9091	0.	5318.9
1275	2.9143	4.7273	0.	5265.1
1276	2.9143	4.5455	0.	5216.5
1277	2.9143	4.3636	0.	5173.3
1278	2.9143	4.1818	0.	5135.9
1279	2.9143	4.	0.	5104.1
1280	2.9143	3.8182	0.	5077.9
1281	2.9143	3.6364	0.	5057.3
1282	2.9143	3.4545	0.	5042.
1283	2.9143	3.2727	0.	5031.8
1284	2.9143	3.0909	0.	5026.8
1285	2.9143	2.9091	0.	5026.8
1286	2.9143	2.7273	0.	5031.8
1287	2.9143	2.5455	0.	5042.
1288	2.9143	2.3636	0.	5057.3
1289	2.9143	2.1818	0.	5077.9
1290	2.9143	2.	0.	5104.1
1291	2.9143	1.8182	0.	5135.9
1292	2.9143	1.6364	0.	5173.3
1293	2.9143	1.4545	0.	5216.5
1294	2.9143	1.2727	0.	5265.1
1295	2.9143	1.0909	0.	5318.9
1296	2.9143	0.90909	0.	5377.5
1297	2.9143	0.72727	0.	5440.3
1298	2.9143	0.54545	0.	5506.5
1299	2.9143	0.36364	0.	5575.8
1300	2.9143	0.18182	0.	5652.3
1301	2.7321	5.8182	0.	5718.3
1302	2.7321	5.6364	0.	5635.2
1303	2.7321	5.4545	0.	5560.7
1304	2.7321	5.2727	0.	5490.
1305	2.7321	5.0909	0.	5423.3
1306	2.7321	4.9091	0.	5361.4
1307	2.7321	4.7273	0.	5305.1
1308	2.7321	4.5455	0.	5254.7
1309	2.7321	4.3636	0.	5210.4
1310	2.7321	4.1818	0.	5172.4
1311	2.7321	4.	0.	5140.5
1312	2.7321	3.8182	0.	5114.5
1313	2.7321	3.6364	0.	5094.2
1314	2.7321	3.4545	0.	5079.2
1315	2.7321	3.2727	0.	5069.4
1316	2.7321	3.0909	0.	5064.5
1317	2.7321	2.9091	0.	5064.5
1318	2.7321	2.7273	0.	5069.4
1319	2.7321	2.5455	0.	5079.2
1320	2.7321	2.3636	0.	5094.2
1321	2.7321	2.1818	0.	5114.5
1322	2.7321	2.	0.	5140.5
1323	2.7321	1.8182	0.	5172.4
1324	2.7321	1.6364	0.	5210.4
1325	2.7321	1.4545	0.	5254.7
1326	2.7321	1.2727	0.	5305.1
1327	2.7321	1.0909	0.	5361.4
1328	2.7321	0.90909	0.	5423.3
1329	2.7321	0.72727	0.	5490.
1330	2.7321	0.54545	0.	5560.7
1331	2.7321	0.36364	0.	5635.2
1332	2.7321	0.18182	0.	5718.3
1333	2.55	5.8182	0.	5783.2
1334	2.55	5.6364	0.	5692.7
1335	2.55	5.4545	0.	5612.8
1336	2.55	5.2727	0.	5537.3
1337	2.55	5.0909	0.	5466.6
1338	2.55	4.9091	0.	5401.7
1339	2.55	4.7273	0.	5343.3
1340	2.55	4.5455	0.	5291.6
1341	2.55	4.3636	0.	5246.9
1342	2.55	4.1818	0.	5209.1
1343	2.55	4.	0.	5177.7
1344	2.55	3.8182	0.	5152.6
1345	2.55	3.6364	0.	5133.1
1346	2.55	3.4545	0.	5119.
1347	2.55	3.2727	0.	5109.7
1348	2.55	3.0909	0.	5105.2
1349	2.55	2.9091	0.	5105.2
1350	2.55	2.7273	0.	5109.7
1351	2.55	2.5455	0.	5119.
1352	2.55	2.3636	0.	5133.1
1353	2.55	2.1818	0.	5152.6
1354	2.55	2.	0.	5177.7
1355	2.55	1.8182	0.	5209.1
1356	2.55	1.6364	0.	5246.9
1357	2.55	1.4545	0.	5291.6
1358	2.55	1.2727	0.	5343.3
1359	2.55	1.0909	0.	5401.7
1360	2.55	0.90909	0.	5466.6
1361	2.55	0.72727	0.	5537.3
1362	2.55	0.54545	0.	5612.8
1363	2.55	0.36364	0.	5692.7
1364	2.55	0.18182	0.	5783.2
1365	2.3679	5.8182	0.	5846.1
1366	2.3679	5.6364	0.	5747.5
1367	2.3679	5.4545	0.	5661.8
1368	2.3679	5.2727	0.	5581.3
1369	2.3679	5.0909	0.	5506.8
1370	2.3679	4.9091	0.	5439.3
1371	2.3679	4.7273	0.	5379.2
1372	2.3679	4.5455	0.	5327.1
1373	2.3679	4.3636	0.	5282.8
1374	2.3679	4.1818	0.	5246.1
1375	2.3679	4.	0.	5216.2
1376	2.3679	3.8182	0.	5192.7
1377	2.3679	3.6364	0.	5174.9
1378	2.3679	3.4545	0.	5162.1
1379	2.3679	3.2727	0.	5153.9
1380	2.3679	3.0909	0.	5149.8
1381	2.3679	2.9091	0.	5149.8
1382	2.3679	2.7273	0.	5153.9
1383	2.3679	2.5455	0.	5162.1
1384	2.3679	2.3636	0.	5174.9
1385	2.3679	2.1818	0.	5192.7
1386	2.3679	2.	0.	5216.2
1387	2.3679	1.8182	0.	5246.1
1388	2.3679	1.6364	0.	5282.8
1389	2.3679	1.4545	0.	5327.1
1390	2.3679	1.2727	0.	5379.2
1391	2.3679	1.0909	0.	5439.3
1392	2.3679	0.90909	0.	5506.8
1393	2.3679	0.72727	0.	5581.3
1394	2.3679	0.54545	0.	5661.8
1395	2.3679	0.36364	0.	5747.5
1396	2.3679	0.18182	0.	5846.1
1397	2.1857	5.8182	0.	5905.9
1398	2.1857	5.6364	0.	5798.4
1399	2.1857	5.4545	0.	5706.4
1400	2.1857	5.2727	0.	5621.
1401	2.1857	5.0909	0.	5542.9
1402	2.1857	4.9091	0.	5473.2
1403	2.1857	4.7273	0.	5412.5
1404	2.1857	4.5455	0.	5361.
1405	2.1857	4.3636	0.	5318.4
1406	2.1857	4.1818	0.	5283.9
1407	2.1857	4.	0.	5256.8
1408	2.1857	3.8182	0.	5236.
1409	2.1857	3.6364	0.	5220.6
1410	2.1857	3.4545	0.	5209.9
1411	2.1857	3.2727	0.	5203.1
1412	2.1857	3.0909	0.	5199.8
1413	2.1857	2.9091	0.	5199.8
1414	2.1857	2.7273	0.	5203.1
1415	2.1857	2.5455	0.	5209.9
1416	2.1857	2.3636	0.	5220.6
1417	2.1857	2.1818	0.	5236.
1418	2.1857	2.	0.	5256.8
1419	2.1857	1.8182	0.	5283.9
1420	2.1857	1.6364	0.	5318.4
1421	2.1857	1.4545	0.	5361.
1422	2.1857	1.2727	0.	5412.5
1423	2.1857	1.0909	0.	5473.2
1424	2.1857	0.90909	0.	5542.9
1425	2.1857	0.72727	0.	5621.
1426	2.1857	0.54545	0.	5706.4
1427	2.1857	0.36364	0.	5798.4
1428	2.1857	0.18182	0.	5905.9
1429	2.0036	5.8182	0.	5961.2
1430	2.0036	5.6364	0.	5843.6
1431	2.0036	5.4545	0.	5744.9
1432	2.0036	5.2727	0.	5654.6
1433	2.0036	5.0909	0.	5573.3
1434	2.0036	4.9091	0.	5502.4
1435	2.0036	4.7273	0.	5442.4
1436	2.0036	4.5455	0.	5393.1
1437	2.0036	4.3636	0.	5353.8
1438	2.0036	4.1818	0.	5323.3
1439	2.0036	4.	0.	5300.3
1440	2.0036	3.8182	0.	5283.5
1441	2.0036	3.6364	0.	5271.7
1442	2.0036	3.4545	0.	5263.7
1443	2.0036	3.2727	0.	5258.9
1444	2.0036	3.0909	0.	5256.6
1445	2.0036	2.9091	0.	5256.6
1446	2.0036	2.7273	0.	5258.9
1447	2.0036	2.5455	0.	5263.7
1448	2.0036	2.3636	0.	5271.7
1449	2.0036	2.1818	0.	5283.5
1450	2.0036	2.	0.	5300.3
1451	2.0036	1.8182	0.	5323.3
1452	2.0036	1.6364	0.	5353.8
1453	2.0036	1.4545	0.	5393.1
1454	2.0036	1.2727	0.	5442.4
1455	2.0036	1.0909	0.	5502.4
1456	2.0036	0.90909	0.	5573.3
1457	2.0036	0.72727	0.	5654.6
1458	2.0036	0.54545	0.	5744.9
1459	2.0036	0.36364	0.	5843.6
1460	2.0036	0.18182	0.	5961.2
1461	1.8214	5.8182	0.	6009.7
1462	1.8214	5.6364	0.	5880.8
1463	1.8214	5.4545	0.	5775.1
1464	1.8214	5.2727	0.	5680.
1465	1.8214	5.0909	0.	5596.5
1466	1.8214	4.9091	0.	5525.9
1467	1.8214	4.7273	0.	5468.5
1468	1.8214	4.5455	0.	5423.5
1469	1.8214	4.3636	0.	5389.6
1470	1.8214	4.1818	0.	5365.1
1471	1.8214	4.	0.	5348.1
1472	1.8214	3.8182	0.	5336.8
1473	1.8214	3.6364	0.	5329.6
1474	1.8214	3.4545	0.	5325.4
1475	1.8214	3.2727	0.	5323.
1476	1.8214	3.0909	0.	5322.
1477	1.8214	2.9091	0.	5322.
1478	1.8214	2.7273	0.	5323.
1479	1.8214	2.5455	0.	5325.4
1480	1.8214	2.3636	0.	5329.6
1481	1.8214	2.1818	0.	5336.8
1482	1.8214	2.	0.	5348.1
1483	1.8214	1.8182	0.	5365.1
1484	1.8214	1.6364	0.	5389.6
1485	1.8214	1.4545	0.	5423.5
1486	1.8214	1.2727	0.	5468.5
1487	1.8214	1.0909	0.	5525.9
1488	1.8214	0.90909	0.	5596.5
1489	1.8214	0.72727	0.	5680.
1490	1.8214	0.54545	0.	5775.1
1491	1.8214	0.36364	0.	5880.8
1492	1.8214	0.18182	0.	6009.7
1493	1.6393	5.8182	0.	6048.5
1494	1.6393	5.6364	0.	5906.9
1495	1.6393	5.4545	0.	5793.9
1496	1.6393	5.2727	0.	5694.6
1497	1.6393	5.0909	0.	5610.3
1498	1.6393	4.9091	0.	5542.3
1499	1.6393	4.7273	0.	5490.2
1500	1.6393	4.5455	0.	5452.5
1501	1.6393	4.3636	0.	5426.9
1502	1.6393	4.1818	0.	5410.9
1503	1.6393	4.	0.	5401.9
1504	1.6393	3.8182	0.	5397.7
1505	1.6393	3.6364	0.	5396.5
1506	1.6393	3.4545	0.	5396.7
1507	1.6393	3.2727	0.	5397.5
1508	1.6393	3.0909	0.	5398.
1509	1.6393	2.9091	0.	5398.
1510	1.6393	2.7273	0.	5397.5
1511	1.6393	2.5455	0.	5396.7
1512	1.6393	2.3636	0.	5396.5
1513	1.6393	2.1818	0.	5397.7
1514	1.6393	2.	0.	5401.9
1515	1.6393	1.8182	0.	5410.9
1516	1.6393	1.6364	0.	5426.9
1517	1.6393	1.4545	0.	5452.5
1518	1.6393	1.2727	0.	5490.2
1519	1.6393	1.0909	0.	5542.3
1520	1.6393	0.90909	0.	5610.3
1521	1.6393	0.72727	0.	5694.6
1522	1.6393	0.54545	0.	5793.9
1523	1.6393	0.36364	0.	5906.9
1524	1.6393	0.18182	0.	6048.5
1525	1.4571	5.8182	0.	6073.3
1526	1.4571	5.6364	0.	5917.1
1527	1.4571	5.4545	0.	5796.7
1528	1.4571	5.2727	0.	5694.5
1529	1.4571	5.0909	0.	5612.
1530	1.4571	4.9091	0.	5550.1
1531	1.4571	4.7273	0.	5507.4
1532	1.4571	4.5455	0.	5480.9
1533	1.4571	4.3636	0.	5467.2
1534	1.4571	4.1818	0.	5462.5
1535	1.4571	4.	0.	5463.8
1536	1.4571	3.8182	0.	5468.4
1537	1.4571	3.6364	0.	5474.3
1538	1.4571	3.4545	0.	5479.9
1539	1.4571	3.2727	0.	5484.2
1540	1.4571	3.0909	0.	5486.5
1541	1.4571	2.9091	0.	5486.5
1542	1.4571	2.7273	0.	5484.2
1543	1.4571	2.5455	0.	5479.9
1544	1.4571	2.3636	0.	5474.3
1545	1.4571	2.1818	0.	5468.4
1546	1.4571	2.	0.	5463.8
1547	1.4571	1.8182	0.	5462.5
1548	1.4571	1.6364	0.	5467.2
1549	1.4571	1.4545	0.	5480.9
1550	1.4571	1.2727	0.	5507.4
1551	1.4571	1.0909	0.	5550.1
1552	1.4571	0.90909	0.	5612.
1553	1.4571	0.72727	0.	5694.5
1554	1.4571	0.54545	0.	5796.7
1555	1.4571	0.36364	0.	5917.1
1556	1.4571	0.18182	0.	6073.3
1557	1.275	5.8182	0.	6077.8
1558	1.275	5.6364	0.	5905.2
1559	1.275	5.4545	0.	5777.7
1560	1.275	5.2727	0.	5675.1
1561	1.275	5.0909	0.	5599.
1562	1.275	4.9091	0.	5548.8
1563	1.275	4.7273	0.	5521.2
1564	1.275	4.5455	0.	5511.2
1565	1.275	4.3636	0.	5513.4
1566	1.275	4.1818	0.	5523.3
1567	1.275	4.	0.	5537.2
1568	1.275	3.8182	0.	5552.1
1569	1.275	3.6364	0.	5566.1
1570	1.275	3.4545	0.	5577.7
1571	1.275	3.2727	0.	5585.8
1572	1.275	3.0909	0.	5590.1
1573	1.275	2.9091	0.	5590.1
1574	1.275	2.7273	0.	5585.8
1575	1.275	2.5455	0.	5577.7
1576	1.275	2.3636	0.	5566.1
1577	1.275	2.1818	0.	5552.1
1578	1.275	2.	0.	5537.2
1579	1.275	1.8182	0.	5523.3
1580	1.275	1.6364	0.	5513.4
1581	1.275	1.4545	0.	5511.2
1582	1.275	1.2727	0.	5521.2
1583	1.275	1.0909	0.	5548.8
1584	1.275	0.90909	0.	5599.
1585	1.275	0.72727	0.	5675.1
1586	1.275	0.54545	0.	5777.7
1587	1.275	0.36364	0.	5905.2
1588	1.275	0.18182	0.	6077.8
1589	1.0929	5.8182	0.	6052.
1590	1.0929	5.6364	0.	5860.3
1591	1.0929	5.4545	0.	5727.3
1592	1.0929	5.2727	0.	5629.5
1593	1.0929	5.0909	0.	5567.5
1594	1.0929	4.9091	0.	5537.7
1595	1.0929	4.7273	0.	5533.1
1596	1.0929	4.5455	0.	5545.7
1597	1.0929	4.3636	0.	5568.5
1598	1.0929	4.1818	0.	5596.
1599	1.0929	4.	0.	5624.3
1600	1.0929	3.8182	0.	5650.6
1601	1.0929	3.6364	0.	5673.2
1602	1.0929	3.4545	0.	5691.
1603	1.0929	3.2727	0.	5703.1
1604	1.0929	3.0909	0.	5709.3
1605	1.0929	2.9091	0.	5709.3
1606	1.0929	2.7273	0.	5703.1
1607	1.0929	2.5455	0.	5691.
1608	1.0929	2.3636	0.	5673.2
1609	1.0929	2.1818	0.	5650.6
1610	1.0929	2.	0.	5624.3
1611	1.0929	1.8182	0.	5596.
1612	1.0929	1.6364	0.	5568.5
1613	1.0929	1.4545	0.	5545.7
1614	1.0929	1.2727	0.	5533.1
1615	1.0929	1.0909	0.	5537.7
1616	1.0929	0.90909	0.	5567.5
1617	1.0929	0.72727	0.	5629.5
1618	1.0929	0.54545	0.	5727.3
1619	1.0929	0.36364	0.	5860.3
1620	1.0929	0.18182	0.	6052.
1621	0.91071	5.8182	0.	5980.8
1622	0.91071	5.6364	0.	5769.5
1623	0.91071	5.4545	0.	5636.8
1624	0.91071	5.2727	0.	5555.1
1625	0.91071	5.0909	0.	5521.3
1626	0.91071	4.9091	0.	5525.2
1627	0.91071	4.7273	0.	5553.9
1628	0.91071	4.5455	0.	5596.3
1629	0.91071	4.3636	0.	5643.9
1630	0.91071	4.1818	0.	5691.3
1631	0.91071	4.	0.	5735.
1632	0.91071	3.8182	0.	5773.1
1633	0.91071	3.6364	0.	5804.2
1634	0.91071	3.4545	0.	5827.9
1635	0.91071	3.2727	0.	5843.8
1636	0.91071	3.0909	0.	5851.8
1637	0.91071	2.9091	0.	5851.8
1638	0.91071	2.7273	0.	5843.8
1639	0.91071	2.5455	0.	5827.9
1640	0.91071	2.3636	0.	5804.2
1641	0.91071	2.1818	0.	5773.1
1642	0.91071	2.	0.	5735.
1643	0.91071	1.8182	0.	5691.3
1644	0.91071	1.6364	0.	5643.9
1645	0.91071	1.4545	0.	5596.3
1646	0.91071	1.2727	0.	5553.9
1647	0.91071	1.0909	0.	5525.2
1648	0.91071	0.90909	0.	5521.3
1649	0.91071	0.72727	0.	5555.1
1650	0.91071	0.54545	0.	5636.8
1651	0.91071	0.36364	0.	5769.5
1652	0.91071	0.18182	0.	5980.8
1653	0.72857	5.8182	0.	5833.1
1654	0.72857	5.6364	0.	5598.
1655	0.72857	5.4545	0.	5475.8
1656	0.72857	5.2727	0.	5431.1
1657	0.72857	5.0909	0.	5447.5
1658	0.72857	4.9091	0.	5502.
1659	0.72857	4.7273	0.	5574.7
1660	0.72857	4.5455	0.	5652.1
1661	0.72857	4.3636	0.	5726.6
1662	0.72857	4.1818	0.	5794.
1663	0.72857	4.	0.	5852.3
1664	0.72857	3.8182	0.	5900.8
1665	0.72857	3.6364	0.	5939.3
1666	0.72857	3.4545	0.	5967.9
1667	0.72857	3.2727	0.	5986.8
1668	0.72857	3.0909	0.	5996.3
1669	0.72857	2.9091	0.	5996.3
1670	0.72857	2.7273	0.	5986.8
1671	0.72857	2.5455	0.	5967.9
1672	0.72857	2.3636	0.	5939.3
1673	0.72857	2.1818	0.	5900.8
1674	0.72857	2.	0.	5852.3
1675	0.72857	1.8182	0.	5794.
1676	0.72857	1.6364	0.	5726.6
1677	0.72857	1.4545	0.	5652.1
1678	0.72857	1.2727	0.	5574.7
1679	0.72857	1.0909	0.	5502.
1680	0.72857	0.90909	0.	5447.5
1681	0.72857	0.72727	0.	5431.1
1682	0.72857	0.54545	0.	5475.8
1683	0.72857	0.36364	0.	5598.
1684	0.72857	0.18182	0.	5833.1
1685	0.54643	5.8182	0.	5570.6
1686	0.54643	5.6364	0.	5342.1
1687	0.54643	5.4545	0.	5282.1
1688	0.54643	5.2727	0.	5329.5
1689	0.54643	5.0909	0.	5437.5
1690	0.54643	4.9091	0.	5566.5
1691	0.54643	4.7273	0.	5694.2
1692	0.54643	4.5455	0.	5810.7
1693	0.54643	4.3636	0.	5912.2
1694	0.54643	4.1818	0.	5998.1
1695	0.54643	4.	0.	6069.1
1696	0.54643	3.8182	0.	6126.1
1697	0.54643	3.6364	0.	6170.4
1698	0.54643	3.4545	0.	6202.7
1699	0.54643	3.2727	0.	6223.8
1700	0.54643	3.0909	0.	6234.3
1701	0.54643	2.9091	0.	6234.3
1702	0.54643	2.7273	0.	6223.8
1703	0.54643	2.5455	0.	6202.7
1704	0.54643	2.3636	0.	6170.4
1705	0.54643	2.1818	0.	6126.1
1706	0.54643	2.	0.	6069.1
1707	0.54643	1.8182	0.	5998.1
1708	0.54643	1.6364	0.	5912.2
1709	0.54643	1.4545	0.	5810.7
1710	0.54643	1.2727	0.	5694.2
1711	0.54643	1.0909	0.	5566.5
1712	0.54643	0.90909	0.	5437.5
1713	0.54643	0.72727	0.	5329.5
1714	0.54643	0.54545	0.	5282.1
1715	0.54643	0.36364	0.	5342.1
1716	0.54643	0.18182	0.	5570.6
1717	0.36429	5.8182	0.	5025.5
1718	0.36429	5.6364	0.	4773.5
1719	0.36429	5.4545	0.	4833.1
1720	0.36429	5.2727	0.	5027.7
1721	0.36429	5.0909	0.	5244.7
1722	0.36429	4.9091	0.	5443.6
1723	0.36429	4.7273	0.	5613.7
1724	0.36429	4.5455	0.	5755.
1725	0.36429	4.3636	0.	5870.8
1726	0.36429	4.1818	0.	5964.7
1727	0.36429	4.	0.	6039.8
1728	0.36429	3.8182	0.	6098.8
1729	0.36429	3.6364	0.	6143.8
1730	0.36429	3.4545	0.	6176.3
1731	0.36429	3.2727	0.	6197.4
1732	0.36429	3.0909	0.	6207.8
1733	0.36429	2.9091	0.	6207.8
1734	0.36429	2.7273	0.	6197.4
1735	0.36429	2.5455	0.	6176.3
1736	0.36429	2.3636	0.	6143.8
1737	0.36429	2.1818	0.	6098.8
1738	0.36429	2.	0.	6039.8
1739	0.36429	1.8182	0.	5964.7
1740	0.36429	1.6364	0.	5870.8
1741	0.36429	1.4545	0.	5755.
1742	0.36429	1.2727	0.	5613.7
1743	0.36429	1.0909	0.	5443.6
1744	0.36429	0.90909	0.	5244.7
1745	0.36429	0.72727	0.	5027.7
1746	0.36429	0.54545	0.	4833.1
1747	0.36429	0.36364	0.	4773.5
1748	0.36429	0.18182	0.	5025.5
1749	0.18214	5.8182	0.	4042.1
1750	0.18214	5.6364	0.	4552.6
1751	0.18214	5.4545	0.	5224.
1752	0.18214	5.2727	0.	5747.3
1753	0.18214	5.0909	0.	6138.8
1754	0.18214	4.9091	0.	6433.8
1755	0.18214	4.7273	0.	6659.4
1756	0.18214	4.5455	0.	6834.1
1757	0.18214	4.3636	0.	6970.7
1758	0.18214	4.1818	0.	7077.8
1759	0.18214	4.	0.	7161.5
1760	0.18214	3.8182	0.	7226.1
1761	0.18214	3.6364	0.	7274.8
1762	0.18214	3.4545	0.	7309.5
1763	0.18214	3.2727	0.	7332.
1764	0.18214	3.0909	0.	7343.
1765	0.18214	2.9091	0.	7343.
1766	0.18214	2.7273	0.	7332.
1767	0.18214	2.5455	0.	7309.5
1768	0.18214	2.3636	0.	7274.8
1769	0.18214	2.1818	0.	7226.1
1770	0.18214	2.	0.	7161.5
1771	0.18214	1.8182	0.	7077.8
1772	0.18214	1.6364	0.	6970.7
1773	0.18214	1.4545	0.	6834.1
1774	0.18214	1.2727	0.	6659.4
1775	0.18214	1.0909	0.	6433.8
1776	0.18214	0.90909	0.	6138.8
1777	0.18214	0.72727	0.	5747.3
1778	0.18214	0.54545	0.	5224.
1779	0.18214	0.36364	0.	4552.6
1780	0.18214	0.18182	0.	4042.1
1781	10.551	5.8182	0.	613.27
1782	10.735	5.8182	0.	916.13
1783	10.919	5.8182	0.	1231.8
1784	11.104	5.8182	0.	1511.2
1785	11.288	5.8182	0.	1747.7
1786	11.472	5.8182	0.	1941.7
1787	11.656	5.8182	0.	2096.
1788	11.841	5.8182	0.	2214.8
1789	12.025	5.8182	0.	2302.9
1790	12.209	5.8182	0.	2364.9
1791	12.393	5.8182	0.	2405.1
1792	12.577	5.8182	0.	2427.5
1793	12.762	5.8182	0.	2435.3
1794	12.946	5.8182	0.	2431.5
1795	13.13	5.8182	0.	2418.2
1796	13.314	5.8182	0.	2397.6
1797	13.499	5.8182	0.	2371.
1798	13.683	5.8182	0.	2339.9
1799	13.867	5.8182	0.	2305.3
1800	14.051	5.8182	0.	2267.8
1801	14.236	5.8182	0.	2228.3
1802	14.42	5.8182	0.	2187.1
1803	14.604	5.8182	0.	2144.8
1804	14.788	5.8182	0.	2101.5
1805	14.973	5.8182	0.	2057.7
1806	15.157	5.8182	0.	2013.4
1807	15.341	5.8182	0.	1968.8
1808	15.525	5.8182	0.	1924.
1809	15.709	5.8182	0.	1879.2
1810	15.894	5.8182	0.	1834.3
1811	16.078	5.8182	0.	1789.5
1812	16.262	5.8182	0.	1744.8
1813	16.446	5.8182	0.	1700.2
1814	16.631	5.8182	0.	1655.7
1815	16.815	5.8182	0.	1611.4
1816	16.999	5.8182	0.	1567.3
1817	17.183	5.8182	0.	1523.3
1818	17.368	5.8182	0.	1479.5
1819	17.552	5.8182	0.	1435.9
1820	17.736	5.8182	0.	1392.5
1821	17.92	5.8182	0.	1349.3
1822	18.105	5.8182	0.	1306.3
1823	18.289	5.8182	0.	1263.5
1824	18.473	5.8182	0.	1220.8
1825	18.657	5.8182	0.	1178.3
1826	18.841	5.8182	0.	1136.1
1827	19.026	5.8182	0.	1094.
1828	19.21	5.8182	0.	1052.1
1829	19.394	5.8182	0.	1010.3
1830	19.578	5.8182	0.	968.78
1831	19.763	5.8182	0.	927.39
1832	19.947	5.8182	0.	886.16
1833	20.131	5.8182	0.	845.1
1834	20.315	5.8182	0.	804.19
1835	20.5	5.8182	0.	763.44
1836	20.684	5.8182	0.	722.83
1837	20.868	5.8182	0.	682.36
1838	21.052	5.8182	0.	642.03
1839	21.236	5.8182	0.	601.83
1840	21.421	5.8182	0.	561.75
1841	21.605	5.8182	0.	521.8
1842	21.789	5.8182	0.	481.97
1843	21.973	5.8182	0.	442.25
1844	22.158	5.8182	0.	402.65
1845	22.342	5.8182	0.	363.17
1846	22.526	5.8182	0.	323.81
1847	22.71	5.8182	0.	284.59
1848	22.895	5.8182	0.	245.54
1849	23.079	5.8182	0.	206.71
1850	23.263	5.8182	0.	168.21
1851	23.447	5.8182	0.	130.25
1852	23.632	5.8182	0.	93.508
1853	23.816	5.8182	0.	61.291
1854	10.551	5.6364	0.	893.44
1855	10.735	5.6364	0.	1058.6
1856	10.919	5.6364	0.	1329.4
1857	11.104	5.6364	0.	1591.4
1858	11.288	5.6364	0.	1818.2
1859	11.472	5.6364	0.	2004.2
1860	11.656	5.6364	0.	2150.5
1861	11.841	5.6364	0.	2261.4
1862	12.025	5.6364	0.	2341.7
1863	12.209	5.6364	0.	2396.3
1864	12.393	5.6364	0.	2430.
1865	12.577	5.6364	0.	2446.5
1866	12.762	5.6364	0.	2449.2
1867	12.946	5.6364	0.	2441.1
1868	13.13	5.6364	0.	2424.3
1869	13.314	5.6364	0.	2400.7
1870	13.499	5.6364	0.	2371.8
1871	13.683	5.6364	0.	2338.8
1872	13.867	5.6364	0.	2302.6
1873	14.051	5.6364	0.	2263.9
1874	14.236	5.6364	0.	2223.5
1875	14.42	5.6364	0.	2181.7
1876	14.604	5.6364	0.	2138.8
1877	14.788	5.6364	0.	2095.2
1878	14.973	5.6364	0.	2051.1
1879	15.157	5.6364	0.	2006.7
1880	15.341	5.6364	0.	1962.
1881	15.525	5.6364	0.	1917.2
1882	15.709	5.6364	0.	1872.4
1883	15.894	5.6364	0.	1827.6
1884	16.078	5.6364	0.	1782.9
1885	16.262	5.6364	0.	1738.2
1886	16.446	5.6364	0.	1693.7
1887	16.631	5.6364	0.	1649.3
1888	16.815	5.6364	0.	1605.1
1889	16.999	5.6364	0.	1561.
1890	17.183	5.6364	0.	1517.2
1891	17.368	5.6364	0.	1473.5
1892	17.552	5.6364	0.	1429.9
1893	17.736	5.6364	0.	1386.6
1894	17.92	5.6364	0.	1343.5
1895	18.105	5.6364	0.	1300.5
1896	18.289	5.6364	0.	1257.7
1897	18.473	5.6364	0.	1215.2
1898	18.657	5.6364	0.	1172.8
1899	18.841	5.6364	0.	1130.6
1900	19.026	5.6364	0.	1088.6
1901	19.21	5.6364	0.	1046.7
1902	19.394	5.6364	0.	1005.1
1903	19.578	5.6364	0.	963.6
1904	19.763	5.6364	0.	922.3
1905	19.947	5.6364	0.	881.18
1906	20.131	5.6364	0.	840.23
1907	20.315	5.6364	0.	799.45
1908	20.5	5.6364	0.	758.84
1909	20.684	5.6364	0.	718.39
1910	20.868	5.6364	0.	678.1
1911	21.052	5.6364	0.	637.98
1912	21.236	5.6364	0.	598.02
1913	21.421	5.6364	0.	558.22
1914	21.605	5.6364	0.	518.58
1915	21.789	5.6364	0.	479.11
1916	21.973	5.6364	0.	439.82
1917	22.158	5.6364	0.	400.73
1918	22.342	5.6364	0.	361.85
1919	22.526	5.6364	0.	323.23
1920	22.71	5.6364	0.	284.93
1921	22.895	5.6364	0.	247.05
1922	23.079	5.6364	0.	209.77
1923	23.263	5.6364	0.	173.44
1924	23.447	5.6364	0.	138.73
1925	23.632	5.6364	0.	107.22
1926	23.816	5.6364	0.	82.589
1927	10.551	5.4545	0.	1248.6
1928	10.735	5.4545	0.	1307.3
1929	10.919	5.4545	0.	1512.4
1930	11.104	5.4545	0.	1734.4
1931	11.288	5.4545	0.	1934.1
1932	11.472	5.4545	0.	2099.2
1933	11.656	5.4545	0.	2228.4
1934	11.841	5.4545	0.	2324.5
1935	12.025	5.4545	0.	2392.2
1936	12.209	5.4545	0.	2436.2
1937	12.393	5.4545	0.	2460.8
1938	12.577	5.4545	0.	2469.8
1939	12.762	5.4545	0.	2466.4
1940	12.946	5.4545	0.	2453.2
1941	13.13	5.4545	0.	2432.3
1942	13.314	5.4545	0.	2405.5
1943	13.499	5.4545	0.	2374.
1944	13.683	5.4545	0.	2338.9
1945	13.867	5.4545	0.	2301.2
1946	14.051	5.4545	0.	2261.4
1947	14.236	5.4545	0.	2220.1
1948	14.42	5.4545	0.	2177.6
1949	14.604	5.4545	0.	2134.3
1950	14.788	5.4545	0.	2090.4
1951	14.973	5.4545	0.	2046.2
1952	15.157	5.4545	0.	2001.7
1953	15.341	5.4545	0.	1957.
1954	15.525	5.4545	0.	1912.3
1955	15.709	5.4545	0.	1867.6
1956	15.894	5.4545	0.	1822.9
1957	16.078	5.4545	0.	1778.3
1958	16.262	5.4545	0.	1733.8
1959	16.446	5.4545	0.	1689.5
1960	16.631	5.4545	0.	1645.3
1961	16.815	5.4545	0.	1601.3
1962	16.999	5.4545	0.	1557.4
1963	17.183	5.4545	0.	1513.7
1964	17.368	5.4545	0.	1470.1
1965	17.552	5.4545	0.	1426.8
1966	17.736	5.4545	0.	1383.6
1967	17.92	5.4545	0.	1340.6
1968	18.105	5.4545	0.	1297.8
1969	18.289	5.4545	0.	1255.2
1970	18.473	5.4545	0.	1212.8
1971	18.657	5.4545	0.	1170.6
1972	18.841	5.4545	0.	1128.5
1973	19.026	5.4545	0.	1086.7
1974	19.21	5.4545	0.	1045.
1975	19.394	5.4545	0.	1003.5
1976	19.578	5.4545	0.	962.19
1977	19.763	5.4545	0.	921.07
1978	19.947	5.4545	0.	880.14
1979	20.131	5.4545	0.	839.38
1980	20.315	5.4545	0.	798.81
1981	20.5	5.4545	0.	758.42
1982	20.684	5.4545	0.	718.21
1983	20.868	5.4545	0.	678.19
1984	21.052	5.4545	0.	638.35
1985	21.236	5.4545	0.	598.71
1986	21.421	5.4545	0.	559.25
1987	21.605	5.4545	0.	520.01
1988	21.789	5.4545	0.	480.98
1989	21.973	5.4545	0.	442.19
1990	22.158	5.4545	0.	403.67
1991	22.342	5.4545	0.	365.47
1992	22.526	5.4545	0.	327.66
1993	22.71	5.4545	0.	290.34
1994	22.895	5.4545	0.	253.69
1995	23.079	5.4545	0.	217.98
1996	23.263	5.4545	0.	183.71
1997	23.447	5.4545	0.	151.69
1998	23.632	5.4545	0.	123.48
1999	23.816	5.4545	0.	101.71
2000	10.551	5.2727	0.	1649.7
2001	10.735	5.2727	0.	1624.7
2002	10.919	5.2727	0.	1763.2
2003	11.104	5.2727	0.	1932.
2004	11.288	5.2727	0.	2090.5
2005	11.472	5.2727	0.	2223.3
2006	11.656	5.2727	0.	2326.4
2007	11.841	5.2727	0.	2401.5
2008	12.025	5.2727	0.	2452.2
2009	12.209	5.2727	0.	2482.3
2010	12.393	5.2727	0.	2495.8
2011	12.577	5.2727	0.	2495.9
2012	12.762	5.2727	0.	2485.3
2013	12.946	5.2727	0.	2466.4
2014	13.13	5.2727	0.	2441.
2015	13.314	5.2727	0.	2410.6
2016	13.499	5.2727	0.	2376.4
2017	13.683	5.2727	0.	2339.2
2018	13.867	5.2727	0.	2299.9
2019	14.051	5.2727	0.	2258.9
2020	14.236	5.2727	0.	2216.7
2021	14.42	5.2727	0.	2173.6
2022	14.604	5.2727	0.	2129.9
2023	14.788	5.2727	0.	2085.8
2024	14.973	5.2727	0.	2041.4
2025	15.157	5.2727	0.	1996.9
2026	15.341	5.2727	0.	1952.2
2027	15.525	5.2727	0.	1907.6
2028	15.709	5.2727	0.	1863.
2029	15.894	5.2727	0.	1818.5
2030	16.078	5.2727	0.	1774.1
2031	16.262	5.2727	0.	1729.8
2032	16.446	5.2727	0.	1685.6
2033	16.631	5.2727	0.	1641.6
2034	16.815	5.2727	0.	1597.7
2035	16.999	5.2727	0.	1554.1
2036	17.183	5.2727	0.	1510.5
2037	17.368	5.2727	0.	1467.2
2038	17.552	5.2727	0.	1424.
2039	17.736	5.2727	0.	1381.
2040	17.92	5.2727	0.	1338.2
2041	18.105	5.2727	0.	1295.6
2042	18.289	5.2727	0.	1253.1
2043	18.473	5.2727	0.	1210.9
2044	18.657	5.2727	0.	1168.8
2045	18.841	5.2727	0.	1126.9
2046	19.026	5.2727	0.	1085.2
2047	19.21	5.2727	0.	1043.7
2048	19.394	5.2727	0.	1002.4
2049	19.578	5.2727	0.	961.26
2050	19.763	5.2727	0.	920.33
2051	19.947	5.2727	0.	879.6
2052	20.131	5.2727	0.	839.06
2053	20.315	5.2727	0.	798.71
2054	20.5	5.2727	0.	758.57
2055	20.684	5.2727	0.	718.62
2056	20.868	5.2727	0.	678.89
2057	21.052	5.2727	0.	639.36
2058	21.236	5.2727	0.	600.06
2059	21.421	5.2727	0.	560.99
2060	21.605	5.2727	0.	522.17
2061	21.789	5.2727	0.	483.63
2062	21.973	5.2727	0.	445.39
2063	22.158	5.2727	0.	407.49
2064	22.342	5.2727	0.	370.02
2065	22.526	5.2727	0.	333.06
2066	22.71	5.2727	0.	296.75
2067	22.895	5.2727	0.	261.3
2068	23.079	5.2727	0.	227.06
2069	23.263	5.2727	0.	194.53
2070	23.447	5.2727	0.	164.51
2071	23.632	5.2727	0.	138.31
2072	23.816	5.2727	0.	118.01
2073	10.551	5.0909	0.	2109.3
2074	10.735	5.0909	0.	2004.3
2075	10.919	5.0909	0.	2074.6
2076	11.104	5.0909	0.	2180.2
2077	11.288	5.0909	0.	2285.3
2078	11.472	5.0909	0.	2374.8
2079	11.656	5.0909	0.	2443.5
2080	11.841	5.0909	0.	2491.5
2081	12.025	5.0909	0.	2520.8
2082	12.209	5.0909	0.	2534.2
2083	12.393	5.0909	0.	2534.5
2084	12.577	5.0909	0.	2524.2
2085	12.762	5.0909	0.	2505.5
2086	12.946	5.0909	0.	2480.3
2087	13.13	5.0909	0.	2450.1
2088	13.314	5.0909	0.	2415.9
2089	13.499	5.0909	0.	2378.8
2090	13.683	5.0909	0.	2339.4
2091	13.867	5.0909	0.	2298.4
2092	14.051	5.0909	0.	2256.3
2093	14.236	5.0909	0.	2213.2
2094	14.42	5.0909	0.	2169.6
2095	14.604	5.0909	0.	2125.5
2096	14.788	5.0909	0.	2081.2
2097	14.973	5.0909	0.	2036.7
2098	15.157	5.0909	0.	1992.1
2099	15.341	5.0909	0.	1947.6
2100	15.525	5.0909	0.	1903.1
2101	15.709	5.0909	0.	1858.6
2102	15.894	5.0909	0.	1814.3
2103	16.078	5.0909	0.	1770.
2104	16.262	5.0909	0.	1725.9
2105	16.446	5.0909	0.	1681.9
2106	16.631	5.0909	0.	1638.1
2107	16.815	5.0909	0.	1594.4
2108	16.999	5.0909	0.	1550.9
2109	17.183	5.0909	0.	1507.6
2110	17.368	5.0909	0.	1464.4
2111	17.552	5.0909	0.	1421.4
2112	17.736	5.0909	0.	1378.6
2113	17.92	5.0909	0.	1336.
2114	18.105	5.0909	0.	1293.5
2115	18.289	5.0909	0.	1251.2
2116	18.473	5.0909	0.	1209.1
2117	18.657	5.0909	0.	1167.2
2118	18.841	5.0909	0.	1125.5
2119	19.026	5.0909	0.	1084.
2120	19.21	5.0909	0.	1042.7
2121	19.394	5.0909	0.	1001.5
2122	19.578	5.0909	0.	960.58
2123	19.763	5.0909	0.	919.85
2124	19.947	5.0909	0.	879.32
2125	20.131	5.0909	0.	839.
2126	20.315	5.0909	0.	798.89
2127	20.5	5.0909	0.	759.
2128	20.684	5.0909	0.	719.33
2129	20.868	5.0909	0.	679.9
2130	21.052	5.0909	0.	640.7
2131	21.236	5.0909	0.	601.76
2132	21.421	5.0909	0.	563.09
2133	21.605	5.0909	0.	524.72
2134	21.789	5.0909	0.	486.66
2135	21.973	5.0909	0.	448.98
2136	22.158	5.0909	0.	411.72
2137	22.342	5.0909	0.	374.96
2138	22.526	5.0909	0.	338.82
2139	22.71	5.0909	0.	303.46
2140	22.895	5.0909	0.	269.11
2141	23.079	5.0909	0.	236.1
2142	23.263	5.0909	0.	204.93
2143	23.447	5.0909	0.	176.33
2144	23.632	5.0909	0.	151.43
2145	23.816	5.0909	0.	132.02
2146	10.551	4.9091	0.	2653.4
2147	10.735	4.9091	0.	2454.7
2148	10.919	4.9091	0.	2445.4
2149	11.104	4.9091	0.	2474.4
2150	11.288	4.9091	0.	2513.5
2151	11.472	4.9091	0.	2549.8
2152	11.656	4.9091	0.	2576.8
2153	11.841	4.9091	0.	2592.3
2154	12.025	4.9091	0.	2596.6
2155	12.209	4.9091	0.	2590.7
2156	12.393	4.9091	0.	2576.1
2157	12.577	4.9091	0.	2554.3
2158	12.762	4.9091	0.	2526.8
2159	12.946	4.9091	0.	2494.8
2160	13.13	4.9091	0.	2459.3
2161	13.314	4.9091	0.	2421.2
2162	13.499	4.9091	0.	2381.1
2163	13.683	4.9091	0.	2339.5
2164	13.867	4.9091	0.	2296.9
2165	14.051	4.9091	0.	2253.5
2166	14.236	4.9091	0.	2209.7
2167	14.42	4.9091	0.	2165.5
2168	14.604	4.9091	0.	2121.1
2169	14.788	4.9091	0.	2076.6
2170	14.973	4.9091	0.	2032.
2171	15.157	4.9091	0.	1987.5
2172	15.341	4.9091	0.	1943.
2173	15.525	4.9091	0.	1898.6
2174	15.709	4.9091	0.	1854.4
2175	15.894	4.9091	0.	1810.2
2176	16.078	4.9091	0.	1766.1
2177	16.262	4.9091	0.	1722.2
2178	16.446	4.9091	0.	1678.4
2179	16.631	4.9091	0.	1634.8
2180	16.815	4.9091	0.	1591.4
2181	16.999	4.9091	0.	1548.
2182	17.183	4.9091	0.	1504.9
2183	17.368	4.9091	0.	1461.9
2184	17.552	4.9091	0.	1419.1
2185	17.736	4.9091	0.	1376.4
2186	17.92	4.9091	0.	1334.
2187	18.105	4.9091	0.	1291.7
2188	18.289	4.9091	0.	1249.5
2189	18.473	4.9091	0.	1207.6
2190	18.657	4.9091	0.	1165.9
2191	18.841	4.9091	0.	1124.3
2192	19.026	4.9091	0.	1083.
2193	19.21	4.9091	0.	1041.8
2194	19.394	4.9091	0.	1000.8
2195	19.578	4.9091	0.	960.1
2196	19.763	4.9091	0.	919.56
2197	19.947	4.9091	0.	879.24
2198	20.131	4.9091	0.	839.15
2199	20.315	4.9091	0.	799.28
2200	20.5	4.9091	0.	759.65
2201	20.684	4.9091	0.	720.26
2202	20.868	4.9091	0.	681.12
2203	21.052	4.9091	0.	642.26
2204	21.236	4.9091	0.	603.68
2205	21.421	4.9091	0.	565.41
2206	21.605	4.9091	0.	527.47
2207	21.789	4.9091	0.	489.91
2208	21.973	4.9091	0.	452.76
2209	22.158	4.9091	0.	416.1
2210	22.342	4.9091	0.	380.02
2211	22.526	4.9091	0.	344.63
2212	22.71	4.9091	0.	310.1
2213	22.895	4.9091	0.	276.67
2214	23.079	4.9091	0.	244.65
2215	23.263	4.9091	0.	214.53
2216	23.447	4.9091	0.	186.95
2217	23.632	4.9091	0.	162.95
2218	23.816	4.9091	0.	144.14
2219	10.551	4.7273	0.	3328.2
2220	10.735	4.7273	0.	2996.9
2221	10.919	4.7273	0.	2876.3
2222	11.104	4.7273	0.	2808.1
2223	11.288	4.7273	0.	2767.9
2224	11.472	4.7273	0.	2742.1
2225	11.656	4.7273	0.	2721.6
2226	11.841	4.7273	0.	2701.
2227	12.025	4.7273	0.	2677.7
2228	12.209	4.7273	0.	2650.6
2229	12.393	4.7273	0.	2619.8
2230	12.577	4.7273	0.	2585.7
2231	12.762	4.7273	0.	2548.7
2232	12.946	4.7273	0.	2509.5
2233	13.13	4.7273	0.	2468.6
2234	13.314	4.7273	0.	2426.4
2235	13.499	4.7273	0.	2383.2
2236	13.683	4.7273	0.	2339.4
2237	13.867	4.7273	0.	2295.2
2238	14.051	4.7273	0.	2250.7
2239	14.236	4.7273	0.	2206.1
2240	14.42	4.7273	0.	2161.4
2241	14.604	4.7273	0.	2116.7
2242	14.788	4.7273	0.	2072.
2243	14.973	4.7273	0.	2027.5
2244	15.157	4.7273	0.	1983.
2245	15.341	4.7273	0.	1938.6
2246	15.525	4.7273	0.	1894.4
2247	15.709	4.7273	0.	1850.3
2248	15.894	4.7273	0.	1806.3
2249	16.078	4.7273	0.	1762.5
2250	16.262	4.7273	0.	1718.7
2251	16.446	4.7273	0.	1675.2
2252	16.631	4.7273	0.	1631.7
2253	16.815	4.7273	0.	1588.5
2254	16.999	4.7273	0.	1545.3
2255	17.183	4.7273	0.	1502.4
2256	17.368	4.7273	0.	1459.6
2257	17.552	4.7273	0.	1416.9
2258	17.736	4.7273	0.	1374.4
2259	17.92	4.7273	0.	1332.1
2260	18.105	4.7273	0.	1290.
2261	18.289	4.7273	0.	1248.
2262	18.473	4.7273	0.	1206.3
2263	18.657	4.7273	0.	1164.7
2264	18.841	4.7273	0.	1123.3
2265	19.026	4.7273	0.	1082.1
2266	19.21	4.7273	0.	1041.1
2267	19.394	4.7273	0.	1000.3
2268	19.578	4.7273	0.	959.78
2269	19.763	4.7273	0.	919.44
2270	19.947	4.7273	0.	879.32
2271	20.131	4.7273	0.	839.45
2272	20.315	4.7273	0.	799.81
2273	20.5	4.7273	0.	760.43
2274	20.684	4.7273	0.	721.32
2275	20.868	4.7273	0.	682.48
2276	21.052	4.7273	0.	643.94
2277	21.236	4.7273	0.	605.71
2278	21.421	4.7273	0.	567.82
2279	21.605	4.7273	0.	530.3
2280	21.789	4.7273	0.	493.2
2281	21.973	4.7273	0.	456.56
2282	22.158	4.7273	0.	420.46
2283	22.342	4.7273	0.	384.98
2284	22.526	4.7273	0.	350.25
2285	22.71	4.7273	0.	316.43
2286	22.895	4.7273	0.	283.75
2287	23.079	4.7273	0.	252.52
2288	23.263	4.7273	0.	223.18
2289	23.447	4.7273	0.	196.37
2290	23.632	4.7273	0.	173.03
2291	23.816	4.7273	0.	154.65
2292	10.551	4.5455	0.	4212.3
2293	10.735	4.5455	0.	3648.6
2294	10.919	4.5455	0.	3366.7
2295	11.104	4.5455	0.	3170.6
2296	11.288	4.5455	0.	3038.4
2297	11.472	4.5455	0.	2944.6
2298	11.656	4.5455	0.	2873.2
2299	11.841	4.5455	0.	2814.2
2300	12.025	4.5455	0.	2761.7
2301	12.209	4.5455	0.	2712.5
2302	12.393	4.5455	0.	2664.8
2303	12.577	4.5455	0.	2617.7
2304	12.762	4.5455	0.	2570.9
2305	12.946	4.5455	0.	2524.3
2306	13.13	4.5455	0.	2477.8
2307	13.314	4.5455	0.	2431.4
2308	13.499	4.5455	0.	2385.2
2309	13.683	4.5455	0.	2339.2
2310	13.867	4.5455	0.	2293.4
2311	14.051	4.5455	0.	2247.8
2312	14.236	4.5455	0.	2202.4
2313	14.42	4.5455	0.	2157.3
2314	14.604	4.5455	0.	2112.4
2315	14.788	4.5455	0.	2067.6
2316	14.973	4.5455	0.	2023.1
2317	15.157	4.5455	0.	1978.7
2318	15.341	4.5455	0.	1934.4
2319	15.525	4.5455	0.	1890.4
2320	15.709	4.5455	0.	1846.4
2321	15.894	4.5455	0.	1802.6
2322	16.078	4.5455	0.	1759.
2323	16.262	4.5455	0.	1715.5
2324	16.446	4.5455	0.	1672.1
2325	16.631	4.5455	0.	1628.9
2326	16.815	4.5455	0.	1585.8
2327	16.999	4.5455	0.	1542.9
2328	17.183	4.5455	0.	1500.1
2329	17.368	4.5455	0.	1457.4
2330	17.552	4.5455	0.	1415.
2331	17.736	4.5455	0.	1372.6
2332	17.92	4.5455	0.	1330.5
2333	18.105	4.5455	0.	1288.5
2334	18.289	4.5455	0.	1246.7
2335	18.473	4.5455	0.	1205.1
2336	18.657	4.5455	0.	1163.7
2337	18.841	4.5455	0.	1122.4
2338	19.026	4.5455	0.	1081.4
2339	19.21	4.5455	0.	1040.6
2340	19.394	4.5455	0.	999.97
2341	19.578	4.5455	0.	959.59
2342	19.763	4.5455	0.	919.43
2343	19.947	4.5455	0.	879.52
2344	20.131	4.5455	0.	839.85
2345	20.315	4.5455	0.	800.45
2346	20.5	4.5455	0.	761.31
2347	20.684	4.5455	0.	722.45
2348	20.868	4.5455	0.	683.9
2349	21.052	4.5455	0.	645.66
2350	21.236	4.5455	0.	607.76
2351	21.421	4.5455	0.	570.23
2352	21.605	4.5455	0.	533.11
2353	21.789	4.5455	0.	496.42
2354	21.973	4.5455	0.	460.24
2355	22.158	4.5455	0.	424.63
2356	22.342	4.5455	0.	389.67
2357	22.526	4.5455	0.	355.51
2358	22.71	4.5455	0.	322.28
2359	22.895	4.5455	0.	290.21
2360	23.079	4.5455	0.	259.6
2361	23.263	4.5455	0.	230.87
2362	23.447	4.5455	0.	204.63
2363	23.632	4.5455	0.	181.8
2364	23.816	4.5455	0.	163.75
2365	10.551	4.3636	0.	5496.7
2366	10.735	4.3636	0.	4435.
2367	10.919	4.3636	0.	3887.3
2368	11.104	4.3636	0.	3546.6
2369	11.288	4.3636	0.	3313.8
2370	11.472	4.3636	0.	3150.1
2371	11.656	4.3636	0.	3026.9
2372	11.841	4.3636	0.	2928.9
2373	12.025	4.3636	0.	2846.7
2374	12.209	4.3636	0.	2774.8
2375	12.393	4.3636	0.	2709.9
2376	12.577	4.3636	0.	2649.7
2377	12.762	4.3636	0.	2593.
2378	12.946	4.3636	0.	2538.9
2379	13.13	4.3636	0.	2486.8
2380	13.314	4.3636	0.	2436.3
2381	13.499	4.3636	0.	2387.
2382	13.683	4.3636	0.	2338.9
2383	13.867	4.3636	0.	2291.5
2384	14.051	4.3636	0.	2244.9
2385	14.236	4.3636	0.	2198.9
2386	14.42	4.3636	0.	2153.3
2387	14.604	4.3636	0.	2108.2
2388	14.788	4.3636	0.	2063.4
2389	14.973	4.3636	0.	2018.8
2390	15.157	4.3636	0.	1974.5
2391	15.341	4.3636	0.	1930.5
2392	15.525	4.3636	0.	1886.6
2393	15.709	4.3636	0.	1842.8
2394	15.894	4.3636	0.	1799.2
2395	16.078	4.3636	0.	1755.8
2396	16.262	4.3636	0.	1712.5
2397	16.446	4.3636	0.	1669.3
2398	16.631	4.3636	0.	1626.3
2399	16.815	4.3636	0.	1583.4
2400	16.999	4.3636	0.	1540.6
2401	17.183	4.3636	0.	1498.
2402	17.368	4.3636	0.	1455.5
2403	17.552	4.3636	0.	1413.2
2404	17.736	4.3636	0.	1371.
2405	17.92	4.3636	0.	1329.
2406	18.105	4.3636	0.	1287.2
2407	18.289	4.3636	0.	1245.6
2408	18.473	4.3636	0.	1204.1
2409	18.657	4.3636	0.	1162.8
2410	18.841	4.3636	0.	1121.7
2411	19.026	4.3636	0.	1080.8
2412	19.21	4.3636	0.	1040.2
2413	19.394	4.3636	0.	999.71
2414	19.578	4.3636	0.	959.49
2415	19.763	4.3636	0.	919.52
2416	19.947	4.3636	0.	879.79
2417	20.131	4.3636	0.	840.32
2418	20.315	4.3636	0.	801.13
2419	20.5	4.3636	0.	762.21
2420	20.684	4.3636	0.	723.6
2421	20.868	4.3636	0.	685.31
2422	21.052	4.3636	0.	647.35
2423	21.236	4.3636	0.	609.76
2424	21.421	4.3636	0.	572.56
2425	21.605	4.3636	0.	535.78
2426	21.789	4.3636	0.	499.47
2427	21.973	4.3636	0.	463.69
2428	22.158	4.3636	0.	428.51
2429	22.342	4.3636	0.	394.
2430	22.526	4.3636	0.	360.3
2431	22.71	4.3636	0.	327.56
2432	22.895	4.3636	0.	295.98
2433	23.079	4.3636	0.	265.85
2434	23.263	4.3636	0.	237.6
2435	23.447	4.3636	0.	211.81
2436	23.632	4.3636	0.	189.38
2437	23.816	4.3636	0.	171.58
2438	10.551	4.1818	0.	7406.7
2439	10.735	4.1818	0.	5313.7
2440	10.919	4.1818	0.	4411.8
2441	11.104	4.1818	0.	3916.2
2442	11.288	4.1818	0.	3586.6
2443	11.472	4.1818	0.	3353.6
2444	11.656	4.1818	0.	3179.2
2445	11.841	4.1818	0.	3042.5
2446	12.025	4.1818	0.	2930.8
2447	12.209	4.1818	0.	2836.4
2448	12.393	4.1818	0.	2754.3
2449	12.577	4.1818	0.	2681.
2450	12.762	4.1818	0.	2614.5
2451	12.946	4.1818	0.	2553.
2452	13.13	4.1818	0.	2495.4
2453	13.314	4.1818	0.	2440.9
2454	13.499	4.1818	0.	2388.7
2455	13.683	4.1818	0.	2338.5
2456	13.867	4.1818	0.	2289.7
2457	14.051	4.1818	0.	2242.1
2458	14.236	4.1818	0.	2195.5
2459	14.42	4.1818	0.	2149.6
2460	14.604	4.1818	0.	2104.3
2461	14.788	4.1818	0.	2059.4
2462	14.973	4.1818	0.	2014.9
2463	15.157	4.1818	0.	1970.7
2464	15.341	4.1818	0.	1926.8
2465	15.525	4.1818	0.	1883.1
2466	15.709	4.1818	0.	1839.5
2467	15.894	4.1818	0.	1796.1
2468	16.078	4.1818	0.	1752.9
2469	16.262	4.1818	0.	1709.8
2470	16.446	4.1818	0.	1666.8
2471	16.631	4.1818	0.	1624.
2472	16.815	4.1818	0.	1581.2
2473	16.999	4.1818	0.	1538.6
2474	17.183	4.1818	0.	1496.2
2475	17.368	4.1818	0.	1453.8
2476	17.552	4.1818	0.	1411.7
2477	17.736	4.1818	0.	1369.6
2478	17.92	4.1818	0.	1327.8
2479	18.105	4.1818	0.	1286.1
2480	18.289	4.1818	0.	1244.6
2481	18.473	4.1818	0.	1203.2
2482	18.657	4.1818	0.	1162.1
2483	18.841	4.1818	0.	1121.1
2484	19.026	4.1818	0.	1080.4
2485	19.21	4.1818	0.	1039.8
2486	19.394	4.1818	0.	999.54
2487	19.578	4.1818	0.	959.47
2488	19.763	4.1818	0.	919.66
2489	19.947	4.1818	0.	880.1
2490	20.131	4.1818	0.	840.81
2491	20.315	4.1818	0.	801.81
2492	20.5	4.1818	0.	763.11
2493	20.684	4.1818	0.	724.72
2494	20.868	4.1818	0.	686.66
2495	21.052	4.1818	0.	648.96
2496	21.236	4.1818	0.	611.63
2497	21.421	4.1818	0.	574.72
2498	21.605	4.1818	0.	538.25
2499	21.789	4.1818	0.	502.27
2500	21.973	4.1818	0.	466.84
2501	22.158	4.1818	0.	432.01
2502	22.342	4.1818	0.	397.88
2503	22.526	4.1818	0.	364.57
2504	22.71	4.1818	0.	332.21
2505	22.895	4.1818	0.	301.02
2506	23.079	4.1818	0.	271.28
2507	23.263	4.1818	0.	243.4
2508	23.447	4.1818	0.	217.97
2509	23.632	4.1818	0.	195.85
2510	23.816	4.1818	0.	178.25
2511	10.551	4.	0.	9047.7
2512	10.735	4.	0.	6016.2
2513	10.919	4.	0.	4913.1
2514	11.104	4.	0.	4275.4
2515	11.288	4.	0.	3851.1
2516	11.472	4.	0.	3551.7
2517	11.656	4.	0.	3327.3
2518	11.841	4.	0.	3152.8
2519	12.025	4.	0.	3012.2
2520	12.209	4.	0.	2895.8
2521	12.393	4.	0.	2796.8
2522	12.577	4.	0.	2710.9
2523	12.762	4.	0.	2634.9
2524	12.946	4.	0.	2566.3
2525	13.13	4.	0.	2503.5
2526	13.314	4.	0.	2445.2
2527	13.499	4.	0.	2390.3
2528	13.683	4.	0.	2338.1
2529	13.867	4.	0.	2288.
2530	14.051	4.	0.	2239.6
2531	14.236	4.	0.	2192.4
2532	14.42	4.	0.	2146.1
2533	14.604	4.	0.	2100.7
2534	14.788	4.	0.	2055.8
2535	14.973	4.	0.	2011.4
2536	15.157	4.	0.	1967.3
2537	15.341	4.	0.	1923.5
2538	15.525	4.	0.	1880.
2539	15.709	4.	0.	1836.6
2540	15.894	4.	0.	1793.4
2541	16.078	4.	0.	1750.3
2542	16.262	4.	0.	1707.4
2543	16.446	4.	0.	1664.6
2544	16.631	4.	0.	1621.9
2545	16.815	4.	0.	1579.3
2546	16.999	4.	0.	1536.9
2547	17.183	4.	0.	1494.6
2548	17.368	4.	0.	1452.4
2549	17.552	4.	0.	1410.3
2550	17.736	4.	0.	1368.4
2551	17.92	4.	0.	1326.7
2552	18.105	4.	0.	1285.1
2553	18.289	4.	0.	1243.7
2554	18.473	4.	0.	1202.5
2555	18.657	4.	0.	1161.4
2556	18.841	4.	0.	1120.6
2557	19.026	4.	0.	1080.
2558	19.21	4.	0.	1039.6
2559	19.394	4.	0.	999.43
2560	19.578	4.	0.	959.5
2561	19.763	4.	0.	919.83
2562	19.947	4.	0.	880.42
2563	20.131	4.	0.	841.3
2564	20.315	4.	0.	802.47
2565	20.5	4.	0.	763.94
2566	20.684	4.	0.	725.75
2567	20.868	4.	0.	687.9
2568	21.052	4.	0.	650.42
2569	21.236	4.	0.	613.33
2570	21.421	4.	0.	576.67
2571	21.605	4.	0.	540.46
2572	21.789	4.	0.	504.76
2573	21.973	4.	0.	469.61
2574	22.158	4.	0.	435.09
2575	22.342	4.	0.	401.27
2576	22.526	4.	0.	368.26
2577	22.71	4.	0.	336.21
2578	22.895	4.	0.	305.33
2579	23.079	4.	0.	275.9
2580	23.263	4.	0.	248.31
2581	23.447	4.	0.	223.16
2582	23.632	4.	0.	201.29
2583	23.816	4.	0.	183.84
2584	10.551	3.8182	0.	9008.7
2585	10.735	3.8182	0.	6630.9
2586	10.919	3.8182	0.	5353.2
2587	11.104	3.8182	0.	4607.5
2588	11.288	3.8182	0.	4100.5
2589	11.472	3.8182	0.	3738.8
2590	11.656	3.8182	0.	3467.2
2591	11.841	3.8182	0.	3256.6
2592	12.025	3.8182	0.	3088.5
2593	12.209	3.8182	0.	2951.1
2594	12.393	3.8182	0.	2836.4
2595	12.577	3.8182	0.	2738.6
2596	12.762	3.8182	0.	2653.6
2597	12.946	3.8182	0.	2578.5
2598	13.13	3.8182	0.	2510.9
2599	13.314	3.8182	0.	2449.
2600	13.499	3.8182	0.	2391.7
2601	13.683	3.8182	0.	2337.8
2602	13.867	3.8182	0.	2286.5
2603	14.051	3.8182	0.	2237.3
2604	14.236	3.8182	0.	2189.6
2605	14.42	3.8182	0.	2143.1
2606	14.604	3.8182	0.	2097.5
2607	14.788	3.8182	0.	2052.6
2608	14.973	3.8182	0.	2008.2
2609	15.157	3.8182	0.	1964.3
2610	15.341	3.8182	0.	1920.6
2611	15.525	3.8182	0.	1877.2
2612	15.709	3.8182	0.	1834.
2613	15.894	3.8182	0.	1791.
2614	16.078	3.8182	0.	1748.1
2615	16.262	3.8182	0.	1705.3
2616	16.446	3.8182	0.	1662.7
2617	16.631	3.8182	0.	1620.1
2618	16.815	3.8182	0.	1577.7
2619	16.999	3.8182	0.	1535.4
2620	17.183	3.8182	0.	1493.2
2621	17.368	3.8182	0.	1451.1
2622	17.552	3.8182	0.	1409.2
2623	17.736	3.8182	0.	1367.4
2624	17.92	3.8182	0.	1325.8
2625	18.105	3.8182	0.	1284.3
2626	18.289	3.8182	0.	1243.
2627	18.473	3.8182	0.	1201.9
2628	18.657	3.8182	0.	1161.
2629	18.841	3.8182	0.	1120.2
2630	19.026	3.8182	0.	1079.7
2631	19.21	3.8182	0.	1039.4
2632	19.394	3.8182	0.	999.36
2633	19.578	3.8182	0.	959.56
2634	19.763	3.8182	0.	920.01
2635	19.947	3.8182	0.	880.73
2636	20.131	3.8182	0.	841.74
2637	20.315	3.8182	0.	803.06
2638	20.5	3.8182	0.	764.69
2639	20.684	3.8182	0.	726.66
2640	20.868	3.8182	0.	688.99
2641	21.052	3.8182	0.	651.69
2642	21.236	3.8182	0.	614.81
2643	21.421	3.8182	0.	578.35
2644	21.605	3.8182	0.	542.37
2645	21.789	3.8182	0.	506.89
2646	21.973	3.8182	0.	471.98
2647	22.158	3.8182	0.	437.69
2648	22.342	3.8182	0.	404.12
2649	22.526	3.8182	0.	371.36
2650	22.71	3.8182	0.	339.55
2651	22.895	3.8182	0.	308.91
2652	23.079	3.8182	0.	279.71
2653	23.263	3.8182	0.	252.36
2654	23.447	3.8182	0.	227.42
2655	23.632	3.8182	0.	205.74
2656	23.816	3.8182	0.	188.43
2657	10.551	3.6364	0.	8546.8
2658	10.735	3.6364	0.	6859.4
2659	10.919	3.6364	0.	5686.4
2660	11.104	3.6364	0.	4883.3
2661	11.288	3.6364	0.	4319.4
2662	11.472	3.6364	0.	3905.7
2663	11.656	3.6364	0.	3592.7
2664	11.841	3.6364	0.	3349.6
2665	12.025	3.6364	0.	3156.6
2666	12.209	3.6364	0.	3000.2
2667	12.393	3.6364	0.	2871.2
2668	12.577	3.6364	0.	2762.8
2669	12.762	3.6364	0.	2670.
2670	12.946	3.6364	0.	2589.
2671	13.13	3.6364	0.	2517.2
2672	13.314	3.6364	0.	2452.4
2673	13.499	3.6364	0.	2392.9
2674	13.683	3.6364	0.	2337.5
2675	13.867	3.6364	0.	2285.2
2676	14.051	3.6364	0.	2235.3
2677	14.236	3.6364	0.	2187.2
2678	14.42	3.6364	0.	2140.5
2679	14.604	3.6364	0.	2094.9
2680	14.788	3.6364	0.	2050.
2681	14.973	3.6364	0.	2005.7
2682	15.157	3.6364	0.	1961.8
2683	15.341	3.6364	0.	1918.3
2684	15.525	3.6364	0.	1875.
2685	15.709	3.6364	0.	1831.9
2686	15.894	3.6364	0.	1789.1
2687	16.078	3.6364	0.	1746.3
2688	16.262	3.6364	0.	1703.7
2689	16.446	3.6364	0.	1661.1
2690	16.631	3.6364	0.	1618.7
2691	16.815	3.6364	0.	1576.4
2692	16.999	3.6364	0.	1534.2
2693	17.183	3.6364	0.	1492.1
2694	17.368	3.6364	0.	1450.1
2695	17.552	3.6364	0.	1408.3
2696	17.736	3.6364	0.	1366.6
2697	17.92	3.6364	0.	1325.1
2698	18.105	3.6364	0.	1283.7
2699	18.289	3.6364	0.	1242.5
2700	18.473	3.6364	0.	1201.4
2701	18.657	3.6364	0.	1160.6
2702	18.841	3.6364	0.	1119.9
2703	19.026	3.6364	0.	1079.5
2704	19.21	3.6364	0.	1039.3
2705	19.394	3.6364	0.	999.33
2706	19.578	3.6364	0.	959.62
2707	19.763	3.6364	0.	920.17
2708	19.947	3.6364	0.	881.
2709	20.131	3.6364	0.	842.13
2710	20.315	3.6364	0.	803.56
2711	20.5	3.6364	0.	765.32
2712	20.684	3.6364	0.	727.43
2713	20.868	3.6364	0.	689.9
2714	21.052	3.6364	0.	652.75
2715	21.236	3.6364	0.	616.02
2716	21.421	3.6364	0.	579.74
2717	21.605	3.6364	0.	543.92
2718	21.789	3.6364	0.	508.63
2719	21.973	3.6364	0.	473.9
2720	22.158	3.6364	0.	439.8
2721	22.342	3.6364	0.	406.41
2722	22.526	3.6364	0.	373.84
2723	22.71	3.6364	0.	342.22
2724	22.895	3.6364	0.	311.76
2725	23.079	3.6364	0.	282.74
2726	23.263	3.6364	0.	255.56
2727	23.447	3.6364	0.	230.79
2728	23.632	3.6364	0.	209.26
2729	23.816	3.6364	0.	192.04
2730	10.551	3.4545	0.	7933.6
2731	10.735	3.4545	0.	6854.6
2732	10.919	3.4545	0.	5860.3
2733	11.104	3.4545	0.	5081.3
2734	11.288	3.4545	0.	4490.2
2735	11.472	3.4545	0.	4041.1
2736	11.656	3.4545	0.	3695.7
2737	11.841	3.4545	0.	3426.1
2738	12.025	3.4545	0.	3212.5
2739	12.209	3.4545	0.	3040.4
2740	12.393	3.4545	0.	2899.7
2741	12.577	3.4545	0.	2782.5
2742	12.762	3.4545	0.	2683.2
2743	12.946	3.4545	0.	2597.6
2744	13.13	3.4545	0.	2522.4
2745	13.314	3.4545	0.	2455.1
2746	13.499	3.4545	0.	2393.9
2747	13.683	3.4545	0.	2337.3
2748	13.867	3.4545	0.	2284.2
2749	14.051	3.4545	0.	2233.8
2750	14.236	3.4545	0.	2185.4
2751	14.42	3.4545	0.	2138.5
2752	14.604	3.4545	0.	2092.8
2753	14.788	3.4545	0.	2047.9
2754	14.973	3.4545	0.	2003.6
2755	15.157	3.4545	0.	1959.9
2756	15.341	3.4545	0.	1916.4
2757	15.525	3.4545	0.	1873.3
2758	15.709	3.4545	0.	1830.3
2759	15.894	3.4545	0.	1787.6
2760	16.078	3.4545	0.	1744.9
2761	16.262	3.4545	0.	1702.4
2762	16.446	3.4545	0.	1660.
2763	16.631	3.4545	0.	1617.6
2764	16.815	3.4545	0.	1575.4
2765	16.999	3.4545	0.	1533.3
2766	17.183	3.4545	0.	1491.3
2767	17.368	3.4545	0.	1449.4
2768	17.552	3.4545	0.	1407.6
2769	17.736	3.4545	0.	1366.
2770	17.92	3.4545	0.	1324.5
2771	18.105	3.4545	0.	1283.2
2772	18.289	3.4545	0.	1242.
2773	18.473	3.4545	0.	1201.1
2774	18.657	3.4545	0.	1160.3
2775	18.841	3.4545	0.	1119.7
2776	19.026	3.4545	0.	1079.3
2777	19.21	3.4545	0.	1039.2
2778	19.394	3.4545	0.	999.32
2779	19.578	3.4545	0.	959.68
2780	19.763	3.4545	0.	920.31
2781	19.947	3.4545	0.	881.22
2782	20.131	3.4545	0.	842.43
2783	20.315	3.4545	0.	803.96
2784	20.5	3.4545	0.	765.81
2785	20.684	3.4545	0.	728.02
2786	20.868	3.4545	0.	690.6
2787	21.052	3.4545	0.	653.57
2788	21.236	3.4545	0.	616.96
2789	21.421	3.4545	0.	580.8
2790	21.605	3.4545	0.	545.11
2791	21.789	3.4545	0.	509.95
2792	21.973	3.4545	0.	475.36
2793	22.158	3.4545	0.	441.4
2794	22.342	3.4545	0.	408.15
2795	22.526	3.4545	0.	375.71
2796	22.71	3.4545	0.	344.22
2797	22.895	3.4545	0.	313.89
2798	23.079	3.4545	0.	285.
2799	23.263	3.4545	0.	257.95
2800	23.447	3.4545	0.	233.3
2801	23.632	3.4545	0.	211.88
2802	23.816	3.4545	0.	194.72
2803	10.551	3.2727	0.	7571.9
2804	10.735	3.2727	0.	6768.4
2805	10.919	3.2727	0.	5931.1
2806	11.104	3.2727	0.	5198.3
2807	11.288	3.2727	0.	4603.8
2808	11.472	3.2727	0.	4135.4
2809	11.656	3.2727	0.	3768.8
2810	11.841	3.2727	0.	3480.8
2811	12.025	3.2727	0.	3252.4
2812	12.209	3.2727	0.	3069.1
2813	12.393	3.2727	0.	2919.8
2814	12.577	3.2727	0.	2796.4
2815	12.762	3.2727	0.	2692.5
2816	12.946	3.2727	0.	2603.6
2817	13.13	3.2727	0.	2526.
2818	13.314	3.2727	0.	2457.
2819	13.499	3.2727	0.	2394.6
2820	13.683	3.2727	0.	2337.2
2821	13.867	3.2727	0.	2283.5
2822	14.051	3.2727	0.	2232.8
2823	14.236	3.2727	0.	2184.2
2824	14.42	3.2727	0.	2137.2
2825	14.604	3.2727	0.	2091.4
2826	14.788	3.2727	0.	2046.5
2827	14.973	3.2727	0.	2002.3
2828	15.157	3.2727	0.	1958.6
2829	15.341	3.2727	0.	1915.2
2830	15.525	3.2727	0.	1872.1
2831	15.709	3.2727	0.	1829.2
2832	15.894	3.2727	0.	1786.5
2833	16.078	3.2727	0.	1744.
2834	16.262	3.2727	0.	1701.5
2835	16.446	3.2727	0.	1659.2
2836	16.631	3.2727	0.	1616.9
2837	16.815	3.2727	0.	1574.7
2838	16.999	3.2727	0.	1532.7
2839	17.183	3.2727	0.	1490.7
2840	17.368	3.2727	0.	1448.9
2841	17.552	3.2727	0.	1407.2
2842	17.736	3.2727	0.	1365.6
2843	17.92	3.2727	0.	1324.2
2844	18.105	3.2727	0.	1282.9
2845	18.289	3.2727	0.	1241.8
2846	18.473	3.2727	0.	1200.8
2847	18.657	3.2727	0.	1160.1
2848	18.841	3.2727	0.	1119.6
2849	19.026	3.2727	0.	1079.2
2850	19.21	3.2727	0.	1039.2
2851	19.394	3.2727	0.	999.31
2852	19.578	3.2727	0.	959.73
2853	19.763	3.2727	0.	920.41
2854	19.947	3.2727	0.	881.38
2855	20.131	3.2727	0.	842.64
2856	20.315	3.2727	0.	804.23
2857	20.5	3.2727	0.	766.15
2858	20.684	3.2727	0.	728.43
2859	20.868	3.2727	0.	691.08
2860	21.052	3.2727	0.	654.12
2861	21.236	3.2727	0.	617.59
2862	21.421	3.2727	0.	581.51
2863	21.605	3.2727	0.	545.92
2864	21.789	3.2727	0.	510.84
2865	21.973	3.2727	0.	476.34
2866	22.158	3.2727	0.	442.47
2867	22.342	3.2727	0.	409.3
2868	22.526	3.2727	0.	376.95
2869	22.71	3.2727	0.	345.56
2870	22.895	3.2727	0.	315.31
2871	23.079	3.2727	0.	286.5
2872	23.263	3.2727	0.	259.53
2873	23.447	3.2727	0.	234.96
2874	23.632	3.2727	0.	213.61
2875	23.816	3.2727	0.	196.49
2876	10.551	3.0909	0.	7399.7
2877	10.735	3.0909	0.	6711.5
2878	10.919	3.0909	0.	5952.2
2879	11.104	3.0909	0.	5250.5
2880	11.288	3.0909	0.	4659.6
2881	11.472	3.0909	0.	4183.5
2882	11.656	3.0909	0.	3806.7
2883	11.841	3.0909	0.	3509.3
2884	12.025	3.0909	0.	3273.2
2885	12.209	3.0909	0.	3084.
2886	12.393	3.0909	0.	2930.3
2887	12.577	3.0909	0.	2803.6
2888	12.762	3.0909	0.	2697.4
2889	12.946	3.0909	0.	2606.7
2890	13.13	3.0909	0.	2527.8
2891	13.314	3.0909	0.	2458.
2892	13.499	3.0909	0.	2394.9
2893	13.683	3.0909	0.	2337.1
2894	13.867	3.0909	0.	2283.2
2895	14.051	3.0909	0.	2232.3
2896	14.236	3.0909	0.	2183.5
2897	14.42	3.0909	0.	2136.5
2898	14.604	3.0909	0.	2090.7
2899	14.788	3.0909	0.	2045.8
2900	14.973	3.0909	0.	2001.6
2901	15.157	3.0909	0.	1957.9
2902	15.341	3.0909	0.	1914.6
2903	15.525	3.0909	0.	1871.5
2904	15.709	3.0909	0.	1828.7
2905	15.894	3.0909	0.	1786.
2906	16.078	3.0909	0.	1743.5
2907	16.262	3.0909	0.	1701.1
2908	16.446	3.0909	0.	1658.8
2909	16.631	3.0909	0.	1616.5
2910	16.815	3.0909	0.	1574.4
2911	16.999	3.0909	0.	1532.4
2912	17.183	3.0909	0.	1490.4
2913	17.368	3.0909	0.	1448.6
2914	17.552	3.0909	0.	1406.9
2915	17.736	3.0909	0.	1365.4
2916	17.92	3.0909	0.	1324.
2917	18.105	3.0909	0.	1282.7
2918	18.289	3.0909	0.	1241.6
2919	18.473	3.0909	0.	1200.7
2920	18.657	3.0909	0.	1160.
2921	18.841	3.0909	0.	1119.5
2922	19.026	3.0909	0.	1079.2
2923	19.21	3.0909	0.	1039.1
2924	19.394	3.0909	0.	999.31
2925	19.578	3.0909	0.	959.75
2926	19.763	3.0909	0.	920.46
2927	19.947	3.0909	0.	881.45
2928	20.131	3.0909	0.	842.75
2929	20.315	3.0909	0.	804.37
2930	20.5	3.0909	0.	766.32
2931	20.684	3.0909	0.	728.63
2932	20.868	3.0909	0.	691.32
2933	21.052	3.0909	0.	654.4
2934	21.236	3.0909	0.	617.91
2935	21.421	3.0909	0.	581.87
2936	21.605	3.0909	0.	546.32
2937	21.789	3.0909	0.	511.29
2938	21.973	3.0909	0.	476.83
2939	22.158	3.0909	0.	443.
2940	22.342	3.0909	0.	409.88
2941	22.526	3.0909	0.	377.58
2942	22.71	3.0909	0.	346.22
2943	22.895	3.0909	0.	316.02
2944	23.079	3.0909	0.	287.25
2945	23.263	3.0909	0.	260.32
2946	23.447	3.0909	0.	235.79
2947	23.632	3.0909	0.	214.47
2948	23.816	3.0909	0.	197.38
2949	10.551	2.9091	0.	7399.7
2950	10.735	2.9091	0.	6711.5
2951	10.919	2.9091	0.	5952.2
2952	11.104	2.9091	0.	5250.5
2953	11.288	2.9091	0.	4659.6
2954	11.472	2.9091	0.	4183.5
2955	11.656	2.9091	0.	3806.7
2956	11.841	2.9091	0.	3509.3
2957	12.025	2.9091	0.	3273.2
2958	12.209	2.9091	0.	3084.
2959	12.393	2.9091	0.	2930.3
2960	12.577	2.9091	0.	2803.6
2961	12.762	2.9091	0.	2697.4
2962	12.946	2.9091	0.	2606.7
2963	13.13	2.9091	0.	2527.8
2964	13.314	2.9091	0.	2458.
2965	13.499	2.9091	0.	2394.9
2966	13.683	2.9091	0.	2337.1
2967	13.867	2.9091	0.	2283.2
2968	14.051	2.9091	0.	2232.3
2969	14.236	2.9091	0.	2183.5
2970	14.42	2.9091	0.	2136.5
2971	14.604	2.9091	0.	2090.7
2972	14.788	2.9091	0.	2045.8
2973	14.973	2.9091	0.	2001.6
2974	15.157	2.9091	0.	1957.9
2975	15.341	2.9091	0.	1914.6
2976	15.525	2.9091	0.	1871.5
2977	15.709	2.9091	0.	1828.7
2978	15.894	2.9091	0.	1786.
2979	16.078	2.9091	0.	1743.5
2980	16.262	2.9091	0.	1701.1
2981	16.446	2.9091	0.	1658.8
2982	16.631	2.9091	0.	1616.5
2983	16.815	2.9091	0.	1574.4
2984	16.999	2.9091	0.	1532.4
2985	17.183	2.9091	0.	1490.4
2986	17.368	2.9091	0.	1448.6
2987	17.552	2.9091	0.	1406.9
2988	17.736	2.9091	0.	1365.4
2989	17.92	2.9091	0.	1324.
2990	18.105	2.9091	0.	1282.7
2991	18.289	2.9091	0.	1241.6
2992	18.473	2.9091	0.	1200.7
2993	18.657	2.9091	0.	1160.
2994	18.841	2.9091	0.	1119.5
2995	19.026	2.9091	0.	1079.2
2996	19.21	2.9091	0.	1039.1
2997	19.394	2.9091	0.	999.31
2998	19.578	2.9091	0.	959.75
2999	19.763	2.9091	0.	920.46
3000	19.947	2.9091	0.	881.45
3001	20.131	2.9091	0.	842.75
3002	20.315	2.9091	0.	804.37
3003	20.5	2.9091	0.	766.32
3004	20.684	2.9091	0.	728.63
3005	20.868	2.9091	0.	691.32
3006	21.052	2.9091	0.	654.4
3007	21.236	2.9091	0.	617.91
3008	21.421	2.9091	0.	581.87
3009	21.605	2.9091	0.	546.32
3010	21.789	2.9091	0.	511.29
3011	21.973	2.9091	0.	476.83
3012	22.158	2.9091	0.	443.
3013	22.342	2.9091	0.	409.88
3014	22.526	2.9091	0.	377.58
3015	22.71	2.9091	0.	346.22
3016	22.895	2.9091	0.	316.02
3017	23.079	2.9091	0.	287.25
3018	23.263	2.9091	0.	260.32
3019	23.447	2.9091	0.	235.79
3020	23.632	2.9091	0.	214.47
3021	23.816	2.9091	0.	197.38
3022	10.551	2.7273	0.	7571.9
3023	10.735	2.7273	0.	6768.4
3024	10.919	2.7273	0.	5931.1
3025	11.104	2.7273	0.	5198.3
3026	11.288	2.7273	0.	4603.8
3027	11.472	2.7273	0.	4135.4
3028	11.656	2.7273	0.	3768.8
3029	11.841	2.7273	0.	3480.8
3030	12.025	2.7273	0.	3252.4
3031	12.209	2.7273	0.	3069.1
3032	12.393	2.7273	0.	2919.8
3033	12.577	2.7273	0.	2796.4
3034	12.762	2.7273	0.	2692.5
3035	12.946	2.7273	0.	2603.6
3036	13.13	2.7273	0.	2526.
3037	13.314	2.7273	0.	2457.
3038	13.499	2.7273	0.	2394.6
3039	13.683	2.7273	0.	2337.2
3040	13.867	2.7273	0.	2283.5
3041	14.051	2.7273	0.	2232.8
3042	14.236	2.7273	0.	2184.2
3043	14.42	2.7273	0.	2137.2
3044	14.604	2.7273	0.	2091.4
3045	14.788	2.7273	0.	2046.5
3046	14.973	2.7273	0.	2002.3
3047	15.157	2.7273	0.	1958.6
3048	15.341	2.7273	0.	1915.2
3049	15.525	2.7273	0.	1872.1
3050	15.709	2.7273	0.	1829.2
3051	15.894	2.7273	0.	1786.5
3052	16.078	2.7273	0.	1744.
3053	16.262	2.7273	0.	1701.5
3054	16.446	2.7273	0.	1659.2
3055	16.631	2.7273	0.	1616.9
3056	16.815	2.7273	0.	1574.7
3057	16.999	2.7273	0.	1532.7
3058	17.183	2.7273	0.	1490.7
3059	17.368	2.7273	0.	1448.9
3060	17.552	2.7273	0.	1407.2
3061	17.736	2.7273	0.	1365.6
3062	17.92	2.7273	0.	1324.2
3063	18.105	2.7273	0.	1282.9
3064	18.289	2.7273	0.	1241.8
3065	18.473	2.7273	0.	1200.8
3066	18.657	2.7273	0.	1160.1
3067	18.841	2.7273	0.	1119.6
3068	19.026	2.7273	0.	1079.2
3069	19.21	2.7273	0.	1039.2
3070	19.394	2.7273	0.	999.31
3071	19.578	2.7273	0.	959.73
3072	19.763	2.7273	0.	920.41
3073	19.947	2.7273	0.	881.38
3074	20.131	2.7273	0.	842.64
3075	20.315	2.7273	0.	804.23
3076	20.5	2.7273	0.	766.15
3077	20.684	2.7273	0.	728.43
3078	20.868	2.7273	0.	691.08
3079	21.052	2.7273	0.	654.12
3080	21.236	2.7273	0.	617.59
3081	21.421	2.7273	0.	581.51
3082	21.605	2.7273	0.	545.92
3083	21.789	2.7273	0.	510.84
3084	21.973	2.7273	0.	476.34
3085	22.158	2.7273	0.	442.47
3086	22.342	2.7273	0.	409.3
3087	22.526	2.7273	0.	376.95
3088	22.71	2.7273	0.	345.56
3089	22.895	2.7273	0.	315.31
3090	23.079	2.7273	0.	286.5
3091	23.263	2.7273	0.	259.53
3092	23.447	2.7273	0.	234.96
3093	23.632	2.7273	0.	213.61
3094	23.816	2.7273	0.	196.49
3095	10.551	2.5455	0.	7933.6
3096	10.735	2.5455	0.	6854.6
3097	10.919	2.5455	0.	5860.3
3098	11.104	2.5455	0.	5081.3
3099	11.288	2.5455	0.	4490.2
3100	11.472	2.5455	0.	4041.1
3101	11.656	2.5455	0.	3695.7
3102	11.841	2.5455	0.	3426.1
3103	12.025	2.5455	0.	3212.5
3104	12.209	2.5455	0.	3040.4
3105	12.393	2.5455	0.	2899.7
3106	12.577	2.5455	0.	2782.5
3107	12.762	2.5455	0.	2683.2
3108	12.946	2.5455	0.	2597.6
3109	13.13	2.5455	0.	2522.4
3110	13.314	2.5455	0.	2455.1
3111	13.499	2.5455	0.	2393.9
3112	13.683	2.5455	0.	2337.3
3113	13.867	2.5455	0.	2284.2
3114	14.051	2.5455	0.	2233.8
3115	14.236	2.5455	0.	2185.4
3116	14.42	2.5455	0.	2138.5
3117	14.604	2.5455	0.	2092.8
3118	14.788	2.5455	0.	2047.9
3119	14.973	2.5455	0.	2003.6
3120	15.157	2.5455	0.	1959.9
3121	15.341	2.5455	0.	1916.4
3122	15.525	2.5455	0.	1873.3
3123	15.709	2.5455	0.	1830.3
3124	15.894	2.5455	0.	1787.6
3125	16.078	2.5455	0.	1744.9
3126	16.262	2.5455	0.	1702.4
3127	16.446	2.5455	0.	1660.
3128	16.631	2.5455	0.	1617.6
3129	16.815	2.5455	0.	1575.4
3130	16.999	2.5455	0.	1533.3
3131	17.183	2.5455	0.	1491.3
3132	17.368	2.5455	0.	1449.4
3133	17.552	2.5455	0.	1407.6
3134	17.736	2.5455	0.	1366.
3135	17.92	2.5455	0.	1324.5
3136	18.105	2.5455	0.	1283.2
3137	18.289	2.5455	0.	1242.
3138	18.473	2.5455	0.	1201.1
3139	18.657	2.5455	0.	1160.3
3140	18.841	2.5455	0.	1119.7
3141	19.026	2.5455	0.	1079.3
3142	19.21	2.5455	0.	1039.2
3143	19.394	2.5455	0.	999.32
3144	19.578	2.5455	0.	959.68
3145	19.763	2.5455	0.	920.31
3146	19.947	2.5455	0.	881.22
3147	20.131	2.5455	0.	842.43
3148	20.315	2.5455	0.	803.96
3149	20.5	2.5455	0.	765.81
3150	20.684	2.5455	0.	728.02
3151	20.868	2.5455	0.	690.6
3152	21.052	2.5455	0.	653.57
3153	21.236	2.5455	0.	616.96
3154	21.421	2.5455	0.	580.8
3155	21.605	2.5455	0.	545.11
3156	21.789	2.5455	0.	509.95
3157	21.973	2.5455	0.	475.36
3158	22.158	2.5455	0.	441.4
3159	22.342	2.5455	0.	408.15
3160	22.526	2.5455	0.	375.71
3161	22.71	2.5455	0.	344.22
3162	22.895	2.5455	0.	313.89
3163	23.079	2.5455	0.	285.
3164	23.263	2.5455	0.	257.95
3165	23.447	2.5455	0.	233.3
3166	23.632	2.5455	0.	211.88
3167	23.816	2.5455	0.	194.72
3168	10.551	2.3636	0.	8546.8
3169	10.735	2.3636	0.	6859.4
3170	10.919	2.3636	0.	5686.4
3171	11.104	2.3636	0.	4883.3
3172	11.288	2.3636	0.	4319.4
3173	11.472	2.3636	0.	3905.7
3174	11.656	2.3636	0.	3592.7
3175	11.841	2.3636	0.	3349.6
3176	12.025	2.3636	0.	3156.6
3177	12.209	2.3636	0.	3000.2
3178	12.393	2.3636	0.	2871.2
3179	12.577	2.3636	0.	2762.8
3180	12.762	2.3636	0.	2670.
3181	12.946	2.3636	0.	2589.
3182	13.13	2.3636	0.	2517.2
3183	13.314	2.3636	0.	2452.4
3184	13.499	2.3636	0.	2392.9
3185	13.683	2.3636	0.	2337.5
3186	13.867	2.3636	0.	2285.2
3187	14.051	2.3636	0.	2235.3
3188	14.236	2.3636	0.	2187.2
3189	14.42	2.3636	0.	2140.5
3190	14.604	2.3636	0.	2094.9
3191	14.788	2.3636	0.	2050.
3192	14.973	2.3636	0.	2005.7
3193	15.157	2.3636	0.	1961.8
3194	15.341	2.3636	0.	1918.3
3195	15.525	2.3636	0.	1875.
3196	15.709	2.3636	0.	1831.9
3197	15.894	2.3636	0.	1789.1
3198	16.078	2.3636	0.	1746.3
3199	16.262	2.3636	0.	1703.7
3200	16.446	2.3636	0.	1661.1
3201	16.631	2.3636	0.	1618.7
3202	16.815	2.3636	0.	1576.4
3203	16.999	2.3636	0.	1534.2
3204	17.183	2.3636	0.	1492.1
3205	17.368	2.3636	0.	1450.1
3206	17.552	2.3636	0.	1408.3
3207	17.736	2.3636	0.	1366.6
3208	17.92	2.3636	0.	1325.1
3209	18.105	2.3636	0.	1283.7
3210	18.289	2.3636	0.	1242.5
3211	18.473	2.3636	0.	1201.4
3212	18.657	2.3636	0.	1160.6
3213	18.841	2.3636	0.	1119.9
3214	19.026	2.3636	0.	1079.5
3215	19.21	2.3636	0.	1039.3
3216	19.394	2.3636	0.	999.33
3217	19.578	2.3636	0.	959.62
3218	19.763	2.3636	0.	920.17
3219	19.947	2.3636	0.	881.
3220	20.131	2.3636	0.	842.13
3221	20.315	2.3636	0.	803.56
3222	20.5	2.3636	0.	765.32
3223	20.684	2.3636	0.	727.43
3224	20.868	2.3636	0.	689.9
3225	21.052	2.3636	0.	652.75
3226	21.236	2.3636	0.	616.02
3227	21.421	2.3636	0.	579.74
3228	21.605	2.3636	0.	543.92
3229	21.789	2.3636	0.	508.63
3230	21.973	2.3636	0.	473.9
3231	22.158	2.3636	0.	439.8
3232	22.342	2.3636	0.	406.41
3233	22.526	2.3636	0.	373.84
3234	22.71	2.3636	0.	342.22
3235	22.895	2.3636	0.	311.76
3236	23.079	2.3636	0.	282.74
3237	23.263	2.3636	0.	255.56
3238	23.447	2.3636	0.	230.79
3239	23.632	2.3636	0.	209.27
3240	23.816	2.3636	0.	192.04
3241	10.551	2.1818	0.	9008.7
3242	10.735	2.1818	0.	6630.9
3243	10.919	2.1818	0.	5353.2
3244	11.104	2.1818	0.	4607.5
3245	11.288	2.1818	0.	4100.5
3246	11.472	2.1818	0.	3738.8
3247	11.656	2.1818	0.	3467.2
3248	11.841	2.1818	0.	3256.6
3249	12.025	2.1818	0.	3088.5
3250	12.209	2.1818	0.	2951.1
3251	12.393	2.1818	0.	2836.4
3252	12.577	2.1818	0.	2738.6
3253	12.762	2.1818	0.	2653.6
3254	12.946	2.1818	0.	2578.5
3255	13.13	2.1818	0.	2510.9
3256	13.314	2.1818	0.	2449.
3257	13.499	2.1818	0.	2391.7
3258	13.683	2.1818	0.	2337.8
3259	13.867	2.1818	0.	2286.5
3260	14.051	2.1818	0.	2237.3
3261	14.236	2.1818	0.	2189.6
3262	14.42	2.1818	0.	2143.1
3263	14.604	2.1818	0.	2097.5
3264	14.788	2.1818	0.	2052.6
3265	14.973	2.1818	0.	2008.2
3266	15.157	2.1818	0.	1964.3
3267	15.341	2.1818	0.	1920.6
3268	15.525	2.1818	0.	1877.2
3269	15.709	2.1818	0.	1834.
3270	15.894	2.1818	0.	1791.
3271	16.078	2.1818	0.	1748.1
3272	16.262	2.1818	0.	1705.3
3273	16.446	2.1818	0.	1662.7
3274	16.631	2.1818	0.	1620.1
3275	16.815	2.1818	0.	1577.7
3276	16.999	2.1818	0.	1535.4
3277	17.183	2.1818	0.	1493.2
3278	17.368	2.1818	0.	1451.1
3279	17.552	2.1818	0.	1409.2
3280	17.736	2.1818	0.	1367.4
3281	17.92	2.1818	0.	1325.8
3282	18.105	2.1818	0.	1284.3
3283	18.289	2.1818	0.	1243.
3284	18.473	2.1818	0.	1201.9
3285	18.657	2.1818	0.	1161.
3286	18.841	2.1818	0.	1120.2
3287	19.026	2.1818	0.	1079.7
3288	19.21	2.1818	0.	1039.4
3289	19.394	2.1818	0.	999.36
3290	19.578	2.1818	0.	959.56
3291	19.763	2.1818	0.	920.01
3292	19.947	2.1818	0.	880.73
3293	20.131	2.1818	0.	841.74
3294	20.315	2.1818	0.	803.06
3295	20.5	2.1818	0.	764.69
3296	20.684	2.1818	0.	726.66
3297	20.868	2.1818	0.	688.99
3298	21.052	2.1818	0.	651.69
3299	21.236	2.1818	0.	614.81
3300	21.421	2.1818	0.	578.35
3301	21.605	2.1818	0.	542.37
3302	21.789	2.1818	0.	506.89
3303	21.973	2.1818	0.	471.98
3304	22.158	2.1818	0.	437.69
3305	22.342	2.1818	0.	404.12
3306	22.526	2.1818	0.	371.36
3307	22.71	2.1818	0.	339.55
3308	22.895	2.1818	0.	308.91
3309	23.079	2.1818	0.	279.71
3310	23.263	2.1818	0.	252.36
3311	23.447	2.1818	0.	227.42
3312	23.632	2.1818	0.	205.74
3313	23.816	2.1818	0.	188.43
3314	10.551	2.	0.	9047.7
3315	10.735	2.	0.	6016.2
3316	10.919	2.	0.	4913.1
3317	11.104	2.	0.	4275.4
3318	11.288	2.	0.	3851.1
3319	11.472	2.	0.	3551.7
3320	11.656	2.	0.	3327.3
3321	11.841	2.	0.	3152.8
3322	12.025	2.	0.	3012.2
3323	12.209	2.	0.	2895.8
3324	12.393	2.	0.	2796.8
3325	12.577	2.	0.	2710.9
3326	12.762	2.	0.	2634.9
3327	12.946	2.	0.	2566.3
3328	13.13	2.	0.	2503.5
3329	13.314	2.	0.	2445.2
3330	13.499	2.	0.	2390.3
3331	13.683	2.	0.	2338.1
3332	13.867	2.	0.	2288.
3333	14.051	2.	0.	2239.6
3334	14.236	2.	0.	2192.4
3335	14.42	2.	0.	2146.1
3336	14.604	2.	0.	2100.7
3337	14.788	2.	0.	2055.8
3338	14.973	2.	0.	2011.4
3339	15.157	2.	0.	1967.3
3340	15.341	2.	0.	1923.5
3341	15.525	2.	0.	1880.
3342	15.709	2.	0.	1836.6
3343	15.894	2.	0.	1793.4
3344	16.078	2.	0.	1750.3
3345	16.262	2.	0.	1707.4
3346	16.446	2.	0.	1664.6
3347	16.631	2.	0.	1621.9
3348	16.815	2.	0.	1579.3
3349	16.999	2.	0.	1536.9
3350	17.183	2.	0.	1494.6
3351	17.368	2.	0.	1452.4
3352	17.552	2.	0.	1410.3
3353	17.736	2.	0.	1368.4
3354	17.92	2.	0.	1326.7
3355	18.105	2.	0.	1285.1
3356	18.289	2.	0.	1243.7
3357	18.473	2.	0.	1202.5
3358	18.657	2.	0.	1161.4
3359	18.841	2.	0.	1120.6
3360	19.026	2.	0.	1080.
3361	19.21	2.	0.	1039.6
3362	19.394	2.	0.	999.43
3363	19.578	2.	0.	959.5
3364	19.763	2.	0.	919.83
3365	19.947	2.	0.	880.42
3366	20.131	2.	0.	841.3
3367	20.315	2.	0.	802.47
3368	20.5	2.	0.	763.94
3369	20.684	2.	0.	725.75
3370	20.868	2.	0.	687.9
3371	21.052	2.	0.	650.42
3372	21.236	2.	0.	613.33
3373	21.421	2.	0.	576.67
3374	21.605	2.	0.	540.46
3375	21.789	2.	0.	504.76
3376	21.973	2.	0.	469.61
3377	22.158	2.	0.	435.09
3378	22.342	2.	0.	401.27
3379	22.526	2.	0.	368.26
3380	22.71	2.	0.	336.21
3381	22.895	2.	0.	305.33
3382	23.079	2.	0.	275.9
3383	23.263	2.	0.	248.31
3384	23.447	2.	0.	223.16
3385	23.632	2.	0.	201.29
3386	23.816	2.	0.	183.84
3387	10.551	1.8182	0.	7406.7
3388	10.735	1.8182	0.	5313.7
3389	10.919	1.8182	0.	4411.8
3390	11.104	1.8182	0.	3916.2
3391	11.288	1.8182	0.	3586.6
3392	11.472	1.8182	0.	3353.6
3393	11.656	1.8182	0.	3179.2
3394	11.841	1.8182	0.	3042.5
3395	12.025	1.8182	0.	2930.8
3396	12.209	1.8182	0.	2836.4
3397	12.393	1.8182	0.	2754.3
3398	12.577	1.8182	0.	2681.
3399	12.762	1.8182	0.	2614.5
3400	12.946	1.8182	0.	2553.
3401	13.13	1.8182	0.	2495.4
3402	13.314	1.8182	0.	2440.9
3403	13.499	1.8182	0.	2388.7
3404	13.683	1.8182	0.	2338.5
3405	13.867	1.8182	0.	2289.7
3406	14.051	1.8182	0.	2242.1
3407	14.236	1.8182	0.	2195.5
3408	14.42	1.8182	0.	2149.6
3409	14.604	1.8182	0.	2104.3
3410	14.788	1.8182	0.	2059.4
3411	14.973	1.8182	0.	2014.9
3412	15.157	1.8182	0.	1970.7
3413	15.341	1.8182	0.	1926.8
3414	15.525	1.8182	0.	1883.1
3415	15.709	1.8182	0.	1839.5
3416	15.894	1.8182	0.	1796.1
3417	16.078	1.8182	0.	1752.9
3418	16.262	1.8182	0.	1709.8
3419	16.446	1.8182	0.	1666.8
3420	16.631	1.8182	0.	1624.
3421	16.815	1.8182	0.	1581.2
3422	16.999	1.8182	0.	1538.6
3423	17.183	1.8182	0.	1496.2
3424	17.368	1.8182	0.	1453.8
3425	17.552	1.8182	0.	1411.7
3426	17.736	1.8182	0.	1369.6
3427	17.92	1.8182	0.	1327.8
3428	18.105	1.8182	0.	1286.1
3429	18.289	1.8182	0.	1244.6
3430	18.473	1.8182	0.	1203.2
3431	18.657	1.8182	0.	1162.1
3432	18.841	1.8182	0.	1121.1
3433	19.026	1.8182	0.	1080.4
3434	19.21	1.8182	0.	1039.8
3435	19.394	1.8182	0.	999.54
3436	19.578	1.8182	0.	959.47
3437	19.763	1.8182	0.	919.66
3438	19.947	1.8182	0.	880.1
3439	20.131	1.8182	0.	840.81
3440	20.315	1.8182	0.	801.81
3441	20.5	1.8182	0.	763.11
3442	20.684	1.8182	0.	724.72
3443	20.868	1.8182	0.	686.66
3444	21.052	1.8182	0.	648.96
3445	21.236	1.8182	0.	611.63
3446	21.421	1.8182	0.	574.72
3447	21.605	1.8182	0.	538.25
3448	21.789	1.8182	0.	502.27
3449	21.973	1.8182	0.	466.84
3450	22.158	1.8182	0.	432.01
3451	22.342	1.8182	0.	397.88
3452	22.526	1.8182	0.	364.57
3453	22.71	1.8182	0.	332.21
3454	22.895	1.8182	0.	301.02
3455	23.079	1.8182	0.	271.28
3456	23.263	1.8182	0.	243.4
3457	23.447	1.8182	0.	217.97
3458	23.632	1.8182	0.	195.85
3459	23.816	1.8182	0.	178.25
3460	10.551	1.6364	0.	5496.7
3461	10.735	1.6364	0.	4435.
3462	10.919	1.6364	0.	3887.3
3463	11.104	1.6364	0.	3546.6
3464	11.288	1.6364	0.	3313.8
3465	11.472	1.6364	0.	3150.1
3466	11.656	1.6364	0.	3026.9
3467	11.841	1.6364	0.	2928.9
3468	12.025	1.6364	0.	2846.7
3469	12.209	1.6364	0.	2774.8
3470	12.393	1.6364	0.	2709.9
3471	12.577	1.6364	0.	2649.7
3472	12.762	1.6364	0.	2593.
3473	12.946	1.6364	0.	2538.9
3474	13.13	1.6364	0.	2486.8
3475	13.314	1.6364	0.	2436.3
3476	13.499	1.6364	0.	2387.
3477	13.683	1.6364	0.	2338.9
3478	13.867	1.6364	0.	2291.5
3479	14.051	1.6364	0.	2244.9
3480	14.236	1.6364	0.	2198.9
3481	14.42	1.6364	0.	2153.3
3482	14.604	1.6364	0.	2108.2
3483	14.788	1.6364	0.	2063.4
3484	14.973	1.6364	0.	2018.8
3485	15.157	1.6364	0.	1974.5
3486	15.341	1.6364	0.	1930.5
3487	15.525	1.6364	0.	1886.6
3488	15.709	1.6364	0.	1842.8
3489	15.894	1.6364	0.	1799.2
3490	16.078	1.6364	0.	1755.8
3491	16.262	1.6364	0.	1712.5
3492	16.446	1.6364	0.	1669.3
3493	16.631	1.6364	0.	1626.3
3494	16.815	1.6364	0.	1583.4
3495	16.999	1.6364	0.	1540.6
3496	17.183	1.6364	0.	1498.
3497	17.368	1.6364	0.	1455.5
3498	17.552	1.6364	0.	1413.2
3499	17.736	1.6364	0.	1371.
3500	17.92	1.6364	0.	1329.
3501	18.105	1.6364	0.	1287.2
3502	18.289	1.6364	0.	1245.6
3503	18.473	1.6364	0.	1204.1
3504	18.657	1.6364	0.	1162.8
3505	18.841	1.6364	0.	1121.7
3506	19.026	1.6364	0.	1080.8
3507	19.21	1.6364	0.	1040.2
3508	19.394	1.6364	0.	999.71
3509	19.578	1.6364	0.	959.49
3510	19.763	1.6364	0.	919.52
3511	19.947	1.6364	0.	879.79
3512	20.131	1.6364	0.	840.32
3513	20.315	1.6364	0.	801.13
3514	20.5	1.6364	0.	762.21
3515	20.684	1.6364	0.	723.6
3516	20.868	1.6364	0.	685.31
3517	21.052	1.6364	0.	647.35
3518	21.236	1.6364	0.	609.76
3519	21.421	1.6364	0.	572.56
3520	21.605	1.6364	0.	535.78
3521	21.789	1.6364	0.	499.47
3522	21.973	1.6364	0.	463.69
3523	22.158	1.6364	0.	428.51
3524	22.342	1.6364	0.	394.
3525	22.526	1.6364	0.	360.3
3526	22.71	1.6364	0.	327.56
3527	22.895	1.6364	0.	295.98
3528	23.079	1.6364	0.	265.85
3529	23.263	1.6364	0.	237.6
3530	23.447	1.6364	0.	211.81
3531	23.632	1.6364	0.	189.38
3532	23.816	1.6364	0.	171.58
3533	10.551	1.4545	0.	4212.3
3534	10.735	1.4545	0.	3648.6
3535	10.919	1.4545	0.	3366.7
3536	11.104	1.4545	0.	3170.6
3537	11.288	1.4545	0.	3038.4
3538	11.472	1.4545	0.	2944.6
3539	11.656	1.4545	0.	2873.2
3540	11.841	1.4545	0.	2814.2
3541	12.025	1.4545	0.	2761.7
3542	12.209	1.4545	0.	2712.5
3543	12.393	1.4545	0.	2664.8
3544	12.577	1.4545	0.	2617.7
3545	12.762	1.4545	0.	2570.9
3546	12.946	1.4545	0.	2524.3
3547	13.13	1.4545	0.	2477.8
3548	13.314	1.4545	0.	2431.4
3549	13.499	1.4545	0.	2385.2
3550	13.683	1.4545	0.	2339.2
3551	13.867	1.4545	0.	2293.4
3552	14.051	1.4545	0.	2247.8
3553	14.236	1.4545	0.	2202.4
3554	14.42	1.4545	0.	2157.3
3555	14.604	1.4545	0.	2112.4
3556	14.788	1.4545	0.	2067.6
3557	14.973	1.4545	0.	2023.1
3558	15.157	1.4545	0.	1978.7
3559	15.341	1.4545	0.	1934.4
3560	15.525	1.4545	0.	1890.4
3561	15.709	1.4545	0.	1846.4
3562	15.894	1.4545	0.	1802.6
3563	16.078	1.4545	0.	1759.
3564	16.262	1.4545	0.	1715.5
3565	16.446	1.4545	0.	1672.1
3566	16.631	1.4545	0.	1628.9
3567	16.815	1.4545	0.	1585.8
3568	16.999	1.4545	0.	1542.9
3569	17.183	1.4545	0.	1500.1
3570	17.368	1.4545	0.	1457.4
3571	17.552	1.4545	0.	1415.
3572	17.736	1.4545	0.	1372.6
3573	17.92	1.4545	0.	1330.5
3574	18.105	1.4545	0.	1288.5
3575	18.289	1.4545	0.	1246.7
3576	18.473	1.4545	0.	1205.1
3577	18.657	1.4545	0.	1163.7
3578	18.841	1.4545	0.	1122.4
3579	19.026	1.4545	0.	1081.4
3580	19.21	1.4545	0.	1040.6
3581	19.394	1.4545	0.	999.97
3582	19.578	1.4545	0.	959.59
3583	19.763	1.4545	0.	919.43
3584	19.947	1.4545	0.	879.52
3585	20.131	1.4545	0.	839.85
3586	20.315	1.4545	0.	800.45
3587	20.5	1.4545	0.	761.31
3588	20.684	1.4545	0.	722.45
3589	20.868	1.4545	0.	683.9
3590	21.052	1.4545	0.	645.66
3591	21.236	1.4545	0.	607.76
3592	21.421	1.4545	0.	570.23
3593	21.605	1.4545	0.	533.11
3594	21.789	1.4545	0.	496.42
3595	21.973	1.4545	0.	460.24
3596	22.158	1.4545	0.	424.63
3597	22.342	1.4545	0.	389.67
3598	22.526	1.4545	0.	355.51
3599	22.71	1.4545	0.	322.28
3600	22.895	1.4545	0.	290.21
3601	23.079	1.4545	0.	259.6
3602	23.263	1.4545	0.	230.87
3603	23.447	1.4545	0.	204.63
3604	23.632	1.4545	0.	181.8
3605	23.816	1.4545	0.	163.75
3606	10.551	1.2727	0.	3328.2
3607	10.735	1.2727	0.	2996.9
3608	10.919	1.2727	0.	2876.3
3609	11.104	1.2727	0.	2808.1
3610	11.288	1.2727	0.	2767.9
3611	11.472	1.2727	0.	2742.1
3612	11.656	1.2727	0.	2721.6
3613	11.841	1.2727	0.	2701.
3614	12.025	1.2727	0.	2677.7
3615	12.209	1.2727	0.	2650.6
3616	12.393	1.2727	0.	2619.8
3617	12.577	1.2727	0.	2585.7
3618	12.762	1.2727	0.	2548.7
3619	12.946	1.2727	0.	2509.5
3620	13.13	1.2727	0.	2468.6
3621	13.314	1.2727	0.	2426.4
3622	13.499	1.2727	0.	2383.2
3623	13.683	1.2727	0.	2339.4
3624	13.867	1.2727	0.	2295.2
3625	14.051	1.2727	0.	2250.7
3626	14.236	1.2727	0.	2206.1
3627	14.42	1.2727	0.	2161.4
3628	14.604	1.2727	0.	2116.7
3629	14.788	1.2727	0.	2072.
3630	14.973	1.2727	0.	2027.5
3631	15.157	1.2727	0.	1983.
3632	15.341	1.2727	0.	1938.6
3633	15.525	1.2727	0.	1894.4
3634	15.709	1.2727	0.	1850.3
3635	15.894	1.2727	0.	1806.3
3636	16.078	1.2727	0.	1762.5
3637	16.262	1.2727	0.	1718.7
3638	16.446	1.2727	0.	1675.2
3639	16.631	1.2727	0.	1631.7
3640	16.815	1.2727	0.	1588.5
3641	16.999	1.2727	0.	1545.3
3642	17.183	1.2727	0.	1502.4
3643	17.368	1.2727	0.	1459.6
3644	17.552	1.2727	0.	1416.9
3645	17.736	1.2727	0.	1374.4
3646	17.92	1.2727	0.	1332.1
3647	18.105	1.2727	0.	1290.
3648	18.289	1.2727	0.	1248.
3649	18.473	1.2727	0.	1206.3
3650	18.657	1.2727	0.	1164.7
3651	18.841	1.2727	0.	1123.3
3652	19.026	1.2727	0.	1082.1
3653	19.21	1.2727	0.	1041.1
3654	19.394	1.2727	0.	1000.3
3655	19.578	1.2727	0.	959.78
3656	19.763	1.2727	0.	919.44
3657	19.947	1.2727	0.	879.32
3658	20.131	1.2727	0.	839.45
3659	20.315	1.2727	0.	799.81
3660	20.5	1.2727	0.	760.43
3661	20.684	1.2727	0.	721.32
3662	20.868	1.2727	0.	682.48
3663	21.052	1.2727	0.	643.94
3664	21.236	1.2727	0.	605.71
3665	21.421	1.2727	0.	567.82
3666	21.605	1.2727	0.	530.3
3667	21.789	1.2727	0.	493.2
3668	21.973	1.2727	0.	456.56
3669	22.158	1.2727	0.	420.46
3670	22.342	1.2727	0.	384.98
3671	22.526	1.2727	0.	350.25
3672	22.71	1.2727	0.	316.43
3673	22.895	1.2727	0.	283.75
3674	23.079	1.2727	0.	252.52
3675	23.263	1.2727	0.	223.18
3676	23.447	1.2727	0.	196.37
3677	23.632	1.2727	0.	173.03
3678	23.816	1.2727	0.	154.65
3679	10.551	1.0909	0.	2653.4
3680	10.735	1.0909	0.	2454.7
3681	10.919	1.0909	0.	2445.4
3682	11.104	1.0909	0.	2474.4
3683	11.288	1.0909	0.	2513.5
3684	11.472	1.0909	0.	2549.8
3685	11.656	1.0909	0.	2576.8
3686	11.841	1.0909	0.	2592.3
3687	12.025	1.0909	0.	2596.6
3688	12.209	1.0909	0.	2590.7
3689	12.393	1.0909	0.	2576.1
3690	12.577	1.0909	0.	2554.3
3691	12.762	1.0909	0.	2526.8
3692	12.946	1.0909	0.	2494.8
3693	13.13	1.0909	0.	2459.3
3694	13.314	1.0909	0.	2421.2
3695	13.499	1.0909	0.	2381.1
3696	13.683	1.0909	0.	2339.5
3697	13.867	1.0909	0.	2296.9
3698	14.051	1.0909	0.	2253.5
3699	14.236	1.0909	0.	2209.7
3700	14.42	1.0909	0.	2165.5
3701	14.604	1.0909	0.	2121.1
3702	14.788	1.0909	0.	2076.6
3703	14.973	1.0909	0.	2032.
3704	15.157	1.0909	0.	1987.5
3705	15.341	1.0909	0.	1943.
3706	15.525	1.0909	0.	1898.6
3707	15.709	1.0909	0.	1854.4
3708	15.894	1.0909	0.	1810.2
3709	16.078	1.0909	0.	1766.1
3710	16.262	1.0909	0.	1722.2
3711	16.446	1.0909	0.	1678.4
3712	16.631	1.0909	0.	1634.8
3713	16.815	1.0909	0.	1591.4
3714	16.999	1.0909	0.	1548.
3715	17.183	1.0909	0.	1504.9
3716	17.368	1.0909	0.	1461.9
3717	17.552	1.0909	0.	1419.1
3718	17.736	1.0909	0.	1376.4
3719	17.92	1.0909	0.	1334.
3720	18.105	1.0909	0.	1291.7
3721	18.289	1.0909	0.	1249.5
3722	18.473	1.0909	0.	1207.6
3723	18.657	1.0909	0.	1165.9
3724	18.841	1.0909	0.	1124.3
3725	19.026	1.0909	0.	1083.
3726	19.21	1.0909	0.	1041.8
3727	19.394	1.0909	0.	1000.8
3728	19.578	1.0909	0.	960.1
3729	19.763	1.0909	0.	919.56
3730	19.947	1.0909	0.	879.24
3731	20.131	1.0909	0.	839.15
3732	20.315	1.0909	0.	799.28
3733	20.5	1.0909	0.	759.64
3734	20.684	1.0909	0.	720.26
3735	20.868	1.0909	0.	681.12
3736	21.052	1.0909	0.	642.26
3737	21.236	1.0909	0.	603.68
3738	21.421	1.0909	0.	565.41
3739	21.605	1.0909	0.	527.47
3740	21.789	1.0909	0.	489.91
3741	21.973	1.0909	0.	452.76
3742	22.158	1.0909	0.	416.1
3743	22.342	1.0909	0.	380.02
3744	22.526	1.0909	0.	344.63
3745	22.71	1.0909	0.	310.1
3746	22.895	1.0909	0.	276.67
3747	23.079	1.0909	0.	244.65
3748	23.263	1.0909	0.	214.53
3749	23.447	1.0909	0.	186.95
3750	23.632	1.0909	0.	162.95
3751	23.816	1.0909	0.	144.14
3752	10.551	0.90909	0.	2109.3
3753	10.735	0.90909	0.	2004.3
3754	10.919	0.90909	0.	2074.6
3755	11.104	0.90909	0.	2180.2
3756	11.288	0.90909	0.	2285.3
3757	11.472	0.90909	0.	2374.8
3758	11.656	0.90909	0.	2443.5
3759	11.841	0.90909	0.	2491.5
3760	12.025	0.90909	0.	2520.8
3761	12.209	0.90909	0.	2534.2
3762	12.393	0.90909	0.	2534.5
3763	12.577	0.90909	0.	2524.2
3764	12.762	0.90909	0.	2505.5
3765	12.946	0.90909	0.	2480.3
3766	13.13	0.90909	0.	2450.1
3767	13.314	0.90909	0.	2415.9
3768	13.499	0.90909	0.	2378.8
3769	13.683	0.90909	0.	2339.4
3770	13.867	0.90909	0.	2298.4
3771	14.051	0.90909	0.	2256.3
3772	14.236	0.90909	0.	2213.2
3773	14.42	0.90909	0.	2169.6
3774	14.604	0.90909	0.	2125.5
3775	14.788	0.90909	0.	2081.2
3776	14.973	0.90909	0.	2036.7
3777	15.157	0.90909	0.	1992.1
3778	15.341	0.90909	0.	1947.6
3779	15.525	0.90909	0.	1903.1
3780	15.709	0.90909	0.	1858.6
3781	15.894	0.90909	0.	1814.3
3782	16.078	0.90909	0.	1770.
3783	16.262	0.90909	0.	1725.9
3784	16.446	0.90909	0.	1681.9
3785	16.631	0.90909	0.	1638.1
3786	16.815	0.90909	0.	1594.4
3787	16.999	0.90909	0.	1550.9
3788	17.183	0.90909	0.	1507.6
3789	17.368	0.90909	0.	1464.4
3790	17.552	0.90909	0.	1421.4
3791	17.736	0.90909	0.	1378.6
3792	17.92	0.90909	0.	1336.
3793	18.105	0.90909	0.	1293.5
3794	18.289	0.90909	0.	1251.2
3795	18.473	0.90909	0.	1209.1
3796	18.657	0.90909	0.	1167.2
3797	18.841	0.90909	0.	1125.5
3798	19.026	0.90909	0.	1084.
3799	19.21	0.90909	0.	1042.7
3800	19.394	0.90909	0.	1001.5
3801	19.578	0.90909	0.	960.58
3802	19.763	0.90909	0.	919.85
3803	19.947	0.90909	0.	879.32
3804	20.131	0.90909	0.	839.
3805	20.315	0.90909	0.	798.89
3806	20.5	0.90909	0.	759.
3807	20.684	0.90909	0.	719.33
3808	20.868	0.90909	0.	679.9
3809	21.052	0.90909	0.	640.7
3810	21.236	0.90909	0.	601.76
3811	21.421	0.90909	0.	563.09
3812	21.605	0.90909	0.	524.72
3813	21.789	0.90909	0.	486.66
3814	21.973	0.90909	0.	448.98
3815	22.158	0.90909	0.	411.72
3816	22.342	0.90909	0.	374.96
3817	22.526	0.90909	0.	338.82
3818	22.71	0.90909	0.	303.46
3819	22.895	0.90909	0.	269.11
3820	23.079	0.90909	0.	236.1
3821	23.263	0.90909	0.	204.93
3822	23.447	0.90909	0.	176.33
3823	23.632	0.90909	0.	151.43
3824	23.816	0.90909	0.	132.02
3825	10.551	0.72727	0.	1649.7
3826	10.735	0.72727	0.	1624.7
3827	10.919	0.72727	0.	1763.2
3828	11.104	0.72727	0.	1932.
3829	11.288	0.72727	0.	2090.5
3830	11.472	0.72727	0.	2223.3
3831	11.656	0.72727	0.	2326.4
3832	11.841	0.72727	0.	2401.5
3833	12.025	0.72727	0.	2452.2
3834	12.209	0.72727	0.	2482.3
3835	12.393	0.72727	0.	2495.8
3836	12.577	0.72727	0.	2495.9
3837	12.762	0.72727	0.	2485.3
3838	12.946	0.72727	0.	2466.4
3839	13.13	0.72727	0.	2441.
3840	13.314	0.72727	0.	2410.6
3841	13.499	0.72727	0.	2376.4
3842	13.683	0.72727	0.	2339.2
3843	13.867	0.72727	0.	2299.9
3844	14.051	0.72727	0.	2258.9
3845	14.236	0.72727	0.	2216.7
3846	14.42	0.72727	0.	2173.6
3847	14.604	0.72727	0.	2129.9
3848	14.788	0.72727	0.	2085.8
3849	14.973	0.72727	0.	2041.4
3850	15.157	0.72727	0.	1996.9
3851	15.341	0.72727	0.	1952.2
3852	15.525	0.72727	0.	1907.6
3853	15.709	0.72727	0.	1863.
3854	15.894	0.72727	0.	1818.5
3855	16.078	0.72727	0.	1774.1
3856	16.262	0.72727	0.	1729.8
3857	16.446	0.72727	0.	1685.6
3858	16.631	0.72727	0.	1641.6
3859	16.815	0.72727	0.	1597.7
3860	16.999	0.72727	0.	1554.1
3861	17.183	0.72727	0.	1510.5
3862	17.368	0.72727	0.	1467.2
3863	17.552	0.72727	0.	1424.
3864	17.736	0.72727	0.	1381.
3865	17.92	0.72727	0.	1338.2
3866	18.105	0.72727	0.	1295.6
3867	18.289	0.72727	0.	1253.1
3868	18.473	0.72727	0.	1210.9
3869	18.657	0.72727	0.	1168.8
3870	18.841	0.72727	0.	1126.9
3871	19.026	0.72727	0.	1085.2
3872	19.21	0.72727	0.	1043.7
3873	19.394	0.72727	0.	1002.4
3874	19.578	0.72727	0.	961.26
3875	19.763	0.72727	0.	920.33
3876	19.947	0.72727	0.	879.6
3877	20.131	0.72727	0.	839.06
3878	20.315	0.72727	0.	798.71
3879	20.5	0.72727	0.	758.57
3880	20.684	0.72727	0.	718.62
3881	20.868	0.72727	0.	678.89
3882	21.052	0.72727	0.	639.36
3883	21.236	0.72727	0.	600.06
3884	21.421	0.72727	0.	560.99
3885	21.605	0.72727	0.	522.17
3886	21.789	0.72727	0.	483.63
3887	21.973	0.72727	0.	445.39
3888	22.158	0.72727	0.	407.49
3889	22.342	0.72727	0.	370.02
3890	22.526	0.72727	0.	333.06
3891	22.71	0.72727	0.	296.75
3892	22.895	0.72727	0.	261.3
3893	23.079	0.72727	0.	227.06
3894	23.263	0.72727	0.	194.53
3895	23.447	0.72727	0.	164.51
3896	23.632	0.72727	0.	138.31
3897	23.816	0.72727	0.	118.01
3898	10.551	0.54545	0.	1248.6
3899	10.735	0.54545	0.	1307.3
3900	10.919	0.54545	0.	1512.4
3901	11.104	0.54545	0.	1734.4
3902	11.288	0.54545	0.	1934.1
3903	11.472	0.54545	0.	2099.2
3904	11.656	0.54545	0.	2228.4
3905	11.841	0.54545	0.	2324.5
3906	12.025	0.54545	0.	2392.2
3907	12.209	0.54545	0.	2436.2
3908	12.393	0.54545	0.	2460.8
3909	12.577	0.54545	0.	2469.8
3910	12.762	0.54545	0.	2466.4
3911	12.946	0.54545	0.	2453.2
3912	13.13	0.54545	0.	2432.3
3913	13.314	0.54545	0.	2405.5
3914	13.499	0.54545	0.	2374.
3915	13.683	0.54545	0.	2338.9
3916	13.867	0.54545	0.	2301.2
3917	14.051	0.54545	0.	2261.4
3918	14.236	0.54545	0.	2220.1
3919	14.42	0.54545	0.	2177.6
3920	14.604	0.54545	0.	2134.3
3921	14.788	0.54545	0.	2090.4
3922	14.973	0.54545	0.	2046.2
3923	15.157	0.54545	0.	2001.7
3924	15.341	0.54545	0.	1957.
3925	15.525	0.54545	0.	1912.3
3926	15.709	0.54545	0.	1867.6
3927	15.894	0.54545	0.	1822.9
3928	16.078	0.54545	0.	1778.3
3929	16.262	0.54545	0.	1733.8
3930	16.446	0.54545	0.	1689.5
3931	16.631	0.54545	0.	1645.3
3932	16.815	0.54545	0.	1601.3
3933	16.999	0.54545	0.	1557.4
3934	17.183	0.54545	0.	1513.7
3935	17.368	0.54545	0.	1470.1
3936	17.552	0.54545	0.	1426.8
3937	17.736	0.54545	0.	1383.6
3938	17.92	0.54545	0.	1340.6
3939	18.105	0.54545	0.	1297.8
3940	18.289	0.54545	0.	1255.2
3941	18.473	0.54545	0.	1212.8
3942	18.657	0.54545	0.	1170.6
3943	18.841	0.54545	0.	1128.5
3944	19.026	0.54545	0.	1086.7
3945	19.21	0.54545	0.	1045.
3946	19.394	0.54545	0.	1003.5
3947	19.578	0.54545	0.	962.19
3948	19.763	0.54545	0.	921.07
3949	19.947	0.54545	0.	880.14
3950	20.131	0.54545	0.	839.38
3951	20.315	0.54545	0.	798.81
3952	20.5	0.54545	0.	758.42
3953	20.684	0.54545	0.	718.21
3954	20.868	0.54545	0.	678.19
3955	21.052	0.54545	0.	638.35
3956	21.236	0.54545	0.	598.71
3957	21.421	0.54545	0.	559.25
3958	21.605	0.54545	0.	520.01
3959	21.789	0.54545	0.	480.98
3960	21.973	0.54545	0.	442.19
3961	22.158	0.54545	0.	403.67
3962	22.342	0.54545	0.	365.47
3963	22.526	0.54545	0.	327.66
3964	22.71	0.54545	0.	290.34
3965	22.895	0.54545	0.	253.69
3966	23.079	0.54545	0.	217.98
3967	23.263	0.54545	0.	183.71
3968	23.447	0.54545	0.	151.69
3969	23.632	0.54545	0.	123.48
3970	23.816	0.54545	0.	101.71
3971	10.551	0.36364	0.	893.44
3972	10.735	0.36364	0.	1058.6
3973	10.919	0.36364	0.	1329.4
3974	11.104	0.36364	0.	1591.4
3975	11.288	0.36364	0.	1818.2
3976	11.472	0.36364	0.	2004.2
3977	11.656	0.36364	0.	2150.5
3978	11.841	0.36364	0.	2261.4
3979	12.025	0.36364	0.	2341.7
3980	12.209	0.36364	0.	2396.3
3981	12.393	0.36364	0.	2430.
3982	12.577	0.36364	0.	2446.5
3983	12.762	0.36364	0.	2449.2
3984	12.946	0.36364	0.	2441.1
3985	13.13	0.36364	0.	2424.3
3986	13.314	0.36364	0.	2400.7
3987	13.499	0.36364	0.	2371.8
3988	13.683	0.36364	0.	2338.8
3989	13.867	0.36364	0.	2302.6
3990	14.051	0.36364	0.	2263.9
3991	14.236	0.36364	0.	2223.5
3992	14.42	0.36364	0.	2181.7
3993	14.604	0.36364	0.	2138.8
3994	14.788	0.36364	0.	2095.2
3995	14.973	0.36364	0.	2051.1
3996	15.157	0.36364	0.	2006.7
3997	15.341	0.36364	0.	1962.
3998	15.525	0.36364	0.	1917.2
3999	15.709	0.36364	0.	1872.4
4000	15.894	0.36364	0.	1827.6
4001	16.078	0.36364	0.	1782.9
4002	16.262	0.36364	0.	1738.2
4003	16.446	0.36364	0.	1693.7
4004	16.631	0.36364	0.	1649.3
4005	16.815	0.36364	0.	1605.1
4006	16.999	0.36364	0.	1561.
4007	17.183	0.36364	0.	1517.2
4008	17.368	0.36364	0.	1473.5
4009	17.552	0.36364	0.	1429.9
4010	17.736	0.36364	0.	1386.6
4011	17.92	0.36364	0.	1343.5
4012	18.105	0.36364	0.	1300.5
4013	18.289	0.36364	0.	1257.7
4014	18.473	0.36364	0.	1215.2
4015	18.657	0.36364	0.	1172.8
4016	18.841	0.36364	0.	1130.6
4017	19.026	0.36364	0.	1088.6
4018	19.21	0.36364	0.	1046.7
4019	19.394	0.36364	0.	1005.1
4020	19.578	0.36364	0.	963.6
4021	19.763	0.36364	0.	922.3
4022	19.947	0.36364	0.	881.18
4023	20.131	0.36364	0.	840.23
4024	20.315	0.36364	0.	799.45
4025	20.5	0.36364	0.	758.84
4026	20.684	0.36364	0.	718.39
4027	20.868	0.36364	0.	678.1
4028	21.052	0.36364	0.	637.98
4029	21.236	0.36364	0.	598.02
4030	21.421	0.36364	0.	558.22
4031	21.605	0.36364	0.	518.58
4032	21.789	0.36364	0.	479.11
4033	21.973	0.36364	0.	439.82
4034	22.158	0.36364	0.	400.73
4035	22.342	0.36364	0.	361.85
4036	22.526	0.36364	0.	323.23
4037	22.71	0.36364	0.	284.93
4038	22.895	0.36364	0.	247.05
4039	23.079	0.36364	0.	209.77
4040	23.263	0.36364	0.	173.44
4041	23.447	0.36364	0.	138.73
4042	23.632	0.36364	0.	107.22
4043	23.816	0.36364	0.	82.589
4044	10.551	0.18182	0.	613.27
4045	10.735	0.18182	0.	916.13
4046	10.919	0.18182	0.	1231.8
4047	11.104	0.18182	0.	1511.2
4048	11.288	0.18182	0.	1747.7
4049	11.472	0.18182	0.	1941.7
4050	11.656	0.18182	0.	2096.
4051	11.841	0.18182	0.	2214.8
4052	12.025	0.18182	0.	2302.9
4053	12.209	0.18182	0.	2364.9
4054	12.393	0.18182	0.	2405.1
4055	12.577	0.18182	0.	2427.5
4056	12.762	0.18182	0.	2435.3
4057	12.946	0.18182	0.	2431.5
4058	13.13	0.18182	0.	2418.2
4059	13.314	0.18182	0.	2397.6
4060	13.499	0.18182	0.	2371.
4061	13.683	0.18182	0.	2339.9
4062	13.867	0.18182	0.	2305.3
4063	14.051	0.18182	0.	2267.8
4064	14.236	0.18182	0.	2228.3
4065	14.42	0.18182	0.	2187.1
4066	14.604	0.18182	0.	2144.8
4067	14.788	0.18182	0.	2101.5
4068	14.973	0.18182	0.	2057.7
4069	15.157	0.18182	0.	2013.4
4070	15.341	0.18182	0.	1968.8
4071	15.525	0.18182	0.	1924.
4072	15.709	0.18182	0.	1879.2
4073	15.894	0.18182	0.	1834.3
4074	16.078	0.18182	0.	1789.5
4075	16.262	0.18182	0.	1744.8
4076	16.446	0.18182	0.	1700.2
4077	16.631	0.18182	0.	1655.7
4078	16.815	0.18182	0.	1611.4
4079	16.999	0.18182	0.	1567.3
4080	17.183	0.18182	0.	1523.3
4081	17.368	0.18182	0.	1479.5
4082	17.552	0.18182	0.	1435.9
4083	17.736	0.18182	0.	1392.5
4084	17.92	0.18182	0.	1349.3
4085	18.105	0.18182	0.	1306.3
4086	18.289	0.18182	0.	1263.5
4087	18.473	0.18182	0.	1220.8
4088	18.657	0.18182	0.	1178.3
4089	18.841	0.18182	0.	1136.1
4090	19.026	0.18182	0.	1094.
4091	19.21	0.18182	0.	1052.1
4092	19.394	0.18182	0.	1010.3
4093	19.578	0.18182	0.	968.78
4094	19.763	0.18182	0.	927.39
4095	19.947	0.18182	0.	886.16
4096	20.131	0.18182	0.	845.1
4097	20.315	0.18182	0.	804.19
4098	20.5	0.18182	0.	763.44
4099	20.684	0.18182	0.	722.83
4100	20.868	0.18182	0.	682.36
4101	21.052	0.18182	0.	642.03
4102	21.236	0.18182	0.	601.83
4103	21.421	0.18182	0.	561.75
4104	21.605	0.18182	0.	521.8
4105	21.789	0.18182	0.	481.97
4106	21.973	0.18182	0.	442.25
4107	22.158	0.18182	0.	402.65
4108	22.342	0.18182	0.	363.17
4109	22.526	0.18182	0.	323.81
4110	22.71	0.18182	0.	284.59
4111	22.895	0.18182	0.	245.54
4112	23.079	0.18182	0.	206.71
4113	23.263	0.18182	0.	168.21
4114	23.447	0.18182	0.	130.25
4115	23.632	0.18182	0.	93.508
4116	23.816	0.18182	0.	61.291
4117	23.816	0.18182	0.1	61.291
4118	23.632	0.18182	0.1	93.508
4119	23.447	0.18182	0.1	130.25
4120	23.263	0.18182	0.1	168.21
4121	23.079	0.18182	0.1	206.71
4122	22.895	0.18182	0.1	245.54
4123	22.71	0.18182	0.1	284.59
4124	22.526	0.18182	0.1	323.81
4125	22.342	0.18182	0.1	363.17
4126	22.158	0.18182	0.1	402.65
4127	21.973	0.18182	0.1	442.25
4128	21.789	0.18182	0.1	481.97
4129	21.605	0.18182	0.1	521.8
4130	21.421	0.18182	0.1	561.75
4131	21.236	0.18182	0.1	601.83
4132	21.052	0.18182	0.1	642.03
4133	20.868	0.18182	0.1	682.36
4134	20.684	0.18182	0.1	722.83
4135	20.5	0.18182	0.1	763.44
4136	20.315	0.18182	0.1	804.19
4137	20.131	0.18182	0.1	845.1
4138	19.947	0.18182	0.1	886.16
4139	19.763	0.18182	0.1	927.39
4140	19.578	0.18182	0.1	968.78
4141	19.394	0.18182	0.1	1010.3
4142	19.21	0.18182	0.1	1052.1
4143	19.026	0.18182	0.1	1094.
4144	18.841	0.18182	0.1	1136.1
4145	18.657	0.18182	0.1	1178.3
4146	18.473	0.18182	0.1	1220.8
4147	18.289	0.18182	0.1	1263.5
4148	18.105	0.18182	0.1	1306.3
4149	17.92	0.18182	0.1	1349.3
4150	17.736	0.18182	0.1	1392.5
4151	17.552	0.18182	0.1	1435.9
4152	17.368	0.18182	0.1	1479.5
4153	17.183	0.18182	0.1	1523.3
4154	16.999	0.18182	0.1	1567.3
4155	16.815	0.18182	0.1	1611.4
4156	16.631	0.18182	0.1	1655.7
4157	16.446	0.18182	0.1	1700.2
4158	16.262	0.18182	0.1	1744.8
4159	16.078	0.18182	0.1	1789.5
4160	15.894	0.18182	0.1	1834.3
4161	15.709	0.18182	0.1	1879.2
4162	15.525	0.18182	0.1	1924.
4163	15.341	0.18182	0.1	1968.8
4164	15.157	0.18182	0.1	2013.4
4165	14.973	0.18182	0.1	2057.7
4166	14.788	0.18182	0.1	2101.5
4167	14.604	0.18182	0.1	2144.8
4168	14.42	0.18182	0.1	2187.1
4169	14.236	0.18182	0.1	2228.3
4170	14.051	0.18182	0.1	2267.8
4171	13.867	0.18182	0.1	2305.3
4172	13.683	0.18182	0.1	2339.9
4173	13.499	0.18182	0.1	2371.
4174	13.314	0.18182	0.1	2397.6
4175	13.13	0.18182	0.1	2418.2
4176	12.946	0.18182	0.1	2431.5
4177	12.762	0.18182	0.1	2435.3
4178	12.577	0.18182	0.1	2427.5
4179	12.393	0.18182	0.1	2405.1
4180	12.209	0.18182	0.1	2364.9
4181	12.025	0.18182	0.1	2302.9
4182	11.841	0.18182	0.1	2214.8
4183	11.656	0.18182	0.1	2096.
4184	11.472	0.18182	0.1	1941.7
4185	11.288	0.18182	0.1	1747.7
4186	11.104	0.18182	0.1	1511.2
4187	10.919	0.18182	0.1	1231.8
4188	10.735	0.18182	0.1	916.13
4189	10.551	0.18182	0.1	613.27
4190	23.816	0.36364	0.1	82.589
4191	23.632	0.36364	0.1	107.22
4192	23.447	0.36364	0.1	138.73
4193	23.263	0.36364	0.1	173.44
4194	23.079	0.36364	0.1	209.77
4195	22.895	0.36364	0.1	247.05
4196	22.71	0.36364	0.1	284.93
4197	22.526	0.36364	0.1	323.23
4198	22.342	0.36364	0.1	361.85
4199	22.158	0.36364	0.1	400.73
4200	21.973	0.36364	0.1	439.82
4201	21.789	0.36364	0.1	479.11
4202	21.605	0.36364	0.1	518.58
4203	21.421	0.36364	0.1	558.22
4204	21.236	0.36364	0.1	598.02
4205	21.052	0.36364	0.1	637.98
4206	20.868	0.36364	0.1	678.1
4207	20.684	0.36364	0.1	718.39
4208	20.5	0.36364	0.1	758.84
4209	20.315	0.36364	0.1	799.45
4210	20.131	0.36364	0.1	840.23
4211	19.947	0.36364	0.1	881.18
4212	19.763	0.36364	0.1	922.3
4213	19.578	0.36364	0.1	963.6
4214	19.394	0.36364	0.1	1005.1
4215	19.21	0.36364	0.1	1046.7
4216	19.026	0.36364	0.1	1088.6
4217	18.841	0.36364	0.1	1130.6
4218	18.657	0.36364	0.1	1172.8
4219	18.473	0.36364	0.1	1215.2
4220	18.289	0.36364	0.1	1257.7
4221	18.105	0.36364	0.1	1300.5
4222	17.92	0.36364	0.1	1343.5
4223	17.736	0.36364	0.1	1386.6
4224	17.552	0.36364	0.1	1429.9
4225	17.368	0.36364	0.1	1473.5
4226	17.183	0.36364	0.1	1517.2
4227	16.999	0.36364	0.1	1561.
4228	16.815	0.36364	0.1	1605.1
4229	16.631	0.36364	0.1	1649.3
4230	16.446	0.36364	0.1	1693.7
4231	16.262	0.36364	0.1	1738.2
4232	16.078	0.36364	0.1	1782.9
4233	15.894	0.36364	0.1	1827.6
4234	15.709	0.36364	0.1	1872.4
4235	15.525	0.36364	0.1	1917.2
4236	15.341	0.36364	0.1	1962.
4237	15.157	0.36364	0.1	2006.7
4238	14.973	0.36364	0.1	2051.1
4239	14.788	0.36364	0.1	2095.2
4240	14.604	0.36364	0.1	2138.8
4241	14.42	0.36364	0.1	2181.7
4242	14.236	0.36364	0.1	2223.5
4243	14.051	0.36364	0.1	2263.9
4244	13.867	0.36364	0.1	2302.6
4245	13.683	0.36364	0.1	2338.8
4246	13.499	0.36364	0.1	2371.8
4247	13.314	0.36364	0.1	2400.7
4248	13.13	0.36364	0.1	2424.3
4249	12.946	0.36364	0.1	2441.1
4250	12.762	0.36364	0.1	2449.2
4251	12.577	0.36364	0.1	2446.5
4252	12.393	0.36364	0.1	2430.
4253	12.209	0.36364	0.1	2396.3
4254	12.025	0.36364	0.1	2341.7
4255	11.841	0.36364	0.1	2261.4
4256	11.656	0.36364	0.1	2150.5
4257	11.472	0.36364	0.1	2004.2
4258	11.288	0.36364	0.1	1818.2
4259	11.104	0.36364	0.1	1591.4
4260	10.919	0.36364	0.1	1329.4
4261	10.735	0.36364	0.1	1058.6
4262	10.551	0.36364	0.1	893.44
4263	23.816	0.54545	0.1	101.71
4264	23.632	0.54545	0.1	123.48
4265	23.447	0.54545	0.1	151.69
4266	23.263	0.54545	0.1	183.71
4267	23.079	0.54545	0.1	217.98
4268	22.895	0.54545	0.1	253.69
4269	22.71	0.54545	0.1	290.34
4270	22.526	0.54545	0.1	327.66
4271	22.342	0.54545	0.1	365.47
4272	22.158	0.54545	0.1	403.67
4273	21.973	0.54545	0.1	442.19
4274	21.789	0.54545	0.1	480.98
4275	21.605	0.54545	0.1	520.01
4276	21.421	0.54545	0.1	559.25
4277	21.236	0.54545	0.1	598.71
4278	21.052	0.54545	0.1	638.35
4279	20.868	0.54545	0.1	678.19
4280	20.684	0.54545	0.1	718.21
4281	20.5	0.54545	0.1	758.42
4282	20.315	0.54545	0.1	798.81
4283	20.131	0.54545	0.1	839.38
4284	19.947	0.54545	0.1	880.14
4285	19.763	0.54545	0.1	921.07
4286	19.578	0.54545	0.1	962.19
4287	19.394	0.54545	0.1	1003.5
4288	19.21	0.54545	0.1	1045.
4289	19.026	0.54545	0.1	1086.7
4290	18.841	0.54545	0.1	1128.5
4291	18.657	0.54545	0.1	1170.6
4292	18.473	0.54545	0.1	1212.8
4293	18.289	0.54545	0.1	1255.2
4294	18.105	0.54545	0.1	1297.8
4295	17.92	0.54545	0.1	1340.6
4296	17.736	0.54545	0.1	1383.6
4297	17.552	0.54545	0.1	1426.8
4298	17.368	0.54545	0.1	1470.1
4299	17.183	0.54545	0.1	1513.7
4300	16.999	0.54545	0.1	1557.4
4301	16.815	0.54545	0.1	1601.3
4302	16.631	0.54545	0.1	1645.3
4303	16.446	0.54545	0.1	1689.5
4304	16.262	0.54545	0.1	1733.8
4305	16.078	0.54545	0.1	1778.3
4306	15.894	0.54545	0.1	1822.9
4307	15.709	0.54545	0.1	1867.6
4308	15.525	0.54545	0.1	1912.3
4309	15.341	0.54545	0.1	1957.
4310	15.157	0.54545	0.1	2001.7
4311	14.973	0.54545	0.1	2046.2
4312	14.788	0.54545	0.1	2090.4
4313	14.604	0.54545	0.1	2134.3
4314	14.42	0.54545	0.1	2177.6
4315	14.236	0.54545	0.1	2220.1
4316	14.051	0.54545	0.1	2261.4
4317	13.867	0.54545	0.1	2301.2
4318	13.683	0.54545	0.1	2338.9
4319	13.499	0.54545	0.1	2374.
4320	13.314	0.54545	0.1	2405.5
4321	13.13	0.54545	0.1	2432.3
4322	12.946	0.54545	0.1	2453.2
4323	12.762	0.54545	0.1	2466.4
4324	12.577	0.54545	0.1	2469.8
4325	12.393	0.54545	0.1	2460.8
4326	12.209	0.54545	0.1	2436.2
4327	12.025	0.54545	0.1	2392.2
4328	11.841	0.54545	0.1	2324.5
4329	11.656	0.54545	0.1	2228.4
4330	11.472	0.54545	0.1	2099.2
4331	11.288	0.54545	0.1	1934.1
4332	11.104	0.54545	0.1	1734.4
4333	10.919	0.54545	0.1	1512.4
4334	10.735	0.54545	0.1	1307.3
4335	10.551	0.54545	0.1	1248.6
4336	23.816	0.72727	0.1	118.01
4337	23.632	0.72727	0.1	138.31
4338	23.447	0.72727	0.1	164.51
4339	23.263	0.72727	0.1	194.53
4340	23.079	0.72727	0.1	227.06
4341	22.895	0.72727	0.1	261.3
4342	22.71	0.72727	0.1	296.75
4343	22.526	0.72727	0.1	333.06
4344	22.342	0.72727	0.1	370.02
4345	22.158	0.72727	0.1	407.49
4346	21.973	0.72727	0.1	445.38
4347	21.789	0.72727	0.1	483.63
4348	21.605	0.72727	0.1	522.17
4349	21.421	0.72727	0.1	560.99
4350	21.236	0.72727	0.1	600.06
4351	21.052	0.72727	0.1	639.36
4352	20.868	0.72727	0.1	678.89
4353	20.684	0.72727	0.1	718.62
4354	20.5	0.72727	0.1	758.57
4355	20.315	0.72727	0.1	798.71
4356	20.131	0.72727	0.1	839.06
4357	19.947	0.72727	0.1	879.6
4358	19.763	0.72727	0.1	920.33
4359	19.578	0.72727	0.1	961.26
4360	19.394	0.72727	0.1	1002.4
4361	19.21	0.72727	0.1	1043.7
4362	19.026	0.72727	0.1	1085.2
4363	18.841	0.72727	0.1	1126.9
4364	18.657	0.72727	0.1	1168.8
4365	18.473	0.72727	0.1	1210.9
4366	18.289	0.72727	0.1	1253.1
4367	18.105	0.72727	0.1	1295.6
4368	17.92	0.72727	0.1	1338.2
4369	17.736	0.72727	0.1	1381.
4370	17.552	0.72727	0.1	1424.
4371	17.368	0.72727	0.1	1467.2
4372	17.183	0.72727	0.1	1510.5
4373	16.999	0.72727	0.1	1554.1
4374	16.815	0.72727	0.1	1597.7
4375	16.631	0.72727	0.1	1641.6
4376	16.446	0.72727	0.1	1685.6
4377	16.262	0.72727	0.1	1729.8
4378	16.078	0.72727	0.1	1774.1
4379	15.894	0.72727	0.1	1818.5
4380	15.709	0.72727	0.1	1863.
4381	15.525	0.72727	0.1	1907.6
4382	15.341	0.72727	0.1	1952.2
4383	15.157	0.72727	0.1	1996.9
4384	14.973	0.72727	0.1	2041.4
4385	14.788	0.72727	0.1	2085.8
4386	14.604	0.72727	0.1	2129.9
4387	14.42	0.72727	0.1	2173.6
4388	14.236	0.72727	0.1	2216.7
4389	14.051	0.72727	0.1	2258.9
4390	13.867	0.72727	0.1	2299.9
4391	13.683	0.72727	0.1	2339.2
4392	13.499	0.72727	0.1	2376.4
4393	13.314	0.72727	0.1	2410.6
4394	13.13	0.72727	0.1	2441.
4395	12.946	0.72727	0.1	2466.4
4396	12.762	0.72727	0.1	2485.3
4397	12.577	0.72727	0.1	2495.9
4398	12.393	0.72727	0.1	2495.8
4399	12.209	0.72727	0.1	2482.3
4400	12.025	0.72727	0.1	2452.2
4401	11.841	0.72727	0.1	2401.5
4402	11.656	0.72727	0.1	2326.4
4403	11.472	0.72727	0.1	2223.3
4404	11.288	0.72727	0.1	2090.5
4405	11.104	0.72727	0.1	1932.
4406	10.919	0.72727	0.1	1763.2
4407	10.735	0.72727	0.1	1624.7
4408	10.551	0.72727	0.1	1649.7
4409	23.816	0.90909	0.1	132.02
4410	23.632	0.90909	0.1	151.43
4411	23.447	0.90909	0.1	176.33
4412	23.263	0.90909	0.1	204.93
4413	23.079	0.90909	0.1	236.1
4414	22.895	0.90909	0.1	269.11
4415	22.71	0.90909	0.1	303.46
4416	22.526	0.90909	0.1	338.82
4417	22.342	0.90909	0.1	374.96
4418	22.158	0.90909	0.1	411.72
4419	21.973	0.90909	0.1	448.98
4420	21.789	0.90909	0.1	486.66
4421	21.605	0.90909	0.1	524.72
4422	21.421	0.90909	0.1	563.09
4423	21.236	0.90909	0.1	601.76
4424	21.052	0.90909	0.1	640.7
4425	20.868	0.90909	0.1	679.9
4426	20.684	0.90909	0.1	719.33
4427	20.5	0.90909	0.1	759.
4428	20.315	0.90909	0.1	798.89
4429	20.131	0.90909	0.1	839.
4430	19.947	0.90909	0.1	879.32
4431	19.763	0.90909	0.1	919.85
4432	19.578	0.90909	0.1	960.58
4433	19.394	0.90909	0.1	1001.5
4434	19.21	0.90909	0.1	1042.7
4435	19.026	0.90909	0.1	1084.
4436	18.841	0.90909	0.1	1125.5
4437	18.657	0.90909	0.1	1167.2
4438	18.473	0.90909	0.1	1209.1
4439	18.289	0.90909	0.1	1251.2
4440	18.105	0.90909	0.1	1293.5
4441	17.92	0.90909	0.1	1336.
4442	17.736	0.90909	0.1	1378.6
4443	17.552	0.90909	0.1	1421.4
4444	17.368	0.90909	0.1	1464.4
4445	17.183	0.90909	0.1	1507.6
4446	16.999	0.90909	0.1	1550.9
4447	16.815	0.90909	0.1	1594.4
4448	16.631	0.90909	0.1	1638.1
4449	16.446	0.90909	0.1	1681.9
4450	16.262	0.90909	0.1	1725.9
4451	16.078	0.90909	0.1	1770.
4452	15.894	0.90909	0.1	1814.3
4453	15.709	0.90909	0.1	1858.6
4454	15.525	0.90909	0.1	1903.1
4455	15.341	0.90909	0.1	1947.6
4456	15.157	0.90909	0.1	1992.1
4457	14.973	0.90909	0.1	2036.7
4458	14.788	0.90909	0.1	2081.2
4459	14.604	0.90909	0.1	2125.5
4460	14.42	0.90909	0.1	2169.6
4461	14.236	0.90909	0.1	2213.2
4462	14.051	0.90909	0.1	2256.3
4463	13.867	0.90909	0.1	2298.4
4464	13.683	0.90909	0.1	2339.4
4465	13.499	0.90909	0.1	2378.8
4466	13.314	0.90909	0.1	2415.9
4467	13.13	0.90909	0.1	2450.1
4468	12.946	0.90909	0.1	2480.3
4469	12.762	0.90909	0.1	2505.5
4470	12.577	0.90909	0.1	2524.2
4471	12.393	0.90909	0.1	2534.5
4472	12.209	0.90909	0.1	2534.2
4473	12.025	0.90909	0.1	2520.8
4474	11.841	0.90909	0.1	2491.5
4475	11.656	0.90909	0.1	2443.5
4476	11.472	0.90909	0.1	2374.8
4477	11.288	0.90909	0.1	2285.3
4478	11.104	0.90909	0.1	2180.2
4479	10.919	0.90909	0.1	2074.6
4480	10.735	0.90909	0.1	2004.3
4481	10.551	0.90909	0.1	2109.3
4482	23.816	1.0909	0.1	144.14
4483	23.632	1.0909	0.1	162.95
4484	23.447	1.0909	0.1	186.95
4485	23.263	1.0909	0.1	214.53
4486	23.079	1.0909	0.1	244.65
4487	22.895	1.0909	0.1	276.67
4488	22.71	1.0909	0.1	310.1
4489	22.526	1.0909	0.1	344.63
4490	22.342	1.0909	0.1	380.02
4491	22.158	1.0909	0.1	416.1
4492	21.973	1.0909	0.1	452.76
4493	21.789	1.0909	0.1	489.91
4494	21.605	1.0909	0.1	527.47
4495	21.421	1.0909	0.1	565.41
4496	21.236	1.0909	0.1	603.68
4497	21.052	1.0909	0.1	642.26
4498	20.868	1.0909	0.1	681.12
4499	20.684	1.0909	0.1	720.26
4500	20.5	1.0909	0.1	759.64
4501	20.315	1.0909	0.1	799.28
4502	20.131	1.0909	0.1	839.15
4503	19.947	1.0909	0.1	879.24
4504	19.763	1.0909	0.1	919.56
4505	19.578	1.0909	0.1	960.1
4506	19.394	1.0909	0.1	1000.8
4507	19.21	1.0909	0.1	1041.8
4508	19.026	1.0909	0.1	1083.
4509	18.841	1.0909	0.1	1124.3
4510	18.657	1.0909	0.1	1165.9
4511	18.473	1.0909	0.1	1207.6
4512	18.289	1.0909	0.1	1249.5
4513	18.105	1.0909	0.1	1291.7
4514	17.92	1.0909	0.1	1334.
4515	17.736	1.0909	0.1	1376.4
4516	17.552	1.0909	0.1	1419.1
4517	17.368	1.0909	0.1	1461.9
4518	17.183	1.0909	0.1	1504.9
4519	16.999	1.0909	0.1	1548.
4520	16.815	1.0909	0.1	1591.4
4521	16.631	1.0909	0.1	1634.8
4522	16.446	1.0909	0.1	1678.4
4523	16.262	1.0909	0.1	1722.2
4524	16.078	1.0909	0.1	1766.1
4525	15.894	1.0909	0.1	1810.2
4526	15.709	1.0909	0.1	1854.4
4527	15.525	1.0909	0.1	1898.6
4528	15.341	1.0909	0.1	1943.
4529	15.157	1.0909	0.1	1987.5
4530	14.973	1.0909	0.1	2032.
4531	14.788	1.0909	0.1	2076.6
4532	14.604	1.0909	0.1	2121.1
4533	14.42	1.0909	0.1	2165.5
4534	14.236	1.0909	0.1	2209.7
4535	14.051	1.0909	0.1	2253.5
4536	13.867	1.0909	0.1	2296.9
4537	13.683	1.0909	0.1	2339.5
4538	13.499	1.0909	0.1	2381.1
4539	13.314	1.0909	0.1	2421.2
4540	13.13	1.0909	0.1	2459.3
4541	12.946	1.0909	0.1	2494.8
4542	12.762	1.0909	0.1	2526.8
4543	12.577	1.0909	0.1	2554.3
4544	12.393	1.0909	0.1	2576.1
4545	12.209	1.0909	0.1	2590.7
4546	12.025	1.0909	0.1	2596.6
4547	11.841	1.0909	0.1	2592.3
4548	11.656	1.0909	0.1	2576.8
4549	11.472	1.0909	0.1	2549.8
4550	11.288	1.0909	0.1	2513.5
4551	11.104	1.0909	0.1	2474.4
4552	10.919	1.0909	0.1	2445.4
4553	10.735	1.0909	0.1	2454.7
4554	10.551	1.0909	0.1	2653.4
4555	23.816	1.2727	0.1	154.65
4556	23.632	1.2727	0.1	173.03
4557	23.447	1.2727	0.1	196.37
4558	23.263	1.2727	0.1	223.18
4559	23.079	1.2727	0.1	252.52
4560	22.895	1.2727	0.1	283.75
4561	22.71	1.2727	0.1	316.43
4562	22.526	1.2727	0.1	350.25
4563	22.342	1.2727	0.1	384.98
4564	22.158	1.2727	0.1	420.46
4565	21.973	1.2727	0.1	456.56
4566	21.789	1.2727	0.1	493.2
4567	21.605	1.2727	0.1	530.3
4568	21.421	1.2727	0.1	567.82
4569	21.236	1.2727	0.1	605.71
4570	21.052	1.2727	0.1	643.94
4571	20.868	1.2727	0.1	682.48
4572	20.684	1.2727	0.1	721.32
4573	20.5	1.2727	0.1	760.43
4574	20.315	1.2727	0.1	799.81
4575	20.131	1.2727	0.1	839.45
4576	19.947	1.2727	0.1	879.32
4577	19.763	1.2727	0.1	919.44
4578	19.578	1.2727	0.1	959.78
4579	19.394	1.2727	0.1	1000.3
4580	19.21	1.2727	0.1	1041.1
4581	19.026	1.2727	0.1	1082.1
4582	18.841	1.2727	0.1	1123.3
4583	18.657	1.2727	0.1	1164.7
4584	18.473	1.2727	0.1	1206.3
4585	18.289	1.2727	0.1	1248.
4586	18.105	1.2727	0.1	1290.
4587	17.92	1.2727	0.1	1332.1
4588	17.736	1.2727	0.1	1374.4
4589	17.552	1.2727	0.1	1416.9
4590	17.368	1.2727	0.1	1459.6
4591	17.183	1.2727	0.1	1502.4
4592	16.999	1.2727	0.1	1545.3
4593	16.815	1.2727	0.1	1588.5
4594	16.631	1.2727	0.1	1631.7
4595	16.446	1.2727	0.1	1675.2
4596	16.262	1.2727	0.1	1718.7
4597	16.078	1.2727	0.1	1762.5
4598	15.894	1.2727	0.1	1806.3
4599	15.709	1.2727	0.1	1850.3
4600	15.525	1.2727	0.1	1894.4
4601	15.341	1.2727	0.1	1938.6
4602	15.157	1.2727	0.1	1983.
4603	14.973	1.2727	0.1	2027.5
4604	14.788	1.2727	0.1	2072.
4605	14.604	1.2727	0.1	2116.7
4606	14.42	1.2727	0.1	2161.4
4607	14.236	1.2727	0.1	2206.1
4608	14.051	1.2727	0.1	2250.7
4609	13.867	1.2727	0.1	2295.2
4610	13.683	1.2727	0.1	2339.4
4611	13.499	1.2727	0.1	2383.2
4612	13.314	1.2727	0.1	2426.4
4613	13.13	1.2727	0.1	2468.6
4614	12.946	1.2727	0.1	2509.5
4615	12.762	1.2727	0.1	2548.7
4616	12.577	1.2727	0.1	2585.7
4617	12.393	1.2727	0.1	2619.8
4618	12.209	1.2727	0.1	2650.6
4619	12.025	1.2727	0.1	2677.7
4620	11.841	1.2727	0.1	2701.
4621	11.656	1.2727	0.1	2721.6
4622	11.472	1.2727	0.1	2742.1
4623	11.288	1.2727	0.1	2767.9
4624	11.104	1.2727	0.1	2808.1
4625	10.919	1.2727	0.1	2876.3
4626	10.735	1.2727	0.1	2996.9
4627	10.551	1.2727	0.1	3328.2
4628	23.816	1.4545	0.1	163.75
4629	23.632	1.4545	0.1	181.8
4630	23.447	1.4545	0.1	204.63
4631	23.263	1.4545	0.1	230.87
4632	23.079	1.4545	0.1	259.6
4633	22.895	1.4545	0.1	290.21
4634	22.71	1.4545	0.1	322.28
4635	22.526	1.4545	0.1	355.51
4636	22.342	1.4545	0.1	389.67
4637	22.158	1.4545	0.1	424.63
4638	21.973	1.4545	0.1	460.24
4639	21.789	1.4545	0.1	496.42
4640	21.605	1.4545	0.1	533.11
4641	21.421	1.4545	0.1	570.23
4642	21.236	1.4545	0.1	607.76
4643	21.052	1.4545	0.1	645.66
4644	20.868	1.4545	0.1	683.9
4645	20.684	1.4545	0.1	722.45
4646	20.5	1.4545	0.1	761.31
4647	20.315	1.4545	0.1	800.45
4648	20.131	1.4545	0.1	839.85
4649	19.947	1.4545	0.1	879.52
4650	19.763	1.4545	0.1	919.43
4651	19.578	1.4545	0.1	959.59
4652	19.394	1.4545	0.1	999.97
4653	19.21	1.4545	0.1	1040.6
4654	19.026	1.4545	0.1	1081.4
4655	18.841	1.4545	0.1	1122.4
4656	18.657	1.4545	0.1	1163.7
4657	18.473	1.4545	0.1	1205.1
4658	18.289	1.4545	0.1	1246.7
4659	18.105	1.4545	0.1	1288.5
4660	17.92	1.4545	0.1	1330.5
4661	17.736	1.4545	0.1	1372.6
4662	17.552	1.4545	0.1	1415.
4663	17.368	1.4545	0.1	1457.4
4664	17.183	1.4545	0.1	1500.1
4665	16.999	1.4545	0.1	1542.9
4666	16.815	1.4545	0.1	1585.8
4667	16.631	1.4545	0.1	1628.9
4668	16.446	1.4545	0.1	1672.1
4669	16.262	1.4545	0.1	1715.5
4670	16.078	1.4545	0.1	1759.
4671	15.894	1.4545	0.1	1802.6
4672	15.709	1.4545	0.1	1846.4
4673	15.525	1.4545	0.1	1890.4
4674	15.341	1.4545	0.1	1934.4
4675	15.157	1.4545	0.1	1978.7
4676	14.973	1.4545	0.1	2023.1
4677	14.788	1.4545	0.1	2067.6
4678	14.604	1.4545	0.1	2112.4
4679	14.42	1.4545	0.1	2157.3
4680	14.236	1.4545	0.1	2202.4
4681	14.051	1.4545	0.1	2247.8
4682	13.867	1.4545	0.1	2293.4
4683	13.683	1.4545	0.1	2339.2
4684	13.499	1.4545	0.1	2385.2
4685	13.314	1.4545	0.1	2431.4
4686	13.13	1.4545	0.1	2477.8
4687	12.946	1.4545	0.1	2524.3
4688	12.762	1.4545	0.1	2570.9
4689	12.577	1.4545	0.1	2617.7
4690	12.393	1.4545	0.1	2664.8
4691	12.209	1.4545	0.1	2712.5
4692	12.025	1.4545	0.1	2761.7
4693	11.841	1.4545	0.1	2814.2
4694	11.656	1.4545	0.1	2873.2
4695	11.472	1.4545	0.1	2944.6
4696	11.288	1.4545	0.1	3038.4
4697	11.104	1.4545	0.1	3170.6
4698	10.919	1.4545	0.1	3366.7
4699	10.735	1.4545	0.1	3648.6
4700	10.551	1.4545	0.1	4212.3
4701	23.816	1.6364	0.1	171.58
4702	23.632	1.6364	0.1	189.38
4703	23.447	1.6364	0.1	211.81
4704	23.263	1.6364	0.1	237.6
4705	23.079	1.6364	0.1	265.85
4706	22.895	1.6364	0.1	295.98
4707	22.71	1.6364	0.1	327.56
4708	22.526	1.6364	0.1	360.3
4709	22.342	1.6364	0.1	394.
4710	22.158	1.6364	0.1	428.51
4711	21.973	1.6364	0.1	463.69
4712	21.789	1.6364	0.1	499.47
4713	21.605	1.6364	0.1	535.78
4714	21.421	1.6364	0.1	572.56
4715	21.236	1.6364	0.1	609.76
4716	21.052	1.6364	0.1	647.35
4717	20.868	1.6364	0.1	685.31
4718	20.684	1.6364	0.1	723.6
4719	20.5	1.6364	0.1	762.21
4720	20.315	1.6364	0.1	801.13
4721	20.131	1.6364	0.1	840.32
4722	19.947	1.6364	0.1	879.79
4723	19.763	1.6364	0.1	919.52
4724	19.578	1.6364	0.1	959.49
4725	19.394	1.6364	0.1	999.71
4726	19.21	1.6364	0.1	1040.2
4727	19.026	1.6364	0.1	1080.8
4728	18.841	1.6364	0.1	1121.7
4729	18.657	1.6364	0.1	1162.8
4730	18.473	1.6364	0.1	1204.1
4731	18.289	1.6364	0.1	1245.6
4732	18.105	1.6364	0.1	1287.2
4733	17.92	1.6364	0.1	1329.
4734	17.736	1.6364	0.1	1371.
4735	17.552	1.6364	0.1	1413.2
4736	17.368	1.6364	0.1	1455.5
4737	17.183	1.6364	0.1	1498.
4738	16.999	1.6364	0.1	1540.6
4739	16.815	1.6364	0.1	1583.4
4740	16.631	1.6364	0.1	1626.3
4741	16.446	1.6364	0.1	1669.3
4742	16.262	1.6364	0.1	1712.5
4743	16.078	1.6364	0.1	1755.8
4744	15.894	1.6364	0.1	1799.2
4745	15.709	1.6364	0.1	1842.8
4746	15.525	1.6364	0.1	1886.6
4747	15.341	1.6364	0.1	1930.5
4748	15.157	1.6364	0.1	1974.5
4749	14.973	1.6364	0.1	2018.8
4750	14.788	1.6364	0.1	2063.4
4751	14.604	1.6364	0.1	2108.2
4752	14.42	1.6364	0.1	2153.3
4753	14.236	1.6364	0.1	2198.9
4754	14.051	1.6364	0.1	2244.9
4755	13.867	1.6364	0.1	2291.5
4756	13.683	1.6364	0.1	2338.9
4757	13.499	1.6364	0.1	2387.
4758	13.314	1.6364	0.1	2436.3
4759	13.13	1.6364	0.1	2486.8
4760	12.946	1.6364	0.1	2538.9
4761	12.762	1.6364	0.1	2593.
4762	12.577	1.6364	0.1	2649.7
4763	12.393	1.6364	0.1	2709.9
4764	12.209	1.6364	0.1	2774.8
4765	12.025	1.6364	0.1	2846.7
4766	11.841	1.6364	0.1	2928.9
4767	11.656	1.6364	0.1	3026.9
4768	11.472	1.6364	0.1	3150.1
4769	11.288	1.6364	0.1	3313.8
4770	11.104	1.6364	0.1	3546.6
4771	10.919	1.6364	0.1	3887.3
4772	10.735	1.6364	0.1	4435.
4773	10.551	1.6364	0.1	5496.7
4774	23.816	1.8182	0.1	178.25
4775	23.632	1.8182	0.1	195.85
4776	23.447	1.8182	0.1	217.97
4777	23.263	1.8182	0.1	243.4
4778	23.079	1.8182	0.1	271.28
4779	22.895	1.8182	0.1	301.02
4780	22.71	1.8182	0.1	332.21
4781	22.526	1.8182	0.1	364.57
4782	22.342	1.8182	0.1	397.88
4783	22.158	1.8182	0.1	432.01
4784	21.973	1.8182	0.1	466.84
4785	21.789	1.8182	0.1	502.27
4786	21.605	1.8182	0.1	538.25
4787	21.421	1.8182	0.1	574.72
4788	21.236	1.8182	0.1	611.63
4789	21.052	1.8182	0.1	648.96
4790	20.868	1.8182	0.1	686.66
4791	20.684	1.8182	0.1	724.72
4792	20.5	1.8182	0.1	763.11
4793	20.315	1.8182	0.1	801.81
4794	20.131	1.8182	0.1	840.81
4795	19.947	1.8182	0.1	880.1
4796	19.763	1.8182	0.1	919.66
4797	19.578	1.8182	0.1	959.47
4798	19.394	1.8182	0.1	999.54
4799	19.21	1.8182	0.1	1039.8
4800	19.026	1.8182	0.1	1080.4
4801	18.841	1.8182	0.1	1121.1
4802	18.657	1.8182	0.1	1162.1
4803	18.473	1.8182	0.1	1203.2
4804	18.289	1.8182	0.1	1244.6
4805	18.105	1.8182	0.1	1286.1
4806	17.92	1.8182	0.1	1327.8
4807	17.736	1.8182	0.1	1369.6
4808	17.552	1.8182	0.1	1411.7
4809	17.368	1.8182	0.1	1453.8
4810	17.183	1.8182	0.1	1496.2
4811	16.999	1.8182	0.1	1538.6
4812	16.815	1.8182	0.1	1581.2
4813	16.631	1.8182	0.1	1624.
4814	16.446	1.8182	0.1	1666.8
4815	16.262	1.8182	0.1	1709.8
4816	16.078	1.8182	0.1	1752.9
4817	15.894	1.8182	0.1	1796.1
4818	15.709	1.8182	0.1	1839.5
4819	15.525	1.8182	0.1	1883.1
4820	15.341	1.8182	0.1	1926.8
4821	15.157	1.8182	0.1	1970.7
4822	14.973	1.8182	0.1	2014.9
4823	14.788	1.8182	0.1	2059.4
4824	14.604	1.8182	0.1	2104.3
4825	14.42	1.8182	0.1	2149.6
4826	14.236	1.8182	0.1	2195.5
4827	14.051	1.8182	0.1	2242.1
4828	13.867	1.8182	0.1	2289.7
4829	13.683	1.8182	0.1	2338.5
4830	13.499	1.8182	0.1	2388.7
4831	13.314	1.8182	0.1	2440.9
4832	13.13	1.8182	0.1	2495.4
4833	12.946	1.8182	0.1	2553.
4834	12.762	1.8182	0.1	2614.5
4835	12.577	1.8182	0.1	2681.
4836	12.393	1.8182	0.1	2754.3
4837	12.209	1.8182	0.1	2836.4
4838	12.025	1.8182	0.1	2930.8
4839	11.841	1.8182	0.1	3042.5
4840	11.656	1.8182	0.1	3179.2
4841	11.472	1.8182	0.1	3353.6
4842	11.288	1.8182	0.1	3586.6
4843	11.104	1.8182	0.1	3916.2
4844	10.919	1.8182	0.1	4411.8
4845	10.735	1.8182	0.1	5313.7
4846	10.551	1.8182	0.1	7406.7
4847	23.816	2.	0.1	183.84
4848	23.632	2.	0.1	201.29
4849	23.447	2.	0.1	223.16
4850	23.263	2.	0.1	248.31
4851	23.079	2.	0.1	275.9
4852	22.895	2.	0.1	305.33
4853	22.71	2.	0.1	336.21
4854	22.526	2.	0.1	368.26
4855	22.342	2.	0.1	401.27
4856	22.158	2.	0.1	435.09
4857	21.973	2.	0.1	469.61
4858	21.789	2.	0.1	504.76
4859	21.605	2.	0.1	540.46
4860	21.421	2.	0.1	576.67
4861	21.236	2.	0.1	613.33
4862	21.052	2.	0.1	650.42
4863	20.868	2.	0.1	687.9
4864	20.684	2.	0.1	725.75
4865	20.5	2.	0.1	763.94
4866	20.315	2.	0.1	802.47
4867	20.131	2.	0.1	841.3
4868	19.947	2.	0.1	880.42
4869	19.763	2.	0.1	919.83
4870	19.578	2.	0.1	959.5
4871	19.394	2.	0.1	999.43
4872	19.21	2.	0.1	1039.6
4873	19.026	2.	0.1	1080.
4874	18.841	2.	0.1	1120.6
4875	18.657	2.	0.1	1161.4
4876	18.473	2.	0.1	1202.5
4877	18.289	2.	0.1	1243.7
4878	18.105	2.	0.1	1285.1
4879	17.92	2.	0.1	1326.7
4880	17.736	2.	0.1	1368.4
4881	17.552	2.	0.1	1410.3
4882	17.368	2.	0.1	1452.4
4883	17.183	2.	0.1	1494.6
4884	16.999	2.	0.1	1536.9
4885	16.815	2.	0.1	1579.3
4886	16.631	2.	0.1	1621.9
4887	16.446	2.	0.1	1664.6
4888	16.262	2.	0.1	1707.4
4889	16.078	2.	0.1	1750.3
4890	15.894	2.	0.1	1793.4
4891	15.709	2.	0.1	1836.6
4892	15.525	2.	0.1	1880.
4893	15.341	2.	0.1	1923.5
4894	15.157	2.	0.1	1967.3
4895	14.973	2.	0.1	2011.4
4896	14.788	2.	0.1	2055.8
4897	14.604	2.	0.1	2100.7
4898	14.42	2.	0.1	2146.1
4899	14.236	2.	0.1	2192.4
4900	14.051	2.	0.1	2239.6
4901	13.867	2.	0.1	2288.
4902	13.683	2.	0.1	2338.1
4903	13.499	2.	0.1	2390.3
4904	13.314	2.	0.1	2445.2
4905	13.13	2.	0.1	2503.5
4906	12.946	2.	0.1	2566.3
4907	12.762	2.	0.1	2634.9
4908	12.577	2.	0.1	2710.9
4909	12.393	2.	0.1	2796.8
4910	12.209	2.	0.1	2895.8
4911	12.025	2.	0.1	3012.2
4912	11.841	2.	0.1	3152.8
4913	11.656	2.	0.1	3327.3
4914	11.472	2.	0.1	3551.7
4915	11.288	2.	0.1	3851.1
4916	11.104	2.	0.1	4275.4
4917	10.919	2.	0.1	4913.1
4918	10.735	2.	0.1	6016.2
4919	10.551	2.	0.1	9047.7
4920	23.816	2.1818	0.1	188.43
4921	23.632	2.1818	0.1	205.74
4922	23.447	2.1818	0.1	227.42
4923	23.263	2.1818	0.1	252.36
4924	23.079	2.1818	0.1	279.71
4925	22.895	2.1818	0.1	308.91
4926	22.71	2.1818	0.1	339.55
4927	22.526	2.1818	0.1	371.36
4928	22.342	2.1818	0.1	404.12
4929	22.158	2.1818	0.1	437.69
4930	21.973	2.1818	0.1	471.98
4931	21.789	2.1818	0.1	506.89
4932	21.605	2.1818	0.1	542.37
4933	21.421	2.1818	0.1	578.35
4934	21.236	2.1818	0.1	614.81
4935	21.052	2.1818	0.1	651.69
4936	20.868	2.1818	0.1	688.99
4937	20.684	2.1818	0.1	726.66
4938	20.5	2.1818	0.1	764.69
4939	20.315	2.1818	0.1	803.06
4940	20.131	2.1818	0.1	841.74
4941	19.947	2.1818	0.1	880.73
4942	19.763	2.1818	0.1	920.01
4943	19.578	2.1818	0.1	959.56
4944	19.394	2.1818	0.1	999.36
4945	19.21	2.1818	0.1	1039.4
4946	19.026	2.1818	0.1	1079.7
4947	18.841	2.1818	0.1	1120.2
4948	18.657	2.1818	0.1	1161.
4949	18.473	2.1818	0.1	1201.9
4950	18.289	2.1818	0.1	1243.
4951	18.105	2.1818	0.1	1284.3
4952	17.92	2.1818	0.1	1325.8
4953	17.736	2.1818	0.1	1367.4
4954	17.552	2.1818	0.1	1409.2
4955	17.368	2.1818	0.1	1451.1
4956	17.183	2.1818	0.1	1493.2
4957	16.999	2.1818	0.1	1535.4
4958	16.815	2.1818	0.1	1577.7
4959	16.631	2.1818	0.1	1620.1
4960	16.446	2.1818	0.1	1662.7
4961	16.262	2.1818	0.1	1705.3
4962	16.078	2.1818	0.1	1748.1
4963	15.894	2.1818	0.1	1791.
4964	15.709	2.1818	0.1	1834.
4965	15.525	2.1818	0.1	1877.2
4966	15.341	2.1818	0.1	1920.6
4967	15.157	2.1818	0.1	1964.3
4968	14.973	2.1818	0.1	2008.2
4969	14.788	2.1818	0.1	2052.6
4970	14.604	2.1818	0.1	2097.5
4971	14.42	2.1818	0.1	2143.1
4972	14.236	2.1818	0.1	2189.6
4973	14.051	2.1818	0.1	2237.3
4974	13.867	2.1818	0.1	2286.5
4975	13.683	2.1818	0.1	2337.8
4976	13.499	2.1818	0.1	2391.7
4977	13.314	2.1818	0.1	2449.
4978	13.13	2.1818	0.1	2510.9
4979	12.946	2.1818	0.1	2578.5
4980	12.762	2.1818	0.1	2653.6
4981	12.577	2.1818	0.1	2738.6
4982	12.393	2.1818	0.1	2836.4
4983	12.209	2.1818	0.1	2951.1
4984	12.025	2.1818	0.1	3088.5
4985	11.841	2.1818	0.1	3256.6
4986	11.656	2.1818	0.1	3467.2
4987	11.472	2.1818	0.1	3738.8
4988	11.288	2.1818	0.1	4100.5
4989	11.104	2.1818	0.1	4607.5
4990	10.919	2.1818	0.1	5353.2
4991	10.735	2.1818	0.1	6630.9
4992	10.551	2.1818	0.1	9008.7
4993	23.816	2.3636	0.1	192.04
4994	23.632	2.3636	0.1	209.27
4995	23.447	2.3636	0.1	230.79
4996	23.263	2.3636	0.1	255.56
4997	23.079	2.3636	0.1	282.74
4998	22.895	2.3636	0.1	311.76
4999	22.71	2.3636	0.1	342.22
5000	22.526	2.3636	0.1	373.84
5001	22.342	2.3636	0.1	406.41
5002	22.158	2.3636	0.1	439.8
5003	21.973	2.3636	0.1	473.9
5004	21.789	2.3636	0.1	508.63
5005	21.605	2.3636	0.1	543.92
5006	21.421	2.3636	0.1	579.74
5007	21.236	2.3636	0.1	616.02
5008	21.052	2.3636	0.1	652.75
5009	20.868	2.3636	0.1	689.9
5010	20.684	2.3636	0.1	727.43
5011	20.5	2.3636	0.1	765.32
5012	20.315	2.3636	0.1	803.56
5013	20.131	2.3636	0.1	842.13
5014	19.947	2.3636	0.1	881.
5015	19.763	2.3636	0.1	920.17
5016	19.578	2.3636	0.1	959.62
5017	19.394	2.3636	0.1	999.33
5018	19.21	2.3636	0.1	1039.3
5019	19.026	2.3636	0.1	1079.5
5020	18.841	2.3636	0.1	1119.9
5021	18.657	2.3636	0.1	1160.6
5022	18.473	2.3636	0.1	1201.4
5023	18.289	2.3636	0.1	1242.5
5024	18.105	2.3636	0.1	1283.7
5025	17.92	2.3636	0.1	1325.1
5026	17.736	2.3636	0.1	1366.6
5027	17.552	2.3636	0.1	1408.3
5028	17.368	2.3636	0.1	1450.1
5029	17.183	2.3636	0.1	1492.1
5030	16.999	2.3636	0.1	1534.2
5031	16.815	2.3636	0.1	1576.4
5032	16.631	2.3636	0.1	1618.7
5033	16.446	2.3636	0.1	1661.1
5034	16.262	2.3636	0.1	1703.7
5035	16.078	2.3636	0.1	1746.3
5036	15.894	2.3636	0.1	1789.1
5037	15.709	2.3636	0.1	1831.9
5038	15.525	2.3636	0.1	1875.
5039	15.341	2.3636	0.1	1918.3
5040	15.157	2.3636	0.1	1961.8
5041	14.973	2.3636	0.1	2005.7
5042	14.788	2.3636	0.1	2050.
5043	14.604	2.3636	0.1	2094.9
5044	14.42	2.3636	0.1	2140.5
5045	14.236	2.3636	0.1	2187.2
5046	14.051	2.3636	0.1	2235.3
5047	13.867	2.3636	0.1	2285.2
5048	13.683	2.3636	0.1	2337.5
5049	13.499	2.3636	0.1	2392.9
5050	13.314	2.3636	0.1	2452.4
5051	13.13	2.3636	0.1	2517.2
5052	12.946	2.3636	0.1	2589.
5053	12.762	2.3636	0.1	2670.
5054	12.577	2.3636	0.1	2762.8
5055	12.393	2.3636	0.1	2871.2
5056	12.209	2.3636	0.1	3000.2
5057	12.025	2.3636	0.1	3156.6
5058	11.841	2.3636	0.1	3349.6
5059	11.656	2.3636	0.1	3592.7
5060	11.472	2.3636	0.1	3905.7
5061	11.288	2.3636	0.1	4319.4
5062	11.104	2.3636	0.1	4883.3
5063	10.919	2.3636	0.1	5686.4
5064	10.735	2.3636	0.1	6859.4
5065	10.551	2.3636	0.1	8546.8
5066	23.816	2.5455	0.1	194.72
5067	23.632	2.5455	0.1	211.88
5068	23.447	2.5455	0.1	233.3
5069	23.263	2.5455	0.1	257.95
5070	23.079	2.5455	0.1	285.
5071	22.895	2.5455	0.1	313.89
5072	22.71	2.5455	0.1	344.22
5073	22.526	2.5455	0.1	375.71
5074	22.342	2.5455	0.1	408.15
5075	22.158	2.5455	0.1	441.4
5076	21.973	2.5455	0.1	475.36
5077	21.789	2.5455	0.1	509.95
5078	21.605	2.5455	0.1	545.11
5079	21.421	2.5455	0.1	580.8
5080	21.236	2.5455	0.1	616.96
5081	21.052	2.5455	0.1	653.57
5082	20.868	2.5455	0.1	690.6
5083	20.684	2.5455	0.1	728.02
5084	20.5	2.5455	0.1	765.81
5085	20.315	2.5455	0.1	803.96
5086	20.131	2.5455	0.1	842.43
5087	19.947	2.5455	0.1	881.22
5088	19.763	2.5455	0.1	920.31
5089	19.578	2.5455	0.1	959.68
5090	19.394	2.5455	0.1	999.32
5091	19.21	2.5455	0.1	1039.2
5092	19.026	2.5455	0.1	1079.3
5093	18.841	2.5455	0.1	1119.7
5094	18.657	2.5455	0.1	1160.3
5095	18.473	2.5455	0.1	1201.1
5096	18.289	2.5455	0.1	1242.
5097	18.105	2.5455	0.1	1283.2
5098	17.92	2.5455	0.1	1324.5
5099	17.736	2.5455	0.1	1366.
5100	17.552	2.5455	0.1	1407.6
5101	17.368	2.5455	0.1	1449.4
5102	17.183	2.5455	0.1	1491.3
5103	16.999	2.5455	0.1	1533.3
5104	16.815	2.5455	0.1	1575.4
5105	16.631	2.5455	0.1	1617.6
5106	16.446	2.5455	0.1	1660.
5107	16.262	2.5455	0.1	1702.4
5108	16.078	2.5455	0.1	1744.9
5109	15.894	2.5455	0.1	1787.6
5110	15.709	2.5455	0.1	1830.3
5111	15.525	2.5455	0.1	1873.3
5112	15.341	2.5455	0.1	1916.4
5113	15.157	2.5455	0.1	1959.9
5114	14.973	2.5455	0.1	2003.6
5115	14.788	2.5455	0.1	2047.9
5116	14.604	2.5455	0.1	2092.8
5117	14.42	2.5455	0.1	2138.5
5118	14.236	2.5455	0.1	2185.4
5119	14.051	2.5455	0.1	2233.8
5120	13.867	2.5455	0.1	2284.2
5121	13.683	2.5455	0.1	2337.3
5122	13.499	2.5455	0.1	2393.9
5123	13.314	2.5455	0.1	2455.1
5124	13.13	2.5455	0.1	2522.4
5125	12.946	2.5455	0.1	2597.6
5126	12.762	2.5455	0.1	2683.2
5127	12.577	2.5455	0.1	2782.5
5128	12.393	2.5455	0.1	2899.7
5129	12.209	2.5455	0.1	3040.4
5130	12.025	2.5455	0.1	3212.5
5131	11.841	2.5455	0.1	3426.1
5132	11.656	2.5455	0.1	3695.7
5133	11.472	2.5455	0.1	4041.1
5134	11.288	2.5455	0.1	4490.2
5135	11.104	2.5455	0.1	5081.3
5136	10.919	2.5455	0.1	5860.3
5137	10.735	2.5455	0.1	6854.6
5138	10.551	2.5455	0.1	7933.6
5139	23.816	2.7273	0.1	196.49
5140	23.632	2.7273	0.1	213.61
5141	23.447	2.7273	0.1	234.96
5142	23.263	2.7273	0.1	259.53
5143	23.079	2.7273	0.1	286.5
5144	22.895	2.7273	0.1	315.31
5145	22.71	2.7273	0.1	345.56
5146	22.526	2.7273	0.1	376.95
5147	22.342	2.7273	0.1	409.3
5148	22.158	2.7273	0.1	442.47
5149	21.973	2.7273	0.1	476.34
5150	21.789	2.7273	0.1	510.84
5151	21.605	2.7273	0.1	545.92
5152	21.421	2.7273	0.1	581.51
5153	21.236	2.7273	0.1	617.59
5154	21.052	2.7273	0.1	654.12
5155	20.868	2.7273	0.1	691.08
5156	20.684	2.7273	0.1	728.43
5157	20.5	2.7273	0.1	766.15
5158	20.315	2.7273	0.1	804.23
5159	20.131	2.7273	0.1	842.64
5160	19.947	2.7273	0.1	881.38
5161	19.763	2.7273	0.1	920.41
5162	19.578	2.7273	0.1	959.73
5163	19.394	2.7273	0.1	999.31
5164	19.21	2.7273	0.1	1039.2
5165	19.026	2.7273	0.1	1079.2
5166	18.841	2.7273	0.1	1119.6
5167	18.657	2.7273	0.1	1160.1
5168	18.473	2.7273	0.1	1200.8
5169	18.289	2.7273	0.1	1241.8
5170	18.105	2.7273	0.1	1282.9
5171	17.92	2.7273	0.1	1324.2
5172	17.736	2.7273	0.1	1365.6
5173	17.552	2.7273	0.1	1407.2
5174	17.368	2.7273	0.1	1448.9
5175	17.183	2.7273	0.1	1490.7
5176	16.999	2.7273	0.1	1532.7
5177	16.815	2.7273	0.1	1574.7
5178	16.631	2.7273	0.1	1616.9
5179	16.446	2.7273	0.1	1659.2
5180	16.262	2.7273	0.1	1701.5
5181	16.078	2.7273	0.1	1744.
5182	15.894	2.7273	0.1	1786.5
5183	15.709	2.7273	0.1	1829.2
5184	15.525	2.7273	0.1	1872.1
5185	15.341	2.7273	0.1	1915.2
5186	15.157	2.7273	0.1	1958.6
5187	14.973	2.7273	0.1	2002.3
5188	14.788	2.7273	0.1	2046.5
5189	14.604	2.7273	0.1	2091.4
5190	14.42	2.7273	0.1	2137.2
5191	14.236	2.7273	0.1	2184.2
5192	14.051	2.7273	0.1	2232.8
5193	13.867	2.7273	0.1	2283.5
5194	13.683	2.7273	0.1	2337.2
5195	13.499	2.7273	0.1	2394.6
5196	13.314	2.7273	0.1	2457.
5197	13.13	2.7273	0.1	2526.
5198	12.946	2.7273	0.1	2603.6
5199	12.762	2.7273	0.1	2692.5
5200	12.577	2.7273	0.1	2796.4
5201	12.393	2.7273	0.1	2919.8
5202	12.209	2.7273	0.1	3069.1
5203	12.025	2.7273	0.1	3252.4
5204	11.841	2.7273	0.1	3480.8
5205	11.656	2.7273	0.1	3768.8
5206	11.472	2.7273	0.1	4135.4
5207	11.288	2.7273	0.1	4603.8
5208	11.104	2.7273	0.1	5198.3
5209	10.919	2.7273	0.1	5931.1
5210	10.735	2.7273	0.1	6768.4
5211	10.551	2.7273	0.1	7571.9
5212	23.816	2.9091	0.1	197.38
5213	23.632	2.9091	0.1	214.47
5214	23.447	2.9091	0.1	235.79
5215	23.263	2.9091	0.1	260.32
5216	23.079	2.9091	0.1	287.25
5217	22.895	2.9091	0.1	316.02
5218	22.71	2.9091	0.1	346.22
5219	22.526	2.9091	0.1	377.58
5220	22.342	2.9091	0.1	409.88
5221	22.158	2.9091	0.1	443.
5222	21.973	2.9091	0.1	476.83
5223	21.789	2.9091	0.1	511.29
5224	21.605	2.9091	0.1	546.32
5225	21.421	2.9091	0.1	581.87
5226	21.236	2.9091	0.1	617.91
5227	21.052	2.9091	0.1	654.4
5228	20.868	2.9091	0.1	691.32
5229	20.684	2.9091	0.1	728.63
5230	20.5	2.9091	0.1	766.32
5231	20.315	2.9091	0.1	804.37
5232	20.131	2.9091	0.1	842.75
5233	19.947	2.9091	0.1	881.45
5234	19.763	2.9091	0.1	920.46
5235	19.578	2.9091	0.1	959.75
5236	19.394	2.9091	0.1	999.31
5237	19.21	2.9091	0.1	1039.1
5238	19.026	2.9091	0.1	1079.2
5239	18.841	2.9091	0.1	1119.5
5240	18.657	2.9091	0.1	1160.
5241	18.473	2.9091	0.1	1200.7
5242	18.289	2.9091	0.1	1241.6
5243	18.105	2.9091	0.1	1282.7
5244	17.92	2.9091	0.1	1324.
5245	17.736	2.9091	0.1	1365.4
5246	17.552	2.9091	0.1	1406.9
5247	17.368	2.9091	0.1	1448.6
5248	17.183	2.9091	0.1	1490.4
5249	16.999	2.9091	0.1	1532.4
5250	16.815	2.9091	0.1	1574.4
5251	16.631	2.9091	0.1	1616.5
5252	16.446	2.9091	0.1	1658.8
5253	16.262	2.9091	0.1	1701.1
5254	16.078	2.9091	0.1	1743.5
5255	15.894	2.9091	0.1	1786.
5256	15.709	2.9091	0.1	1828.7
5257	15.525	2.9091	0.1	1871.5
5258	15.341	2.9091	0.1	1914.6
5259	15.157	2.9091	0.1	1957.9
5260	14.973	2.9091	0.1	2001.6
5261	14.788	2.9091	0.1	2045.8
5262	14.604	2.9091	0.1	2090.7
5263	14.42	2.9091	0.1	2136.5
5264	14.236	2.9091	0.1	2183.5
5265	14.051	2.9091	0.1	2232.3
5266	13.867	2.9091	0.1	2283.2
5267	13.683	2.9091	0.1	2337.1
5268	13.499	2.9091	0.1	2394.9
5269	13.314	2.9091	0.1	2458.
5270	13.13	2.9091	0.1	2527.8
5271	12.946	2.9091	0.1	2606.7
5272	12.762	2.9091	0.1	2697.4
5273	12.577	2.9091	0.1	2803.6
5274	12.393	2.9091	0.1	2930.3
5275	12.209	2.9091	0.1	3084.
5276	12.025	2.9091	0.1	3273.2
5277	11.841	2.9091	0.1	3509.3
5278	11.656	2.9091	0.1	3806.7
5279	11.472	2.9091	0.1	4183.5
5280	11.288	2.9091	0.1	4659.6
5281	11.104	2.9091	0.1	5250.5
5282	10.919	2.9091	0.1	5952.2
5283	10.735	2.9091	0.1	6711.5
5284	10.551	2.9091	0.1	7399.7
5285	23.816	3.0909	0.1	197.38
5286	23.632	3.0909	0.1	214.47
5287	23.447	3.0909	0.1	235.79
5288	23.263	3.0909	0.1	260.32
5289	23.079	3.0909	0.1	287.25
5290	22.895	3.0909	0.1	316.02
5291	22.71	3.0909	0.1	346.22
5292	22.526	3.0909	0.1	377.58
5293	22.342	3.0909	0.1	409.88
5294	22.158	3.0909	0.1	443.
5295	21.973	3.0909	0.1	476.83
5296	21.789	3.0909	0.1	511.29
5297	21.605	3.0909	0.1	546.32
5298	21.421	3.0909	0.1	581.87
5299	21.236	3.0909	0.1	617.91
5300	21.052	3.0909	0.1	654.4
5301	20.868	3.0909	0.1	691.32
5302	20.684	3.0909	0.1	728.63
5303	20.5	3.0909	0.1	766.32
5304	20.315	3.0909	0.1	804.37
5305	20.131	3.0909	0.1	842.75
5306	19.947	3.0909	0.1	881.45
5307	19.763	3.0909	0.1	920.46
5308	19.578	3.0909	0.1	959.75
5309	19.394	3.0909	0.1	999.31
5310	19.21	3.0909	0.1	1039.1
5311	19.026	3.0909	0.1	1079.2
5312	18.841	3.0909	0.1	1119.5
5313	18.657	3.0909	0.1	1160.
5314	18.473	3.0909	0.1	1200.7
5315	18.289	3.0909	0.1	1241.6
5316	18.105	3.0909	0.1	1282.7
5317	17.92	3.0909	0.1	1324.
5318	17.736	3.0909	0.1	1365.4
5319	17.552	3.0909	0.1	1406.9
5320	17.368	3.0909	0.1	1448.6
5321	17.183	3.0909	0.1	1490.4
5322	16.999	3.0909	0.1	1532.4
5323	16.815	3.0909	0.1	1574.4
5324	16.631	3.0909	0.1	1616.5
5325	16.446	3.0909	0.1	1658.8
5326	16.262	3.0909	0.1	1701.1
5327	16.078	3.0909	0.1	1743.5
5328	15.894	3.0909	0.1	1786.
5329	15.709	3.0909	0.1	1828.7
5330	15.525	3.0909	0.1	1871.5
5331	15.341	3.0909	0.1	1914.6
5332	15.157	3.0909	0.1	1957.9
5333	14.973	3.0909	0.1	2001.6
5334	14.788	3.0909	0.1	2045.8
5335	14.604	3.0909	0.1	2090.7
5336	14.42	3.0909	0.1	2136.5
5337	14.236	3.0909	0.1	2183.5
5338	14.051	3.0909	0.1	2232.3
5339	13.867	3.0909	0.1	2283.2
5340	13.683	3.0909	0.1	2337.1
5341	13.499	3.0909	0.1	2394.9
5342	13.314	3.0909	0.1	2458.
5343	13.13	3.0909	0.1	2527.8
5344	12.946	3.0909	0.1	2606.7
5345	12.762	3.0909	0.1	2697.4
5346	12.577	3.0909	0.1	2803.6
5347	12.393	3.0909	0.1	2930.3
5348	12.209	3.0909	0.1	3084.
5349	12.025	3.0909	0.1	3273.2
5350	11.841	3.0909	0.1	3509.3
5351	11.656	3.0909	0.1	3806.7
5352	11.472	3.0909	0.1	4183.5
5353	11.288	3.0909	0.1	4659.6
5354	11.104	3.0909	0.1	5250.5
5355	10.919	3.0909	0.1	5952.2
5356	10.735	3.0909	0.1	6711.5
5357	10.551	3.0909	0.1	7399.7
5358	23.816	3.2727	0.1	196.49
5359	23.632	3.2727	0.1	213.61
5360	23.447	3.2727	0.1	234.96
5361	23.263	3.2727	0.1	259.53
5362	23.079	3.2727	0.1	286.5
5363	22.895	3.2727	0.1	315.31
5364	22.71	3.2727	0.1	345.56
5365	22.526	3.2727	0.1	376.95
5366	22.342	3.2727	0.1	409.3
5367	22.158	3.2727	0.1	442.47
5368	21.973	3.2727	0.1	476.34
5369	21.789	3.2727	0.1	510.84
5370	21.605	3.2727	0.1	545.92
5371	21.421	3.2727	0.1	581.51
5372	21.236	3.2727	0.1	617.59
5373	21.052	3.2727	0.1	654.12
5374	20.868	3.2727	0.1	691.08
5375	20.684	3.2727	0.1	728.43
5376	20.5	3.2727	0.1	766.15
5377	20.315	3.2727	0.1	804.23
5378	20.131	3.2727	0.1	842.64
5379	19.947	3.2727	0.1	881.38
5380	19.763	3.2727	0.1	920.41
5381	19.578	3.2727	0.1	959.73
5382	19.394	3.2727	0.1	999.31
5383	19.21	3.2727	0.1	1039.2
5384	19.026	3.2727	0.1	1079.2
5385	18.841	3.2727	0.1	1119.6
5386	18.657	3.2727	0.1	1160.1
5387	18.473	3.2727	0.1	1200.8
5388	18.289	3.2727	0.1	1241.8
5389	18.105	3.2727	0.1	1282.9
5390	17.92	3.2727	0.1	1324.2
5391	17.736	3.2727	0.1	1365.6
5392	17.552	3.2727	0.1	1407.2
5393	17.368	3.2727	0.1	1448.9
5394	17.183	3.2727	0.1	1490.7
5395	16.999	3.2727	0.1	1532.7
5396	16.815	3.2727	0.1	1574.7
5397	16.631	3.2727	0.1	1616.9
5398	16.446	3.2727	0.1	1659.2
5399	16.262	3.2727	0.1	1701.5
5400	16.078	3.2727	0.1	1744.
5401	15.894	3.2727	0.1	1786.5
5402	15.709	3.2727	0.1	1829.2
5403	15.525	3.2727	0.1	1872.1
5404	15.341	3.2727	0.1	1915.2
5405	15.157	3.2727	0.1	1958.6
5406	14.973	3.2727	0.1	2002.3
5407	14.788	3.2727	0.1	2046.5
5408	14.604	3.2727	0.1	2091.4
5409	14.42	3.2727	0.1	2137.2
5410	14.236	3.2727	0.1	2184.2
5411	14.051	3.2727	0.1	2232.8
5412	13.867	3.2727	0.1	2283.5
5413	13.683	3.2727	0.1	2337.2
5414	13.499	3.2727	0.1	2394.6
5415	13.314	3.2727	0.1	2457.
5416	13.13	3.2727	0.1	2526.
5417	12.946	3.2727	0.1	2603.6
5418	12.762	3.2727	0.1	2692.5
5419	12.577	3.2727	0.1	2796.4
5420	12.393	3.2727	0.1	2919.8
5421	12.209	3.2727	0.1	3069.1
5422	12.025	3.2727	0.1	3252.4
5423	11.841	3.2727	0.1	3480.8
5424	11.656	3.2727	0.1	3768.8
5425	11.472	3.2727	0.1	4135.4
5426	11.288	3.2727	0.1	4603.8
5427	11.104	3.2727	0.1	5198.3
5428	10.919	3.2727	0.1	5931.1
5429	10.735	3.2727	0.1	6768.4
5430	10.551	3.2727	0.1	7571.9
5431	23.816	3.4545	0.1	194.72
5432	23.632	3.4545	0.1	211.88
5433	23.447	3.4545	0.1	233.3
5434	23.263	3.4545	0.1	257.95
5435	23.079	3.4545	0.1	285.
5436	22.895	3.4545	0.1	313.89
5437	22.71	3.4545	0.1	344.22
5438	22.526	3.4545	0.1	375.71
5439	22.342	3.4545	0.1	408.15
5440	22.158	3.4545	0.1	441.4
5441	21.973	3.4545	0.1	475.36
5442	21.789	3.4545	0.1	509.95
5443	21.605	3.4545	0.1	545.11
5444	21.421	3.4545	0.1	580.8
5445	21.236	3.4545	0.1	616.96
5446	21.052	3.4545	0.1	653.57
5447	20.868	3.4545	0.1	690.6
5448	20.684	3.4545	0.1	728.02
5449	20.5	3.4545	0.1	765.81
5450	20.315	3.4545	0.1	803.96
5451	20.131	3.4545	0.1	842.43
5452	19.947	3.4545	0.1	881.22
5453	19.763	3.4545	0.1	920.31
5454	19.578	3.4545	0.1	959.68
5455	19.394	3.4545	0.1	999.32
5456	19.21	3.4545	0.1	1039.2
5457	19.026	3.4545	0.1	1079.3
5458	18.841	3.4545	0.1	1119.7
5459	18.657	3.4545	0.1	1160.3
5460	18.473	3.4545	0.1	1201.1
5461	18.289	3.4545	0.1	1242.
5462	18.105	3.4545	0.1	1283.2
5463	17.92	3.4545	0.1	1324.5
5464	17.736	3.4545	0.1	1366.
5465	17.552	3.4545	0.1	1407.6
5466	17.368	3.4545	0.1	1449.4
5467	17.183	3.4545	0.1	1491.3
5468	16.999	3.4545	0.1	1533.3
5469	16.815	3.4545	0.1	1575.4
5470	16.631	3.4545	0.1	1617.6
5471	16.446	3.4545	0.1	1660.
5472	16.262	3.4545	0.1	1702.4
5473	16.078	3.4545	0.1	1744.9
5474	15.894	3.4545	0.1	1787.6
5475	15.709	3.4545	0.1	1830.3
5476	15.525	3.4545	0.1	1873.3
5477	15.341	3.4545	0.1	1916.4
5478	15.157	3.4545	0.1	1959.9
5479	14.973	3.4545	0.1	2003.6
5480	14.788	3.4545	0.1	2047.9
5481	14.604	3.4545	0.1	2092.8
5482	14.42	3.4545	0.1	2138.5
5483	14.236	3.4545	0.1	2185.4
5484	14.051	3.4545	0.1	2233.8
5485	13.867	3.4545	0.1	2284.2
5486	13.683	3.4545	0.1	2337.3
5487	13.499	3.4545	0.1	2393.9
5488	13.314	3.4545	0.1	2455.1
5489	13.13	3.4545	0.1	2522.4
5490	12.946	3.4545	0.1	2597.6
5491	12.762	3.4545	0.1	2683.2
5492	12.577	3.4545	0.1	2782.5
5493	12.393	3.4545	0.1	2899.7
5494	12.209	3.4545	0.1	3040.4
5495	12.025	3.4545	0.1	3212.5
5496	11.841	3.4545	0.1	3426.1
5497	11.656	3.4545	0.1	3695.7
5498	11.472	3.4545	0.1	4041.1
5499	11.288	3.4545	0.1	4490.2
5500	11.104	3.4545	0.1	5081.3
5501	10.919	3.4545	0.1	5860.3
5502	10.735	3.4545	0.1	6854.6
5503	10.551	3.4545	0.1	7933.6
5504	23.816	3.6364	0.1	192.04
5505	23.632	3.6364	0.1	209.26
5506	23.447	3.6364	0.1	230.79
5507	23.263	3.6364	0.1	255.56
5508	23.079	3.6364	0.1	282.74
5509	22.895	3.6364	0.1	311.76
5510	22.71	3.6364	0.1	342.22
5511	22.526	3.6364	0.1	373.84
5512	22.342	3.6364	0.1	406.41
5513	22.158	3.6364	0.1	439.8
5514	21.973	3.6364	0.1	473.9
5515	21.789	3.6364	0.1	508.63
5516	21.605	3.6364	0.1	543.92
5517	21.421	3.6364	0.1	579.74
5518	21.236	3.6364	0.1	616.02
5519	21.052	3.6364	0.1	652.75
5520	20.868	3.6364	0.1	689.9
5521	20.684	3.6364	0.1	727.43
5522	20.5	3.6364	0.1	765.32
5523	20.315	3.6364	0.1	803.56
5524	20.131	3.6364	0.1	842.13
5525	19.947	3.6364	0.1	881.
5526	19.763	3.6364	0.1	920.17
5527	19.578	3.6364	0.1	959.62
5528	19.394	3.6364	0.1	999.33
5529	19.21	3.6364	0.1	1039.3
5530	19.026	3.6364	0.1	1079.5
5531	18.841	3.6364	0.1	1119.9
5532	18.657	3.6364	0.1	1160.6
5533	18.473	3.6364	0.1	1201.4
5534	18.289	3.6364	0.1	1242.5
5535	18.105	3.6364	0.1	1283.7
5536	17.92	3.6364	0.1	1325.1
5537	17.736	3.6364	0.1	1366.6
5538	17.552	3.6364	0.1	1408.3
5539	17.368	3.6364	0.1	1450.1
5540	17.183	3.6364	0.1	1492.1
5541	16.999	3.6364	0.1	1534.2
5542	16.815	3.6364	0.1	1576.4
5543	16.631	3.6364	0.1	1618.7
5544	16.446	3.6364	0.1	1661.1
5545	16.262	3.6364	0.1	1703.7
5546	16.078	3.6364	0.1	1746.3
5547	15.894	3.6364	0.1	1789.1
5548	15.709	3.6364	0.1	1831.9
5549	15.525	3.6364	0.1	1875.
5550	15.341	3.6364	0.1	1918.3
5551	15.157	3.6364	0.1	1961.8
5552	14.973	3.6364	0.1	2005.7
5553	14.788	3.6364	0.1	2050.
5554	14.604	3.6364	0.1	2094.9
5555	14.42	3.6364	0.1	2140.5
5556	14.236	3.6364	0.1	2187.2
5557	14.051	3.6364	0.1	2235.3
5558	13.867	3.6364	0.1	2285.2
5559	13.683	3.6364	0.1	2337.5
5560	13.499	3.6364	0.1	2392.9
5561	13.314	3.6364	0.1	2452.4
5562	13.13	3.6364	0.1	2517.2
5563	12.946	3.6364	0.1	2589.
5564	12.762	3.6364	0.1	2670.
5565	12.577	3.6364	0.1	2762.8
5566	12.393	3.6364	0.1	2871.2
5567	12.209	3.6364	0.1	3000.2
5568	12.025	3.6364	0.1	3156.6
5569	11.841	3.6364	0.1	3349.6
5570	11.656	3.6364	0.1	3592.7
5571	11.472	3.6364	0.1	3905.7
5572	11.288	3.6364	0.1	4319.4
5573	11.104	3.6364	0.1	4883.3
5574	10.919	3.6364	0.1	5686.4
5575	10.735	3.6364	0.1	6859.4
5576	10.551	3.6364	0.1	8546.8
5577	23.816	3.8182	0.1	188.43
5578	23.632	3.8182	0.1	205.74
5579	23.447	3.8182	0.1	227.42
5580	23.263	3.8182	0.1	252.36
5581	23.079	3.8182	0.1	279.71
5582	22.895	3.8182	0.1	308.91
5583	22.71	3.8182	0.1	339.55
5584	22.526	3.8182	0.1	371.36
5585	22.342	3.8182	0.1	404.12
5586	22.158	3.8182	0.1	437.69
5587	21.973	3.8182	0.1	471.98
5588	21.789	3.8182	0.1	506.89
5589	21.605	3.8182	0.1	542.37
5590	21.421	3.8182	0.1	578.35
5591	21.236	3.8182	0.1	614.81
5592	21.052	3.8182	0.1	651.69
5593	20.868	3.8182	0.1	688.99
5594	20.684	3.8182	0.1	726.66
5595	20.5	3.8182	0.1	764.69
5596	20.315	3.8182	0.1	803.06
5597	20.131	3.8182	0.1	841.74
5598	19.947	3.8182	0.1	880.73
5599	19.763	3.8182	0.1	920.01
5600	19.578	3.8182	0.1	959.56
5601	19.394	3.8182	0.1	999.36
5602	19.21	3.8182	0.1	1039.4
5603	19.026	3.8182	0.1	1079.7
5604	18.841	3.8182	0.1	1120.2
5605	18.657	3.8182	0.1	1161.
5606	18.473	3.8182	0.1	1201.9
5607	18.289	3.8182	0.1	1243.
5608	18.105	3.8182	0.1	1284.3
5609	17.92	3.8182	0.1	1325.8
5610	17.736	3.8182	0.1	1367.4
5611	17.552	3.8182	0.1	1409.2
5612	17.368	3.8182	0.1	1451.1
5613	17.183	3.8182	0.1	1493.2
5614	16.999	3.8182	0.1	1535.4
5615	16.815	3.8182	0.1	1577.7
5616	16.631	3.8182	0.1	1620.1
5617	16.446	3.8182	0.1	1662.7
5618	16.262	3.8182	0.1	1705.3
5619	16.078	3.8182	0.1	1748.1
5620	15.894	3.8182	0.1	1791.
5621	15.709	3.8182	0.1	1834.
5622	15.525	3.8182	0.1	1877.2
5623	15.341	3.8182	0.1	1920.6
5624	15.157	3.8182	0.1	1964.3
5625	14.973	3.8182	0.1	2008.2
5626	14.788	3.8182	0.1	2052.6
5627	14.604	3.8182	0.1	2097.5
5628	14.42	3.8182	0.1	2143.1
5629	14.236	3.8182	0.1	2189.6
5630	14.051	3.8182	0.1	2237.3
5631	13.867	3.8182	0.1	2286.5
5632	13.683	3.8182	0.1	2337.8
5633	13.499	3.8182	0.1	2391.7
5634	13.314	3.8182	0.1	2449.
5635	13.13	3.8182	0.1	2510.9
5636	12.946	3.8182	0.1	2578.5
5637	12.762	3.8182	0.1	2653.6
5638	12.577	3.8182	0.1	2738.6
5639	12.393	3.8182	0.1	2836.4
5640	12.209	3.8182	0.1	2951.1
5641	12.025	3.8182	0.1	3088.5
5642	11.841	3.8182	0.1	3256.6
5643	11.656	3.8182	0.1	3467.2
5644	11.472	3.8182	0.1	3738.8
5645	11.288	3.8182	0.1	4100.5
5646	11.104	3.8182	0.1	4607.5
5647	10.919	3.8182	0.1	5353.2
5648	10.735	3.8182	0.1	6630.9
5649	10.551	3.8182	0.1	9008.7
5650	23.816	4.	0.1	183.84
5651	23.632	4.	0.1	201.29
5652	23.447	4.	0.1	223.16
5653	23.263	4.	0.1	248.31
5654	23.079	4.	0.1	275.9
5655	22.895	4.	0.1	305.33
5656	22.71	4.	0.1	336.21
5657	22.526	4.	0.1	368.26
5658	22.342	4.	0.1	401.27
5659	22.158	4.	0.1	435.09
5660	21.973	4.	0.1	469.61
5661	21.789	4.	0.1	504.76
5662	21.605	4.	0.1	540.46
5663	21.421	4.	0.1	576.67
5664	21.236	4.	0.1	613.33
5665	21.052	4.	0.1	650.42
5666	20.868	4.	0.1	687.9
5667	20.684	4.	0.1	725.75
5668	20.5	4.	0.1	763.94
5669	20.315	4.	0.1	802.47
5670	20.131	4.	0.1	841.3
5671	19.947	4.	0.1	880.42
5672	19.763	4.	0.1	919.83
5673	19.578	4.	0.1	959.5
5674	19.394	4.	0.1	999.43
5675	19.21	4.	0.1	1039.6
5676	19.026	4.	0.1	1080.
5677	18.841	4.	0.1	1120.6
5678	18.657	4.	0.1	1161.4
5679	18.473	4.	0.1	1202.5
5680	18.289	4.	0.1	1243.7
5681	18.105	4.	0.1	1285.1
5682	17.92	4.	0.1	1326.7
5683	17.736	4.	0.1	1368.4
5684	17.552	4.	0.1	1410.3
5685	17.368	4.	0.1	1452.4
5686	17.183	4.	0.1	1494.6
5687	16.999	4.	0.1	1536.9
5688	16.815	4.	0.1	1579.3
5689	16.631	4.	0.1	1621.9
5690	16.446	4.	0.1	1664.6
5691	16.262	4.	0.1	1707.4
5692	16.078	4.	0.1	1750.3
5693	15.894	4.	0.1	1793.4
5694	15.709	4.	0.1	1836.6
5695	15.525	4.	0.1	1880.
5696	15.341	4.	0.1	1923.5
5697	15.157	4.	0.1	1967.3
5698	14.973	4.	0.1	2011.4
5699	14.788	4.	0.1	2055.8
5700	14.604	4.	0.1	2100.7
5701	14.42	4.	0.1	2146.1
5702	14.236	4.	0.1	2192.4
5703	14.051	4.	0.1	2239.6
5704	13.867	4.	0.1	2288.
5705	13.683	4.	0.1	2338.1
5706	13.499	4.	0.1	2390.3
5707	13.314	4.	0.1	2445.2
5708	13.13	4.	0.1	2503.5
5709	12.946	4.	0.1	2566.3
5710	12.762	4.	0.1	2634.9
5711	12.577	4.	0.1	2710.9
5712	12.393	4.	0.1	2796.8
5713	12.209	4.	0.1	2895.8
5714	12.025	4.	0.1	3012.2
5715	11.841	4.	0.1	3152.8
5716	11.656	4.	0.1	3327.3
5717	11.472	4.	0.1	3551.7
5718	11.288	4.	0.1	3851.1
5719	11.104	4.	0.1	4275.4
5720	10.919	4.	0.1	4913.1
5721	10.735	4.	0.1	6016.2
5722	10.551	4.	0.1	9047.7
5723	23.816	4.1818	0.1	178.25
5724	23.632	4.1818	0.1	195.85
5725	23.447	4.1818	0.1	217.97
5726	23.263	4.1818	0.1	243.4
5727	23.079	4.1818	0.1	271.28
5728	22.895	4.1818	0.1	301.02
5729	22.71	4.1818	0.1	332.21
5730	22.526	4.1818	0.1	364.57
5731	22.342	4.1818	0.1	397.88
5732	22.158	4.1818	0.1	432.01
5733	21.973	4.1818	0.1	466.84
5734	21.789	4.1818	0.1	502.27
5735	21.605	4.1818	0.1	538.25
5736	21.421	4.1818	0.1	574.72
5737	21.236	4.1818	0.1	611.63
5738	21.052	4.1818	0.1	648.96
5739	20.868	4.1818	0.1	686.66
5740	20.684	4.1818	0.1	724.72
5741	20.5	4.1818	0.1	763.11
5742	20.315	4.1818	0.1	801.81
5743	20.131	4.1818	0.1	840.81
5744	19.947	4.1818	0.1	880.1
5745	19.763	4.1818	0.1	919.66
5746	19.578	4.1818	0.1	959.47
5747	19.394	4.1818	0.1	999.54
5748	19.21	4.1818	0.1	1039.8
5749	19.026	4.1818	0.1	1080.4
5750	18.841	4.1818	0.1	1121.1
5751	18.657	4.1818	0.1	1162.1
5752	18.473	4.1818	0.1	1203.2
5753	18.289	4.1818	0.1	1244.6
5754	18.105	4.1818	0.1	1286.1
5755	17.92	4.1818	0.1	1327.8
5756	17.736	4.1818	0.1	1369.6
5757	17.552	4.1818	0.1	1411.7
5758	17.368	4.1818	0.1	1453.8
5759	17.183	4.1818	0.1	1496.2
5760	16.999	4.1818	0.1	1538.6
5761	16.815	4.1818	0.1	1581.2
5762	16.631	4.1818	0.1	1624.
5763	16.446	4.1818	0.1	1666.8
5764	16.262	4.1818	0.1	1709.8
5765	16.078	4.1818	0.1	1752.9
5766	15.894	4.1818	0.1	1796.1
5767	15.709	4.1818	0.1	1839.5
5768	15.525	4.1818	0.1	1883.1
5769	15.341	4.1818	0.1	1926.8
5770	15.157	4.1818	0.1	1970.7
5771	14.973	4.1818	0.1	2014.9
5772	14.788	4.1818	0.1	2059.4
5773	14.604	4.1818	0.1	2104.3
5774	14.42	4.1818	0.1	2149.6
5775	14.236	4.1818	0.1	2195.5
5776	14.051	4.1818	0.1	2242.1
5777	13.867	4.1818	0.1	2289.7
5778	13.683	4.1818	0.1	2338.5
5779	13.499	4.1818	0.1	2388.7
5780	13.314	4.1818	0.1	2440.9
5781	13.13	4.1818	0.1	2495.4
5782	12.946	4.1818	0.1	2553.
5783	12.762	4.1818	0.1	2614.5
5784	12.577	4.1818	0.1	2681.
5785	12.393	4.1818	0.1	2754.3
5786	12.209	4.1818	0.1	2836.4
5787	12.025	4.1818	0.1	2930.8
5788	11.841	4.1818	0.1	3042.5
5789	11.656	4.1818	0.1	3179.2
5790	11.472	4.1818	0.1	3353.6
5791	11.288	4.1818	0.1	3586.6
5792	11.104	4.1818	0.1	3916.2
5793	10.919	4.1818	0.1	4411.8
5794	10.735	4.1818	0.1	5313.7
5795	10.551	4.1818	0.1	7406.7
5796	23.816	4.3636	0.1	171.58
5797	23.632	4.3636	0.1	189.38
5798	23.447	4.3636	0.1	211.81
5799	23.263	4.3636	0.1	237.6
5800	23.079	4.3636	0.1	265.85
5801	22.895	4.3636	0.1	295.98
5802	22.71	4.3636	0.1	327.56
5803	22.526	4.3636	0.1	360.3
5804	22.342	4.3636	0.1	394.
5805	22.158	4.3636	0.1	428.51
5806	21.973	4.3636	0.1	463.69
5807	21.789	4.3636	0.1	499.47
5808	21.605	4.3636	0.1	535.78
5809	21.421	4.3636	0.1	572.56
5810	21.236	4.3636	0.1	609.76
5811	21.052	4.3636	0.1	647.35
5812	20.868	4.3636	0.1	685.31
5813	20.684	4.3636	0.1	723.6
5814	20.5	4.3636	0.1	762.21
5815	20.315	4.3636	0.1	801.13
5816	20.131	4.3636	0.1	840.32
5817	19.947	4.3636	0.1	879.79
5818	19.763	4.3636	0.1	919.52
5819	19.578	4.3636	0.1	959.49
5820	19.394	4.3636	0.1	999.71
5821	19.21	4.3636	0.1	1040.2
5822	19.026	4.3636	0.1	1080.8
5823	18.841	4.3636	0.1	1121.7
5824	18.657	4.3636	0.1	1162.8
5825	18.473	4.3636	0.1	1204.1
5826	18.289	4.3636	0.1	1245.6
5827	18.105	4.3636	0.1	1287.2
5828	17.92	4.3636	0.1	1329.
5829	17.736	4.3636	0.1	1371.
5830	17.552	4.3636	0.1	1413.2
5831	17.368	4.3636	0.1	1455.5
5832	17.183	4.3636	0.1	1498.
5833	16.999	4.3636	0.1	1540.6
5834	16.815	4.3636	0.1	1583.4
5835	16.631	4.3636	0.1	1626.3
5836	16.446	4.3636	0.1	1669.3
5837	16.262	4.3636	0.1	1712.5
5838	16.078	4.3636	0.1	1755.8
5839	15.894	4.3636	0.1	1799.2
5840	15.709	4.3636	0.1	1842.8
5841	15.525	4.3636	0.1	1886.6
5842	15.341	4.3636	0.1	1930.5
5843	15.157	4.3636	0.1	1974.5
5844	14.973	4.3636	0.1	2018.8
5845	14.788	4.3636	0.1	2063.4
5846	14.604	4.3636	0.1	2108.2
5847	14.42	4.3636	0.1	2153.3
5848	14.236	4.3636	0.1	2198.9
5849	14.051	4.3636	0.1	2244.9
5850	13.867	4.3636	0.1	2291.5
5851	13.683	4.3636	0.1	2338.9
5852	13.499	4.3636	0.1	2387.
5853	13.314	4.3636	0.1	2436.3
5854	13.13	4.3636	0.1	2486.8
5855	12.946	4.3636	0.1	2538.9
5856	12.762	4.3636	0.1	2593.
5857	12.577	4.3636	0.1	2649.7
5858	12.393	4.3636	0.1	2709.9
5859	12.209	4.3636	0.1	2774.8
5860	12.025	4.3636	0.1	2846.7
5861	11.841	4.3636	0.1	2928.9
5862	11.656	4.3636	0.1	3026.9
5863	11.472	4.3636	0.1	3150.1
5864	11.288	4.3636	0.1	3313.8
5865	11.104	4.3636	0.1	3546.6
5866	10.919	4.3636	0.1	3887.3
5867	10.735	4.3636	0.1	4435.
5868	10.551	4.3636	0.1	5496.7
5869	23.816	4.5455	0.1	163.75
5870	23.632	4.5455	0.1	181.8
5871	23.447	4.5455	0.1	204.63
5872	23.263	4.5455	0.1	230.87
5873	23.079	4.5455	0.1	259.6
5874	22.895	4.5455	0.1	290.21
5875	22.71	4.5455	0.1	322.28
5876	22.526	4.5455	0.1	355.51
5877	22.342	4.5455	0.1	389.67
5878	22.158	4.5455	0.1	424.63
5879	21.973	4.5455	0.1	460.24
5880	21.789	4.5455	0.1	496.42
5881	21.605	4.5455	0.1	533.11
5882	21.421	4.5455	0.1	570.23
5883	21.236	4.5455	0.1	607.76
5884	21.052	4.5455	0.1	645.66
5885	20.868	4.5455	0.1	683.9
5886	20.684	4.5455	0.1	722.45
5887	20.5	4.5455	0.1	761.31
5888	20.315	4.5455	0.1	800.45
5889	20.131	4.5455	0.1	839.85
5890	19.947	4.5455	0.1	879.52
5891	19.763	4.5455	0.1	919.43
5892	19.578	4.5455	0.1	959.59
5893	19.394	4.5455	0.1	999.97
5894	19.21	4.5455	0.1	1040.6
5895	19.026	4.5455	0.1	1081.4
5896	18.841	4.5455	0.1	1122.4
5897	18.657	4.5455	0.1	1163.7
5898	18.473	4.5455	0.1	1205.1
5899	18.289	4.5455	0.1	1246.7
5900	18.105	4.5455	0.1	1288.5
5901	17.92	4.5455	0.1	1330.5
5902	17.736	4.5455	0.1	1372.6
5903	17.552	4.5455	0.1	1415.
5904	17.368	4.5455	0.1	1457.4
5905	17.183	4.5455	0.1	1500.1
5906	16.999	4.5455	0.1	1542.9
5907	16.815	4.5455	0.1	1585.8
5908	16.631	4.5455	0.1	1628.9
5909	16.446	4.5455	0.1	1672.1
5910	16.262	4.5455	0.1	1715.5
5911	16.078	4.5455	0.1	1759.
5912	15.894	4.5455	0.1	1802.6
5913	15.709	4.5455	0.1	1846.4
5914	15.525	4.5455	0.1	1890.4
5915	15.341	4.5455	0.1	1934.4
5916	15.157	4.5455	0.1	1978.7
5917	14.973	4.5455	0.1	2023.1
5918	14.788	4.5455	0.1	2067.6
5919	14.604	4.5455	0.1	2112.4
5920	14.42	4.5455	0.1	2157.3
5921	14.236	4.5455	0.1	2202.4
5922	14.051	4.5455	0.1	2247.8
5923	13.867	4.5455	0.1	2293.4
5924	13.683	4.5455	0.1	2339.2
5925	13.499	4.5455	0.1	2385.2
5926	13.314	4.5455	0.1	2431.4
5927	13.13	4.5455	0.1	2477.8
5928	12.946	4.5455	0.1	2524.3
5929	12.762	4.5455	0.1	2570.9
5930	12.577	4.5455	0.1	2617.7
5931	12.393	4.5455	0.1	2664.8
5932	12.209	4.5455	0.1	2712.5
5933	12.025	4.5455	0.1	2761.7
5934	11.841	4.5455	0.1	2814.2
5935	11.656	4.5455	0.1	2873.2
5936	11.472	4.5455	0.1	2944.6
5937	11.288	4.5455	0.1	3038.4
5938	11.104	4.5455	0.1	3170.6
5939	10.919	4.5455	0.1	3366.7
5940	10.735	4.5455	0.1	3648.6
5941	10.551	4.5455	0.1	4212.3
5942	23.816	4.7273	0.1	154.65
5943	23.632	4.7273	0.1	173.03
5944	23.447	4.7273	0.1	196.36
5945	23.263	4.7273	0.1	223.18
5946	23.079	4.7273	0.1	252.52
5947	22.895	4.7273	0.1	283.75
5948	22.71	4.7273	0.1	316.43
5949	22.526	4.7273	0.1	350.25
5950	22.342	4.7273	0.1	384.98
5951	22.158	4.7273	0.1	420.46
5952	21.973	4.7273	0.1	456.56
5953	21.789	4.7273	0.1	493.2
5954	21.605	4.7273	0.1	530.3
5955	21.421	4.7273	0.1	567.82
5956	21.236	4.7273	0.1	605.71
5957	21.052	4.7273	0.1	643.94
5958	20.868	4.7273	0.1	682.48
5959	20.684	4.7273	0.1	721.32
5960	20.5	4.7273	0.1	760.43
5961	20.315	4.7273	0.1	799.81
5962	20.131	4.7273	0.1	839.45
5963	19.947	4.7273	0.1	879.32
5964	19.763	4.7273	0.1	919.44
5965	19.578	4.7273	0.1	959.78
5966	19.394	4.7273	0.1	1000.3
5967	19.21	4.7273	0.1	1041.1
5968	19.026	4.7273	0.1	1082.1
5969	18.841	4.7273	0.1	1123.3
5970	18.657	4.7273	0.1	1164.7
5971	18.473	4.7273	0.1	1206.3
5972	18.289	4.7273	0.1	1248.
5973	18.105	4.7273	0.1	1290.
5974	17.92	4.7273	0.1	1332.1
5975	17.736	4.7273	0.1	1374.4
5976	17.552	4.7273	0.1	1416.9
5977	17.368	4.7273	0.1	1459.6
5978	17.183	4.7273	0.1	1502.4
5979	16.999	4.7273	0.1	1545.3
5980	16.815	4.7273	0.1	1588.5
5981	16.631	4.7273	0.1	1631.7
5982	16.446	4.7273	0.1	1675.2
5983	16.262	4.7273	0.1	1718.7
5984	16.078	4.7273	0.1	1762.5
5985	15.894	4.7273	0.1	1806.3
5986	15.709	4.7273	0.1	1850.3
5987	15.525	4.7273	0.1	1894.4
5988	15.341	4.7273	0.1	1938.6
5989	15.157	4.7273	0.1	1983.
5990	14.973	4.7273	0.1	2027.5
5991	14.788	4.7273	0.1	2072.
5992	14.604	4.7273	0.1	2116.7
5993	14.42	4.7273	0.1	2161.4
5994	14.236	4.7273	0.1	2206.1
5995	14.051	4.7273	0.1	2250.7
5996	13.867	4.7273	0.1	2295.2
5997	13.683	4.7273	0.1	2339.4
5998	13.499	4.7273	0.1	2383.2
5999	13.314	4.7273	0.1	2426.4
6000	13.13	4.7273	0.1	2468.6
6001	12.946	4.7273	0.1	2509.5
6002	12.762	4.7273	0.1	2548.7
6003	12.577	4.7273	0.1	2585.7
6004	12.393	4.7273	0.1	2619.8
6005	12.209	4.7273	0.1	2650.6
6006	12.025	4.7273	0.1	2677.7
6007	11.841	4.7273	0.1	2701.
6008	11.656	4.7273	0.1	2721.6
6009	11.472	4.7273	0.1	2742.1
6010	11.288	4.7273	0.1	2767.9
6011	11.104	4.7273	0.1	2808.1
6012	10.919	4.7273	0.1	2876.3
6013	10.735	4.7273	0.1	2996.9
6014	10.551	4.7273	0.1	3328.2
6015	23.816	4.9091	0.1	144.14
6016	23.632	4.9091	0.1	162.95
6017	23.447	4.9091	0.1	186.95
6018	23.263	4.9091	0.1	214.53
6019	23.079	4.9091	0.1	244.65
6020	22.895	4.9091	0.1	276.67
6021	22.71	4.9091	0.1	310.1
6022	22.526	4.9091	0.1	344.63
6023	22.342	4.9091	0.1	380.02
6024	22.158	4.9091	0.1	416.1
6025	21.973	4.9091	0.1	452.76
6026	21.789	4.9091	0.1	489.91
6027	21.605	4.9091	0.1	527.47
6028	21.421	4.9091	0.1	565.41
6029	21.236	4.9091	0.1	603.68
6030	21.052	4.9091	0.1	642.26
6031	20.868	4.9091	0.1	681.12
6032	20.684	4.9091	0.1	720.26
6033	20.5	4.9091	0.1	759.64
6034	20.315	4.9091	0.1	799.28
6035	20.131	4.9091	0.1	839.15
6036	19.947	4.9091	0.1	879.24
6037	19.763	4.9091	0.1	919.56
6038	19.578	4.9091	0.1	960.1
6039	19.394	4.9091	0.1	1000.8
6040	19.21	4.9091	0.1	1041.8
6041	19.026	4.9091	0.1	1083.
6042	18.841	4.9091	0.1	1124.3
6043	18.657	4.9091	0.1	1165.9
6044	18.473	4.9091	0.1	1207.6
6045	18.289	4.9091	0.1	1249.5
6046	18.105	4.9091	0.1	1291.7
6047	17.92	4.9091	0.1	1334.
6048	17.736	4.9091	0.1	1376.4
6049	17.552	4.9091	0.1	1419.1
6050	17.368	4.9091	0.1	1461.9
6051	17.183	4.9091	0.1	1504.9
6052	16.999	4.9091	0.1	1548.
6053	16.815	4.9091	0.1	1591.4
6054	16.631	4.9091	0.1	1634.8
6055	16.446	4.9091	0.1	1678.4
6056	16.262	4.9091	0.1	1722.2
6057	16.078	4.9091	0.1	1766.1
6058	15.894	4.9091	0.1	1810.2
6059	15.709	4.9091	0.1	1854.4
6060	15.525	4.9091	0.1	1898.6
6061	15.341	4.9091	0.1	1943.
6062	15.157	4.9091	0.1	1987.5
6063	14.973	4.9091	0.1	2032.
6064	14.788	4.9091	0.1	2076.6
6065	14.604	4.9091	0.1	2121.1
6066	14.42	4.9091	0.1	2165.5
6067	14.236	4.9091	0.1	2209.7
6068	14.051	4.9091	0.1	2253.5
6069	13.867	4.9091	0.1	2296.9
6070	13.683	4.9091	0.1	2339.5
6071	13.499	4.9091	0.1	2381.1
6072	13.314	4.9091	0.1	2421.2
6073	13.13	4.9091	0.1	2459.3
6074	12.946	4.9091	0.1	2494.8
6075	12.762	4.9091	0.1	2526.8
6076	12.577	4.9091	0.1	2554.3
6077	12.393	4.9091	0.1	2576.1
6078	12.209	4.9091	0.1	2590.7
6079	12.025	4.9091	0.1	2596.6
6080	11.841	4.9091	0.1	2592.3
6081	11.656	4.9091	0.1	2576.8
6082	11.472	4.9091	0.1	2549.8
6083	11.288	4.9091	0.1	2513.5
6084	11.104	4.9091	0.1	2474.4
6085	10.919	4.9091	0.1	2445.4
6086	10.735	4.9091	0.1	2454.7
6087	10.551	4.9091	0.1	2653.4
6088	23.816	5.0909	0.1	132.02
6089	23.632	5.0909	0.1	151.43
6090	23.447	5.0909	0.1	176.33
6091	23.263	5.0909	0.1	204.93
6092	23.079	5.0909	0.1	236.1
6093	22.895	5.0909	0.1	269.11
6094	22.71	5.0909	0.1	303.46
6095	22.526	5.0909	0.1	338.82
6096	22.342	5.0909	0.1	374.96
6097	22.158	5.0909	0.1	411.72
6098	21.973	5.0909	0.1	448.98
6099	21.789	5.0909	0.1	486.66
6100	21.605	5.0909	0.1	524.72
6101	21.421	5.0909	0.1	563.09
6102	21.236	5.0909	0.1	601.76
6103	21.052	5.0909	0.1	640.7
6104	20.868	5.0909	0.1	679.9
6105	20.684	5.0909	0.1	719.33
6106	20.5	5.0909	0.1	759.
6107	20.315	5.0909	0.1	798.89
6108	20.131	5.0909	0.1	839.
6109	19.947	5.0909	0.1	879.32
6110	19.763	5.0909	0.1	919.85
6111	19.578	5.0909	0.1	960.58
6112	19.394	5.0909	0.1	1001.5
6113	19.21	5.0909	0.1	1042.7
6114	19.026	5.0909	0.1	1084.
6115	18.841	5.0909	0.1	1125.5
6116	18.657	5.0909	0.1	1167.2
6117	18.473	5.0909	0.1	1209.1
6118	18.289	5.0909	0.1	1251.2
6119	18.105	5.0909	0.1	1293.5
6120	17.92	5.0909	0.1	1336.
6121	17.736	5.0909	0.1	1378.6
6122	17.552	5.0909	0.1	1421.4
6123	17.368	5.0909	0.1	1464.4
6124	17.183	5.0909	0.1	1507.6
6125	16.999	5.0909	0.1	1550.9
6126	16.815	5.0909	0.1	1594.4
6127	16.631	5.0909	0.1	1638.1
6128	16.446	5.0909	0.1	1681.9
6129	16.262	5.0909	0.1	1725.9
6130	16.078	5.0909	0.1	1770.
6131	15.894	5.0909	0.1	1814.3
6132	15.709	5.0909	0.1	1858.6
6133	15.525	5.0909	0.1	1903.1
6134	15.341	5.0909	0.1	1947.6
6135	15.157	5.0909	0.1	1992.1
6136	14.973	5.0909	0.1	2036.7
6137	14.788	5.0909	0.1	2081.2
6138	14.604	5.0909	0.1	2125.5
6139	14.42	5.0909	0.1	2169.6
6140	14.236	5.0909	0.1	2213.2
6141	14.051	5.0909	0.1	2256.3
6142	13.867	5.0909	0.1	2298.4
6143	13.683	5.0909	0.1	2339.4
6144	13.499	5.0909	0.1	2378.8
6145	13.314	5.0909	0.1	2415.9
6146	13.13	5.0909	0.1	2450.1
6147	12.946	5.0909	0.1	2480.3
6148	12.762	5.0909	0.1	2505.5
6149	12.577	5.0909	0.1	2524.2
6150	12.393	5.0909	0.1	2534.5
6151	12.209	5.0909	0.1	2534.2
6152	12.025	5.0909	0.1	2520.8
6153	11.841	5.0909	0.1	2491.5
6154	11.656	5.0909	0.1	2443.5
6155	11.472	5.0909	0.1	2374.8
6156	11.288	5.0909	0.1	2285.3
6157	11.104	5.0909	0.1	2180.2
6158	10.919	5.0909	0.1	2074.6
6159	10.735	5.0909	0.1	2004.3
6160	10.551	5.0909	0.1	2109.3
6161	23.816	5.2727	0.1	118.01
6162	23.632	5.2727	0.1	138.31
6163	23.447	5.2727	0.1	164.51
6164	23.263	5.2727	0.1	194.53
6165	23.079	5.2727	0.1	227.06
6166	22.895	5.2727	0.1	261.3
6167	22.71	5.2727	0.1	296.75
6168	22.526	5.2727	0.1	333.06
6169	22.342	5.2727	0.1	370.02
6170	22.158	5.2727	0.1	407.49
6171	21.973	5.2727	0.1	445.39
6172	21.789	5.2727	0.1	483.63
6173	21.605	5.2727	0.1	522.17
6174	21.421	5.2727	0.1	560.99
6175	21.236	5.2727	0.1	600.06
6176	21.052	5.2727	0.1	639.36
6177	20.868	5.2727	0.1	678.89
6178	20.684	5.2727	0.1	718.62
6179	20.5	5.2727	0.1	758.57
6180	20.315	5.2727	0.1	798.71
6181	20.131	5.2727	0.1	839.06
6182	19.947	5.2727	0.1	879.6
6183	19.763	5.2727	0.1	920.33
6184	19.578	5.2727	0.1	961.26
6185	19.394	5.2727	0.1	1002.4
6186	19.21	5.2727	0.1	1043.7
6187	19.026	5.2727	0.1	1085.2
6188	18.841	5.2727	0.1	1126.9
6189	18.657	5.2727	0.1	1168.8
6190	18.473	5.2727	0.1	1210.9
6191	18.289	5.2727	0.1	1253.1
6192	18.105	5.2727	0.1	1295.6
6193	17.92	5.2727	0.1	1338.2
6194	17.736	5.2727	0.1	1381.
6195	17.552	5.2727	0.1	1424.
6196	17.368	5.2727	0.1	1467.2
6197	17.183	5.2727	0.1	1510.5
6198	16.999	5.2727	0.1	1554.1
6199	16.815	5.2727	0.1	1597.7
6200	16.631	5.2727	0.1	1641.6
6201	16.446	5.2727	0.1	1685.6
6202	16.262	5.2727	0.1	1729.8
6203	16.078	5.2727	0.1	1774.1
6204	15.894	5.2727	0.1	1818.5
6205	15.709	5.2727	0.1	1863.
6206	15.525	5.2727	0.1	1907.6
6207	15.341	5.2727	0.1	1952.2
6208	15.157	5.2727	0.1	1996.9
6209	14.973	5.2727	0.1	2041.4
6210	14.788	5.2727	0.1	2085.8
6211	14.604	5.2727	0.1	2129.9
6212	14.42	5.2727	0.1	2173.6
6213	14.236	5.2727	0.1	2216.7
6214	14.051	5.2727	0.1	2258.9
6215	13.867	5.2727	0.1	2299.9
6216	13.683	5.2727	0.1	2339.2
6217	13.499	5.2727	0.1	2376.4
6218	13.314	5.2727	0.1	2410.6
6219	13.13	5.2727	0.1	2441.
6220	12.946	5.2727	0.1	2466.4
6221	12.762	5.2727	0.1	2485.3
6222	12.577	5.2727	0.1	2495.9
6223	12.393	5.2727	0.1	2495.8
6224	12.209	5.2727	0.1	2482.3
6225	12.025	5.2727	0.1	2452.2
6226	11.841	5.2727	0.1	2401.5
6227	11.656	5.2727	0.1	2326.4
6228	11.472	5.2727	0.1	2223.3
6229	11.288	5.2727	0.1	2090.5
6230	11.104	5.2727	0.1	1932.
6231	10.919	5.2727	0.1	1763.2
6232	10.735	5.2727	0.1	1624.7
6233	10.551	5.2727	0.1	1649.7
6234	23.816	5.4545	0.1	101.71
6235	23.632	5.4545	0.1	123.48
6236	23.447	5.4545	0.1	151.69
6237	23.263	5.4545	0.1	183.71
6238	23.079	5.4545	0.1	217.98
6239	22.895	5.4545	0.1	253.69
6240	22.71	5.4545	0.1	290.34
6241	22.526	5.4545	0.1	327.66
6242	22.342	5.4545	0.1	365.47
6243	22.158	5.4545	0.1	403.67
6244	21.973	5.4545	0.1	442.19
6245	21.789	5.4545	0.1	480.98
6246	21.605	5.4545	0.1	520.01
6247	21.421	5.4545	0.1	559.25
6248	21.236	5.4545	0.1	598.71
6249	21.052	5.4545	0.1	638.35
6250	20.868	5.4545	0.1	678.19
6251	20.684	5.4545	0.1	718.21
6252	20.5	5.4545	0.1	758.42
6253	20.315	5.4545	0.1	798.81
6254	20.131	5.4545	0.1	839.38
6255	19.947	5.4545	0.1	880.14
6256	19.763	5.4545	0.1	921.07
6257	19.578	5.4545	0.1	962.19
6258	19.394	5.4545	0.1	1003.5
6259	19.21	5.4545	0.1	1045.
6260	19.026	5.4545	0.1	1086.7
6261	18.841	5.4545	0.1	1128.5
6262	18.657	5.4545	0.1	1170.6
6263	18.473	5.4545	0.1	1212.8
6264	18.289	5.4545	0.1	1255.2
6265	18.105	5.4545	0.1	1297.8
6266	17.92	5.4545	0.1	1340.6
6267	17.736	5.4545	0.1	1383.6
6268	17.552	5.4545	0.1	1426.8
6269	17.368	5.4545	0.1	1470.1
6270	17.183	5.4545	0.1	1513.7
6271	16.999	5.4545	0.1	1557.4
6272	16.815	5.4545	0.1	1601.3
6273	16.631	5.4545	0.1	1645.3
6274	16.446	5.4545	0.1	1689.5
6275	16.262	5.4545	0.1	1733.8
6276	16.078	5.4545	0.1	1778.3
6277	15.894	5.4545	0.1	1822.9
6278	15.709	5.4545	0.1	1867.6
6279	15.525	5.4545	0.1	1912.3
6280	15.341	5.4545	0.1	1957.
6281	15.157	5.4545	0.1	2001.7
6282	14.973	5.4545	0.1	2046.2
6283	14.788	5.4545	0.1	2090.4
6284	14.604	5.4545	0.1	2134.3
6285	14.42	5.4545	0.1	2177.6
6286	14.236	5.4545	0.1	2220.1
6287	14.051	5.4545	0.1	2261.4
6288	13.867	5.4545	0.1	2301.2
6289	13.683	5.4545	0.1	2338.9
6290	13.499	5.4545	0.1	2374.
6291	13.314	5.4545	0.1	2405.5
6292	13.13	5.4545	0.1	2432.3
6293	12.946	5.4545	0.1	2453.2
6294	12.762	5.4545	0.1	2466.4
6295	12.577	5.4545	0.1	2469.8
6296	12.393	5.4545	0.1	2460.8
6297	12.209	5.4545	0.1	2436.2
6298	12.025	5.4545	0.1	2392.2
6299	11.841	5.4545	0.1	2324.5
6300	11.656	5.4545	0.1	2228.4
6301	11.472	5.4545	0.1	2099.2
6302	11.288	5.4545	0.1	1934.1
6303	11.104	5.4545	0.1	1734.4
6304	10.919	5.4545	0.1	1512.4
6305	10.735	5.4545	0.1	1307.3
6306	10.551	5.4545	0.1	1248.6
6307	23.816	5.6364	0.1	82.589
6308	23.632	5.6364	0.1	107.22
6309	23.447	5.6364	0.1	138.73
6310	23.263	5.6364	0.1	173.44
6311	23.079	5.6364	0.1	209.77
6312	22.895	5.6364	0.1	247.05
6313	22.71	5.6364	0.1	284.93
6314	22.526	5.6364	0.1	323.23
6315	22.342	5.6364	0.1	361.85
6316	22.158	5.6364	0.1	400.73
6317	21.973	5.6364	0.1	439.82
6318	21.789	5.6364	0.1	479.11
6319	21.605	5.6364	0.1	518.58
6320	21.421	5.6364	0.1	558.22
6321	21.236	5.6364	0.1	598.02
6322	21.052	5.6364	0.1	637.98
6323	20.868	5.6364	0.1	678.1
6324	20.684	5.6364	0.1	718.39
6325	20.5	5.6364	0.1	758.84
6326	20.315	5.6364	0.1	799.45
6327	20.131	5.6364	0.1	840.23
6328	19.947	5.6364	0.1	881.18
6329	19.763	5.6364	0.1	922.3
6330	19.578	5.6364	0.1	963.6
6331	19.394	5.6364	0.1	1005.1
6332	19.21	5.6364	0.1	1046.7
6333	19.026	5.6364	0.1	1088.6
6334	18.841	5.6364	0.1	1130.6
6335	18.657	5.6364	0.1	1172.8
6336	18.473	5.6364	0.1	1215.2
6337	18.289	5.6364	0.1	1257.7
6338	18.105	5.6364	0.1	1300.5
6339	17.92	5.6364	0.1	1343.5
6340	17.736	5.6364	0.1	1386.6
6341	17.552	5.6364	0.1	1429.9
6342	17.368	5.6364	0.1	1473.5
6343	17.183	5.6364	0.1	1517.2
6344	16.999	5.6364	0.1	1561.
6345	16.815	5.6364	0.1	1605.1
6346	16.631	5.6364	0.1	1649.3
6347	16.446	5.6364	0.1	1693.7
6348	16.262	5.6364	0.1	1738.2
6349	16.078	5.6364	0.1	1782.9
6350	15.894	5.6364	0.1	1827.6
6351	15.709	5.6364	0.1	1872.4
6352	15.525	5.6364	0.1	1917.2
6353	15.341	5.6364	0.1	1962.
6354	15.157	5.6364	0.1	2006.7
6355	14.973	5.6364	0.1	2051.1
6356	14.788	5.6364	0.1	2095.2
6357	14.604	5.6364	0.1	2138.8
6358	14.42	5.6364	0.1	2181.7
6359	14.236	5.6364	0.1	2223.5
6360	14.051	5.6364	0.1	2263.9
6361	13.867	5.6364	0.1	2302.6
6362	13.683	5.6364	0.1	2338.8
6363	13.499	5.6364	0.1	2371.8
6364	13.314	5.6364	0.1	2400.7
6365	13.13	5.6364	0.1	2424.3
6366	12.946	5.6364	0.1	2441.1
6367	12.762	5.6364	0.1	2449.2
6368	12.577	5.6364	0.1	2446.5
6369	12.393	5.6364	0.1	2430.
6370	12.209	5.6364	0.1	2396.3
6371	12.025	5.6364	0.1	2341.7
6372	11.841	5.6364	0.1	2261.4
6373	11.656	5.6364	0.1	2150.5
6374	11.472	5.6364	0.1	2004.2
6375	11.288	5.6364	0.1	1818.2
6376	11.104	5.6364	0.1	1591.4
6377	10.919	5.6364	0.1	1329.4
6378	10.735	5.6364	0.1	1058.6
6379	10.551	5.6364	0.1	893.44
6380	23.816	5.8182	0.1	61.291
6381	23.632	5.8182	0.1	93.508
6382	23.447	5.8182	0.1	130.25
6383	23.263	5.8182	0.1	168.21
6384	23.079	5.8182	0.1	206.71
6385	22.895	5.8182	0.1	245.54
6386	22.71	5.8182	0.1	284.59
6387	22.526	5.8182	0.1	323.81
6388	22.342	5.8182	0.1	363.17
6389	22.158	5.8182	0.1	402.65
6390	21.973	5.8182	0.1	442.25
6391	21.789	5.8182	0.1	481.97
6392	21.605	5.8182	0.1	521.8
6393	21.421	5.8182	0.1	561.75
6394	21.236	5.8182	0.1	601.83
6395	21.052	5.8182	0.1	642.03
6396	20.868	5.8182	0.1	682.36
6397	20.684	5.8182	0.1	722.83
6398	20.5	5.8182	0.1	763.44
6399	20.315	5.8182	0.1	804.19
6400	20.131	5.8182	0.1	845.1
6401	19.947	5.8182	0.1	886.16
6402	19.763	5.8182	0.1	927.39
6403	19.578	5.8182	0.1	968.78
6404	19.394	5.8182	0.1	1010.3
6405	19.21	5.8182	0.1	1052.1
6406	19.026	5.8182	0.1	1094.
6407	18.841	5.8182	0.1	1136.1
6408	18.657	5.8182	0.1	1178.3
6409	18.473	5.8182	0.1	1220.8
6410	18.289	5.8182	0.1	1263.5
6411	18.105	5.8182	0.1	1306.3
6412	17.92	5.8182	0.1	1349.3
6413	17.736	5.8182	0.1	1392.5
6414	17.552	5.8182	0.1	1435.9
6415	17.368	5.8182	0.1	1479.5
6416	17.183	5.8182	0.1	1523.3
6417	16.999	5.8182	0.1	1567.3
6418	16.815	5.8182	0.1	1611.4
6419	16.631	5.8182	0.1	1655.7
6420	16.446	5.8182	0.1	1700.2
6421	16.262	5.8182	0.1	1744.8
6422	16.078	5.8182	0.1	1789.5
6423	15.894	5.8182	0.1	1834.3
6424	15.709	5.8182	0.1	1879.2
6425	15.525	5.8182	0.1	1924.
6426	15.341	5.8182	0.1	1968.8
6427	15.157	5.8182	0.1	2013.4
6428	14.973	5.8182	0.1	2057.7
6429	14.788	5.8182	0.1	2101.5
6430	14.604	5.8182	0.1	2144.8
6431	14.42	5.8182	0.1	2187.1
6432	14.236	5.8182	0.1	2228.3
6433	14.051	5.8182	0.1	2267.8
6434	13.867	5.8182	0.1	2305.3
6435	13.683	5.8182	0.1	2339.9
6436	13.499	5.8182	0.1	2371.
6437	13.314	5.8182	0.1	2397.6
6438	13.13	5.8182	0.1	2418.2
6439	12.946	5.8182	0.1	2431.5
6440	12.762	5.8182	0.1	2435.3
6441	12.577	5.8182	0.1	2427.5
6442	12.393	5.8182	0.1	2405.1
6443	12.209	5.8182	0.1	2364.9
6444	12.025	5.8182	0.1	2302.9
6445	11.841	5.8182	0.1	2214.8
6446	11.656	5.8182	0.1	2096.
6447	11.472	5.8182	0.1	1941.7
6448	11.288	5.8182	0.1	1747.7
6449	11.104	5.8182	0.1	1511.2
6450	10.919	5.8182	0.1	1231.8
6451	10.735	5.8182	0.1	916.13
6452	10.551	5.8182	0.1	613.27
6453	0.18214	0.18182	0.1	4042.1
6454	0.18214	0.36364	0.1	4552.6
6455	0.18214	0.54545	0.1	5224.
6456	0.18214	0.72727	0.1	5747.3
6457	0.18214	0.90909	0.1	6138.8
6458	0.18214	1.0909	0.1	6433.8
6459	0.18214	1.2727	0.1	6659.4
6460	0.18214	1.4545	0.1	6834.1
6461	0.18214	1.6364	0.1	6970.7
6462	0.18214	1.8182	0.1	7077.8
6463	0.18214	2.	0.1	7161.5
6464	0.18214	2.1818	0.1	7226.1
6465	0.18214	2.3636	0.1	7274.8
6466	0.18214	2.5455	0.1	7309.5
6467	0.18214	2.7273	0.1	7332.
6468	0.18214	2.9091	0.1	7343.
6469	0.18214	3.0909	0.1	7343.
6470	0.18214	3.2727	0.1	7332.
6471	0.18214	3.4545	0.1	7309.5
6472	0.18214	3.6364	0.1	7274.8
6473	0.18214	3.8182	0.1	7226.1
6474	0.18214	4.	0.1	7161.5
6475	0.18214	4.1818	0.1	7077.8
6476	0.18214	4.3636	0.1	6970.7
6477	0.18214	4.5455	0.1	6834.1
6478	0.18214	4.7273	0.1	6659.4
6479	0.18214	4.9091	0.1	6433.8
6480	0.18214	5.0909	0.1	6138.8
6481	0.18214	5.2727	0.1	5747.3
6482	0.18214	5.4545	0.1	5224.
6483	0.18214	5.6364	0.1	4552.6
6484	0.18214	5.8182	0.1	4042.1
6485	0.36429	0.18182	0.1	5025.5
6486	0.36429	0.36364	0.1	4773.5
6487	0.36429	0.54545	0.1	4833.1
6488	0.36429	0.72727	0.1	5027.7
6489	0.36429	0.90909	0.1	5244.7
6490	0.36429	1.0909	0.1	5443.6
6491	0.36429	1.2727	0.1	5613.7
6492	0.36429	1.4545	0.1	5755.
6493	0.36429	1.6364	0.1	5870.8
6494	0.36429	1.8182	0.1	5964.7
6495	0.36429	2.	0.1	6039.8
6496	0.36429	2.1818	0.1	6098.8
6497	0.36429	2.3636	0.1	6143.8
6498	0.36429	2.5455	0.1	6176.3
6499	0.36429	2.7273	0.1	6197.4
6500	0.36429	2.9091	0.1	6207.8
6501	0.36429	3.0909	0.1	6207.8
6502	0.36429	3.2727	0.1	6197.4
6503	0.36429	3.4545	0.1	6176.3
6504	0.36429	3.6364	0.1	6143.8
6505	0.36429	3.8182	0.1	6098.8
6506	0.36429	4.	0.1	6039.8
6507	0.36429	4.1818	0.1	5964.7
6508	0.36429	4.3636	0.1	5870.8
6509	0.36429	4.5455	0.1	5755.
6510	0.36429	4.7273	0.1	5613.7
6511	0.36429	4.9091	0.1	5443.6
6512	0.36429	5.0909	0.1	5244.7
6513	0.36429	5.2727	0.1	5027.7
6514	0.36429	5.4545	0.1	4833.1
6515	0.36429	5.6364	0.1	4773.5
6516	0.36429	5.8182	0.1	5025.5
6517	0.54643	0.18182	0.1	5570.6
6518	0.54643	0.36364	0.1	5342.1
6519	0.54643	0.54545	0.1	5282.1
6520	0.54643	0.72727	0.1	5329.5
6521	0.54643	0.90909	0.1	5437.5
6522	0.54643	1.0909	0.1	5566.5
6523	0.54643	1.2727	0.1	5694.2
6524	0.54643	1.4545	0.1	5810.7
6525	0.54643	1.6364	0.1	5912.2
6526	0.54643	1.8182	0.1	5998.1
6527	0.54643	2.	0.1	6069.1
6528	0.54643	2.1818	0.1	6126.1
6529	0.54643	2.3636	0.1	6170.4
6530	0.54643	2.5455	0.1	6202.7
6531	0.54643	2.7273	0.1	6223.8
6532	0.54643	2.9091	0.1	6234.3
6533	0.54643	3.0909	0.1	6234.3
6534	0.54643	3.2727	0.1	6223.8
6535	0.54643	3.4545	0.1	6202.7
6536	0.54643	3.6364	0.1	6170.4
6537	0.54643	3.8182	0.1	6126.1
6538	0.54643	4.	0.1	6069.1
6539	0.54643	4.1818	0.1	5998.1
6540	0.54643	4.3636	0.1	5912.2
6541	0.54643	4.5455	0.1	5810.7
6542	0.54643	4.7273	0.1	5694.2
6543	0.54643	4.9091	0.1	5566.5
6544	0.54643	5.0909	0.1	5437.5
6545	0.54643	5.2727	0.1	5329.5
6546	0.54643	5.4545	0.1	5282.1
6547	0.54643	5.6364	0.1	5342.1
6548	0.54643	5.8182	0.1	5570.6
6549	0.72857	0.18182	0.1	5833.1
6550	0.72857	0.36364	0.1	5598.
6551	0.72857	0.54545	0.1	5475.8
6552	0.72857	0.72727	0.1	5431.1
6553	0.72857	0.90909	0.1	5447.5
6554	0.72857	1.0909	0.1	5502.
6555	0.72857	1.2727	0.1	5574.7
6556	0.72857	1.4545	0.1	5652.1
6557	0.72857	1.6364	0.1	5726.6
6558	0.72857	1.8182	0.1	5794.
6559	0.72857	2.	0.1	5852.3
6560	0.72857	2.1818	0.1	5900.8
6561	0.72857	2.3636	0.1	5939.3
6562	0.72857	2.5455	0.1	5967.9
6563	0.72857	2.7273	0.1	5986.8
6564	0.72857	2.9091	0.1	5996.3
6565	0.72857	3.0909	0.1	5996.3
6566	0.72857	3.2727	0.1	5986.8
6567	0.72857	3.4545	0.1	5967.9
6568	0.72857	3.6364	0.1	5939.3
6569	0.72857	3.8182	0.1	5900.8
6570	0.72857	4.	0.1	5852.3
6571	0.72857	4.1818	0.1	5794.
6572	0.72857	4.3636	0.1	5726.6
6573	0.72857	4.5455	0.1	5652.1
6574	0.72857	4.7273	0.1	5574.7
6575	0.72857	4.9091	0.1	5502.
6576	0.72857	5.0909	0.1	5447.5
6577	0.72857	5.2727	0.1	5431.1
6578	0.72857	5.4545	0.1	5475.8
6579	0.72857	5.6364	0.1	5598.
6580	0.72857	5.8182	0.1	5833.1
6581	0.91071	0.18182	0.1	5980.8
6582	0.91071	0.36364	0.1	5769.5
6583	0.91071	0.54545	0.1	5636.8
6584	0.91071	0.72727	0.1	5555.1
6585	0.91071	0.90909	0.1	5521.3
6586	0.91071	1.0909	0.1	5525.2
6587	0.91071	1.2727	0.1	5553.9
6588	0.91071	1.4545	0.1	5596.3
6589	0.91071	1.6364	0.1	5643.9
6590	0.91071	1.8182	0.1	5691.3
6591	0.91071	2.	0.1	5735.
6592	0.91071	2.1818	0.1	5773.1
6593	0.91071	2.3636	0.1	5804.2
6594	0.91071	2.5455	0.1	5827.9
6595	0.91071	2.7273	0.1	5843.8
6596	0.91071	2.9091	0.1	5851.8
6597	0.91071	3.0909	0.1	5851.8
6598	0.91071	3.2727	0.1	5843.8
6599	0.91071	3.4545	0.1	5827.9
6600	0.91071	3.6364	0.1	5804.2
6601	0.91071	3.8182	0.1	5773.1
6602	0.91071	4.	0.1	5735.
6603	0.91071	4.1818	0.1	5691.3
6604	0.91071	4.3636	0.1	5643.9
6605	0.91071	4.5455	0.1	5596.3
6606	0.91071	4.7273	0.1	5553.9
6607	0.91071	4.9091	0.1	5525.2
6608	0.91071	5.0909	0.1	5521.3
6609	0.91071	5.2727	0.1	5555.1
6610	0.91071	5.4545	0.1	5636.8
6611	0.91071	5.6364	0.1	5769.5
6612	0.91071	5.8182	0.1	5980.8
6613	1.0929	0.18182	0.1	6052.
6614	1.0929	0.36364	0.1	5860.3
6615	1.0929	0.54545	0.1	5727.3
6616	1.0929	0.72727	0.1	5629.5
6617	1.0929	0.90909	0.1	5567.5
6618	1.0929	1.0909	0.1	5537.7
6619	1.0929	1.2727	0.1	5533.1
6620	1.0929	1.4545	0.1	5545.7
6621	1.0929	1.6364	0.1	5568.5
6622	1.0929	1.8182	0.1	5596.
6623	1.0929	2.	0.1	5624.3
6624	1.0929	2.1818	0.1	5650.6
6625	1.0929	2.3636	0.1	5673.2
6626	1.0929	2.5455	0.1	5691.
6627	1.0929	2.7273	0.1	5703.1
6628	1.0929	2.9091	0.1	5709.3
6629	1.0929	3.0909	0.1	5709.3
6630	1.0929	3.2727	0.1	5703.1
6631	1.0929	3.4545	0.1	5691.
6632	1.0929	3.6364	0.1	5673.2
6633	1.0929	3.8182	0.1	5650.6
6634	1.0929	4.	0.1	5624.3
6635	1.0929	4.1818	0.1	5596.
6636	1.0929	4.3636	0.1	5568.5
6637	1.0929	4.5455	0.1	5545.7
6638	1.0929	4.7273	0.1	5533.1
6639	1.0929	4.9091	0.1	5537.7
6640	1.0929	5.0909	0.1	5567.5
6641	1.0929	5.2727	0.1	5629.5
6642	1.0929	5.4545	0.1	5727.3
6643	1.0929	5.6364	0.1	5860.3
6644	1.0929	5.8182	0.1	6052.
6645	1.275	0.18182	0.1	6077.8
6646	1.275	0.36364	0.1	5905.2
6647	1.275	0.54545	0.1	5777.7
6648	1.275	0.72727	0.1	5675.1
6649	1.275	0.90909	0.1	5599.
6650	1.275	1.0909	0.1	5548.8
6651	1.275	1.2727	0.1	5521.2
6652	1.275	1.4545	0.1	5511.2
6653	1.275	1.6364	0.1	5513.4
6654	1.275	1.8182	0.1	5523.3
6655	1.275	2.	0.1	5537.2
6656	1.275	2.1818	0.1	5552.1
6657	1.275	2.3636	0.1	5566.1
6658	1.275	2.5455	0.1	5577.7
6659	1.275	2.7273	0.1	5585.8
6660	1.275	2.9091	0.1	5590.1
6661	1.275	3.0909	0.1	5590.1
6662	1.275	3.2727	0.1	5585.8
6663	1.275	3.4545	0.1	5577.7
6664	1.275	3.6364	0.1	5566.1
6665	1.275	3.8182	0.1	5552.1
6666	1.275	4.	0.1	5537.2
6667	1.275	4.1818	0.1	5523.3
6668	1.275	4.3636	0.1	5513.4
6669	1.275	4.5455	0.1	5511.2
6670	1.275	4.7273	0.1	5521.2
6671	1.275	4.9091	0.1	5548.8
6672	1.275	5.0909	0.1	5599.
6673	1.275	5.2727	0.1	5675.1
6674	1.275	5.4545	0.1	5777.7
6675	1.275	5.6364	0.1	5905.2
6676	1.275	5.8182	0.1	6077.8
6677	1.4571	0.18182	0.1	6073.3
6678	1.4571	0.36364	0.1	5917.1
6679	1.4571	0.54545	0.1	5796.7
6680	1.4571	0.72727	0.1	5694.5
6681	1.4571	0.90909	0.1	5612.
6682	1.4571	1.0909	0.1	5550.1
6683	1.4571	1.2727	0.1	5507.4
6684	1.4571	1.4545	0.1	5480.9
6685	1.4571	1.6364	0.1	5467.2
6686	1.4571	1.8182	0.1	5462.5
6687	1.4571	2.	0.1	5463.8
6688	1.4571	2.1818	0.1	5468.4
6689	1.4571	2.3636	0.1	5474.3
6690	1.4571	2.5455	0.1	5479.9
6691	1.4571	2.7273	0.1	5484.2
6692	1.4571	2.9091	0.1	5486.5
6693	1.4571	3.0909	0.1	5486.5
6694	1.4571	3.2727	0.1	5484.2
6695	1.4571	3.4545	0.1	5479.9
6696	1.4571	3.6364	0.1	5474.3
6697	1.4571	3.8182	0.1	5468.4
6698	1.4571	4.	0.1	5463.8
6699	1.4571	4.1818	0.1	5462.5
6700	1.4571	4.3636	0.1	5467.2
6701	1.4571	4.5455	0.1	5480.9
6702	1.4571	4.7273	0.1	5507.4
6703	1.4571	4.9091	0.1	5550.1
6704	1.4571	5.0909	0.1	5612.
6705	1.4571	5.2727	0.1	5694.5
6706	1.4571	5.4545	0.1	5796.7
6707	1.4571	5.6364	0.1	5917.1
6708	1.4571	5.8182	0.1	6073.3
6709	1.6393	0.18182	0.1	6048.5
6710	1.6393	0.36364	0.1	5906.9
6711	1.6393	0.54545	0.1	5793.9
6712	1.6393	0.72727	0.1	5694.6
6713	1.6393	0.90909	0.1	5610.3
6714	1.6393	1.0909	0.1	5542.3
6715	1.6393	1.2727	0.1	5490.2
6716	1.6393	1.4545	0.1	5452.5
6717	1.6393	1.6364	0.1	5426.9
6718	1.6393	1.8182	0.1	5410.9
6719	1.6393	2.	0.1	5401.9
6720	1.6393	2.1818	0.1	5397.7
6721	1.6393	2.3636	0.1	5396.5
6722	1.6393	2.5455	0.1	5396.7
6723	1.6393	2.7273	0.1	5397.5
6724	1.6393	2.9091	0.1	5398.
6725	1.6393	3.0909	0.1	5398.
6726	1.6393	3.2727	0.1	5397.5
6727	1.6393	3.4545	0.1	5396.7
6728	1.6393	3.6364	0.1	5396.5
6729	1.6393	3.8182	0.1	5397.7
6730	1.6393	4.	0.1	5401.9
6731	1.6393	4.1818	0.1	5410.9
6732	1.6393	4.3636	0.1	5426.9
6733	1.6393	4.5455	0.1	5452.5
6734	1.6393	4.7273	0.1	5490.2
6735	1.6393	4.9091	0.1	5542.3
6736	1.6393	5.0909	0.1	5610.3
6737	1.6393	5.2727	0.1	5694.6
6738	1.6393	5.4545	0.1	5793.9
6739	1.6393	5.6364	0.1	5906.9
6740	1.6393	5.8182	0.1	6048.5
6741	1.8214	0.18182	0.1	6009.7
6742	1.8214	0.36364	0.1	5880.8
6743	1.8214	0.54545	0.1	5775.1
6744	1.8214	0.72727	0.1	5680.
6745	1.8214	0.90909	0.1	5596.5
6746	1.8214	1.0909	0.1	5525.9
6747	1.8214	1.2727	0.1	5468.5
6748	1.8214	1.4545	0.1	5423.5
6749	1.8214	1.6364	0.1	5389.6
6750	1.8214	1.8182	0.1	5365.1
6751	1.8214	2.	0.1	5348.1
6752	1.8214	2.1818	0.1	5336.8
6753	1.8214	2.3636	0.1	5329.6
6754	1.8214	2.5455	0.1	5325.4
6755	1.8214	2.7273	0.1	5323.
6756	1.8214	2.9091	0.1	5322.
6757	1.8214	3.0909	0.1	5322.
6758	1.8214	3.2727	0.1	5323.
6759	1.8214	3.4545	0.1	5325.4
6760	1.8214	3.6364	0.1	5329.6
6761	1.8214	3.8182	0.1	5336.8
6762	1.8214	4.	0.1	5348.1
6763	1.8214	4.1818	0.1	5365.1
6764	1.8214	4.3636	0.1	5389.6
6765	1.8214	4.5455	0.1	5423.5
6766	1.8214	4.7273	0.1	5468.5
6767	1.8214	4.9091	0.1	5525.9
6768	1.8214	5.0909	0.1	5596.5
6769	1.8214	5.2727	0.1	5680.
6770	1.8214	5.4545	0.1	5775.1
6771	1.8214	5.6364	0.1	5880.8
6772	1.8214	5.8182	0.1	6009.7
6773	2.0036	0.18182	0.1	5961.2
6774	2.0036	0.36364	0.1	5843.6
6775	2.0036	0.54545	0.1	5744.9
6776	2.0036	0.72727	0.1	5654.6
6777	2.0036	0.90909	0.1	5573.3
6778	2.0036	1.0909	0.1	5502.4
6779	2.0036	1.2727	0.1	5442.4
6780	2.0036	1.4545	0.1	5393.1
6781	2.0036	1.6364	0.1	5353.8
6782	2.0036	1.8182	0.1	5323.3
6783	2.0036	2.	0.1	5300.3
6784	2.0036	2.1818	0.1	5283.5
6785	2.0036	2.3636	0.1	5271.7
6786	2.0036	2.5455	0.1	5263.7
6787	2.0036	2.7273	0.1	5258.9
6788	2.0036	2.9091	0.1	5256.6
6789	2.0036	3.0909	0.1	5256.6
6790	2.0036	3.2727	0.1	5258.9
6791	2.0036	3.4545	0.1	5263.7
6792	2.0036	3.6364	0.1	5271.7
6793	2.0036	3.8182	0.1	5283.5
6794	2.0036	4.	0.1	5300.3
6795	2.0036	4.1818	0.1	5323.3
6796	2.0036	4.3636	0.1	5353.8
6797	2.0036	4.5455	0.1	5393.1
6798	2.0036	4.7273	0.1	5442.4
6799	2.0036	4.9091	0.1	5502.4
6800	2.0036	5.0909	0.1	5573.3
6801	2.0036	5.2727	0.1	5654.6
6802	2.0036	5.4545	0.1	5744.9
6803	2.0036	5.6364	0.1	5843.6
6804	2.0036	5.8182	0.1	5961.2
6805	2.1857	0.18182	0.1	5905.9
6806	2.1857	0.36364	0.1	5798.4
6807	2.1857	0.54545	0.1	5706.4
6808	2.1857	0.72727	0.1	5621.
6809	2.1857	0.90909	0.1	5542.9
6810	2.1857	1.0909	0.1	5473.2
6811	2.1857	1.2727	0.1	5412.5
6812	2.1857	1.4545	0.1	5361.
6813	2.1857	1.6364	0.1	5318.4
6814	2.1857	1.8182	0.1	5283.9
6815	2.1857	2.	0.1	5256.8
6816	2.1857	2.1818	0.1	5236.
6817	2.1857	2.3636	0.1	5220.6
6818	2.1857	2.5455	0.1	5209.9
6819	2.1857	2.7273	0.1	5203.1
6820	2.1857	2.9091	0.1	5199.8
6821	2.1857	3.0909	0.1	5199.8
6822	2.1857	3.2727	0.1	5203.1
6823	2.1857	3.4545	0.1	5209.9
6824	2.1857	3.6364	0.1	5220.6
6825	2.1857	3.8182	0.1	5236.
6826	2.1857	4.	0.1	5256.8
6827	2.1857	4.1818	0.1	5283.9
6828	2.1857	4.3636	0.1	5318.4
6829	2.1857	4.5455	0.1	5361.
6830	2.1857	4.7273	0.1	5412.5
6831	2.1857	4.9091	0.1	5473.2
6832	2.1857	5.0909	0.1	5542.9
6833	2.1857	5.2727	0.1	5621.
6834	2.1857	5.4545	0.1	5706.4
6835	2.1857	5.6364	0.1	5798.4
6836	2.1857	5.8182	0.1	5905.9
6837	2.3679	0.18182	0.1	5846.1
6838	2.3679	0.36364	0.1	5747.5
6839	2.3679	0.54545	0.1	5661.8
6840	2.3679	0.72727	0.1	5581.3
6841	2.3679	0.90909	0.1	5506.8
6842	2.3679	1.0909	0.1	5439.3
6843	2.3679	1.2727	0.1	5379.2
6844	2.3679	1.4545	0.1	5327.1
6845	2.3679	1.6364	0.1	5282.8
6846	2.3679	1.8182	0.1	5246.1
6847	2.3679	2.	0.1	5216.2
6848	2.3679	2.1818	0.1	5192.7
6849	2.3679	2.3636	0.1	5174.9
6850	2.3679	2.5455	0.1	5162.1
6851	2.3679	2.7273	0.1	5153.9
6852	2.3679	2.9091	0.1	5149.8
6853	2.3679	3.0909	0.1	5149.8
6854	2.3679	3.2727	0.1	5153.9
6855	2.3679	3.4545	0.1	5162.1
6856	2.3679	3.6364	0.1	5174.9
6857	2.3679	3.8182	0.1	5192.7
6858	2.3679	4.	0.1	5216.2
6859	2.3679	4.1818	0.1	5246.1
6860	2.3679	4.3636	0.1	5282.8
6861	2.3679	4.5455	0.1	5327.1
6862	2.3679	4.7273	0.1	5379.2
6863	2.3679	4.9091	0.1	5439.3
6864	2.3679	5.0909	0.1	5506.8
6865	2.3679	5.2727	0.1	5581.3
6866	2.3679	5.4545	0.1	5661.8
6867	2.3679	5.6364	0.1	5747.5
6868	2.3679	5.8182	0.1	5846.1
6869	2.55	0.18182	0.1	5783.2
6870	2.55	0.36364	0.1	5692.7
6871	2.55	0.54545	0.1	5612.8
6872	2.55	0.72727	0.1	5537.3
6873	2.55	0.90909	0.1	5466.6
6874	2.55	1.0909	0.1	5401.7
6875	2.55	1.2727	0.1	5343.3
6876	2.55	1.4545	0.1	5291.6
6877	2.55	1.6364	0.1	5246.9
6878	2.55	1.8182	0.1	5209.1
6879	2.55	2.	0.1	5177.7
6880	2.55	2.1818	0.1	5152.6
6881	2.55	2.3636	0.1	5133.1
6882	2.55	2.5455	0.1	5119.
6883	2.55	2.7273	0.1	5109.7
6884	2.55	2.9091	0.1	5105.2
6885	2.55	3.0909	0.1	5105.2
6886	2.55	3.2727	0.1	5109.7
6887	2.55	3.4545	0.1	5119.
6888	2.55	3.6364	0.1	5133.1
6889	2.55	3.8182	0.1	5152.6
6890	2.55	4.	0.1	5177.7
6891	2.55	4.1818	0.1	5209.1
6892	2.55	4.3636	0.1	5246.9
6893	2.55	4.5455	0.1	5291.6
6894	2.55	4.7273	0.1	5343.3
6895	2.55	4.9091	0.1	5401.7
6896	2.55	5.0909	0.1	5466.6
6897	2.55	5.2727	0.1	5537.3
6898	2.55	5.4545	0.1	5612.8
6899	2.55	5.6364	0.1	5692.7
6900	2.55	5.8182	0.1	5783.2
6901	2.7321	0.18182	0.1	5718.3
6902	2.7321	0.36364	0.1	5635.2
6903	2.7321	0.54545	0.1	5560.7
6904	2.7321	0.72727	0.1	5490.
6905	2.7321	0.90909	0.1	5423.3
6906	2.7321	1.0909	0.1	5361.4
6907	2.7321	1.2727	0.1	5305.1
6908	2.7321	1.4545	0.1	5254.7
6909	2.7321	1.6364	0.1	5210.4
6910	2.7321	1.8182	0.1	5172.4
6911	2.7321	2.	0.1	5140.5
6912	2.7321	2.1818	0.1	5114.5
6913	2.7321	2.3636	0.1	5094.2
6914	2.7321	2.5455	0.1	5079.2
6915	2.7321	2.7273	0.1	5069.4
6916	2.7321	2.9091	0.1	5064.5
6917	2.7321	3.0909	0.1	5064.5
6918	2.7321	3.2727	0.1	5069.4
6919	2.7321	3.4545	0.1	5079.2
6920	2.7321	3.6364	0.1	5094.2
6921	2.7321	3.8182	0.1	5114.5
6922	2.7321	4.	0.1	5140.5
6923	2.7321	4.1818	0.1	5172.4
6924	2.7321	4.3636	0.1	5210.4
6925	2.7321	4.5455	0.1	5254.7
6926	2.7321	4.7273	0.1	5305.1
6927	2.7321	4.9091	0.1	5361.4
6928	2.7321	5.0909	0.1	5423.3
6929	2.7321	5.2727	0.1	5490.
6930	2.7321	5.4545	0.1	5560.7
6931	2.7321	5.6364	0.1	5635.2
6932	2.7321	5.8182	0.1	5718.3
6933	2.9143	0.18182	0.1	5652.3
6934	2.9143	0.36364	0.1	5575.8
6935	2.9143	0.54545	0.1	5506.5
6936	2.9143	0.72727	0.1	5440.3
6937	2.9143	0.90909	0.1	5377.5
6938	2.9143	1.0909	0.1	5318.9
6939	2.9143	1.2727	0.1	5265.1
6940	2.9143	1.4545	0.1	5216.5
6941	2.9143	1.6364	0.1	5173.3
6942	2.9143	1.8182	0.1	5135.9
6943	2.9143	2.	0.1	5104.1
6944	2.9143	2.1818	0.1	5077.9
6945	2.9143	2.3636	0.1	5057.3
6946	2.9143	2.5455	0.1	5042.
6947	2.9143	2.7273	0.1	5031.8
6948	2.9143	2.9091	0.1	5026.8
6949	2.9143	3.0909	0.1	5026.8
6950	2.9143	3.2727	0.1	5031.8
6951	2.9143	3.4545	0.1	5042.
6952	2.9143	3.6364	0.1	5057.3
6953	2.9143	3.8182	0.1	5077.9
6954	2.9143	4.	0.1	5104.1
6955	2.9143	4.1818	0.1	5135.9
6956	2.9143	4.3636	0.1	5173.3
6957	2.9143	4.5455	0.1	5216.5
6958	2.9143	4.7273	0.1	5265.1
6959	2.9143	4.9091	0.1	5318.9
6960	2.9143	5.0909	0.1	5377.5
6961	2.9143	5.2727	0.1	5440.3
6962	2.9143	5.4545	0.1	5506.5
6963	2.9143	5.6364	0.1	5575.8
6964	2.9143	5.8182	0.1	5652.3
6965	3.0964	0.18182	0.1	5585.6
6966	3.0964	0.36364	0.1	5515.3
6967	3.0964	0.54545	0.1	5450.8
6968	3.0964	0.72727	0.1	5388.9
6969	3.0964	0.90909	0.1	5330.1
6970	3.0964	1.0909	0.1	5274.8
6971	3.0964	1.2727	0.1	5223.7
6972	3.0964	1.4545	0.1	5177.1
6973	3.0964	1.6364	0.1	5135.6
6974	3.0964	1.8182	0.1	5099.2
6975	3.0964	2.	0.1	5068.
6976	3.0964	2.1818	0.1	5042.2
6977	3.0964	2.3636	0.1	5021.6
6978	3.0964	2.5455	0.1	5006.3
6979	3.0964	2.7273	0.1	4996.1
6980	3.0964	2.9091	0.1	4991.1
6981	3.0964	3.0909	0.1	4991.1
6982	3.0964	3.2727	0.1	4996.1
6983	3.0964	3.4545	0.1	5006.3
6984	3.0964	3.6364	0.1	5021.6
6985	3.0964	3.8182	0.1	5042.2
6986	3.0964	4.	0.1	5068.
6987	3.0964	4.1818	0.1	5099.2
6988	3.0964	4.3636	0.1	5135.6
6989	3.0964	4.5455	0.1	5177.1
6990	3.0964	4.7273	0.1	5223.7
6991	3.0964	4.9091	0.1	5274.8
6992	3.0964	5.0909	0.1	5330.1
6993	3.0964	5.2727	0.1	5388.9
6994	3.0964	5.4545	0.1	5450.8
6995	3.0964	5.6364	0.1	5515.3
6996	3.0964	5.8182	0.1	5585.6
6997	3.2786	0.18182	0.1	5518.8
6998	3.2786	0.36364	0.1	5454.
6999	3.2786	0.54545	0.1	5394.1
7000	3.2786	0.72727	0.1	5336.4
7001	3.2786	0.90909	0.1	5281.3
7002	3.2786	1.0909	0.1	5229.3
7003	3.2786	1.2727	0.1	5181.1
7004	3.2786	1.4545	0.1	5136.9
7005	3.2786	1.6364	0.1	5097.1
7006	3.2786	1.8182	0.1	5062.1
7007	3.2786	2.	0.1	5032.
7008	3.2786	2.1818	0.1	5006.8
7009	3.2786	2.3636	0.1	4986.7
7010	3.2786	2.5455	0.1	4971.6
7011	3.2786	2.7273	0.1	4961.6
7012	3.2786	2.9091	0.1	4956.6
7013	3.2786	3.0909	0.1	4956.6
7014	3.2786	3.2727	0.1	4961.6
7015	3.2786	3.4545	0.1	4971.6
7016	3.2786	3.6364	0.1	4986.7
7017	3.2786	3.8182	0.1	5006.8
7018	3.2786	4.	0.1	5032.
7019	3.2786	4.1818	0.1	5062.1
7020	3.2786	4.3636	0.1	5097.1
7021	3.2786	4.5455	0.1	5136.9
7022	3.2786	4.7273	0.1	5181.1
7023	3.2786	4.9091	0.1	5229.3
7024	3.2786	5.0909	0.1	5281.3
7025	3.2786	5.2727	0.1	5336.4
7026	3.2786	5.4545	0.1	5394.1
7027	3.2786	5.6364	0.1	5454.
7028	3.2786	5.8182	0.1	5518.8
7029	3.4607	0.18182	0.1	5452.1
7030	3.4607	0.36364	0.1	5392.4
7031	3.4607	0.54545	0.1	5336.7
7032	3.4607	0.72727	0.1	5283.
7033	3.4607	0.90909	0.1	5231.6
7034	3.4607	1.0909	0.1	5182.9
7035	3.4607	1.2727	0.1	5137.5
7036	3.4607	1.4545	0.1	5095.7
7037	3.4607	1.6364	0.1	5058.
7038	3.4607	1.8182	0.1	5024.6
7039	3.4607	2.	0.1	4995.7
7040	3.4607	2.1818	0.1	4971.5
7041	3.4607	2.3636	0.1	4952.1
7042	3.4607	2.5455	0.1	4937.4
7043	3.4607	2.7273	0.1	4927.7
7044	3.4607	2.9091	0.1	4922.8
7045	3.4607	3.0909	0.1	4922.8
7046	3.4607	3.2727	0.1	4927.7
7047	3.4607	3.4545	0.1	4937.4
7048	3.4607	3.6364	0.1	4952.1
7049	3.4607	3.8182	0.1	4971.5
7050	3.4607	4.	0.1	4995.7
7051	3.4607	4.1818	0.1	5024.6
7052	3.4607	4.3636	0.1	5058.
7053	3.4607	4.5455	0.1	5095.7
7054	3.4607	4.7273	0.1	5137.5
7055	3.4607	4.9091	0.1	5182.9
7056	3.4607	5.0909	0.1	5231.6
7057	3.4607	5.2727	0.1	5283.
7058	3.4607	5.4545	0.1	5336.7
7059	3.4607	5.6364	0.1	5392.4
7060	3.4607	5.8182	0.1	5452.1
7061	3.6429	0.18182	0.1	5385.7
7062	3.6429	0.36364	0.1	5330.7
7063	3.6429	0.54545	0.1	5279.
7064	3.6429	0.72727	0.1	5229.1
7065	3.6429	0.90909	0.1	5181.2
7066	3.6429	1.0909	0.1	5135.7
7067	3.6429	1.2727	0.1	5093.1
7068	3.6429	1.4545	0.1	5053.9
7069	3.6429	1.6364	0.1	5018.2
7070	3.6429	1.8182	0.1	4986.6
7071	3.6429	2.	0.1	4959.1
7072	3.6429	2.1818	0.1	4936.
7073	3.6429	2.3636	0.1	4917.4
7074	3.6429	2.5455	0.1	4903.3
7075	3.6429	2.7273	0.1	4894.
7076	3.6429	2.9091	0.1	4889.3
7077	3.6429	3.0909	0.1	4889.3
7078	3.6429	3.2727	0.1	4894.
7079	3.6429	3.4545	0.1	4903.3
7080	3.6429	3.6364	0.1	4917.4
7081	3.6429	3.8182	0.1	4936.
7082	3.6429	4.	0.1	4959.1
7083	3.6429	4.1818	0.1	4986.6
7084	3.6429	4.3636	0.1	5018.2
7085	3.6429	4.5455	0.1	5053.9
7086	3.6429	4.7273	0.1	5093.1
7087	3.6429	4.9091	0.1	5135.7
7088	3.6429	5.0909	0.1	5181.2
7089	3.6429	5.2727	0.1	5229.1
7090	3.6429	5.4545	0.1	5279.
7091	3.6429	5.6364	0.1	5330.7
7092	3.6429	5.8182	0.1	5385.7
7093	3.825	0.18182	0.1	5319.7
7094	3.825	0.36364	0.1	5269.1
7095	3.825	0.54545	0.1	5221.2
7096	3.825	0.72727	0.1	5174.8
7097	3.825	0.90909	0.1	5130.2
7098	3.825	1.0909	0.1	5087.9
7099	3.825	1.2727	0.1	5048.1
7100	3.825	1.4545	0.1	5011.3
7101	3.825	1.6364	0.1	4977.8
7102	3.825	1.8182	0.1	4948.
7103	3.825	2.	0.1	4922.
7104	3.825	2.1818	0.1	4900.1
7105	3.825	2.3636	0.1	4882.4
7106	3.825	2.5455	0.1	4869.
7107	3.825	2.7273	0.1	4860.1
7108	3.825	2.9091	0.1	4855.6
7109	3.825	3.0909	0.1	4855.6
7110	3.825	3.2727	0.1	4860.1
7111	3.825	3.4545	0.1	4869.
7112	3.825	3.6364	0.1	4882.4
7113	3.825	3.8182	0.1	4900.1
7114	3.825	4.	0.1	4922.
7115	3.825	4.1818	0.1	4948.
7116	3.825	4.3636	0.1	4977.8
7117	3.825	4.5455	0.1	5011.3
7118	3.825	4.7273	0.1	5048.1
7119	3.825	4.9091	0.1	5087.9
7120	3.825	5.0909	0.1	5130.2
7121	3.825	5.2727	0.1	5174.8
7122	3.825	5.4545	0.1	5221.2
7123	3.825	5.6364	0.1	5269.1
7124	3.825	5.8182	0.1	5319.7
7125	4.0071	0.18182	0.1	5254.2
7126	4.0071	0.36364	0.1	5207.7
7127	4.0071	0.54545	0.1	5163.3
7128	4.0071	0.72727	0.1	5120.4
7129	4.0071	0.90909	0.1	5079.
7130	4.0071	1.0909	0.1	5039.5
7131	4.0071	1.2727	0.1	5002.5
7132	4.0071	1.4545	0.1	4968.1
7133	4.0071	1.6364	0.1	4936.8
7134	4.0071	1.8182	0.1	4908.8
7135	4.0071	2.	0.1	4884.4
7136	4.0071	2.1818	0.1	4863.7
7137	4.0071	2.3636	0.1	4847.
7138	4.0071	2.5455	0.1	4834.3
7139	4.0071	2.7273	0.1	4825.8
7140	4.0071	2.9091	0.1	4821.6
7141	4.0071	3.0909	0.1	4821.6
7142	4.0071	3.2727	0.1	4825.8
7143	4.0071	3.4545	0.1	4834.3
7144	4.0071	3.6364	0.1	4847.
7145	4.0071	3.8182	0.1	4863.7
7146	4.0071	4.	0.1	4884.4
7147	4.0071	4.1818	0.1	4908.8
7148	4.0071	4.3636	0.1	4936.8
7149	4.0071	4.5455	0.1	4968.1
7150	4.0071	4.7273	0.1	5002.5
7151	4.0071	4.9091	0.1	5039.5
7152	4.0071	5.0909	0.1	5079.
7153	4.0071	5.2727	0.1	5120.4
7154	4.0071	5.4545	0.1	5163.3
7155	4.0071	5.6364	0.1	5207.7
7156	4.0071	5.8182	0.1	5254.2
7157	4.1893	0.18182	0.1	5189.3
7158	4.1893	0.36364	0.1	5146.5
7159	4.1893	0.54545	0.1	5105.5
7160	4.1893	0.72727	0.1	5065.8
7161	4.1893	0.90909	0.1	5027.4
7162	4.1893	1.0909	0.1	4990.8
7163	4.1893	1.2727	0.1	4956.4
7164	4.1893	1.4545	0.1	4924.4
7165	4.1893	1.6364	0.1	4895.2
7166	4.1893	1.8182	0.1	4869.
7167	4.1893	2.	0.1	4846.1
7168	4.1893	2.1818	0.1	4826.7
7169	4.1893	2.3636	0.1	4811.
7170	4.1893	2.5455	0.1	4799.1
7171	4.1893	2.7273	0.1	4791.1
7172	4.1893	2.9091	0.1	4787.1
7173	4.1893	3.0909	0.1	4787.1
7174	4.1893	3.2727	0.1	4791.1
7175	4.1893	3.4545	0.1	4799.1
7176	4.1893	3.6364	0.1	4811.
7177	4.1893	3.8182	0.1	4826.7
7178	4.1893	4.	0.1	4846.1
7179	4.1893	4.1818	0.1	4869.
7180	4.1893	4.3636	0.1	4895.2
7181	4.1893	4.5455	0.1	4924.4
7182	4.1893	4.7273	0.1	4956.4
7183	4.1893	4.9091	0.1	4990.8
7184	4.1893	5.0909	0.1	5027.4
7185	4.1893	5.2727	0.1	5065.8
7186	4.1893	5.4545	0.1	5105.5
7187	4.1893	5.6364	0.1	5146.5
7188	4.1893	5.8182	0.1	5189.3
7189	4.3714	0.18182	0.1	5125.
7190	4.3714	0.36364	0.1	5085.7
7191	4.3714	0.54545	0.1	5047.9
7192	4.3714	0.72727	0.1	5011.1
7193	4.3714	0.90909	0.1	4975.7
7194	4.3714	1.0909	0.1	4941.8
7195	4.3714	1.2727	0.1	4909.9
7196	4.3714	1.4545	0.1	4880.2
7197	4.3714	1.6364	0.1	4853.
7198	4.3714	1.8182	0.1	4828.5
7199	4.3714	2.	0.1	4807.2
7200	4.3714	2.1818	0.1	4789.
7201	4.3714	2.3636	0.1	4774.3
7202	4.3714	2.5455	0.1	4763.1
7203	4.3714	2.7273	0.1	4755.6
7204	4.3714	2.9091	0.1	4751.9
7205	4.3714	3.0909	0.1	4751.9
7206	4.3714	3.2727	0.1	4755.6
7207	4.3714	3.4545	0.1	4763.1
7208	4.3714	3.6364	0.1	4774.3
7209	4.3714	3.8182	0.1	4789.
7210	4.3714	4.	0.1	4807.2
7211	4.3714	4.1818	0.1	4828.5
7212	4.3714	4.3636	0.1	4853.
7213	4.3714	4.5455	0.1	4880.2
7214	4.3714	4.7273	0.1	4909.9
7215	4.3714	4.9091	0.1	4941.8
7216	4.3714	5.0909	0.1	4975.7
7217	4.3714	5.2727	0.1	5011.1
7218	4.3714	5.4545	0.1	5047.9
7219	4.3714	5.6364	0.1	5085.7
7220	4.3714	5.8182	0.1	5125.
7221	4.5536	0.18182	0.1	5061.2
7222	4.5536	0.36364	0.1	5025.1
7223	4.5536	0.54545	0.1	4990.3
7224	4.5536	0.72727	0.1	4956.5
7225	4.5536	0.90909	0.1	4923.8
7226	4.5536	1.0909	0.1	4892.5
7227	4.5536	1.2727	0.1	4863.
7228	4.5536	1.4545	0.1	4835.5
7229	4.5536	1.6364	0.1	4810.2
7230	4.5536	1.8182	0.1	4787.5
7231	4.5536	2.	0.1	4767.6
7232	4.5536	2.1818	0.1	4750.7
7233	4.5536	2.3636	0.1	4737.
7234	4.5536	2.5455	0.1	4726.5
7235	4.5536	2.7273	0.1	4719.5
7236	4.5536	2.9091	0.1	4716.
7237	4.5536	3.0909	0.1	4716.
7238	4.5536	3.2727	0.1	4719.5
7239	4.5536	3.4545	0.1	4726.5
7240	4.5536	3.6364	0.1	4737.
7241	4.5536	3.8182	0.1	4750.7
7242	4.5536	4.	0.1	4767.6
7243	4.5536	4.1818	0.1	4787.5
7244	4.5536	4.3636	0.1	4810.2
7245	4.5536	4.5455	0.1	4835.5
7246	4.5536	4.7273	0.1	4863.
7247	4.5536	4.9091	0.1	4892.5
7248	4.5536	5.0909	0.1	4923.8
7249	4.5536	5.2727	0.1	4956.5
7250	4.5536	5.4545	0.1	4990.3
7251	4.5536	5.6364	0.1	5025.1
7252	4.5536	5.8182	0.1	5061.2
7253	4.7357	0.18182	0.1	4997.8
7254	4.7357	0.36364	0.1	4964.8
7255	4.7357	0.54545	0.1	4932.9
7256	4.7357	0.72727	0.1	4901.8
7257	4.7357	0.90909	0.1	4871.8
7258	4.7357	1.0909	0.1	4843.
7259	4.7357	1.2727	0.1	4815.8
7260	4.7357	1.4545	0.1	4790.3
7261	4.7357	1.6364	0.1	4767.
7262	4.7357	1.8182	0.1	4746.
7263	4.7357	2.	0.1	4727.5
7264	4.7357	2.1818	0.1	4711.8
7265	4.7357	2.3636	0.1	4699.
7266	4.7357	2.5455	0.1	4689.2
7267	4.7357	2.7273	0.1	4682.7
7268	4.7357	2.9091	0.1	4679.4
7269	4.7357	3.0909	0.1	4679.4
7270	4.7357	3.2727	0.1	4682.7
7271	4.7357	3.4545	0.1	4689.2
7272	4.7357	3.6364	0.1	4699.
7273	4.7357	3.8182	0.1	4711.8
7274	4.7357	4.	0.1	4727.5
7275	4.7357	4.1818	0.1	4746.
7276	4.7357	4.3636	0.1	4767.
7277	4.7357	4.5455	0.1	4790.3
7278	4.7357	4.7273	0.1	4815.8
7279	4.7357	4.9091	0.1	4843.
7280	4.7357	5.0909	0.1	4871.8
7281	4.7357	5.2727	0.1	4901.8
7282	4.7357	5.4545	0.1	4932.9
7283	4.7357	5.6364	0.1	4964.8
7284	4.7357	5.8182	0.1	4997.8
7285	4.9179	0.18182	0.1	4934.9
7286	4.9179	0.36364	0.1	4904.8
7287	4.9179	0.54545	0.1	4875.7
7288	4.9179	0.72727	0.1	4847.2
7289	4.9179	0.90909	0.1	4819.7
7290	4.9179	1.0909	0.1	4793.3
7291	4.9179	1.2727	0.1	4768.3
7292	4.9179	1.4545	0.1	4744.9
7293	4.9179	1.6364	0.1	4723.3
7294	4.9179	1.8182	0.1	4703.9
7295	4.9179	2.	0.1	4686.8
7296	4.9179	2.1818	0.1	4672.2
7297	4.9179	2.3636	0.1	4660.3
7298	4.9179	2.5455	0.1	4651.3
7299	4.9179	2.7273	0.1	4645.2
7300	4.9179	2.9091	0.1	4642.1
7301	4.9179	3.0909	0.1	4642.1
7302	4.9179	3.2727	0.1	4645.2
7303	4.9179	3.4545	0.1	4651.3
7304	4.9179	3.6364	0.1	4660.3
7305	4.9179	3.8182	0.1	4672.2
7306	4.9179	4.	0.1	4686.8
7307	4.9179	4.1818	0.1	4703.9
7308	4.9179	4.3636	0.1	4723.3
7309	4.9179	4.5455	0.1	4744.9
7310	4.9179	4.7273	0.1	4768.3
7311	4.9179	4.9091	0.1	4793.3
7312	4.9179	5.0909	0.1	4819.7
7313	4.9179	5.2727	0.1	4847.2
7314	4.9179	5.4545	0.1	4875.7
7315	4.9179	5.6364	0.1	4904.8
7316	4.9179	5.8182	0.1	4934.9
7317	5.1	0.18182	0.1	4872.2
7318	5.1	0.36364	0.1	4845.
7319	5.1	0.54545	0.1	4818.5
7320	5.1	0.72727	0.1	4792.6
7321	5.1	0.90909	0.1	4767.5
7322	5.1	1.0909	0.1	4743.4
7323	5.1	1.2727	0.1	4720.5
7324	5.1	1.4545	0.1	4699.
7325	5.1	1.6364	0.1	4679.2
7326	5.1	1.8182	0.1	4661.3
7327	5.1	2.	0.1	4645.5
7328	5.1	2.1818	0.1	4632.
7329	5.1	2.3636	0.1	4621.
7330	5.1	2.5455	0.1	4612.7
7331	5.1	2.7273	0.1	4607.
7332	5.1	2.9091	0.1	4604.2
7333	5.1	3.0909	0.1	4604.2
7334	5.1	3.2727	0.1	4607.
7335	5.1	3.4545	0.1	4612.7
7336	5.1	3.6364	0.1	4621.
7337	5.1	3.8182	0.1	4632.
7338	5.1	4.	0.1	4645.5
7339	5.1	4.1818	0.1	4661.3
7340	5.1	4.3636	0.1	4679.2
7341	5.1	4.5455	0.1	4699.
7342	5.1	4.7273	0.1	4720.5
7343	5.1	4.9091	0.1	4743.4
7344	5.1	5.0909	0.1	4767.5
7345	5.1	5.2727	0.1	4792.6
7346	5.1	5.4545	0.1	4818.5
7347	5.1	5.6364	0.1	4845.
7348	5.1	5.8182	0.1	4872.2
7349	5.2821	0.18182	0.1	4809.8
7350	5.2821	0.36364	0.1	4785.2
7351	5.2821	0.54545	0.1	4761.3
7352	5.2821	0.72727	0.1	4738.
7353	5.2821	0.90909	0.1	4715.2
7354	5.2821	1.0909	0.1	4693.4
7355	5.2821	1.2727	0.1	4672.5
7356	5.2821	1.4545	0.1	4652.9
7357	5.2821	1.6364	0.1	4634.8
7358	5.2821	1.8182	0.1	4618.4
7359	5.2821	2.	0.1	4603.9
7360	5.2821	2.1818	0.1	4591.4
7361	5.2821	2.3636	0.1	4581.3
7362	5.2821	2.5455	0.1	4573.5
7363	5.2821	2.7273	0.1	4568.3
7364	5.2821	2.9091	0.1	4565.7
7365	5.2821	3.0909	0.1	4565.7
7366	5.2821	3.2727	0.1	4568.3
7367	5.2821	3.4545	0.1	4573.5
7368	5.2821	3.6364	0.1	4581.3
7369	5.2821	3.8182	0.1	4591.4
7370	5.2821	4.	0.1	4603.9
7371	5.2821	4.1818	0.1	4618.4
7372	5.2821	4.3636	0.1	4634.8
7373	5.2821	4.5455	0.1	4652.9
7374	5.2821	4.7273	0.1	4672.5
7375	5.2821	4.9091	0.1	4693.4
7376	5.2821	5.0909	0.1	4715.2
7377	5.2821	5.2727	0.1	4738.
7378	5.2821	5.4545	0.1	4761.3
7379	5.2821	5.6364	0.1	4785.2
7380	5.2821	5.8182	0.1	4809.8
7381	5.4643	0.18182	0.1	4747.4
7382	5.4643	0.36364	0.1	4725.5
7383	5.4643	0.54545	0.1	4704.1
7384	5.4643	0.72727	0.1	4683.2
7385	5.4643	0.90909	0.1	4662.9
7386	5.4643	1.0909	0.1	4643.2
7387	5.4643	1.2727	0.1	4624.4
7388	5.4643	1.4545	0.1	4606.6
7389	5.4643	1.6364	0.1	4590.1
7390	5.4643	1.8182	0.1	4575.1
7391	5.4643	2.	0.1	4561.9
7392	5.4643	2.1818	0.1	4550.5
7393	5.4643	2.3636	0.1	4541.1
7394	5.4643	2.5455	0.1	4534.
7395	5.4643	2.7273	0.1	4529.2
7396	5.4643	2.9091	0.1	4526.7
7397	5.4643	3.0909	0.1	4526.7
7398	5.4643	3.2727	0.1	4529.2
7399	5.4643	3.4545	0.1	4534.
7400	5.4643	3.6364	0.1	4541.1
7401	5.4643	3.8182	0.1	4550.5
7402	5.4643	4.	0.1	4561.9
7403	5.4643	4.1818	0.1	4575.1
7404	5.4643	4.3636	0.1	4590.1
7405	5.4643	4.5455	0.1	4606.6
7406	5.4643	4.7273	0.1	4624.4
7407	5.4643	4.9091	0.1	4643.2
7408	5.4643	5.0909	0.1	4662.9
7409	5.4643	5.2727	0.1	4683.2
7410	5.4643	5.4545	0.1	4704.1
7411	5.4643	5.6364	0.1	4725.5
7412	5.4643	5.8182	0.1	4747.4
7413	5.6464	0.18182	0.1	4684.9
7414	5.6464	0.36364	0.1	4665.6
7415	5.6464	0.54545	0.1	4646.8
7416	5.6464	0.72727	0.1	4628.4
7417	5.6464	0.90909	0.1	4610.3
7418	5.6464	1.0909	0.1	4592.8
7419	5.6464	1.2727	0.1	4576.
7420	5.6464	1.4545	0.1	4560.1
7421	5.6464	1.6364	0.1	4545.3
7422	5.6464	1.8182	0.1	4531.7
7423	5.6464	2.	0.1	4519.6
7424	5.6464	2.1818	0.1	4509.2
7425	5.6464	2.3636	0.1	4500.7
7426	5.6464	2.5455	0.1	4494.2
7427	5.6464	2.7273	0.1	4489.7
7428	5.6464	2.9091	0.1	4487.5
7429	5.6464	3.0909	0.1	4487.5
7430	5.6464	3.2727	0.1	4489.7
7431	5.6464	3.4545	0.1	4494.2
7432	5.6464	3.6364	0.1	4500.7
7433	5.6464	3.8182	0.1	4509.2
7434	5.6464	4.	0.1	4519.6
7435	5.6464	4.1818	0.1	4531.7
7436	5.6464	4.3636	0.1	4545.3
7437	5.6464	4.5455	0.1	4560.1
7438	5.6464	4.7273	0.1	4576.
7439	5.6464	4.9091	0.1	4592.8
7440	5.6464	5.0909	0.1	4610.3
7441	5.6464	5.2727	0.1	4628.4
7442	5.6464	5.4545	0.1	4646.8
7443	5.6464	5.6364	0.1	4665.6
7444	5.6464	5.8182	0.1	4684.9
7445	5.8286	0.18182	0.1	4622.1
7446	5.8286	0.36364	0.1	4605.5
7447	5.8286	0.54545	0.1	4589.2
7448	5.8286	0.72727	0.1	4573.3
7449	5.8286	0.90909	0.1	4557.6
7450	5.8286	1.0909	0.1	4542.3
7451	5.8286	1.2727	0.1	4527.5
7452	5.8286	1.4545	0.1	4513.5
7453	5.8286	1.6364	0.1	4500.3
7454	5.8286	1.8182	0.1	4488.1
7455	5.8286	2.	0.1	4477.3
7456	5.8286	2.1818	0.1	4467.9
7457	5.8286	2.3636	0.1	4460.2
7458	5.8286	2.5455	0.1	4454.2
7459	5.8286	2.7273	0.1	4450.2
7460	5.8286	2.9091	0.1	4448.2
7461	5.8286	3.0909	0.1	4448.2
7462	5.8286	3.2727	0.1	4450.2
7463	5.8286	3.4545	0.1	4454.2
7464	5.8286	3.6364	0.1	4460.2
7465	5.8286	3.8182	0.1	4467.9
7466	5.8286	4.	0.1	4477.3
7467	5.8286	4.1818	0.1	4488.1
7468	5.8286	4.3636	0.1	4500.3
7469	5.8286	4.5455	0.1	4513.5
7470	5.8286	4.7273	0.1	4527.5
7471	5.8286	4.9091	0.1	4542.3
7472	5.8286	5.0909	0.1	4557.6
7473	5.8286	5.2727	0.1	4573.3
7474	5.8286	5.4545	0.1	4589.2
7475	5.8286	5.6364	0.1	4605.5
7476	5.8286	5.8182	0.1	4622.1
7477	6.0107	0.18182	0.1	4558.8
7478	6.0107	0.36364	0.1	4544.8
7479	6.0107	0.54545	0.1	4531.2
7480	6.0107	0.72727	0.1	4517.8
7481	6.0107	0.90909	0.1	4504.6
7482	6.0107	1.0909	0.1	4491.6
7483	6.0107	1.2727	0.1	4478.9
7484	6.0107	1.4545	0.1	4466.8
7485	6.0107	1.6364	0.1	4455.3
7486	6.0107	1.8182	0.1	4444.6
7487	6.0107	2.	0.1	4435.
7488	6.0107	2.1818	0.1	4426.7
7489	6.0107	2.3636	0.1	4419.8
7490	6.0107	2.5455	0.1	4414.5
7491	6.0107	2.7273	0.1	4410.9
7492	6.0107	2.9091	0.1	4409.
7493	6.0107	3.0909	0.1	4409.
7494	6.0107	3.2727	0.1	4410.9
7495	6.0107	3.4545	0.1	4414.5
7496	6.0107	3.6364	0.1	4419.8
7497	6.0107	3.8182	0.1	4426.7
7498	6.0107	4.	0.1	4435.
7499	6.0107	4.1818	0.1	4444.6
7500	6.0107	4.3636	0.1	4455.3
7501	6.0107	4.5455	0.1	4466.8
7502	6.0107	4.7273	0.1	4478.9
7503	6.0107	4.9091	0.1	4491.6
7504	6.0107	5.0909	0.1	4504.6
7505	6.0107	5.2727	0.1	4517.8
7506	6.0107	5.4545	0.1	4531.2
7507	6.0107	5.6364	0.1	4544.8
7508	6.0107	5.8182	0.1	4558.8
7509	6.1929	0.18182	0.1	4494.5
7510	6.1929	0.36364	0.1	4483.3
7511	6.1929	0.54545	0.1	4472.5
7512	6.1929	0.72727	0.1	4461.9
7513	6.1929	0.90909	0.1	4451.2
7514	6.1929	1.0909	0.1	4440.6
7515	6.1929	1.2727	0.1	4430.2
7516	6.1929	1.4545	0.1	4420.1
7517	6.1929	1.6364	0.1	4410.4
7518	6.1929	1.8182	0.1	4401.3
7519	6.1929	2.	0.1	4393.1
7520	6.1929	2.1818	0.1	4385.8
7521	6.1929	2.3636	0.1	4379.8
7522	6.1929	2.5455	0.1	4375.1
7523	6.1929	2.7273	0.1	4372.
7524	6.1929	2.9091	0.1	4370.3
7525	6.1929	3.0909	0.1	4370.3
7526	6.1929	3.2727	0.1	4372.
7527	6.1929	3.4545	0.1	4375.1
7528	6.1929	3.6364	0.1	4379.8
7529	6.1929	3.8182	0.1	4385.8
7530	6.1929	4.	0.1	4393.1
7531	6.1929	4.1818	0.1	4401.3
7532	6.1929	4.3636	0.1	4410.4
7533	6.1929	4.5455	0.1	4420.1
7534	6.1929	4.7273	0.1	4430.2
7535	6.1929	4.9091	0.1	4440.6
7536	6.1929	5.0909	0.1	4451.2
7537	6.1929	5.2727	0.1	4461.9
7538	6.1929	5.4545	0.1	4472.5
7539	6.1929	5.6364	0.1	4483.3
7540	6.1929	5.8182	0.1	4494.5
7541	6.375	0.18182	0.1	4428.9
7542	6.375	0.36364	0.1	4420.7
7543	6.375	0.54545	0.1	4412.9
7544	6.375	0.72727	0.1	4405.2
7545	6.375	0.90909	0.1	4397.3
7546	6.375	1.0909	0.1	4389.4
7547	6.375	1.2727	0.1	4381.4
7548	6.375	1.4545	0.1	4373.5
7549	6.375	1.6364	0.1	4365.7
7550	6.375	1.8182	0.1	4358.4
7551	6.375	2.	0.1	4351.6
7552	6.375	2.1818	0.1	4345.6
7553	6.375	2.3636	0.1	4340.5
7554	6.375	2.5455	0.1	4336.6
7555	6.375	2.7273	0.1	4333.9
7556	6.375	2.9091	0.1	4332.5
7557	6.375	3.0909	0.1	4332.5
7558	6.375	3.2727	0.1	4333.9
7559	6.375	3.4545	0.1	4336.6
7560	6.375	3.6364	0.1	4340.5
7561	6.375	3.8182	0.1	4345.6
7562	6.375	4.	0.1	4351.6
7563	6.375	4.1818	0.1	4358.4
7564	6.375	4.3636	0.1	4365.7
7565	6.375	4.5455	0.1	4373.5
7566	6.375	4.7273	0.1	4381.4
7567	6.375	4.9091	0.1	4389.4
7568	6.375	5.0909	0.1	4397.3
7569	6.375	5.2727	0.1	4405.2
7570	6.375	5.4545	0.1	4412.9
7571	6.375	5.6364	0.1	4420.7
7572	6.375	5.8182	0.1	4428.9
7573	6.5571	0.18182	0.1	4361.6
7574	6.5571	0.36364	0.1	4356.7
7575	6.5571	0.54545	0.1	4352.1
7576	6.5571	0.72727	0.1	4347.5
7577	6.5571	0.90909	0.1	4342.7
7578	6.5571	1.0909	0.1	4337.7
7579	6.5571	1.2727	0.1	4332.4
7580	6.5571	1.4545	0.1	4327.
7581	6.5571	1.6364	0.1	4321.5
7582	6.5571	1.8182	0.1	4316.1
7583	6.5571	2.	0.1	4311.
7584	6.5571	2.1818	0.1	4306.3
7585	6.5571	2.3636	0.1	4302.4
7586	6.5571	2.5455	0.1	4299.3
7587	6.5571	2.7273	0.1	4297.1
7588	6.5571	2.9091	0.1	4296.
7589	6.5571	3.0909	0.1	4296.
7590	6.5571	3.2727	0.1	4297.1
7591	6.5571	3.4545	0.1	4299.3
7592	6.5571	3.6364	0.1	4302.4
7593	6.5571	3.8182	0.1	4306.3
7594	6.5571	4.	0.1	4311.
7595	6.5571	4.1818	0.1	4316.1
7596	6.5571	4.3636	0.1	4321.5
7597	6.5571	4.5455	0.1	4327.
7598	6.5571	4.7273	0.1	4332.4
7599	6.5571	4.9091	0.1	4337.7
7600	6.5571	5.0909	0.1	4342.7
7601	6.5571	5.2727	0.1	4347.5
7602	6.5571	5.4545	0.1	4352.1
7603	6.5571	5.6364	0.1	4356.7
7604	6.5571	5.8182	0.1	4361.6
7605	6.7393	0.18182	0.1	4291.9
7606	6.7393	0.36364	0.1	4290.5
7607	6.7393	0.54545	0.1	4289.6
7608	6.7393	0.72727	0.1	4288.5
7609	6.7393	0.90909	0.1	4287.2
7610	6.7393	1.0909	0.1	4285.5
7611	6.7393	1.2727	0.1	4283.3
7612	6.7393	1.4545	0.1	4280.7
7613	6.7393	1.6364	0.1	4277.7
7614	6.7393	1.8182	0.1	4274.6
7615	6.7393	2.	0.1	4271.5
7616	6.7393	2.1818	0.1	4268.5
7617	6.7393	2.3636	0.1	4265.9
7618	6.7393	2.5455	0.1	4263.8
7619	6.7393	2.7273	0.1	4262.3
7620	6.7393	2.9091	0.1	4261.5
7621	6.7393	3.0909	0.1	4261.5
7622	6.7393	3.2727	0.1	4262.3
7623	6.7393	3.4545	0.1	4263.8
7624	6.7393	3.6364	0.1	4265.9
7625	6.7393	3.8182	0.1	4268.5
7626	6.7393	4.	0.1	4271.5
7627	6.7393	4.1818	0.1	4274.6
7628	6.7393	4.3636	0.1	4277.7
7629	6.7393	4.5455	0.1	4280.7
7630	6.7393	4.7273	0.1	4283.3
7631	6.7393	4.9091	0.1	4285.5
7632	6.7393	5.0909	0.1	4287.2
7633	6.7393	5.2727	0.1	4288.5
7634	6.7393	5.4545	0.1	4289.6
7635	6.7393	5.6364	0.1	4290.5
7636	6.7393	5.8182	0.1	4291.9
7637	6.9214	0.18182	0.1	4219.1
7638	6.9214	0.36364	0.1	4221.8
7639	6.9214	0.54545	0.1	4224.8
7640	6.9214	0.72727	0.1	4227.8
7641	6.9214	0.90909	0.1	4230.4
7642	6.9214	1.0909	0.1	4232.5
7643	6.9214	1.2727	0.1	4233.9
7644	6.9214	1.4545	0.1	4234.7
7645	6.9214	1.6364	0.1	4234.8
7646	6.9214	1.8182	0.1	4234.4
7647	6.9214	2.	0.1	4233.7
7648	6.9214	2.1818	0.1	4232.7
7649	6.9214	2.3636	0.1	4231.7
7650	6.9214	2.5455	0.1	4230.8
7651	6.9214	2.7273	0.1	4230.1
7652	6.9214	2.9091	0.1	4229.7
7653	6.9214	3.0909	0.1	4229.7
7654	6.9214	3.2727	0.1	4230.1
7655	6.9214	3.4545	0.1	4230.8
7656	6.9214	3.6364	0.1	4231.7
7657	6.9214	3.8182	0.1	4232.7
7658	6.9214	4.	0.1	4233.7
7659	6.9214	4.1818	0.1	4234.4
7660	6.9214	4.3636	0.1	4234.8
7661	6.9214	4.5455	0.1	4234.7
7662	6.9214	4.7273	0.1	4233.9
7663	6.9214	4.9091	0.1	4232.5
7664	6.9214	5.0909	0.1	4230.4
7665	6.9214	5.2727	0.1	4227.8
7666	6.9214	5.4545	0.1	4224.8
7667	6.9214	5.6364	0.1	4221.8
7668	6.9214	5.8182	0.1	4219.1
7669	7.1036	0.18182	0.1	4142.4
7670	7.1036	0.36364	0.1	4149.5
7671	7.1036	0.54545	0.1	4157.1
7672	7.1036	0.72727	0.1	4164.7
7673	7.1036	0.90909	0.1	4171.9
7674	7.1036	1.0909	0.1	4178.5
7675	7.1036	1.2727	0.1	4184.2
7676	7.1036	1.4545	0.1	4189.
7677	7.1036	1.6364	0.1	4192.9
7678	7.1036	1.8182	0.1	4195.9
7679	7.1036	2.	0.1	4198.
7680	7.1036	2.1818	0.1	4199.6
7681	7.1036	2.3636	0.1	4200.6
7682	7.1036	2.5455	0.1	4201.2
7683	7.1036	2.7273	0.1	4201.6
7684	7.1036	2.9091	0.1	4201.8
7685	7.1036	3.0909	0.1	4201.8
7686	7.1036	3.2727	0.1	4201.6
7687	7.1036	3.4545	0.1	4201.2
7688	7.1036	3.6364	0.1	4200.6
7689	7.1036	3.8182	0.1	4199.6
7690	7.1036	4.	0.1	4198.
7691	7.1036	4.1818	0.1	4195.8
7692	7.1036	4.3636	0.1	4192.9
7693	7.1036	4.5455	0.1	4189.
7694	7.1036	4.7273	0.1	4184.2
7695	7.1036	4.9091	0.1	4178.5
7696	7.1036	5.0909	0.1	4171.9
7697	7.1036	5.2727	0.1	4164.7
7698	7.1036	5.4545	0.1	4157.1
7699	7.1036	5.6364	0.1	4149.5
7700	7.1036	5.8182	0.1	4142.4
7701	7.2857	0.18182	0.1	4060.6
7702	7.2857	0.36364	0.1	4072.7
7703	7.2857	0.54545	0.1	4085.6
7704	7.2857	0.72727	0.1	4098.5
7705	7.2857	0.90909	0.1	4111.2
7706	7.2857	1.0909	0.1	4123.1
7707	7.2857	1.2727	0.1	4134.
7708	7.2857	1.4545	0.1	4143.8
7709	7.2857	1.6364	0.1	4152.3
7710	7.2857	1.8182	0.1	4159.4
7711	7.2857	2.	0.1	4165.3
7712	7.2857	2.1818	0.1	4170.
7713	7.2857	2.3636	0.1	4173.6
7714	7.2857	2.5455	0.1	4176.3
7715	7.2857	2.7273	0.1	4178.
7716	7.2857	2.9091	0.1	4178.8
7717	7.2857	3.0909	0.1	4178.8
7718	7.2857	3.2727	0.1	4178.
7719	7.2857	3.4545	0.1	4176.3
7720	7.2857	3.6364	0.1	4173.6
7721	7.2857	3.8182	0.1	4170.
7722	7.2857	4.	0.1	4165.3
7723	7.2857	4.1818	0.1	4159.4
7724	7.2857	4.3636	0.1	4152.3
7725	7.2857	4.5455	0.1	4143.8
7726	7.2857	4.7273	0.1	4134.
7727	7.2857	4.9091	0.1	4123.1
7728	7.2857	5.0909	0.1	4111.2
7729	7.2857	5.2727	0.1	4098.5
7730	7.2857	5.4545	0.1	4085.6
7731	7.2857	5.6364	0.1	4072.7
7732	7.2857	5.8182	0.1	4060.6
7733	7.4679	0.18182	0.1	3972.3
7734	7.4679	0.36364	0.1	3990.2
7735	7.4679	0.54545	0.1	4009.1
7736	7.4679	0.72727	0.1	4028.3
7737	7.4679	0.90909	0.1	4047.4
7738	7.4679	1.0909	0.1	4065.8
7739	7.4679	1.2727	0.1	4083.2
7740	7.4679	1.4545	0.1	4099.1
7741	7.4679	1.6364	0.1	4113.4
7742	7.4679	1.8182	0.1	4125.8
7743	7.4679	2.	0.1	4136.4
7744	7.4679	2.1818	0.1	4145.2
7745	7.4679	2.3636	0.1	4152.2
7746	7.4679	2.5455	0.1	4157.4
7747	7.4679	2.7273	0.1	4160.9
7748	7.4679	2.9091	0.1	4162.7
7749	7.4679	3.0909	0.1	4162.7
7750	7.4679	3.2727	0.1	4160.9
7751	7.4679	3.4545	0.1	4157.4
7752	7.4679	3.6364	0.1	4152.2
7753	7.4679	3.8182	0.1	4145.2
7754	7.4679	4.	0.1	4136.4
7755	7.4679	4.1818	0.1	4125.8
7756	7.4679	4.3636	0.1	4113.4
7757	7.4679	4.5455	0.1	4099.1
7758	7.4679	4.7273	0.1	4083.2
7759	7.4679	4.9091	0.1	4065.8
7760	7.4679	5.0909	0.1	4047.4
7761	7.4679	5.2727	0.1	4028.3
7762	7.4679	5.4545	0.1	4009.1
7763	7.4679	5.6364	0.1	3990.2
7764	7.4679	5.8182	0.1	3972.3
7765	7.65	0.18182	0.1	3876.
7766	7.65	0.36364	0.1	3900.4
7767	7.65	0.54545	0.1	3926.2
7768	7.65	0.72727	0.1	3952.9
7769	7.65	0.90909	0.1	3979.8
7770	7.65	1.0909	0.1	4006.2
7771	7.65	1.2727	0.1	4031.4
7772	7.65	1.4545	0.1	4055.1
7773	7.65	1.6364	0.1	4076.6
7774	7.65	1.8182	0.1	4095.8
7775	7.65	2.	0.1	4112.5
7776	7.65	2.1818	0.1	4126.6
7777	7.65	2.3636	0.1	4138.
7778	7.65	2.5455	0.1	4146.6
7779	7.65	2.7273	0.1	4152.4
7780	7.65	2.9091	0.1	4155.4
7781	7.65	3.0909	0.1	4155.4
7782	7.65	3.2727	0.1	4152.4
7783	7.65	3.4545	0.1	4146.6
7784	7.65	3.6364	0.1	4138.
7785	7.65	3.8182	0.1	4126.6
7786	7.65	4.	0.1	4112.5
7787	7.65	4.1818	0.1	4095.8
7788	7.65	4.3636	0.1	4076.6
7789	7.65	4.5455	0.1	4055.1
7790	7.65	4.7273	0.1	4031.4
7791	7.65	4.9091	0.1	4006.2
7792	7.65	5.0909	0.1	3979.8
7793	7.65	5.2727	0.1	3952.9
7794	7.65	5.4545	0.1	3926.2
7795	7.65	5.6364	0.1	3900.4
7796	7.65	5.8182	0.1	3876.
7797	7.8321	0.18182	0.1	3769.6
7798	7.8321	0.36364	0.1	3801.4
7799	7.8321	0.54545	0.1	3835.3
7800	7.8321	0.72727	0.1	3870.8
7801	7.8321	0.90909	0.1	3907.1
7802	7.8321	1.0909	0.1	3943.3
7803	7.8321	1.2727	0.1	3978.5
7804	7.8321	1.4545	0.1	4011.9
7805	7.8321	1.6364	0.1	4042.7
7806	7.8321	1.8182	0.1	4070.5
7807	7.8321	2.	0.1	4095.
7808	7.8321	2.1818	0.1	4116.
7809	7.8321	2.3636	0.1	4133.1
7810	7.8321	2.5455	0.1	4146.3
7811	7.8321	2.7273	0.1	4155.2
7812	7.8321	2.9091	0.1	4159.8
7813	7.8321	3.0909	0.1	4159.8
7814	7.8321	3.2727	0.1	4155.2
7815	7.8321	3.4545	0.1	4146.3
7816	7.8321	3.6364	0.1	4133.1
7817	7.8321	3.8182	0.1	4116.
7818	7.8321	4.	0.1	4095.
7819	7.8321	4.1818	0.1	4070.5
7820	7.8321	4.3636	0.1	4042.7
7821	7.8321	4.5455	0.1	4011.9
7822	7.8321	4.7273	0.1	3978.5
7823	7.8321	4.9091	0.1	3943.3
7824	7.8321	5.0909	0.1	3907.1
7825	7.8321	5.2727	0.1	3870.8
7826	7.8321	5.4545	0.1	3835.3
7827	7.8321	5.6364	0.1	3801.4
7828	7.8321	5.8182	0.1	3769.6
7829	8.0143	0.18182	0.1	3650.8
7830	8.0143	0.36364	0.1	3690.8
7831	8.0143	0.54545	0.1	3734.1
7832	8.0143	0.72727	0.1	3780.1
7833	8.0143	0.90909	0.1	3827.9
7834	8.0143	1.0909	0.1	3876.3
7835	8.0143	1.2727	0.1	3924.
7836	8.0143	1.4545	0.1	3969.7
7837	8.0143	1.6364	0.1	4012.4
7838	8.0143	1.8182	0.1	4051.4
7839	8.0143	2.	0.1	4086.
7840	8.0143	2.1818	0.1	4115.8
7841	8.0143	2.3636	0.1	4140.5
7842	8.0143	2.5455	0.1	4159.7
7843	8.0143	2.7273	0.1	4172.8
7844	8.0143	2.9091	0.1	4179.5
7845	8.0143	3.0909	0.1	4179.5
7846	8.0143	3.2727	0.1	4172.8
7847	8.0143	3.4545	0.1	4159.7
7848	8.0143	3.6364	0.1	4140.5
7849	8.0143	3.8182	0.1	4115.8
7850	8.0143	4.	0.1	4086.
7851	8.0143	4.1818	0.1	4051.4
7852	8.0143	4.3636	0.1	4012.4
7853	8.0143	4.5455	0.1	3969.7
7854	8.0143	4.7273	0.1	3924.
7855	8.0143	4.9091	0.1	3876.3
7856	8.0143	5.0909	0.1	3827.9
7857	8.0143	5.2727	0.1	3780.1
7858	8.0143	5.4545	0.1	3734.1
7859	8.0143	5.6364	0.1	3690.8
7860	8.0143	5.8182	0.1	3650.8
7861	8.1964	0.18182	0.1	3516.7
7862	8.1964	0.36364	0.1	3565.9
7863	8.1964	0.54545	0.1	3620.
7864	8.1964	0.72727	0.1	3678.5
7865	8.1964	0.90909	0.1	3740.4
7866	8.1964	1.0909	0.1	3804.
7867	8.1964	1.2727	0.1	3867.5
7868	8.1964	1.4545	0.1	3929.
7869	8.1964	1.6364	0.1	3987.
7870	8.1964	1.8182	0.1	4040.2
7871	8.1964	2.	0.1	4087.8
7872	8.1964	2.1818	0.1	4129.3
7873	8.1964	2.3636	0.1	4163.9
7874	8.1964	2.5455	0.1	4191.
7875	8.1964	2.7273	0.1	4209.8
7876	8.1964	2.9091	0.1	4219.4
7877	8.1964	3.0909	0.1	4219.4
7878	8.1964	3.2727	0.1	4209.8
7879	8.1964	3.4545	0.1	4191.
7880	8.1964	3.6364	0.1	4163.9
7881	8.1964	3.8182	0.1	4129.3
7882	8.1964	4.	0.1	4087.8
7883	8.1964	4.1818	0.1	4040.2
7884	8.1964	4.3636	0.1	3987.
7885	8.1964	4.5455	0.1	3929.
7886	8.1964	4.7273	0.1	3867.5
7887	8.1964	4.9091	0.1	3804.
7888	8.1964	5.0909	0.1	3740.4
7889	8.1964	5.2727	0.1	3678.5
7890	8.1964	5.4545	0.1	3620.
7891	8.1964	5.6364	0.1	3565.9
7892	8.1964	5.8182	0.1	3516.7
7893	8.3786	0.18182	0.1	3364.2
7894	8.3786	0.36364	0.1	3423.3
7895	8.3786	0.54545	0.1	3489.8
7896	8.3786	0.72727	0.1	3563.3
7897	8.3786	0.90909	0.1	3642.5
7898	8.3786	1.0909	0.1	3725.2
7899	8.3786	1.2727	0.1	3808.8
7900	8.3786	1.4545	0.1	3890.6
7901	8.3786	1.6364	0.1	3968.1
7902	8.3786	1.8182	0.1	4039.7
7903	8.3786	2.	0.1	4104.1
7904	8.3786	2.1818	0.1	4160.6
7905	8.3786	2.3636	0.1	4208.2
7906	8.3786	2.5455	0.1	4245.8
7907	8.3786	2.7273	0.1	4272.
7908	8.3786	2.9091	0.1	4285.5
7909	8.3786	3.0909	0.1	4285.5
7910	8.3786	3.2727	0.1	4272.
7911	8.3786	3.4545	0.1	4245.8
7912	8.3786	3.6364	0.1	4208.2
7913	8.3786	3.8182	0.1	4160.6
7914	8.3786	4.	0.1	4104.1
7915	8.3786	4.1818	0.1	4039.7
7916	8.3786	4.3636	0.1	3968.1
7917	8.3786	4.5455	0.1	3890.6
7918	8.3786	4.7273	0.1	3808.8
7919	8.3786	4.9091	0.1	3725.2
7920	8.3786	5.0909	0.1	3642.5
7921	8.3786	5.2727	0.1	3563.3
7922	8.3786	5.4545	0.1	3489.8
7923	8.3786	5.6364	0.1	3423.3
7924	8.3786	5.8182	0.1	3364.2
7925	8.5607	0.18182	0.1	3189.5
7926	8.5607	0.36364	0.1	3259.1
7927	8.5607	0.54545	0.1	3339.8
7928	8.5607	0.72727	0.1	3431.1
7929	8.5607	0.90909	0.1	3531.6
7930	8.5607	1.0909	0.1	3638.5
7931	8.5607	1.2727	0.1	3747.9
7932	8.5607	1.4545	0.1	3855.7
7933	8.5607	1.6364	0.1	3958.5
7934	8.5607	1.8182	0.1	4053.7
7935	8.5607	2.	0.1	4139.7
7936	8.5607	2.1818	0.1	4215.5
7937	8.5607	2.3636	0.1	4280.
7938	8.5607	2.5455	0.1	4331.4
7939	8.5607	2.7273	0.1	4367.4
7940	8.5607	2.9091	0.1	4386.
7941	8.5607	3.0909	0.1	4386.
7942	8.5607	3.2727	0.1	4367.4
7943	8.5607	3.4545	0.1	4331.4
7944	8.5607	3.6364	0.1	4280.
7945	8.5607	3.8182	0.1	4215.5
7946	8.5607	4.	0.1	4139.7
7947	8.5607	4.1818	0.1	4053.7
7948	8.5607	4.3636	0.1	3958.5
7949	8.5607	4.5455	0.1	3855.7
7950	8.5607	4.7273	0.1	3747.9
7951	8.5607	4.9091	0.1	3638.5
7952	8.5607	5.0909	0.1	3531.6
7953	8.5607	5.2727	0.1	3431.1
7954	8.5607	5.4545	0.1	3339.8
7955	8.5607	5.6364	0.1	3259.1
7956	8.5607	5.8182	0.1	3189.5
7957	8.7429	0.18182	0.1	2988.8
7958	8.7429	0.36364	0.1	3069.1
7959	8.7429	0.54545	0.1	3165.7
7960	8.7429	0.72727	0.1	3278.3
7961	8.7429	0.90909	0.1	3405.2
7962	8.7429	1.0909	0.1	3542.6
7963	8.7429	1.2727	0.1	3685.1
7964	8.7429	1.4545	0.1	3826.8
7965	8.7429	1.6364	0.1	3962.3
7966	8.7429	1.8182	0.1	4087.9
7967	8.7429	2.	0.1	4201.4
7968	8.7429	2.1818	0.1	4302.
7969	8.7429	2.3636	0.1	4388.2
7970	8.7429	2.5455	0.1	4457.4
7971	8.7429	2.7273	0.1	4506.2
7972	8.7429	2.9091	0.1	4531.5
7973	8.7429	3.0909	0.1	4531.5
7974	8.7429	3.2727	0.1	4506.2
7975	8.7429	3.4545	0.1	4457.4
7976	8.7429	3.6364	0.1	4388.2
7977	8.7429	3.8182	0.1	4302.
7978	8.7429	4.	0.1	4201.4
7979	8.7429	4.1818	0.1	4087.9
7980	8.7429	4.3636	0.1	3962.3
7981	8.7429	4.5455	0.1	3826.8
7982	8.7429	4.7273	0.1	3685.1
7983	8.7429	4.9091	0.1	3542.6
7984	8.7429	5.0909	0.1	3405.2
7985	8.7429	5.2727	0.1	3278.3
7986	8.7429	5.4545	0.1	3165.7
7987	8.7429	5.6364	0.1	3069.1
7988	8.7429	5.8182	0.1	2988.8
7989	8.925	0.18182	0.1	2758.
7990	8.925	0.36364	0.1	2848.7
7991	8.925	0.54545	0.1	2963.
7992	8.925	0.72727	0.1	3100.9
7993	8.925	0.90909	0.1	3260.4
7994	8.925	1.0909	0.1	3436.6
7995	8.925	1.2727	0.1	3622.
7996	8.925	1.4545	0.1	3807.9
7997	8.925	1.6364	0.1	3986.2
7998	8.925	1.8182	0.1	4151.
7999	8.925	2.	0.1	4299.8
8000	8.925	2.1818	0.1	4431.8
8001	8.925	2.3636	0.1	4545.5
8002	8.925	2.5455	0.1	4637.1
8003	8.925	2.7273	0.1	4701.9
8004	8.925	2.9091	0.1	4735.4
8005	8.925	3.0909	0.1	4735.4
8006	8.925	3.2727	0.1	4701.9
8007	8.925	3.4545	0.1	4637.1
8008	8.925	3.6364	0.1	4545.5
8009	8.925	3.8182	0.1	4431.8
8010	8.925	4.	0.1	4299.8
8011	8.925	4.1818	0.1	4151.
8012	8.925	4.3636	0.1	3986.2
8013	8.925	4.5455	0.1	3807.9
8014	8.925	4.7273	0.1	3622.
8015	8.925	4.9091	0.1	3436.6
8016	8.925	5.0909	0.1	3260.4
8017	8.925	5.2727	0.1	3100.9
8018	8.925	5.4545	0.1	2963.
8019	8.925	5.6364	0.1	2848.7
8020	8.925	5.8182	0.1	2758.
8021	9.1071	0.18182	0.1	2493.3
8022	9.1071	0.36364	0.1	2593.6
8023	9.1071	0.54545	0.1	2727.8
8024	9.1071	0.72727	0.1	2895.9
8025	9.1071	0.90909	0.1	3095.6
8026	9.1071	1.0909	0.1	3320.8
8027	9.1071	1.2727	0.1	3561.8
8028	9.1071	1.4545	0.1	3806.2
8029	9.1071	1.6364	0.1	4041.2
8030	9.1071	1.8182	0.1	4257.2
8031	9.1071	2.	0.1	4451.
8032	9.1071	2.1818	0.1	4622.5
8033	9.1071	2.3636	0.1	4770.1
8034	9.1071	2.5455	0.1	4888.6
8035	9.1071	2.7273	0.1	4971.5
8036	9.1071	2.9091	0.1	5013.9
8037	9.1071	3.0909	0.1	5013.9
8038	9.1071	3.2727	0.1	4971.5
8039	9.1071	3.4545	0.1	4888.6
8040	9.1071	3.6364	0.1	4770.1
8041	9.1071	3.8182	0.1	4622.5
8042	9.1071	4.	0.1	4451.
8043	9.1071	4.1818	0.1	4257.2
8044	9.1071	4.3636	0.1	4041.2
8045	9.1071	4.5455	0.1	3806.2
8046	9.1071	4.7273	0.1	3561.8
8047	9.1071	4.9091	0.1	3320.8
8048	9.1071	5.0909	0.1	3095.6
8049	9.1071	5.2727	0.1	2895.9
8050	9.1071	5.4545	0.1	2727.8
8051	9.1071	5.6364	0.1	2593.6
8052	9.1071	5.8182	0.1	2493.3
8053	9.2893	0.18182	0.1	2192.
8054	9.2893	0.36364	0.1	2300.9
8055	9.2893	0.54545	0.1	2458.1
8056	9.2893	0.72727	0.1	2662.5
8057	9.2893	0.90909	0.1	2911.5
8058	9.2893	1.0909	0.1	3198.
8059	9.2893	1.2727	0.1	3510.8
8060	9.2893	1.4545	0.1	3833.4
8061	9.2893	1.6364	0.1	4145.1
8062	9.2893	1.8182	0.1	4430.
8063	9.2893	2.	0.1	4681.5
8064	9.2893	2.1818	0.1	4901.9
8065	9.2893	2.3636	0.1	5089.9
8066	9.2893	2.5455	0.1	5236.8
8067	9.2893	2.7273	0.1	5335.7
8068	9.2893	2.9091	0.1	5384.6
8069	9.2893	3.0909	0.1	5384.6
8070	9.2893	3.2727	0.1	5335.7
8071	9.2893	3.4545	0.1	5236.8
8072	9.2893	3.6364	0.1	5089.9
8073	9.2893	3.8182	0.1	4901.9
8074	9.2893	4.	0.1	4681.5
8075	9.2893	4.1818	0.1	4430.
8076	9.2893	4.3636	0.1	4145.1
8077	9.2893	4.5455	0.1	3833.4
8078	9.2893	4.7273	0.1	3510.8
8079	9.2893	4.9091	0.1	3198.
8080	9.2893	5.0909	0.1	2911.5
8081	9.2893	5.2727	0.1	2662.5
8082	9.2893	5.4545	0.1	2458.1
8083	9.2893	5.6364	0.1	2300.9
8084	9.2893	5.8182	0.1	2192.
8085	9.4714	0.18182	0.1	1853.
8086	9.4714	0.36364	0.1	1971.1
8087	9.4714	0.54545	0.1	2157.1
8088	9.4714	0.72727	0.1	2406.5
8089	9.4714	0.90909	0.1	2714.8
8090	9.4714	1.0909	0.1	3075.7
8091	9.4714	1.2727	0.1	3479.3
8092	9.4714	1.4545	0.1	3907.4
8093	9.4714	1.6364	0.1	4331.2
8094	9.4714	1.8182	0.1	4712.6
8095	9.4714	2.	0.1	5042.3
8096	9.4714	2.1818	0.1	5322.6
8097	9.4714	2.3636	0.1	5549.9
8098	9.4714	2.5455	0.1	5715.7
8099	9.4714	2.7273	0.1	5815.4
8100	9.4714	2.9091	0.1	5860.4
8101	9.4714	3.0909	0.1	5860.4
8102	9.4714	3.2727	0.1	5815.4
8103	9.4714	3.4545	0.1	5715.7
8104	9.4714	3.6364	0.1	5549.9
8105	9.4714	3.8182	0.1	5322.6
8106	9.4714	4.	0.1	5042.3
8107	9.4714	4.1818	0.1	4712.6
8108	9.4714	4.3636	0.1	4331.2
8109	9.4714	4.5455	0.1	3907.4
8110	9.4714	4.7273	0.1	3479.3
8111	9.4714	4.9091	0.1	3075.7
8112	9.4714	5.0909	0.1	2714.8
8113	9.4714	5.2727	0.1	2406.5
8114	9.4714	5.4545	0.1	2157.1
8115	9.4714	5.6364	0.1	1971.1
8116	9.4714	5.8182	0.1	1853.
8117	9.6536	0.18182	0.1	1477.7
8118	9.6536	0.36364	0.1	1612.1
8119	9.6536	0.54545	0.1	1840.3
8120	9.6536	0.72727	0.1	2147.
8121	9.6536	0.90909	0.1	2524.1
8122	9.6536	1.0909	0.1	2969.3
8123	9.6536	1.2727	0.1	3481.4
8124	9.6536	1.4545	0.1	4055.2
8125	9.6536	1.6364	0.1	4644.1
8126	9.6536	1.8182	0.1	5185.
8127	9.6536	2.	0.1	5628.1
8128	9.6536	2.1818	0.1	5970.7
8129	9.6536	2.3636	0.1	6230.7
8130	9.6536	2.5455	0.1	6366.7
8131	9.6536	2.7273	0.1	6420.2
8132	9.6536	2.9091	0.1	6434.9
8133	9.6536	3.0909	0.1	6434.9
8134	9.6536	3.2727	0.1	6420.2
8135	9.6536	3.4545	0.1	6366.7
8136	9.6536	3.6364	0.1	6230.7
8137	9.6536	3.8182	0.1	5970.7
8138	9.6536	4.	0.1	5628.1
8139	9.6536	4.1818	0.1	5185.
8140	9.6536	4.3636	0.1	4644.1
8141	9.6536	4.5455	0.1	4055.2
8142	9.6536	4.7273	0.1	3481.4
8143	9.6536	4.9091	0.1	2969.3
8144	9.6536	5.0909	0.1	2524.1
8145	9.6536	5.2727	0.1	2147.
8146	9.6536	5.4545	0.1	1840.3
8147	9.6536	5.6364	0.1	1612.1
8148	9.6536	5.8182	0.1	1477.7
8149	9.8357	0.18182	0.1	1075.4
8150	9.8357	0.36364	0.1	1255.
8151	9.8357	0.54545	0.1	1553.7
8152	9.8357	0.72727	0.1	1932.2
8153	9.8357	0.90909	0.1	2382.1
8154	9.8357	1.0909	0.1	2911.6
8155	9.8357	1.2727	0.1	3543.2
8156	9.8357	1.4545	0.1	4293.1
8157	9.8357	1.6364	0.1	5190.
8158	9.8357	1.8182	0.1	6112.3
8159	9.8357	2.	0.1	6698.4
8160	9.8357	2.1818	0.1	7132.1
8161	9.8357	2.3636	0.1	7257.
8162	9.8357	2.5455	0.1	7213.1
8163	9.8357	2.7273	0.1	7116.2
8164	9.8357	2.9091	0.1	7055.9
8165	9.8357	3.0909	0.1	7055.9
8166	9.8357	3.2727	0.1	7116.2
8167	9.8357	3.4545	0.1	7213.1
8168	9.8357	3.6364	0.1	7257.
8169	9.8357	3.8182	0.1	7132.1
8170	9.8357	4.	0.1	6698.4
8171	9.8357	4.1818	0.1	6112.3
8172	9.8357	4.3636	0.1	5190.
8173	9.8357	4.5455	0.1	4293.1
8174	9.8357	4.7273	0.1	3543.2
8175	9.8357	4.9091	0.1	2911.6
8176	9.8357	5.0909	0.1	2382.1
8177	9.8357	5.2727	0.1	1932.2
8178	9.8357	5.4545	0.1	1553.7
8179	9.8357	5.6364	0.1	1255.
8180	9.8357	5.8182	0.1	1075.4
8181	10.018	0.18182	0.1	703.29
8182	10.018	0.36364	0.1	1033.9
8183	10.018	0.54545	0.1	1451.9
8184	10.018	0.72727	0.1	1923.2
8185	10.018	0.90909	0.1	2459.
8186	10.018	1.0909	0.1	3085.8
8187	10.018	1.2727	0.1	3851.4
8188	10.018	1.4545	0.1	4841.1
8189	10.018	1.6364	0.1	6250.4
8190	10.018	1.8182	0.1	8332.8
8191	10.018	2.	0.1	9894.5
8192	10.018	2.1818	0.1	9342.8
8193	10.018	2.3636	0.1	8758.
8194	10.018	2.5455	0.1	8134.9
8195	10.018	2.7273	0.1	7772.5
8196	10.018	2.9091	0.1	7600.3
8197	10.018	3.0909	0.1	7600.3
8198	10.018	3.2727	0.1	7772.5
8199	10.018	3.4545	0.1	8134.9
8200	10.018	3.6364	0.1	8758.
8201	10.018	3.8182	0.1	9342.8
8202	10.018	4.	0.1	9894.5
8203	10.018	4.1818	0.1	8332.8
8204	10.018	4.3636	0.1	6250.4
8205	10.018	4.5455	0.1	4841.1
8206	10.018	4.7273	0.1	3851.4
8207	10.018	4.9091	0.1	3085.8
8208	10.018	5.0909	0.1	2459.
8209	10.018	5.2727	0.1	1923.2
8210	10.018	5.4545	0.1	1451.9
8211	10.018	5.6364	0.1	1033.9
8212	10.018	5.8182	0.1	703.29
8213	10.367	3.8182	0.1	12373
8214	10.367	3.6364	0.1	9871.1
8215	10.367	3.4545	0.1	8697.2
8216	10.367	3.2727	0.1	8092.
8217	10.367	3.0909	0.1	7833.
8218	10.367	2.9091	0.1	7833.
8219	10.367	2.7273	0.1	8092.
8220	10.367	2.5455	0.1	8697.2
8221	10.367	2.3636	0.1	9871.1
8222	10.367	2.1818	0.1	12373
8223	10.2	3.8182	0.1	12532
8224	10.2	3.6364	0.1	9925.4
8225	10.2	3.4545	0.1	8758.
8226	10.2	3.2727	0.1	8153.3
8227	10.2	3.0909	0.1	7895.1
8228	10.2	2.9091	0.1	7895.1
8229	10.2	2.7273	0.1	8153.3
8230	10.2	2.5455	0.1	8758.
8231	10.2	2.3636	0.1	9925.4
8232	10.2	2.1818	0.1	12532
8233	10.367	5.8182	0.1	338.42
8234	10.367	5.6364	0.1	620.96
8235	10.367	5.4545	0.1	888.54
8236	10.367	5.2727	0.1	1172.
8237	10.367	5.0909	0.1	1489.9
8238	10.367	4.9091	0.1	1866.1
8239	10.367	4.7273	0.1	2337.6
8240	10.367	4.5455	0.1	2994.1
8241	10.367	4.3636	0.1	3820.8
8242	10.367	4.1818	0.1	6661.
8243	10.367	4.	0.1	17721
8244	10.2	4.	0.1	18492
8245	10.2	4.1818	0.1	7364.4
8246	10.2	4.3636	0.1	4253.8
8247	10.2	4.5455	0.1	3344.2
8248	10.2	4.7273	0.1	2621.
8249	10.2	4.9091	0.1	2096.9
8250	10.2	5.0909	0.1	1674.5
8251	10.2	5.2727	0.1	1315.3
8252	10.2	5.4545	0.1	994.75
8253	10.2	5.6364	0.1	693.54
8254	10.2	5.8182	0.1	378.62
8255	10.367	0.18182	0.1	338.42
8256	10.367	0.36364	0.1	620.96
8257	10.367	0.54545	0.1	888.54
8258	10.367	0.72727	0.1	1172.
8259	10.367	0.90909	0.1	1489.9
8260	10.367	1.0909	0.1	1866.1
8261	10.367	1.2727	0.1	2337.6
8262	10.367	1.4545	0.1	2994.1
8263	10.367	1.6364	0.1	3820.8
8264	10.367	1.8182	0.1	6661.
8265	10.367	2.	0.1	17721
8266	10.2	2.	0.1	18492
8267	10.2	1.8182	0.1	7364.4
8268	10.2	1.6364	0.1	4253.8
8269	10.2	1.4545	0.1	3344.2
8270	10.2	1.2727	0.1	2621.
8271	10.2	1.0909	0.1	2096.9
8272	10.2	0.90909	0.1	1674.5
8273	10.2	0.72727	0.1	1315.3
8274	10.2	0.54545	0.1	994.75
8275	10.2	0.36364	0.1	693.54
8276	10.2	0.18182	0.1	378.62
8277	10.367	6.	0.1	42.832
8278	10.551	6.	0.1	405.94
8279	10.735	6.	0.1	789.15
8280	10.919	6.	0.1	1122.4
8281	11.104	6.	0.1	1413.4
8282	11.288	6.	0.1	1661.1
8283	11.472	6.	0.1	1866.4
8284	11.656	6.	0.1	2031.7
8285	11.841	6.	0.1	2160.9
8286	12.025	6.	0.1	2258.3
8287	12.209	6.	0.1	2328.4
8288	12.393	6.	0.1	2375.6
8289	12.577	6.	0.1	2403.9
8290	12.762	6.	0.1	2416.5
8291	12.946	6.	0.1	2416.6
8292	13.13	6.	0.1	2406.6
8293	13.314	6.	0.1	2388.5
8294	13.499	6.	0.1	2363.9
8295	13.683	6.	0.1	2334.2
8296	13.867	6.	0.1	2300.6
8297	14.051	6.	0.1	2263.9
8298	14.236	6.	0.1	2224.8
8299	14.42	6.	0.1	2183.9
8300	14.604	6.	0.1	2141.5
8301	14.788	6.	0.1	2098.2
8302	14.973	6.	0.1	2054.1
8303	15.157	6.	0.1	2009.4
8304	15.341	6.	0.1	1964.4
8305	15.525	6.	0.1	1919.2
8306	15.709	6.	0.1	1873.9
8307	15.894	6.	0.1	1828.5
8308	16.078	6.	0.1	1783.1
8309	16.262	6.	0.1	1737.8
8310	16.446	6.	0.1	1692.6
8311	16.631	6.	0.1	1647.6
8312	16.815	6.	0.1	1602.7
8313	16.999	6.	0.1	1557.9
8314	17.183	6.	0.1	1513.4
8315	17.368	6.	0.1	1469.
8316	17.552	6.	0.1	1424.8
8317	17.736	6.	0.1	1380.9
8318	17.92	6.	0.1	1337.1
8319	18.105	6.	0.1	1293.5
8320	18.289	6.	0.1	1250.1
8321	18.473	6.	0.1	1207.
8322	18.657	6.	0.1	1164.
8323	18.841	6.	0.1	1121.2
8324	19.026	6.	0.1	1078.6
8325	19.21	6.	0.1	1036.2
8326	19.394	6.	0.1	993.94
8327	19.578	6.	0.1	951.9
8328	19.763	6.	0.1	910.03
8329	19.947	6.	0.1	868.34
8330	20.131	6.	0.1	826.81
8331	20.315	6.	0.1	785.46
8332	20.5	6.	0.1	744.27
8333	20.684	6.	0.1	703.25
8334	20.868	6.	0.1	662.38
8335	21.052	6.	0.1	621.67
8336	21.236	6.	0.1	581.12
8337	21.421	6.	0.1	540.73
8338	21.605	6.	0.1	500.5
8339	21.789	6.	0.1	460.43
8340	21.973	6.	0.1	420.53
8341	22.158	6.	0.1	380.8
8342	22.342	6.	0.1	341.28
8343	22.526	6.	0.1	301.97
8344	22.71	6.	0.1	262.92
8345	22.895	6.	0.1	224.17
8346	23.079	6.	0.1	185.8
8347	23.263	6.	0.1	147.93
8348	23.447	6.	0.1	110.75
8349	23.632	6.	0.1	74.744
8350	23.816	6.	0.1	40.014
8351	24.	6.	0.1	9.4656
8352	24.	5.8182	0.1	39.346
8353	24.	5.6364	0.1	66.342
8354	24.	5.4545	0.1	87.089
8355	24.	5.2727	0.1	104.34
8356	24.	5.0909	0.1	119.02
8357	24.	4.9091	0.1	131.67
8358	24.	4.7273	0.1	142.61
8359	24.	4.5455	0.1	152.06
8360	24.	4.3636	0.1	160.19
8361	24.	4.1818	0.1	167.12
8362	24.	4.	0.1	172.92
8363	24.	3.8182	0.1	177.66
8364	24.	3.6364	0.1	181.41
8365	24.	3.4545	0.1	184.18
8366	24.	3.2727	0.1	186.02
8367	24.	3.0909	0.1	186.94
8368	24.	2.9091	0.1	186.94
8369	24.	2.7273	0.1	186.02
8370	24.	2.5455	0.1	184.18
8371	24.	2.3636	0.1	181.41
8372	24.	2.1818	0.1	177.66
8373	24.	2.	0.1	172.92
8374	24.	1.8182	0.1	167.12
8375	24.	1.6364	0.1	160.19
8376	24.	1.4545	0.1	152.06
8377	24.	1.2727	0.1	142.61
8378	24.	1.0909	0.1	131.67
8379	24.	0.90909	0.1	119.02
8380	24.	0.72727	0.1	104.34
8381	24.	0.54545	0.1	87.089
8382	24.	0.36364	0.1	66.343
8383	24.	0.18182	0.1	39.346
8384	1.5894e-015	0.18182	0.1	1373.5
8385	3.1789e-015	0.36364	0.1	2362.6
8386	4.7683e-015	0.54545	0.1	2882.5
8387	6.3578e-015	0.72727	0.1	3211.4
8388	7.9472e-015	0.90909	0.1	3431.1
8389	9.5366e-015	1.0909	0.1	3587.9
8390	1.1126e-014	1.2727	0.1	3704.
8391	1.2716e-014	1.4545	0.1	3792.1
8392	1.4305e-014	1.6364	0.1	3859.8
8393	1.5894e-014	1.8182	0.1	3912.4
8394	1.7484e-014	2.	0.1	3953.1
8395	1.9073e-014	2.1818	0.1	3984.4
8396	2.0663e-014	2.3636	0.1	4007.8
8397	2.2252e-014	2.5455	0.1	4024.5
8398	2.3842e-014	2.7273	0.1	4035.2
8399	2.5431e-014	2.9091	0.1	4040.4
8400	2.702e-014	3.0909	0.1	4040.4
8401	2.861e-014	3.2727	0.1	4035.2
8402	3.0199e-014	3.4545	0.1	4024.5
8403	3.1789e-014	3.6364	0.1	4007.8
8404	3.3378e-014	3.8182	0.1	3984.4
8405	3.4968e-014	4.	0.1	3953.1
8406	3.6557e-014	4.1818	0.1	3912.4
8407	3.8147e-014	4.3636	0.1	3859.8
8408	3.9736e-014	4.5455	0.1	3792.1
8409	4.1325e-014	4.7273	0.1	3704.
8410	4.2915e-014	4.9091	0.1	3587.9
8411	4.4504e-014	5.0909	0.1	3431.1
8412	4.6094e-014	5.2727	0.1	3211.4
8413	4.7683e-014	5.4545	0.1	2882.5
8414	4.9273e-014	5.6364	0.1	2362.6
8415	5.0862e-014	5.8182	0.1	1373.5
8416	24.	0.	0.1	9.4656
8417	23.816	0.	0.1	40.013
8418	23.632	0.	0.1	74.744
8419	23.447	0.	0.1	110.75
8420	23.263	0.	0.1	147.93
8421	23.079	0.	0.1	185.8
8422	22.895	0.	0.1	224.17
8423	22.71	0.	0.1	262.92
8424	22.526	0.	0.1	301.97
8425	22.342	0.	0.1	341.28
8426	22.158	0.	0.1	380.8
8427	21.973	0.	0.1	420.53
8428	21.789	0.	0.1	460.43
8429	21.605	0.	0.1	500.5
8430	21.421	0.	0.1	540.73
8431	21.236	0.	0.1	581.12
8432	21.052	0.	0.1	621.67
8433	20.868	0.	0.1	662.38
8434	20.684	0.	0.1	703.25
8435	20.5	0.	0.1	744.27
8436	20.315	0.	0.1	785.46
8437	20.131	0.	0.1	826.81
8438	19.947	0.	0.1	868.34
8439	19.763	0.	0.1	910.03
8440	19.578	0.	0.1	951.9
8441	19.394	0.	0.1	993.94
8442	19.21	0.	0.1	1036.2
8443	19.026	0.	0.1	1078.6
8444	18.841	0.	0.1	1121.2
8445	18.657	0.	0.1	1164.
8446	18.473	0.	0.1	1207.
8447	18.289	0.	0.1	1250.1
8448	18.105	0.	0.1	1293.5
8449	17.92	0.	0.1	1337.1
8450	17.736	0.	0.1	1380.9
8451	17.552	0.	0.1	1424.8
8452	17.368	0.	0.1	1469.
8453	17.183	0.	0.1	1513.4
8454	16.999	0.	0.1	1557.9
8455	16.815	0.	0.1	1602.7
8456	16.631	0.	0.1	1647.6
8457	16.446	0.	0.1	1692.6
8458	16.262	0.	0.1	1737.8
8459	16.078	0.	0.1	1783.1
8460	15.894	0.	0.1	1828.5
8461	15.709	0.	0.1	1873.9
8462	15.525	0.	0.1	1919.2
8463	15.341	0.	0.1	1964.4
8464	15.157	0.	0.1	2009.4
8465	14.973	0.	0.1	2054.1
8466	14.788	0.	0.1	2098.2
8467	14.604	0.	0.1	2141.5
8468	14.42	0.	0.1	2183.9
8469	14.236	0.	0.1	2224.8
8470	14.051	0.	0.1	2263.9
8471	13.867	0.	0.1	2300.6
8472	13.683	0.	0.1	2334.2
8473	13.499	0.	0.1	2363.9
8474	13.314	0.	0.1	2388.5
8475	13.13	0.	0.1	2406.6
8476	12.946	0.	0.1	2416.6
8477	12.762	0.	0.1	2416.5
8478	12.577	0.	0.1	2403.9
8479	12.393	0.	0.1	2375.6
8480	12.209	0.	0.1	2328.4
8481	12.025	0.	0.1	2258.3
8482	11.841	0.	0.1	2160.9
8483	11.656	0.	0.1	2031.7
8484	11.472	0.	0.1	1866.4
8485	11.288	0.	0.1	1661.1
8486	11.104	0.	0.1	1413.4
8487	10.919	0.	0.1	1122.4
8488	10.735	0.	0.1	789.15
8489	10.551	0.	0.1	405.94
8490	10.367	0.	0.1	42.832
8491	10.2	0.	0.1	47.96
8492	10.018	0.	0.1	469.39
8493	9.8357	0.	0.1	935.12
8494	9.6536	0.	0.1	1358.8
8495	9.4714	0.	0.1	1747.5
8496	9.2893	0.	0.1	2098.7
8497	9.1071	0.	0.1	2411.7
8498	8.925	0.	0.1	2687.5
8499	8.7429	0.	0.1	2928.8
8500	8.5607	0.	0.1	3138.9
8501	8.3786	0.	0.1	3322.
8502	8.1964	0.	0.1	3482.
8503	8.0143	0.	0.1	3622.6
8504	7.8321	0.	0.1	3747.2
8505	7.65	0.	0.1	3858.7
8506	7.4679	0.	0.1	3959.5
8507	7.2857	0.	0.1	4051.7
8508	7.1036	0.	0.1	4137.
8509	6.9214	0.	0.1	4217.
8510	6.7393	0.	0.1	4292.7
8511	6.5571	0.	0.1	4365.1
8512	6.375	0.	0.1	4435.
8513	6.1929	0.	0.1	4503.
8514	6.0107	0.	0.1	4569.6
8515	5.8286	0.	0.1	4635.2
8516	5.6464	0.	0.1	4700.1
8517	5.4643	0.	0.1	4764.7
8518	5.2821	0.	0.1	4829.1
8519	5.1	0.	0.1	4893.4
8520	4.9179	0.	0.1	4958.
8521	4.7357	0.	0.1	5022.7
8522	4.5536	0.	0.1	5087.8
8523	4.3714	0.	0.1	5153.2
8524	4.1893	0.	0.1	5219.1
8525	4.0071	0.	0.1	5285.3
8526	3.825	0.	0.1	5351.8
8527	3.6429	0.	0.1	5418.6
8528	3.4607	0.	0.1	5485.5
8529	3.2786	0.	0.1	5552.3
8530	3.0964	0.	0.1	5618.7
8531	2.9143	0.	0.1	5684.4
8532	2.7321	0.	0.1	5748.9
8533	2.55	0.	0.1	5811.3
8534	2.3679	0.	0.1	5870.9
8535	2.1857	0.	0.1	5926.3
8536	2.0036	0.	0.1	5975.8
8537	1.8214	0.	0.1	6017.2
8538	1.6393	0.	0.1	6047.1
8539	1.4571	0.	0.1	6061.
8540	1.275	0.	0.1	6052.1
8541	1.0929	0.	0.1	6010.
8542	0.91071	0.	0.1	5918.3
8543	0.72857	0.	0.1	5748.8
8544	0.54643	0.	0.1	5446.
8545	0.36429	0.	0.1	4912.1
8546	0.18214	0.	0.1	3772.4
8547	0.	0.	0.1	2245.4
8548	3.937e-014	6.	0.1	2245.4
8549	0.18214	6.	0.1	3772.4
8550	0.36429	6.	0.1	4912.1
8551	0.54643	6.	0.1	5446.
8552	0.72857	6.	0.1	5748.8
8553	0.91071	6.	0.1	5918.3
8554	1.0929	6.	0.1	6010.
8555	1.275	6.	0.1	6052.1
8556	1.4571	6.	0.1	6061.
8557	1.6393	6.	0.1	6047.1
8558	1.8214	6.	0.1	6017.2
8559	2.0036	6.	0.1	5975.8
8560	2.1857	6.	0.1	5926.3
8561	2.3679	6.	0.1	5870.9
8562	2.55	6.	0.1	5811.3
8563	2.7321	6.	0.1	5748.9
8564	2.9143	6.	0.1	5684.4
8565	3.0964	6.	0.1	5618.7
8566	3.2786	6.	0.1	5552.3
8567	3.4607	6.	0.1	5485.5
8568	3.6429	6.	0.1	5418.6
8569	3.825	6.	0.1	5351.8
8570	4.0071	6.	0.1	5285.3
8571	4.1893	6.	0.1	5219.1
8572	4.3714	6.	0.1	5153.2
8573	4.5536	6.	0.1	5087.8
8574	4.7357	6.	0.1	5022.7
8575	4.9179	6.	0.1	4958.
8576	5.1	6.	0.1	4893.4
8577	5.2821	6.	0.1	4829.1
8578	5.4643	6.	0.1	4764.7
8579	5.6464	6.	0.1	4700.1
8580	5.8286	6.	0.1	4635.2
8581	6.0107	6.	0.1	4569.6
8582	6.1929	6.	0.1	4503.
8583	6.375	6.	0.1	4435.
8584	6.5571	6.	0.1	4365.1
8585	6.7393	6.	0.1	4292.7
8586	6.9214	6.	0.1	4217.
8587	7.1036	6.	0.1	4137.
8588	7.2857	6.	0.1	4051.7
8589	7.4679	6.	0.1	3959.5
8590	7.65	6.	0.1	3858.7
8591	7.8321	6.	0.1	3747.2
8592	8.0143	6.	0.1	3622.6
8593	8.1964	6.	0.1	3482.
8594	8.3786	6.	0.1	3322.
8595	8.5607	6.	0.1	3138.9
8596	8.7429	6.	0.1	2928.8
8597	8.925	6.	0.1	2687.5
8598	9.1071	6.	0.1	2411.7
8599	9.2893	6.	0.1	2098.7
8600	9.4714	6.	0.1	1747.5
8601	9.6536	6.	0.1	1358.8
8602	9.8357	6.	0.1	935.12
8603	10.018	6.	0.1	469.39
8604	10.2	6.	0.1	47.96
8605	10.018	6.	0.	469.39
8606	9.8357	6.	0.	935.12
8607	9.6536	6.	0.	1358.8
8608	9.4714	6.	0.	1747.5
8609	9.2893	6.	0.	2098.7
8610	9.1071	6.	0.	2411.7
8611	8.925	6.	0.	2687.5
8612	8.7429	6.	0.	2928.8
8613	8.5607	6.	0.	3138.9
8614	8.3786	6.	0.	3322.
8615	8.1964	6.	0.	3482.
8616	8.0143	6.	0.	3622.6
8617	7.8321	6.	0.	3747.2
8618	7.65	6.	0.	3858.7
8619	7.4679	6.	0.	3959.5
8620	7.2857	6.	0.	4051.7
8621	7.1036	6.	0.	4137.
8622	6.9214	6.	0.	4217.
8623	6.7393	6.	0.	4292.7
8624	6.5571	6.	0.	4365.1
8625	6.375	6.	0.	4435.
8626	6.1929	6.	0.	4503.
8627	6.0107	6.	0.	4569.6
8628	5.8286	6.	0.	4635.2
8629	5.6464	6.	0.	4700.1
8630	5.4643	6.	0.	4764.7
8631	5.2821	6.	0.	4829.1
8632	5.1	6.	0.	4893.4
8633	4.9179	6.	0.	4958.
8634	4.7357	6.	0.	5022.7
8635	4.5536	6.	0.	5087.8
8636	4.3714	6.	0.	5153.2
8637	4.1893	6.	0.	5219.1
8638	4.0071	6.	0.	5285.3
8639	3.825	6.	0.	5351.8
8640	3.6429	6.	0.	5418.6
8641	3.4607	6.	0.	5485.5
8642	3.2786	6.	0.	5552.3
8643	3.0964	6.	0.	5618.7
8644	2.9143	6.	0.	5684.4
8645	2.7321	6.	0.	5748.9
8646	2.55	6.	0.	5811.3
8647	2.3679	6.	0.	5870.9
8648	2.1857	6.	0.	5926.3
8649	2.0036	6.	0.	5975.8
8650	1.8214	6.	0.	6017.2
8651	1.6393	6.	0.	6047.1
8652	1.4571	6.	0.	6061.
8653	1.275	6.	0.	6052.1
8654	1.0929	6.	0.	6010.
8655	0.91071	6.	0.	5918.3
8656	0.72857	6.	0.	5748.8
8657	0.54643	6.	0.	5446.
8658	0.36429	6.	0.	4912.1
8659	0.18214	6.	0.	3772.4
8660	10.2	6.	0.	47.96
8661	3.937e-014	6.	0.	2245.4
8662	0.18214	0.	0.	3772.4
8663	0.36429	0.	0.	4912.1
8664	0.54643	0.	0.	5446.
8665	0.72857	0.	0.	5748.8
8666	0.91071	0.	0.	5918.3
8667	1.0929	0.	0.	6010.
8668	1.275	0.	0.	6052.1
8669	1.4571	0.	0.	6061.
8670	1.6393	0.	0.	6047.1
8671	1.8214	0.	0.	6017.2
8672	2.0036	0.	0.	5975.8
8673	2.1857	0.	0.	5926.3
8674	2.3679	0.	0.	5870.9
8675	2.55	0.	0.	5811.3
8676	2.7321	0.	0.	5748.9
8677	2.9143	0.	0.	5684.4
8678	3.0964	0.	0.	5618.7
8679	3.2786	0.	0.	5552.3
8680	3.4607	0.	0.	5485.5
8681	3.6429	0.	0.	5418.6
8682	3.825	0.	0.	5351.8
8683	4.0071	0.	0.	5285.3
8684	4.1893	0.	0.	5219.1
8685	4.3714	0.	0.	5153.2
8686	4.5536	0.	0.	5087.8
8687	4.7357	0.	0.	5022.7
8688	4.9179	0.	0.	4958.
8689	5.1	0.	0.	4893.4
8690	5.2821	0.	0.	4829.1
8691	5.4643	0.	0.	4764.7
8692	5.6464	0.	0.	4700.1
8693	5.8286	0.	0.	4635.2
8694	6.0107	0.	0.	4569.6
8695	6.1929	0.	0.	4503.
8696	6.375	0.	0.	4435.
8697	6.5571	0.	0.	4365.1
8698	6.7393	0.	0.	4292.7
8699	6.9214	0.	0.	4217.
8700	7.1036	0.	0.	4137.
8701	7.2857	0.	0.	4051.7
8702	7.4679	0.	0.	3959.5
8703	7.65	0.	0.	3858.7
8704	7.8321	0.	0.	3747.2
8705	8.0143	0.	0.	3622.6
8706	8.1964	0.	0.	3482.
8707	8.3786	0.	0.	3322.
8708	8.5607	0.	0.	3138.9
8709	8.7429	0.	0.	2928.8
8710	8.925	0.	0.	2687.5
8711	9.1071	0.	0.	2411.7
8712	9.2893	0.	0.	2098.7
8713	9.4714	0.	0.	1747.5
8714	9.6536	0.	0.	1358.8
8715	9.8357	0.	0.	935.12
8716	10.018	0.	0.	469.39
8717	10.2	0.	0.	47.96
8718	0.	0.	0.	2245.4
8719	10.551	0.	0.	405.94
8720	10.735	0.	0.	789.15
8721	10.919	0.	0.	1122.4
8722	11.104	0.	0.	1413.4
8723	11.288	0.	0.	1661.1
8724	11.472	0.	0.	1866.4
8725	11.656	0.	0.	2031.7
8726	11.841	0.	0.	2160.9
8727	12.025	0.	0.	2258.3
8728	12.209	0.	0.	2328.4
8729	12.393	0.	0.	2375.6
8730	12.577	0.	0.	2403.9
8731	12.762	0.	0.	2416.5
8732	12.946	0.	0.	2416.6
8733	13.13	0.	0.	2406.6
8734	13.314	0.	0.	2388.5
8735	13.499	0.	0.	2363.9
8736	13.683	0.	0.	2334.2
8737	13.867	0.	0.	2300.6
8738	14.051	0.	0.	2263.9
8739	14.236	0.	0.	2224.8
8740	14.42	0.	0.	2183.9
8741	14.604	0.	0.	2141.5
8742	14.788	0.	0.	2098.2
8743	14.973	0.	0.	2054.1
8744	15.157	0.	0.	2009.4
8745	15.341	0.	0.	1964.4
8746	15.525	0.	0.	1919.2
8747	15.709	0.	0.	1873.9
8748	15.894	0.	0.	1828.5
8749	16.078	0.	0.	1783.1
8750	16.262	0.	0.	1737.8
8751	16.446	0.	0.	1692.6
8752	16.631	0.	0.	1647.6
8753	16.815	0.	0.	1602.7
8754	16.999	0.	0.	1557.9
8755	17.183	0.	0.	1513.4
8756	17.368	0.	0.	1469.
8757	17.552	0.	0.	1424.8
8758	17.736	0.	0.	1380.9
8759	17.92	0.	0.	1337.1
8760	18.105	0.	0.	1293.5
8761	18.289	0.	0.	1250.1
8762	18.473	0.	0.	1207.
8763	18.657	0.	0.	1164.
8764	18.841	0.	0.	1121.2
8765	19.026	0.	0.	1078.6
8766	19.21	0.	0.	1036.2
8767	19.394	0.	0.	993.94
8768	19.578	0.	0.	951.9
8769	19.763	0.	0.	910.03
8770	19.947	0.	0.	868.34
8771	20.131	0.	0.	826.81
8772	20.315	0.	0.	785.46
8773	20.5	0.	0.	744.27
8774	20.684	0.	0.	703.25
8775	20.868	0.	0.	662.38
8776	21.052	0.	0.	621.67
8777	21.236	0.	0.	581.12
8778	21.421	0.	0.	540.73
8779	21.605	0.	0.	500.5
8780	21.789	0.	0.	460.43
8781	21.973	0.	0.	420.53
8782	22.158	0.	0.	380.8
8783	22.342	0.	0.	341.28
8784	22.526	0.	0.	301.97
8785	22.71	0.	0.	262.92
8786	22.895	0.	0.	224.17
8787	23.079	0.	0.	185.8
8788	23.263	0.	0.	147.93
8789	23.447	0.	0.	110.75
8790	23.632	0.	0.	74.744
8791	23.816	0.	0.	40.014
8792	10.367	0.	0.	42.832
8793	24.	0.	0.	9.4656
8794	5.0862e-014	5.8182	0.	1373.5
8795	4.9273e-014	5.6364	0.	2362.6
8796	4.7683e-014	5.4545	0.	2882.5
8797	4.6094e-014	5.2727	0.	3211.4
8798	4.4504e-014	5.0909	0.	3431.1
8799	4.2915e-014	4.9091	0.	3587.9
8800	4.1325e-014	4.7273	0.	3704.
8801	3.9736e-014	4.5455	0.	3792.1
8802	3.8147e-014	4.3636	0.	3859.8
8803	3.6557e-014	4.1818	0.	3912.4
8804	3.4968e-014	4.	0.	3953.1
8805	3.3378e-014	3.8182	0.	3984.4
8806	3.1789e-014	3.6364	0.	4007.8
8807	3.0199e-014	3.4545	0.	4024.5
8808	2.861e-014	3.2727	0.	4035.2
8809	2.702e-014	3.0909	0.	4040.4
8810	2.5431e-014	2.9091	0.	4040.4
8811	2.3842e-014	2.7273	0.	4035.2
8812	2.2252e-014	2.5455	0.	4024.5
8813	2.0663e-014	2.3636	0.	4007.8
8814	1.9073e-014	2.1818	0.	3984.4
8815	1.7484e-014	2.	0.	3953.1
8816	1.5894e-014	1.8182	0.	3912.4
8817	1.4305e-014	1.6364	0.	3859.8
8818	1.2716e-014	1.4545	0.	3792.1
8819	1.1126e-014	1.2727	0.	3704.
8820	9.5366e-015	1.0909	0.	3587.9
8821	7.9472e-015	0.90909	0.	3431.1
8822	6.3578e-015	0.72727	0.	3211.4
8823	4.7683e-015	0.54545	0.	2882.5
8824	3.1789e-015	0.36364	0.	2362.6
8825	1.5894e-015	0.18182	0.	1373.5
8826	24.	0.18182	0.	39.346
8827	24.	0.36364	0.	66.343
8828	24.	0.54545	0.	87.089
8829	24.	0.72727	0.	104.34
8830	24.	0.90909	0.	119.02
8831	24.	1.0909	0.	131.67
8832	24.	1.2727	0.	142.61
8833	24.	1.4545	0.	152.06
8834	24.	1.6364	0.	160.19
8835	24.	1.8182	0.	167.12
8836	24.	2.	0.	172.92
8837	24.	2.1818	0.	177.66
8838	24.	2.3636	0.	181.41
8839	24.	2.5455	0.	184.18
8840	24.	2.7273	0.	186.02
8841	24.	2.9091	0.	186.94
8842	24.	3.0909	0.	186.94
8843	24.	3.2727	0.	186.02
8844	24.	3.4545	0.	184.18
8845	24.	3.6364	0.	181.41
8846	24.	3.8182	0.	177.66
8847	24.	4.	0.	172.92
8848	24.	4.1818	0.	167.12
8849	24.	4.3636	0.	160.19
8850	24.	4.5455	0.	152.06
8851	24.	4.7273	0.	142.61
8852	24.	4.9091	0.	131.67
8853	24.	5.0909	0.	119.02
8854	24.	5.2727	0.	104.34
8855	24.	5.4545	0.	87.089
8856	24.	5.6364	0.	66.342
8857	24.	5.8182	0.	39.346
8858	24.	6.	0.	9.4656
8859	23.816	6.	0.	40.014
8860	23.632	6.	0.	74.744
8861	23.447	6.	0.	110.75
8862	23.263	6.	0.	147.93
8863	23.079	6.	0.	185.8
8864	22.895	6.	0.	224.17
8865	22.71	6.	0.	262.92
8866	22.526	6.	0.	301.97
8867	22.342	6.	0.	341.28
8868	22.158	6.	0.	380.8
8869	21.973	6.	0.	420.53
8870	21.789	6.	0.	460.43
8871	21.605	6.	0.	500.5
8872	21.421	6.	0.	540.73
8873	21.236	6.	0.	581.12
8874	21.052	6.	0.	621.67
8875	20.868	6.	0.	662.38
8876	20.684	6.	0.	703.25
8877	20.5	6.	0.	744.27
8878	20.315	6.	0.	785.46
8879	20.131	6.	0.	826.81
8880	19.947	6.	0.	868.34
8881	19.763	6.	0.	910.03
8882	19.578	6.	0.	951.9
8883	19.394	6.	0.	993.94
8884	19.21	6.	0.	1036.2
8885	19.026	6.	0.	1078.6
8886	18.841	6.	0.	1121.2
8887	18.657	6.	0.	1164.
8888	18.473	6.	0.	1207.
8889	18.289	6.	0.	1250.1
8890	18.105	6.	0.	1293.5
8891	17.92	6.	0.	1337.1
8892	17.736	6.	0.	1380.9
8893	17.552	6.	0.	1424.8
8894	17.368	6.	0.	1469.
8895	17.183	6.	0.	1513.4
8896	16.999	6.	0.	1557.9
8897	16.815	6.	0.	1602.7
8898	16.631	6.	0.	1647.6
8899	16.446	6.	0.	1692.6
8900	16.262	6.	0.	1737.8
8901	16.078	6.	0.	1783.1
8902	15.894	6.	0.	1828.5
8903	15.709	6.	0.	1873.9
8904	15.525	6.	0.	1919.2
8905	15.341	6.	0.	1964.4
8906	15.157	6.	0.	2009.4
8907	14.973	6.	0.	2054.1
8908	14.788	6.	0.	2098.2
8909	14.604	6.	0.	2141.5
8910	14.42	6.	0.	2183.9
8911	14.236	6.	0.	2224.8
8912	14.051	6.	0.	2263.9
8913	13.867	6.	0.	2300.6
8914	13.683	6.	0.	2334.2
8915	13.499	6.	0.	2363.9
8916	13.314	6.	0.	2388.5
8917	13.13	6.	0.	2406.6
8918	12.946	6.	0.	2416.6
8919	12.762	6.	0.	2416.5
8920	12.577	6.	0.	2403.9
8921	12.393	6.	0.	2375.6
8922	12.209	6.	0.	2328.4
8923	12.025	6.	0.	2258.3
8924	11.841	6.	0.	2160.9
8925	11.656	6.	0.	2031.7
8926	11.472	6.	0.	1866.4
8927	11.288	6.	0.	1661.1
8928	11.104	6.	0.	1413.4
8929	10.919	6.	0.	1122.4
8930	10.735	6.	0.	789.15
8931	10.551	6.	0.	405.94
8932	10.367	6.	0.	42.832
8933	10.2	1.8182	0.	7364.4
8934	10.2	1.6364	0.	4253.8
8935	10.2	1.4545	0.	3344.2
8936	10.2	1.2727	0.	2621.
8937	10.2	1.0909	0.	2096.9
8938	10.2	0.90909	0.	1674.5
8939	10.2	0.72727	0.	1315.3
8940	10.2	0.54545	0.	994.75
8941	10.2	0.36364	0.	693.54
8942	10.2	0.18182	0.	378.62
8943	10.2	2.	0.	18492
8944	10.367	0.18182	0.	338.42
8945	10.367	0.36364	0.	620.96
8946	10.367	0.54545	0.	888.54
8947	10.367	0.72727	0.	1172.
8948	10.367	0.90909	0.	1489.9
8949	10.367	1.0909	0.	1866.1
8950	10.367	1.2727	0.	2337.6
8951	10.367	1.4545	0.	2994.1
8952	10.367	1.6364	0.	3820.8
8953	10.367	1.8182	0.	6661.
8954	10.367	2.	0.	17721
8955	10.2	4.1818	0.	7364.4
8956	10.2	4.3636	0.	4253.8
8957	10.2	4.5455	0.	3344.2
8958	10.2	4.7273	0.	2621.
8959	10.2	4.9091	0.	2096.9
8960	10.2	5.0909	0.	1674.5
8961	10.2	5.2727	0.	1315.3
8962	10.2	5.4545	0.	994.75
8963	10.2	5.6364	0.	693.54
8964	10.2	5.8182	0.	378.62
8965	10.2	4.	0.	18492
8966	10.367	5.8182	0.	338.42
8967	10.367	5.6364	0.	620.96
8968	10.367	5.4545	0.	888.54
8969	10.367	5.2727	0.	1172.
8970	10.367	5.0909	0.	1489.9
8971	10.367	4.9091	0.	1866.1
8972	10.367	4.7273	0.	2337.6
8973	10.367	4.5455	0.	2994.1
8974	10.367	4.3636	0.	3820.8
8975	10.367	4.1818	0.	6661.
8976	10.367	4.	0.	17721
8977	10.2	2.2727	0.	11224
8978	10.283	2.1818	0.	12277
8979	10.109	2.1818	0.	10816
8980	10.2	2.1818	5.e-002	744.35
8981	10.2	2.0909	0.	15137
8982	10.2	2.4545	0.	9340.3
8983	10.283	2.3636	0.	9844.5
8984	10.109	2.3636	0.	9309.
8985	10.2	2.3636	5.e-002	126.11
8986	10.2	2.6364	0.	8455.3
8987	10.283	2.5455	0.	8713.5
8988	10.109	2.5455	0.	8435.2
8989	10.2	2.5455	5.e-002	60.302
8990	10.2	2.8182	0.	8024.1
8991	10.283	2.7273	0.	8118.9
8992	10.109	2.7273	0.	7959.8
8993	10.2	2.7273	5.e-002	31.13
8994	10.2	3.	0.	7895.
8995	10.283	2.9091	0.	7863.7
8996	10.109	2.9091	0.	7747.4
8997	10.2	2.9091	5.e-002	17.482
8998	10.2	3.1818	0.	8024.1
8999	10.283	3.0909	0.	7863.7
9000	10.109	3.0909	0.	7747.4
9001	10.2	3.0909	5.e-002	17.482
9002	10.2	3.3636	0.	8455.3
9003	10.283	3.2727	0.	8118.9
9004	10.109	3.2727	0.	7959.8
9005	10.2	3.2727	5.e-002	31.13
9006	10.2	3.5455	0.	9340.3
9007	10.283	3.4545	0.	8713.5
9008	10.109	3.4545	0.	8435.2
9009	10.2	3.4545	5.e-002	60.302
9010	10.2	3.7273	0.	11224
9011	10.283	3.6364	0.	9844.5
9012	10.109	3.6364	0.	9309.
9013	10.2	3.6364	5.e-002	126.11
9014	10.283	3.8182	0.	12277
9015	10.109	3.8182	0.	10816
9016	10.2	3.8182	5.e-002	744.35
9017	10.2	3.9091	0.	15137
9018	10.367	2.2727	0.	11108
9019	10.459	2.1818	0.	10584
9020	10.367	2.1818	5.e-002	674.62
9021	10.367	2.0909	0.	14695
9022	10.367	2.4545	0.	9279.7
9023	10.459	2.3636	0.	9174.
9024	10.367	2.3636	5.e-002	136.37
9025	10.367	2.6364	0.	8393.1
9026	10.459	2.5455	0.	8302.9
9027	10.367	2.5455	5.e-002	65.863
9028	10.367	2.8182	0.	7961.6
9029	10.459	2.7273	0.	7828.5
9030	10.367	2.7273	5.e-002	36.598
9031	10.367	3.	0.	7832.3
9032	10.459	2.9091	0.	7615.9
9033	10.367	2.9091	5.e-002	24.162
9034	10.367	3.1818	0.	7961.6
9035	10.459	3.0909	0.	7615.9
9036	10.367	3.0909	5.e-002	24.162
9037	10.367	3.3636	0.	8393.1
9038	10.459	3.2727	0.	7828.5
9039	10.367	3.2727	5.e-002	36.598
9040	10.367	3.5455	0.	9279.7
9041	10.459	3.4545	0.	8302.9
9042	10.367	3.4545	5.e-002	65.863
9043	10.367	3.7273	0.	11108
9044	10.459	3.6364	0.	9174.
9045	10.367	3.6364	5.e-002	136.37
9046	10.459	3.8182	0.	10584
9047	10.367	3.8182	5.e-002	674.62
9048	10.367	3.9091	0.	14695
9049	10.018	5.7273	0.	862.88
9050	9.9268	5.8182	0.	869.89
9051	10.018	5.8182	5.e-002	93.276
9052	10.018	5.9091	0.	552.51
9053	10.109	5.8182	0.	485.12
9054	10.018	5.5455	0.	1241.5
9055	9.9268	5.6364	0.	1114.
9056	10.018	5.6364	5.e-002	84.113
9057	10.109	5.6364	0.	801.21
9058	10.018	5.3636	0.	1687.
9059	9.9268	5.4545	0.	1471.2
9060	10.018	5.4545	5.e-002	88.779
9061	10.109	5.4545	0.	1150.8
9062	10.018	5.1818	0.	2190.7
9063	9.9268	5.2727	0.	1896.
9064	10.018	5.2727	5.e-002	98.493
9065	10.109	5.2727	0.	1532.8
9066	10.018	5.	0.	2772.
9067	9.9268	5.0909	0.	2387.2
9068	10.018	5.0909	5.e-002	113.21
9069	10.109	5.0909	0.	1962.5
9070	10.018	4.8182	0.	3468.
9071	9.9268	4.9091	0.	2961.1
9072	10.018	4.9091	5.e-002	134.16
9073	10.109	4.9091	0.	2464.7
9074	10.018	4.6364	0.	4344.7
9075	9.9268	4.7273	0.	3650.9
9076	10.018	4.7273	5.e-002	166.69
9077	10.109	4.7273	0.	3080.3
9078	10.018	4.4545	0.	5543.
9079	9.9268	4.5455	0.	4505.5
9080	10.018	4.5455	5.e-002	208.11
9081	10.109	4.5455	0.	3894.7
9082	10.018	4.2727	0.	7250.4
9083	9.9268	4.3636	0.	5618.
9084	10.018	4.3636	5.e-002	313.31
9085	10.109	4.3636	0.	4984.4
9086	10.018	4.0909	0.	8977.1
9087	9.9268	4.1818	0.	7131.5
9088	10.018	4.1818	5.e-002	601.24
9089	10.109	4.1818	0.	7157.5
9090	10.018	3.9091	0.	9461.5
9091	9.9268	4.	0.	8250.6
9092	10.018	4.	5.e-002	1079.
9093	10.109	4.	0.	13957
9094	10.018	3.7273	0.	9020.3
9095	9.9268	3.8182	0.	8236.2
9096	10.018	3.8182	5.e-002	485.72
9097	10.018	3.5455	0.	8436.4
9098	9.9268	3.6364	0.	8004.4
9099	10.018	3.6364	5.e-002	208.45
9100	10.018	3.3636	0.	7949.6
9101	9.9268	3.4545	0.	7671.6
9102	10.018	3.4545	5.e-002	114.42
9103	10.018	3.1818	0.	7684.2
9104	9.9268	3.2727	0.	7443.2
9105	10.018	3.2727	5.e-002	67.726
9106	10.018	3.	0.	7598.5
9107	9.9268	3.0909	0.	7327.8
9108	10.018	3.0909	5.e-002	51.449
9109	10.018	2.8182	0.	7684.2
9110	9.9268	2.9091	0.	7327.8
9111	10.018	2.9091	5.e-002	51.449
9112	10.018	2.6364	0.	7949.6
9113	9.9268	2.7273	0.	7443.2
9114	10.018	2.7273	5.e-002	67.726
9115	10.018	2.4545	0.	8436.4
9116	9.9268	2.5455	0.	7671.6
9117	10.018	2.5455	5.e-002	114.42
9118	10.018	2.2727	0.	9020.3
9119	9.9268	2.3636	0.	8004.4
9120	10.018	2.3636	5.e-002	208.45
9121	10.018	2.0909	0.	9461.5
9122	9.9268	2.1818	0.	8236.2
9123	10.018	2.1818	5.e-002	485.72
9124	10.018	1.9091	0.	8977.1
9125	9.9268	2.	0.	8250.6
9126	10.018	2.	5.e-002	1079.
9127	10.109	2.	0.	13957
9128	10.018	1.7273	0.	7250.4
9129	9.9268	1.8182	0.	7131.5
9130	10.018	1.8182	5.e-002	601.24
9131	10.109	1.8182	0.	7157.5
9132	10.018	1.5455	0.	5543.
9133	9.9268	1.6364	0.	5618.
9134	10.018	1.6364	5.e-002	313.31
9135	10.109	1.6364	0.	4984.4
9136	10.018	1.3636	0.	4344.7
9137	9.9268	1.4545	0.	4505.5
9138	10.018	1.4545	5.e-002	208.11
9139	10.109	1.4545	0.	3894.7
9140	10.018	1.1818	0.	3468.
9141	9.9268	1.2727	0.	3650.9
9142	10.018	1.2727	5.e-002	166.69
9143	10.109	1.2727	0.	3080.3
9144	10.018	1.	0.	2772.
9145	9.9268	1.0909	0.	2961.1
9146	10.018	1.0909	5.e-002	134.16
9147	10.109	1.0909	0.	2464.7
9148	10.018	0.81818	0.	2190.7
9149	9.9268	0.90909	0.	2387.2
9150	10.018	0.90909	5.e-002	113.21
9151	10.109	0.90909	0.	1962.5
9152	10.018	0.63636	0.	1687.
9153	9.9268	0.72727	0.	1896.
9154	10.018	0.72727	5.e-002	98.493
9155	10.109	0.72727	0.	1532.8
9156	10.018	0.45455	0.	1241.5
9157	9.9268	0.54545	0.	1471.2
9158	10.018	0.54545	5.e-002	88.779
9159	10.109	0.54545	0.	1150.8
9160	10.018	0.27273	0.	862.88
9161	9.9268	0.36364	0.	1114.
9162	10.018	0.36364	5.e-002	84.113
9163	10.109	0.36364	0.	801.21
9164	9.9268	0.18182	0.	869.89
9165	10.018	0.18182	5.e-002	93.276
9166	10.018	9.0909e-002	0.	552.51
9167	10.109	0.18182	0.	485.12
9168	9.8357	5.7273	0.	1159.9
9169	9.7446	5.8182	0.	1271.2
9170	9.8357	5.8182	5.e-002	85.433
9171	9.8357	5.9091	0.	984.69
9172	9.8357	5.5455	0.	1400.9
9173	9.7446	5.6364	0.	1422.1
9174	9.8357	5.6364	5.e-002	74.941
9175	9.8357	5.3636	0.	1741.4
9176	9.7446	5.4545	0.	1680.6
9177	9.8357	5.4545	5.e-002	75.671
9178	9.8357	5.1818	0.	2156.6
9179	9.7446	5.2727	0.	2020.
9180	9.8357	5.2727	5.e-002	79.707
9181	9.8357	5.	0.	2646.6
9182	9.7446	5.0909	0.	2430.9
9183	9.8357	5.0909	5.e-002	86.783
9184	9.8357	4.8182	0.	3226.9
9185	9.7446	4.9091	0.	2915.3
9186	9.8357	4.9091	5.e-002	97.355
9187	9.8357	4.6364	0.	3916.3
9188	9.7446	4.7273	0.	3483.3
9189	9.8357	4.7273	5.e-002	110.78
9190	9.8357	4.4545	0.	4734.1
9191	9.7446	4.5455	0.	4141.1
9192	9.8357	4.5455	5.e-002	136.14
9193	9.8357	4.2727	0.	5635.7
9194	9.7446	4.3636	0.	4885.8
9195	9.8357	4.3636	5.e-002	130.18
9196	9.8357	4.0909	0.	6373.3
9197	9.7446	4.1818	0.	5623.3
9198	9.8357	4.1818	5.e-002	188.92
9199	9.8357	3.9091	0.	6897.9
9200	9.7446	4.	0.	6155.8
9201	9.8357	4.	5.e-002	164.78
9202	9.8357	3.7273	0.	7180.6
9203	9.7446	3.8182	0.	6548.8
9204	9.8357	3.8182	5.e-002	231.74
9205	9.8357	3.5455	0.	7225.8
9206	9.7446	3.6364	0.	6743.4
9207	9.8357	3.6364	5.e-002	159.92
9208	9.8357	3.3636	0.	7158.8
9209	9.7446	3.4545	0.	6789.6
9210	9.8357	3.4545	5.e-002	118.82
9211	9.8357	3.1818	0.	7081.9
9212	9.7446	3.2727	0.	6767.9
9213	9.8357	3.2727	5.e-002	84.769
9214	9.8357	3.	0.	7052.3
9215	9.7446	3.0909	0.	6745.1
9216	9.8357	3.0909	5.e-002	70.259
9217	9.8357	2.8182	0.	7081.9
9218	9.7446	2.9091	0.	6745.1
9219	9.8357	2.9091	5.e-002	70.259
9220	9.8357	2.6364	0.	7158.8
9221	9.7446	2.7273	0.	6767.9
9222	9.8357	2.7273	5.e-002	84.769
9223	9.8357	2.4545	0.	7225.8
9224	9.7446	2.5455	0.	6789.6
9225	9.8357	2.5455	5.e-002	118.82
9226	9.8357	2.2727	0.	7180.6
9227	9.7446	2.3636	0.	6743.4
9228	9.8357	2.3636	5.e-002	159.92
9229	9.8357	2.0909	0.	6897.9
9230	9.7446	2.1818	0.	6548.8
9231	9.8357	2.1818	5.e-002	231.74
9232	9.8357	1.9091	0.	6373.3
9233	9.7446	2.	0.	6155.8
9234	9.8357	2.	5.e-002	164.78
9235	9.8357	1.7273	0.	5635.7
9236	9.7446	1.8182	0.	5623.3
9237	9.8357	1.8182	5.e-002	188.92
9238	9.8357	1.5455	0.	4734.1
9239	9.7446	1.6364	0.	4885.8
9240	9.8357	1.6364	5.e-002	130.18
9241	9.8357	1.3636	0.	3916.3
9242	9.7446	1.4545	0.	4141.1
9243	9.8357	1.4545	5.e-002	136.14
9244	9.8357	1.1818	0.	3226.9
9245	9.7446	1.2727	0.	3483.3
9246	9.8357	1.2727	5.e-002	110.78
9247	9.8357	1.	0.	2646.6
9248	9.7446	1.0909	0.	2915.3
9249	9.8357	1.0909	5.e-002	97.355
9250	9.8357	0.81818	0.	2156.6
9251	9.7446	0.90909	0.	2430.9
9252	9.8357	0.90909	5.e-002	86.783
9253	9.8357	0.63636	0.	1741.4
9254	9.7446	0.72727	0.	2020.
9255	9.8357	0.72727	5.e-002	79.707
9256	9.8357	0.45455	0.	1400.9
9257	9.7446	0.54545	0.	1680.6
9258	9.8357	0.54545	5.e-002	75.671
9259	9.8357	0.27273	0.	1159.9
9260	9.7446	0.36364	0.	1422.1
9261	9.8357	0.36364	5.e-002	74.941
9262	9.7446	0.18182	0.	1271.2
9263	9.8357	0.18182	5.e-002	85.433
9264	9.8357	9.0909e-002	0.	984.69
9265	9.6536	5.7273	0.	1542.
9266	9.5625	5.8182	0.	1662.6
9267	9.6536	5.8182	5.e-002	80.805
9268	9.6536	5.9091	0.	1404.1
9269	9.6536	5.5455	0.	1723.3
9270	9.5625	5.6364	0.	1786.2
9271	9.6536	5.6364	5.e-002	70.783
9272	9.6536	5.3636	0.	1992.
9273	9.5625	5.4545	0.	1990.
9274	9.6536	5.4545	5.e-002	71.01
9275	9.6536	5.1818	0.	2334.8
9276	9.5625	5.2727	0.	2265.1
9277	9.6536	5.2727	5.e-002	73.263
9278	9.6536	5.	0.	2746.5
9279	9.5625	5.0909	0.	2605.4
9280	9.6536	5.0909	5.e-002	76.862
9281	9.6536	4.8182	0.	3225.
9282	9.5625	4.9091	0.	3006.4
9283	9.6536	4.9091	5.e-002	81.4
9284	9.6536	4.6364	0.	3766.9
9285	9.5625	4.7273	0.	3462.7
9286	9.6536	4.7273	5.e-002	85.383
9287	9.6536	4.4545	0.	4345.9
9288	9.5625	4.5455	0.	3963.7
9289	9.6536	4.5455	5.e-002	84.29
9290	9.6536	4.2727	0.	4907.
9291	9.5625	4.3636	0.	4472.3
9292	9.6536	4.3636	5.e-002	82.979
9293	9.6536	4.0909	0.	5398.5
9294	9.5625	4.1818	0.	4938.6
9295	9.6536	4.1818	5.e-002	79.785
9296	9.6536	3.9091	0.	5792.6
9297	9.5625	4.	0.	5329.4
9298	9.6536	4.	5.e-002	102.75
9299	9.6536	3.7273	0.	6095.
9300	9.5625	3.8182	0.	5643.8
9301	9.6536	3.8182	5.e-002	111.94
9302	9.6536	3.5455	0.	6293.3
9303	9.5625	3.6364	0.	5889.1
9304	9.6536	3.6364	5.e-002	112.17
9305	9.6536	3.3636	0.	6388.7
9306	9.5625	3.4545	0.	6040.6
9307	9.6536	3.4545	5.e-002	95.078
9308	9.6536	3.1818	0.	6423.5
9309	9.5625	3.2727	0.	6117.5
9310	9.6536	3.2727	5.e-002	81.286
9311	9.6536	3.	0.	6431.
9312	9.5625	3.0909	0.	6147.4
9313	9.6536	3.0909	5.e-002	73.247
9314	9.6536	2.8182	0.	6423.5
9315	9.5625	2.9091	0.	6147.4
9316	9.6536	2.9091	5.e-002	73.247
9317	9.6536	2.6364	0.	6388.7
9318	9.5625	2.7273	0.	6117.5
9319	9.6536	2.7273	5.e-002	81.286
9320	9.6536	2.4545	0.	6293.3
9321	9.5625	2.5455	0.	6040.6
9322	9.6536	2.5455	5.e-002	95.078
9323	9.6536	2.2727	0.	6095.
9324	9.5625	2.3636	0.	5889.1
9325	9.6536	2.3636	5.e-002	112.17
9326	9.6536	2.0909	0.	5792.6
9327	9.5625	2.1818	0.	5643.8
9328	9.6536	2.1818	5.e-002	111.94
9329	9.6536	1.9091	0.	5398.5
9330	9.5625	2.	0.	5329.4
9331	9.6536	2.	5.e-002	102.75
9332	9.6536	1.7273	0.	4907.
9333	9.5625	1.8182	0.	4938.6
9334	9.6536	1.8182	5.e-002	79.785
9335	9.6536	1.5455	0.	4345.9
9336	9.5625	1.6364	0.	4472.3
9337	9.6536	1.6364	5.e-002	82.979
9338	9.6536	1.3636	0.	3766.9
9339	9.5625	1.4545	0.	3963.7
9340	9.6536	1.4545	5.e-002	84.29
9341	9.6536	1.1818	0.	3225.
9342	9.5625	1.2727	0.	3462.7
9343	9.6536	1.2727	5.e-002	85.383
9344	9.6536	1.	0.	2746.5
9345	9.5625	1.0909	0.	3006.4
9346	9.6536	1.0909	5.e-002	81.4
9347	9.6536	0.81818	0.	2334.8
9348	9.5625	0.90909	0.	2605.4
9349	9.6536	0.90909	5.e-002	76.862
9350	9.6536	0.63636	0.	1992.
9351	9.5625	0.72727	0.	2265.1
9352	9.6536	0.72727	5.e-002	73.263
9353	9.6536	0.45455	0.	1723.3
9354	9.5625	0.54545	0.	1990.
9355	9.6536	0.54545	5.e-002	71.01
9356	9.6536	0.27273	0.	1542.
9357	9.5625	0.36364	0.	1786.2
9358	9.6536	0.36364	5.e-002	70.783
9359	9.5625	0.18182	0.	1662.6
9360	9.6536	0.18182	5.e-002	80.805
9361	9.6536	9.0909e-002	0.	1404.1
9362	9.4714	5.7273	0.	1910.4
9363	9.3804	5.8182	0.	2020.9
9364	9.4714	5.8182	5.e-002	74.516
9365	9.4714	5.9091	0.	1790.5
9366	9.4714	5.5455	0.	2062.2
9367	9.3804	5.6364	0.	2133.1
9368	9.4714	5.6364	5.e-002	64.742
9369	9.4714	5.3636	0.	2280.5
9370	9.3804	5.4545	0.	2302.8
9371	9.4714	5.4545	5.e-002	64.351
9372	9.4714	5.1818	0.	2560.1
9373	9.3804	5.2727	0.	2527.8
9374	9.4714	5.2727	5.e-002	64.95
9375	9.4714	5.	0.	2895.1
9376	9.3804	5.0909	0.	2804.7
9377	9.4714	5.0909	5.e-002	65.685
9378	9.4714	4.8182	0.	3277.4
9379	9.3804	4.9091	0.	3127.2
9380	9.4714	4.9091	5.e-002	65.803
9381	9.4714	4.6364	0.	3692.7
9382	9.3804	4.7273	0.	3484.8
9383	9.4714	4.7273	5.e-002	64.091
9384	9.4714	4.4545	0.	4117.5
9385	9.3804	4.5455	0.	3860.7
9386	9.4714	4.5455	5.e-002	59.959
9387	9.4714	4.2727	0.	4518.9
9388	9.3804	4.3636	0.	4230.1
9389	9.4714	4.3636	5.e-002	54.755
9390	9.4714	4.0909	0.	4874.1
9391	9.3804	4.1818	0.	4565.5
9392	9.4714	4.1818	5.e-002	55.7
9393	9.4714	3.9091	0.	5179.5
9394	9.3804	4.	0.	4858.2
9395	9.4714	4.	5.e-002	64.382
9396	9.4714	3.7273	0.	5433.6
9397	9.3804	3.8182	0.	5110.
9398	9.4714	3.8182	5.e-002	71.739
9399	9.4714	3.5455	0.	5629.9
9400	9.3804	3.6364	0.	5318.6
9401	9.4714	3.6364	5.e-002	74.732
9402	9.4714	3.3636	0.	5762.5
9403	9.3804	3.4545	0.	5475.6
9404	9.4714	3.4545	5.e-002	72.893
9405	9.4714	3.1818	0.	5834.9
9406	9.3804	3.2727	0.	5575.2
9407	9.4714	3.2727	5.e-002	68.939
9408	9.4714	3.	0.	5857.4
9409	9.3804	3.0909	0.	5622.3
9410	9.4714	3.0909	5.e-002	66.11
9411	9.4714	2.8182	0.	5834.9
9412	9.3804	2.9091	0.	5622.3
9413	9.4714	2.9091	5.e-002	66.11
9414	9.4714	2.6364	0.	5762.5
9415	9.3804	2.7273	0.	5575.2
9416	9.4714	2.7273	5.e-002	68.939
9417	9.4714	2.4545	0.	5629.9
9418	9.3804	2.5455	0.	5475.6
9419	9.4714	2.5455	5.e-002	72.893
9420	9.4714	2.2727	0.	5433.6
9421	9.3804	2.3636	0.	5318.6
9422	9.4714	2.3636	5.e-002	74.732
9423	9.4714	2.0909	0.	5179.5
9424	9.3804	2.1818	0.	5110.
9425	9.4714	2.1818	5.e-002	71.739
9426	9.4714	1.9091	0.	4874.1
9427	9.3804	2.	0.	4858.2
9428	9.4714	2.	5.e-002	64.382
9429	9.4714	1.7273	0.	4518.9
9430	9.3804	1.8182	0.	4565.5
9431	9.4714	1.8182	5.e-002	55.7
9432	9.4714	1.5455	0.	4117.5
9433	9.3804	1.6364	0.	4230.1
9434	9.4714	1.6364	5.e-002	54.755
9435	9.4714	1.3636	0.	3692.7
9436	9.3804	1.4545	0.	3860.7
9437	9.4714	1.4545	5.e-002	59.959
9438	9.4714	1.1818	0.	3277.4
9439	9.3804	1.2727	0.	3484.8
9440	9.4714	1.2727	5.e-002	64.091
9441	9.4714	1.	0.	2895.1
9442	9.3804	1.0909	0.	3127.2
9443	9.4714	1.0909	5.e-002	65.803
9444	9.4714	0.81818	0.	2560.1
9445	9.3804	0.90909	0.	2804.7
9446	9.4714	0.90909	5.e-002	65.685
9447	9.4714	0.63636	0.	2280.5
9448	9.3804	0.72727	0.	2527.8
9449	9.4714	0.72727	5.e-002	64.95
9450	9.4714	0.45455	0.	2062.2
9451	9.3804	0.54545	0.	2302.8
9452	9.4714	0.54545	5.e-002	64.351
9453	9.4714	0.27273	0.	1910.4
9454	9.3804	0.36364	0.	2133.1
9455	9.4714	0.36364	5.e-002	64.742
9456	9.3804	0.18182	0.	2020.9
9457	9.4714	0.18182	5.e-002	74.516
9458	9.4714	9.0909e-002	0.	1790.5
9459	9.2893	5.7273	0.	2245.5
9460	9.1982	5.8182	0.	2341.6
9461	9.2893	5.8182	5.e-002	67.134
9462	9.2893	5.9091	0.	2138.8
9463	9.2893	5.5455	0.	2378.4
9464	9.1982	5.6364	0.	2445.5
9465	9.2893	5.6364	5.e-002	58.012
9466	9.2893	5.3636	0.	2559.5
9467	9.1982	5.4545	0.	2590.2
9468	9.2893	5.4545	5.e-002	57.017
9469	9.2893	5.1818	0.	2786.6
9470	9.1982	5.2727	0.	2775.3
9471	9.2893	5.2727	5.e-002	56.389
9472	9.2893	5.	0.	3054.6
9473	9.1982	5.0909	0.	2998.6
9474	9.2893	5.0909	5.e-002	55.302
9475	9.2893	4.8182	0.	3354.4
9476	9.1982	4.9091	0.	3253.7
9477	9.2893	4.9091	5.e-002	53.193
9478	9.2893	4.6364	0.	3671.8
9479	9.1982	4.7273	0.	3530.5
9480	9.2893	4.7273	5.e-002	49.63
9481	9.2893	4.4545	0.	3988.4
9482	9.1982	4.5455	0.	3814.3
9483	9.2893	4.5455	5.e-002	44.814
9484	9.2893	4.2727	0.	4286.2
9485	9.1982	4.3636	0.	4088.6
9486	9.2893	4.3636	5.e-002	41.047
9487	9.2893	4.0909	0.	4554.2
9488	9.1982	4.1818	0.	4340.2
9489	9.2893	4.1818	5.e-002	41.617
9490	9.2893	3.9091	0.	4790.2
9491	9.1982	4.	0.	4563.8
9492	9.2893	4.	5.e-002	45.595
9493	9.2893	3.7273	0.	4994.5
9494	9.1982	3.8182	0.	4760.6
9495	9.2893	3.8182	5.e-002	49.902
9496	9.2893	3.5455	0.	5161.8
9497	9.1982	3.6364	0.	4929.
9498	9.2893	3.6364	5.e-002	53.176
9499	9.2893	3.3636	0.	5284.5
9500	9.1982	3.4545	0.	5062.1
9501	9.2893	3.4545	5.e-002	54.921
9502	9.2893	3.1818	0.	5358.2
9503	9.1982	3.2727	0.	5153.3
9504	9.2893	3.2727	5.e-002	55.164
9505	9.2893	3.	0.	5382.7
9506	9.1982	3.0909	0.	5199.2
9507	9.2893	3.0909	5.e-002	54.918
9508	9.2893	2.8182	0.	5358.2
9509	9.1982	2.9091	0.	5199.2
9510	9.2893	2.9091	5.e-002	54.918
9511	9.2893	2.6364	0.	5284.5
9512	9.1982	2.7273	0.	5153.3
9513	9.2893	2.7273	5.e-002	55.164
9514	9.2893	2.4545	0.	5161.8
9515	9.1982	2.5455	0.	5062.1
9516	9.2893	2.5455	5.e-002	54.921
9517	9.2893	2.2727	0.	4994.5
9518	9.1982	2.3636	0.	4929.
9519	9.2893	2.3636	5.e-002	53.176
9520	9.2893	2.0909	0.	4790.2
9521	9.1982	2.1818	0.	4760.6
9522	9.2893	2.1818	5.e-002	49.902
9523	9.2893	1.9091	0.	4554.2
9524	9.1982	2.	0.	4563.8
9525	9.2893	2.	5.e-002	45.595
9526	9.2893	1.7273	0.	4286.2
9527	9.1982	1.8182	0.	4340.2
9528	9.2893	1.8182	5.e-002	41.617
9529	9.2893	1.5455	0.	3988.4
9530	9.1982	1.6364	0.	4088.6
9531	9.2893	1.6364	5.e-002	41.047
9532	9.2893	1.3636	0.	3671.8
9533	9.1982	1.4545	0.	3814.3
9534	9.2893	1.4545	5.e-002	44.814
9535	9.2893	1.1818	0.	3354.4
9536	9.1982	1.2727	0.	3530.5
9537	9.2893	1.2727	5.e-002	49.63
9538	9.2893	1.	0.	3054.6
9539	9.1982	1.0909	0.	3253.7
9540	9.2893	1.0909	5.e-002	53.193
9541	9.2893	0.81818	0.	2786.6
9542	9.1982	0.90909	0.	2998.6
9543	9.2893	0.90909	5.e-002	55.302
9544	9.2893	0.63636	0.	2559.5
9545	9.1982	0.72727	0.	2775.3
9546	9.2893	0.72727	5.e-002	56.389
9547	9.2893	0.45455	0.	2378.4
9548	9.1982	0.54545	0.	2590.2
9549	9.2893	0.54545	5.e-002	57.017
9550	9.2893	0.27273	0.	2245.5
9551	9.1982	0.36364	0.	2445.5
9552	9.2893	0.36364	5.e-002	58.012
9553	9.1982	0.18182	0.	2341.6
9554	9.2893	0.18182	5.e-002	67.134
9555	9.2893	9.0909e-002	0.	2138.8
9556	9.1071	5.7273	0.	2542.9
9557	9.0161	5.8182	0.	2624.9
9558	9.1071	5.8182	5.e-002	59.314
9559	9.1071	5.9091	0.	2448.2
9560	9.1071	5.5455	0.	2660.1
9561	9.0161	5.6364	0.	2720.
9562	9.1071	5.6364	5.e-002	51.21
9563	9.1071	5.3636	0.	2811.4
9564	9.0161	5.4545	0.	2843.7
9565	9.1071	5.4545	5.e-002	49.796
9566	9.1071	5.1818	0.	2995.5
9567	9.0161	5.2727	0.	2996.1
9568	9.1071	5.2727	5.e-002	48.433
9569	9.1071	5.	0.	3208.2
9570	9.0161	5.0909	0.	3175.1
9571	9.1071	5.0909	5.e-002	46.436
9572	9.1071	4.8182	0.	3441.3
9573	9.0161	4.9091	0.	3375.4
9574	9.1071	4.9091	5.e-002	43.535
9575	9.1071	4.6364	0.	3683.9
9576	9.0161	4.7273	0.	3588.6
9577	9.1071	4.7273	5.e-002	39.699
9578	9.1071	4.4545	0.	3923.3
9579	9.0161	4.5455	0.	3804.
9580	9.1071	4.5455	5.e-002	35.563
9581	9.1071	4.2727	0.	4148.6
9582	9.0161	4.3636	0.	4011.
9583	9.1071	4.3636	5.e-002	32.588
9584	9.1071	4.0909	0.	4353.4
9585	9.0161	4.1818	0.	4202.
9586	9.1071	4.1818	5.e-002	32.15
9587	9.1071	3.9091	0.	4536.
9588	9.0161	4.	0.	4373.9
9589	9.1071	4.	5.e-002	33.839
9590	9.1071	3.7273	0.	4695.5
9591	9.0161	3.8182	0.	4526.1
9592	9.1071	3.8182	5.e-002	36.381
9593	9.1071	3.5455	0.	4828.5
9594	9.0161	3.6364	0.	4657.1
9595	9.1071	3.6364	5.e-002	39.
9596	9.1071	3.3636	0.	4929.
9597	9.0161	3.4545	0.	4762.5
9598	9.1071	3.4545	5.e-002	41.226
9599	9.1071	3.1818	0.	4991.6
9600	9.0161	3.2727	0.	4836.5
9601	9.1071	3.2727	5.e-002	42.672
9602	9.1071	3.	0.	5012.8
9603	9.0161	3.0909	0.	4874.6
9604	9.1071	3.0909	5.e-002	43.324
9605	9.1071	2.8182	0.	4991.6
9606	9.0161	2.9091	0.	4874.6
9607	9.1071	2.9091	5.e-002	43.324
9608	9.1071	2.6364	0.	4929.
9609	9.0161	2.7273	0.	4836.5
9610	9.1071	2.7273	5.e-002	42.672
9611	9.1071	2.4545	0.	4828.5
9612	9.0161	2.5455	0.	4762.5
9613	9.1071	2.5455	5.e-002	41.226
9614	9.1071	2.2727	0.	4695.5
9615	9.0161	2.3636	0.	4657.1
9616	9.1071	2.3636	5.e-002	39.
9617	9.1071	2.0909	0.	4536.
9618	9.0161	2.1818	0.	4526.1
9619	9.1071	2.1818	5.e-002	36.381
9620	9.1071	1.9091	0.	4353.4
9621	9.0161	2.	0.	4373.9
9622	9.1071	2.	5.e-002	33.839
9623	9.1071	1.7273	0.	4148.6
9624	9.0161	1.8182	0.	4202.
9625	9.1071	1.8182	5.e-002	32.15
9626	9.1071	1.5455	0.	3923.3
9627	9.0161	1.6364	0.	4011.
9628	9.1071	1.6364	5.e-002	32.588
9629	9.1071	1.3636	0.	3683.9
9630	9.0161	1.4545	0.	3804.
9631	9.1071	1.4545	5.e-002	35.563
9632	9.1071	1.1818	0.	3441.3
9633	9.0161	1.2727	0.	3588.6
9634	9.1071	1.2727	5.e-002	39.699
9635	9.1071	1.	0.	3208.2
9636	9.0161	1.0909	0.	3375.4
9637	9.1071	1.0909	5.e-002	43.535
9638	9.1071	0.81818	0.	2995.5
9639	9.0161	0.90909	0.	3175.1
9640	9.1071	0.90909	5.e-002	46.436
9641	9.1071	0.63636	0.	2811.4
9642	9.0161	0.72727	0.	2996.1
9643	9.1071	0.72727	5.e-002	48.433
9644	9.1071	0.45455	0.	2660.1
9645	9.0161	0.54545	0.	2843.7
9646	9.1071	0.54545	5.e-002	49.796
9647	9.1071	0.27273	0.	2542.9
9648	9.0161	0.36364	0.	2720.
9649	9.1071	0.36364	5.e-002	51.21
9650	9.0161	0.18182	0.	2624.9
9651	9.1071	0.18182	5.e-002	59.314
9652	9.1071	9.0909e-002	0.	2448.2
9653	8.925	5.7273	0.	2802.9
9654	8.8339	5.8182	0.	2872.9
9655	8.925	5.8182	5.e-002	51.596
9656	8.925	5.9091	0.	2720.1
9657	8.925	5.5455	0.	2905.4
9658	8.8339	5.6364	0.	2958.2
9659	8.925	5.6364	5.e-002	44.767
9660	8.925	5.3636	0.	3031.7
9661	8.8339	5.4545	0.	3063.3
9662	8.925	5.4545	5.e-002	43.167
9663	8.925	5.1818	0.	3180.5
9664	8.8339	5.2727	0.	3188.2
9665	8.925	5.2727	5.e-002	41.472
9666	8.925	5.	0.	3348.5
9667	8.8339	5.0909	0.	3331.1
9668	8.925	5.0909	5.e-002	39.182
9669	8.925	4.8182	0.	3529.3
9670	8.8339	4.9091	0.	3487.7
9671	8.925	4.9091	5.e-002	36.21
9672	8.925	4.6364	0.	3714.9
9673	8.8339	4.7273	0.	3651.6
9674	8.925	4.7273	5.e-002	32.711
9675	8.925	4.4545	0.	3896.9
9676	8.8339	4.5455	0.	3815.6
9677	8.925	4.5455	5.e-002	29.22
9678	8.925	4.2727	0.	4068.3
9679	8.8339	4.3636	0.	3972.7
9680	8.925	4.3636	5.e-002	26.618
9681	8.925	4.0909	0.	4225.
9682	8.8339	4.1818	0.	4118.2
9683	8.925	4.1818	5.e-002	25.56
9684	8.925	3.9091	0.	4365.4
9685	8.8339	4.	0.	4249.7
9686	8.925	4.	5.e-002	25.933
9687	8.925	3.7273	0.	4488.2
9688	8.8339	3.8182	0.	4366.2
9689	8.925	3.8182	5.e-002	27.201
9690	8.925	3.5455	0.	4590.8
9691	8.8339	3.6364	0.	4466.4
9692	8.925	3.6364	5.e-002	28.939
9693	8.925	3.3636	0.	4668.9
9694	8.8339	3.4545	0.	4547.
9695	8.925	3.4545	5.e-002	30.735
9696	8.925	3.1818	0.	4718.
9697	8.8339	3.2727	0.	4603.9
9698	8.925	3.2727	5.e-002	32.168
9699	8.925	3.	0.	4734.8
9700	8.8339	3.0909	0.	4633.4
9701	8.925	3.0909	5.e-002	32.938
9702	8.925	2.8182	0.	4718.
9703	8.8339	2.9091	0.	4633.4
9704	8.925	2.9091	5.e-002	32.938
9705	8.925	2.6364	0.	4668.9
9706	8.8339	2.7273	0.	4603.9
9707	8.925	2.7273	5.e-002	32.168
9708	8.925	2.4545	0.	4590.8
9709	8.8339	2.5455	0.	4547.
9710	8.925	2.5455	5.e-002	30.735
9711	8.925	2.2727	0.	4488.2
9712	8.8339	2.3636	0.	4466.4
9713	8.925	2.3636	5.e-002	28.939
9714	8.925	2.0909	0.	4365.4
9715	8.8339	2.1818	0.	4366.2
9716	8.925	2.1818	5.e-002	27.201
9717	8.925	1.9091	0.	4225.
9718	8.8339	2.	0.	4249.7
9719	8.925	2.	5.e-002	25.933
9720	8.925	1.7273	0.	4068.3
9721	8.8339	1.8182	0.	4118.2
9722	8.925	1.8182	5.e-002	25.56
9723	8.925	1.5455	0.	3896.9
9724	8.8339	1.6364	0.	3972.7
9725	8.925	1.6364	5.e-002	26.618
9726	8.925	1.3636	0.	3714.9
9727	8.8339	1.4545	0.	3815.6
9728	8.925	1.4545	5.e-002	29.22
9729	8.925	1.1818	0.	3529.3
9730	8.8339	1.2727	0.	3651.6
9731	8.925	1.2727	5.e-002	32.711
9732	8.925	1.	0.	3348.5
9733	8.8339	1.0909	0.	3487.7
9734	8.925	1.0909	5.e-002	36.21
9735	8.925	0.81818	0.	3180.5
9736	8.8339	0.90909	0.	3331.1
9737	8.925	0.90909	5.e-002	39.182
9738	8.925	0.63636	0.	3031.7
9739	8.8339	0.72727	0.	3188.2
9740	8.925	0.72727	5.e-002	41.472
9741	8.925	0.45455	0.	2905.4
9742	8.8339	0.54545	0.	3063.3
9743	8.925	0.54545	5.e-002	43.167
9744	8.925	0.27273	0.	2802.9
9745	8.8339	0.36364	0.	2958.2
9746	8.925	0.36364	5.e-002	44.767
9747	8.8339	0.18182	0.	2872.9
9748	8.925	0.18182	5.e-002	51.596
9749	8.925	9.0909e-002	0.	2720.1
9750	8.7429	5.7273	0.	3028.7
9751	8.6518	5.8182	0.	3088.8
9752	8.7429	5.8182	5.e-002	44.363
9753	8.7429	5.9091	0.	2957.2
9754	8.7429	5.5455	0.	3117.1
9755	8.6518	5.6364	0.	3163.7
9756	8.7429	5.6364	5.e-002	38.933
9757	8.7429	5.3636	0.	3221.8
9758	8.6518	5.4545	0.	3252.1
9759	8.7429	5.4545	5.e-002	37.338
9760	8.7429	5.1818	0.	3341.6
9761	8.6518	5.2727	0.	3353.8
9762	8.7429	5.2727	5.e-002	35.587
9763	8.7429	5.	0.	3473.8
9764	8.6518	5.0909	0.	3467.4
9765	8.7429	5.0909	5.e-002	33.344
9766	8.7429	4.8182	0.	3613.8
9767	8.6518	4.9091	0.	3589.4
9768	8.7429	4.9091	5.e-002	30.617
9769	8.7429	4.6364	0.	3755.9
9770	8.6518	4.7273	0.	3715.4
9771	8.7429	4.7273	5.e-002	27.585
9772	8.7429	4.4545	0.	3894.5
9773	8.6518	4.5455	0.	3840.2
9774	8.7429	4.5455	5.e-002	24.629
9775	8.7429	4.2727	0.	4024.9
9776	8.6518	4.3636	0.	3959.5
9777	8.7429	4.3636	5.e-002	22.242
9778	8.7429	4.0909	0.	4144.4
9779	8.6518	4.1818	0.	4070.
9780	8.7429	4.1818	5.e-002	20.787
9781	8.7429	3.9091	0.	4251.5
9782	8.6518	4.	0.	4170.
9783	8.7429	4.	5.e-002	20.301
9784	8.7429	3.7273	0.	4344.9
9785	8.6518	3.8182	0.	4258.4
9786	8.7429	3.8182	5.e-002	20.605
9787	8.7429	3.5455	0.	4422.5
9788	8.6518	3.6364	0.	4333.8
9789	8.7429	3.6364	5.e-002	21.471
9790	8.7429	3.3636	0.	4481.5
9791	8.6518	3.4545	0.	4394.2
9792	8.7429	3.4545	5.e-002	22.602
9793	8.7429	3.1818	0.	4518.5
9794	8.6518	3.2727	0.	4436.7
9795	8.7429	3.2727	5.e-002	23.627
9796	8.7429	3.	0.	4531.2
9797	8.6518	3.0909	0.	4458.7
9798	8.7429	3.0909	5.e-002	24.225
9799	8.7429	2.8182	0.	4518.5
9800	8.6518	2.9091	0.	4458.7
9801	8.7429	2.9091	5.e-002	24.225
9802	8.7429	2.6364	0.	4481.5
9803	8.6518	2.7273	0.	4436.7
9804	8.7429	2.7273	5.e-002	23.627
9805	8.7429	2.4545	0.	4422.5
9806	8.6518	2.5455	0.	4394.2
9807	8.7429	2.5455	5.e-002	22.602
9808	8.7429	2.2727	0.	4344.9
9809	8.6518	2.3636	0.	4333.8
9810	8.7429	2.3636	5.e-002	21.471
9811	8.7429	2.0909	0.	4251.5
9812	8.6518	2.1818	0.	4258.4
9813	8.7429	2.1818	5.e-002	20.605
9814	8.7429	1.9091	0.	4144.4
9815	8.6518	2.	0.	4170.
9816	8.7429	2.	5.e-002	20.301
9817	8.7429	1.7273	0.	4024.9
9818	8.6518	1.8182	0.	4070.
9819	8.7429	1.8182	5.e-002	20.787
9820	8.7429	1.5455	0.	3894.5
9821	8.6518	1.6364	0.	3959.5
9822	8.7429	1.6364	5.e-002	22.242
9823	8.7429	1.3636	0.	3755.9
9824	8.6518	1.4545	0.	3840.2
9825	8.7429	1.4545	5.e-002	24.629
9826	8.7429	1.1818	0.	3613.8
9827	8.6518	1.2727	0.	3715.4
9828	8.7429	1.2727	5.e-002	27.585
9829	8.7429	1.	0.	3473.8
9830	8.6518	1.0909	0.	3589.4
9831	8.7429	1.0909	5.e-002	30.617
9832	8.7429	0.81818	0.	3341.6
9833	8.6518	0.90909	0.	3467.4
9834	8.7429	0.90909	5.e-002	33.344
9835	8.7429	0.63636	0.	3221.8
9836	8.6518	0.72727	0.	3353.8
9837	8.7429	0.72727	5.e-002	35.587
9838	8.7429	0.45455	0.	3117.1
9839	8.6518	0.54545	0.	3252.1
9840	8.7429	0.54545	5.e-002	37.338
9841	8.7429	0.27273	0.	3028.7
9842	8.6518	0.36364	0.	3163.7
9843	8.7429	0.36364	5.e-002	38.933
9844	8.6518	0.18182	0.	3088.8
9845	8.7429	0.18182	5.e-002	44.363
9846	8.7429	9.0909e-002	0.	2957.2
9847	8.5607	5.7273	0.	3224.1
9848	8.4696	5.8182	0.	3276.6
9849	8.5607	5.8182	5.e-002	37.835
9850	8.5607	5.9091	0.	3163.3
9851	8.5607	5.5455	0.	3299.3
9852	8.4696	5.6364	0.	3340.9
9853	8.5607	5.6364	5.e-002	33.817
9854	8.5607	5.3636	0.	3385.3
9855	8.4696	5.4545	0.	3414.4
9856	8.5607	5.4545	5.e-002	32.353
9857	8.5607	5.1818	0.	3481.3
9858	8.4696	5.2727	0.	3496.7
9859	8.5607	5.2727	5.e-002	30.708
9860	8.5607	5.	0.	3585.1
9861	8.4696	5.0909	0.	3586.5
9862	8.5607	5.0909	5.e-002	28.674
9863	8.5607	4.8182	0.	3693.2
9864	8.4696	4.9091	0.	3681.2
9865	8.5607	4.9091	5.e-002	26.294
9866	8.5607	4.6364	0.	3801.8
9867	8.4696	4.7273	0.	3777.7
9868	8.5607	4.7273	5.e-002	23.717
9869	8.5607	4.4545	0.	3907.1
9870	8.4696	4.5455	0.	3872.6
9871	8.5607	4.5455	5.e-002	21.184
9872	8.5607	4.2727	0.	4006.
9873	8.4696	4.3636	0.	3962.8
9874	8.5607	4.3636	5.e-002	18.974
9875	8.5607	4.0909	0.	4096.6
9876	8.4696	4.1818	0.	4046.3
9877	8.5607	4.1818	5.e-002	17.293
9878	8.5607	3.9091	0.	4177.5
9879	8.4696	4.	0.	4121.6
9880	8.5607	4.	5.e-002	16.225
9881	8.5607	3.7273	0.	4247.6
9882	8.4696	3.8182	0.	4187.8
9883	8.5607	3.8182	5.e-002	15.763
9884	8.5607	3.5455	0.	4305.5
9885	8.4696	3.6364	0.	4243.9
9886	8.5607	3.6364	5.e-002	15.837
9887	8.5607	3.3636	0.	4349.2
9888	8.4696	3.4545	0.	4288.5
9889	8.5607	3.4545	5.e-002	16.274
9890	8.5607	3.1818	0.	4376.5
9891	8.4696	3.2727	0.	4319.7
9892	8.5607	3.2727	5.e-002	16.8
9893	8.5607	3.	0.	4385.9
9894	8.4696	3.0909	0.	4335.7
9895	8.5607	3.0909	5.e-002	17.144
9896	8.5607	2.8182	0.	4376.5
9897	8.4696	2.9091	0.	4335.7
9898	8.5607	2.9091	5.e-002	17.144
9899	8.5607	2.6364	0.	4349.2
9900	8.4696	2.7273	0.	4319.7
9901	8.5607	2.7273	5.e-002	16.8
9902	8.5607	2.4545	0.	4305.5
9903	8.4696	2.5455	0.	4288.5
9904	8.5607	2.5455	5.e-002	16.274
9905	8.5607	2.2727	0.	4247.6
9906	8.4696	2.3636	0.	4243.9
9907	8.5607	2.3636	5.e-002	15.837
9908	8.5607	2.0909	0.	4177.5
9909	8.4696	2.1818	0.	4187.8
9910	8.5607	2.1818	5.e-002	15.763
9911	8.5607	1.9091	0.	4096.6
9912	8.4696	2.	0.	4121.6
9913	8.5607	2.	5.e-002	16.225
9914	8.5607	1.7273	0.	4006.
9915	8.4696	1.8182	0.	4046.3
9916	8.5607	1.8182	5.e-002	17.293
9917	8.5607	1.5455	0.	3907.1
9918	8.4696	1.6364	0.	3962.8
9919	8.5607	1.6364	5.e-002	18.974
9920	8.5607	1.3636	0.	3801.8
9921	8.4696	1.4545	0.	3872.6
9922	8.5607	1.4545	5.e-002	21.184
9923	8.5607	1.1818	0.	3693.2
9924	8.4696	1.2727	0.	3777.7
9925	8.5607	1.2727	5.e-002	23.717
9926	8.5607	1.	0.	3585.1
9927	8.4696	1.0909	0.	3681.2
9928	8.5607	1.0909	5.e-002	26.294
9929	8.5607	0.81818	0.	3481.3
9930	8.4696	0.90909	0.	3586.5
9931	8.5607	0.90909	5.e-002	28.674
9932	8.5607	0.63636	0.	3385.3
9933	8.4696	0.72727	0.	3496.7
9934	8.5607	0.72727	5.e-002	30.708
9935	8.5607	0.45455	0.	3299.3
9936	8.4696	0.54545	0.	3414.4
9937	8.5607	0.54545	5.e-002	32.353
9938	8.5607	0.27273	0.	3224.1
9939	8.4696	0.36364	0.	3340.9
9940	8.5607	0.36364	5.e-002	33.817
9941	8.4696	0.18182	0.	3276.6
9942	8.5607	0.18182	5.e-002	37.835
9943	8.5607	9.0909e-002	0.	3163.3
9944	8.3786	5.7273	0.	3393.6
9945	8.2875	5.8182	0.	3440.3
9946	8.3786	5.8182	5.e-002	32.112
9947	8.3786	5.9091	0.	3342.6
9948	8.3786	5.5455	0.	3456.4
9949	8.2875	5.6364	0.	3494.4
9950	8.3786	5.6364	5.e-002	29.434
9951	8.3786	5.3636	0.	3526.5
9952	8.2875	5.4545	0.	3554.6
9953	8.3786	5.4545	5.e-002	28.172
9954	8.3786	5.1818	0.	3602.9
9955	8.2875	5.2727	0.	3620.6
9956	8.3786	5.2727	5.e-002	26.712
9957	8.3786	5.	0.	3683.8
9958	8.2875	5.0909	0.	3691.1
9959	8.3786	5.0909	5.e-002	24.946
9960	8.3786	4.8182	0.	3767.
9961	8.2875	4.9091	0.	3764.2
9962	8.3786	4.9091	5.e-002	22.923
9963	8.3786	4.6364	0.	3849.7
9964	8.2875	4.7273	0.	3837.8
9965	8.3786	4.7273	5.e-002	20.747
9966	8.3786	4.4545	0.	3929.3
9967	8.2875	4.5455	0.	3909.5
9968	8.3786	4.5455	5.e-002	18.567
9969	8.3786	4.2727	0.	4003.9
9970	8.2875	4.3636	0.	3977.3
9971	8.3786	4.3636	5.e-002	16.531
9972	8.3786	4.0909	0.	4071.8
9973	8.2875	4.1818	0.	4039.7
9974	8.3786	4.1818	5.e-002	14.755
9975	8.3786	3.9091	0.	4132.3
9976	8.2875	4.	0.	4095.8
9977	8.3786	4.	5.e-002	13.313
9978	8.3786	3.7273	0.	4184.3
9979	8.2875	3.8182	0.	4144.8
9980	8.3786	3.8182	5.e-002	12.26
9981	8.3786	3.5455	0.	4226.9
9982	8.2875	3.6364	0.	4186.
9983	8.3786	3.6364	5.e-002	11.632
9984	8.3786	3.3636	0.	4258.8
9985	8.2875	3.4545	0.	4218.4
9986	8.3786	3.4545	5.e-002	11.396
9987	8.3786	3.1818	0.	4278.7
9988	8.2875	3.2727	0.	4240.9
9989	8.3786	3.2727	5.e-002	11.407
9990	8.3786	3.	0.	4285.4
9991	8.2875	3.0909	0.	4252.4
9992	8.3786	3.0909	5.e-002	11.478
9993	8.3786	2.8182	0.	4278.7
9994	8.2875	2.9091	0.	4252.4
9995	8.3786	2.9091	5.e-002	11.478
9996	8.3786	2.6364	0.	4258.8
9997	8.2875	2.7273	0.	4240.9
9998	8.3786	2.7273	5.e-002	11.407
9999	8.3786	2.4545	0.	4226.9
10000	8.2875	2.5455	0.	4218.4
10001	8.3786	2.5455	5.e-002	11.396
10002	8.3786	2.2727	0.	4184.3
10003	8.2875	2.3636	0.	4186.
10004	8.3786	2.3636	5.e-002	11.632
10005	8.3786	2.0909	0.	4132.3
10006	8.2875	2.1818	0.	4144.8
10007	8.3786	2.1818	5.e-002	12.26
10008	8.3786	1.9091	0.	4071.8
10009	8.2875	2.	0.	4095.8
10010	8.3786	2.	5.e-002	13.313
10011	8.3786	1.7273	0.	4003.9
10012	8.2875	1.8182	0.	4039.7
10013	8.3786	1.8182	5.e-002	14.755
10014	8.3786	1.5455	0.	3929.3
10015	8.2875	1.6364	0.	3977.3
10016	8.3786	1.6364	5.e-002	16.531
10017	8.3786	1.3636	0.	3849.7
10018	8.2875	1.4545	0.	3909.5
10019	8.3786	1.4545	5.e-002	18.567
10020	8.3786	1.1818	0.	3767.
10021	8.2875	1.2727	0.	3837.8
10022	8.3786	1.2727	5.e-002	20.747
10023	8.3786	1.	0.	3683.8
10024	8.2875	1.0909	0.	3764.2
10025	8.3786	1.0909	5.e-002	22.923
10026	8.3786	0.81818	0.	3602.9
10027	8.2875	0.90909	0.	3691.1
10028	8.3786	0.90909	5.e-002	24.946
10029	8.3786	0.63636	0.	3526.5
10030	8.2875	0.72727	0.	3620.6
10031	8.3786	0.72727	5.e-002	26.712
10032	8.3786	0.45455	0.	3456.4
10033	8.2875	0.54545	0.	3554.6
10034	8.3786	0.54545	5.e-002	28.172
10035	8.3786	0.27273	0.	3393.6
10036	8.2875	0.36364	0.	3494.4
10037	8.3786	0.36364	5.e-002	29.434
10038	8.2875	0.18182	0.	3440.3
10039	8.3786	0.18182	5.e-002	32.112
10040	8.3786	9.0909e-002	0.	3342.6
10041	8.1964	5.7273	0.	3541.2
10042	8.1054	5.8182	0.	3583.7
10043	8.1964	5.8182	5.e-002	27.207
10044	8.1964	5.9091	0.	3499.2
10045	8.1964	5.5455	0.	3592.9
10046	8.1054	5.6364	0.	3628.2
10047	8.1964	5.6364	5.e-002	25.744
10048	8.1964	5.3636	0.	3649.2
10049	8.1054	5.4545	0.	3676.9
10050	8.1964	5.4545	5.e-002	24.711
10051	8.1964	5.1818	0.	3709.4
10052	8.1054	5.2727	0.	3729.1
10053	8.1964	5.2727	5.e-002	23.466
10054	8.1964	5.	0.	3772.2
10055	8.1054	5.0909	0.	3783.9
10056	8.1964	5.0909	5.e-002	21.974
10057	8.1964	4.8182	0.	3835.7
10058	8.1054	4.9091	0.	3839.9
10059	8.1964	4.9091	5.e-002	20.279
10060	8.1964	4.6364	0.	3898.2
10061	8.1054	4.7273	0.	3895.5
10062	8.1964	4.7273	5.e-002	18.451
10063	8.1964	4.4545	0.	3958.
10064	8.1054	4.5455	0.	3949.2
10065	8.1964	4.5455	5.e-002	16.573
10066	8.1964	4.2727	0.	4013.6
10067	8.1054	4.3636	0.	3999.5
10068	8.1964	4.3636	5.e-002	14.725
10069	8.1964	4.0909	0.	4064.
10070	8.1054	4.1818	0.	4045.6
10071	8.1964	4.1818	5.e-002	12.962
10072	8.1964	3.9091	0.	4108.5
10073	8.1054	4.	0.	4086.8
10074	8.1964	4.	5.e-002	11.327
10075	8.1964	3.7273	0.	4146.5
10076	8.1054	3.8182	0.	4122.4
10077	8.1964	3.8182	5.e-002	9.8683
10078	8.1964	3.5455	0.	4177.4
10079	8.1054	3.6364	0.	4152.2
10080	8.1964	3.6364	5.e-002	8.659
10081	8.1964	3.3636	0.	4200.4
10082	8.1054	3.4545	0.	4175.3
10083	8.1964	3.4545	5.e-002	7.77
10084	8.1964	3.1818	0.	4214.5
10085	8.1054	3.2727	0.	4191.3
10086	8.1964	3.2727	5.e-002	7.2243
10087	8.1964	3.	0.	4219.3
10088	8.1054	3.0909	0.	4199.4
10089	8.1964	3.0909	5.e-002	6.9791
10090	8.1964	2.8182	0.	4214.5
10091	8.1054	2.9091	0.	4199.4
10092	8.1964	2.9091	5.e-002	6.9791
10093	8.1964	2.6364	0.	4200.4
10094	8.1054	2.7273	0.	4191.3
10095	8.1964	2.7273	5.e-002	7.2243
10096	8.1964	2.4545	0.	4177.4
10097	8.1054	2.5455	0.	4175.3
10098	8.1964	2.5455	5.e-002	7.77
10099	8.1964	2.2727	0.	4146.5
10100	8.1054	2.3636	0.	4152.2
10101	8.1964	2.3636	5.e-002	8.659
10102	8.1964	2.0909	0.	4108.5
10103	8.1054	2.1818	0.	4122.4
10104	8.1964	2.1818	5.e-002	9.8683
10105	8.1964	1.9091	0.	4064.
10106	8.1054	2.	0.	4086.8
10107	8.1964	2.	5.e-002	11.327
10108	8.1964	1.7273	0.	4013.6
10109	8.1054	1.8182	0.	4045.6
10110	8.1964	1.8182	5.e-002	12.962
10111	8.1964	1.5455	0.	3958.
10112	8.1054	1.6364	0.	3999.5
10113	8.1964	1.6364	5.e-002	14.725
10114	8.1964	1.3636	0.	3898.2
10115	8.1054	1.4545	0.	3949.2
10116	8.1964	1.4545	5.e-002	16.573
10117	8.1964	1.1818	0.	3835.7
10118	8.1054	1.2727	0.	3895.5
10119	8.1964	1.2727	5.e-002	18.451
10120	8.1964	1.	0.	3772.2
10121	8.1054	1.0909	0.	3839.9
10122	8.1964	1.0909	5.e-002	20.279
10123	8.1964	0.81818	0.	3709.4
10124	8.1054	0.90909	0.	3783.9
10125	8.1964	0.90909	5.e-002	21.974
10126	8.1964	0.63636	0.	3649.2
10127	8.1054	0.72727	0.	3729.1
10128	8.1964	0.72727	5.e-002	23.466
10129	8.1964	0.45455	0.	3592.9
10130	8.1054	0.54545	0.	3676.9
10131	8.1964	0.54545	5.e-002	24.711
10132	8.1964	0.27273	0.	3541.2
10133	8.1054	0.36364	0.	3628.2
10134	8.1964	0.36364	5.e-002	25.744
10135	8.1054	0.18182	0.	3583.7
10136	8.1964	0.18182	5.e-002	27.206
10137	8.1964	9.0909e-002	0.	3499.2
10138	8.0143	5.7273	0.	3670.7
10139	7.9232	5.8182	0.	3710.2
10140	8.0143	5.8182	5.e-002	23.08
10141	8.0143	5.9091	0.	3636.6
10142	8.0143	5.5455	0.	3712.4
10143	7.9232	5.6364	0.	3746.
10144	8.0143	5.6364	5.e-002	22.682
10145	8.0143	5.3636	0.	3757.1
10146	7.9232	5.4545	0.	3784.6
10147	8.0143	5.4545	5.e-002	21.877
10148	8.0143	5.1818	0.	3804.
10149	7.9232	5.2727	0.	3825.3
10150	8.0143	5.2727	5.e-002	20.845
10151	8.0143	5.	0.	3852.1
10152	7.9232	5.0909	0.	3867.4
10153	8.0143	5.0909	5.e-002	19.609
10154	8.0143	4.8182	0.	3900.1
10155	7.9232	4.9091	0.	3909.6
10156	8.0143	4.9091	5.e-002	18.203
10157	8.0143	4.6364	0.	3946.8
10158	7.9232	4.7273	0.	3951.1
10159	8.0143	4.7273	5.e-002	16.673
10160	8.0143	4.4545	0.	3991.
10161	7.9232	4.5455	0.	3990.7
10162	8.0143	4.5455	5.e-002	15.065
10163	8.0143	4.2727	0.	4031.9
10164	7.9232	4.3636	0.	4027.5
10165	8.0143	4.3636	5.e-002	13.416
10166	8.0143	4.0909	0.	4068.6
10167	7.9232	4.1818	0.	4060.9
10168	8.0143	4.1818	5.e-002	11.751
10169	8.0143	3.9091	0.	4100.8
10170	7.9232	4.	0.	4090.4
10171	8.0143	4.	5.e-002	10.083
10172	8.0143	3.7273	0.	4128.1
10173	7.9232	3.8182	0.	4115.8
10174	8.0143	3.8182	5.e-002	8.4343
10175	8.0143	3.5455	0.	4150.1
10176	7.9232	3.6364	0.	4136.8
10177	8.0143	3.6364	5.e-002	6.8439
10178	8.0143	3.3636	0.	4166.2
10179	7.9232	3.4545	0.	4153.
10180	8.0143	3.4545	5.e-002	5.3843
10181	8.0143	3.1818	0.	4176.2
10182	7.9232	3.2727	0.	4164.
10183	8.0143	3.2727	5.e-002	4.1789
10184	8.0143	3.	0.	4179.5
10185	7.9232	3.0909	0.	4169.7
10186	8.0143	3.0909	5.e-002	3.4448
10187	8.0143	2.8182	0.	4176.2
10188	7.9232	2.9091	0.	4169.7
10189	8.0143	2.9091	5.e-002	3.4449
10190	8.0143	2.6364	0.	4166.2
10191	7.9232	2.7273	0.	4164.
10192	8.0143	2.7273	5.e-002	4.1789
10193	8.0143	2.4545	0.	4150.1
10194	7.9232	2.5455	0.	4153.
10195	8.0143	2.5455	5.e-002	5.3843
10196	8.0143	2.2727	0.	4128.1
10197	7.9232	2.3636	0.	4136.8
10198	8.0143	2.3636	5.e-002	6.844
10199	8.0143	2.0909	0.	4100.8
10200	7.9232	2.1818	0.	4115.8
10201	8.0143	2.1818	5.e-002	8.4343
10202	8.0143	1.9091	0.	4068.6
10203	7.9232	2.	0.	4090.4
10204	8.0143	2.	5.e-002	10.083
10205	8.0143	1.7273	0.	4031.9
10206	7.9232	1.8182	0.	4060.9
10207	8.0143	1.8182	5.e-002	11.751
10208	8.0143	1.5455	0.	3991.
10209	7.9232	1.6364	0.	4027.5
10210	8.0143	1.6364	5.e-002	13.416
10211	8.0143	1.3636	0.	3946.8
10212	7.9232	1.4545	0.	3990.7
10213	8.0143	1.4545	5.e-002	15.065
10214	8.0143	1.1818	0.	3900.1
10215	7.9232	1.2727	0.	3951.1
10216	8.0143	1.2727	5.e-002	16.673
10217	8.0143	1.	0.	3852.1
10218	7.9232	1.0909	0.	3909.6
10219	8.0143	1.0909	5.e-002	18.203
10220	8.0143	0.81818	0.	3804.
10221	7.9232	0.90909	0.	3867.4
10222	8.0143	0.90909	5.e-002	19.609
10223	8.0143	0.63636	0.	3757.1
10224	7.9232	0.72727	0.	3825.3
10225	8.0143	0.72727	5.e-002	20.845
10226	8.0143	0.45455	0.	3712.4
10227	7.9232	0.54545	0.	3784.6
10228	8.0143	0.54545	5.e-002	21.877
10229	8.0143	0.27273	0.	3670.7
10230	7.9232	0.36364	0.	3746.
10231	8.0143	0.36364	5.e-002	22.682
10232	7.9232	0.18182	0.	3710.2
10233	8.0143	0.18182	5.e-002	23.08
10234	8.0143	9.0909e-002	0.	3636.6
10235	7.8321	5.7273	0.	3785.4
10236	7.7411	5.8182	0.	3822.8
10237	7.8321	5.8182	5.e-002	19.667
10238	7.8321	5.9091	0.	3758.4
10239	7.8321	5.5455	0.	3818.3
10240	7.7411	5.6364	0.	3850.9
10241	7.8321	5.6364	5.e-002	20.169
10242	7.8321	5.3636	0.	3853.
10243	7.7411	5.4545	0.	3880.7
10244	7.8321	5.4545	5.e-002	19.576
10245	7.8321	5.1818	0.	3888.9
10246	7.7411	5.2727	0.	3911.8
10247	7.8321	5.2727	5.e-002	18.742
10248	7.8321	5.	0.	3925.2
10249	7.7411	5.0909	0.	3943.4
10250	7.8321	5.0909	5.e-002	17.732
10251	7.8321	4.8182	0.	3960.9
10252	7.7411	4.9091	0.	3974.7
10253	7.8321	4.9091	5.e-002	16.577
10254	7.8321	4.6364	0.	3995.2
10255	7.7411	4.7273	0.	4004.9
10256	7.8321	4.7273	5.e-002	15.302
10257	7.8321	4.4545	0.	4027.3
10258	7.7411	4.5455	0.	4033.4
10259	7.8321	4.5455	5.e-002	13.935
10260	7.8321	4.2727	0.	4056.6
10261	7.7411	4.3636	0.	4059.6
10262	7.8321	4.3636	5.e-002	12.493
10263	7.8321	4.0909	0.	4082.8
10264	7.7411	4.1818	0.	4083.1
10265	7.8321	4.1818	5.e-002	10.984
10266	7.8321	3.9091	0.	4105.5
10267	7.7411	4.	0.	4103.7
10268	7.8321	4.	5.e-002	9.4117
10269	7.8321	3.7273	0.	4124.5
10270	7.7411	3.8182	0.	4121.2
10271	7.8321	3.8182	5.e-002	7.7801
10272	7.8321	3.5455	0.	4139.7
10273	7.7411	3.6364	0.	4135.5
10274	7.8321	3.6364	5.e-002	6.0993
10275	7.8321	3.3636	0.	4150.8
10276	7.7411	3.4545	0.	4146.4
10277	7.8321	3.4545	5.e-002	4.3863
10278	7.8321	3.1818	0.	4157.5
10279	7.7411	3.2727	0.	4153.8
10280	7.8321	3.2727	5.e-002	2.6638
10281	7.8321	3.	0.	4159.8
10282	7.7411	3.0909	0.	4157.6
10283	7.8321	3.0909	5.e-002	0.99505
10284	7.8321	2.8182	0.	4157.5
10285	7.7411	2.9091	0.	4157.6
10286	7.8321	2.9091	5.e-002	0.99505
10287	7.8321	2.6364	0.	4150.8
10288	7.7411	2.7273	0.	4153.8
10289	7.8321	2.7273	5.e-002	2.6638
10290	7.8321	2.4545	0.	4139.7
10291	7.7411	2.5455	0.	4146.4
10292	7.8321	2.5455	5.e-002	4.3863
10293	7.8321	2.2727	0.	4124.5
10294	7.7411	2.3636	0.	4135.5
10295	7.8321	2.3636	5.e-002	6.0993
10296	7.8321	2.0909	0.	4105.5
10297	7.7411	2.1818	0.	4121.2
10298	7.8321	2.1818	5.e-002	7.7801
10299	7.8321	1.9091	0.	4082.8
10300	7.7411	2.	0.	4103.7
10301	7.8321	2.	5.e-002	9.4117
10302	7.8321	1.7273	0.	4056.6
10303	7.7411	1.8182	0.	4083.1
10304	7.8321	1.8182	5.e-002	10.984
10305	7.8321	1.5455	0.	4027.3
10306	7.7411	1.6364	0.	4059.6
10307	7.8321	1.6364	5.e-002	12.493
10308	7.8321	1.3636	0.	3995.2
10309	7.7411	1.4545	0.	4033.4
10310	7.8321	1.4545	5.e-002	13.935
10311	7.8321	1.1818	0.	3960.9
10312	7.7411	1.2727	0.	4004.9
10313	7.8321	1.2727	5.e-002	15.302
10314	7.8321	1.	0.	3925.2
10315	7.7411	1.0909	0.	3974.7
10316	7.8321	1.0909	5.e-002	16.577
10317	7.8321	0.81818	0.	3888.9
10318	7.7411	0.90909	0.	3943.4
10319	7.8321	0.90909	5.e-002	17.732
10320	7.8321	0.63636	0.	3853.
10321	7.7411	0.72727	0.	3911.8
10322	7.8321	0.72727	5.e-002	18.742
10323	7.8321	0.45455	0.	3818.3
10324	7.7411	0.54545	0.	3880.7
10325	7.8321	0.54545	5.e-002	19.576
10326	7.8321	0.27273	0.	3785.4
10327	7.7411	0.36364	0.	3850.9
10328	7.8321	0.36364	5.e-002	20.169
10329	7.7411	0.18182	0.	3822.8
10330	7.8321	0.18182	5.e-002	19.667
10331	7.8321	9.0909e-002	0.	3758.4
10332	7.65	5.7273	0.	3888.2
10333	7.5589	5.8182	0.	3924.2
10334	7.65	5.8182	5.e-002	16.891
10335	7.65	5.9091	0.	3867.3
10336	7.65	5.5455	0.	3913.3
10337	7.5589	5.6364	0.	3945.3
10338	7.65	5.6364	5.e-002	18.129
10339	7.65	5.3636	0.	3939.6
10340	7.5589	5.4545	0.	3967.6
10341	7.65	5.4545	5.e-002	17.722
10342	7.65	5.1818	0.	3966.3
10343	7.5589	5.2727	0.	3990.6
10344	7.65	5.2727	5.e-002	17.062
10345	7.65	5.	0.	3993.
10346	7.5589	5.0909	0.	4013.6
10347	7.65	5.0909	5.e-002	16.249
10348	7.65	4.8182	0.	4018.8
10349	7.5589	4.9091	0.	4036.
10350	7.65	4.9091	5.e-002	15.307
10351	7.65	4.6364	0.	4043.3
10352	7.5589	4.7273	0.	4057.3
10353	7.65	4.7273	5.e-002	14.253
10354	7.65	4.4545	0.	4065.8
10355	7.5589	4.5455	0.	4077.1
10356	7.65	4.5455	5.e-002	13.101
10357	7.65	4.2727	0.	4086.2
10358	7.5589	4.3636	0.	4095.
10359	7.65	4.3636	5.e-002	11.863
10360	7.65	4.0909	0.	4104.2
10361	7.5589	4.1818	0.	4110.8
10362	7.65	4.1818	5.e-002	10.542
10363	7.65	3.9091	0.	4119.5
10364	7.5589	4.	0.	4124.5
10365	7.65	4.	5.e-002	9.143
10366	7.65	3.7273	0.	4132.2
10367	7.5589	3.8182	0.	4135.9
10368	7.65	3.8182	5.e-002	7.6738
10369	7.65	3.5455	0.	4142.3
10370	7.5589	3.6364	0.	4145.1
10371	7.65	3.6364	5.e-002	6.1517
10372	7.65	3.3636	0.	4149.5
10373	7.5589	3.4545	0.	4152.
10374	7.65	3.4545	5.e-002	4.6119
10375	7.65	3.1818	0.	4153.9
10376	7.5589	3.2727	0.	4156.7
10377	7.65	3.2727	5.e-002	3.1367
10378	7.65	3.	0.	4155.4
10379	7.5589	3.0909	0.	4159.
10380	7.65	3.0909	5.e-002	2.0026
10381	7.65	2.8182	0.	4153.9
10382	7.5589	2.9091	0.	4159.
10383	7.65	2.9091	5.e-002	2.0026
10384	7.65	2.6364	0.	4149.5
10385	7.5589	2.7273	0.	4156.7
10386	7.65	2.7273	5.e-002	3.1367
10387	7.65	2.4545	0.	4142.3
10388	7.5589	2.5455	0.	4152.
10389	7.65	2.5455	5.e-002	4.6119
10390	7.65	2.2727	0.	4132.2
10391	7.5589	2.3636	0.	4145.1
10392	7.65	2.3636	5.e-002	6.1517
10393	7.65	2.0909	0.	4119.5
10394	7.5589	2.1818	0.	4135.9
10395	7.65	2.1818	5.e-002	7.6738
10396	7.65	1.9091	0.	4104.2
10397	7.5589	2.	0.	4124.5
10398	7.65	2.	5.e-002	9.143
10399	7.65	1.7273	0.	4086.2
10400	7.5589	1.8182	0.	4110.8
10401	7.65	1.8182	5.e-002	10.542
10402	7.65	1.5455	0.	4065.8
10403	7.5589	1.6364	0.	4095.
10404	7.65	1.6364	5.e-002	11.863
10405	7.65	1.3636	0.	4043.3
10406	7.5589	1.4545	0.	4077.1
10407	7.65	1.4545	5.e-002	13.101
10408	7.65	1.1818	0.	4018.8
10409	7.5589	1.2727	0.	4057.3
10410	7.65	1.2727	5.e-002	14.253
10411	7.65	1.	0.	3993.
10412	7.5589	1.0909	0.	4036.
10413	7.65	1.0909	5.e-002	15.307
10414	7.65	0.81818	0.	3966.3
10415	7.5589	0.90909	0.	4013.6
10416	7.65	0.90909	5.e-002	16.249
10417	7.65	0.63636	0.	3939.6
10418	7.5589	0.72727	0.	3990.6
10419	7.65	0.72727	5.e-002	17.062
10420	7.65	0.45455	0.	3913.3
10421	7.5589	0.54545	0.	3967.6
10422	7.65	0.54545	5.e-002	17.722
10423	7.65	0.27273	0.	3888.2
10424	7.5589	0.36364	0.	3945.3
10425	7.65	0.36364	5.e-002	18.129
10426	7.5589	0.18182	0.	3924.2
10427	7.65	0.18182	5.e-002	16.891
10428	7.65	9.0909e-002	0.	3867.3
10429	7.4679	5.7273	0.	3981.2
10430	7.3768	5.8182	0.	4016.5
10431	7.4679	5.8182	5.e-002	14.674
10432	7.4679	5.9091	0.	3965.9
10433	7.4679	5.5455	0.	3999.6
10434	7.3768	5.6364	0.	4031.5
10435	7.4679	5.6364	5.e-002	16.491
10436	7.4679	5.3636	0.	4018.7
10437	7.3768	5.4545	0.	4047.3
10438	7.4679	5.4545	5.e-002	16.241
10439	7.4679	5.1818	0.	4037.9
10440	7.3768	5.2727	0.	4063.4
10441	7.4679	5.2727	5.e-002	15.731
10442	7.4679	5.	0.	4056.6
10443	7.3768	5.0909	0.	4079.3
10444	7.4679	5.0909	5.e-002	15.084
10445	7.4679	4.8182	0.	4074.5
10446	7.3768	4.9091	0.	4094.4
10447	7.4679	4.9091	5.e-002	14.322
10448	7.4679	4.6364	0.	4091.1
10449	7.3768	4.7273	0.	4108.6
10450	7.4679	4.7273	5.e-002	13.456
10451	7.4679	4.4545	0.	4106.2
10452	7.3768	4.5455	0.	4121.4
10453	7.4679	4.5455	5.e-002	12.497
10454	7.4679	4.2727	0.	4119.6
10455	7.3768	4.3636	0.	4132.8
10456	7.4679	4.3636	5.e-002	11.451
10457	7.4679	4.0909	0.	4131.1
10458	7.3768	4.1818	0.	4142.6
10459	7.4679	4.1818	5.e-002	10.325
10460	7.4679	3.9091	0.	4140.8
10461	7.3768	4.	0.	4150.9
10462	7.4679	4.	5.e-002	9.1305
10463	7.4679	3.7273	0.	4148.7
10464	7.3768	3.8182	0.	4157.6
10465	7.4679	3.8182	5.e-002	7.8847
10466	7.4679	3.5455	0.	4154.8
10467	7.3768	3.6364	0.	4162.9
10468	7.4679	3.6364	5.e-002	6.6228
10469	7.4679	3.3636	0.	4159.2
10470	7.3768	3.4545	0.	4166.8
10471	7.4679	3.4545	5.e-002	5.4101
10472	7.4679	3.1818	0.	4161.8
10473	7.3768	3.2727	0.	4169.4
10474	7.4679	3.2727	5.e-002	4.3711
10475	7.4679	3.	0.	4162.7
10476	7.3768	3.0909	0.	4170.7
10477	7.4679	3.0909	5.e-002	3.7269
10478	7.4679	2.8182	0.	4161.8
10479	7.3768	2.9091	0.	4170.7
10480	7.4679	2.9091	5.e-002	3.7269
10481	7.4679	2.6364	0.	4159.2
10482	7.3768	2.7273	0.	4169.4
10483	7.4679	2.7273	5.e-002	4.3711
10484	7.4679	2.4545	0.	4154.8
10485	7.3768	2.5455	0.	4166.8
10486	7.4679	2.5455	5.e-002	5.4101
10487	7.4679	2.2727	0.	4148.7
10488	7.3768	2.3636	0.	4162.9
10489	7.4679	2.3636	5.e-002	6.6228
10490	7.4679	2.0909	0.	4140.8
10491	7.3768	2.1818	0.	4157.6
10492	7.4679	2.1818	5.e-002	7.8847
10493	7.4679	1.9091	0.	4131.1
10494	7.3768	2.	0.	4150.9
10495	7.4679	2.	5.e-002	9.1305
10496	7.4679	1.7273	0.	4119.6
10497	7.3768	1.8182	0.	4142.6
10498	7.4679	1.8182	5.e-002	10.325
10499	7.4679	1.5455	0.	4106.2
10500	7.3768	1.6364	0.	4132.8
10501	7.4679	1.6364	5.e-002	11.451
10502	7.4679	1.3636	0.	4091.1
10503	7.3768	1.4545	0.	4121.4
10504	7.4679	1.4545	5.e-002	12.497
10505	7.4679	1.1818	0.	4074.5
10506	7.3768	1.2727	0.	4108.6
10507	7.4679	1.2727	5.e-002	13.456
10508	7.4679	1.	0.	4056.6
10509	7.3768	1.0909	0.	4094.4
10510	7.4679	1.0909	5.e-002	14.322
10511	7.4679	0.81818	0.	4037.9
10512	7.3768	0.90909	0.	4079.3
10513	7.4679	0.90909	5.e-002	15.084
10514	7.4679	0.63636	0.	4018.7
10515	7.3768	0.72727	0.	4063.4
10516	7.4679	0.72727	5.e-002	15.731
10517	7.4679	0.45455	0.	3999.6
10518	7.3768	0.54545	0.	4047.3
10519	7.4679	0.54545	5.e-002	16.241
10520	7.4679	0.27273	0.	3981.2
10521	7.3768	0.36364	0.	4031.5
10522	7.4679	0.36364	5.e-002	16.491
10523	7.3768	0.18182	0.	4016.5
10524	7.4679	0.18182	5.e-002	14.674
10525	7.4679	9.0909e-002	0.	3965.9
10526	7.2857	5.7273	0.	4066.6
10527	7.1946	5.8182	0.	4101.5
10528	7.2857	5.8182	5.e-002	12.945
10529	7.2857	5.9091	0.	4056.1
10530	7.2857	5.5455	0.	4079.1
10531	7.1946	5.6364	0.	4111.1
10532	7.2857	5.6364	5.e-002	15.191
10533	7.2857	5.3636	0.	4092.
10534	7.1946	5.4545	0.	4121.3
10535	7.2857	5.4545	5.e-002	15.068
10536	7.2857	5.1818	0.	4104.8
10537	7.1946	5.2727	0.	4131.6
10538	7.2857	5.2727	5.e-002	14.683
10539	7.2857	5.	0.	4117.1
10540	7.1946	5.0909	0.	4141.5
10541	7.2857	5.0909	5.e-002	14.175
10542	7.2857	4.8182	0.	4128.6
10543	7.1946	4.9091	0.	4150.8
10544	7.2857	4.9091	5.e-002	13.564
10545	7.2857	4.6364	0.	4138.9
10546	7.1946	4.7273	0.	4159.1
10547	7.2857	4.7273	5.e-002	12.859
10548	7.2857	4.4545	0.	4148.
10549	7.1946	4.5455	0.	4166.4
10550	7.2857	4.5455	5.e-002	12.068
10551	7.2857	4.2727	0.	4155.8
10552	7.1946	4.3636	0.	4172.6
10553	7.2857	4.3636	5.e-002	11.197
10554	7.2857	4.0909	0.	4162.4
10555	7.1946	4.1818	0.	4177.6
10556	7.2857	4.1818	5.e-002	10.257
10557	7.2857	3.9091	0.	4167.7
10558	7.1946	4.	0.	4181.7
10559	7.2857	4.	5.e-002	9.2641
10560	7.2857	3.7273	0.	4171.8
10561	7.1946	3.8182	0.	4184.8
10562	7.2857	3.8182	5.e-002	8.2431
10563	7.2857	3.5455	0.	4175.
10564	7.1946	3.6364	0.	4187.1
10565	7.2857	3.6364	5.e-002	7.2373
10566	7.2857	3.3636	0.	4177.1
10567	7.1946	3.4545	0.	4188.7
10568	7.2857	3.4545	5.e-002	6.3154
10569	7.2857	3.1818	0.	4178.4
10570	7.1946	3.2727	0.	4189.8
10571	7.2857	3.2727	5.e-002	5.58
10572	7.2857	3.	0.	4178.8
10573	7.1946	3.0909	0.	4190.3
10574	7.2857	3.0909	5.e-002	5.1606
10575	7.2857	2.8182	0.	4178.4
10576	7.1946	2.9091	0.	4190.3
10577	7.2857	2.9091	5.e-002	5.1606
10578	7.2857	2.6364	0.	4177.1
10579	7.1946	2.7273	0.	4189.8
10580	7.2857	2.7273	5.e-002	5.58
10581	7.2857	2.4545	0.	4175.
10582	7.1946	2.5455	0.	4188.7
10583	7.2857	2.5455	5.e-002	6.3154
10584	7.2857	2.2727	0.	4171.8
10585	7.1946	2.3636	0.	4187.1
10586	7.2857	2.3636	5.e-002	7.2373
10587	7.2857	2.0909	0.	4167.7
10588	7.1946	2.1818	0.	4184.8
10589	7.2857	2.1818	5.e-002	8.2431
10590	7.2857	1.9091	0.	4162.4
10591	7.1946	2.	0.	4181.7
10592	7.2857	2.	5.e-002	9.2641
10593	7.2857	1.7273	0.	4155.8
10594	7.1946	1.8182	0.	4177.6
10595	7.2857	1.8182	5.e-002	10.257
10596	7.2857	1.5455	0.	4148.
10597	7.1946	1.6364	0.	4172.6
10598	7.2857	1.6364	5.e-002	11.197
10599	7.2857	1.3636	0.	4138.9
10600	7.1946	1.4545	0.	4166.4
10601	7.2857	1.4545	5.e-002	12.068
10602	7.2857	1.1818	0.	4128.6
10603	7.1946	1.2727	0.	4159.1
10604	7.2857	1.2727	5.e-002	12.859
10605	7.2857	1.	0.	4117.1
10606	7.1946	1.0909	0.	4150.8
10607	7.2857	1.0909	5.e-002	13.564
10608	7.2857	0.81818	0.	4104.8
10609	7.1946	0.90909	0.	4141.5
10610	7.2857	0.90909	5.e-002	14.175
10611	7.2857	0.63636	0.	4092.
10612	7.1946	0.72727	0.	4131.6
10613	7.2857	0.72727	5.e-002	14.683
10614	7.2857	0.45455	0.	4079.1
10615	7.1946	0.54545	0.	4121.3
10616	7.2857	0.54545	5.e-002	15.068
10617	7.2857	0.27273	0.	4066.6
10618	7.1946	0.36364	0.	4111.1
10619	7.2857	0.36364	5.e-002	15.191
10620	7.1946	0.18182	0.	4101.5
10621	7.2857	0.18182	5.e-002	12.945
10622	7.2857	9.0909e-002	0.	4056.1
10623	7.1036	5.7273	0.	4145.9
10624	7.0125	5.8182	0.	4180.8
10625	7.1036	5.8182	5.e-002	11.639
10626	7.1036	5.9091	0.	4139.7
10627	7.1036	5.5455	0.	4153.3
10628	7.0125	5.6364	0.	4185.6
10629	7.1036	5.6364	5.e-002	14.173
10630	7.1036	5.3636	0.	4160.9
10631	7.0125	5.4545	0.	4191.
10632	7.1036	5.4545	5.e-002	14.151
10633	7.1036	5.1818	0.	4168.3
10634	7.0125	5.2727	0.	4196.2
10635	7.1036	5.2727	5.e-002	13.867
10636	7.1036	5.	0.	4175.2
10637	7.0125	5.0909	0.	4201.2
10638	7.1036	5.0909	5.e-002	13.474
10639	7.1036	4.8182	0.	4181.3
10640	7.0125	4.9091	0.	4205.5
10641	7.1036	4.9091	5.e-002	12.989
10642	7.1036	4.6364	0.	4186.6
10643	7.0125	4.7273	0.	4209.1
10644	7.1036	4.7273	5.e-002	12.42
10645	7.1036	4.4545	0.	4190.9
10646	7.0125	4.5455	0.	4211.8
10647	7.1036	4.5455	5.e-002	11.773
10648	7.1036	4.2727	0.	4194.4
10649	7.0125	4.3636	0.	4213.8
10650	7.1036	4.3636	5.e-002	11.057
10651	7.1036	4.0909	0.	4196.9
10652	7.0125	4.1818	0.	4215.1
10653	7.1036	4.1818	5.e-002	10.284
10654	7.1036	3.9091	0.	4198.8
10655	7.0125	4.	0.	4215.8
10656	7.1036	4.	5.e-002	9.4717
10657	7.1036	3.7273	0.	4200.1
10658	7.0125	3.8182	0.	4216.1
10659	7.1036	3.8182	5.e-002	8.6495
10660	7.1036	3.5455	0.	4200.9
10661	7.0125	3.6364	0.	4216.1
10662	7.1036	3.6364	5.e-002	7.8589
10663	7.1036	3.3636	0.	4201.4
10664	7.0125	3.4545	0.	4216.
10665	7.1036	3.4545	5.e-002	7.1585
10666	7.1036	3.1818	0.	4201.7
10667	7.0125	3.2727	0.	4215.8
10668	7.1036	3.2727	5.e-002	6.6227
10669	7.1036	3.	0.	4201.8
10670	7.0125	3.0909	0.	4215.7
10671	7.1036	3.0909	5.e-002	6.3286
10672	7.1036	2.8182	0.	4201.7
10673	7.0125	2.9091	0.	4215.7
10674	7.1036	2.9091	5.e-002	6.3286
10675	7.1036	2.6364	0.	4201.4
10676	7.0125	2.7273	0.	4215.8
10677	7.1036	2.7273	5.e-002	6.6227
10678	7.1036	2.4545	0.	4200.9
10679	7.0125	2.5455	0.	4216.
10680	7.1036	2.5455	5.e-002	7.1585
10681	7.1036	2.2727	0.	4200.1
10682	7.0125	2.3636	0.	4216.1
10683	7.1036	2.3636	5.e-002	7.8589
10684	7.1036	2.0909	0.	4198.8
10685	7.0125	2.1818	0.	4216.1
10686	7.1036	2.1818	5.e-002	8.6495
10687	7.1036	1.9091	0.	4196.9
10688	7.0125	2.	0.	4215.8
10689	7.1036	2.	5.e-002	9.4717
10690	7.1036	1.7273	0.	4194.4
10691	7.0125	1.8182	0.	4215.1
10692	7.1036	1.8182	5.e-002	10.284
10693	7.1036	1.5455	0.	4190.9
10694	7.0125	1.6364	0.	4213.8
10695	7.1036	1.6364	5.e-002	11.057
10696	7.1036	1.3636	0.	4186.6
10697	7.0125	1.4545	0.	4211.8
10698	7.1036	1.4545	5.e-002	11.773
10699	7.1036	1.1818	0.	4181.3
10700	7.0125	1.2727	0.	4209.1
10701	7.1036	1.2727	5.e-002	12.42
10702	7.1036	1.	0.	4175.2
10703	7.0125	1.0909	0.	4205.5
10704	7.1036	1.0909	5.e-002	12.989
10705	7.1036	0.81818	0.	4168.3
10706	7.0125	0.90909	0.	4201.2
10707	7.1036	0.90909	5.e-002	13.474
10708	7.1036	0.63636	0.	4160.9
10709	7.0125	0.72727	0.	4196.2
10710	7.1036	0.72727	5.e-002	13.867
10711	7.1036	0.45455	0.	4153.3
10712	7.0125	0.54545	0.	4191.
10713	7.1036	0.54545	5.e-002	14.151
10714	7.1036	0.27273	0.	4145.9
10715	7.0125	0.36364	0.	4185.6
10716	7.1036	0.36364	5.e-002	14.173
10717	7.0125	0.18182	0.	4180.8
10718	7.1036	0.18182	5.e-002	11.639
10719	7.1036	9.0909e-002	0.	4139.7
10720	6.9214	5.7273	0.	4220.4
10721	6.8304	5.8182	0.	4255.5
10722	6.9214	5.8182	5.e-002	10.699
10723	6.9214	5.9091	0.	4218.
10724	6.9214	5.5455	0.	4223.3
10725	6.8304	5.6364	0.	4256.2
10726	6.9214	5.6364	5.e-002	13.391
10727	6.9214	5.3636	0.	4226.3
10728	6.8304	5.4545	0.	4257.2
10729	6.9214	5.4545	5.e-002	13.443
10730	6.9214	5.1818	0.	4229.1
10731	6.8304	5.2727	0.	4258.2
10732	6.9214	5.2727	5.e-002	13.241
10733	6.9214	5.	0.	4231.4
10734	6.8304	5.0909	0.	4258.8
10735	6.9214	5.0909	5.e-002	12.942
10736	6.9214	4.8182	0.	4233.2
10737	6.8304	4.9091	0.	4259.
10738	6.9214	4.9091	5.e-002	12.561
10739	6.9214	4.6364	0.	4234.3
10740	6.8304	4.7273	0.	4258.6
10741	6.9214	4.7273	5.e-002	12.105
10742	6.9214	4.4545	0.	4234.7
10743	6.8304	4.5455	0.	4257.7
10744	6.9214	4.5455	5.e-002	11.581
10745	6.9214	4.2727	0.	4234.6
10746	6.8304	4.3636	0.	4256.3
10747	6.9214	4.3636	5.e-002	10.997
10748	6.9214	4.0909	0.	4234.
10749	6.8304	4.1818	0.	4254.5
10750	6.9214	4.1818	5.e-002	10.368
10751	6.9214	3.9091	0.	4233.2
10752	6.8304	4.	0.	4252.6
10753	6.9214	4.	5.e-002	9.7107
10754	6.9214	3.7273	0.	4232.2
10755	6.8304	3.8182	0.	4250.6
10756	6.9214	3.8182	5.e-002	9.0538
10757	6.9214	3.5455	0.	4231.2
10758	6.8304	3.6364	0.	4248.8
10759	6.9214	3.6364	5.e-002	8.4339
10760	6.9214	3.3636	0.	4230.4
10761	6.8304	3.4545	0.	4247.3
10762	6.9214	3.4545	5.e-002	7.8975
10763	6.9214	3.1818	0.	4229.9
10764	6.8304	3.2727	0.	4246.2
10765	6.9214	3.2727	5.e-002	7.4973
10766	6.9214	3.	0.	4229.7
10767	6.8304	3.0909	0.	4245.6
10768	6.9214	3.0909	5.e-002	7.2821
10769	6.9214	2.8182	0.	4229.9
10770	6.8304	2.9091	0.	4245.6
10771	6.9214	2.9091	5.e-002	7.2821
10772	6.9214	2.6364	0.	4230.4
10773	6.8304	2.7273	0.	4246.2
10774	6.9214	2.7273	5.e-002	7.4973
10775	6.9214	2.4545	0.	4231.2
10776	6.8304	2.5455	0.	4247.3
10777	6.9214	2.5455	5.e-002	7.8975
10778	6.9214	2.2727	0.	4232.2
10779	6.8304	2.3636	0.	4248.8
10780	6.9214	2.3636	5.e-002	8.4339
10781	6.9214	2.0909	0.	4233.2
10782	6.8304	2.1818	0.	4250.6
10783	6.9214	2.1818	5.e-002	9.0538
10784	6.9214	1.9091	0.	4234.
10785	6.8304	2.	0.	4252.6
10786	6.9214	2.	5.e-002	9.7107
10787	6.9214	1.7273	0.	4234.6
10788	6.8304	1.8182	0.	4254.5
10789	6.9214	1.8182	5.e-002	10.368
10790	6.9214	1.5455	0.	4234.7
10791	6.8304	1.6364	0.	4256.3
10792	6.9214	1.6364	5.e-002	10.997
10793	6.9214	1.3636	0.	4234.3
10794	6.8304	1.4545	0.	4257.7
10795	6.9214	1.4545	5.e-002	11.581
10796	6.9214	1.1818	0.	4233.2
10797	6.8304	1.2727	0.	4258.6
10798	6.9214	1.2727	5.e-002	12.105
10799	6.9214	1.	0.	4231.4
10800	6.8304	1.0909	0.	4259.
10801	6.9214	1.0909	5.e-002	12.561
10802	6.9214	0.81818	0.	4229.1
10803	6.8304	0.90909	0.	4258.8
10804	6.9214	0.90909	5.e-002	12.942
10805	6.9214	0.63636	0.	4226.3
10806	6.8304	0.72727	0.	4258.2
10807	6.9214	0.72727	5.e-002	13.241
10808	6.9214	0.45455	0.	4223.3
10809	6.8304	0.54545	0.	4257.2
10810	6.9214	0.54545	5.e-002	13.443
10811	6.9214	0.27273	0.	4220.4
10812	6.8304	0.36364	0.	4256.2
10813	6.9214	0.36364	5.e-002	13.391
10814	6.8304	0.18182	0.	4255.5
10815	6.9214	0.18182	5.e-002	10.699
10816	6.9214	9.0909e-002	0.	4218.
10817	6.7393	5.7273	0.	4291.2
10818	6.6482	5.8182	0.	4326.7
10819	6.7393	5.8182	5.e-002	10.074
10820	6.7393	5.9091	0.	4292.2
10821	6.7393	5.5455	0.	4290.1
10822	6.6482	5.6364	0.	4323.6
10823	6.7393	5.6364	5.e-002	12.803
10824	6.7393	5.3636	0.	4289.1
10825	6.6482	5.4545	0.	4320.8
10826	6.7393	5.4545	5.e-002	12.908
10827	6.7393	5.1818	0.	4287.9
10828	6.6482	5.2727	0.	4318.
10829	6.7393	5.2727	5.e-002	12.771
10830	6.7393	5.	0.	4286.3
10831	6.6482	5.0909	0.	4315.
10832	6.7393	5.0909	5.e-002	12.547
10833	6.7393	4.8182	0.	4284.4
10834	6.6482	4.9091	0.	4311.6
10835	6.7393	4.9091	5.e-002	12.251
10836	6.7393	4.6364	0.	4282.
10837	6.6482	4.7273	0.	4307.8
10838	6.7393	4.7273	5.e-002	11.889
10839	6.7393	4.4545	0.	4279.2
10840	6.6482	4.5455	0.	4303.8
10841	6.7393	4.5455	5.e-002	11.468
10842	6.7393	4.2727	0.	4276.2
10843	6.6482	4.3636	0.	4299.6
10844	6.7393	4.3636	5.e-002	10.996
10845	6.7393	4.0909	0.	4273.1
10846	6.6482	4.1818	0.	4295.3
10847	6.7393	4.1818	5.e-002	10.486
10848	6.7393	3.9091	0.	4270.
10849	6.6482	4.	0.	4291.2
10850	6.7393	4.	5.e-002	9.9578
10851	6.7393	3.7273	0.	4267.2
10852	6.6482	3.8182	0.	4287.4
10853	6.7393	3.8182	5.e-002	9.4345
10854	6.7393	3.5455	0.	4264.8
10855	6.6482	3.6364	0.	4284.1
10856	6.7393	3.6364	5.e-002	8.9473
10857	6.7393	3.3636	0.	4263.
10858	6.6482	3.4545	0.	4281.5
10859	6.7393	3.4545	5.e-002	8.5326
10860	6.7393	3.1818	0.	4261.9
10861	6.6482	3.2727	0.	4279.7
10862	6.7393	3.2727	5.e-002	8.228
10863	6.7393	3.	0.	4261.5
10864	6.6482	3.0909	0.	4278.8
10865	6.7393	3.0909	5.e-002	8.0661
10866	6.7393	2.8182	0.	4261.9
10867	6.6482	2.9091	0.	4278.8
10868	6.7393	2.9091	5.e-002	8.0661
10869	6.7393	2.6364	0.	4263.
10870	6.6482	2.7273	0.	4279.7
10871	6.7393	2.7273	5.e-002	8.228
10872	6.7393	2.4545	0.	4264.8
10873	6.6482	2.5455	0.	4281.5
10874	6.7393	2.5455	5.e-002	8.5326
10875	6.7393	2.2727	0.	4267.2
10876	6.6482	2.3636	0.	4284.1
10877	6.7393	2.3636	5.e-002	8.9473
10878	6.7393	2.0909	0.	4270.
10879	6.6482	2.1818	0.	4287.4
10880	6.7393	2.1818	5.e-002	9.4345
10881	6.7393	1.9091	0.	4273.1
10882	6.6482	2.	0.	4291.2
10883	6.7393	2.	5.e-002	9.9578
10884	6.7393	1.7273	0.	4276.2
10885	6.6482	1.8182	0.	4295.3
10886	6.7393	1.8182	5.e-002	10.486
10887	6.7393	1.5455	0.	4279.2
10888	6.6482	1.6364	0.	4299.6
10889	6.7393	1.6364	5.e-002	10.996
10890	6.7393	1.3636	0.	4282.
10891	6.6482	1.4545	0.	4303.8
10892	6.7393	1.4545	5.e-002	11.468
10893	6.7393	1.1818	0.	4284.4
10894	6.6482	1.2727	0.	4307.8
10895	6.7393	1.2727	5.e-002	11.889
10896	6.7393	1.	0.	4286.3
10897	6.6482	1.0909	0.	4311.6
10898	6.7393	1.0909	5.e-002	12.251
10899	6.7393	0.81818	0.	4287.9
10900	6.6482	0.90909	0.	4315.
10901	6.7393	0.90909	5.e-002	12.547
10902	6.7393	0.63636	0.	4289.1
10903	6.6482	0.72727	0.	4318.
10904	6.7393	0.72727	5.e-002	12.771
10905	6.7393	0.45455	0.	4290.1
10906	6.6482	0.54545	0.	4320.8
10907	6.7393	0.54545	5.e-002	12.908
10908	6.7393	0.27273	0.	4291.2
10909	6.6482	0.36364	0.	4323.6
10910	6.7393	0.36364	5.e-002	12.803
10911	6.6482	0.18182	0.	4326.7
10912	6.7393	0.18182	5.e-002	10.074
10913	6.7393	9.0909e-002	0.	4292.2
10914	6.5571	5.7273	0.	4359.1
10915	6.4661	5.8182	0.	4395.2
10916	6.5571	5.8182	5.e-002	9.7193
10917	6.5571	5.9091	0.	4363.3
10918	6.5571	5.5455	0.	4354.4
10919	6.4661	5.6364	0.	4388.7
10920	6.5571	5.6364	5.e-002	12.377
10921	6.5571	5.3636	0.	4349.8
10922	6.4661	5.4545	0.	4382.5
10923	6.5571	5.4545	5.e-002	12.516
10924	6.5571	5.1818	0.	4345.1
10925	6.4661	5.2727	0.	4376.3
10926	6.5571	5.2727	5.e-002	12.429
10927	6.5571	5.	0.	4340.2
10928	6.4661	5.0909	0.	4370.
10929	6.5571	5.0909	5.e-002	12.265
10930	6.5571	4.8182	0.	4335.1
10931	6.4661	4.9091	0.	4363.5
10932	6.5571	4.9091	5.e-002	12.038
10933	6.5571	4.6364	0.	4329.7
10934	6.4661	4.7273	0.	4356.9
10935	6.5571	4.7273	5.e-002	11.753
10936	6.5571	4.4545	0.	4324.2
10937	6.4661	4.5455	0.	4350.2
10938	6.5571	4.5455	5.e-002	11.417
10939	6.5571	4.2727	0.	4318.8
10940	6.4661	4.3636	0.	4343.6
10941	6.5571	4.3636	5.e-002	11.037
10942	6.5571	4.0909	0.	4313.5
10943	6.4661	4.1818	0.	4337.2
10944	6.5571	4.1818	5.e-002	10.627
10945	6.5571	3.9091	0.	4308.6
10946	6.4661	4.	0.	4331.3
10947	6.5571	4.	5.e-002	10.202
10948	6.5571	3.7273	0.	4304.4
10949	6.4661	3.8182	0.	4326.
10950	6.5571	3.8182	5.e-002	9.7852
10951	6.5571	3.5455	0.	4300.8
10952	6.4661	3.6364	0.	4321.5
10953	6.5571	3.6364	5.e-002	9.4007
10954	6.5571	3.3636	0.	4298.2
10955	6.4661	3.4545	0.	4317.9
10956	6.5571	3.4545	5.e-002	9.077
10957	6.5571	3.1818	0.	4296.6
10958	6.4661	3.2727	0.	4315.5
10959	6.5571	3.2727	5.e-002	8.8416
10960	6.5571	3.	0.	4296.
10961	6.4661	3.0909	0.	4314.3
10962	6.5571	3.0909	5.e-002	8.7175
10963	6.5571	2.8182	0.	4296.6
10964	6.4661	2.9091	0.	4314.3
10965	6.5571	2.9091	5.e-002	8.7175
10966	6.5571	2.6364	0.	4298.2
10967	6.4661	2.7273	0.	4315.5
10968	6.5571	2.7273	5.e-002	8.8416
10969	6.5571	2.4545	0.	4300.8
10970	6.4661	2.5455	0.	4317.9
10971	6.5571	2.5455	5.e-002	9.077
10972	6.5571	2.2727	0.	4304.4
10973	6.4661	2.3636	0.	4321.5
10974	6.5571	2.3636	5.e-002	9.4007
10975	6.5571	2.0909	0.	4308.6
10976	6.4661	2.1818	0.	4326.
10977	6.5571	2.1818	5.e-002	9.7852
10978	6.5571	1.9091	0.	4313.5
10979	6.4661	2.	0.	4331.3
10980	6.5571	2.	5.e-002	10.202
10981	6.5571	1.7273	0.	4318.8
10982	6.4661	1.8182	0.	4337.2
10983	6.5571	1.8182	5.e-002	10.627
10984	6.5571	1.5455	0.	4324.2
10985	6.4661	1.6364	0.	4343.6
10986	6.5571	1.6364	5.e-002	11.037
10987	6.5571	1.3636	0.	4329.7
10988	6.4661	1.4545	0.	4350.2
10989	6.5571	1.4545	5.e-002	11.417
10990	6.5571	1.1818	0.	4335.1
10991	6.4661	1.2727	0.	4356.9
10992	6.5571	1.2727	5.e-002	11.753
10993	6.5571	1.	0.	4340.2
10994	6.4661	1.0909	0.	4363.5
10995	6.5571	1.0909	5.e-002	12.038
10996	6.5571	0.81818	0.	4345.1
10997	6.4661	0.90909	0.	4370.
10998	6.5571	0.90909	5.e-002	12.265
10999	6.5571	0.63636	0.	4349.8
11000	6.4661	0.72727	0.	4376.3
11001	6.5571	0.72727	5.e-002	12.429
11002	6.5571	0.45455	0.	4354.4
11003	6.4661	0.54545	0.	4382.5
11004	6.5571	0.54545	5.e-002	12.516
11005	6.5571	0.27273	0.	4359.1
11006	6.4661	0.36364	0.	4388.7
11007	6.5571	0.36364	5.e-002	12.377
11008	6.4661	0.18182	0.	4395.2
11009	6.5571	0.18182	5.e-002	9.7192
11010	6.5571	9.0909e-002	0.	4363.3
11011	6.375	5.7273	0.	4424.8
11012	6.2839	5.8182	0.	4461.7
11013	6.375	5.8182	5.e-002	9.5957
11014	6.375	5.9091	0.	4431.9
11015	6.375	5.5455	0.	4416.8
11016	6.2839	5.6364	0.	4452.
11017	6.375	5.6364	5.e-002	12.086
11018	6.375	5.3636	0.	4409.1
11019	6.2839	5.4545	0.	4442.7
11020	6.375	5.4545	5.e-002	12.243
11021	6.375	5.1818	0.	4401.2
11022	6.2839	5.2727	0.	4433.5
11023	6.375	5.2727	5.e-002	12.194
11024	6.375	5.	0.	4393.4
11025	6.2839	5.0909	0.	4424.3
11026	6.375	5.0909	5.e-002	12.077
11027	6.375	4.8182	0.	4385.4
11028	6.2839	4.9091	0.	4415.
11029	6.375	4.9091	5.e-002	11.905
11030	6.375	4.6364	0.	4377.4
11031	6.2839	4.7273	0.	4405.8
11032	6.375	4.7273	5.e-002	11.682
11033	6.375	4.4545	0.	4369.6
11034	6.2839	4.5455	0.	4396.8
11035	6.375	4.5455	5.e-002	11.415
11036	6.375	4.2727	0.	4362.
11037	6.2839	4.3636	0.	4388.1
11038	6.375	4.3636	5.e-002	11.11
11039	6.375	4.0909	0.	4355.
11040	6.2839	4.1818	0.	4379.8
11041	6.375	4.1818	5.e-002	10.781
11042	6.375	3.9091	0.	4348.6
11043	6.2839	4.	0.	4372.3
11044	6.375	4.	5.e-002	10.44
11045	6.375	3.7273	0.	4343.1
11046	6.2839	3.8182	0.	4365.7
11047	6.375	3.8182	5.e-002	10.107
11048	6.375	3.5455	0.	4338.6
11049	6.2839	3.6364	0.	4360.2
11050	6.375	3.6364	5.e-002	9.8019
11051	6.375	3.3636	0.	4335.2
11052	6.2839	3.4545	0.	4355.9
11053	6.375	3.4545	5.e-002	9.5468
11054	6.375	3.1818	0.	4333.2
11055	6.2839	3.2727	0.	4352.9
11056	6.375	3.2727	5.e-002	9.3627
11057	6.375	3.	0.	4332.5
11058	6.2839	3.0909	0.	4351.4
11059	6.375	3.0909	5.e-002	9.266
11060	6.375	2.8182	0.	4333.2
11061	6.2839	2.9091	0.	4351.4
11062	6.375	2.9091	5.e-002	9.266
11063	6.375	2.6364	0.	4335.2
11064	6.2839	2.7273	0.	4352.9
11065	6.375	2.7273	5.e-002	9.3627
11066	6.375	2.4545	0.	4338.6
11067	6.2839	2.5455	0.	4355.9
11068	6.375	2.5455	5.e-002	9.5468
11069	6.375	2.2727	0.	4343.1
11070	6.2839	2.3636	0.	4360.2
11071	6.375	2.3636	5.e-002	9.8019
11072	6.375	2.0909	0.	4348.6
11073	6.2839	2.1818	0.	4365.7
11074	6.375	2.1818	5.e-002	10.107
11075	6.375	1.9091	0.	4355.
11076	6.2839	2.	0.	4372.3
11077	6.375	2.	5.e-002	10.44
11078	6.375	1.7273	0.	4362.
11079	6.2839	1.8182	0.	4379.8
11080	6.375	1.8182	5.e-002	10.781
11081	6.375	1.5455	0.	4369.6
11082	6.2839	1.6364	0.	4388.1
11083	6.375	1.6364	5.e-002	11.11
11084	6.375	1.3636	0.	4377.4
11085	6.2839	1.4545	0.	4396.8
11086	6.375	1.4545	5.e-002	11.415
11087	6.375	1.1818	0.	4385.4
11088	6.2839	1.2727	0.	4405.8
11089	6.375	1.2727	5.e-002	11.682
11090	6.375	1.	0.	4393.4
11091	6.2839	1.0909	0.	4415.
11092	6.375	1.0909	5.e-002	11.905
11093	6.375	0.81818	0.	4401.2
11094	6.2839	0.90909	0.	4424.3
11095	6.375	0.90909	5.e-002	12.077
11096	6.375	0.63636	0.	4409.1
11097	6.2839	0.72727	0.	4433.5
11098	6.375	0.72727	5.e-002	12.194
11099	6.375	0.45455	0.	4416.8
11100	6.2839	0.54545	0.	4442.7
11101	6.375	0.54545	5.e-002	12.243
11102	6.375	0.27273	0.	4424.8
11103	6.2839	0.36364	0.	4452.
11104	6.375	0.36364	5.e-002	12.086
11105	6.2839	0.18182	0.	4461.7
11106	6.375	0.18182	5.e-002	9.5957
11107	6.375	9.0909e-002	0.	4431.9
11108	6.1929	5.7273	0.	4488.9
11109	6.1018	5.8182	0.	4526.6
11110	6.1929	5.8182	5.e-002	9.6694
11111	6.1929	5.9091	0.	4498.7
11112	6.1929	5.5455	0.	4477.9
11113	6.1018	5.6364	0.	4514.
11114	6.1929	5.6364	5.e-002	11.906
11115	6.1929	5.3636	0.	4467.2
11116	6.1018	5.4545	0.	4501.9
11117	6.1929	5.4545	5.e-002	12.067
11118	6.1929	5.1818	0.	4456.5
11119	6.1018	5.2727	0.	4489.8
11120	6.1929	5.2727	5.e-002	12.046
11121	6.1929	5.	0.	4445.9
11122	6.1018	5.0909	0.	4477.9
11123	6.1929	5.0909	5.e-002	11.967
11124	6.1929	4.8182	0.	4435.4
11125	6.1018	4.9091	0.	4466.1
11126	6.1929	4.9091	5.e-002	11.838
11127	6.1929	4.6364	0.	4425.1
11128	6.1018	4.7273	0.	4454.6
11129	6.1929	4.7273	5.e-002	11.666
11130	6.1929	4.4545	0.	4415.2
11131	6.1018	4.5455	0.	4443.4
11132	6.1929	4.5455	5.e-002	11.454
11133	6.1929	4.2727	0.	4405.8
11134	6.1018	4.3636	0.	4432.8
11135	6.1929	4.3636	5.e-002	11.21
11136	6.1929	4.0909	0.	4397.2
11137	6.1018	4.1818	0.	4423.
11138	6.1929	4.1818	5.e-002	10.945
11139	6.1929	3.9091	0.	4389.4
11140	6.1018	4.	0.	4414.
11141	6.1929	4.	5.e-002	10.672
11142	6.1929	3.7273	0.	4382.8
11143	6.1018	3.8182	0.	4406.3
11144	6.1929	3.8182	5.e-002	10.404
11145	6.1929	3.5455	0.	4377.5
11146	6.1018	3.6364	0.	4399.8
11147	6.1929	3.6364	5.e-002	10.16
11148	6.1929	3.3636	0.	4373.5
11149	6.1018	3.4545	0.	4394.8
11150	6.1929	3.4545	5.e-002	9.9577
11151	6.1929	3.1818	0.	4371.1
11152	6.1018	3.2727	0.	4391.4
11153	6.1929	3.2727	5.e-002	9.8119
11154	6.1929	3.	0.	4370.3
11155	6.1018	3.0909	0.	4389.7
11156	6.1929	3.0909	5.e-002	9.7356
11157	6.1929	2.8182	0.	4371.1
11158	6.1018	2.9091	0.	4389.7
11159	6.1929	2.9091	5.e-002	9.7356
11160	6.1929	2.6364	0.	4373.5
11161	6.1018	2.7273	0.	4391.4
11162	6.1929	2.7273	5.e-002	9.8119
11163	6.1929	2.4545	0.	4377.5
11164	6.1018	2.5455	0.	4394.8
11165	6.1929	2.5455	5.e-002	9.9577
11166	6.1929	2.2727	0.	4382.8
11167	6.1018	2.3636	0.	4399.8
11168	6.1929	2.3636	5.e-002	10.16
11169	6.1929	2.0909	0.	4389.4
11170	6.1018	2.1818	0.	4406.3
11171	6.1929	2.1818	5.e-002	10.404
11172	6.1929	1.9091	0.	4397.2
11173	6.1018	2.	0.	4414.
11174	6.1929	2.	5.e-002	10.672
11175	6.1929	1.7273	0.	4405.8
11176	6.1018	1.8182	0.	4423.
11177	6.1929	1.8182	5.e-002	10.945
11178	6.1929	1.5455	0.	4415.2
11179	6.1018	1.6364	0.	4432.8
11180	6.1929	1.6364	5.e-002	11.21
11181	6.1929	1.3636	0.	4425.1
11182	6.1018	1.4545	0.	4443.4
11183	6.1929	1.4545	5.e-002	11.454
11184	6.1929	1.1818	0.	4435.4
11185	6.1018	1.2727	0.	4454.6
11186	6.1929	1.2727	5.e-002	11.666
11187	6.1929	1.	0.	4445.9
11188	6.1018	1.0909	0.	4466.1
11189	6.1929	1.0909	5.e-002	11.838
11190	6.1929	0.81818	0.	4456.5
11191	6.1018	0.90909	0.	4477.9
11192	6.1929	0.90909	5.e-002	11.967
11193	6.1929	0.63636	0.	4467.2
11194	6.1018	0.72727	0.	4489.8
11195	6.1929	0.72727	5.e-002	12.046
11196	6.1929	0.45455	0.	4477.9
11197	6.1018	0.54545	0.	4501.9
11198	6.1929	0.54545	5.e-002	12.067
11199	6.1929	0.27273	0.	4488.9
11200	6.1018	0.36364	0.	4514.
11201	6.1929	0.36364	5.e-002	11.906
11202	6.1018	0.18182	0.	4526.6
11203	6.1929	0.18182	5.e-002	9.6694
11204	6.1929	9.0909e-002	0.	4498.7
11205	6.0107	5.7273	0.	4551.7
11206	5.9196	5.8182	0.	4590.4
11207	6.0107	5.8182	5.e-002	9.9121
11208	6.0107	5.9091	0.	4564.1
11209	6.0107	5.5455	0.	4538.
11210	5.9196	5.6364	0.	4575.1
11211	6.0107	5.6364	5.e-002	11.819
11212	6.0107	5.3636	0.	4524.5
11213	5.9196	5.4545	0.	4560.2
11214	6.0107	5.4545	5.e-002	11.975
11215	6.0107	5.1818	0.	4511.2
11216	5.9196	5.2727	0.	4545.5
11217	6.0107	5.2727	5.e-002	11.974
11218	6.0107	5.	0.	4498.1
11219	5.9196	5.0909	0.	4531.1
11220	6.0107	5.0909	5.e-002	11.922
11221	6.0107	4.8182	0.	4485.3
11222	5.9196	4.9091	0.	4516.9
11223	6.0107	4.9091	5.e-002	11.828
11224	6.0107	4.6364	0.	4472.9
11225	5.9196	4.7273	0.	4503.2
11226	6.0107	4.7273	5.e-002	11.695
11227	6.0107	4.4545	0.	4461.
11228	5.9196	4.5455	0.	4490.1
11229	6.0107	4.5455	5.e-002	11.528
11230	6.0107	4.2727	0.	4449.9
11231	5.9196	4.3636	0.	4477.8
11232	6.0107	4.3636	5.e-002	11.333
11233	6.0107	4.0909	0.	4439.8
11234	5.9196	4.1818	0.	4466.4
11235	6.0107	4.1818	5.e-002	11.12
11236	6.0107	3.9091	0.	4430.9
11237	5.9196	4.	0.	4456.2
11238	6.0107	4.	5.e-002	10.898
11239	6.0107	3.7273	0.	4423.3
11240	5.9196	3.8182	0.	4447.3
11241	6.0107	3.8182	5.e-002	10.683
11242	6.0107	3.5455	0.	4417.1
11243	5.9196	3.6364	0.	4440.
11244	6.0107	3.6364	5.e-002	10.486
11245	6.0107	3.3636	0.	4412.7
11246	5.9196	3.4545	0.	4434.4
11247	6.0107	3.4545	5.e-002	10.324
11248	6.0107	3.1818	0.	4409.9
11249	5.9196	3.2727	0.	4430.5
11250	6.0107	3.2727	5.e-002	10.207
11251	6.0107	3.	0.	4409.
11252	5.9196	3.0909	0.	4428.6
11253	6.0107	3.0909	5.e-002	10.146
11254	6.0107	2.8182	0.	4409.9
11255	5.9196	2.9091	0.	4428.6
11256	6.0107	2.9091	5.e-002	10.146
11257	6.0107	2.6364	0.	4412.7
11258	5.9196	2.7273	0.	4430.5
11259	6.0107	2.7273	5.e-002	10.207
11260	6.0107	2.4545	0.	4417.1
11261	5.9196	2.5455	0.	4434.4
11262	6.0107	2.5455	5.e-002	10.324
11263	6.0107	2.2727	0.	4423.3
11264	5.9196	2.3636	0.	4440.
11265	6.0107	2.3636	5.e-002	10.486
11266	6.0107	2.0909	0.	4430.9
11267	5.9196	2.1818	0.	4447.3
11268	6.0107	2.1818	5.e-002	10.683
11269	6.0107	1.9091	0.	4439.8
11270	5.9196	2.	0.	4456.2
11271	6.0107	2.	5.e-002	10.898
11272	6.0107	1.7273	0.	4449.9
11273	5.9196	1.8182	0.	4466.4
11274	6.0107	1.8182	5.e-002	11.12
11275	6.0107	1.5455	0.	4461.
11276	5.9196	1.6364	0.	4477.8
11277	6.0107	1.6364	5.e-002	11.333
11278	6.0107	1.3636	0.	4472.9
11279	5.9196	1.4545	0.	4490.1
11280	6.0107	1.4545	5.e-002	11.528
11281	6.0107	1.1818	0.	4485.3
11282	5.9196	1.2727	0.	4503.2
11283	6.0107	1.2727	5.e-002	11.695
11284	6.0107	1.	0.	4498.1
11285	5.9196	1.0909	0.	4516.9
11286	6.0107	1.0909	5.e-002	11.828
11287	6.0107	0.81818	0.	4511.2
11288	5.9196	0.90909	0.	4531.1
11289	6.0107	0.90909	5.e-002	11.922
11290	6.0107	0.63636	0.	4524.5
11291	5.9196	0.72727	0.	4545.5
11292	6.0107	0.72727	5.e-002	11.974
11293	6.0107	0.45455	0.	4538.
11294	5.9196	0.54545	0.	4560.2
11295	6.0107	0.54545	5.e-002	11.975
11296	6.0107	0.27273	0.	4551.7
11297	5.9196	0.36364	0.	4575.1
11298	6.0107	0.36364	5.e-002	11.819
11299	5.9196	0.18182	0.	4590.4
11300	6.0107	0.18182	5.e-002	9.9121
11301	6.0107	9.0909e-002	0.	4564.1
11302	5.8286	5.7273	0.	4613.8
11303	5.7375	5.8182	0.	4653.5
11304	5.8286	5.8182	5.e-002	10.301
11305	5.8286	5.9091	0.	4628.6
11306	5.8286	5.5455	0.	4597.3
11307	5.7375	5.6364	0.	4635.5
11308	5.8286	5.6364	5.e-002	11.811
11309	5.8286	5.3636	0.	4581.2
11310	5.7375	5.4545	0.	4618.
11311	5.8286	5.4545	5.e-002	11.952
11312	5.8286	5.1818	0.	4565.4
11313	5.7375	5.2727	0.	4600.8
11314	5.8286	5.2727	5.e-002	11.966
11315	5.8286	5.	0.	4549.9
11316	5.7375	5.0909	0.	4584.
11317	5.8286	5.0909	5.e-002	11.935
11318	5.8286	4.8182	0.	4534.9
11319	5.7375	4.9091	0.	4567.6
11320	5.8286	4.9091	5.e-002	11.868
11321	5.8286	4.6364	0.	4520.5
11322	5.7375	4.7273	0.	4551.8
11323	5.8286	4.7273	5.e-002	11.766
11324	5.8286	4.4545	0.	4506.9
11325	5.7375	4.5455	0.	4536.8
11326	5.8286	4.5455	5.e-002	11.633
11327	5.8286	4.2727	0.	4494.2
11328	5.7375	4.3636	0.	4522.7
11329	5.8286	4.3636	5.e-002	11.477
11330	5.8286	4.0909	0.	4482.7
11331	5.7375	4.1818	0.	4509.9
11332	5.8286	4.1818	5.e-002	11.304
11333	5.8286	3.9091	0.	4472.6
11334	5.7375	4.	0.	4498.4
11335	5.8286	4.	5.e-002	11.124
11336	5.8286	3.7273	0.	4464.
11337	5.7375	3.8182	0.	4488.6
11338	5.8286	3.8182	5.e-002	10.948
11339	5.8286	3.5455	0.	4457.2
11340	5.7375	3.6364	0.	4480.4
11341	5.8286	3.6364	5.e-002	10.789
11342	5.8286	3.3636	0.	4452.2
11343	5.7375	3.4545	0.	4474.2
11344	5.8286	3.4545	5.e-002	10.656
11345	5.8286	3.1818	0.	4449.2
11346	5.7375	3.2727	0.	4470.
11347	5.8286	3.2727	5.e-002	10.562
11348	5.8286	3.	0.	4448.2
11349	5.7375	3.0909	0.	4467.8
11350	5.8286	3.0909	5.e-002	10.512
11351	5.8286	2.8182	0.	4449.2
11352	5.7375	2.9091	0.	4467.8
11353	5.8286	2.9091	5.e-002	10.512
11354	5.8286	2.6364	0.	4452.2
11355	5.7375	2.7273	0.	4470.
11356	5.8286	2.7273	5.e-002	10.562
11357	5.8286	2.4545	0.	4457.2
11358	5.7375	2.5455	0.	4474.2
11359	5.8286	2.5455	5.e-002	10.656
11360	5.8286	2.2727	0.	4464.
11361	5.7375	2.3636	0.	4480.4
11362	5.8286	2.3636	5.e-002	10.789
11363	5.8286	2.0909	0.	4472.6
11364	5.7375	2.1818	0.	4488.6
11365	5.8286	2.1818	5.e-002	10.948
11366	5.8286	1.9091	0.	4482.7
11367	5.7375	2.	0.	4498.4
11368	5.8286	2.	5.e-002	11.124
11369	5.8286	1.7273	0.	4494.2
11370	5.7375	1.8182	0.	4509.9
11371	5.8286	1.8182	5.e-002	11.304
11372	5.8286	1.5455	0.	4506.9
11373	5.7375	1.6364	0.	4522.7
11374	5.8286	1.6364	5.e-002	11.477
11375	5.8286	1.3636	0.	4520.5
11376	5.7375	1.4545	0.	4536.8
11377	5.8286	1.4545	5.e-002	11.633
11378	5.8286	1.1818	0.	4534.9
11379	5.7375	1.2727	0.	4551.8
11380	5.8286	1.2727	5.e-002	11.766
11381	5.8286	1.	0.	4549.9
11382	5.7375	1.0909	0.	4567.6
11383	5.8286	1.0909	5.e-002	11.868
11384	5.8286	0.81818	0.	4565.4
11385	5.7375	0.90909	0.	4584.
11386	5.8286	0.90909	5.e-002	11.935
11387	5.8286	0.63636	0.	4581.2
11388	5.7375	0.72727	0.	4600.8
11389	5.8286	0.72727	5.e-002	11.966
11390	5.8286	0.45455	0.	4597.3
11391	5.7375	0.54545	0.	4618.
11392	5.8286	0.54545	5.e-002	11.952
11393	5.8286	0.27273	0.	4613.8
11394	5.7375	0.36364	0.	4635.5
11395	5.8286	0.36364	5.e-002	11.811
11396	5.7375	0.18182	0.	4653.5
11397	5.8286	0.18182	5.e-002	10.301
11398	5.8286	9.0909e-002	0.	4628.6
11399	5.6464	5.7273	0.	4675.3
11400	5.5554	5.8182	0.	4716.2
11401	5.6464	5.8182	5.e-002	10.82
11402	5.6464	5.9091	0.	4692.5
11403	5.6464	5.5455	0.	4656.2
11404	5.5554	5.6364	0.	4695.6
11405	5.6464	5.6364	5.e-002	11.871
11406	5.6464	5.3636	0.	4637.6
11407	5.5554	5.4545	0.	4675.5
11408	5.6464	5.4545	5.e-002	11.99
11409	5.6464	5.1818	0.	4619.3
11410	5.5554	5.2727	0.	4655.8
11411	5.6464	5.2727	5.e-002	12.013
11412	5.6464	5.	0.	4601.6
11413	5.5554	5.0909	0.	4636.6
11414	5.6464	5.0909	5.e-002	11.998
11415	5.6464	4.8182	0.	4584.4
11416	5.5554	4.9091	0.	4618.
11417	5.6464	4.9091	5.e-002	11.951
11418	5.6464	4.6364	0.	4568.1
11419	5.5554	4.7273	0.	4600.2
11420	5.6464	4.7273	5.e-002	11.873
11421	5.6464	4.4545	0.	4552.7
11422	5.5554	4.5455	0.	4583.3
11423	5.6464	4.5455	5.e-002	11.768
11424	5.6464	4.2727	0.	4538.5
11425	5.5554	4.3636	0.	4567.7
11426	5.6464	4.3636	5.e-002	11.641
11427	5.6464	4.0909	0.	4525.6
11428	5.5554	4.1818	0.	4553.4
11429	5.6464	4.1818	5.e-002	11.5
11430	5.6464	3.9091	0.	4514.4
11431	5.5554	4.	0.	4540.7
11432	5.6464	4.	5.e-002	11.352
11433	5.6464	3.7273	0.	4505.
11434	5.5554	3.8182	0.	4529.8
11435	5.6464	3.8182	5.e-002	11.207
11436	5.6464	3.5455	0.	4497.4
11437	5.5554	3.6364	0.	4520.9
11438	5.6464	3.6364	5.e-002	11.076
11439	5.6464	3.3636	0.	4491.9
11440	5.5554	3.4545	0.	4514.1
11441	5.6464	3.4545	5.e-002	10.967
11442	5.6464	3.1818	0.	4488.6
11443	5.5554	3.2727	0.	4509.4
11444	5.6464	3.2727	5.e-002	10.889
11445	5.6464	3.	0.	4487.5
11446	5.5554	3.0909	0.	4507.1
11447	5.6464	3.0909	5.e-002	10.848
11448	5.6464	2.8182	0.	4488.6
11449	5.5554	2.9091	0.	4507.1
11450	5.6464	2.9091	5.e-002	10.848
11451	5.6464	2.6364	0.	4491.9
11452	5.5554	2.7273	0.	4509.4
11453	5.6464	2.7273	5.e-002	10.889
11454	5.6464	2.4545	0.	4497.4
11455	5.5554	2.5455	0.	4514.1
11456	5.6464	2.5455	5.e-002	10.967
11457	5.6464	2.2727	0.	4505.
11458	5.5554	2.3636	0.	4520.9
11459	5.6464	2.3636	5.e-002	11.076
11460	5.6464	2.0909	0.	4514.4
11461	5.5554	2.1818	0.	4529.8
11462	5.6464	2.1818	5.e-002	11.207
11463	5.6464	1.9091	0.	4525.6
11464	5.5554	2.	0.	4540.7
11465	5.6464	2.	5.e-002	11.352
11466	5.6464	1.7273	0.	4538.5
11467	5.5554	1.8182	0.	4553.4
11468	5.6464	1.8182	5.e-002	11.5
11469	5.6464	1.5455	0.	4552.7
11470	5.5554	1.6364	0.	4567.7
11471	5.6464	1.6364	5.e-002	11.641
11472	5.6464	1.3636	0.	4568.1
11473	5.5554	1.4545	0.	4583.3
11474	5.6464	1.4545	5.e-002	11.768
11475	5.6464	1.1818	0.	4584.4
11476	5.5554	1.2727	0.	4600.2
11477	5.6464	1.2727	5.e-002	11.873
11478	5.6464	1.	0.	4601.6
11479	5.5554	1.0909	0.	4618.
11480	5.6464	1.0909	5.e-002	11.951
11481	5.6464	0.81818	0.	4619.3
11482	5.5554	0.90909	0.	4636.6
11483	5.6464	0.90909	5.e-002	11.998
11484	5.6464	0.63636	0.	4637.6
11485	5.5554	0.72727	0.	4655.8
11486	5.6464	0.72727	5.e-002	12.013
11487	5.6464	0.45455	0.	4656.2
11488	5.5554	0.54545	0.	4675.5
11489	5.6464	0.54545	5.e-002	11.99
11490	5.6464	0.27273	0.	4675.3
11491	5.5554	0.36364	0.	4695.6
11492	5.6464	0.36364	5.e-002	11.871
11493	5.5554	0.18182	0.	4716.2
11494	5.6464	0.18182	5.e-002	10.82
11495	5.6464	9.0909e-002	0.	4692.5
11496	5.4643	5.7273	0.	4736.4
11497	5.3732	5.8182	0.	4778.6
11498	5.4643	5.8182	5.e-002	11.456
11499	5.4643	5.9091	0.	4756.
11500	5.4643	5.5455	0.	4714.8
11501	5.3732	5.6364	0.	4755.4
11502	5.4643	5.6364	5.e-002	11.989
11503	5.4643	5.3636	0.	4693.7
11504	5.3732	5.4545	0.	4732.7
11505	5.4643	5.4545	5.e-002	12.08
11506	5.4643	5.1818	0.	4673.
11507	5.3732	5.2727	0.	4710.6
11508	5.4643	5.2727	5.e-002	12.109
11509	5.4643	5.	0.	4653.
11510	5.3732	5.0909	0.	4689.
11511	5.4643	5.0909	5.e-002	12.106
11512	5.4643	4.8182	0.	4633.8
11513	5.3732	4.9091	0.	4668.3
11514	5.4643	4.9091	5.e-002	12.074
11515	5.4643	4.6364	0.	4615.5
11516	5.3732	4.7273	0.	4648.4
11517	5.4643	4.7273	5.e-002	12.014
11518	5.4643	4.4545	0.	4598.4
11519	5.3732	4.5455	0.	4629.8
11520	5.4643	4.5455	5.e-002	11.93
11521	5.4643	4.2727	0.	4582.6
11522	5.3732	4.3636	0.	4612.5
11523	5.4643	4.3636	5.e-002	11.826
11524	5.4643	4.0909	0.	4568.5
11525	5.3732	4.1818	0.	4596.7
11526	5.4643	4.1818	5.e-002	11.709
11527	5.4643	3.9091	0.	4556.1
11528	5.3732	4.	0.	4582.8
11529	5.4643	4.	5.e-002	11.586
11530	5.4643	3.7273	0.	4545.8
11531	5.3732	3.8182	0.	4570.9
11532	5.4643	3.8182	5.e-002	11.465
11533	5.4643	3.5455	0.	4537.5
11534	5.3732	3.6364	0.	4561.2
11535	5.4643	3.6364	5.e-002	11.355
11536	5.4643	3.3636	0.	4531.6
11537	5.3732	3.4545	0.	4553.7
11538	5.4643	3.4545	5.e-002	11.263
11539	5.4643	3.1818	0.	4527.9
11540	5.3732	3.2727	0.	4548.7
11541	5.4643	3.2727	5.e-002	11.198
11542	5.4643	3.	0.	4526.7
11543	5.3732	3.0909	0.	4546.2
11544	5.4643	3.0909	5.e-002	11.164
11545	5.4643	2.8182	0.	4527.9
11546	5.3732	2.9091	0.	4546.2
11547	5.4643	2.9091	5.e-002	11.164
11548	5.4643	2.6364	0.	4531.6
11549	5.3732	2.7273	0.	4548.7
11550	5.4643	2.7273	5.e-002	11.198
11551	5.4643	2.4545	0.	4537.5
11552	5.3732	2.5455	0.	4553.7
11553	5.4643	2.5455	5.e-002	11.263
11554	5.4643	2.2727	0.	4545.8
11555	5.3732	2.3636	0.	4561.2
11556	5.4643	2.3636	5.e-002	11.355
11557	5.4643	2.0909	0.	4556.1
11558	5.3732	2.1818	0.	4570.9
11559	5.4643	2.1818	5.e-002	11.465
11560	5.4643	1.9091	0.	4568.5
11561	5.3732	2.	0.	4582.8
11562	5.4643	2.	5.e-002	11.586
11563	5.4643	1.7273	0.	4582.6
11564	5.3732	1.8182	0.	4596.7
11565	5.4643	1.8182	5.e-002	11.709
11566	5.4643	1.5455	0.	4598.4
11567	5.3732	1.6364	0.	4612.5
11568	5.4643	1.6364	5.e-002	11.826
11569	5.4643	1.3636	0.	4615.5
11570	5.3732	1.4545	0.	4629.8
11571	5.4643	1.4545	5.e-002	11.93
11572	5.4643	1.1818	0.	4633.8
11573	5.3732	1.2727	0.	4648.4
11574	5.4643	1.2727	5.e-002	12.014
11575	5.4643	1.	0.	4653.
11576	5.3732	1.0909	0.	4668.3
11577	5.4643	1.0909	5.e-002	12.074
11578	5.4643	0.81818	0.	4673.
11579	5.3732	0.90909	0.	4689.
11580	5.4643	0.90909	5.e-002	12.106
11581	5.4643	0.63636	0.	4693.7
11582	5.3732	0.72727	0.	4710.6
11583	5.4643	0.72727	5.e-002	12.109
11584	5.4643	0.45455	0.	4714.8
11585	5.3732	0.54545	0.	4732.7
11586	5.4643	0.54545	5.e-002	12.08
11587	5.4643	0.27273	0.	4736.4
11588	5.3732	0.36364	0.	4755.4
11589	5.4643	0.36364	5.e-002	11.989
11590	5.3732	0.18182	0.	4778.6
11591	5.4643	0.18182	5.e-002	11.456
11592	5.4643	9.0909e-002	0.	4756.
11593	5.2821	5.7273	0.	4797.5
11594	5.1911	5.8182	0.	4841.
11595	5.2821	5.8182	5.e-002	12.199
11596	5.2821	5.9091	0.	4819.4
11597	5.2821	5.5455	0.	4773.3
11598	5.1911	5.6364	0.	4815.1
11599	5.2821	5.6364	5.e-002	12.16
11600	5.2821	5.3636	0.	4749.6
11601	5.1911	5.4545	0.	4789.9
11602	5.2821	5.4545	5.e-002	12.217
11603	5.2821	5.1818	0.	4726.6
11604	5.1911	5.2727	0.	4765.3
11605	5.2821	5.2727	5.e-002	12.25
11606	5.2821	5.	0.	4704.3
11607	5.1911	5.0909	0.	4741.4
11608	5.2821	5.0909	5.e-002	12.256
11609	5.2821	4.8182	0.	4682.9
11610	5.1911	4.9091	0.	4718.4
11611	5.2821	4.9091	5.e-002	12.234
11612	5.2821	4.6364	0.	4662.7
11613	5.1911	4.7273	0.	4696.5
11614	5.2821	4.7273	5.e-002	12.188
11615	5.2821	4.4545	0.	4643.9
11616	5.1911	4.5455	0.	4676.
11617	5.2821	4.5455	5.e-002	12.119
11618	5.2821	4.2727	0.	4626.6
11619	5.1911	4.3636	0.	4657.
11620	5.2821	4.3636	5.e-002	12.033
11621	5.2821	4.0909	0.	4611.1
11622	5.1911	4.1818	0.	4639.8
11623	5.2821	4.1818	5.e-002	11.934
11624	5.2821	3.9091	0.	4597.6
11625	5.1911	4.	0.	4624.7
11626	5.2821	4.	5.e-002	11.829
11627	5.2821	3.7273	0.	4586.3
11628	5.1911	3.8182	0.	4611.7
11629	5.2821	3.8182	5.e-002	11.726
11630	5.2821	3.5455	0.	4577.4
11631	5.1911	3.6364	0.	4601.1
11632	5.2821	3.6364	5.e-002	11.632
11633	5.2821	3.3636	0.	4570.9
11634	5.1911	3.4545	0.	4593.1
11635	5.2821	3.4545	5.e-002	11.554
11636	5.2821	3.1818	0.	4567.
11637	5.1911	3.2727	0.	4587.6
11638	5.2821	3.2727	5.e-002	11.499
11639	5.2821	3.	0.	4565.7
11640	5.1911	3.0909	0.	4584.9
11641	5.2821	3.0909	5.e-002	11.47
11642	5.2821	2.8182	0.	4567.
11643	5.1911	2.9091	0.	4584.9
11644	5.2821	2.9091	5.e-002	11.47
11645	5.2821	2.6364	0.	4570.9
11646	5.1911	2.7273	0.	4587.6
11647	5.2821	2.7273	5.e-002	11.499
11648	5.2821	2.4545	0.	4577.4
11649	5.1911	2.5455	0.	4593.1
11650	5.2821	2.5455	5.e-002	11.554
11651	5.2821	2.2727	0.	4586.3
11652	5.1911	2.3636	0.	4601.1
11653	5.2821	2.3636	5.e-002	11.632
11654	5.2821	2.0909	0.	4597.6
11655	5.1911	2.1818	0.	4611.7
11656	5.2821	2.1818	5.e-002	11.726
11657	5.2821	1.9091	0.	4611.1
11658	5.1911	2.	0.	4624.7
11659	5.2821	2.	5.e-002	11.829
11660	5.2821	1.7273	0.	4626.6
11661	5.1911	1.8182	0.	4639.8
11662	5.2821	1.8182	5.e-002	11.934
11663	5.2821	1.5455	0.	4643.9
11664	5.1911	1.6364	0.	4657.
11665	5.2821	1.6364	5.e-002	12.033
11666	5.2821	1.3636	0.	4662.7
11667	5.1911	1.4545	0.	4676.
11668	5.2821	1.4545	5.e-002	12.119
11669	5.2821	1.1818	0.	4682.9
11670	5.1911	1.2727	0.	4696.5
11671	5.2821	1.2727	5.e-002	12.188
11672	5.2821	1.	0.	4704.3
11673	5.1911	1.0909	0.	4718.4
11674	5.2821	1.0909	5.e-002	12.234
11675	5.2821	0.81818	0.	4726.6
11676	5.1911	0.90909	0.	4741.4
11677	5.2821	0.90909	5.e-002	12.256
11678	5.2821	0.63636	0.	4749.6
11679	5.1911	0.72727	0.	4765.3
11680	5.2821	0.72727	5.e-002	12.25
11681	5.2821	0.45455	0.	4773.3
11682	5.1911	0.54545	0.	4789.9
11683	5.2821	0.54545	5.e-002	12.217
11684	5.2821	0.27273	0.	4797.5
11685	5.1911	0.36364	0.	4815.1
11686	5.2821	0.36364	5.e-002	12.16
11687	5.1911	0.18182	0.	4841.
11688	5.2821	0.18182	5.e-002	12.199
11689	5.2821	9.0909e-002	0.	4819.4
11690	5.1	5.7273	0.	4858.6
11691	5.0089	5.8182	0.	4903.5
11692	5.1	5.8182	5.e-002	13.045
11693	5.1	5.9091	0.	4882.8
11694	5.1	5.5455	0.	4831.7
11695	5.0089	5.6364	0.	4874.9
11696	5.1	5.6364	5.e-002	12.378
11697	5.1	5.3636	0.	4805.5
11698	5.0089	5.4545	0.	4847.
11699	5.1	5.4545	5.e-002	12.398
11700	5.1	5.1818	0.	4780.
11701	5.0089	5.2727	0.	4819.9
11702	5.1	5.2727	5.e-002	12.432
11703	5.1	5.	0.	4755.4
11704	5.0089	5.0909	0.	4793.6
11705	5.1	5.0909	5.e-002	12.444
11706	5.1	4.8182	0.	4731.9
11707	5.0089	4.9091	0.	4768.3
11708	5.1	4.9091	5.e-002	12.431
11709	5.1	4.6364	0.	4709.8
11710	5.0089	4.7273	0.	4744.4
11711	5.1	4.7273	5.e-002	12.394
11712	5.1	4.4545	0.	4689.1
11713	5.0089	4.5455	0.	4721.9
11714	5.1	4.5455	5.e-002	12.337
11715	5.1	4.2727	0.	4670.3
11716	5.0089	4.3636	0.	4701.2
11717	5.1	4.3636	5.e-002	12.263
11718	5.1	4.0909	0.	4653.4
11719	5.0089	4.1818	0.	4682.6
11720	5.1	4.1818	5.e-002	12.178
11721	5.1	3.9091	0.	4638.8
11722	5.0089	4.	0.	4666.1
11723	5.1	4.	5.e-002	12.087
11724	5.1	3.7273	0.	4626.5
11725	5.0089	3.8182	0.	4652.1
11726	5.1	3.8182	5.e-002	11.997
11727	5.1	3.5455	0.	4616.8
11728	5.0089	3.6364	0.	4640.6
11729	5.1	3.6364	5.e-002	11.915
11730	5.1	3.3636	0.	4609.8
11731	5.0089	3.4545	0.	4631.9
11732	5.1	3.4545	5.e-002	11.847
11733	5.1	3.1818	0.	4605.6
11734	5.0089	3.2727	0.	4626.1
11735	5.1	3.2727	5.e-002	11.798
11736	5.1	3.	0.	4604.2
11737	5.0089	3.0909	0.	4623.1
11738	5.1	3.0909	5.e-002	11.772
11739	5.1	2.8182	0.	4605.6
11740	5.0089	2.9091	0.	4623.1
11741	5.1	2.9091	5.e-002	11.772
11742	5.1	2.6364	0.	4609.8
11743	5.0089	2.7273	0.	4626.1
11744	5.1	2.7273	5.e-002	11.798
11745	5.1	2.4545	0.	4616.8
11746	5.0089	2.5455	0.	4631.9
11747	5.1	2.5455	5.e-002	11.847
11748	5.1	2.2727	0.	4626.5
11749	5.0089	2.3636	0.	4640.6
11750	5.1	2.3636	5.e-002	11.915
11751	5.1	2.0909	0.	4638.8
11752	5.0089	2.1818	0.	4652.1
11753	5.1	2.1818	5.e-002	11.997
11754	5.1	1.9091	0.	4653.4
11755	5.0089	2.	0.	4666.1
11756	5.1	2.	5.e-002	12.087
11757	5.1	1.7273	0.	4670.3
11758	5.0089	1.8182	0.	4682.6
11759	5.1	1.8182	5.e-002	12.178
11760	5.1	1.5455	0.	4689.1
11761	5.0089	1.6364	0.	4701.2
11762	5.1	1.6364	5.e-002	12.263
11763	5.1	1.3636	0.	4709.8
11764	5.0089	1.4545	0.	4721.9
11765	5.1	1.4545	5.e-002	12.337
11766	5.1	1.1818	0.	4731.9
11767	5.0089	1.2727	0.	4744.4
11768	5.1	1.2727	5.e-002	12.394
11769	5.1	1.	0.	4755.4
11770	5.0089	1.0909	0.	4768.3
11771	5.1	1.0909	5.e-002	12.431
11772	5.1	0.81818	0.	4780.
11773	5.0089	0.90909	0.	4793.6
11774	5.1	0.90909	5.e-002	12.444
11775	5.1	0.63636	0.	4805.5
11776	5.0089	0.72727	0.	4819.9
11777	5.1	0.72727	5.e-002	12.432
11778	5.1	0.45455	0.	4831.7
11779	5.0089	0.54545	0.	4847.
11780	5.1	0.54545	5.e-002	12.398
11781	5.1	0.27273	0.	4858.6
11782	5.0089	0.36364	0.	4874.9
11783	5.1	0.36364	5.e-002	12.377
11784	5.0089	0.18182	0.	4903.5
11785	5.1	0.18182	5.e-002	13.045
11786	5.1	9.0909e-002	0.	4882.8
11787	4.9179	5.7273	0.	4919.8
11788	4.8268	5.8182	0.	4966.3
11789	4.9179	5.8182	5.e-002	13.99
11790	4.9179	5.9091	0.	4946.3
11791	4.9179	5.5455	0.	4890.2
11792	4.8268	5.6364	0.	4934.8
11793	4.9179	5.6364	5.e-002	12.639
11794	4.9179	5.3636	0.	4861.4
11795	4.8268	5.4545	0.	4904.3
11796	4.9179	5.4545	5.e-002	12.619
11797	4.9179	5.1818	0.	4833.4
11798	4.8268	5.2727	0.	4874.5
11799	4.9179	5.2727	5.e-002	12.653
11800	4.9179	5.	0.	4806.5
11801	4.8268	5.0909	0.	4845.7
11802	4.9179	5.0909	5.e-002	12.67
11803	4.9179	4.8182	0.	4780.8
11804	4.8268	4.9091	0.	4818.1
11805	4.9179	4.9091	5.e-002	12.663
11806	4.9179	4.6364	0.	4756.5
11807	4.8268	4.7273	0.	4792.
11808	4.9179	4.7273	5.e-002	12.633
11809	4.9179	4.4545	0.	4734.1
11810	4.8268	4.5455	0.	4767.6
11811	4.9179	4.5455	5.e-002	12.584
11812	4.9179	4.2727	0.	4713.6
11813	4.8268	4.3636	0.	4745.1
11814	4.9179	4.3636	5.e-002	12.519
11815	4.9179	4.0909	0.	4695.3
11816	4.8268	4.1818	0.	4724.9
11817	4.9179	4.1818	5.e-002	12.444
11818	4.9179	3.9091	0.	4679.5
11819	4.8268	4.	0.	4707.1
11820	4.9179	4.	5.e-002	12.362
11821	4.9179	3.7273	0.	4666.2
11822	4.8268	3.8182	0.	4691.9
11823	4.9179	3.8182	5.e-002	12.282
11824	4.9179	3.5455	0.	4655.8
11825	4.8268	3.6364	0.	4679.6
11826	4.9179	3.6364	5.e-002	12.208
11827	4.9179	3.3636	0.	4648.2
11828	4.8268	3.4545	0.	4670.2
11829	4.9179	3.4545	5.e-002	12.147
11830	4.9179	3.1818	0.	4643.6
11831	4.8268	3.2727	0.	4663.9
11832	4.9179	3.2727	5.e-002	12.103
11833	4.9179	3.	0.	4642.1
11834	4.8268	3.0909	0.	4660.7
11835	4.9179	3.0909	5.e-002	12.08
11836	4.9179	2.8182	0.	4643.6
11837	4.8268	2.9091	0.	4660.7
11838	4.9179	2.9091	5.e-002	12.08
11839	4.9179	2.6364	0.	4648.2
11840	4.8268	2.7273	0.	4663.9
11841	4.9179	2.7273	5.e-002	12.103
11842	4.9179	2.4545	0.	4655.8
11843	4.8268	2.5455	0.	4670.2
11844	4.9179	2.5455	5.e-002	12.147
11845	4.9179	2.2727	0.	4666.2
11846	4.8268	2.3636	0.	4679.6
11847	4.9179	2.3636	5.e-002	12.208
11848	4.9179	2.0909	0.	4679.5
11849	4.8268	2.1818	0.	4691.9
11850	4.9179	2.1818	5.e-002	12.282
11851	4.9179	1.9091	0.	4695.3
11852	4.8268	2.	0.	4707.1
11853	4.9179	2.	5.e-002	12.362
11854	4.9179	1.7273	0.	4713.6
11855	4.8268	1.8182	0.	4724.9
11856	4.9179	1.8182	5.e-002	12.444
11857	4.9179	1.5455	0.	4734.1
11858	4.8268	1.6364	0.	4745.1
11859	4.9179	1.6364	5.e-002	12.519
11860	4.9179	1.3636	0.	4756.5
11861	4.8268	1.4545	0.	4767.6
11862	4.9179	1.4545	5.e-002	12.584
11863	4.9179	1.1818	0.	4780.8
11864	4.8268	1.2727	0.	4792.
11865	4.9179	1.2727	5.e-002	12.633
11866	4.9179	1.	0.	4806.5
11867	4.8268	1.0909	0.	4818.1
11868	4.9179	1.0909	5.e-002	12.663
11869	4.9179	0.81818	0.	4833.4
11870	4.8268	0.90909	0.	4845.7
11871	4.9179	0.90909	5.e-002	12.67
11872	4.9179	0.63636	0.	4861.4
11873	4.8268	0.72727	0.	4874.5
11874	4.9179	0.72727	5.e-002	12.653
11875	4.9179	0.45455	0.	4890.2
11876	4.8268	0.54545	0.	4904.3
11877	4.9179	0.54545	5.e-002	12.619
11878	4.9179	0.27273	0.	4919.8
11879	4.8268	0.36364	0.	4934.8
11880	4.9179	0.36364	5.e-002	12.639
11881	4.8268	0.18182	0.	4966.3
11882	4.9179	0.18182	5.e-002	13.99
11883	4.9179	9.0909e-002	0.	4946.3
11884	4.7357	5.7273	0.	4981.3
11885	4.6446	5.8182	0.	5029.4
11886	4.7357	5.8182	5.e-002	15.032
11887	4.7357	5.9091	0.	5010.1
11888	4.7357	5.5455	0.	4948.8
11889	4.6446	5.6364	0.	4995.
11890	4.7357	5.6364	5.e-002	12.941
11891	4.7357	5.3636	0.	4917.4
11892	4.6446	5.4545	0.	4961.6
11893	4.7357	5.4545	5.e-002	12.878
11894	4.7357	5.1818	0.	4886.8
11895	4.6446	5.2727	0.	4929.1
11896	4.7357	5.2727	5.e-002	12.913
11897	4.7357	5.	0.	4857.4
11898	4.6446	5.0909	0.	4897.8
11899	4.7357	5.0909	5.e-002	12.933
11900	4.7357	4.8182	0.	4829.4
11901	4.6446	4.9091	0.	4867.7
11902	4.7357	4.9091	5.e-002	12.93
11903	4.7357	4.6364	0.	4803.
11904	4.6446	4.7273	0.	4839.3
11905	4.7357	4.7273	5.e-002	12.906
11906	4.7357	4.4545	0.	4778.6
11907	4.6446	4.5455	0.	4812.9
11908	4.7357	4.5455	5.e-002	12.863
11909	4.7357	4.2727	0.	4756.5
11910	4.6446	4.3636	0.	4788.6
11911	4.7357	4.3636	5.e-002	12.804
11912	4.7357	4.0909	0.	4736.7
11913	4.6446	4.1818	0.	4766.7
11914	4.7357	4.1818	5.e-002	12.734
11915	4.7357	3.9091	0.	4719.6
11916	4.6446	4.	0.	4747.5
11917	4.7357	4.	5.e-002	12.66
11918	4.7357	3.7273	0.	4705.3
11919	4.6446	3.8182	0.	4731.2
11920	4.7357	3.8182	5.e-002	12.585
11921	4.7357	3.5455	0.	4694.1
11922	4.6446	3.6364	0.	4717.9
11923	4.7357	3.6364	5.e-002	12.517
11924	4.7357	3.3636	0.	4685.9
11925	4.6446	3.4545	0.	4707.9
11926	4.7357	3.4545	5.e-002	12.461
11927	4.7357	3.1818	0.	4681.
11928	4.6446	3.2727	0.	4701.1
11929	4.7357	3.2727	5.e-002	12.421
11930	4.7357	3.	0.	4679.4
11931	4.6446	3.0909	0.	4697.7
11932	4.7357	3.0909	5.e-002	12.4
11933	4.7357	2.8182	0.	4681.
11934	4.6446	2.9091	0.	4697.7
11935	4.7357	2.9091	5.e-002	12.4
11936	4.7357	2.6364	0.	4685.9
11937	4.6446	2.7273	0.	4701.1
11938	4.7357	2.7273	5.e-002	12.421
11939	4.7357	2.4545	0.	4694.1
11940	4.6446	2.5455	0.	4707.9
11941	4.7357	2.5455	5.e-002	12.461
11942	4.7357	2.2727	0.	4705.3
11943	4.6446	2.3636	0.	4717.9
11944	4.7357	2.3636	5.e-002	12.517
11945	4.7357	2.0909	0.	4719.6
11946	4.6446	2.1818	0.	4731.2
11947	4.7357	2.1818	5.e-002	12.585
11948	4.7357	1.9091	0.	4736.7
11949	4.6446	2.	0.	4747.5
11950	4.7357	2.	5.e-002	12.66
11951	4.7357	1.7273	0.	4756.5
11952	4.6446	1.8182	0.	4766.7
11953	4.7357	1.8182	5.e-002	12.734
11954	4.7357	1.5455	0.	4778.6
11955	4.6446	1.6364	0.	4788.6
11956	4.7357	1.6364	5.e-002	12.804
11957	4.7357	1.3636	0.	4803.
11958	4.6446	1.4545	0.	4812.9
11959	4.7357	1.4545	5.e-002	12.863
11960	4.7357	1.1818	0.	4829.4
11961	4.6446	1.2727	0.	4839.3
11962	4.7357	1.2727	5.e-002	12.906
11963	4.7357	1.	0.	4857.4
11964	4.6446	1.0909	0.	4867.7
11965	4.7357	1.0909	5.e-002	12.93
11966	4.7357	0.81818	0.	4886.8
11967	4.6446	0.90909	0.	4897.8
11968	4.7357	0.90909	5.e-002	12.933
11969	4.7357	0.63636	0.	4917.4
11970	4.6446	0.72727	0.	4929.1
11971	4.7357	0.72727	5.e-002	12.913
11972	4.7357	0.45455	0.	4948.8
11973	4.6446	0.54545	0.	4961.6
11974	4.7357	0.54545	5.e-002	12.878
11975	4.7357	0.27273	0.	4981.3
11976	4.6446	0.36364	0.	4995.
11977	4.7357	0.36364	5.e-002	12.941
11978	4.6446	0.18182	0.	5029.4
11979	4.7357	0.18182	5.e-002	15.032
11980	4.7357	9.0909e-002	0.	5010.1
11981	4.5536	5.7273	0.	5043.1
11982	4.4625	5.8182	0.	5093.
11983	4.5536	5.8182	5.e-002	16.171
11984	4.5536	5.9091	0.	5074.2
11985	4.5536	5.5455	0.	5007.7
11986	4.4625	5.6364	0.	5055.4
11987	4.5536	5.6364	5.e-002	13.283
11988	4.5536	5.3636	0.	4973.4
11989	4.4625	5.4545	0.	5019.1
11990	4.5536	5.4545	5.e-002	13.176
11991	4.5536	5.1818	0.	4940.1
11992	4.4625	5.2727	0.	4983.8
11993	4.5536	5.2727	5.e-002	13.211
11994	4.5536	5.	0.	4908.1
11995	4.4625	5.0909	0.	4949.7
11996	4.5536	5.0909	5.e-002	13.234
11997	4.5536	4.8182	0.	4877.7
11998	4.4625	4.9091	0.	4917.1
11999	4.5536	4.9091	5.e-002	13.235
12000	4.5536	4.6364	0.	4849.2
12001	4.4625	4.7273	0.	4886.4
12002	4.5536	4.7273	5.e-002	13.214
12003	4.5536	4.4545	0.	4822.8
12004	4.4625	4.5455	0.	4857.8
12005	4.5536	4.5455	5.e-002	13.175
12006	4.5536	4.2727	0.	4798.9
12007	4.4625	4.3636	0.	4831.6
12008	4.5536	4.3636	5.e-002	13.12
12009	4.5536	4.0909	0.	4777.6
12010	4.4625	4.1818	0.	4808.
12011	4.5536	4.1818	5.e-002	13.054
12012	4.5536	3.9091	0.	4759.1
12013	4.4625	4.	0.	4787.4
12014	4.5536	4.	5.e-002	12.984
12015	4.5536	3.7273	0.	4743.8
12016	4.4625	3.8182	0.	4769.8
12017	4.5536	3.8182	5.e-002	12.913
12018	4.5536	3.5455	0.	4731.7
12019	4.4625	3.6364	0.	4755.6
12020	4.5536	3.6364	5.e-002	12.849
12021	4.5536	3.3636	0.	4723.
12022	4.4625	3.4545	0.	4744.8
12023	4.5536	3.4545	5.e-002	12.795
12024	4.5536	3.1818	0.	4717.7
12025	4.4625	3.2727	0.	4737.6
12026	4.5536	3.2727	5.e-002	12.757
12027	4.5536	3.	0.	4716.
12028	4.4625	3.0909	0.	4733.9
12029	4.5536	3.0909	5.e-002	12.737
12030	4.5536	2.8182	0.	4717.7
12031	4.4625	2.9091	0.	4733.9
12032	4.5536	2.9091	5.e-002	12.737
12033	4.5536	2.6364	0.	4723.
12034	4.4625	2.7273	0.	4737.6
12035	4.5536	2.7273	5.e-002	12.757
12036	4.5536	2.4545	0.	4731.7
12037	4.4625	2.5455	0.	4744.8
12038	4.5536	2.5455	5.e-002	12.795
12039	4.5536	2.2727	0.	4743.8
12040	4.4625	2.3636	0.	4755.6
12041	4.5536	2.3636	5.e-002	12.849
12042	4.5536	2.0909	0.	4759.1
12043	4.4625	2.1818	0.	4769.8
12044	4.5536	2.1818	5.e-002	12.913
12045	4.5536	1.9091	0.	4777.6
12046	4.4625	2.	0.	4787.4
12047	4.5536	2.	5.e-002	12.984
12048	4.5536	1.7273	0.	4798.9
12049	4.4625	1.8182	0.	4808.
12050	4.5536	1.8182	5.e-002	13.054
12051	4.5536	1.5455	0.	4822.8
12052	4.4625	1.6364	0.	4831.6
12053	4.5536	1.6364	5.e-002	13.12
12054	4.5536	1.3636	0.	4849.2
12055	4.4625	1.4545	0.	4857.8
12056	4.5536	1.4545	5.e-002	13.175
12057	4.5536	1.1818	0.	4877.7
12058	4.4625	1.2727	0.	4886.4
12059	4.5536	1.2727	5.e-002	13.214
12060	4.5536	1.	0.	4908.1
12061	4.4625	1.0909	0.	4917.1
12062	4.5536	1.0909	5.e-002	13.235
12063	4.5536	0.81818	0.	4940.1
12064	4.4625	0.90909	0.	4949.7
12065	4.5536	0.90909	5.e-002	13.234
12066	4.5536	0.63636	0.	4973.4
12067	4.4625	0.72727	0.	4983.8
12068	4.5536	0.72727	5.e-002	13.211
12069	4.5536	0.45455	0.	5007.7
12070	4.4625	0.54545	0.	5019.1
12071	4.5536	0.54545	5.e-002	13.176
12072	4.5536	0.27273	0.	5043.1
12073	4.4625	0.36364	0.	5055.4
12074	4.5536	0.36364	5.e-002	13.283
12075	4.4625	0.18182	0.	5093.
12076	4.5536	0.18182	5.e-002	16.171
12077	4.5536	9.0909e-002	0.	5074.2
12078	4.3714	5.7273	0.	5105.3
12079	4.2804	5.8182	0.	5157.1
12080	4.3714	5.8182	5.e-002	17.408
12081	4.3714	5.9091	0.	5138.7
12082	4.3714	5.5455	0.	5066.7
12083	4.2804	5.6364	0.	5116.1
12084	4.3714	5.6364	5.e-002	13.664
12085	4.3714	5.3636	0.	5029.5
12086	4.2804	5.4545	0.	5076.7
12087	4.3714	5.4545	5.e-002	13.511
12088	4.3714	5.1818	0.	4993.4
12089	4.2804	5.2727	0.	5038.4
12090	4.3714	5.2727	5.e-002	13.547
12091	4.3714	5.	0.	4958.7
12092	4.2804	5.0909	0.	5001.5
12093	4.3714	5.0909	5.e-002	13.574
12094	4.3714	4.8182	0.	4925.8
12095	4.2804	4.9091	0.	4966.3
12096	4.3714	4.9091	5.e-002	13.578
12097	4.3714	4.6364	0.	4895.
12098	4.2804	4.7273	0.	4933.1
12099	4.3714	4.7273	5.e-002	13.56
12100	4.3714	4.4545	0.	4866.5
12101	4.2804	4.5455	0.	4902.2
12102	4.3714	4.5455	5.e-002	13.523
12103	4.3714	4.2727	0.	4840.7
12104	4.2804	4.3636	0.	4874.
12105	4.3714	4.3636	5.e-002	13.471
12106	4.3714	4.0909	0.	4817.8
12107	4.2804	4.1818	0.	4848.7
12108	4.3714	4.1818	5.e-002	13.407
12109	4.3714	3.9091	0.	4798.1
12110	4.2804	4.	0.	4826.6
12111	4.3714	4.	5.e-002	13.339
12112	4.3714	3.7273	0.	4781.6
12113	4.2804	3.8182	0.	4807.8
12114	4.3714	3.8182	5.e-002	13.271
12115	4.3714	3.5455	0.	4768.7
12116	4.2804	3.6364	0.	4792.6
12117	4.3714	3.6364	5.e-002	13.208
12118	4.3714	3.3636	0.	4759.4
12119	4.2804	3.4545	0.	4781.1
12120	4.3714	3.4545	5.e-002	13.156
12121	4.3714	3.1818	0.	4753.7
12122	4.2804	3.2727	0.	4773.3
12123	4.3714	3.2727	5.e-002	13.12
12124	4.3714	3.	0.	4751.8
12125	4.2804	3.0909	0.	4769.4
12126	4.3714	3.0909	5.e-002	13.1
12127	4.3714	2.8182	0.	4753.7
12128	4.2804	2.9091	0.	4769.4
12129	4.3714	2.9091	5.e-002	13.1
12130	4.3714	2.6364	0.	4759.4
12131	4.2804	2.7273	0.	4773.3
12132	4.3714	2.7273	5.e-002	13.12
12133	4.3714	2.4545	0.	4768.7
12134	4.2804	2.5455	0.	4781.1
12135	4.3714	2.5455	5.e-002	13.156
12136	4.3714	2.2727	0.	4781.6
12137	4.2804	2.3636	0.	4792.6
12138	4.3714	2.3636	5.e-002	13.208
12139	4.3714	2.0909	0.	4798.1
12140	4.2804	2.1818	0.	4807.8
12141	4.3714	2.1818	5.e-002	13.271
12142	4.3714	1.9091	0.	4817.8
12143	4.2804	2.	0.	4826.6
12144	4.3714	2.	5.e-002	13.339
12145	4.3714	1.7273	0.	4840.7
12146	4.2804	1.8182	0.	4848.7
12147	4.3714	1.8182	5.e-002	13.407
12148	4.3714	1.5455	0.	4866.5
12149	4.2804	1.6364	0.	4874.
12150	4.3714	1.6364	5.e-002	13.471
12151	4.3714	1.3636	0.	4895.
12152	4.2804	1.4545	0.	4902.2
12153	4.3714	1.4545	5.e-002	13.523
12154	4.3714	1.1818	0.	4925.8
12155	4.2804	1.2727	0.	4933.1
12156	4.3714	1.2727	5.e-002	13.56
12157	4.3714	1.	0.	4958.7
12158	4.2804	1.0909	0.	4966.3
12159	4.3714	1.0909	5.e-002	13.578
12160	4.3714	0.81818	0.	4993.4
12161	4.2804	0.90909	0.	5001.5
12162	4.3714	0.90909	5.e-002	13.574
12163	4.3714	0.63636	0.	5029.4
12164	4.2804	0.72727	0.	5038.4
12165	4.3714	0.72727	5.e-002	13.547
12166	4.3714	0.45455	0.	5066.7
12167	4.2804	0.54545	0.	5076.7
12168	4.3714	0.54545	5.e-002	13.511
12169	4.3714	0.27273	0.	5105.3
12170	4.2804	0.36364	0.	5116.1
12171	4.3714	0.36364	5.e-002	13.664
12172	4.2804	0.18182	0.	5157.1
12173	4.3714	0.18182	5.e-002	17.408
12174	4.3714	9.0909e-002	0.	5138.7
12175	4.1893	5.7273	0.	5167.9
12176	4.0982	5.8182	0.	5221.7
12177	4.1893	5.8182	5.e-002	18.744
12178	4.1893	5.9091	0.	5203.6
12179	4.1893	5.5455	0.	5126.
12180	4.0982	5.6364	0.	5177.1
12181	4.1893	5.6364	5.e-002	14.083
12182	4.1893	5.3636	0.	5085.6
12183	4.0982	5.4545	0.	5134.4
12184	4.1893	5.4545	5.e-002	13.885
12185	4.1893	5.1818	0.	5046.5
12186	4.0982	5.2727	0.	5093.
12187	4.1893	5.2727	5.e-002	13.923
12188	4.1893	5.	0.	5009.1
12189	4.0982	5.0909	0.	5053.1
12190	4.1893	5.0909	5.e-002	13.955
12191	4.1893	4.8182	0.	4973.6
12192	4.0982	4.9091	0.	5015.1
12193	4.1893	4.9091	5.e-002	13.963
12194	4.1893	4.6364	0.	4940.4
12195	4.0982	4.7273	0.	4979.4
12196	4.1893	4.7273	5.e-002	13.948
12197	4.1893	4.4545	0.	4909.7
12198	4.0982	4.5455	0.	4946.2
12199	4.1893	4.5455	5.e-002	13.912
12200	4.1893	4.2727	0.	4882.
12201	4.0982	4.3636	0.	4915.9
12202	4.1893	4.3636	5.e-002	13.861
12203	4.1893	4.0909	0.	4857.5
12204	4.0982	4.1818	0.	4888.8
12205	4.1893	4.1818	5.e-002	13.799
12206	4.1893	3.9091	0.	4836.3
12207	4.0982	4.	0.	4865.2
12208	4.1893	4.	5.e-002	13.731
12209	4.1893	3.7273	0.	4818.8
12210	4.0982	3.8182	0.	4845.1
12211	4.1893	3.8182	5.e-002	13.664
12212	4.1893	3.5455	0.	4805.
12213	4.0982	3.6364	0.	4828.9
12214	4.1893	3.6364	5.e-002	13.602
12215	4.1893	3.3636	0.	4795.
12216	4.0982	3.4545	0.	4816.7
12217	4.1893	3.4545	5.e-002	13.551
12218	4.1893	3.1818	0.	4789.
12219	4.0982	3.2727	0.	4808.4
12220	4.1893	3.2727	5.e-002	13.515
12221	4.1893	3.	0.	4787.
12222	4.0982	3.0909	0.	4804.3
12223	4.1893	3.0909	5.e-002	13.496
12224	4.1893	2.8182	0.	4789.
12225	4.0982	2.9091	0.	4804.3
12226	4.1893	2.9091	5.e-002	13.496
12227	4.1893	2.6364	0.	4795.
12228	4.0982	2.7273	0.	4808.4
12229	4.1893	2.7273	5.e-002	13.515
12230	4.1893	2.4545	0.	4805.
12231	4.0982	2.5455	0.	4816.7
12232	4.1893	2.5455	5.e-002	13.551
12233	4.1893	2.2727	0.	4818.8
12234	4.0982	2.3636	0.	4828.9
12235	4.1893	2.3636	5.e-002	13.602
12236	4.1893	2.0909	0.	4836.3
12237	4.0982	2.1818	0.	4845.1
12238	4.1893	2.1818	5.e-002	13.664
12239	4.1893	1.9091	0.	4857.5
12240	4.0982	2.	0.	4865.2
12241	4.1893	2.	5.e-002	13.731
12242	4.1893	1.7273	0.	4882.
12243	4.0982	1.8182	0.	4888.8
12244	4.1893	1.8182	5.e-002	13.799
12245	4.1893	1.5455	0.	4909.7
12246	4.0982	1.6364	0.	4915.9
12247	4.1893	1.6364	5.e-002	13.861
12248	4.1893	1.3636	0.	4940.4
12249	4.0982	1.4545	0.	4946.2
12250	4.1893	1.4545	5.e-002	13.912
12251	4.1893	1.1818	0.	4973.6
12252	4.0982	1.2727	0.	4979.4
12253	4.1893	1.2727	5.e-002	13.948
12254	4.1893	1.	0.	5009.1
12255	4.0982	1.0909	0.	5015.1
12256	4.1893	1.0909	5.e-002	13.963
12257	4.1893	0.81818	0.	5046.5
12258	4.0982	0.90909	0.	5053.1
12259	4.1893	0.90909	5.e-002	13.955
12260	4.1893	0.63636	0.	5085.6
12261	4.0982	0.72727	0.	5093.
12262	4.1893	0.72727	5.e-002	13.923
12263	4.1893	0.45455	0.	5126.
12264	4.0982	0.54545	0.	5134.4
12265	4.1893	0.54545	5.e-002	13.885
12266	4.1893	0.27273	0.	5167.9
12267	4.0982	0.36364	0.	5177.1
12268	4.1893	0.36364	5.e-002	14.083
12269	4.0982	0.18182	0.	5221.7
12270	4.1893	0.18182	5.e-002	18.743
12271	4.1893	9.0909e-002	0.	5203.6
12272	4.0071	5.7273	0.	5230.9
12273	3.9161	5.8182	0.	5286.9
12274	4.0071	5.8182	5.e-002	20.179
12275	4.0071	5.9091	0.	5268.9
12276	4.0071	5.5455	0.	5185.5
12277	3.9161	5.6364	0.	5238.4
12278	4.0071	5.6364	5.e-002	14.541
12279	4.0071	5.3636	0.	5141.8
12280	3.9161	5.4545	0.	5192.2
12281	4.0071	5.4545	5.e-002	14.299
12282	4.0071	5.1818	0.	5099.6
12283	3.9161	5.2727	0.	5147.5
12284	4.0071	5.2727	5.e-002	14.342
12285	4.0071	5.	0.	5059.2
12286	3.9161	5.0909	0.	5104.5
12287	4.0071	5.0909	5.e-002	14.38
12288	4.0071	4.8182	0.	5021.
12289	3.9161	4.9091	0.	5063.7
12290	4.0071	4.9091	5.e-002	14.393
12291	4.0071	4.6364	0.	4985.3
12292	3.9161	4.7273	0.	5025.2
12293	4.0071	4.7273	5.e-002	14.38
12294	4.0071	4.4545	0.	4952.4
12295	3.9161	4.5455	0.	4989.7
12296	4.0071	4.5455	5.e-002	14.347
12297	4.0071	4.2727	0.	4922.7
12298	3.9161	4.3636	0.	4957.3
12299	4.0071	4.3636	5.e-002	14.296
12300	4.0071	4.0909	0.	4896.5
12301	3.9161	4.1818	0.	4928.3
12302	4.0071	4.1818	5.e-002	14.234
12303	4.0071	3.9091	0.	4874.
12304	3.9161	4.	0.	4903.1
12305	4.0071	4.	5.e-002	14.166
12306	4.0071	3.7273	0.	4855.3
12307	3.9161	3.8182	0.	4881.8
12308	4.0071	3.8182	5.e-002	14.098
12309	4.0071	3.5455	0.	4840.6
12310	3.9161	3.6364	0.	4864.6
12311	4.0071	3.6364	5.e-002	14.037
12312	4.0071	3.3636	0.	4830.
12313	3.9161	3.4545	0.	4851.6
12314	4.0071	3.4545	5.e-002	13.986
12315	4.0071	3.1818	0.	4823.7
12316	3.9161	3.2727	0.	4842.9
12317	4.0071	3.2727	5.e-002	13.95
12318	4.0071	3.	0.	4821.5
12319	3.9161	3.0909	0.	4838.6
12320	4.0071	3.0909	5.e-002	13.931
12321	4.0071	2.8182	0.	4823.7
12322	3.9161	2.9091	0.	4838.6
12323	4.0071	2.9091	5.e-002	13.931
12324	4.0071	2.6364	0.	4830.
12325	3.9161	2.7273	0.	4842.9
12326	4.0071	2.7273	5.e-002	13.95
12327	4.0071	2.4545	0.	4840.6
12328	3.9161	2.5455	0.	4851.6
12329	4.0071	2.5455	5.e-002	13.986
12330	4.0071	2.2727	0.	4855.3
12331	3.9161	2.3636	0.	4864.6
12332	4.0071	2.3636	5.e-002	14.037
12333	4.0071	2.0909	0.	4874.
12334	3.9161	2.1818	0.	4881.8
12335	4.0071	2.1818	5.e-002	14.098
12336	4.0071	1.9091	0.	4896.5
12337	3.9161	2.	0.	4903.1
12338	4.0071	2.	5.e-002	14.166
12339	4.0071	1.7273	0.	4922.7
12340	3.9161	1.8182	0.	4928.3
12341	4.0071	1.8182	5.e-002	14.234
12342	4.0071	1.5455	0.	4952.4
12343	3.9161	1.6364	0.	4957.3
12344	4.0071	1.6364	5.e-002	14.296
12345	4.0071	1.3636	0.	4985.3
12346	3.9161	1.4545	0.	4989.7
12347	4.0071	1.4545	5.e-002	14.347
12348	4.0071	1.1818	0.	5021.
12349	3.9161	1.2727	0.	5025.2
12350	4.0071	1.2727	5.e-002	14.38
12351	4.0071	1.	0.	5059.2
12352	3.9161	1.0909	0.	5063.7
12353	4.0071	1.0909	5.e-002	14.393
12354	4.0071	0.81818	0.	5099.6
12355	3.9161	0.90909	0.	5104.5
12356	4.0071	0.90909	5.e-002	14.38
12357	4.0071	0.63636	0.	5141.8
12358	3.9161	0.72727	0.	5147.5
12359	4.0071	0.72727	5.e-002	14.342
12360	4.0071	0.45455	0.	5185.5
12361	3.9161	0.54545	0.	5192.2
12362	4.0071	0.54545	5.e-002	14.299
12363	4.0071	0.27273	0.	5230.9
12364	3.9161	0.36364	0.	5238.4
12365	4.0071	0.36364	5.e-002	14.541
12366	3.9161	0.18182	0.	5286.9
12367	4.0071	0.18182	5.e-002	20.179
12368	4.0071	9.0909e-002	0.	5268.9
12369	3.825	5.7273	0.	5294.3
12370	3.7339	5.8182	0.	5352.6
12371	3.825	5.8182	5.e-002	21.714
12372	3.825	5.9091	0.	5334.6
12373	3.825	5.5455	0.	5245.1
12374	3.7339	5.6364	0.	5299.9
12375	3.825	5.6364	5.e-002	15.038
12376	3.825	5.3636	0.	5198.
12377	3.7339	5.4545	0.	5250.1
12378	3.825	5.4545	5.e-002	14.755
12379	3.825	5.1818	0.	5152.5
12380	3.7339	5.2727	0.	5201.9
12381	3.825	5.2727	5.e-002	14.806
12382	3.825	5.	0.	5109.
12383	3.7339	5.0909	0.	5155.6
12384	3.825	5.0909	5.e-002	14.853
12385	3.825	4.8182	0.	5067.9
12386	3.7339	4.9091	0.	5111.7
12387	3.825	4.9091	5.e-002	14.872
12388	3.825	4.6364	0.	5029.6
12389	3.7339	4.7273	0.	5070.5
12390	3.825	4.7273	5.e-002	14.863
12391	3.825	4.4545	0.	4994.5
12392	3.7339	4.5455	0.	5032.5
12393	3.825	4.5455	5.e-002	14.831
12394	3.825	4.2727	0.	4962.9
12395	3.7339	4.3636	0.	4998.
12396	3.825	4.3636	5.e-002	14.781
12397	3.825	4.0909	0.	4934.9
12398	3.7339	4.1818	0.	4967.2
12399	3.825	4.1818	5.e-002	14.718
12400	3.825	3.9091	0.	4911.
12401	3.7339	4.	0.	4940.5
12402	3.825	4.	5.e-002	14.65
12403	3.825	3.7273	0.	4891.2
12404	3.7339	3.8182	0.	4918.
12405	3.825	3.8182	5.e-002	14.583
12406	3.825	3.5455	0.	4875.7
12407	3.7339	3.6364	0.	4899.8
12408	3.825	3.6364	5.e-002	14.521
12409	3.825	3.3636	0.	4864.5
12410	3.7339	3.4545	0.	4886.1
12411	3.825	3.4545	5.e-002	14.47
12412	3.825	3.1818	0.	4857.8
12413	3.7339	3.2727	0.	4877.
12414	3.825	3.2727	5.e-002	14.434
12415	3.825	3.	0.	4855.5
12416	3.7339	3.0909	0.	4872.4
12417	3.825	3.0909	5.e-002	14.416
12418	3.825	2.8182	0.	4857.8
12419	3.7339	2.9091	0.	4872.4
12420	3.825	2.9091	5.e-002	14.416
12421	3.825	2.6364	0.	4864.5
12422	3.7339	2.7273	0.	4877.
12423	3.825	2.7273	5.e-002	14.434
12424	3.825	2.4545	0.	4875.7
12425	3.7339	2.5455	0.	4886.1
12426	3.825	2.5455	5.e-002	14.47
12427	3.825	2.2727	0.	4891.2
12428	3.7339	2.3636	0.	4899.8
12429	3.825	2.3636	5.e-002	14.521
12430	3.825	2.0909	0.	4911.
12431	3.7339	2.1818	0.	4918.
12432	3.825	2.1818	5.e-002	14.583
12433	3.825	1.9091	0.	4934.9
12434	3.7339	2.	0.	4940.5
12435	3.825	2.	5.e-002	14.65
12436	3.825	1.7273	0.	4962.9
12437	3.7339	1.8182	0.	4967.2
12438	3.825	1.8182	5.e-002	14.718
12439	3.825	1.5455	0.	4994.5
12440	3.7339	1.6364	0.	4998.
12441	3.825	1.6364	5.e-002	14.781
12442	3.825	1.3636	0.	5029.6
12443	3.7339	1.4545	0.	5032.5
12444	3.825	1.4545	5.e-002	14.831
12445	3.825	1.1818	0.	5067.9
12446	3.7339	1.2727	0.	5070.5
12447	3.825	1.2727	5.e-002	14.863
12448	3.825	1.	0.	5109.
12449	3.7339	1.0909	0.	5111.7
12450	3.825	1.0909	5.e-002	14.872
12451	3.825	0.81818	0.	5152.5
12452	3.7339	0.90909	0.	5155.6
12453	3.825	0.90909	5.e-002	14.853
12454	3.825	0.63636	0.	5198.
12455	3.7339	0.72727	0.	5201.9
12456	3.825	0.72727	5.e-002	14.806
12457	3.825	0.45455	0.	5245.1
12458	3.7339	0.54545	0.	5250.1
12459	3.825	0.54545	5.e-002	14.755
12460	3.825	0.27273	0.	5294.3
12461	3.7339	0.36364	0.	5299.9
12462	3.825	0.36364	5.e-002	15.038
12463	3.7339	0.18182	0.	5352.6
12464	3.825	0.18182	5.e-002	21.714
12465	3.825	9.0909e-002	0.	5334.6
12466	3.6429	5.7273	0.	5358.1
12467	3.5518	5.8182	0.	5418.8
12468	3.6429	5.8182	5.e-002	23.352
12469	3.6429	5.9091	0.	5400.7
12470	3.6429	5.5455	0.	5304.8
12471	3.5518	5.6364	0.	5361.5
12472	3.6429	5.6364	5.e-002	15.576
12473	3.6429	5.3636	0.	5254.
12474	3.5518	5.4545	0.	5307.8
12475	3.6429	5.4545	5.e-002	15.256
12476	3.6429	5.1818	0.	5205.1
12477	3.5518	5.2727	0.	5256.
12478	3.6429	5.2727	5.e-002	15.319
12479	3.6429	5.	0.	5158.3
12480	3.5518	5.0909	0.	5206.3
12481	3.6429	5.0909	5.e-002	15.378
12482	3.6429	4.8182	0.	5114.3
12483	3.5518	4.9091	0.	5159.2
12484	3.6429	4.9091	5.e-002	15.405
12485	3.6429	4.6364	0.	5073.4
12486	3.5518	4.7273	0.	5115.2
12487	3.6429	4.7273	5.e-002	15.401
12488	3.6429	4.4545	0.	5036.
12489	3.5518	4.5455	0.	5074.7
12490	3.6429	4.5455	5.e-002	15.372
12491	3.6429	4.2727	0.	5002.3
12492	3.5518	4.3636	0.	5038.1
12493	3.6429	4.3636	5.e-002	15.322
12494	3.6429	4.0909	0.	4972.8
12495	3.5518	4.1818	0.	5005.5
12496	3.6429	4.1818	5.e-002	15.26
12497	3.6429	3.9091	0.	4947.5
12498	3.5518	4.	0.	4977.4
12499	3.6429	4.	5.e-002	15.192
12500	3.6429	3.7273	0.	4926.6
12501	3.5518	3.8182	0.	4953.7
12502	3.6429	3.8182	5.e-002	15.124
12503	3.6429	3.5455	0.	4910.3
12504	3.5518	3.6364	0.	4934.7
12505	3.6429	3.6364	5.e-002	15.063
12506	3.6429	3.3636	0.	4898.6
12507	3.5518	3.4545	0.	4920.3
12508	3.6429	3.4545	5.e-002	15.013
12509	3.6429	3.1818	0.	4891.5
12510	3.5518	3.2727	0.	4910.8
12511	3.6429	3.2727	5.e-002	14.978
12512	3.6429	3.	0.	4889.2
12513	3.5518	3.0909	0.	4906.
12514	3.6429	3.0909	5.e-002	14.96
12515	3.6429	2.8182	0.	4891.5
12516	3.5518	2.9091	0.	4906.
12517	3.6429	2.9091	5.e-002	14.96
12518	3.6429	2.6364	0.	4898.6
12519	3.5518	2.7273	0.	4910.8
12520	3.6429	2.7273	5.e-002	14.978
12521	3.6429	2.4545	0.	4910.3
12522	3.5518	2.5455	0.	4920.3
12523	3.6429	2.5455	5.e-002	15.013
12524	3.6429	2.2727	0.	4926.6
12525	3.5518	2.3636	0.	4934.7
12526	3.6429	2.3636	5.e-002	15.063
12527	3.6429	2.0909	0.	4947.5
12528	3.5518	2.1818	0.	4953.7
12529	3.6429	2.1818	5.e-002	15.124
12530	3.6429	1.9091	0.	4972.8
12531	3.5518	2.	0.	4977.4
12532	3.6429	2.	5.e-002	15.192
12533	3.6429	1.7273	0.	5002.3
12534	3.5518	1.8182	0.	5005.5
12535	3.6429	1.8182	5.e-002	15.26
12536	3.6429	1.5455	0.	5036.
12537	3.5518	1.6364	0.	5038.1
12538	3.6429	1.6364	5.e-002	15.322
12539	3.6429	1.3636	0.	5073.4
12540	3.5518	1.4545	0.	5074.7
12541	3.6429	1.4545	5.e-002	15.372
12542	3.6429	1.1818	0.	5114.3
12543	3.5518	1.2727	0.	5115.2
12544	3.6429	1.2727	5.e-002	15.401
12545	3.6429	1.	0.	5158.3
12546	3.5518	1.0909	0.	5159.2
12547	3.6429	1.0909	5.e-002	15.405
12548	3.6429	0.81818	0.	5205.1
12549	3.5518	0.90909	0.	5206.3
12550	3.6429	0.90909	5.e-002	15.378
12551	3.6429	0.63636	0.	5254.
12552	3.5518	0.72727	0.	5256.
12553	3.6429	0.72727	5.e-002	15.319
12554	3.6429	0.45455	0.	5304.8
12555	3.5518	0.54545	0.	5307.8
12556	3.6429	0.54545	5.e-002	15.256
12557	3.6429	0.27273	0.	5358.1
12558	3.5518	0.36364	0.	5361.5
12559	3.6429	0.36364	5.e-002	15.576
12560	3.5518	0.18182	0.	5418.8
12561	3.6429	0.18182	5.e-002	23.352
12562	3.6429	9.0909e-002	0.	5400.7
12563	3.4607	5.7273	0.	5422.2
12564	3.3696	5.8182	0.	5485.4
12565	3.4607	5.8182	5.e-002	25.091
12566	3.4607	5.9091	0.	5466.9
12567	3.4607	5.5455	0.	5364.5
12568	3.3696	5.6364	0.	5423.1
12569	3.4607	5.6364	5.e-002	16.157
12570	3.4607	5.3636	0.	5309.8
12571	3.3696	5.4545	0.	5365.3
12572	3.4607	5.4545	5.e-002	15.807
12573	3.4607	5.1818	0.	5257.2
12574	3.3696	5.2727	0.	5309.6
12575	3.4607	5.2727	5.e-002	15.887
12576	3.4607	5.	0.	5207.1
12577	3.3696	5.0909	0.	5256.4
12578	3.4607	5.0909	5.e-002	15.962
12579	3.4607	4.8182	0.	5160.1
12580	3.3696	4.9091	0.	5206.
12581	3.4607	4.9091	5.e-002	16.
12582	3.4607	4.6364	0.	5116.5
12583	3.3696	4.7273	0.	5159.2
12584	3.4607	4.7273	5.e-002	16.002
12585	3.4607	4.4545	0.	5076.8
12586	3.3696	4.5455	0.	5116.2
12587	3.4607	4.5455	5.e-002	15.976
12588	3.4607	4.2727	0.	5041.2
12589	3.3696	4.3636	0.	5077.5
12590	3.4607	4.3636	5.e-002	15.929
12591	3.4607	4.0909	0.	5010.1
12592	3.3696	4.1818	0.	5043.3
12593	3.4607	4.1818	5.e-002	15.867
12594	3.4607	3.9091	0.	4983.5
12595	3.3696	4.	0.	5013.8
12596	3.4607	4.	5.e-002	15.8
12597	3.4607	3.7273	0.	4961.7
12598	3.3696	3.8182	0.	4989.1
12599	3.4607	3.8182	5.e-002	15.733
12600	3.4607	3.5455	0.	4944.7
12601	3.3696	3.6364	0.	4969.3
12602	3.4607	3.6364	5.e-002	15.674
12603	3.4607	3.3636	0.	4932.5
12604	3.3696	3.4545	0.	4954.5
12605	3.4607	3.4545	5.e-002	15.625
12606	3.4607	3.1818	0.	4925.2
12607	3.3696	3.2727	0.	4944.6
12608	3.4607	3.2727	5.e-002	15.591
12609	3.4607	3.	0.	4922.7
12610	3.3696	3.0909	0.	4939.6
12611	3.4607	3.0909	5.e-002	15.574
12612	3.4607	2.8182	0.	4925.2
12613	3.3696	2.9091	0.	4939.6
12614	3.4607	2.9091	5.e-002	15.574
12615	3.4607	2.6364	0.	4932.5
12616	3.3696	2.7273	0.	4944.6
12617	3.4607	2.7273	5.e-002	15.591
12618	3.4607	2.4545	0.	4944.7
12619	3.3696	2.5455	0.	4954.5
12620	3.4607	2.5455	5.e-002	15.625
12621	3.4607	2.2727	0.	4961.7
12622	3.3696	2.3636	0.	4969.3
12623	3.4607	2.3636	5.e-002	15.674
12624	3.4607	2.0909	0.	4983.5
12625	3.3696	2.1818	0.	4989.1
12626	3.4607	2.1818	5.e-002	15.733
12627	3.4607	1.9091	0.	5010.1
12628	3.3696	2.	0.	5013.8
12629	3.4607	2.	5.e-002	15.8
12630	3.4607	1.7273	0.	5041.2
12631	3.3696	1.8182	0.	5043.3
12632	3.4607	1.8182	5.e-002	15.867
12633	3.4607	1.5455	0.	5076.8
12634	3.3696	1.6364	0.	5077.5
12635	3.4607	1.6364	5.e-002	15.929
12636	3.4607	1.3636	0.	5116.5
12637	3.3696	1.4545	0.	5116.2
12638	3.4607	1.4545	5.e-002	15.976
12639	3.4607	1.1818	0.	5160.1
12640	3.3696	1.2727	0.	5159.2
12641	3.4607	1.2727	5.e-002	16.002
12642	3.4607	1.	0.	5207.1
12643	3.3696	1.0909	0.	5206.
12644	3.4607	1.0909	5.e-002	16.
12645	3.4607	0.81818	0.	5257.2
12646	3.3696	0.90909	0.	5256.4
12647	3.4607	0.90909	5.e-002	15.962
12648	3.4607	0.63636	0.	5309.8
12649	3.3696	0.72727	0.	5309.6
12650	3.4607	0.72727	5.e-002	15.887
12651	3.4607	0.45455	0.	5364.5
12652	3.3696	0.54545	0.	5365.3
12653	3.4607	0.54545	5.e-002	15.807
12654	3.4607	0.27273	0.	5422.2
12655	3.3696	0.36364	0.	5423.1
12656	3.4607	0.36364	5.e-002	16.157
12657	3.3696	0.18182	0.	5485.4
12658	3.4607	0.18182	5.e-002	25.091
12659	3.4607	9.0909e-002	0.	5466.9
12660	3.2786	5.7273	0.	5486.3
12661	3.1875	5.8182	0.	5552.1
12662	3.2786	5.8182	5.e-002	26.93
12663	3.2786	5.9091	0.	5533.1
12664	3.2786	5.5455	0.	5423.9
12665	3.1875	5.6364	0.	5484.6
12666	3.2786	5.6364	5.e-002	16.782
12667	3.2786	5.3636	0.	5365.1
12668	3.1875	5.4545	0.	5422.3
12669	3.2786	5.4545	5.e-002	16.412
12670	3.2786	5.1818	0.	5308.7
12671	3.1875	5.2727	0.	5362.6
12672	3.2786	5.2727	5.e-002	16.517
12673	3.2786	5.	0.	5255.2
12674	3.1875	5.0909	0.	5305.6
12675	3.2786	5.0909	5.e-002	16.612
12676	3.2786	4.8182	0.	5205.1
12677	3.1875	4.9091	0.	5252.
12678	3.2786	4.9091	5.e-002	16.664
12679	3.2786	4.6364	0.	5158.9
12680	3.1875	4.7273	0.	5202.3
12681	3.2786	4.7273	5.e-002	16.675
12682	3.2786	4.4545	0.	5116.9
12683	3.1875	4.5455	0.	5156.9
12684	3.2786	4.5455	5.e-002	16.654
12685	3.2786	4.2727	0.	5079.5
12686	3.1875	4.3636	0.	5116.3
12687	3.2786	4.3636	5.e-002	16.609
12688	3.2786	4.0909	0.	5046.9
12689	3.1875	4.1818	0.	5080.5
12690	3.2786	4.1818	5.e-002	16.549
12691	3.2786	3.9091	0.	5019.3
12692	3.1875	4.	0.	5049.9
12693	3.2786	4.	5.e-002	16.484
12694	3.2786	3.7273	0.	4996.7
12695	3.1875	3.8182	0.	5024.4
12696	3.2786	3.8182	5.e-002	16.42
12697	3.2786	3.5455	0.	4979.1
12698	3.1875	3.6364	0.	5004.1
12699	3.2786	3.6364	5.e-002	16.364
12700	3.2786	3.3636	0.	4966.5
12701	3.1875	3.4545	0.	4988.9
12702	3.2786	3.4545	5.e-002	16.319
12703	3.2786	3.1818	0.	4959.
12704	3.1875	3.2727	0.	4978.8
12705	3.2786	3.2727	5.e-002	16.287
12706	3.2786	3.	0.	4956.5
12707	3.1875	3.0909	0.	4973.8
12708	3.2786	3.0909	5.e-002	16.271
12709	3.2786	2.8182	0.	4959.
12710	3.1875	2.9091	0.	4973.8
12711	3.2786	2.9091	5.e-002	16.271
12712	3.2786	2.6364	0.	4966.5
12713	3.1875	2.7273	0.	4978.8
12714	3.2786	2.7273	5.e-002	16.287
12715	3.2786	2.4545	0.	4979.1
12716	3.1875	2.5455	0.	4988.9
12717	3.2786	2.5455	5.e-002	16.319
12718	3.2786	2.2727	0.	4996.7
12719	3.1875	2.3636	0.	5004.1
12720	3.2786	2.3636	5.e-002	16.364
12721	3.2786	2.0909	0.	5019.3
12722	3.1875	2.1818	0.	5024.4
12723	3.2786	2.1818	5.e-002	16.42
12724	3.2786	1.9091	0.	5046.9
12725	3.1875	2.	0.	5049.9
12726	3.2786	2.	5.e-002	16.484
12727	3.2786	1.7273	0.	5079.5
12728	3.1875	1.8182	0.	5080.5
12729	3.2786	1.8182	5.e-002	16.549
12730	3.2786	1.5455	0.	5116.9
12731	3.1875	1.6364	0.	5116.3
12732	3.2786	1.6364	5.e-002	16.609
12733	3.2786	1.3636	0.	5158.9
12734	3.1875	1.4545	0.	5156.9
12735	3.2786	1.4545	5.e-002	16.654
12736	3.2786	1.1818	0.	5205.1
12737	3.1875	1.2727	0.	5202.3
12738	3.2786	1.2727	5.e-002	16.675
12739	3.2786	1.	0.	5255.2
12740	3.1875	1.0909	0.	5252.
12741	3.2786	1.0909	5.e-002	16.664
12742	3.2786	0.81818	0.	5308.7
12743	3.1875	0.90909	0.	5305.6
12744	3.2786	0.90909	5.e-002	16.612
12745	3.2786	0.63636	0.	5365.1
12746	3.1875	0.72727	0.	5362.6
12747	3.2786	0.72727	5.e-002	16.517
12748	3.2786	0.45455	0.	5423.9
12749	3.1875	0.54545	0.	5422.3
12750	3.2786	0.54545	5.e-002	16.412
12751	3.2786	0.27273	0.	5486.3
12752	3.1875	0.36364	0.	5484.6
12753	3.2786	0.36364	5.e-002	16.782
12754	3.1875	0.18182	0.	5552.1
12755	3.2786	0.18182	5.e-002	26.93
12756	3.2786	9.0909e-002	0.	5533.1
12757	3.0964	5.7273	0.	5550.3
12758	3.0054	5.8182	0.	5618.8
12759	3.0964	5.8182	5.e-002	28.866
12760	3.0964	5.9091	0.	5599.1
12761	3.0964	5.5455	0.	5482.9
12762	3.0054	5.6364	0.	5545.5
12763	3.0964	5.6364	5.e-002	17.457
12764	3.0964	5.3636	0.	5419.7
12765	3.0054	5.4545	0.	5478.5
12766	3.0964	5.4545	5.e-002	17.082
12767	3.0964	5.1818	0.	5359.4
12768	3.0054	5.2727	0.	5414.5
12769	3.0964	5.2727	5.e-002	17.218
12770	3.0964	5.	0.	5302.3
12771	3.0054	5.0909	0.	5353.7
12772	3.0964	5.0909	5.e-002	17.34
12773	3.0964	4.8182	0.	5249.1
12774	3.0054	4.9091	0.	5296.8
12775	3.0964	4.9091	5.e-002	17.409
12776	3.0964	4.6364	0.	5200.3
12777	3.0054	4.7273	0.	5244.3
12778	3.0964	4.7273	5.e-002	17.43
12779	3.0964	4.4545	0.	5156.2
12780	3.0054	4.5455	0.	5196.7
12781	3.0964	4.5455	5.e-002	17.414
12782	3.0964	4.2727	0.	5117.2
12783	3.0054	4.3636	0.	5154.4
12784	3.0964	4.3636	5.e-002	17.373
12785	3.0964	4.0909	0.	5083.5
12786	3.0054	4.1818	0.	5117.4
12787	3.0964	4.1818	5.e-002	17.317
12788	3.0964	3.9091	0.	5055.
12789	3.0054	4.	0.	5086.
12790	3.0964	4.	5.e-002	17.256
12791	3.0964	3.7273	0.	5031.8
12792	3.0054	3.8182	0.	5060.
12793	3.0964	3.8182	5.e-002	17.198
12794	3.0964	3.5455	0.	5013.9
12795	3.0054	3.6364	0.	5039.4
12796	3.0964	3.6364	5.e-002	17.147
12797	3.0964	3.3636	0.	5001.1
12798	3.0054	3.4545	0.	5024.
12799	3.0964	3.4545	5.e-002	17.108
12800	3.0964	3.1818	0.	4993.5
12801	3.0054	3.2727	0.	5013.9
12802	3.0964	3.2727	5.e-002	17.081
12803	3.0964	3.	0.	4991.
12804	3.0054	3.0909	0.	5008.9
12805	3.0964	3.0909	5.e-002	17.067
12806	3.0964	2.8182	0.	4993.5
12807	3.0054	2.9091	0.	5008.9
12808	3.0964	2.9091	5.e-002	17.067
12809	3.0964	2.6364	0.	5001.1
12810	3.0054	2.7273	0.	5013.9
12811	3.0964	2.7273	5.e-002	17.081
12812	3.0964	2.4545	0.	5013.9
12813	3.0054	2.5455	0.	5024.
12814	3.0964	2.5455	5.e-002	17.108
12815	3.0964	2.2727	0.	5031.8
12816	3.0054	2.3636	0.	5039.4
12817	3.0964	2.3636	5.e-002	17.147
12818	3.0964	2.0909	0.	5055.
12819	3.0054	2.1818	0.	5060.
12820	3.0964	2.1818	5.e-002	17.198
12821	3.0964	1.9091	0.	5083.5
12822	3.0054	2.	0.	5086.
12823	3.0964	2.	5.e-002	17.256
12824	3.0964	1.7273	0.	5117.2
12825	3.0054	1.8182	0.	5117.4
12826	3.0964	1.8182	5.e-002	17.317
12827	3.0964	1.5455	0.	5156.2
12828	3.0054	1.6364	0.	5154.4
12829	3.0964	1.6364	5.e-002	17.373
12830	3.0964	1.3636	0.	5200.3
12831	3.0054	1.4545	0.	5196.7
12832	3.0964	1.4545	5.e-002	17.414
12833	3.0964	1.1818	0.	5249.1
12834	3.0054	1.2727	0.	5244.3
12835	3.0964	1.2727	5.e-002	17.43
12836	3.0964	1.	0.	5302.3
12837	3.0054	1.0909	0.	5296.8
12838	3.0964	1.0909	5.e-002	17.409
12839	3.0964	0.81818	0.	5359.4
12840	3.0054	0.90909	0.	5353.7
12841	3.0964	0.90909	5.e-002	17.34
12842	3.0964	0.63636	0.	5419.7
12843	3.0054	0.72727	0.	5414.5
12844	3.0964	0.72727	5.e-002	17.218
12845	3.0964	0.45455	0.	5482.9
12846	3.0054	0.54545	0.	5478.5
12847	3.0964	0.54545	5.e-002	17.082
12848	3.0964	0.27273	0.	5550.3
12849	3.0054	0.36364	0.	5545.5
12850	3.0964	0.36364	5.e-002	17.457
12851	3.0054	0.18182	0.	5618.8
12852	3.0964	0.18182	5.e-002	28.866
12853	3.0964	9.0909e-002	0.	5599.1
12854	2.9143	5.7273	0.	5613.9
12855	2.8232	5.8182	0.	5685.2
12856	2.9143	5.8182	5.e-002	30.894
12857	2.9143	5.9091	0.	5664.5
12858	2.9143	5.5455	0.	5541.
12859	2.8232	5.6364	0.	5605.4
12860	2.9143	5.6364	5.e-002	18.187
12861	2.9143	5.3636	0.	5473.2
12862	2.8232	5.4545	0.	5533.5
12863	2.9143	5.4545	5.e-002	17.827
12864	2.9143	5.1818	0.	5408.8
12865	2.8232	5.2727	0.	5465.
12866	2.9143	5.2727	5.e-002	18.005
12867	2.9143	5.	0.	5348.1
12868	2.8232	5.0909	0.	5400.3
12869	2.9143	5.0909	5.e-002	18.158
12870	2.9143	4.8182	0.	5291.9
12871	2.8232	4.9091	0.	5340.1
12872	2.9143	4.9091	5.e-002	18.247
12873	2.9143	4.6364	0.	5240.6
12874	2.8232	4.7273	0.	5285.
12875	2.9143	4.7273	5.e-002	18.28
12876	2.9143	4.4545	0.	5194.8
12877	2.8232	4.5455	0.	5235.5
12878	2.9143	4.5455	5.e-002	18.271
12879	2.9143	4.2727	0.	5154.5
12880	2.8232	4.3636	0.	5191.8
12881	2.9143	4.3636	5.e-002	18.234
12882	2.9143	4.0909	0.	5119.8
12883	2.8232	4.1818	0.	5154.1
12884	2.9143	4.1818	5.e-002	18.184
12885	2.9143	3.9091	0.	5090.9
12886	2.8232	4.	0.	5122.2
12887	2.9143	4.	5.e-002	18.13
12888	2.9143	3.7273	0.	5067.5
12889	2.8232	3.8182	0.	5096.2
12890	2.9143	3.8182	5.e-002	18.081
12891	2.9143	3.5455	0.	5049.5
12892	2.8232	3.6364	0.	5075.6
12893	2.9143	3.6364	5.e-002	18.04
12894	2.9143	3.3636	0.	5036.8
12895	2.8232	3.4545	0.	5060.5
12896	2.9143	3.4545	5.e-002	18.009
12897	2.9143	3.1818	0.	5029.2
12898	2.8232	3.2727	0.	5050.5
12899	2.9143	3.2727	5.e-002	17.989
12900	2.9143	3.	0.	5026.7
12901	2.8232	3.0909	0.	5045.6
12902	2.9143	3.0909	5.e-002	17.979
12903	2.9143	2.8182	0.	5029.2
12904	2.8232	2.9091	0.	5045.6
12905	2.9143	2.9091	5.e-002	17.979
12906	2.9143	2.6364	0.	5036.8
12907	2.8232	2.7273	0.	5050.5
12908	2.9143	2.7273	5.e-002	17.989
12909	2.9143	2.4545	0.	5049.5
12910	2.8232	2.5455	0.	5060.5
12911	2.9143	2.5455	5.e-002	18.009
12912	2.9143	2.2727	0.	5067.5
12913	2.8232	2.3636	0.	5075.6
12914	2.9143	2.3636	5.e-002	18.04
12915	2.9143	2.0909	0.	5090.9
12916	2.8232	2.1818	0.	5096.2
12917	2.9143	2.1818	5.e-002	18.081
12918	2.9143	1.9091	0.	5119.8
12919	2.8232	2.	0.	5122.2
12920	2.9143	2.	5.e-002	18.13
12921	2.9143	1.7273	0.	5154.5
12922	2.8232	1.8182	0.	5154.1
12923	2.9143	1.8182	5.e-002	18.184
12924	2.9143	1.5455	0.	5194.8
12925	2.8232	1.6364	0.	5191.8
12926	2.9143	1.6364	5.e-002	18.234
12927	2.9143	1.3636	0.	5240.6
12928	2.8232	1.4545	0.	5235.5
12929	2.9143	1.4545	5.e-002	18.271
12930	2.9143	1.1818	0.	5291.9
12931	2.8232	1.2727	0.	5285.
12932	2.9143	1.2727	5.e-002	18.28
12933	2.9143	1.	0.	5348.1
12934	2.8232	1.0909	0.	5340.1
12935	2.9143	1.0909	5.e-002	18.247
12936	2.9143	0.81818	0.	5408.8
12937	2.8232	0.90909	0.	5400.3
12938	2.9143	0.90909	5.e-002	18.158
12939	2.9143	0.63636	0.	5473.2
12940	2.8232	0.72727	0.	5465.
12941	2.9143	0.72727	5.e-002	18.005
12942	2.9143	0.45455	0.	5541.
12943	2.8232	0.54545	0.	5533.5
12944	2.9143	0.54545	5.e-002	17.827
12945	2.9143	0.27273	0.	5613.9
12946	2.8232	0.36364	0.	5605.4
12947	2.9143	0.36364	5.e-002	18.187
12948	2.8232	0.18182	0.	5685.2
12949	2.9143	0.18182	5.e-002	30.894
12950	2.9143	9.0909e-002	0.	5664.5
12951	2.7321	5.7273	0.	5676.6
12952	2.6411	5.8182	0.	5750.6
12953	2.7321	5.8182	5.e-002	33.005
12954	2.7321	5.9091	0.	5728.8
12955	2.7321	5.5455	0.	5597.8
12956	2.6411	5.6364	0.	5663.8
12957	2.7321	5.6364	5.e-002	18.984
12958	2.7321	5.3636	0.	5525.2
12959	2.6411	5.4545	0.	5586.6
12960	2.7321	5.4545	5.e-002	18.664
12961	2.7321	5.1818	0.	5456.4
12962	2.6411	5.2727	0.	5513.5
12963	2.7321	5.2727	5.e-002	18.896
12964	2.7321	5.	0.	5392.2
12965	2.6411	5.0909	0.	5444.8
12966	2.7321	5.0909	5.e-002	19.086
12967	2.7321	4.8182	0.	5333.1
12968	2.6411	4.9091	0.	5381.5
12969	2.7321	4.9091	5.e-002	19.197
12970	2.7321	4.6364	0.	5279.7
12971	2.6411	4.7273	0.	5324.1
12972	2.7321	4.7273	5.e-002	19.24
12973	2.7321	4.4545	0.	5232.4
12974	2.6411	4.5455	0.	5273.
12975	2.7321	4.5455	5.e-002	19.237
12976	2.7321	4.2727	0.	5191.3
12977	2.6411	4.3636	0.	5228.6
12978	2.7321	4.3636	5.e-002	19.206
12979	2.7321	4.0909	0.	5156.3
12980	2.6411	4.1818	0.	5190.6
12981	2.7321	4.1818	5.e-002	19.163
12982	2.7321	3.9091	0.	5127.4
12983	2.6411	4.	0.	5159.
12984	2.7321	4.	5.e-002	19.121
12985	2.7321	3.7273	0.	5104.2
12986	2.6411	3.8182	0.	5133.5
12987	2.7321	3.8182	5.e-002	19.085
12988	2.7321	3.5455	0.	5086.6
12989	2.6411	3.6364	0.	5113.6
12990	2.7321	3.6364	5.e-002	19.058
12991	2.7321	3.3636	0.	5074.2
12992	2.6411	3.4545	0.	5099.
12993	2.7321	3.4545	5.e-002	19.04
12994	2.7321	3.1818	0.	5066.8
12995	2.6411	3.2727	0.	5089.5
12996	2.7321	3.2727	5.e-002	19.03
12997	2.7321	3.	0.	5064.4
12998	2.6411	3.0909	0.	5084.8
12999	2.7321	3.0909	5.e-002	19.026
13000	2.7321	2.8182	0.	5066.8
13001	2.6411	2.9091	0.	5084.8
13002	2.7321	2.9091	5.e-002	19.026
13003	2.7321	2.6364	0.	5074.2
13004	2.6411	2.7273	0.	5089.5
13005	2.7321	2.7273	5.e-002	19.03
13006	2.7321	2.4545	0.	5086.6
13007	2.6411	2.5455	0.	5099.
13008	2.7321	2.5455	5.e-002	19.04
13009	2.7321	2.2727	0.	5104.2
13010	2.6411	2.3636	0.	5113.6
13011	2.7321	2.3636	5.e-002	19.058
13012	2.7321	2.0909	0.	5127.4
13013	2.6411	2.1818	0.	5133.5
13014	2.7321	2.1818	5.e-002	19.085
13015	2.7321	1.9091	0.	5156.3
13016	2.6411	2.	0.	5159.
13017	2.7321	2.	5.e-002	19.121
13018	2.7321	1.7273	0.	5191.3
13019	2.6411	1.8182	0.	5190.6
13020	2.7321	1.8182	5.e-002	19.163
13021	2.7321	1.5455	0.	5232.4
13022	2.6411	1.6364	0.	5228.6
13023	2.7321	1.6364	5.e-002	19.206
13024	2.7321	1.3636	0.	5279.7
13025	2.6411	1.4545	0.	5273.
13026	2.7321	1.4545	5.e-002	19.237
13027	2.7321	1.1818	0.	5333.1
13028	2.6411	1.2727	0.	5324.1
13029	2.7321	1.2727	5.e-002	19.24
13030	2.7321	1.	0.	5392.2
13031	2.6411	1.0909	0.	5381.5
13032	2.7321	1.0909	5.e-002	19.197
13033	2.7321	0.81818	0.	5456.4
13034	2.6411	0.90909	0.	5444.8
13035	2.7321	0.90909	5.e-002	19.086
13036	2.7321	0.63636	0.	5525.2
13037	2.6411	0.72727	0.	5513.5
13038	2.7321	0.72727	5.e-002	18.896
13039	2.7321	0.45455	0.	5597.8
13040	2.6411	0.54545	0.	5586.6
13041	2.7321	0.54545	5.e-002	18.664
13042	2.7321	0.27273	0.	5676.6
13043	2.6411	0.36364	0.	5663.8
13044	2.7321	0.36364	5.e-002	18.984
13045	2.6411	0.18182	0.	5750.6
13046	2.7321	0.18182	5.e-002	33.005
13047	2.7321	9.0909e-002	0.	5728.8
13048	2.55	5.7273	0.	5737.7
13049	2.4589	5.8182	0.	5814.5
13050	2.55	5.8182	5.e-002	35.186
13051	2.55	5.9091	0.	5791.4
13052	2.55	5.5455	0.	5652.6
13053	2.4589	5.6364	0.	5720.
13054	2.55	5.6364	5.e-002	19.864
13055	2.55	5.3636	0.	5574.8
13056	2.4589	5.4545	0.	5637.1
13057	2.55	5.4545	5.e-002	19.618
13058	2.55	5.1818	0.	5501.7
13059	2.4589	5.2727	0.	5559.2
13060	2.55	5.2727	5.e-002	19.916
13061	2.55	5.	0.	5434.
13062	2.4589	5.0909	0.	5486.6
13063	2.55	5.0909	5.e-002	20.148
13064	2.55	4.8182	0.	5372.3
13065	2.4589	4.9091	0.	5420.4
13066	2.55	4.9091	5.e-002	20.279
13067	2.55	4.6364	0.	5317.2
13068	2.4589	4.7273	0.	5361.1
13069	2.55	4.7273	5.e-002	20.331
13070	2.55	4.4545	0.	5269.1
13071	2.4589	4.5455	0.	5309.3
13072	2.55	4.5455	5.e-002	20.332
13073	2.55	4.2727	0.	5227.8
13074	2.4589	4.3636	0.	5264.8
13075	2.55	4.3636	5.e-002	20.307
13076	2.55	4.0909	0.	5193.2
13077	2.4589	4.1818	0.	5227.4
13078	2.55	4.1818	5.e-002	20.274
13079	2.55	3.9091	0.	5165.
13080	2.4589	4.	0.	5196.9
13081	2.55	4.	5.e-002	20.247
13082	2.55	3.7273	0.	5142.7
13083	2.4589	3.8182	0.	5172.5
13084	2.55	3.8182	5.e-002	20.229
13085	2.55	3.5455	0.	5125.9
13086	2.4589	3.6364	0.	5153.9
13087	2.55	3.6364	5.e-002	20.223
13088	2.55	3.3636	0.	5114.2
13089	2.4589	3.4545	0.	5140.4
13090	2.55	3.4545	5.e-002	20.223
13091	2.55	3.1818	0.	5107.3
13092	2.4589	3.2727	0.	5131.7
13093	2.55	3.2727	5.e-002	20.227
13094	2.55	3.	0.	5105.
13095	2.4589	3.0909	0.	5127.4
13096	2.55	3.0909	5.e-002	20.229
13097	2.55	2.8182	0.	5107.3
13098	2.4589	2.9091	0.	5127.4
13099	2.55	2.9091	5.e-002	20.229
13100	2.55	2.6364	0.	5114.2
13101	2.4589	2.7273	0.	5131.7
13102	2.55	2.7273	5.e-002	20.227
13103	2.55	2.4545	0.	5125.9
13104	2.4589	2.5455	0.	5140.4
13105	2.55	2.5455	5.e-002	20.223
13106	2.55	2.2727	0.	5142.7
13107	2.4589	2.3636	0.	5153.9
13108	2.55	2.3636	5.e-002	20.223
13109	2.55	2.0909	0.	5165.
13110	2.4589	2.1818	0.	5172.5
13111	2.55	2.1818	5.e-002	20.229
13112	2.55	1.9091	0.	5193.2
13113	2.4589	2.	0.	5196.9
13114	2.55	2.	5.e-002	20.247
13115	2.55	1.7273	0.	5227.8
13116	2.4589	1.8182	0.	5227.4
13117	2.55	1.8182	5.e-002	20.274
13118	2.55	1.5455	0.	5269.1
13119	2.4589	1.6364	0.	5264.8
13120	2.55	1.6364	5.e-002	20.307
13121	2.55	1.3636	0.	5317.2
13122	2.4589	1.4545	0.	5309.3
13123	2.55	1.4545	5.e-002	20.332
13124	2.55	1.1818	0.	5372.3
13125	2.4589	1.2727	0.	5361.1
13126	2.55	1.2727	5.e-002	20.331
13127	2.55	1.	0.	5434.
13128	2.4589	1.0909	0.	5420.4
13129	2.55	1.0909	5.e-002	20.279
13130	2.55	0.81818	0.	5501.7
13131	2.4589	0.90909	0.	5486.6
13132	2.55	0.90909	5.e-002	20.148
13133	2.55	0.63636	0.	5574.8
13134	2.4589	0.72727	0.	5559.2
13135	2.55	0.72727	5.e-002	19.916
13136	2.55	0.45455	0.	5652.6
13137	2.4589	0.54545	0.	5637.1
13138	2.55	0.54545	5.e-002	19.618
13139	2.55	0.27273	0.	5737.7
13140	2.4589	0.36364	0.	5720.
13141	2.55	0.36364	5.e-002	19.864
13142	2.4589	0.18182	0.	5814.5
13143	2.55	0.18182	5.e-002	35.186
13144	2.55	9.0909e-002	0.	5791.4
13145	2.3679	5.7273	0.	5796.5
13146	2.2768	5.8182	0.	5875.8
13147	2.3679	5.8182	5.e-002	37.417
13148	2.3679	5.9091	0.	5851.3
13149	2.3679	5.5455	0.	5704.4
13150	2.2768	5.6364	0.	5772.8
13151	2.3679	5.6364	5.e-002	20.855
13152	2.3679	5.3636	0.	5621.3
13153	2.2768	5.4545	0.	5683.9
13154	2.3679	5.4545	5.e-002	20.727
13155	2.3679	5.1818	0.	5543.8
13156	2.2768	5.2727	0.	5601.
13157	2.3679	5.2727	5.e-002	21.103
13158	2.3679	5.	0.	5472.8
13159	2.2768	5.0909	0.	5524.7
13160	2.3679	5.0909	5.e-002	21.376
13161	2.3679	4.8182	0.	5409.
13162	2.2768	4.9091	0.	5456.1
13163	2.3679	4.9091	5.e-002	21.523
13164	2.3679	4.6364	0.	5352.9
13165	2.2768	4.7273	0.	5395.7
13166	2.3679	4.7273	5.e-002	21.577
13167	2.3679	4.4545	0.	5304.7
13168	2.2768	4.5455	0.	5343.9
13169	2.3679	4.5455	5.e-002	21.577
13170	2.3679	4.2727	0.	5264.2
13171	2.2768	4.3636	0.	5300.5
13172	2.3679	4.3636	5.e-002	21.555
13173	2.3679	4.0909	0.	5230.9
13174	2.2768	4.1818	0.	5264.9
13175	2.3679	4.1818	5.e-002	21.536
13176	2.3679	3.9091	0.	5204.3
13177	2.2768	4.	0.	5236.4
13178	2.3679	4.	5.e-002	21.529
13179	2.3679	3.7273	0.	5183.6
13180	2.2768	3.8182	0.	5214.2
13181	2.3679	3.8182	5.e-002	21.537
13182	2.3679	3.5455	0.	5168.3
13183	2.2768	3.6364	0.	5197.6
13184	2.3679	3.6364	5.e-002	21.556
13185	2.3679	3.3636	0.	5157.8
13186	2.2768	3.4545	0.	5185.9
13187	2.3679	3.4545	5.e-002	21.58
13188	2.3679	3.1818	0.	5151.7
13189	2.2768	3.2727	0.	5178.3
13190	2.3679	3.2727	5.e-002	21.601
13191	2.3679	3.	0.	5149.7
13192	2.2768	3.0909	0.	5174.7
13193	2.3679	3.0909	5.e-002	21.612
13194	2.3679	2.8182	0.	5151.7
13195	2.2768	2.9091	0.	5174.7
13196	2.3679	2.9091	5.e-002	21.612
13197	2.3679	2.6364	0.	5157.8
13198	2.2768	2.7273	0.	5178.3
13199	2.3679	2.7273	5.e-002	21.601
13200	2.3679	2.4545	0.	5168.3
13201	2.2768	2.5455	0.	5185.9
13202	2.3679	2.5455	5.e-002	21.58
13203	2.3679	2.2727	0.	5183.6
13204	2.2768	2.3636	0.	5197.6
13205	2.3679	2.3636	5.e-002	21.556
13206	2.3679	2.0909	0.	5204.3
13207	2.2768	2.1818	0.	5214.2
13208	2.3679	2.1818	5.e-002	21.537
13209	2.3679	1.9091	0.	5230.9
13210	2.2768	2.	0.	5236.4
13211	2.3679	2.	5.e-002	21.529
13212	2.3679	1.7273	0.	5264.2
13213	2.2768	1.8182	0.	5264.9
13214	2.3679	1.8182	5.e-002	21.536
13215	2.3679	1.5455	0.	5304.7
13216	2.2768	1.6364	0.	5300.5
13217	2.3679	1.6364	5.e-002	21.555
13218	2.3679	1.3636	0.	5352.9
13219	2.2768	1.4545	0.	5343.9
13220	2.3679	1.4545	5.e-002	21.577
13221	2.3679	1.1818	0.	5409.
13222	2.2768	1.2727	0.	5395.7
13223	2.3679	1.2727	5.e-002	21.577
13224	2.3679	1.	0.	5472.8
13225	2.2768	1.0909	0.	5456.1
13226	2.3679	1.0909	5.e-002	21.523
13227	2.3679	0.81818	0.	5543.8
13228	2.2768	0.90909	0.	5524.7
13229	2.3679	0.90909	5.e-002	21.376
13230	2.3679	0.63636	0.	5621.3
13231	2.2768	0.72727	0.	5601.
13232	2.3679	0.72727	5.e-002	21.103
13233	2.3679	0.45455	0.	5704.4
13234	2.2768	0.54545	0.	5683.9
13235	2.3679	0.54545	5.e-002	20.727
13236	2.3679	0.27273	0.	5796.5
13237	2.2768	0.36364	0.	5772.8
13238	2.3679	0.36364	5.e-002	20.855
13239	2.2768	0.18182	0.	5875.8
13240	2.3679	0.18182	5.e-002	37.417
13241	2.3679	9.0909e-002	0.	5851.3
13242	2.1857	5.7273	0.	5851.8
13243	2.0946	5.8182	0.	5933.3
13244	2.1857	5.8182	5.e-002	39.671
13245	2.1857	5.9091	0.	5907.4
13246	2.1857	5.5455	0.	5752.1
13247	2.0946	5.6364	0.	5820.8
13248	2.1857	5.6364	5.e-002	22.001
13249	2.1857	5.3636	0.	5663.4
13250	2.0946	5.4545	0.	5725.5
13251	2.1857	5.4545	5.e-002	22.046
13252	2.1857	5.1818	0.	5581.6
13253	2.0946	5.2727	0.	5637.6
13254	2.1857	5.2727	5.e-002	22.507
13255	2.1857	5.	0.	5507.7
13256	2.0946	5.0909	0.	5557.9
13257	2.1857	5.0909	5.e-002	22.816
13258	2.1857	4.8182	0.	5442.5
13259	2.0946	4.9091	0.	5487.6
13260	2.1857	4.9091	5.e-002	22.964
13261	2.1857	4.6364	0.	5386.4
13262	2.0946	4.7273	0.	5427.3
13263	2.1857	4.7273	5.e-002	23.006
13264	2.1857	4.4545	0.	5339.4
13265	2.0946	4.5455	0.	5376.9
13266	2.1857	4.5455	5.e-002	22.997
13267	2.1857	4.2727	0.	5300.9
13268	2.0946	4.3636	0.	5335.9
13269	2.1857	4.3636	5.e-002	22.977
13270	2.1857	4.0909	0.	5270.1
13271	2.0946	4.1818	0.	5303.5
13272	2.1857	4.1818	5.e-002	22.972
13273	2.1857	3.9091	0.	5246.2
13274	2.0946	4.	0.	5278.4
13275	2.1857	4.	5.e-002	22.991
13276	2.1857	3.7273	0.	5228.1
13277	2.0946	3.8182	0.	5259.6
13278	2.1857	3.8182	5.e-002	23.031
13279	2.1857	3.5455	0.	5215.
13280	2.0946	3.6364	0.	5246.
13281	2.1857	3.6364	5.e-002	23.083
13282	2.1857	3.3636	0.	5206.3
13283	2.0946	3.4545	0.	5236.7
13284	2.1857	3.4545	5.e-002	23.135
13285	2.1857	3.1818	0.	5201.3
13286	2.0946	3.2727	0.	5230.9
13287	2.1857	3.2727	5.e-002	23.177
13288	2.1857	3.	0.	5199.6
13289	2.0946	3.0909	0.	5228.1
13290	2.1857	3.0909	5.e-002	23.2
13291	2.1857	2.8182	0.	5201.3
13292	2.0946	2.9091	0.	5228.1
13293	2.1857	2.9091	5.e-002	23.2
13294	2.1857	2.6364	0.	5206.3
13295	2.0946	2.7273	0.	5230.9
13296	2.1857	2.7273	5.e-002	23.177
13297	2.1857	2.4545	0.	5215.
13298	2.0946	2.5455	0.	5236.7
13299	2.1857	2.5455	5.e-002	23.135
13300	2.1857	2.2727	0.	5228.1
13301	2.0946	2.3636	0.	5246.
13302	2.1857	2.3636	5.e-002	23.083
13303	2.1857	2.0909	0.	5246.2
13304	2.0946	2.1818	0.	5259.6
13305	2.1857	2.1818	5.e-002	23.031
13306	2.1857	1.9091	0.	5270.1
13307	2.0946	2.	0.	5278.4
13308	2.1857	2.	5.e-002	22.991
13309	2.1857	1.7273	0.	5300.9
13310	2.0946	1.8182	0.	5303.5
13311	2.1857	1.8182	5.e-002	22.972
13312	2.1857	1.5455	0.	5339.4
13313	2.0946	1.6364	0.	5335.9
13314	2.1857	1.6364	5.e-002	22.977
13315	2.1857	1.3636	0.	5386.4
13316	2.0946	1.4545	0.	5376.9
13317	2.1857	1.4545	5.e-002	22.997
13318	2.1857	1.1818	0.	5442.5
13319	2.0946	1.2727	0.	5427.3
13320	2.1857	1.2727	5.e-002	23.006
13321	2.1857	1.	0.	5507.7
13322	2.0946	1.0909	0.	5487.6
13323	2.1857	1.0909	5.e-002	22.964
13324	2.1857	0.81818	0.	5581.6
13325	2.0946	0.90909	0.	5557.9
13326	2.1857	0.90909	5.e-002	22.816
13327	2.1857	0.63636	0.	5663.4
13328	2.0946	0.72727	0.	5637.6
13329	2.1857	0.72727	5.e-002	22.507
13330	2.1857	0.45455	0.	5752.1
13331	2.0946	0.54545	0.	5725.5
13332	2.1857	0.54545	5.e-002	22.046
13333	2.1857	0.27273	0.	5851.8
13334	2.0946	0.36364	0.	5820.8
13335	2.1857	0.36364	5.e-002	22.001
13336	2.0946	0.18182	0.	5933.3
13337	2.1857	0.18182	5.e-002	39.671
13338	2.1857	9.0909e-002	0.	5907.4
13339	2.0036	5.7273	0.	5901.9
13340	1.9125	5.8182	0.	5985.1
13341	2.0036	5.8182	5.e-002	41.91
13342	2.0036	5.9091	0.	5958.
13343	2.0036	5.5455	0.	5793.9
13344	1.9125	5.6364	0.	5861.9
13345	2.0036	5.6364	5.e-002	23.373
13346	2.0036	5.3636	0.	5699.4
13347	1.9125	5.4545	0.	5759.8
13348	2.0036	5.4545	5.e-002	23.657
13349	2.0036	5.1818	0.	5613.6
13350	1.9125	5.2727	0.	5667.1
13351	2.0036	5.2727	5.e-002	24.205
13352	2.0036	5.	0.	5537.5
13353	1.9125	5.0909	0.	5584.8
13354	2.0036	5.0909	5.e-002	24.527
13355	2.0036	4.8182	0.	5472.1
13356	1.9125	4.9091	0.	5514.
13357	2.0036	4.9091	5.e-002	24.65
13358	2.0036	4.6364	0.	5417.4
13359	1.9125	4.7273	0.	5455.3
13360	2.0036	4.7273	5.e-002	24.657
13361	2.0036	4.4545	0.	5373.1
13362	1.9125	4.5455	0.	5408.2
13363	2.0036	4.5455	5.e-002	24.623
13364	2.0036	4.2727	0.	5338.2
13365	1.9125	4.3636	0.	5371.6
13366	2.0036	4.3636	5.e-002	24.6
13367	2.0036	4.0909	0.	5311.5
13368	1.9125	4.1818	0.	5344.1
13369	2.0036	4.1818	5.e-002	24.613
13370	2.0036	3.9091	0.	5291.7
13371	1.9125	4.	0.	5324.1
13372	2.0036	4.	5.e-002	24.664
13373	2.0036	3.7273	0.	5277.4
13374	1.9125	3.8182	0.	5310.
13375	2.0036	3.8182	5.e-002	24.742
13376	2.0036	3.5455	0.	5267.5
13377	1.9125	3.6364	0.	5300.5
13378	2.0036	3.6364	5.e-002	24.832
13379	2.0036	3.3636	0.	5261.1
13380	1.9125	3.4545	0.	5294.4
13381	2.0036	3.4545	5.e-002	24.916
13382	2.0036	3.1818	0.	5257.6
13383	1.9125	3.2727	0.	5290.8
13384	2.0036	3.2727	5.e-002	24.98
13385	2.0036	3.	0.	5256.4
13386	1.9125	3.0909	0.	5289.2
13387	2.0036	3.0909	5.e-002	25.015
13388	2.0036	2.8182	0.	5257.6
13389	1.9125	2.9091	0.	5289.2
13390	2.0036	2.9091	5.e-002	25.015
13391	2.0036	2.6364	0.	5261.1
13392	1.9125	2.7273	0.	5290.8
13393	2.0036	2.7273	5.e-002	24.98
13394	2.0036	2.4545	0.	5267.5
13395	1.9125	2.5455	0.	5294.4
13396	2.0036	2.5455	5.e-002	24.916
13397	2.0036	2.2727	0.	5277.4
13398	1.9125	2.3636	0.	5300.5
13399	2.0036	2.3636	5.e-002	24.832
13400	2.0036	2.0909	0.	5291.7
13401	1.9125	2.1818	0.	5310.
13402	2.0036	2.1818	5.e-002	24.742
13403	2.0036	1.9091	0.	5311.5
13404	1.9125	2.	0.	5324.1
13405	2.0036	2.	5.e-002	24.664
13406	2.0036	1.7273	0.	5338.2
13407	1.9125	1.8182	0.	5344.1
13408	2.0036	1.8182	5.e-002	24.613
13409	2.0036	1.5455	0.	5373.1
13410	1.9125	1.6364	0.	5371.6
13411	2.0036	1.6364	5.e-002	24.6
13412	2.0036	1.3636	0.	5417.4
13413	1.9125	1.4545	0.	5408.2
13414	2.0036	1.4545	5.e-002	24.623
13415	2.0036	1.1818	0.	5472.1
13416	1.9125	1.2727	0.	5455.3
13417	2.0036	1.2727	5.e-002	24.657
13418	2.0036	1.	0.	5537.5
13419	1.9125	1.0909	0.	5514.
13420	2.0036	1.0909	5.e-002	24.65
13421	2.0036	0.81818	0.	5613.6
13422	1.9125	0.90909	0.	5584.8
13423	2.0036	0.90909	5.e-002	24.527
13424	2.0036	0.63636	0.	5699.4
13425	1.9125	0.72727	0.	5667.1
13426	2.0036	0.72727	5.e-002	24.205
13427	2.0036	0.45455	0.	5793.9
13428	1.9125	0.54545	0.	5759.8
13429	2.0036	0.54545	5.e-002	23.657
13430	2.0036	0.27273	0.	5901.9
13431	1.9125	0.36364	0.	5861.9
13432	2.0036	0.36364	5.e-002	23.373
13433	1.9125	0.18182	0.	5985.1
13434	2.0036	0.18182	5.e-002	41.91
13435	2.0036	9.0909e-002	0.	5958.
13436	1.8214	5.7273	0.	5944.7
13437	1.7304	5.8182	0.	6028.8
13438	1.8214	5.8182	5.e-002	44.079
13439	1.8214	5.9091	0.	6000.8
13440	1.8214	5.5455	0.	5827.5
13441	1.7304	5.6364	0.	5893.5
13442	1.8214	5.6364	5.e-002	25.092
13443	1.8214	5.3636	0.	5727.1
13444	1.7304	5.4545	0.	5784.3
13445	1.8214	5.4545	5.e-002	25.684
13446	1.8214	5.1818	0.	5637.8
13447	1.7304	5.2727	0.	5687.1
13448	1.8214	5.2727	5.e-002	26.298
13449	1.8214	5.	0.	5560.8
13450	1.7304	5.0909	0.	5603.2
13451	1.8214	5.0909	5.e-002	26.588
13452	1.8214	4.8182	0.	5496.7
13453	1.7304	4.9091	0.	5533.9
13454	1.8214	4.9091	5.e-002	26.637
13455	1.8214	4.6364	0.	5445.6
13456	1.7304	4.7273	0.	5479.1
13457	1.8214	4.7273	5.e-002	26.572
13458	1.8214	4.4545	0.	5406.2
13459	1.7304	4.5455	0.	5437.8
13460	1.8214	4.5455	5.e-002	26.494
13461	1.8214	4.2727	0.	5377.
13462	1.7304	4.3636	0.	5408.1
13463	1.8214	4.3636	5.e-002	26.462
13464	1.8214	4.0909	0.	5356.3
13465	1.7304	4.1818	0.	5387.8
13466	1.8214	4.1818	5.e-002	26.494
13467	1.8214	3.9091	0.	5342.2
13468	1.7304	4.	0.	5374.8
13469	1.8214	4.	5.e-002	26.58
13470	1.8214	3.7273	0.	5333.
13471	1.7304	3.8182	0.	5367.1
13472	1.8214	3.8182	5.e-002	26.701
13473	1.8214	3.5455	0.	5327.3
13474	1.7304	3.6364	0.	5362.9
13475	1.8214	3.6364	5.e-002	26.831
13476	1.8214	3.3636	0.	5324.
13477	1.7304	3.4545	0.	5360.9
13478	1.8214	3.4545	5.e-002	26.947
13479	1.8214	3.1818	0.	5322.4
13480	1.7304	3.2727	0.	5360.1
13481	1.8214	3.2727	5.e-002	27.034
13482	1.8214	3.	0.	5321.9
13483	1.7304	3.0909	0.	5359.9
13484	1.8214	3.0909	5.e-002	27.08
13485	1.8214	2.8182	0.	5322.4
13486	1.7304	2.9091	0.	5359.9
13487	1.8214	2.9091	5.e-002	27.08
13488	1.8214	2.6364	0.	5324.
13489	1.7304	2.7273	0.	5360.1
13490	1.8214	2.7273	5.e-002	27.034
13491	1.8214	2.4545	0.	5327.3
13492	1.7304	2.5455	0.	5360.9
13493	1.8214	2.5455	5.e-002	26.947
13494	1.8214	2.2727	0.	5333.
13495	1.7304	2.3636	0.	5362.9
13496	1.8214	2.3636	5.e-002	26.831
13497	1.8214	2.0909	0.	5342.2
13498	1.7304	2.1818	0.	5367.1
13499	1.8214	2.1818	5.e-002	26.701
13500	1.8214	1.9091	0.	5356.3
13501	1.7304	2.	0.	5374.8
13502	1.8214	2.	5.e-002	26.58
13503	1.8214	1.7273	0.	5377.
13504	1.7304	1.8182	0.	5387.8
13505	1.8214	1.8182	5.e-002	26.494
13506	1.8214	1.5455	0.	5406.2
13507	1.7304	1.6364	0.	5408.1
13508	1.8214	1.6364	5.e-002	26.462
13509	1.8214	1.3636	0.	5445.6
13510	1.7304	1.4545	0.	5437.8
13511	1.8214	1.4545	5.e-002	26.494
13512	1.8214	1.1818	0.	5496.7
13513	1.7304	1.2727	0.	5479.1
13514	1.8214	1.2727	5.e-002	26.572
13515	1.8214	1.	0.	5560.8
13516	1.7304	1.0909	0.	5533.9
13517	1.8214	1.0909	5.e-002	26.637
13518	1.8214	0.81818	0.	5637.8
13519	1.7304	0.90909	0.	5603.2
13520	1.8214	0.90909	5.e-002	26.588
13521	1.8214	0.63636	0.	5727.1
13522	1.7304	0.72727	0.	5687.1
13523	1.8214	0.72727	5.e-002	26.298
13524	1.8214	0.45455	0.	5827.5
13525	1.7304	0.54545	0.	5784.3
13526	1.8214	0.54545	5.e-002	25.684
13527	1.8214	0.27273	0.	5944.7
13528	1.7304	0.36364	0.	5893.5
13529	1.8214	0.36364	5.e-002	25.092
13530	1.7304	0.18182	0.	6028.8
13531	1.8214	0.18182	5.e-002	44.079
13532	1.8214	9.0909e-002	0.	6000.8
13533	1.6393	5.7273	0.	5977.1
13534	1.5482	5.8182	0.	6060.5
13535	1.6393	5.8182	5.e-002	46.109
13536	1.6393	5.9091	0.	6032.6
13537	1.6393	5.5455	0.	5849.8
13538	1.5482	5.6364	0.	5911.7
13539	1.6393	5.6364	5.e-002	27.352
13540	1.6393	5.3636	0.	5743.7
13541	1.5482	5.4545	0.	5795.
13542	1.6393	5.4545	5.e-002	28.313
13543	1.6393	5.1818	0.	5651.9
13544	1.5482	5.2727	0.	5694.3
13545	1.6393	5.2727	5.e-002	28.931
13546	1.6393	5.	0.	5575.7
13547	1.5482	5.0909	0.	5610.9
13548	1.6393	5.0909	5.e-002	29.101
13549	1.6393	4.8182	0.	5515.7
13550	1.5482	4.9091	0.	5546.
13551	1.6393	4.9091	5.e-002	28.995
13552	1.6393	4.6364	0.	5470.8
13553	1.5482	4.7273	0.	5498.6
13554	1.6393	4.7273	5.e-002	28.805
13555	1.6393	4.4545	0.	5439.2
13556	1.5482	4.5455	0.	5466.5
13557	1.6393	4.5455	5.e-002	28.657
13558	1.6393	4.2727	0.	5418.5
13559	1.5482	4.3636	0.	5446.8
13560	1.6393	4.3636	5.e-002	28.608
13561	1.6393	4.0909	0.	5406.
13562	1.5482	4.1818	0.	5436.5
13563	1.6393	4.1818	5.e-002	28.658
13564	1.6393	3.9091	0.	5399.5
13565	1.5482	4.	0.	5432.7
13566	1.6393	4.	5.e-002	28.782
13567	1.6393	3.7273	0.	5396.8
13568	1.5482	3.8182	0.	5432.9
13569	1.6393	3.8182	5.e-002	28.943
13570	1.6393	3.5455	0.	5396.4
13571	1.5482	3.6364	0.	5435.2
13572	1.6393	3.6364	5.e-002	29.108
13573	1.6393	3.3636	0.	5396.9
13574	1.5482	3.4545	0.	5438.2
13575	1.6393	3.4545	5.e-002	29.251
13576	1.6393	3.1818	0.	5397.6
13577	1.5482	3.2727	0.	5440.7
13578	1.6393	3.2727	5.e-002	29.356
13579	1.6393	3.	0.	5397.8
13580	1.5482	3.0909	0.	5442.2
13581	1.6393	3.0909	5.e-002	29.41
13582	1.6393	2.8182	0.	5397.6
13583	1.5482	2.9091	0.	5442.2
13584	1.6393	2.9091	5.e-002	29.41
13585	1.6393	2.6364	0.	5396.9
13586	1.5482	2.7273	0.	5440.7
13587	1.6393	2.7273	5.e-002	29.356
13588	1.6393	2.4545	0.	5396.4
13589	1.5482	2.5455	0.	5438.2
13590	1.6393	2.5455	5.e-002	29.251
13591	1.6393	2.2727	0.	5396.8
13592	1.5482	2.3636	0.	5435.2
13593	1.6393	2.3636	5.e-002	29.108
13594	1.6393	2.0909	0.	5399.5
13595	1.5482	2.1818	0.	5432.9
13596	1.6393	2.1818	5.e-002	28.943
13597	1.6393	1.9091	0.	5406.
13598	1.5482	2.	0.	5432.7
13599	1.6393	2.	5.e-002	28.782
13600	1.6393	1.7273	0.	5418.5
13601	1.5482	1.8182	0.	5436.5
13602	1.6393	1.8182	5.e-002	28.658
13603	1.6393	1.5455	0.	5439.2
13604	1.5482	1.6364	0.	5446.8
13605	1.6393	1.6364	5.e-002	28.608
13606	1.6393	1.3636	0.	5470.8
13607	1.5482	1.4545	0.	5466.5
13608	1.6393	1.4545	5.e-002	28.657
13609	1.6393	1.1818	0.	5515.7
13610	1.5482	1.2727	0.	5498.6
13611	1.6393	1.2727	5.e-002	28.805
13612	1.6393	1.	0.	5575.7
13613	1.5482	1.0909	0.	5546.
13614	1.6393	1.0909	5.e-002	28.995
13615	1.6393	0.81818	0.	5651.9
13616	1.5482	0.90909	0.	5610.9
13617	1.6393	0.90909	5.e-002	29.101
13618	1.6393	0.63636	0.	5743.7
13619	1.5482	0.72727	0.	5694.3
13620	1.6393	0.72727	5.e-002	28.931
13621	1.6393	0.45455	0.	5849.8
13622	1.5482	0.54545	0.	5795.
13623	1.6393	0.54545	5.e-002	28.313
13624	1.6393	0.27273	0.	5977.1
13625	1.5482	0.36364	0.	5911.7
13626	1.6393	0.36364	5.e-002	27.352
13627	1.5482	0.18182	0.	6060.5
13628	1.6393	0.18182	5.e-002	46.109
13629	1.6393	9.0909e-002	0.	6032.6
13630	1.4571	5.7273	0.	5994.4
13631	1.3661	5.8182	0.	6075.1
13632	1.4571	5.8182	5.e-002	47.911
13633	1.4571	5.9091	0.	6049.
13634	1.4571	5.5455	0.	5856.2
13635	1.3661	5.6364	0.	5910.8
13636	1.4571	5.6364	5.e-002	30.47
13637	1.4571	5.3636	0.	5744.8
13638	1.3661	5.4545	0.	5786.9
13639	1.4571	5.4545	5.e-002	31.816
13640	1.4571	5.1818	0.	5652.5
13641	1.3661	5.2727	0.	5684.5
13642	1.4571	5.2727	5.e-002	32.3
13643	1.4571	5.	0.	5580.3
13644	1.3661	5.0909	0.	5605.2
13645	1.4571	5.0909	5.e-002	32.191
13646	1.4571	4.8182	0.	5528.1
13647	1.3661	4.9091	0.	5549.2
13648	1.4571	4.9091	5.e-002	31.807
13649	1.4571	4.6364	0.	5493.6
13650	1.3661	4.7273	0.	5514.1
13651	1.4571	4.7273	5.e-002	31.421
13652	1.4571	4.4545	0.	5473.5
13653	1.3661	4.5455	0.	5495.8
13654	1.4571	4.5455	5.e-002	31.173
13655	1.4571	4.2727	0.	5464.4
13656	1.3661	4.3636	0.	5490.1
13657	1.4571	4.3636	5.e-002	31.099
13658	1.4571	4.0909	0.	5462.8
13659	1.3661	4.1818	0.	5492.7
13660	1.4571	4.1818	5.e-002	31.165
13661	1.4571	3.9091	0.	5465.8
13662	1.3661	4.	0.	5500.3
13663	1.4571	4.	5.e-002	31.318
13664	1.4571	3.7273	0.	5471.1
13665	1.3661	3.8182	0.	5510.1
13666	1.4571	3.8182	5.e-002	31.507
13667	1.4571	3.5455	0.	5476.9
13668	1.3661	3.6364	0.	5520.1
13669	1.4571	3.6364	5.e-002	31.692
13670	1.4571	3.3636	0.	5481.9
13671	1.3661	3.4545	0.	5528.7
13672	1.4571	3.4545	5.e-002	31.848
13673	1.4571	3.1818	0.	5485.2
13674	1.3661	3.2727	0.	5534.9
13675	1.4571	3.2727	5.e-002	31.959
13676	1.4571	3.	0.	5486.4
13677	1.3661	3.0909	0.	5538.2
13678	1.4571	3.0909	5.e-002	32.016
13679	1.4571	2.8182	0.	5485.2
13680	1.3661	2.9091	0.	5538.2
13681	1.4571	2.9091	5.e-002	32.016
13682	1.4571	2.6364	0.	5481.9
13683	1.3661	2.7273	0.	5534.9
13684	1.4571	2.7273	5.e-002	31.959
13685	1.4571	2.4545	0.	5476.9
13686	1.3661	2.5455	0.	5528.7
13687	1.4571	2.5455	5.e-002	31.848
13688	1.4571	2.2727	0.	5471.1
13689	1.3661	2.3636	0.	5520.1
13690	1.4571	2.3636	5.e-002	31.692
13691	1.4571	2.0909	0.	5465.8
13692	1.3661	2.1818	0.	5510.1
13693	1.4571	2.1818	5.e-002	31.507
13694	1.4571	1.9091	0.	5462.8
13695	1.3661	2.	0.	5500.3
13696	1.4571	2.	5.e-002	31.318
13697	1.4571	1.7273	0.	5464.4
13698	1.3661	1.8182	0.	5492.7
13699	1.4571	1.8182	5.e-002	31.165
13700	1.4571	1.5455	0.	5473.5
13701	1.3661	1.6364	0.	5490.1
13702	1.4571	1.6364	5.e-002	31.099
13703	1.4571	1.3636	0.	5493.6
13704	1.3661	1.4545	0.	5495.8
13705	1.4571	1.4545	5.e-002	31.173
13706	1.4571	1.1818	0.	5528.1
13707	1.3661	1.2727	0.	5514.1
13708	1.4571	1.2727	5.e-002	31.421
13709	1.4571	1.	0.	5580.3
13710	1.3661	1.0909	0.	5549.2
13711	1.4571	1.0909	5.e-002	31.807
13712	1.4571	0.81818	0.	5652.5
13713	1.3661	0.90909	0.	5605.2
13714	1.4571	0.90909	5.e-002	32.191
13715	1.4571	0.63636	0.	5744.8
13716	1.3661	0.72727	0.	5684.5
13717	1.4571	0.72727	5.e-002	32.3
13718	1.4571	0.45455	0.	5856.2
13719	1.3661	0.54545	0.	5786.9
13720	1.4571	0.54545	5.e-002	31.816
13721	1.4571	0.27273	0.	5994.4
13722	1.3661	0.36364	0.	5910.8
13723	1.4571	0.36364	5.e-002	30.47
13724	1.3661	0.18182	0.	6075.1
13725	1.4571	0.18182	5.e-002	47.911
13726	1.4571	9.0909e-002	0.	6049.
13727	1.275	5.7273	0.	5990.4
13728	1.1839	5.8182	0.	6064.2
13729	1.275	5.8182	5.e-002	49.392
13730	1.275	5.9091	0.	6043.2
13731	1.275	5.5455	0.	5840.5
13732	1.1839	5.6364	0.	5882.3
13733	1.275	5.6364	5.e-002	34.962
13734	1.275	5.3636	0.	5725.4
13735	1.1839	5.4545	0.	5752.1
13736	1.275	5.4545	5.e-002	36.592
13737	1.275	5.1818	0.	5636.1
13738	1.1839	5.2727	0.	5652.
13739	1.275	5.2727	5.e-002	36.656
13740	1.275	5.	0.	5573.
13741	1.1839	5.0909	0.	5582.9
13742	1.275	5.0909	5.e-002	35.999
13743	1.275	4.8182	0.	5534.2
13744	1.1839	4.9091	0.	5543.
13745	1.275	4.9091	5.e-002	35.162
13746	1.275	4.6364	0.	5515.5
13747	1.1839	4.7273	0.	5526.9
13748	1.275	4.7273	5.e-002	34.497
13749	1.275	4.4545	0.	5511.7
13750	1.1839	4.5455	0.	5528.2
13751	1.275	4.5455	5.e-002	34.123
13752	1.275	4.2727	0.	5517.9
13753	1.1839	4.3636	0.	5540.7
13754	1.275	4.3636	5.e-002	34.012
13755	1.275	4.0909	0.	5529.9
13756	1.1839	4.1818	0.	5559.4
13757	1.275	4.1818	5.e-002	34.077
13758	1.275	3.9091	0.	5544.4
13759	1.1839	4.	0.	5580.5
13760	1.275	4.	5.e-002	34.235
13761	1.275	3.7273	0.	5558.9
13762	1.1839	3.8182	0.	5601.2
13763	1.275	3.8182	5.e-002	34.421
13764	1.275	3.5455	0.	5571.7
13765	1.1839	3.6364	0.	5619.5
13766	1.275	3.6364	5.e-002	34.595
13767	1.275	3.3636	0.	5581.6
13768	1.1839	3.4545	0.	5634.2
13769	1.275	3.4545	5.e-002	34.737
13770	1.275	3.1818	0.	5587.8
13771	1.1839	3.2727	0.	5644.4
13772	1.275	3.2727	5.e-002	34.835
13773	1.275	3.	0.	5589.9
13774	1.1839	3.0909	0.	5649.6
13775	1.275	3.0909	5.e-002	34.885
13776	1.275	2.8182	0.	5587.8
13777	1.1839	2.9091	0.	5649.6
13778	1.275	2.9091	5.e-002	34.885
13779	1.275	2.6364	0.	5581.6
13780	1.1839	2.7273	0.	5644.4
13781	1.275	2.7273	5.e-002	34.835
13782	1.275	2.4545	0.	5571.7
13783	1.1839	2.5455	0.	5634.2
13784	1.275	2.5455	5.e-002	34.737
13785	1.275	2.2727	0.	5558.9
13786	1.1839	2.3636	0.	5619.5
13787	1.275	2.3636	5.e-002	34.595
13788	1.275	2.0909	0.	5544.4
13789	1.1839	2.1818	0.	5601.2
13790	1.275	2.1818	5.e-002	34.421
13791	1.275	1.9091	0.	5529.9
13792	1.1839	2.	0.	5580.5
13793	1.275	2.	5.e-002	34.235
13794	1.275	1.7273	0.	5517.9
13795	1.1839	1.8182	0.	5559.4
13796	1.275	1.8182	5.e-002	34.077
13797	1.275	1.5455	0.	5511.7
13798	1.1839	1.6364	0.	5540.7
13799	1.275	1.6364	5.e-002	34.012
13800	1.275	1.3636	0.	5515.5
13801	1.1839	1.4545	0.	5528.2
13802	1.275	1.4545	5.e-002	34.123
13803	1.275	1.1818	0.	5534.2
13804	1.1839	1.2727	0.	5526.9
13805	1.275	1.2727	5.e-002	34.497
13806	1.275	1.	0.	5573.
13807	1.1839	1.0909	0.	5543.
13808	1.275	1.0909	5.e-002	35.162
13809	1.275	0.81818	0.	5636.1
13810	1.1839	0.90909	0.	5582.9
13811	1.275	0.90909	5.e-002	35.999
13812	1.275	0.63636	0.	5725.4
13813	1.1839	0.72727	0.	5652.
13814	1.275	0.72727	5.e-002	36.656
13815	1.275	0.45455	0.	5840.5
13816	1.1839	0.54545	0.	5752.1
13817	1.275	0.54545	5.e-002	36.592
13818	1.275	0.27273	0.	5990.4
13819	1.1839	0.36364	0.	5882.3
13820	1.275	0.36364	5.e-002	34.962
13821	1.1839	0.18182	0.	6064.2
13822	1.275	0.18182	5.e-002	49.392
13823	1.275	9.0909e-002	0.	6043.2
13824	1.0929	5.7273	0.	5954.7
13825	1.0018	5.8182	0.	6015.5
13826	1.0929	5.8182	5.e-002	50.587
13827	1.0929	5.9091	0.	6005.1
13828	1.0929	5.5455	0.	5792.6
13829	1.0018	5.6364	0.	5814.4
13830	1.0929	5.6364	5.e-002	41.684
13831	1.0929	5.3636	0.	5677.1
13832	1.0018	5.4545	0.	5681.6
13833	1.0929	5.4545	5.e-002	43.208
13834	1.0929	5.1818	0.	5597.2
13835	1.0018	5.2727	0.	5591.9
13836	1.0929	5.2727	5.e-002	42.303
13837	1.0929	5.	0.	5551.5
13838	1.0018	5.0909	0.	5544.
13839	1.0929	5.0909	5.e-002	40.682
13840	1.0929	4.8182	0.	5534.5
13841	1.0018	4.9091	0.	5531.
13842	1.0929	4.9091	5.e-002	39.18
13843	1.0929	4.6364	0.	5538.7
13844	1.0018	4.7273	0.	5543.1
13845	1.0929	4.7273	5.e-002	38.167
13846	1.0929	4.4545	0.	5556.5
13847	1.0018	4.5455	0.	5570.6
13848	1.0929	4.5455	5.e-002	37.647
13849	1.0929	4.2727	0.	5581.8
13850	1.0018	4.3636	0.	5605.9
13851	1.0929	4.3636	5.e-002	37.477
13852	1.0929	4.0909	0.	5609.8
13853	1.0018	4.1818	0.	5643.4
13854	1.0929	4.1818	5.e-002	37.501
13855	1.0929	3.9091	0.	5637.2
13856	1.0018	4.	0.	5679.4
13857	1.0929	4.	5.e-002	37.609
13858	1.0929	3.7273	0.	5661.7
13859	1.0018	3.8182	0.	5711.7
13860	1.0929	3.8182	5.e-002	37.735
13861	1.0929	3.5455	0.	5681.9
13862	1.0018	3.6364	0.	5738.6
13863	1.0929	3.6364	5.e-002	37.848
13864	1.0929	3.3636	0.	5696.9
13865	1.0018	3.4545	0.	5759.3
13866	1.0929	3.4545	5.e-002	37.935
13867	1.0929	3.1818	0.	5706.1
13868	1.0018	3.2727	0.	5773.4
13869	1.0929	3.2727	5.e-002	37.993
13870	1.0929	3.	0.	5709.2
13871	1.0018	3.0909	0.	5780.4
13872	1.0929	3.0909	5.e-002	38.021
13873	1.0929	2.8182	0.	5706.1
13874	1.0018	2.9091	0.	5780.4
13875	1.0929	2.9091	5.e-002	38.021
13876	1.0929	2.6364	0.	5696.9
13877	1.0018	2.7273	0.	5773.4
13878	1.0929	2.7273	5.e-002	37.993
13879	1.0929	2.4545	0.	5681.9
13880	1.0018	2.5455	0.	5759.3
13881	1.0929	2.5455	5.e-002	37.935
13882	1.0929	2.2727	0.	5661.7
13883	1.0018	2.3636	0.	5738.6
13884	1.0929	2.3636	5.e-002	37.848
13885	1.0929	2.0909	0.	5637.2
13886	1.0018	2.1818	0.	5711.7
13887	1.0929	2.1818	5.e-002	37.735
13888	1.0929	1.9091	0.	5609.8
13889	1.0018	2.	0.	5679.4
13890	1.0929	2.	5.e-002	37.609
13891	1.0929	1.7273	0.	5581.8
13892	1.0018	1.8182	0.	5643.4
13893	1.0929	1.8182	5.e-002	37.501
13894	1.0929	1.5455	0.	5556.5
13895	1.0018	1.6364	0.	5605.9
13896	1.0929	1.6364	5.e-002	37.477
13897	1.0929	1.3636	0.	5538.7
13898	1.0018	1.4545	0.	5570.6
13899	1.0929	1.4545	5.e-002	37.647
13900	1.0929	1.1818	0.	5534.5
13901	1.0018	1.2727	0.	5543.1
13902	1.0929	1.2727	5.e-002	38.167
13903	1.0929	1.	0.	5551.5
13904	1.0018	1.0909	0.	5531.
13905	1.0929	1.0909	5.e-002	39.18
13906	1.0929	0.81818	0.	5597.2
13907	1.0018	0.90909	0.	5544.
13908	1.0929	0.90909	5.e-002	40.682
13909	1.0929	0.63636	0.	5677.1
13910	1.0018	0.72727	0.	5591.9
13911	1.0929	0.72727	5.e-002	42.303
13912	1.0929	0.45455	0.	5792.6
13913	1.0018	0.54545	0.	5681.6
13914	1.0929	0.54545	5.e-002	43.208
13915	1.0929	0.27273	0.	5954.7
13916	1.0018	0.36364	0.	5814.4
13917	1.0929	0.36364	5.e-002	41.684
13918	1.0018	0.18182	0.	6015.5
13919	1.0929	0.18182	5.e-002	50.587
13920	1.0929	9.0909e-002	0.	6005.1
13921	0.91071	5.7273	0.	5873.
13922	0.81964	5.8182	0.	5905.7
13923	0.91071	5.8182	5.e-002	51.886
13924	0.91071	5.9091	0.	5918.7
13925	0.91071	5.5455	0.	5701.3
13926	0.81964	5.6364	0.	5683.1
13927	0.91071	5.6364	5.e-002	51.987
13928	0.91071	5.3636	0.	5594.
13929	0.81964	5.4545	0.	5555.8
13930	0.91071	5.4545	5.e-002	52.439
13931	0.91071	5.1818	0.	5536.4
13932	0.81964	5.2727	0.	5492.6
13933	0.91071	5.2727	5.e-002	49.539
13934	0.91071	5.	0.	5521.8
13935	0.81964	5.0909	0.	5483.8
13936	0.91071	5.0909	5.e-002	46.344
13937	0.91071	4.8182	0.	5538.5
13938	0.81964	4.9091	0.	5513.
13939	0.91071	4.9091	5.e-002	43.963
13940	0.91071	4.6364	0.	5574.4
13941	0.81964	4.7273	0.	5563.7
13942	0.91071	4.7273	5.e-002	42.551
13943	0.91071	4.4545	0.	5619.6
13944	0.81964	4.5455	0.	5623.7
13945	0.91071	4.5455	5.e-002	41.845
13946	0.91071	4.2727	0.	5667.2
13947	0.81964	4.3636	0.	5684.9
13948	0.91071	4.3636	5.e-002	41.54
13949	0.91071	4.0909	0.	5712.9
13950	0.81964	4.1818	0.	5742.4
13951	0.91071	4.1818	5.e-002	41.422
13952	0.91071	3.9091	0.	5753.9
13953	0.81964	4.	0.	5793.5
13954	0.91071	4.	5.e-002	41.375
13955	0.91071	3.7273	0.	5788.5
13956	0.81964	3.8182	0.	5836.8
13957	0.91071	3.8182	5.e-002	41.349
13958	0.91071	3.5455	0.	5815.9
13959	0.81964	3.6364	0.	5871.6
13960	0.91071	3.6364	5.e-002	41.325
13961	0.91071	3.3636	0.	5835.7
13962	0.81964	3.4545	0.	5897.8
13963	0.91071	3.4545	5.e-002	41.301
13964	0.91071	3.1818	0.	5847.7
13965	0.81964	3.2727	0.	5915.3
13966	0.91071	3.2727	5.e-002	41.281
13967	0.91071	3.	0.	5851.7
13968	0.81964	3.0909	0.	5924.
13969	0.91071	3.0909	5.e-002	41.269
13970	0.91071	2.8182	0.	5847.7
13971	0.81964	2.9091	0.	5924.
13972	0.91071	2.9091	5.e-002	41.269
13973	0.91071	2.6364	0.	5835.7
13974	0.81964	2.7273	0.	5915.3
13975	0.91071	2.7273	5.e-002	41.281
13976	0.91071	2.4545	0.	5815.9
13977	0.81964	2.5455	0.	5897.8
13978	0.91071	2.5455	5.e-002	41.301
13979	0.91071	2.2727	0.	5788.5
13980	0.81964	2.3636	0.	5871.6
13981	0.91071	2.3636	5.e-002	41.325
13982	0.91071	2.0909	0.	5753.9
13983	0.81964	2.1818	0.	5836.8
13984	0.91071	2.1818	5.e-002	41.349
13985	0.91071	1.9091	0.	5712.9
13986	0.81964	2.	0.	5793.5
13987	0.91071	2.	5.e-002	41.375
13988	0.91071	1.7273	0.	5667.2
13989	0.81964	1.8182	0.	5742.4
13990	0.91071	1.8182	5.e-002	41.422
13991	0.91071	1.5455	0.	5619.6
13992	0.81964	1.6364	0.	5684.9
13993	0.91071	1.6364	5.e-002	41.54
13994	0.91071	1.3636	0.	5574.4
13995	0.81964	1.4545	0.	5623.7
13996	0.91071	1.4545	5.e-002	41.845
13997	0.91071	1.1818	0.	5538.5
13998	0.81964	1.2727	0.	5563.7
13999	0.91071	1.2727	5.e-002	42.551
14000	0.91071	1.	0.	5521.8
14001	0.81964	1.0909	0.	5513.
14002	0.91071	1.0909	5.e-002	43.963
14003	0.91071	0.81818	0.	5536.4
14004	0.81964	0.90909	0.	5483.8
14005	0.91071	0.90909	5.e-002	46.344
14006	0.91071	0.63636	0.	5594.
14007	0.81964	0.72727	0.	5492.6
14008	0.91071	0.72727	5.e-002	49.539
14009	0.91071	0.45455	0.	5701.3
14010	0.81964	0.54545	0.	5555.8
14011	0.91071	0.54545	5.e-002	52.439
14012	0.91071	0.27273	0.	5873.
14013	0.81964	0.36364	0.	5683.1
14014	0.91071	0.36364	5.e-002	51.987
14015	0.81964	0.18182	0.	5905.7
14016	0.91071	0.18182	5.e-002	51.886
14017	0.91071	9.0909e-002	0.	5918.7
14018	0.72857	5.7273	0.	5712.2
14019	0.6375	5.8182	0.	5700.1
14020	0.72857	5.8182	5.e-002	56.072
14021	0.72857	5.9091	0.	5754.3
14022	0.72857	5.5455	0.	5533.9
14023	0.6375	5.6364	0.	5469.1
14024	0.72857	5.6364	5.e-002	68.234
14025	0.72857	5.3636	0.	5450.6
14026	0.6375	5.4545	0.	5377.9
14027	0.72857	5.4545	5.e-002	65.176
14028	0.72857	5.1818	0.	5437.
14029	0.6375	5.2727	0.	5378.9
14030	0.72857	5.2727	5.e-002	58.606
14031	0.72857	5.	0.	5473.2
14032	0.6375	5.0909	0.	5440.9
14033	0.72857	5.0909	5.e-002	53.301
14034	0.72857	4.8182	0.	5537.3
14035	0.6375	4.9091	0.	5532.8
14036	0.72857	4.9091	5.e-002	50.026
14037	0.72857	4.6364	0.	5612.7
14038	0.6375	4.7273	0.	5633.3
14039	0.72857	4.7273	5.e-002	48.245
14040	0.72857	4.4545	0.	5688.9
14041	0.6375	4.5455	0.	5730.6
14042	0.72857	4.5455	5.e-002	47.284
14043	0.72857	4.2727	0.	5760.
14044	0.6375	4.3636	0.	5818.8
14045	0.72857	4.3636	5.e-002	46.702
14046	0.72857	4.0909	0.	5822.9
14047	0.6375	4.1818	0.	5895.6
14048	0.72857	4.1818	5.e-002	46.285
14049	0.72857	3.9091	0.	5876.4
14050	0.6375	4.	0.	5960.4
14051	0.72857	4.	5.e-002	45.942
14052	0.72857	3.7273	0.	5919.9
14053	0.6375	3.8182	0.	6013.2
14054	0.72857	3.8182	5.e-002	45.647
14055	0.72857	3.5455	0.	5953.5
14056	0.6375	3.6364	0.	6054.7
14057	0.72857	3.6364	5.e-002	45.398
14058	0.72857	3.3636	0.	5977.3
14059	0.6375	3.4545	0.	6085.2
14060	0.72857	3.4545	5.e-002	45.202
14061	0.72857	3.1818	0.	5991.5
14062	0.6375	3.2727	0.	6105.2
14063	0.72857	3.2727	5.e-002	45.066
14064	0.72857	3.	0.	5996.2
14065	0.6375	3.0909	0.	6115.2
14066	0.72857	3.0909	5.e-002	44.997
14067	0.72857	2.8182	0.	5991.5
14068	0.6375	2.9091	0.	6115.2
14069	0.72857	2.9091	5.e-002	44.997
14070	0.72857	2.6364	0.	5977.3
14071	0.6375	2.7273	0.	6105.2
14072	0.72857	2.7273	5.e-002	45.066
14073	0.72857	2.4545	0.	5953.5
14074	0.6375	2.5455	0.	6085.2
14075	0.72857	2.5455	5.e-002	45.202
14076	0.72857	2.2727	0.	5919.9
14077	0.6375	2.3636	0.	6054.7
14078	0.72857	2.3636	5.e-002	45.398
14079	0.72857	2.0909	0.	5876.4
14080	0.6375	2.1818	0.	6013.2
14081	0.72857	2.1818	5.e-002	45.647
14082	0.72857	1.9091	0.	5822.9
14083	0.6375	2.	0.	5960.4
14084	0.72857	2.	5.e-002	45.942
14085	0.72857	1.7273	0.	5760.
14086	0.6375	1.8182	0.	5895.6
14087	0.72857	1.8182	5.e-002	46.285
14088	0.72857	1.5455	0.	5688.9
14089	0.6375	1.6364	0.	5818.8
14090	0.72857	1.6364	5.e-002	46.702
14091	0.72857	1.3636	0.	5612.7
14092	0.6375	1.4545	0.	5730.6
14093	0.72857	1.4545	5.e-002	47.284
14094	0.72857	1.1818	0.	5537.3
14095	0.6375	1.2727	0.	5633.3
14096	0.72857	1.2727	5.e-002	48.245
14097	0.72857	1.	0.	5473.2
14098	0.6375	1.0909	0.	5532.8
14099	0.72857	1.0909	5.e-002	50.026
14100	0.72857	0.81818	0.	5437.
14101	0.6375	0.90909	0.	5440.9
14102	0.72857	0.90909	5.e-002	53.301
14103	0.72857	0.63636	0.	5450.6
14104	0.6375	0.72727	0.	5378.9
14105	0.72857	0.72727	5.e-002	58.606
14106	0.72857	0.45455	0.	5533.9
14107	0.6375	0.54545	0.	5377.9
14108	0.72857	0.54545	5.e-002	65.176
14109	0.72857	0.27273	0.	5712.2
14110	0.6375	0.36364	0.	5469.1
14111	0.72857	0.36364	5.e-002	68.234
14112	0.6375	0.18182	0.	5700.1
14113	0.72857	0.18182	5.e-002	56.072
14114	0.72857	9.0909e-002	0.	5754.3
14115	0.54643	5.7273	0.	5449.9
14116	0.45536	5.8182	0.	5294.4
14117	0.54643	5.8182	5.e-002	70.45
14118	0.54643	5.9091	0.	5465.1
14119	0.54643	5.5455	0.	5306.7
14120	0.45536	5.6364	0.	5057.
14121	0.54643	5.6364	5.e-002	94.385
14122	0.54643	5.3636	0.	5301.6
14123	0.45536	5.4545	0.	5056.6
14124	0.54643	5.4545	5.e-002	81.948
14125	0.54643	5.1818	0.	5380.8
14126	0.45536	5.2727	0.	5177.1
14127	0.54643	5.2727	5.e-002	69.217
14128	0.54643	5.	0.	5500.4
14129	0.45536	5.0909	0.	5339.6
14130	0.54643	5.0909	5.e-002	61.374
14131	0.54643	4.8182	0.	5629.5
14132	0.45536	4.9091	0.	5503.9
14133	0.54643	4.9091	5.e-002	57.004
14134	0.54643	4.6364	0.	5752.
14135	0.45536	4.7273	0.	5653.1
14136	0.54643	4.7273	5.e-002	54.497
14137	0.54643	4.4545	0.	5861.2
14138	0.45536	4.5455	0.	5782.3
14139	0.54643	4.5455	5.e-002	52.829
14140	0.54643	4.2727	0.	5955.
14141	0.45536	4.3636	0.	5891.1
14142	0.54643	4.3636	5.e-002	51.555
14143	0.54643	4.0909	0.	6033.5
14144	0.45536	4.1818	0.	5981.1
14145	0.54643	4.1818	5.e-002	50.503
14146	0.54643	3.9091	0.	6097.5
14147	0.45536	4.	0.	6054.2
14148	0.54643	4.	5.e-002	49.614
14149	0.54643	3.7273	0.	6148.2
14150	0.45536	3.8182	0.	6112.3
14151	0.54643	3.8182	5.e-002	48.872
14152	0.54643	3.5455	0.	6186.5
14153	0.45536	3.6364	0.	6156.9
14154	0.54643	3.6364	5.e-002	48.275
14155	0.54643	3.3636	0.	6213.2
14156	0.45536	3.4545	0.	6189.3
14157	0.54643	3.4545	5.e-002	47.825
14158	0.54643	3.1818	0.	6229.
14159	0.45536	3.2727	0.	6210.4
14160	0.54643	3.2727	5.e-002	47.523
14161	0.54643	3.	0.	6234.2
14162	0.45536	3.0909	0.	6220.9
14163	0.54643	3.0909	5.e-002	47.372
14164	0.54643	2.8182	0.	6229.
14165	0.45536	2.9091	0.	6220.9
14166	0.54643	2.9091	5.e-002	47.372
14167	0.54643	2.6364	0.	6213.2
14168	0.45536	2.7273	0.	6210.4
14169	0.54643	2.7273	5.e-002	47.523
14170	0.54643	2.4545	0.	6186.5
14171	0.45536	2.5455	0.	6189.3
14172	0.54643	2.5455	5.e-002	47.825
14173	0.54643	2.2727	0.	6148.2
14174	0.45536	2.3636	0.	6156.9
14175	0.54643	2.3636	5.e-002	48.275
14176	0.54643	2.0909	0.	6097.5
14177	0.45536	2.1818	0.	6112.3
14178	0.54643	2.1818	5.e-002	48.872
14179	0.54643	1.9091	0.	6033.5
14180	0.45536	2.	0.	6054.2
14181	0.54643	2.	5.e-002	49.614
14182	0.54643	1.7273	0.	5955.
14183	0.45536	1.8182	0.	5981.1
14184	0.54643	1.8182	5.e-002	50.503
14185	0.54643	1.5455	0.	5861.2
14186	0.45536	1.6364	0.	5891.1
14187	0.54643	1.6364	5.e-002	51.555
14188	0.54643	1.3636	0.	5752.
14189	0.45536	1.4545	0.	5782.3
14190	0.54643	1.4545	5.e-002	52.829
14191	0.54643	1.1818	0.	5629.5
14192	0.45536	1.2727	0.	5653.1
14193	0.54643	1.2727	5.e-002	54.497
14194	0.54643	1.	0.	5500.4
14195	0.45536	1.0909	0.	5503.9
14196	0.54643	1.0909	5.e-002	57.004
14197	0.54643	0.81818	0.	5380.8
14198	0.45536	0.90909	0.	5339.6
14199	0.54643	0.90909	5.e-002	61.374
14200	0.54643	0.63636	0.	5301.6
14201	0.45536	0.72727	0.	5177.1
14202	0.54643	0.72727	5.e-002	69.217
14203	0.54643	0.45455	0.	5306.7
14204	0.45536	0.54545	0.	5056.6
14205	0.54643	0.54545	5.e-002	81.948
14206	0.54643	0.27273	0.	5449.9
14207	0.45536	0.36364	0.	5057.
14208	0.54643	0.36364	5.e-002	94.385
14209	0.45536	0.18182	0.	5294.4
14210	0.54643	0.18182	5.e-002	70.45
14211	0.54643	9.0909e-002	0.	5465.1
14212	0.36429	5.7273	0.	4886.1
14213	0.27321	5.8182	0.	4528.9
14214	0.36429	5.8182	5.e-002	123.27
14215	0.36429	5.9091	0.	4917.5
14216	0.36429	5.5455	0.	4793.5
14217	0.27321	5.6364	0.	4639.9
14218	0.36429	5.6364	5.e-002	136.14
14219	0.36429	5.3636	0.	4925.2
14220	0.27321	5.4545	0.	5006.5
14221	0.36429	5.4545	5.e-002	103.5
14222	0.36429	5.1818	0.	5133.8
14223	0.27321	5.2727	0.	5372.
14224	0.36429	5.2727	5.e-002	85.089
14225	0.36429	5.	0.	5343.1
14226	0.27321	5.0909	0.	5681.1
14227	0.36429	5.0909	5.e-002	75.577
14228	0.36429	4.8182	0.	5528.1
14229	0.27321	4.9091	0.	5931.
14230	0.36429	4.9091	5.e-002	70.465
14231	0.36429	4.6364	0.	5684.1
14232	0.27321	4.7273	0.	6130.5
14233	0.36429	4.7273	5.e-002	66.996
14234	0.36429	4.4545	0.	5812.8
14235	0.27321	4.5455	0.	6289.6
14236	0.36429	4.5455	5.e-002	64.312
14237	0.36429	4.2727	0.	5917.7
14238	0.27321	4.3636	0.	6416.4
14239	0.36429	4.3636	5.e-002	62.107
14240	0.36429	4.0909	0.	6002.2
14241	0.27321	4.1818	0.	6517.2
14242	0.36429	4.1818	5.e-002	60.27
14243	0.36429	3.9091	0.	6069.3
14244	0.27321	4.	0.	6596.9
14245	0.36429	4.	5.e-002	58.749
14246	0.36429	3.7273	0.	6121.3
14247	0.27321	3.8182	0.	6658.9
14248	0.36429	3.8182	5.e-002	57.515
14249	0.36429	3.5455	0.	6160.
14250	0.27321	3.6364	0.	6705.8
14251	0.36429	3.6364	5.e-002	56.548
14252	0.36429	3.3636	0.	6186.8
14253	0.27321	3.4545	0.	6739.5
14254	0.36429	3.4545	5.e-002	55.835
14255	0.36429	3.1818	0.	6202.6
14256	0.27321	3.2727	0.	6761.3
14257	0.36429	3.2727	5.e-002	55.365
14258	0.36429	3.	0.	6207.8
14259	0.27321	3.0909	0.	6772.
14260	0.36429	3.0909	5.e-002	55.132
14261	0.36429	2.8182	0.	6202.6
14262	0.27321	2.9091	0.	6772.
14263	0.36429	2.9091	5.e-002	55.132
14264	0.36429	2.6364	0.	6186.8
14265	0.27321	2.7273	0.	6761.3
14266	0.36429	2.7273	5.e-002	55.365
14267	0.36429	2.4545	0.	6160.
14268	0.27321	2.5455	0.	6739.5
14269	0.36429	2.5455	5.e-002	55.835
14270	0.36429	2.2727	0.	6121.3
14271	0.27321	2.3636	0.	6705.8
14272	0.36429	2.3636	5.e-002	56.548
14273	0.36429	2.0909	0.	6069.3
14274	0.27321	2.1818	0.	6658.9
14275	0.36429	2.1818	5.e-002	57.515
14276	0.36429	1.9091	0.	6002.2
14277	0.27321	2.	0.	6596.9
14278	0.36429	2.	5.e-002	58.749
14279	0.36429	1.7273	0.	5917.7
14280	0.27321	1.8182	0.	6517.2
14281	0.36429	1.8182	5.e-002	60.27
14282	0.36429	1.5455	0.	5812.8
14283	0.27321	1.6364	0.	6416.4
14284	0.36429	1.6364	5.e-002	62.107
14285	0.36429	1.3636	0.	5684.1
14286	0.27321	1.4545	0.	6289.6
14287	0.36429	1.4545	5.e-002	64.312
14288	0.36429	1.1818	0.	5528.1
14289	0.27321	1.2727	0.	6130.5
14290	0.36429	1.2727	5.e-002	66.996
14291	0.36429	1.	0.	5343.1
14292	0.27321	1.0909	0.	5931.
14293	0.36429	1.0909	5.e-002	70.465
14294	0.36429	0.81818	0.	5133.8
14295	0.27321	0.90909	0.	5681.1
14296	0.36429	0.90909	5.e-002	75.577
14297	0.36429	0.63636	0.	4925.2
14298	0.27321	0.72727	0.	5372.
14299	0.36429	0.72727	5.e-002	85.089
14300	0.36429	0.45455	0.	4793.5
14301	0.27321	0.54545	0.	5006.5
14302	0.36429	0.54545	5.e-002	103.5
14303	0.36429	0.27273	0.	4886.1
14304	0.27321	0.36364	0.	4639.9
14305	0.36429	0.36364	5.e-002	136.14
14306	0.27321	0.18182	0.	4528.9
14307	0.36429	0.18182	5.e-002	123.27
14308	0.36429	9.0909e-002	0.	4917.5
14309	0.18214	5.7273	0.	4248.5
14310	0.18214	5.8182	5.e-002	295.8
14311	0.18214	5.9091	0.	3829.9
14312	9.1071e-002	5.8182	0.	2702.7
14313	0.18214	5.5455	0.	4878.6
14314	0.18214	5.6364	5.e-002	188.18
14315	9.1071e-002	5.6364	0.	3407.8
14316	0.18214	5.3636	0.	5483.3
14317	0.18214	5.4545	5.e-002	127.92
14318	9.1071e-002	5.4545	0.	3991.6
14319	0.18214	5.1818	0.	5942.4
14320	0.18214	5.2727	5.e-002	98.043
14321	9.1071e-002	5.2727	0.	4409.
14322	0.18214	5.	0.	6286.1
14323	0.18214	5.0909	5.e-002	82.521
14324	9.1071e-002	5.0909	0.	4708.8
14325	0.18214	4.8182	0.	6546.5
14326	0.18214	4.9091	5.e-002	71.924
14327	9.1071e-002	4.9091	0.	4930.6
14328	0.18214	4.6364	0.	6746.7
14329	0.18214	4.7273	5.e-002	64.206
14330	9.1071e-002	4.7273	0.	5098.4
14331	0.18214	4.4545	0.	6902.4
14332	0.18214	4.5455	5.e-002	58.322
14333	9.1071e-002	4.5455	0.	5227.5
14334	0.18214	4.2727	0.	7024.3
14335	0.18214	4.3636	5.e-002	53.737
14336	9.1071e-002	4.3636	0.	5328.
14337	0.18214	4.0909	0.	7119.7
14338	0.18214	4.1818	5.e-002	50.13
14339	9.1071e-002	4.1818	0.	5406.5
14340	0.18214	3.9091	0.	7193.8
14341	0.18214	4.	5.e-002	47.294
14342	9.1071e-002	4.	0.	5467.6
14343	0.18214	3.7273	0.	7250.4
14344	0.18214	3.8182	5.e-002	45.089
14345	9.1071e-002	3.8182	0.	5514.8
14346	0.18214	3.5455	0.	7292.1
14347	0.18214	3.6364	5.e-002	43.42
14348	9.1071e-002	3.6364	0.	5550.2
14349	0.18214	3.3636	0.	7320.8
14350	0.18214	3.4545	5.e-002	42.218
14351	9.1071e-002	3.4545	0.	5575.5
14352	0.18214	3.1818	0.	7337.5
14353	0.18214	3.2727	5.e-002	41.441
14354	9.1071e-002	3.2727	0.	5591.8
14355	0.18214	3.	0.	7343.
14356	0.18214	3.0909	5.e-002	41.058
14357	9.1071e-002	3.0909	0.	5599.8
14358	0.18214	2.8182	0.	7337.5
14359	0.18214	2.9091	5.e-002	41.058
14360	9.1071e-002	2.9091	0.	5599.8
14361	0.18214	2.6364	0.	7320.8
14362	0.18214	2.7273	5.e-002	41.441
14363	9.1071e-002	2.7273	0.	5591.8
14364	0.18214	2.4545	0.	7292.1
14365	0.18214	2.5455	5.e-002	42.218
14366	9.1071e-002	2.5455	0.	5575.5
14367	0.18214	2.2727	0.	7250.4
14368	0.18214	2.3636	5.e-002	43.42
14369	9.1071e-002	2.3636	0.	5550.2
14370	0.18214	2.0909	0.	7193.8
14371	0.18214	2.1818	5.e-002	45.089
14372	9.1071e-002	2.1818	0.	5514.8
14373	0.18214	1.9091	0.	7119.7
14374	0.18214	2.	5.e-002	47.294
14375	9.1071e-002	2.	0.	5467.6
14376	0.18214	1.7273	0.	7024.3
14377	0.18214	1.8182	5.e-002	50.13
14378	9.1071e-002	1.8182	0.	5406.5
14379	0.18214	1.5455	0.	6902.4
14380	0.18214	1.6364	5.e-002	53.737
14381	9.1071e-002	1.6364	0.	5328.
14382	0.18214	1.3636	0.	6746.7
14383	0.18214	1.4545	5.e-002	58.322
14384	9.1071e-002	1.4545	0.	5227.5
14385	0.18214	1.1818	0.	6546.5
14386	0.18214	1.2727	5.e-002	64.206
14387	9.1071e-002	1.2727	0.	5098.4
14388	0.18214	1.	0.	6286.1
14389	0.18214	1.0909	5.e-002	71.924
14390	9.1071e-002	1.0909	0.	4930.6
14391	0.18214	0.81818	0.	5942.4
14392	0.18214	0.90909	5.e-002	82.521
14393	9.1071e-002	0.90909	0.	4708.8
14394	0.18214	0.63636	0.	5483.3
14395	0.18214	0.72727	5.e-002	98.043
14396	9.1071e-002	0.72727	0.	4409.
14397	0.18214	0.45455	0.	4878.6
14398	0.18214	0.54545	5.e-002	127.92
14399	9.1071e-002	0.54545	0.	3991.6
14400	0.18214	0.27273	0.	4248.5
14401	0.18214	0.36364	5.e-002	188.18
14402	9.1071e-002	0.36364	0.	3407.8
14403	0.18214	0.18182	5.e-002	295.8
14404	0.18214	9.0909e-002	0.	3829.9
14405	9.1071e-002	0.18182	0.	2702.7
14406	10.643	5.8182	0.	749.11
14407	10.551	5.7273	0.	748.12
14408	10.551	5.8182	5.e-002	80.557
14409	10.551	5.9091	0.	478.47
14410	10.459	5.8182	0.	427.82
14411	10.827	5.8182	0.	1069.8
14412	10.735	5.7273	0.	982.68
14413	10.735	5.8182	5.e-002	70.943
14414	10.735	5.9091	0.	832.32
14415	11.011	5.8182	0.	1369.5
14416	10.919	5.7273	0.	1278.4
14417	10.919	5.8182	5.e-002	65.131
14418	10.919	5.9091	0.	1162.1
14419	11.196	5.8182	0.	1628.3
14420	11.104	5.7273	0.	1550.3
14421	11.104	5.8182	5.e-002	58.232
14422	11.104	5.9091	0.	1451.
14423	11.38	5.8182	0.	1843.9
14424	11.288	5.7273	0.	1782.5
14425	11.288	5.8182	5.e-002	50.666
14426	11.288	5.9091	0.	1695.8
14427	11.564	5.8182	0.	2018.3
14428	11.472	5.7273	0.	1972.7
14429	11.472	5.8182	5.e-002	43.004
14430	11.472	5.9091	0.	1897.6
14431	11.748	5.8182	0.	2155.1
14432	11.656	5.7273	0.	2123.2
14433	11.656	5.8182	5.e-002	35.695
14434	11.656	5.9091	0.	2059.
14435	11.933	5.8182	0.	2258.6
14436	11.841	5.7273	0.	2238.1
14437	11.841	5.8182	5.e-002	29.034
14438	11.841	5.9091	0.	2184.2
14439	12.117	5.8182	0.	2333.8
14440	12.025	5.7273	0.	2322.3
14441	12.025	5.8182	5.e-002	23.171
14442	12.025	5.9091	0.	2277.8
14443	12.301	5.8182	0.	2384.9
14444	12.209	5.7273	0.	2380.6
14445	12.209	5.8182	5.e-002	18.146
14446	12.209	5.9091	0.	2344.5
14447	12.485	5.8182	0.	2416.3
14448	12.393	5.7273	0.	2417.5
14449	12.393	5.8182	5.e-002	13.928
14450	12.393	5.9091	0.	2388.7
14451	12.67	5.8182	0.	2431.4
14452	12.577	5.7273	0.	2437.
14453	12.577	5.8182	5.e-002	10.45
14454	12.577	5.9091	0.	2414.3
14455	12.854	5.8182	0.	2433.4
14456	12.762	5.7273	0.	2442.3
14457	12.762	5.8182	5.e-002	7.6223
14458	12.762	5.9091	0.	2424.8
14459	13.038	5.8182	0.	2424.8
14460	12.946	5.7273	0.	2436.2
14461	12.946	5.8182	5.e-002	5.3564
14462	12.946	5.9091	0.	2423.
14463	13.222	5.8182	0.	2407.9
14464	13.13	5.7273	0.	2421.2
14465	13.13	5.8182	5.e-002	3.5672
14466	13.13	5.9091	0.	2411.5
14467	13.407	5.8182	0.	2384.3
14468	13.314	5.7273	0.	2399.1
14469	13.314	5.8182	5.e-002	2.1826
14470	13.314	5.9091	0.	2392.1
14471	13.591	5.8182	0.	2355.5
14472	13.499	5.7273	0.	2371.4
14473	13.499	5.8182	5.e-002	1.1592
14474	13.499	5.9091	0.	2366.6
14475	13.775	5.8182	0.	2322.6
14476	13.683	5.7273	0.	2339.3
14477	13.683	5.8182	5.e-002	0.57895
14478	13.683	5.9091	0.	2336.3
14479	13.959	5.8182	0.	2286.5
14480	13.867	5.7273	0.	2303.9
14481	13.867	5.8182	5.e-002	0.69092
14482	13.867	5.9091	0.	2302.1
14483	14.143	5.8182	0.	2248.
14484	14.051	5.7273	0.	2265.8
14485	14.051	5.8182	5.e-002	1.0296
14486	14.051	5.9091	0.	2265.
14487	14.328	5.8182	0.	2207.7
14488	14.236	5.7273	0.	2225.8
14489	14.236	5.8182	5.e-002	1.3077
14490	14.236	5.9091	0.	2225.7
14491	14.512	5.8182	0.	2165.9
14492	14.42	5.7273	0.	2184.3
14493	14.42	5.8182	5.e-002	1.501
14494	14.42	5.9091	0.	2184.6
14495	14.696	5.8182	0.	2123.1
14496	14.604	5.7273	0.	2141.7
14497	14.604	5.8182	5.e-002	1.6206
14498	14.604	5.9091	0.	2142.2
14499	14.88	5.8182	0.	2079.6
14500	14.788	5.7273	0.	2098.3
14501	14.788	5.8182	5.e-002	1.6815
14502	14.788	5.9091	0.	2098.9
14503	15.065	5.8182	0.	2035.5
14504	14.973	5.7273	0.	2054.3
14505	14.973	5.8182	5.e-002	1.6969
14506	14.973	5.9091	0.	2054.8
14507	15.249	5.8182	0.	1991.1
14508	15.157	5.7273	0.	2009.9
14509	15.157	5.8182	5.e-002	1.6781
14510	15.157	5.9091	0.	2010.3
14511	15.433	5.8182	0.	1946.4
14512	15.341	5.7273	0.	1965.3
14513	15.341	5.8182	5.e-002	1.6344
14514	15.341	5.9091	0.	1965.5
14515	15.617	5.8182	0.	1901.6
14516	15.525	5.7273	0.	1920.5
14517	15.525	5.8182	5.e-002	1.5731
14518	15.525	5.9091	0.	1920.4
14519	15.802	5.8182	0.	1856.8
14520	15.709	5.7273	0.	1875.7
14521	15.709	5.8182	5.e-002	1.5002
14522	15.709	5.9091	0.	1875.3
14523	15.986	5.8182	0.	1811.9
14524	15.894	5.7273	0.	1830.9
14525	15.894	5.8182	5.e-002	1.4203
14526	15.894	5.9091	0.	1830.1
14527	16.17	5.8182	0.	1767.2
14528	16.078	5.7273	0.	1786.1
14529	16.078	5.8182	5.e-002	1.337
14530	16.078	5.9091	0.	1784.9
14531	16.354	5.8182	0.	1722.5
14532	16.262	5.7273	0.	1741.4
14533	16.262	5.8182	5.e-002	1.2534
14534	16.262	5.9091	0.	1739.9
14535	16.539	5.8182	0.	1678.
14536	16.446	5.7273	0.	1696.9
14537	16.446	5.8182	5.e-002	1.1714
14538	16.446	5.9091	0.	1694.9
14539	16.723	5.8182	0.	1633.6
14540	16.631	5.7273	0.	1652.4
14541	16.631	5.8182	5.e-002	1.0931
14542	16.631	5.9091	0.	1650.1
14543	16.907	5.8182	0.	1589.4
14544	16.815	5.7273	0.	1608.2
14545	16.815	5.8182	5.e-002	1.0197
14546	16.815	5.9091	0.	1605.4
14547	17.091	5.8182	0.	1545.3
14548	16.999	5.7273	0.	1564.1
14549	16.999	5.8182	5.e-002	0.9524
14550	16.999	5.9091	0.	1560.9
14551	17.275	5.8182	0.	1501.4
14552	17.183	5.7273	0.	1520.1
14553	17.183	5.8182	5.e-002	0.89204
14554	17.183	5.9091	0.	1516.6
14555	17.46	5.8182	0.	1457.7
14556	17.368	5.7273	0.	1476.4
14557	17.368	5.8182	5.e-002	0.83945
14558	17.368	5.9091	0.	1472.5
14559	17.644	5.8182	0.	1414.2
14560	17.552	5.7273	0.	1432.8
14561	17.552	5.8182	5.e-002	0.79534
14562	17.552	5.9091	0.	1428.5
14563	17.828	5.8182	0.	1370.9
14564	17.736	5.7273	0.	1389.5
14565	17.736	5.8182	5.e-002	0.76016
14566	17.736	5.9091	0.	1384.8
14567	18.012	5.8182	0.	1327.8
14568	17.92	5.7273	0.	1346.3
14569	17.92	5.8182	5.e-002	0.73432
14570	17.92	5.9091	0.	1341.2
14571	18.197	5.8182	0.	1284.9
14572	18.105	5.7273	0.	1303.3
14573	18.105	5.8182	5.e-002	0.71807
14574	18.105	5.9091	0.	1297.8
14575	18.381	5.8182	0.	1242.1
14576	18.289	5.7273	0.	1260.5
14577	18.289	5.8182	5.e-002	0.7115
14578	18.289	5.9091	0.	1254.7
14579	18.565	5.8182	0.	1199.6
14580	18.473	5.7273	0.	1217.9
14581	18.473	5.8182	5.e-002	0.71454
14582	18.473	5.9091	0.	1211.7
14583	18.749	5.8182	0.	1157.2
14584	18.657	5.7273	0.	1175.4
14585	18.657	5.8182	5.e-002	0.727
14586	18.657	5.9091	0.	1168.9
14587	18.934	5.8182	0.	1115.
14588	18.841	5.7273	0.	1133.2
14589	18.841	5.8182	5.e-002	0.7486
14590	18.841	5.9091	0.	1126.3
14591	19.118	5.8182	0.	1073.
14592	19.026	5.7273	0.	1091.1
14593	19.026	5.8182	5.e-002	0.77904
14594	19.026	5.9091	0.	1083.9
14595	19.302	5.8182	0.	1031.2
14596	19.21	5.7273	0.	1049.3
14597	19.21	5.8182	5.e-002	0.81804
14598	19.21	5.9091	0.	1041.7
14599	19.486	5.8182	0.	989.55
14600	19.394	5.7273	0.	1007.6
14601	19.394	5.8182	5.e-002	0.86542
14602	19.394	5.9091	0.	999.71
14603	19.67	5.8182	0.	948.07
14604	19.578	5.7273	0.	966.05
14605	19.578	5.8182	5.e-002	0.92109
14606	19.578	5.9091	0.	957.86
14607	19.855	5.8182	0.	906.77
14608	19.763	5.7273	0.	924.7
14609	19.763	5.8182	5.e-002	0.98508
14610	19.763	5.9091	0.	916.18
14611	20.039	5.8182	0.	865.62
14612	19.947	5.7273	0.	883.52
14613	19.947	5.8182	5.e-002	1.0575
14614	19.947	5.9091	0.	874.68
14615	20.223	5.8182	0.	824.64
14616	20.131	5.7273	0.	842.51
14617	20.131	5.8182	5.e-002	1.1387
14618	20.131	5.9091	0.	833.35
14619	20.407	5.8182	0.	783.8
14620	20.315	5.7273	0.	801.66
14621	20.315	5.8182	5.e-002	1.229
14622	20.315	5.9091	0.	792.18
14623	20.592	5.8182	0.	743.12
14624	20.5	5.7273	0.	760.97
14625	20.5	5.8182	5.e-002	1.3289
14626	20.5	5.9091	0.	751.17
14627	20.776	5.8182	0.	702.58
14628	20.684	5.7273	0.	720.44
14629	20.684	5.8182	5.e-002	1.4389
14630	20.684	5.9091	0.	710.32
14631	20.96	5.8182	0.	662.18
14632	20.868	5.7273	0.	680.06
14633	20.868	5.8182	5.e-002	1.5595
14634	20.868	5.9091	0.	669.63
14635	21.144	5.8182	0.	621.92
14636	21.052	5.7273	0.	639.82
14637	21.052	5.8182	5.e-002	1.6917
14638	21.052	5.9091	0.	629.09
14639	21.329	5.8182	0.	581.78
14640	21.236	5.7273	0.	599.73
14641	21.236	5.8182	5.e-002	1.8361
14642	21.236	5.9091	0.	588.7
14643	21.513	5.8182	0.	541.76
14644	21.421	5.7273	0.	559.78
14645	21.421	5.8182	5.e-002	1.9937
14646	21.421	5.9091	0.	548.46
14647	21.697	5.8182	0.	501.87
14648	21.605	5.7273	0.	519.98
14649	21.605	5.8182	5.e-002	2.1655
14650	21.605	5.9091	0.	508.37
14651	21.881	5.8182	0.	462.09
14652	21.789	5.7273	0.	480.32
14653	21.789	5.8182	5.e-002	2.3527
14654	21.789	5.9091	0.	468.43
14655	22.066	5.8182	0.	422.43
14656	21.973	5.7273	0.	440.8
14657	21.973	5.8182	5.e-002	2.5566
14658	21.973	5.9091	0.	428.64
14659	22.25	5.8182	0.	382.89
14660	22.158	5.7273	0.	401.43
14661	22.158	5.8182	5.e-002	2.7788
14662	22.158	5.9091	0.	389.02
14663	22.434	5.8182	0.	343.47
14664	22.342	5.7273	0.	362.23
14665	22.342	5.8182	5.e-002	3.0211
14666	22.342	5.9091	0.	349.56
14667	22.618	5.8182	0.	304.18
14668	22.526	5.7273	0.	323.21
14669	22.526	5.8182	5.e-002	3.286
14670	22.526	5.9091	0.	310.3
14671	22.802	5.8182	0.	265.04
14672	22.71	5.7273	0.	284.42
14673	22.71	5.8182	5.e-002	3.5762
14674	22.71	5.9091	0.	271.26
14675	22.987	5.8182	0.	226.09
14676	22.895	5.7273	0.	245.91
14677	22.895	5.8182	5.e-002	3.8957
14678	22.895	5.9091	0.	232.47
14679	23.171	5.8182	0.	187.42
14680	23.079	5.7273	0.	207.79
14681	23.079	5.8182	5.e-002	4.2502
14682	23.079	5.9091	0.	194.01
14683	23.355	5.8182	0.	149.17
14684	23.263	5.7273	0.	170.29
14685	23.263	5.8182	5.e-002	4.6491
14686	23.263	5.9091	0.	155.99
14687	23.539	5.8182	0.	111.77
14688	23.447	5.7273	0.	133.83
14689	23.447	5.8182	5.e-002	5.1053
14690	23.447	5.9091	0.	118.6
14691	23.724	5.8182	0.	77.029
14692	23.632	5.7273	0.	99.593
14693	23.632	5.8182	5.e-002	5.6785
14694	23.632	5.9091	0.	82.354
14695	23.816	5.7273	0.	71.29
14696	23.816	5.8182	5.e-002	6.9008
14697	23.908	5.8182	0.	48.214
14698	23.816	5.9091	0.	48.706
14699	10.643	5.6364	0.	951.42
14700	10.551	5.5455	0.	1069.9
14701	10.551	5.6364	5.e-002	72.936
14702	10.459	5.6364	0.	703.72
14703	10.827	5.6364	0.	1184.6
14704	10.735	5.5455	0.	1180.1
14705	10.735	5.6364	5.e-002	60.99
14706	11.011	5.6364	0.	1456.1
14707	10.919	5.5455	0.	1418.7
14708	10.919	5.6364	5.e-002	54.885
14709	11.196	5.6364	0.	1702.5
14710	11.104	5.5455	0.	1661.6
14711	11.104	5.6364	5.e-002	47.521
14712	11.38	5.6364	0.	1909.9
14713	11.288	5.5455	0.	1875.4
14714	11.288	5.6364	5.e-002	39.873
14715	11.564	5.6364	0.	2076.6
14716	11.472	5.5455	0.	2051.4
14717	11.472	5.6364	5.e-002	32.48
14718	11.748	5.6364	0.	2205.5
14719	11.656	5.5455	0.	2189.3
14720	11.656	5.6364	5.e-002	25.701
14721	11.933	5.6364	0.	2301.2
14722	11.841	5.5455	0.	2292.9
14723	11.841	5.6364	5.e-002	19.718
14724	12.117	5.6364	0.	2368.8
14725	12.025	5.5455	0.	2366.9
14726	12.025	5.6364	5.e-002	14.582
14727	12.301	5.6364	0.	2413.
14728	12.209	5.5455	0.	2416.3
14729	12.209	5.6364	5.e-002	10.269
14730	12.485	5.6364	0.	2438.1
14731	12.393	5.5455	0.	2445.4
14732	12.393	5.6364	5.e-002	6.7182
14733	12.67	5.6364	0.	2447.8
14734	12.577	5.5455	0.	2458.1
14735	12.577	5.6364	5.e-002	3.8757
14736	12.854	5.6364	0.	2445.1
14737	12.762	5.5455	0.	2457.8
14738	12.762	5.6364	5.e-002	1.8403
14739	13.038	5.6364	0.	2432.7
14740	12.946	5.5455	0.	2447.1
14741	12.946	5.6364	5.e-002	1.5404
14742	13.222	5.6364	0.	2412.5
14743	13.13	5.5455	0.	2428.3
14744	13.13	5.6364	5.e-002	2.633
14745	13.407	5.6364	0.	2386.2
14746	13.314	5.5455	0.	2403.1
14747	13.314	5.6364	5.e-002	3.7365
14748	13.591	5.6364	0.	2355.3
14749	13.499	5.5455	0.	2372.9
14750	13.499	5.6364	5.e-002	4.6519
14751	13.775	5.6364	0.	2320.7
14752	13.683	5.5455	0.	2338.8
14753	13.683	5.6364	5.e-002	5.3827
14754	13.959	5.6364	0.	2283.3
14755	13.867	5.5455	0.	2301.9
14756	13.867	5.6364	5.e-002	5.9563
14757	14.143	5.6364	0.	2243.7
14758	14.051	5.5455	0.	2262.6
14759	14.051	5.6364	5.e-002	6.4006
14760	14.328	5.6364	0.	2202.6
14761	14.236	5.5455	0.	2221.7
14762	14.236	5.6364	5.e-002	6.7403
14763	14.512	5.6364	0.	2160.2
14764	14.42	5.5455	0.	2179.6
14765	14.42	5.6364	5.e-002	6.9964
14766	14.696	5.6364	0.	2117.
14767	14.604	5.5455	0.	2136.5
14768	14.604	5.6364	5.e-002	7.1858
14769	14.88	5.6364	0.	2073.2
14770	14.788	5.5455	0.	2092.8
14771	14.788	5.6364	5.e-002	7.3225
14772	15.065	5.6364	0.	2028.9
14773	14.973	5.5455	0.	2048.6
14774	14.973	5.6364	5.e-002	7.4177
14775	15.249	5.6364	0.	1984.3
14776	15.157	5.5455	0.	2004.1
14777	15.157	5.6364	5.e-002	7.4803
14778	15.433	5.6364	0.	1939.6
14779	15.341	5.5455	0.	1959.5
14780	15.341	5.6364	5.e-002	7.5177
14781	15.617	5.6364	0.	1894.8
14782	15.525	5.5455	0.	1914.7
14783	15.525	5.6364	5.e-002	7.5356
14784	15.802	5.6364	0.	1850.
14785	15.709	5.5455	0.	1870.
14786	15.709	5.6364	5.e-002	7.5384
14787	15.986	5.6364	0.	1805.2
14788	15.894	5.5455	0.	1825.2
14789	15.894	5.6364	5.e-002	7.5299
14790	16.17	5.6364	0.	1760.5
14791	16.078	5.5455	0.	1780.6
14792	16.078	5.6364	5.e-002	7.5128
14793	16.354	5.6364	0.	1715.9
14794	16.262	5.5455	0.	1736.
14795	16.262	5.6364	5.e-002	7.4893
14796	16.539	5.6364	0.	1671.5
14797	16.446	5.5455	0.	1691.6
14798	16.446	5.6364	5.e-002	7.4613
14799	16.723	5.6364	0.	1627.2
14800	16.631	5.5455	0.	1647.3
14801	16.631	5.6364	5.e-002	7.43
14802	16.907	5.6364	0.	1583.1
14803	16.815	5.5455	0.	1603.1
14804	16.815	5.6364	5.e-002	7.3966
14805	17.091	5.6364	0.	1539.1
14806	16.999	5.5455	0.	1559.2
14807	16.999	5.6364	5.e-002	7.3618
14808	17.275	5.6364	0.	1495.3
14809	17.183	5.5455	0.	1515.4
14810	17.183	5.6364	5.e-002	7.3262
14811	17.46	5.6364	0.	1451.7
14812	17.368	5.5455	0.	1471.8
14813	17.368	5.6364	5.e-002	7.2904
14814	17.644	5.6364	0.	1408.3
14815	17.552	5.5455	0.	1428.3
14816	17.552	5.6364	5.e-002	7.2547
14817	17.828	5.6364	0.	1365.
14818	17.736	5.5455	0.	1385.1
14819	17.736	5.6364	5.e-002	7.2196
14820	18.012	5.6364	0.	1322.
14821	17.92	5.5455	0.	1342.
14822	17.92	5.6364	5.e-002	7.185
14823	18.197	5.6364	0.	1279.1
14824	18.105	5.5455	0.	1299.1
14825	18.105	5.6364	5.e-002	7.1513
14826	18.381	5.6364	0.	1236.5
14827	18.289	5.5455	0.	1256.5
14828	18.289	5.6364	5.e-002	7.1185
14829	18.565	5.6364	0.	1194.
14830	18.473	5.5455	0.	1214.
14831	18.473	5.6364	5.e-002	7.0868
14832	18.749	5.6364	0.	1151.7
14833	18.657	5.5455	0.	1171.6
14834	18.657	5.6364	5.e-002	7.0563
14835	18.934	5.6364	0.	1109.6
14836	18.841	5.5455	0.	1129.5
14837	18.841	5.6364	5.e-002	7.027
14838	19.118	5.6364	0.	1067.6
14839	19.026	5.5455	0.	1087.6
14840	19.026	5.6364	5.e-002	6.9989
14841	19.302	5.6364	0.	1025.9
14842	19.21	5.5455	0.	1045.8
14843	19.21	5.6364	5.e-002	6.9722
14844	19.486	5.6364	0.	984.33
14845	19.394	5.5455	0.	1004.2
14846	19.394	5.6364	5.e-002	6.9469
14847	19.67	5.6364	0.	942.94
14848	19.578	5.5455	0.	962.85
14849	19.578	5.6364	5.e-002	6.9231
14850	19.855	5.6364	0.	901.73
14851	19.763	5.5455	0.	921.64
14852	19.763	5.6364	5.e-002	6.9008
14853	20.039	5.6364	0.	860.7
14854	19.947	5.5455	0.	880.61
14855	19.947	5.6364	5.e-002	6.8801
14856	20.223	5.6364	0.	819.83
14857	20.131	5.5455	0.	839.76
14858	20.131	5.6364	5.e-002	6.861
14859	20.407	5.6364	0.	779.14
14860	20.315	5.5455	0.	799.08
14861	20.315	5.6364	5.e-002	6.8437
14862	20.592	5.6364	0.	738.6
14863	20.5	5.5455	0.	758.57
14864	20.5	5.6364	5.e-002	6.8282
14865	20.776	5.6364	0.	698.24
14866	20.684	5.5455	0.	718.24
14867	20.684	5.6364	5.e-002	6.8145
14868	20.96	5.6364	0.	658.03
14869	20.868	5.5455	0.	678.09
14870	20.868	5.6364	5.e-002	6.8028
14871	21.144	5.6364	0.	617.99
14872	21.052	5.5455	0.	638.1
14873	21.052	5.6364	5.e-002	6.7931
14874	21.329	5.6364	0.	578.11
14875	21.236	5.5455	0.	598.29
14876	21.236	5.6364	5.e-002	6.7855
14877	21.513	5.6364	0.	538.39
14878	21.421	5.5455	0.	558.66
14879	21.421	5.6364	5.e-002	6.7802
14880	21.697	5.6364	0.	498.84
14881	21.605	5.5455	0.	519.21
14882	21.605	5.6364	5.e-002	6.7772
14883	21.881	5.6364	0.	459.46
14884	21.789	5.5455	0.	479.96
14885	21.789	5.6364	5.e-002	6.7767
14886	22.066	5.6364	0.	420.26
14887	21.973	5.5455	0.	440.91
14888	21.973	5.6364	5.e-002	6.7788
14889	22.25	5.6364	0.	381.27
14890	22.158	5.5455	0.	402.09
14891	22.158	5.6364	5.e-002	6.7838
14892	22.434	5.6364	0.	342.52
14893	22.342	5.5455	0.	363.54
14894	22.342	5.6364	5.e-002	6.792
14895	22.618	5.6364	0.	304.06
14896	22.526	5.5455	0.	325.31
14897	22.526	5.6364	5.e-002	6.8038
14898	22.802	5.6364	0.	265.96
14899	22.71	5.5455	0.	287.48
14900	22.71	5.6364	5.e-002	6.82
14901	22.987	5.6364	0.	228.38
14902	22.895	5.5455	0.	250.19
14903	22.895	5.6364	5.e-002	6.8423
14904	23.171	5.6364	0.	191.55
14905	23.079	5.5455	0.	213.67
14906	23.079	5.6364	5.e-002	6.8735
14907	23.355	5.6364	0.	155.98
14908	23.263	5.5455	0.	178.33
14909	23.263	5.6364	5.e-002	6.9198
14910	23.539	5.6364	0.	122.74
14911	23.447	5.5455	0.	144.94
14912	23.447	5.6364	5.e-002	6.9994
14913	23.724	5.6364	0.	94.298
14914	23.632	5.5455	0.	115.11
14915	23.632	5.6364	5.e-002	7.1818
14916	23.816	5.5455	0.	91.999
14917	23.816	5.6364	5.e-002	7.8294
14918	23.908	5.6364	0.	72.825
14919	10.643	5.4545	0.	1252.5
14920	10.551	5.3636	0.	1448.8
14921	10.551	5.4545	5.e-002	78.076
14922	10.459	5.4545	0.	1006.2
14923	10.827	5.4545	0.	1396.3
14924	10.735	5.3636	0.	1464.9
14925	10.735	5.4545	5.e-002	61.647
14926	11.011	5.4545	0.	1616.3
14927	10.919	5.3636	0.	1636.6
14928	10.919	5.4545	5.e-002	55.041
14929	11.196	5.4545	0.	1830.4
14930	11.104	5.3636	0.	1832.3
14931	11.104	5.4545	5.e-002	47.169
14932	11.38	5.4545	0.	2014.5
14933	11.288	5.3636	0.	2011.8
14934	11.288	5.4545	5.e-002	39.041
14935	11.564	5.4545	0.	2162.5
14936	11.472	5.3636	0.	2161.
14937	11.472	5.4545	5.e-002	31.349
14938	11.748	5.4545	0.	2275.7
14939	11.656	5.3636	0.	2277.3
14940	11.656	5.4545	5.e-002	24.481
14941	11.933	5.4545	0.	2357.9
14942	11.841	5.3636	0.	2363.
14943	11.841	5.4545	5.e-002	18.573
14944	12.117	5.4545	0.	2413.9
14945	12.025	5.3636	0.	2422.2
14946	12.025	5.4545	5.e-002	13.63
14947	12.301	5.4545	0.	2448.3
14948	12.209	5.3636	0.	2459.3
14949	12.209	5.4545	5.e-002	9.5985
14950	12.485	5.4545	0.	2465.2
14951	12.393	5.3636	0.	2478.3
14952	12.393	5.4545	5.e-002	6.4327
14953	12.67	5.4545	0.	2468.1
14954	12.577	5.3636	0.	2482.8
14955	12.577	5.4545	5.e-002	4.1751
14956	12.854	5.4545	0.	2459.8
14957	12.762	5.3636	0.	2475.9
14958	12.762	5.4545	5.e-002	3.071
14959	13.038	5.4545	0.	2442.8
14960	12.946	5.3636	0.	2459.8
14961	12.946	5.4545	5.e-002	3.2143
14962	13.222	5.4545	0.	2418.9
14963	13.13	5.3636	0.	2436.7
14964	13.13	5.4545	5.e-002	3.965
14965	13.407	5.4545	0.	2389.7
14966	13.314	5.3636	0.	2408.
14967	13.314	5.4545	5.e-002	4.7898
14968	13.591	5.4545	0.	2356.5
14969	13.499	5.3636	0.	2375.2
14970	13.499	5.4545	5.e-002	5.5203
14971	13.775	5.4545	0.	2320.1
14972	13.683	5.3636	0.	2339.1
14973	13.683	5.4545	5.e-002	6.1242
14974	13.959	5.4545	0.	2281.3
14975	13.867	5.3636	0.	2300.5
14976	13.867	5.4545	5.e-002	6.6077
14977	14.143	5.4545	0.	2240.7
14978	14.051	5.3636	0.	2260.1
14979	14.051	5.4545	5.e-002	6.987
14980	14.328	5.4545	0.	2198.8
14981	14.236	5.3636	0.	2218.3
14982	14.236	5.4545	5.e-002	7.2794
14983	14.512	5.4545	0.	2155.9
14984	14.42	5.3636	0.	2175.6
14985	14.42	5.4545	5.e-002	7.5009
14986	14.696	5.4545	0.	2112.4
14987	14.604	5.3636	0.	2132.1
14988	14.604	5.4545	5.e-002	7.6654
14989	14.88	5.4545	0.	2068.3
14990	14.788	5.3636	0.	2088.1
14991	14.788	5.4545	5.e-002	7.7842
14992	15.065	5.4545	0.	2023.9
14993	14.973	5.3636	0.	2043.8
14994	14.973	5.4545	5.e-002	7.8669
14995	15.249	5.4545	0.	1979.3
14996	15.157	5.3636	0.	1999.3
14997	15.157	5.4545	5.e-002	7.921
14998	15.433	5.4545	0.	1934.7
14999	15.341	5.3636	0.	1954.6
15000	15.341	5.4545	5.e-002	7.9527
15001	15.617	5.4545	0.	1889.9
15002	15.525	5.3636	0.	1909.9
15003	15.525	5.4545	5.e-002	7.9671
15004	15.802	5.4545	0.	1845.2
15005	15.709	5.3636	0.	1865.3
15006	15.709	5.4545	5.e-002	7.9679
15007	15.986	5.4545	0.	1800.6
15008	15.894	5.3636	0.	1820.7
15009	15.894	5.4545	5.e-002	7.9585
15010	16.17	5.4545	0.	1756.1
15011	16.078	5.3636	0.	1776.2
15012	16.078	5.4545	5.e-002	7.9412
15013	16.354	5.4545	0.	1711.7
15014	16.262	5.3636	0.	1731.8
15015	16.262	5.4545	5.e-002	7.918
15016	16.539	5.4545	0.	1667.4
15017	16.446	5.3636	0.	1687.5
15018	16.446	5.4545	5.e-002	7.8904
15019	16.723	5.4545	0.	1623.3
15020	16.631	5.3636	0.	1643.4
15021	16.631	5.4545	5.e-002	7.8597
15022	16.907	5.4545	0.	1579.3
15023	16.815	5.3636	0.	1599.5
15024	16.815	5.4545	5.e-002	7.8268
15025	17.091	5.4545	0.	1535.5
15026	16.999	5.3636	0.	1555.7
15027	16.999	5.4545	5.e-002	7.7924
15028	17.275	5.4545	0.	1491.9
15029	17.183	5.3636	0.	1512.1
15030	17.183	5.4545	5.e-002	7.757
15031	17.46	5.4545	0.	1448.5
15032	17.368	5.3636	0.	1468.6
15033	17.368	5.4545	5.e-002	7.7212
15034	17.644	5.4545	0.	1405.2
15035	17.552	5.3636	0.	1425.4
15036	17.552	5.4545	5.e-002	7.6852
15037	17.828	5.4545	0.	1362.1
15038	17.736	5.3636	0.	1382.3
15039	17.736	5.4545	5.e-002	7.6494
15040	18.012	5.4545	0.	1319.2
15041	17.92	5.3636	0.	1339.4
15042	17.92	5.4545	5.e-002	7.614
15043	18.197	5.4545	0.	1276.5
15044	18.105	5.3636	0.	1296.7
15045	18.105	5.4545	5.e-002	7.579
15046	18.381	5.4545	0.	1234.
15047	18.289	5.3636	0.	1254.1
15048	18.289	5.4545	5.e-002	7.5446
15049	18.565	5.4545	0.	1191.7
15050	18.473	5.3636	0.	1211.8
15051	18.473	5.4545	5.e-002	7.511
15052	18.749	5.4545	0.	1149.5
15053	18.657	5.3636	0.	1169.7
15054	18.657	5.4545	5.e-002	7.4781
15055	18.934	5.4545	0.	1107.6
15056	18.841	5.3636	0.	1127.7
15057	18.841	5.4545	5.e-002	7.4461
15058	19.118	5.4545	0.	1065.8
15059	19.026	5.3636	0.	1085.9
15060	19.026	5.4545	5.e-002	7.4151
15061	19.302	5.4545	0.	1024.2
15062	19.21	5.3636	0.	1044.3
15063	19.21	5.4545	5.e-002	7.3849
15064	19.486	5.4545	0.	982.84
15065	19.394	5.3636	0.	1002.9
15066	19.394	5.4545	5.e-002	7.3558
15067	19.67	5.4545	0.	941.63
15068	19.578	5.3636	0.	961.69
15069	19.578	5.4545	5.e-002	7.3278
15070	19.855	5.4545	0.	900.6
15071	19.763	5.3636	0.	920.67
15072	19.763	5.4545	5.e-002	7.3009
15073	20.039	5.4545	0.	859.75
15074	19.947	5.3636	0.	879.83
15075	19.947	5.4545	5.e-002	7.2751
15076	20.223	5.4545	0.	819.09
15077	20.131	5.3636	0.	839.18
15078	20.131	5.4545	5.e-002	7.2506
15079	20.407	5.4545	0.	778.61
15080	20.315	5.3636	0.	798.72
15081	20.315	5.4545	5.e-002	7.2273
15082	20.592	5.4545	0.	738.31
15083	20.5	5.3636	0.	758.45
15084	20.5	5.4545	5.e-002	7.2054
15085	20.776	5.4545	0.	698.2
15086	20.684	5.3636	0.	718.37
15087	20.684	5.4545	5.e-002	7.1848
15088	20.96	5.4545	0.	658.27
15089	20.868	5.3636	0.	678.49
15090	20.868	5.4545	5.e-002	7.1657
15091	21.144	5.4545	0.	618.52
15092	21.052	5.3636	0.	638.8
15093	21.052	5.4545	5.e-002	7.1481
15094	21.329	5.4545	0.	578.97
15095	21.236	5.3636	0.	599.33
15096	21.236	5.4545	5.e-002	7.1321
15097	21.513	5.4545	0.	539.62
15098	21.421	5.3636	0.	560.06
15099	21.421	5.4545	5.e-002	7.1177
15100	21.697	5.4545	0.	500.48
15101	21.605	5.3636	0.	521.02
15102	21.605	5.4545	5.e-002	7.1052
15103	21.881	5.4545	0.	461.58
15104	21.789	5.3636	0.	482.23
15105	21.789	5.4545	5.e-002	7.0947
15106	22.066	5.4545	0.	422.92
15107	21.973	5.3636	0.	443.71
15108	21.973	5.4545	5.e-002	7.0863
15109	22.25	5.4545	0.	384.56
15110	22.158	5.3636	0.	405.5
15111	22.158	5.4545	5.e-002	7.0803
15112	22.434	5.4545	0.	346.55
15113	22.342	5.3636	0.	367.65
15114	22.342	5.4545	5.e-002	7.0773
15115	22.618	5.4545	0.	308.98
15116	22.526	5.3636	0.	330.25
15117	22.526	5.4545	5.e-002	7.0779
15118	22.802	5.4545	0.	271.98
15119	22.71	5.3636	0.	293.43
15120	22.71	5.4545	5.e-002	7.0834
15121	22.987	5.4545	0.	235.79
15122	22.895	5.3636	0.	257.37
15123	22.895	5.4545	5.e-002	7.0961
15124	23.171	5.4545	0.	200.76
15125	23.079	5.3636	0.	222.38
15126	23.079	5.4545	5.e-002	7.1202
15127	23.355	5.4545	0.	167.53
15128	23.263	5.3636	0.	188.97
15129	23.263	5.4545	5.e-002	7.1647
15130	23.539	5.4545	0.	137.26
15131	23.447	5.3636	0.	157.96
15132	23.447	5.4545	5.e-002	7.2477
15133	23.724	5.4545	0.	111.93
15134	23.632	5.3636	0.	130.78
15135	23.632	5.4545	5.e-002	7.4153
15136	23.816	5.3636	0.	109.79
15137	23.816	5.4545	5.e-002	7.9254
15138	23.908	5.4545	0.	93.003
15139	10.643	5.2727	0.	1611.6
15140	10.551	5.1818	0.	1879.3
15141	10.551	5.2727	5.e-002	88.147
15142	10.459	5.2727	0.	1335.9
15143	10.827	5.2727	0.	1677.6
15144	10.735	5.1818	0.	1814.1
15145	10.735	5.2727	5.e-002	65.255
15146	11.011	5.2727	0.	1838.
15147	10.919	5.1818	0.	1918.4
15148	10.919	5.2727	5.e-002	56.949
15149	11.196	5.2727	0.	2005.8
15150	11.104	5.1818	0.	2055.7
15151	11.104	5.2727	5.e-002	47.736
15152	11.38	5.2727	0.	2153.8
15153	11.288	5.1818	0.	2187.7
15154	11.288	5.2727	5.e-002	38.729
15155	11.564	5.2727	0.	2273.1
15156	11.472	5.1818	0.	2298.9
15157	11.472	5.2727	5.e-002	30.625
15158	11.748	5.2727	0.	2362.9
15159	11.656	5.1818	0.	2384.9
15160	11.656	5.2727	5.e-002	23.702
15161	11.933	5.2727	0.	2426.3
15162	11.841	5.1818	0.	2446.5
15163	11.841	5.2727	5.e-002	17.975
15164	12.117	5.2727	0.	2466.9
15165	12.025	5.1818	0.	2486.5
15166	12.025	5.2727	5.e-002	13.359
15167	12.301	5.2727	0.	2488.9
15168	12.209	5.1818	0.	2508.2
15169	12.209	5.2727	5.e-002	9.7553
15170	12.485	5.2727	0.	2495.7
15171	12.393	5.1818	0.	2515.1
15172	12.393	5.2727	5.e-002	7.1108
15173	12.67	5.2727	0.	2490.5
15174	12.577	5.1818	0.	2510.
15175	12.577	5.2727	5.e-002	5.435
15176	12.854	5.2727	0.	2475.8
15177	12.762	5.1818	0.	2495.4
15178	12.762	5.2727	5.e-002	4.7242
15179	13.038	5.2727	0.	2453.7
15180	12.946	5.1818	0.	2473.4
15181	12.946	5.2727	5.e-002	4.7673
15182	13.222	5.2727	0.	2425.8
15183	13.13	5.1818	0.	2445.5
15184	13.13	5.2727	5.e-002	5.193
15185	13.407	5.2727	0.	2393.5
15186	13.314	5.1818	0.	2413.2
15187	13.314	5.2727	5.e-002	5.725
15188	13.591	5.2727	0.	2357.8
15189	13.499	5.1818	0.	2377.6
15190	13.499	5.2727	5.e-002	6.2343
15191	13.775	5.2727	0.	2319.5
15192	13.683	5.1818	0.	2339.3
15193	13.683	5.2727	5.e-002	6.6748
15194	13.959	5.2727	0.	2279.4
15195	13.867	5.1818	0.	2299.1
15196	13.867	5.2727	5.e-002	7.037
15197	14.143	5.2727	0.	2237.8
15198	14.051	5.1818	0.	2257.5
15199	14.051	5.2727	5.e-002	7.3251
15200	14.328	5.2727	0.	2195.1
15201	14.236	5.1818	0.	2214.9
15202	14.236	5.2727	5.e-002	7.5484
15203	14.512	5.2727	0.	2151.8
15204	14.42	5.1818	0.	2171.6
15205	14.42	5.2727	5.e-002	7.7173
15206	14.696	5.2727	0.	2107.9
15207	14.604	5.1818	0.	2127.7
15208	14.604	5.2727	5.e-002	7.8413
15209	14.88	5.2727	0.	2063.6
15210	14.788	5.1818	0.	2083.5
15211	14.788	5.2727	5.e-002	7.9289
15212	15.065	5.2727	0.	2019.1
15213	14.973	5.1818	0.	2039.
15214	14.973	5.2727	5.e-002	7.9875
15215	15.249	5.2727	0.	1974.6
15216	15.157	5.1818	0.	1994.5
15217	15.157	5.2727	5.e-002	8.0229
15218	15.433	5.2727	0.	1929.9
15219	15.341	5.1818	0.	1949.9
15220	15.341	5.2727	5.e-002	8.0402
15221	15.617	5.2727	0.	1885.3
15222	15.525	5.1818	0.	1905.3
15223	15.525	5.2727	5.e-002	8.0433
15224	15.802	5.2727	0.	1840.8
15225	15.709	5.1818	0.	1860.8
15226	15.709	5.2727	5.e-002	8.0354
15227	15.986	5.2727	0.	1796.3
15228	15.894	5.1818	0.	1816.4
15229	15.894	5.2727	5.e-002	8.0191
15230	16.17	5.2727	0.	1751.9
15231	16.078	5.1818	0.	1772.
15232	16.078	5.2727	5.e-002	7.9964
15233	16.354	5.2727	0.	1707.7
15234	16.262	5.1818	0.	1727.8
15235	16.262	5.2727	5.e-002	7.969
15236	16.539	5.2727	0.	1663.6
15237	16.446	5.1818	0.	1683.8
15238	16.446	5.2727	5.e-002	7.9381
15239	16.723	5.2727	0.	1619.7
15240	16.631	5.1818	0.	1639.8
15241	16.631	5.2727	5.e-002	7.9048
15242	16.907	5.2727	0.	1575.9
15243	16.815	5.1818	0.	1596.1
15244	16.815	5.2727	5.e-002	7.8698
15245	17.091	5.2727	0.	1532.3
15246	16.999	5.1818	0.	1552.5
15247	16.999	5.2727	5.e-002	7.8337
15248	17.275	5.2727	0.	1488.9
15249	17.183	5.1818	0.	1509.
15250	17.183	5.2727	5.e-002	7.797
15251	17.46	5.2727	0.	1445.6
15252	17.368	5.1818	0.	1465.8
15253	17.368	5.2727	5.e-002	7.7601
15254	17.644	5.2727	0.	1402.5
15255	17.552	5.1818	0.	1422.7
15256	17.552	5.2727	5.e-002	7.7233
15257	17.828	5.2727	0.	1359.6
15258	17.736	5.1818	0.	1379.8
15259	17.736	5.2727	5.e-002	7.6867
15260	18.012	5.2727	0.	1316.9
15261	17.92	5.1818	0.	1337.1
15262	17.92	5.2727	5.e-002	7.6506
15263	18.197	5.2727	0.	1274.3
15264	18.105	5.1818	0.	1294.5
15265	18.105	5.2727	5.e-002	7.6151
15266	18.381	5.2727	0.	1232.
15267	18.289	5.1818	0.	1252.1
15268	18.289	5.2727	5.e-002	7.5803
15269	18.565	5.2727	0.	1189.8
15270	18.473	5.1818	0.	1210.
15271	18.473	5.2727	5.e-002	7.5463
15272	18.749	5.2727	0.	1147.8
15273	18.657	5.1818	0.	1168.
15274	18.657	5.2727	5.e-002	7.5131
15275	18.934	5.2727	0.	1106.1
15276	18.841	5.1818	0.	1126.2
15277	18.841	5.2727	5.e-002	7.4808
15278	19.118	5.2727	0.	1064.5
15279	19.026	5.1818	0.	1084.6
15280	19.026	5.2727	5.e-002	7.4494
15281	19.302	5.2727	0.	1023.
15282	19.21	5.1818	0.	1043.1
15283	19.21	5.2727	5.e-002	7.4191
15284	19.486	5.2727	0.	981.82
15285	19.394	5.1818	0.	1001.9
15286	19.394	5.2727	5.e-002	7.3898
15287	19.67	5.2727	0.	940.79
15288	19.578	5.1818	0.	960.89
15289	19.578	5.2727	5.e-002	7.3616
15290	19.855	5.2727	0.	899.96
15291	19.763	5.1818	0.	920.06
15292	19.763	5.2727	5.e-002	7.3346
15293	20.039	5.2727	0.	859.32
15294	19.947	5.1818	0.	879.42
15295	19.947	5.2727	5.e-002	7.3087
15296	20.223	5.2727	0.	818.88
15297	20.131	5.1818	0.	838.99
15298	20.131	5.2727	5.e-002	7.2842
15299	20.407	5.2727	0.	778.63
15300	20.315	5.1818	0.	798.76
15301	20.315	5.2727	5.e-002	7.2609
15302	20.592	5.2727	0.	738.59
15303	20.5	5.1818	0.	758.74
15304	20.5	5.2727	5.e-002	7.239
15305	20.776	5.2727	0.	698.75
15306	20.684	5.1818	0.	718.93
15307	20.684	5.2727	5.e-002	7.2186
15308	20.96	5.2727	0.	659.12
15309	20.868	5.1818	0.	679.35
15310	20.868	5.2727	5.e-002	7.1998
15311	21.144	5.2727	0.	619.71
15312	21.052	5.1818	0.	639.98
15313	21.052	5.2727	5.e-002	7.1826
15314	21.329	5.2727	0.	580.52
15315	21.236	5.1818	0.	600.86
15316	21.236	5.2727	5.e-002	7.1671
15317	21.513	5.2727	0.	541.58
15318	21.421	5.1818	0.	561.99
15319	21.421	5.2727	5.e-002	7.1535
15320	21.697	5.2727	0.	502.89
15321	21.605	5.1818	0.	523.39
15322	21.605	5.2727	5.e-002	7.142
15323	21.881	5.2727	0.	464.5
15324	21.789	5.1818	0.	485.08
15325	21.789	5.2727	5.e-002	7.1328
15326	22.066	5.2727	0.	426.43
15327	21.973	5.1818	0.	447.12
15328	21.973	5.2727	5.e-002	7.1262
15329	22.25	5.2727	0.	388.74
15330	22.158	5.1818	0.	409.54
15331	22.158	5.2727	5.e-002	7.1227
15332	22.434	5.2727	0.	351.52
15333	22.342	5.1818	0.	372.41
15334	22.342	5.2727	5.e-002	7.1229
15335	22.618	5.2727	0.	314.87
15336	22.526	5.1818	0.	335.86
15337	22.526	5.2727	5.e-002	7.1279
15338	22.802	5.2727	0.	278.98
15339	22.71	5.1818	0.	300.01
15340	22.71	5.2727	5.e-002	7.1394
15341	22.987	5.2727	0.	244.11
15342	22.895	5.1818	0.	265.11
15343	22.895	5.2727	5.e-002	7.1601
15344	23.171	5.2727	0.	210.67
15345	23.079	5.1818	0.	231.48
15346	23.079	5.2727	5.e-002	7.1948
15347	23.355	5.2727	0.	179.31
15348	23.263	5.1818	0.	199.63
15349	23.263	5.2727	5.e-002	7.2519
15350	23.539	5.2727	0.	151.04
15351	23.447	5.1818	0.	170.34
15352	23.447	5.2727	5.e-002	7.3451
15353	23.724	5.2727	0.	127.49
15354	23.632	5.1818	0.	144.81
15355	23.632	5.2727	5.e-002	7.5062
15356	23.816	5.1818	0.	124.97
15357	23.816	5.2727	5.e-002	7.9325
15358	23.908	5.2727	0.	109.95
15359	10.643	5.0909	0.	2029.5
15360	10.551	5.	0.	2381.1
15361	10.551	5.0909	5.e-002	103.17
15362	10.459	5.0909	0.	1708.4
15363	10.827	5.0909	0.	2020.8
15364	10.735	5.	0.	2229.3
15365	10.735	5.0909	5.e-002	71.602
15366	11.011	5.0909	0.	2115.7
15367	10.919	5.	0.	2259.9
15368	10.919	5.0909	5.e-002	60.007
15369	11.196	5.0909	0.	2225.9
15370	11.104	5.	0.	2327.3
15371	11.104	5.0909	5.e-002	48.466
15372	11.38	5.0909	0.	2326.1
15373	11.288	5.	0.	2399.4
15374	11.288	5.0909	5.e-002	38.214
15375	11.564	5.0909	0.	2406.9
15376	11.472	5.	0.	2462.3
15377	11.472	5.0909	5.e-002	29.71
15378	11.748	5.0909	0.	2466.2
15379	11.656	5.	0.	2510.1
15380	11.656	5.0909	5.e-002	22.908
15381	11.933	5.0909	0.	2505.4
15382	11.841	5.	0.	2541.9
15383	11.841	5.0909	5.e-002	17.572
15384	12.117	5.0909	0.	2527.1
15385	12.025	5.	0.	2558.7
15386	12.025	5.0909	5.e-002	13.468
15387	12.301	5.0909	0.	2534.1
15388	12.209	5.	0.	2562.4
15389	12.209	5.0909	5.e-002	10.42
15390	12.485	5.0909	0.	2529.2
15391	12.393	5.	0.	2555.2
15392	12.393	5.0909	5.e-002	8.3077
15393	12.67	5.0909	0.	2514.8
15394	12.577	5.	0.	2539.2
15395	12.577	5.0909	5.e-002	7.0291
15396	12.854	5.0909	0.	2492.9
15397	12.762	5.	0.	2516.2
15398	12.762	5.0909	5.e-002	6.4389
15399	13.038	5.0909	0.	2465.2
15400	12.946	5.	0.	2487.5
15401	12.946	5.0909	5.e-002	6.3277
15402	13.222	5.0909	0.	2433.
15403	13.13	5.	0.	2454.7
15404	13.13	5.0909	5.e-002	6.4817
15405	13.407	5.0909	0.	2397.3
15406	13.314	5.	0.	2418.5
15407	13.314	5.0909	5.e-002	6.7455
15408	13.591	5.0909	0.	2359.1
15409	13.499	5.	0.	2379.9
15410	13.499	5.0909	5.e-002	7.0306
15411	13.775	5.0909	0.	2318.9
15412	13.683	5.	0.	2339.4
15413	13.683	5.0909	5.e-002	7.2941
15414	13.959	5.0909	0.	2277.4
15415	13.867	5.	0.	2297.6
15416	13.867	5.0909	5.e-002	7.519
15417	14.143	5.0909	0.	2234.7
15418	14.051	5.	0.	2254.9
15419	14.051	5.0909	5.e-002	7.7013
15420	14.328	5.0909	0.	2191.4
15421	14.236	5.	0.	2211.4
15422	14.236	5.0909	5.e-002	7.843
15423	14.512	5.0909	0.	2147.5
15424	14.42	5.	0.	2167.5
15425	14.42	5.0909	5.e-002	7.9488
15426	14.696	5.0909	0.	2103.3
15427	14.604	5.	0.	2123.3
15428	14.604	5.0909	5.e-002	8.0239
15429	14.88	5.0909	0.	2058.9
15430	14.788	5.	0.	2078.9
15431	14.788	5.0909	5.e-002	8.0737
15432	15.065	5.0909	0.	2014.4
15433	14.973	5.	0.	2034.3
15434	14.973	5.0909	5.e-002	8.1028
15435	15.249	5.0909	0.	1969.9
15436	15.157	5.	0.	1989.8
15437	15.157	5.0909	5.e-002	8.1153
15438	15.433	5.0909	0.	1925.3
15439	15.341	5.	0.	1945.3
15440	15.341	5.0909	5.e-002	8.1146
15441	15.617	5.0909	0.	1880.8
15442	15.525	5.	0.	1900.8
15443	15.525	5.0909	5.e-002	8.1037
15444	15.802	5.0909	0.	1836.4
15445	15.709	5.	0.	1856.5
15446	15.709	5.0909	5.e-002	8.0848
15447	15.986	5.0909	0.	1792.1
15448	15.894	5.	0.	1812.2
15449	15.894	5.0909	5.e-002	8.0599
15450	16.17	5.0909	0.	1748.
15451	16.078	5.	0.	1768.1
15452	16.078	5.0909	5.e-002	8.0305
15453	16.354	5.0909	0.	1703.9
15454	16.262	5.	0.	1724.
15455	16.262	5.0909	5.e-002	7.9978
15456	16.539	5.0909	0.	1660.
15457	16.446	5.	0.	1680.2
15458	16.446	5.0909	5.e-002	7.9627
15459	16.723	5.0909	0.	1616.3
15460	16.631	5.	0.	1636.4
15461	16.631	5.0909	5.e-002	7.9261
15462	16.907	5.0909	0.	1572.7
15463	16.815	5.	0.	1592.9
15464	16.815	5.0909	5.e-002	7.8884
15465	17.091	5.0909	0.	1529.3
15466	16.999	5.	0.	1549.5
15467	16.999	5.0909	5.e-002	7.8502
15468	17.275	5.0909	0.	1486.
15469	17.183	5.	0.	1506.2
15470	17.183	5.0909	5.e-002	7.8118
15471	17.46	5.0909	0.	1442.9
15472	17.368	5.	0.	1463.1
15473	17.368	5.0909	5.e-002	7.7736
15474	17.644	5.0909	0.	1400.
15475	17.552	5.	0.	1420.2
15476	17.552	5.0909	5.e-002	7.7357
15477	17.828	5.0909	0.	1357.3
15478	17.736	5.	0.	1377.5
15479	17.736	5.0909	5.e-002	7.6983
15480	18.012	5.0909	0.	1314.7
15481	17.92	5.	0.	1334.9
15482	17.92	5.0909	5.e-002	7.6615
15483	18.197	5.0909	0.	1272.4
15484	18.105	5.	0.	1292.6
15485	18.105	5.0909	5.e-002	7.6254
15486	18.381	5.0909	0.	1230.2
15487	18.289	5.	0.	1250.4
15488	18.289	5.0909	5.e-002	7.5902
15489	18.565	5.0909	0.	1188.2
15490	18.473	5.	0.	1208.3
15491	18.473	5.0909	5.e-002	7.5558
15492	18.749	5.0909	0.	1146.4
15493	18.657	5.	0.	1166.5
15494	18.657	5.0909	5.e-002	7.5224
15495	18.934	5.0909	0.	1104.7
15496	18.841	5.	0.	1124.9
15497	18.841	5.0909	5.e-002	7.4899
15498	19.118	5.0909	0.	1063.3
15499	19.026	5.	0.	1083.4
15500	19.026	5.0909	5.e-002	7.4585
15501	19.302	5.0909	0.	1022.1
15502	19.21	5.	0.	1042.2
15503	19.21	5.0909	5.e-002	7.4281
15504	19.486	5.0909	0.	981.05
15505	19.394	5.	0.	1001.1
15506	19.394	5.0909	5.e-002	7.3989
15507	19.67	5.0909	0.	940.21
15508	19.578	5.	0.	960.31
15509	19.578	5.0909	5.e-002	7.3708
15510	19.855	5.0909	0.	899.58
15511	19.763	5.	0.	919.67
15512	19.763	5.0909	5.e-002	7.3439
15513	20.039	5.0909	0.	859.16
15514	19.947	5.	0.	879.25
15515	19.947	5.0909	5.e-002	7.3183
15516	20.223	5.0909	0.	818.94
15517	20.131	5.	0.	839.04
15518	20.131	5.0909	5.e-002	7.294
15519	20.407	5.0909	0.	778.94
15520	20.315	5.	0.	799.05
15521	20.315	5.0909	5.e-002	7.2712
15522	20.592	5.0909	0.	739.16
15523	20.5	5.	0.	759.28
15524	20.5	5.0909	5.e-002	7.2498
15525	20.776	5.0909	0.	699.61
15526	20.684	5.	0.	719.75
15527	20.684	5.0909	5.e-002	7.2301
15528	20.96	5.0909	0.	660.3
15529	20.868	5.	0.	680.47
15530	20.868	5.0909	5.e-002	7.212
15531	21.144	5.0909	0.	621.23
15532	21.052	5.	0.	641.44
15533	21.052	5.0909	5.e-002	7.1957
15534	21.329	5.0909	0.	582.42
15535	21.236	5.	0.	602.67
15536	21.236	5.0909	5.e-002	7.1814
15537	21.513	5.0909	0.	543.9
15538	21.421	5.	0.	564.2
15539	21.421	5.0909	5.e-002	7.1692
15540	21.697	5.0909	0.	505.68
15541	21.605	5.	0.	526.04
15542	21.605	5.0909	5.e-002	7.1594
15543	21.881	5.0909	0.	467.81
15544	21.789	5.	0.	488.23
15545	21.789	5.0909	5.e-002	7.1523
15546	22.066	5.0909	0.	430.34
15547	21.973	5.	0.	450.81
15548	21.973	5.0909	5.e-002	7.1483
15549	22.25	5.0909	0.	393.32
15550	22.158	5.	0.	413.85
15551	22.158	5.0909	5.e-002	7.1481
15552	22.434	5.0909	0.	356.87
15553	22.342	5.	0.	377.43
15554	22.342	5.0909	5.e-002	7.1523
15555	22.618	5.0909	0.	321.1
15556	22.526	5.	0.	341.66
15557	22.526	5.0909	5.e-002	7.1624
15558	22.802	5.0909	0.	286.22
15559	22.71	5.	0.	306.71
15560	22.71	5.0909	5.e-002	7.1801
15561	22.987	5.0909	0.	252.51
15562	22.895	5.	0.	272.82
15563	22.895	5.0909	5.e-002	7.2083
15564	23.171	5.0909	0.	220.37
15565	23.079	5.	0.	240.31
15566	23.079	5.0909	5.e-002	7.2517
15567	23.355	5.0909	0.	190.39
15568	23.263	5.	0.	209.66
15569	23.263	5.0909	5.e-002	7.3169
15570	23.539	5.0909	0.	163.48
15571	23.447	5.	0.	181.58
15572	23.447	5.0909	5.e-002	7.4132
15573	23.724	5.0909	0.	141.06
15574	23.632	5.	0.	157.15
15575	23.632	5.0909	5.e-002	7.5608
15576	23.816	5.	0.	138.05
15577	23.816	5.0909	5.e-002	7.9261
15578	23.908	5.0909	0.	124.43
15579	10.643	4.9091	0.	2522.7
15580	10.551	4.8182	0.	2990.4
15581	10.551	4.9091	5.e-002	124.42
15582	10.459	4.9091	0.	2147.4
15583	10.827	4.9091	0.	2428.8
15584	10.735	4.8182	0.	2725.4
15585	10.735	4.9091	5.e-002	81.121
15586	11.011	4.9091	0.	2446.5
15587	10.919	4.8182	0.	2660.7
15588	10.919	4.9091	5.e-002	63.909
15589	11.196	4.9091	0.	2486.
15590	11.104	4.8182	0.	2641.2
15591	11.104	4.9091	5.e-002	48.974
15592	11.38	4.9091	0.	2527.1
15593	11.288	4.8182	0.	2640.7
15594	11.288	4.9091	5.e-002	37.375
15595	11.564	4.9091	0.	2560.7
15596	11.472	4.8182	0.	2645.9
15597	11.472	4.9091	5.e-002	28.761
15598	11.748	4.9091	0.	2583.1
15599	11.656	4.8182	0.	2649.1
15600	11.656	4.9091	5.e-002	22.391
15601	11.933	4.9091	0.	2593.7
15602	11.841	4.8182	0.	2646.6
15603	11.841	4.9091	5.e-002	17.665
15604	12.117	4.9091	0.	2593.2
15605	12.025	4.8182	0.	2637.1
15606	12.025	4.9091	5.e-002	14.174
15607	12.301	4.9091	0.	2583.1
15608	12.209	4.8182	0.	2620.6
15609	12.209	4.9091	5.e-002	11.653
15610	12.485	4.9091	0.	2565.1
15611	12.393	4.8182	0.	2597.9
15612	12.393	4.9091	5.e-002	9.9168
15613	12.67	4.9091	0.	2540.5
15614	12.577	4.8182	0.	2570.
15615	12.577	4.9091	5.e-002	8.8089
15616	12.854	4.9091	0.	2510.8
15617	12.762	4.8182	0.	2537.7
15618	12.762	4.9091	5.e-002	8.1782
15619	13.038	4.9091	0.	2477.
15620	12.946	4.8182	0.	2502.1
15621	12.946	4.9091	5.e-002	7.8785
15622	13.222	4.9091	0.	2440.2
15623	13.13	4.8182	0.	2463.9
15624	13.13	4.9091	5.e-002	7.7842
15625	13.407	4.9091	0.	2401.1
15626	13.314	4.8182	0.	2423.7
15627	13.314	4.9091	5.e-002	7.8027
15628	13.591	4.9091	0.	2360.3
15629	13.499	4.8182	0.	2382.1
15630	13.499	4.9091	5.e-002	7.8731
15631	13.775	4.9091	0.	2318.2
15632	13.683	4.8182	0.	2339.4
15633	13.683	4.9091	5.e-002	7.9596
15634	13.959	4.9091	0.	2275.2
15635	13.867	4.8182	0.	2296.
15636	13.867	4.9091	5.e-002	8.0426
15637	14.143	4.9091	0.	2231.6
15638	14.051	4.8182	0.	2252.1
15639	14.051	4.9091	5.e-002	8.1128
15640	14.328	4.9091	0.	2187.6
15641	14.236	4.8182	0.	2207.8
15642	14.236	4.9091	5.e-002	8.1665
15643	14.512	4.9091	0.	2143.3
15644	14.42	4.8182	0.	2163.4
15645	14.42	4.9091	5.e-002	8.2034
15646	14.696	4.9091	0.	2098.8
15647	14.604	4.8182	0.	2118.9
15648	14.604	4.9091	5.e-002	8.2248
15649	14.88	4.9091	0.	2054.3
15650	14.788	4.8182	0.	2074.3
15651	14.788	4.9091	5.e-002	8.2326
15652	15.065	4.9091	0.	2009.8
15653	14.973	4.8182	0.	2029.7
15654	14.973	4.9091	5.e-002	8.2288
15655	15.249	4.9091	0.	1965.3
15656	15.157	4.8182	0.	1985.2
15657	15.157	4.9091	5.e-002	8.2157
15658	15.433	4.9091	0.	1920.8
15659	15.341	4.8182	0.	1940.8
15660	15.341	4.9091	5.e-002	8.1949
15661	15.617	4.9091	0.	1876.5
15662	15.525	4.8182	0.	1896.5
15663	15.525	4.9091	5.e-002	8.1683
15664	15.802	4.9091	0.	1832.3
15665	15.709	4.8182	0.	1852.3
15666	15.709	4.9091	5.e-002	8.1371
15667	15.986	4.9091	0.	1788.2
15668	15.894	4.8182	0.	1808.2
15669	15.894	4.9091	5.e-002	8.1025
15670	16.17	4.9091	0.	1744.2
15671	16.078	4.8182	0.	1764.3
15672	16.078	4.9091	5.e-002	8.0655
15673	16.354	4.9091	0.	1700.3
15674	16.262	4.8182	0.	1720.5
15675	16.262	4.9091	5.e-002	8.0267
15676	16.539	4.9091	0.	1656.6
15677	16.446	4.8182	0.	1676.8
15678	16.446	4.9091	5.e-002	7.9869
15679	16.723	4.9091	0.	1613.1
15680	16.631	4.8182	0.	1633.3
15681	16.631	4.9091	5.e-002	7.9465
15682	16.907	4.9091	0.	1569.7
15683	16.815	4.8182	0.	1589.9
15684	16.815	4.9091	5.e-002	7.9059
15685	17.091	4.9091	0.	1526.5
15686	16.999	4.8182	0.	1546.7
15687	16.999	4.9091	5.e-002	7.8654
15688	17.275	4.9091	0.	1483.4
15689	17.183	4.8182	0.	1503.6
15690	17.183	4.9091	5.e-002	7.8251
15691	17.46	4.9091	0.	1440.5
15692	17.368	4.8182	0.	1460.7
15693	17.368	4.9091	5.e-002	7.7854
15694	17.644	4.9091	0.	1397.8
15695	17.552	4.8182	0.	1418.
15696	17.552	4.9091	5.e-002	7.7463
15697	17.828	4.9091	0.	1355.2
15698	17.736	4.8182	0.	1375.4
15699	17.736	4.9091	5.e-002	7.7079
15700	18.012	4.9091	0.	1312.8
15701	17.92	4.8182	0.	1333.
15702	17.92	4.9091	5.e-002	7.6704
15703	18.197	4.9091	0.	1270.6
15704	18.105	4.8182	0.	1290.8
15705	18.105	4.9091	5.e-002	7.6338
15706	18.381	4.9091	0.	1228.6
15707	18.289	4.8182	0.	1248.8
15708	18.289	4.9091	5.e-002	7.5981
15709	18.565	4.9091	0.	1186.7
15710	18.473	4.8182	0.	1206.9
15711	18.473	4.9091	5.e-002	7.5634
15712	18.749	4.9091	0.	1145.1
15713	18.657	4.8182	0.	1165.2
15714	18.657	4.9091	5.e-002	7.5297
15715	18.934	4.9091	0.	1103.6
15716	18.841	4.8182	0.	1123.8
15717	18.841	4.9091	5.e-002	7.497
15718	19.118	4.9091	0.	1062.4
15719	19.026	4.8182	0.	1082.5
15720	19.026	4.9091	5.e-002	7.4655
15721	19.302	4.9091	0.	1021.3
15722	19.21	4.8182	0.	1041.4
15723	19.21	4.9091	5.e-002	7.4351
15724	19.486	4.9091	0.	980.47
15725	19.394	4.8182	0.	1000.6
15726	19.394	4.9091	5.e-002	7.4059
15727	19.67	4.9091	0.	939.83
15728	19.578	4.8182	0.	959.91
15729	19.578	4.9091	5.e-002	7.3779
15730	19.855	4.9091	0.	899.4
15731	19.763	4.8182	0.	919.47
15732	19.763	4.9091	5.e-002	7.3512
15733	20.039	4.9091	0.	859.19
15734	19.947	4.8182	0.	879.25
15735	19.947	4.9091	5.e-002	7.3258
15736	20.223	4.9091	0.	819.21
15737	20.131	4.8182	0.	839.26
15738	20.131	4.9091	5.e-002	7.3019
15739	20.407	4.9091	0.	779.46
15740	20.315	4.8182	0.	799.51
15741	20.315	4.9091	5.e-002	7.2795
15742	20.592	4.9091	0.	739.95
15743	20.5	4.8182	0.	760.
15744	20.5	4.9091	5.e-002	7.2586
15745	20.776	4.9091	0.	700.69
15746	20.684	4.8182	0.	720.75
15747	20.684	4.9091	5.e-002	7.2395
15748	20.96	4.9091	0.	661.69
15749	20.868	4.8182	0.	681.76
15750	20.868	4.9091	5.e-002	7.2222
15751	21.144	4.9091	0.	622.96
15752	21.052	4.8182	0.	643.06
15753	21.052	4.9091	5.e-002	7.2069
15754	21.329	4.9091	0.	584.54
15755	21.236	4.8182	0.	604.65
15756	21.236	4.9091	5.e-002	7.1938
15757	21.513	4.9091	0.	546.43
15758	21.421	4.8182	0.	566.57
15759	21.421	4.9091	5.e-002	7.1831
15760	21.697	4.9091	0.	508.68
15761	21.605	4.8182	0.	528.84
15762	21.605	4.9091	5.e-002	7.175
15763	21.881	4.9091	0.	471.32
15764	21.789	4.8182	0.	491.51
15765	21.789	4.9091	5.e-002	7.1701
15766	22.066	4.9091	0.	434.42
15767	21.973	4.8182	0.	454.61
15768	21.973	4.9091	5.e-002	7.1687
15769	22.25	4.9091	0.	398.04
15770	22.158	4.8182	0.	418.23
15771	22.158	4.9091	5.e-002	7.1715
15772	22.434	4.9091	0.	362.29
15773	22.342	4.8182	0.	382.45
15774	22.342	4.9091	5.e-002	7.1796
15775	22.618	4.9091	0.	327.32
15776	22.526	4.8182	0.	347.39
15777	22.526	4.9091	5.e-002	7.1942
15778	22.802	4.9091	0.	293.32
15779	22.71	4.8182	0.	313.21
15780	22.71	4.9091	5.e-002	7.2172
15781	22.987	4.9091	0.	260.55
15782	22.895	4.8182	0.	280.16
15783	22.895	4.9091	5.e-002	7.2513
15784	23.171	4.9091	0.	229.42
15785	23.079	4.8182	0.	248.54
15786	23.079	4.9091	5.e-002	7.3004
15787	23.355	4.9091	0.	200.48
15788	23.263	4.8182	0.	218.81
15789	23.263	4.9091	5.e-002	7.3695
15790	23.539	4.9091	0.	174.54
15791	23.447	4.8182	0.	191.62
15792	23.447	4.9091	5.e-002	7.4644
15793	23.724	4.9091	0.	152.89
15794	23.632	4.8182	0.	167.96
15795	23.632	4.9091	5.e-002	7.5987
15796	23.816	4.8182	0.	149.37
15797	23.816	4.9091	5.e-002	7.9116
15798	23.908	4.9091	0.	136.92
15799	10.643	4.7273	0.	3123.1
15800	10.551	4.6364	0.	3769.1
15801	10.551	4.7273	5.e-002	156.95
15802	10.459	4.7273	0.	2692.
15803	10.827	4.7273	0.	2912.
15804	10.735	4.6364	0.	3321.3
15805	10.735	4.7273	5.e-002	93.041
15806	11.011	4.7273	0.	2827.6
15807	10.919	4.6364	0.	3120.5
15808	10.919	4.7273	5.e-002	67.922
15809	11.196	4.7273	0.	2779.6
15810	11.104	4.6364	0.	2988.9
15811	11.104	4.7273	5.e-002	48.788
15812	11.38	4.7273	0.	2750.3
15813	11.288	4.6364	0.	2902.9
15814	11.288	4.7273	5.e-002	36.56
15815	11.564	4.7273	0.	2729.2
15816	11.472	4.6364	0.	2843.2
15817	11.472	4.7273	5.e-002	28.385
15818	11.748	4.7273	0.	2709.8
15819	11.656	4.6364	0.	2797.3
15820	11.656	4.7273	5.e-002	22.733
15821	11.933	4.7273	0.	2688.5
15822	11.841	4.6364	0.	2757.5
15823	11.841	4.7273	5.e-002	18.652
15824	12.117	4.7273	0.	2663.7
15825	12.025	4.6364	0.	2719.6
15826	12.025	4.7273	5.e-002	15.647
15827	12.301	4.7273	0.	2635.
15828	12.209	4.6364	0.	2681.5
15829	12.209	4.7273	5.e-002	13.433
15830	12.485	4.7273	0.	2602.6
15831	12.393	4.6364	0.	2642.2
15832	12.393	4.7273	5.e-002	11.827
15833	12.67	4.7273	0.	2567.1
15834	12.577	4.6364	0.	2601.7
15835	12.577	4.7273	5.e-002	10.69
15836	12.854	4.7273	0.	2529.1
15837	12.762	4.6364	0.	2559.8
15838	12.762	4.7273	5.e-002	9.9112
15839	13.038	4.7273	0.	2489.
15840	12.946	4.6364	0.	2516.9
15841	12.946	4.7273	5.e-002	9.3945
15842	13.222	4.7273	0.	2447.5
15843	13.13	4.6364	0.	2473.2
15844	13.13	4.7273	5.e-002	9.0618
15845	13.407	4.7273	0.	2404.8
15846	13.314	4.6364	0.	2428.9
15847	13.314	4.7273	5.e-002	8.8521
15848	13.591	4.7273	0.	2361.3
15849	13.499	4.6364	0.	2384.2
15850	13.499	4.7273	5.e-002	8.7209
15851	13.775	4.7273	0.	2317.3
15852	13.683	4.6364	0.	2339.3
15853	13.683	4.7273	5.e-002	8.6375
15854	13.959	4.7273	0.	2272.9
15855	13.867	4.6364	0.	2294.3
15856	13.867	4.7273	5.e-002	8.5814
15857	14.143	4.7273	0.	2228.4
15858	14.051	4.6364	0.	2249.2
15859	14.051	4.7273	5.e-002	8.5395
15860	14.328	4.7273	0.	2183.7
15861	14.236	4.6364	0.	2204.2
15862	14.236	4.7273	5.e-002	8.5039
15863	14.512	4.7273	0.	2139.
15864	14.42	4.6364	0.	2159.3
15865	14.42	4.7273	5.e-002	8.4702
15866	14.696	4.7273	0.	2094.4
15867	14.604	4.6364	0.	2114.5
15868	14.604	4.7273	5.e-002	8.4358
15869	14.88	4.7273	0.	2049.8
15870	14.788	4.6364	0.	2069.8
15871	14.788	4.7273	5.e-002	8.3997
15872	15.065	4.7273	0.	2005.2
15873	14.973	4.6364	0.	2025.2
15874	14.973	4.7273	5.e-002	8.3616
15875	15.249	4.7273	0.	1960.8
15876	15.157	4.6364	0.	1980.8
15877	15.157	4.7273	5.e-002	8.3213
15878	15.433	4.7273	0.	1916.5
15879	15.341	4.6364	0.	1936.5
15880	15.341	4.7273	5.e-002	8.2794
15881	15.617	4.7273	0.	1872.3
15882	15.525	4.6364	0.	1892.4
15883	15.525	4.7273	5.e-002	8.236
15884	15.802	4.7273	0.	1828.3
15885	15.709	4.6364	0.	1848.3
15886	15.709	4.7273	5.e-002	8.1917
15887	15.986	4.7273	0.	1784.4
15888	15.894	4.6364	0.	1804.5
15889	15.894	4.7273	5.e-002	8.1468
15890	16.17	4.7273	0.	1740.6
15891	16.078	4.6364	0.	1760.7
15892	16.078	4.7273	5.e-002	8.1016
15893	16.354	4.7273	0.	1697.
15894	16.262	4.6364	0.	1717.1
15895	16.262	4.7273	5.e-002	8.0565
15896	16.539	4.7273	0.	1653.5
15897	16.446	4.6364	0.	1673.6
15898	16.446	4.7273	5.e-002	8.0117
15899	16.723	4.7273	0.	1610.1
15900	16.631	4.6364	0.	1630.3
15901	16.631	4.7273	5.e-002	7.9673
15902	16.907	4.7273	0.	1566.9
15903	16.815	4.6364	0.	1587.1
15904	16.815	4.7273	5.e-002	7.9235
15905	17.091	4.7273	0.	1523.9
15906	16.999	4.6364	0.	1544.1
15907	16.999	4.7273	5.e-002	7.8805
15908	17.275	4.7273	0.	1481.
15909	17.183	4.6364	0.	1501.2
15910	17.183	4.7273	5.e-002	7.8382
15911	17.46	4.7273	0.	1438.2
15912	17.368	4.6364	0.	1458.5
15913	17.368	4.7273	5.e-002	7.7969
15914	17.644	4.7273	0.	1395.7
15915	17.552	4.6364	0.	1415.9
15916	17.552	4.7273	5.e-002	7.7565
15917	17.828	4.7273	0.	1353.3
15918	17.736	4.6364	0.	1373.5
15919	17.736	4.7273	5.e-002	7.7172
15920	18.012	4.7273	0.	1311.1
15921	17.92	4.6364	0.	1331.3
15922	17.92	4.7273	5.e-002	7.6789
15923	18.197	4.7273	0.	1269.
15924	18.105	4.6364	0.	1289.2
15925	18.105	4.7273	5.e-002	7.6416
15926	18.381	4.7273	0.	1227.1
15927	18.289	4.6364	0.	1247.3
15928	18.289	4.7273	5.e-002	7.6054
15929	18.565	4.7273	0.	1185.5
15930	18.473	4.6364	0.	1205.7
15931	18.473	4.7273	5.e-002	7.5704
15932	18.749	4.7273	0.	1144.
15933	18.657	4.6364	0.	1164.1
15934	18.657	4.7273	5.e-002	7.5364
15935	18.934	4.7273	0.	1102.7
15936	18.841	4.6364	0.	1122.8
15937	18.841	4.7273	5.e-002	7.5036
15938	19.118	4.7273	0.	1061.6
15939	19.026	4.6364	0.	1081.7
15940	19.026	4.7273	5.e-002	7.4719
15941	19.302	4.7273	0.	1020.7
15942	19.21	4.6364	0.	1040.8
15943	19.21	4.7273	5.e-002	7.4415
15944	19.486	4.7273	0.	980.06
15945	19.394	4.6364	0.	1000.1
15946	19.394	4.7273	5.e-002	7.4123
15947	19.67	4.7273	0.	939.6
15948	19.578	4.6364	0.	959.65
15949	19.578	4.7273	5.e-002	7.3844
15950	19.855	4.7273	0.	899.38
15951	19.763	4.6364	0.	919.41
15952	19.763	4.7273	5.e-002	7.3579
15953	20.039	4.7273	0.	859.38
15954	19.947	4.6364	0.	879.39
15955	19.947	4.7273	5.e-002	7.3327
15956	20.223	4.7273	0.	819.63
15957	20.131	4.6364	0.	839.62
15958	20.131	4.7273	5.e-002	7.3091
15959	20.407	4.7273	0.	780.12
15960	20.315	4.6364	0.	800.1
15961	20.315	4.7273	5.e-002	7.2871
15962	20.592	4.7273	0.	740.87
15963	20.5	4.6364	0.	760.84
15964	20.5	4.7273	5.e-002	7.2668
15965	20.776	4.7273	0.	701.9
15966	20.684	4.6364	0.	721.85
15967	20.684	4.7273	5.e-002	7.2483
15968	20.96	4.7273	0.	663.2
15969	20.868	4.6364	0.	683.15
15970	20.868	4.7273	5.e-002	7.2318
15971	21.144	4.7273	0.	624.82
15972	21.052	4.6364	0.	644.76
15973	21.052	4.7273	5.e-002	7.2175
15974	21.329	4.7273	0.	586.76
15975	21.236	4.6364	0.	606.7
15976	21.236	4.7273	5.e-002	7.2055
15977	21.513	4.7273	0.	549.05
15978	21.421	4.6364	0.	568.99
15979	21.421	4.7273	5.e-002	7.1962
15980	21.697	4.7273	0.	511.74
15981	21.605	4.6364	0.	531.67
15982	21.605	4.7273	5.e-002	7.1898
15983	21.881	4.7273	0.	474.86
15984	21.789	4.6364	0.	494.77
15985	21.789	4.7273	5.e-002	7.1869
15986	22.066	4.7273	0.	438.49
15987	21.973	4.6364	0.	458.36
15988	21.973	4.7273	5.e-002	7.188
15989	22.25	4.7273	0.	402.69
15990	22.158	4.6364	0.	422.5
15991	22.158	4.7273	5.e-002	7.1938
15992	22.434	4.7273	0.	367.57
15993	22.342	4.6364	0.	387.28
15994	22.342	4.7273	5.e-002	7.2052
15995	22.618	4.7273	0.	333.28
15996	22.526	4.6364	0.	352.83
15997	22.526	4.7273	5.e-002	7.2237
15998	22.802	4.7273	0.	300.01
15999	22.71	4.6364	0.	319.31
16000	22.71	4.7273	5.e-002	7.251
16001	22.987	4.7273	0.	268.01
16002	22.895	4.6364	0.	286.94
16003	22.895	4.7273	5.e-002	7.2894
16004	23.171	4.7273	0.	237.67
16005	23.079	4.6364	0.	256.02
16006	23.079	4.7273	5.e-002	7.3419
16007	23.355	4.7273	0.	209.5
16008	23.263	4.6364	0.	226.99
16009	23.263	4.7273	5.e-002	7.4122
16010	23.539	4.7273	0.	184.28
16011	23.447	4.6364	0.	200.47
16012	23.447	4.7273	5.e-002	7.5037
16013	23.724	4.7273	0.	163.2
16014	23.632	4.6364	0.	177.39
16015	23.632	4.7273	5.e-002	7.6257
16016	23.816	4.6364	0.	159.18
16017	23.816	4.7273	5.e-002	7.8939
16018	23.908	4.7273	0.	147.73
16019	10.643	4.5455	0.	3877.6
16020	10.551	4.4545	0.	4852.2
16021	10.551	4.5455	5.e-002	198.89
16022	10.459	4.5455	0.	3419.5
16023	10.827	4.5455	0.	3479.7
16024	10.735	4.4545	0.	4036.
16025	10.735	4.5455	5.e-002	115.67
16026	11.011	4.5455	0.	3254.
16027	10.919	4.4545	0.	3624.3
16028	10.919	4.5455	5.e-002	69.198
16029	11.196	4.5455	0.	3096.5
16030	11.104	4.4545	0.	3357.3
16031	11.104	4.5455	5.e-002	48.898
16032	11.38	4.5455	0.	2987.
16033	11.288	4.4545	0.	3175.5
16034	11.288	4.5455	5.e-002	36.918
16035	11.564	4.5455	0.	2906.3
16036	11.472	4.4545	0.	3047.
16037	11.472	4.5455	5.e-002	29.631
16038	11.748	4.5455	0.	2842.2
16039	11.656	4.4545	0.	2949.8
16040	11.656	4.5455	5.e-002	24.51
16041	11.933	4.5455	0.	2787.1
16042	11.841	4.4545	0.	2871.4
16043	11.841	4.5455	5.e-002	20.735
16044	12.117	4.5455	0.	2736.6
16045	12.025	4.4545	0.	2804.1
16046	12.025	4.5455	5.e-002	17.854
16047	12.301	4.5455	0.	2688.3
16048	12.209	4.4545	0.	2743.6
16049	12.209	4.5455	5.e-002	15.633
16050	12.485	4.5455	0.	2641.1
16051	12.393	4.4545	0.	2687.2
16052	12.393	4.5455	5.e-002	13.919
16053	12.67	4.5455	0.	2594.2
16054	12.577	4.4545	0.	2633.6
16055	12.577	4.5455	5.e-002	12.604
16056	12.854	4.5455	0.	2547.6
16057	12.762	4.4545	0.	2581.9
16058	12.762	4.5455	5.e-002	11.604
16059	13.038	4.5455	0.	2501.
16060	12.946	4.4545	0.	2531.5
16061	12.946	4.5455	5.e-002	10.85
16062	13.222	4.5455	0.	2454.6
16063	13.13	4.4545	0.	2482.2
16064	13.13	4.5455	5.e-002	10.284
16065	13.407	4.5455	0.	2408.3
16066	13.314	4.4545	0.	2433.8
16067	13.314	4.5455	5.e-002	9.8606
16068	13.591	4.5455	0.	2362.2
16069	13.499	4.4545	0.	2386.1
16070	13.499	4.5455	5.e-002	9.542
16071	13.775	4.5455	0.	2316.3
16072	13.683	4.4545	0.	2339.
16073	13.683	4.5455	5.e-002	9.2995
16074	13.959	4.5455	0.	2270.6
16075	13.867	4.4545	0.	2292.4
16076	13.867	4.5455	5.e-002	9.1116
16077	14.143	4.5455	0.	2225.1
16078	14.051	4.4545	0.	2246.3
16079	14.051	4.5455	5.e-002	8.9624
16080	14.328	4.5455	0.	2179.9
16081	14.236	4.4545	0.	2200.6
16082	14.236	4.5455	5.e-002	8.8403
16083	14.512	4.5455	0.	2134.8
16084	14.42	4.4545	0.	2155.3
16085	14.42	4.5455	5.e-002	8.7373
16086	14.696	4.5455	0.	2090.
16087	14.604	4.4545	0.	2110.3
16088	14.604	4.5455	5.e-002	8.648
16089	14.88	4.5455	0.	2045.3
16090	14.788	4.4545	0.	2065.5
16091	14.788	4.5455	5.e-002	8.5683
16092	15.065	4.5455	0.	2000.9
16093	14.973	4.4545	0.	2020.9
16094	14.973	4.5455	5.e-002	8.4956
16095	15.249	4.5455	0.	1956.5
16096	15.157	4.4545	0.	1976.6
16097	15.157	4.5455	5.e-002	8.4282
16098	15.433	4.5455	0.	1912.4
16099	15.341	4.4545	0.	1932.4
16100	15.341	4.5455	5.e-002	8.3647
16101	15.617	4.5455	0.	1868.4
16102	15.525	4.4545	0.	1888.4
16103	15.525	4.5455	5.e-002	8.3045
16104	15.802	4.5455	0.	1824.5
16105	15.709	4.4545	0.	1844.6
16106	15.709	4.5455	5.e-002	8.2468
16107	15.986	4.5455	0.	1780.8
16108	15.894	4.4545	0.	1800.9
16109	15.894	4.5455	5.e-002	8.1914
16110	16.17	4.5455	0.	1737.2
16111	16.078	4.4545	0.	1757.4
16112	16.078	4.5455	5.e-002	8.138
16113	16.354	4.5455	0.	1693.8
16114	16.262	4.4545	0.	1714.
16115	16.262	4.5455	5.e-002	8.0863
16116	16.539	4.5455	0.	1650.5
16117	16.446	4.4545	0.	1670.7
16118	16.446	4.5455	5.e-002	8.0363
16119	16.723	4.5455	0.	1607.4
16120	16.631	4.4545	0.	1627.6
16121	16.631	4.5455	5.e-002	7.9878
16122	16.907	4.5455	0.	1564.3
16123	16.815	4.4545	0.	1584.6
16124	16.815	4.5455	5.e-002	7.9408
16125	17.091	4.5455	0.	1521.5
16126	16.999	4.4545	0.	1541.7
16127	16.999	4.5455	5.e-002	7.8952
16128	17.275	4.5455	0.	1478.8
16129	17.183	4.4545	0.	1499.
16130	17.183	4.5455	5.e-002	7.8509
16131	17.46	4.5455	0.	1436.2
16132	17.368	4.4545	0.	1456.5
16133	17.368	4.5455	5.e-002	7.808
16134	17.644	4.5455	0.	1393.8
16135	17.552	4.4545	0.	1414.1
16136	17.552	4.5455	5.e-002	7.7664
16137	17.828	4.5455	0.	1351.6
16138	17.736	4.4545	0.	1371.8
16139	17.736	4.5455	5.e-002	7.726
16140	18.012	4.5455	0.	1309.5
16141	17.92	4.4545	0.	1329.7
16142	17.92	4.5455	5.e-002	7.6869
16143	18.197	4.5455	0.	1267.6
16144	18.105	4.4545	0.	1287.8
16145	18.105	4.5455	5.e-002	7.649
16146	18.381	4.5455	0.	1225.9
16147	18.289	4.4545	0.	1246.1
16148	18.289	4.5455	5.e-002	7.6123
16149	18.565	4.5455	0.	1184.4
16150	18.473	4.4545	0.	1204.6
16151	18.473	4.5455	5.e-002	7.5769
16152	18.749	4.5455	0.	1143.
16153	18.657	4.4545	0.	1163.2
16154	18.657	4.5455	5.e-002	7.5426
16155	18.934	4.5455	0.	1101.9
16156	18.841	4.4545	0.	1122.
16157	18.841	4.5455	5.e-002	7.5096
16158	19.118	4.5455	0.	1061.
16159	19.026	4.4545	0.	1081.1
16160	19.026	4.5455	5.e-002	7.4778
16161	19.302	4.5455	0.	1020.3
16162	19.21	4.4545	0.	1040.3
16163	19.21	4.5455	5.e-002	7.4474
16164	19.486	4.5455	0.	979.78
16165	19.394	4.4545	0.	999.81
16166	19.394	4.5455	5.e-002	7.4182
16167	19.67	4.5455	0.	939.51
16168	19.578	4.4545	0.	959.51
16169	19.578	4.5455	5.e-002	7.3904
16170	19.855	4.5455	0.	899.47
16171	19.763	4.4545	0.	919.45
16172	19.763	4.5455	5.e-002	7.364
16173	20.039	4.5455	0.	859.68
16174	19.947	4.4545	0.	879.63
16175	19.947	4.5455	5.e-002	7.3391
16176	20.223	4.5455	0.	820.15
16177	20.131	4.4545	0.	840.06
16178	20.131	4.5455	5.e-002	7.3158
16179	20.407	4.5455	0.	780.87
16180	20.315	4.4545	0.	800.76
16181	20.315	4.5455	5.e-002	7.2941
16182	20.592	4.5455	0.	741.88
16183	20.5	4.4545	0.	761.73
16184	20.5	4.5455	5.e-002	7.2743
16185	20.776	4.5455	0.	703.17
16186	20.684	4.4545	0.	723.
16187	20.684	4.5455	5.e-002	7.2565
16188	20.96	4.5455	0.	664.77
16189	20.868	4.4545	0.	684.57
16190	20.868	4.5455	5.e-002	7.2408
16191	21.144	4.5455	0.	626.71
16192	21.052	4.4545	0.	646.47
16193	21.052	4.5455	5.e-002	7.2273
16194	21.329	4.5455	0.	588.99
16195	21.236	4.4545	0.	608.73
16196	21.236	4.5455	5.e-002	7.2165
16197	21.513	4.5455	0.	551.66
16198	21.421	4.4545	0.	571.36
16199	21.421	4.5455	5.e-002	7.2085
16200	21.697	4.5455	0.	514.75
16201	21.605	4.4545	0.	534.41
16202	21.605	4.5455	5.e-002	7.2038
16203	21.881	4.5455	0.	478.31
16204	21.789	4.4545	0.	497.91
16205	21.789	4.5455	5.e-002	7.2028
16206	22.066	4.5455	0.	442.41
16207	21.973	4.4545	0.	461.93
16208	21.973	4.5455	5.e-002	7.2061
16209	22.25	4.5455	0.	407.12
16210	22.158	4.4545	0.	426.53
16211	22.158	4.5455	5.e-002	7.2145
16212	22.434	4.5455	0.	372.55
16213	22.342	4.4545	0.	391.8
16214	22.342	4.5455	5.e-002	7.2289
16215	22.618	4.5455	0.	338.83
16216	22.526	4.4545	0.	357.87
16217	22.526	4.5455	5.e-002	7.2506
16218	22.802	4.5455	0.	306.15
16219	22.71	4.4545	0.	324.88
16220	22.71	4.5455	5.e-002	7.2812
16221	22.987	4.5455	0.	274.77
16222	22.895	4.4545	0.	293.06
16223	22.895	4.5455	5.e-002	7.3225
16224	23.171	4.5455	0.	245.04
16225	23.079	4.4545	0.	262.7
16226	23.079	4.5455	5.e-002	7.3769
16227	23.355	4.5455	0.	217.46
16228	23.263	4.4545	0.	234.21
16229	23.263	4.5455	5.e-002	7.4467
16230	23.539	4.5455	0.	192.79
16231	23.447	4.4545	0.	208.2
16232	23.447	4.5455	5.e-002	7.5341
16233	23.724	4.5455	0.	172.14
16234	23.632	4.4545	0.	185.57
16235	23.632	4.5455	5.e-002	7.6455
16236	23.816	4.4545	0.	167.65
16237	23.816	4.5455	5.e-002	7.8751
16238	23.908	4.5455	0.	157.07
16239	10.643	4.3636	0.	4878.4
16240	10.551	4.2727	0.	6417.9
16241	10.551	4.3636	5.e-002	301.92
16242	10.459	4.3636	0.	4405.4
16243	10.827	4.3636	0.	4135.1
16244	10.735	4.2727	0.	4863.6
16245	10.735	4.3636	5.e-002	118.22
16246	11.011	4.3636	0.	3704.1
16247	10.919	4.2727	0.	4144.5
16248	10.919	4.3636	5.e-002	72.205
16249	11.196	4.3636	0.	3423.4
16250	11.104	4.2727	0.	3729.5
16251	11.104	4.3636	5.e-002	52.269
16252	11.38	4.3636	0.	3228.1
16253	11.288	4.2727	0.	3449.3
16254	11.288	4.3636	5.e-002	40.409
16255	11.564	4.3636	0.	3086.2
16256	11.472	4.2727	0.	3251.4
16257	11.472	4.3636	5.e-002	33.146
16258	11.748	4.3636	0.	2976.5
16259	11.656	4.2727	0.	3102.8
16260	11.656	4.3636	5.e-002	27.798
16261	11.933	4.3636	0.	2887.
16262	11.841	4.2727	0.	2985.5
16263	11.841	4.3636	5.e-002	23.743
16264	12.117	4.3636	0.	2810.3
16265	12.025	4.2727	0.	2888.6
16266	12.025	4.3636	5.e-002	20.58
16267	12.301	4.3636	0.	2742.1
16268	12.209	4.2727	0.	2805.5
16269	12.209	4.3636	5.e-002	18.075
16270	12.485	4.3636	0.	2679.6
16271	12.393	4.2727	0.	2732.
16272	12.393	4.3636	5.e-002	16.08
16273	12.67	4.3636	0.	2621.3
16274	12.577	4.2727	0.	2665.3
16275	12.577	4.3636	5.e-002	14.488
16276	12.854	4.3636	0.	2565.9
16277	12.762	4.2727	0.	2603.7
16278	12.762	4.3636	5.e-002	13.222
16279	13.038	4.3636	0.	2512.8
16280	12.946	4.2727	0.	2545.9
16281	12.946	4.3636	5.e-002	12.219
16282	13.222	4.3636	0.	2461.5
16283	13.13	4.2727	0.	2491.
16284	13.13	4.3636	5.e-002	11.427
16285	13.407	4.3636	0.	2411.6
16286	13.314	4.2727	0.	2438.5
16287	13.314	4.3636	5.e-002	10.804
16288	13.591	4.3636	0.	2362.9
16289	13.499	4.2727	0.	2387.9
16290	13.499	4.3636	5.e-002	10.312
16291	13.775	4.3636	0.	2315.2
16292	13.683	4.2727	0.	2338.7
16293	13.683	4.3636	5.e-002	9.9238
16294	13.959	4.3636	0.	2268.2
16295	13.867	4.2727	0.	2290.6
16296	13.867	4.3636	5.e-002	9.6145
16297	14.143	4.3636	0.	2221.9
16298	14.051	4.2727	0.	2243.5
16299	14.051	4.3636	5.e-002	9.3656
16300	14.328	4.3636	0.	2176.1
16301	14.236	4.2727	0.	2197.2
16302	14.236	4.3636	5.e-002	9.1627
16303	14.512	4.3636	0.	2130.8
16304	14.42	4.2727	0.	2151.4
16305	14.42	4.3636	5.e-002	8.9946
16306	14.696	4.3636	0.	2085.8
16307	14.604	4.2727	0.	2106.2
16308	14.604	4.3636	5.e-002	8.853
16309	14.88	4.3636	0.	2041.1
16310	14.788	4.2727	0.	2061.4
16311	14.788	4.3636	5.e-002	8.7317
16312	15.065	4.3636	0.	1996.7
16313	14.973	4.2727	0.	2016.9
16314	14.973	4.3636	5.e-002	8.6259
16315	15.249	4.3636	0.	1952.5
16316	15.157	4.2727	0.	1972.6
16317	15.157	4.3636	5.e-002	8.5322
16318	15.433	4.3636	0.	1908.5
16319	15.341	4.2727	0.	1928.6
16320	15.341	4.3636	5.e-002	8.448
16321	15.617	4.3636	0.	1864.7
16322	15.525	4.2727	0.	1884.8
16323	15.525	4.3636	5.e-002	8.3713
16324	15.802	4.3636	0.	1821.
16325	15.709	4.2727	0.	1841.2
16326	15.709	4.3636	5.e-002	8.3006
16327	15.986	4.3636	0.	1777.5
16328	15.894	4.2727	0.	1797.7
16329	15.894	4.3636	5.e-002	8.2349
16330	16.17	4.3636	0.	1734.1
16331	16.078	4.2727	0.	1754.3
16332	16.078	4.3636	5.e-002	8.1733
16333	16.354	4.3636	0.	1690.9
16334	16.262	4.2727	0.	1711.1
16335	16.262	4.3636	5.e-002	8.1152
16336	16.539	4.3636	0.	1647.8
16337	16.446	4.2727	0.	1668.1
16338	16.446	4.3636	5.e-002	8.0601
16339	16.723	4.3636	0.	1604.8
16340	16.631	4.2727	0.	1625.1
16341	16.631	4.3636	5.e-002	8.0076
16342	16.907	4.3636	0.	1562.
16343	16.815	4.2727	0.	1582.3
16344	16.815	4.3636	5.e-002	7.9574
16345	17.091	4.3636	0.	1519.3
16346	16.999	4.2727	0.	1539.6
16347	16.999	4.3636	5.e-002	7.9093
16348	17.275	4.3636	0.	1476.8
16349	17.183	4.2727	0.	1497.1
16350	17.183	4.3636	5.e-002	7.863
16351	17.46	4.3636	0.	1434.4
16352	17.368	4.2727	0.	1454.7
16353	17.368	4.3636	5.e-002	7.8184
16354	17.644	4.3636	0.	1392.1
16355	17.552	4.2727	0.	1412.4
16356	17.552	4.3636	5.e-002	7.7756
16357	17.828	4.3636	0.	1350.
16358	17.736	4.2727	0.	1370.3
16359	17.736	4.3636	5.e-002	7.7342
16360	18.012	4.3636	0.	1308.1
16361	17.92	4.2727	0.	1328.4
16362	17.92	4.3636	5.e-002	7.6943
16363	18.197	4.3636	0.	1266.4
16364	18.105	4.2727	0.	1286.6
16365	18.105	4.3636	5.e-002	7.6558
16366	18.381	4.3636	0.	1224.8
16367	18.289	4.2727	0.	1245.
16368	18.289	4.3636	5.e-002	7.6187
16369	18.565	4.3636	0.	1183.4
16370	18.473	4.2727	0.	1203.6
16371	18.473	4.3636	5.e-002	7.5828
16372	18.749	4.3636	0.	1142.2
16373	18.657	4.2727	0.	1162.4
16374	18.657	4.3636	5.e-002	7.5483
16375	18.934	4.3636	0.	1101.3
16376	18.841	4.2727	0.	1121.4
16377	18.841	4.3636	5.e-002	7.5151
16378	19.118	4.3636	0.	1060.5
16379	19.026	4.2727	0.	1080.6
16380	19.026	4.3636	5.e-002	7.4832
16381	19.302	4.3636	0.	1019.9
16382	19.21	4.2727	0.	1040.
16383	19.21	4.3636	5.e-002	7.4527
16384	19.486	4.3636	0.	979.6
16385	19.394	4.2727	0.	999.6
16386	19.394	4.3636	5.e-002	7.4235
16387	19.67	4.3636	0.	939.5
16388	19.578	4.2727	0.	959.46
16389	19.578	4.3636	5.e-002	7.3958
16390	19.855	4.3636	0.	899.65
16391	19.763	4.2727	0.	919.56
16392	19.763	4.3636	5.e-002	7.3695
16393	20.039	4.3636	0.	860.05
16394	19.947	4.2727	0.	879.92
16395	19.947	4.3636	5.e-002	7.3449
16396	20.223	4.3636	0.	820.72
16397	20.131	4.2727	0.	840.54
16398	20.131	4.3636	5.e-002	7.3218
16399	20.407	4.3636	0.	781.67
16400	20.315	4.2727	0.	801.44
16401	20.315	4.3636	5.e-002	7.3006
16402	20.592	4.3636	0.	742.91
16403	20.5	4.2727	0.	762.63
16404	20.5	4.3636	5.e-002	7.2812
16405	20.776	4.3636	0.	704.45
16406	20.684	4.2727	0.	724.13
16407	20.684	4.3636	5.e-002	7.264
16408	20.96	4.3636	0.	666.33
16409	20.868	4.2727	0.	685.96
16410	20.868	4.3636	5.e-002	7.249
16411	21.144	4.3636	0.	628.55
16412	21.052	4.2727	0.	648.13
16413	21.052	4.3636	5.e-002	7.2364
16414	21.329	4.3636	0.	591.15
16415	21.236	4.2727	0.	610.67
16416	21.236	4.3636	5.e-002	7.2266
16417	21.513	4.3636	0.	554.16
16418	21.421	4.2727	0.	573.61
16419	21.421	4.3636	5.e-002	7.2199
16420	21.697	4.3636	0.	517.61
16421	21.605	4.2727	0.	536.99
16422	21.605	4.3636	5.e-002	7.2167
16423	21.881	4.3636	0.	481.56
16424	21.789	4.2727	0.	500.84
16425	21.789	4.3636	5.e-002	7.2175
16426	22.066	4.3636	0.	446.07
16427	21.973	4.2727	0.	465.24
16428	21.973	4.3636	5.e-002	7.2228
16429	22.25	4.3636	0.	411.22
16430	22.158	4.2727	0.	430.23
16431	22.158	4.3636	5.e-002	7.2335
16432	22.434	4.3636	0.	377.1
16433	22.342	4.2727	0.	395.91
16434	22.342	4.3636	5.e-002	7.2504
16435	22.618	4.3636	0.	343.86
16436	22.526	4.2727	0.	362.41
16437	22.526	4.3636	5.e-002	7.2747
16438	22.802	4.3636	0.	311.67
16439	22.71	4.2727	0.	329.86
16440	22.71	4.3636	5.e-002	7.3077
16441	22.987	4.3636	0.	280.77
16442	22.895	4.2727	0.	298.47
16443	22.895	4.3636	5.e-002	7.3509
16444	23.171	4.3636	0.	251.52
16445	23.079	4.2727	0.	268.54
16446	23.079	4.3636	5.e-002	7.406
16447	23.355	4.3636	0.	224.41
16448	23.263	4.2727	0.	240.48
16449	23.263	4.3636	5.e-002	7.4746
16450	23.539	4.3636	0.	200.17
16451	23.447	4.2727	0.	214.87
16452	23.447	4.3636	5.e-002	7.5577
16453	23.724	4.3636	0.	179.86
16454	23.632	4.2727	0.	192.6
16455	23.632	4.3636	5.e-002	7.6601
16456	23.816	4.2727	0.	174.9
16457	23.816	4.3636	5.e-002	7.8567
16458	23.908	4.3636	0.	165.11
16459	10.643	4.1818	0.	6284.6
16460	10.551	4.0909	0.	8122.1
16461	10.551	4.1818	5.e-002	538.98
16462	10.459	4.1818	0.	6353.3
16463	10.827	4.1818	0.	4840.9
16464	10.735	4.0909	0.	5642.3
16465	10.735	4.1818	5.e-002	180.53
16466	11.011	4.1818	0.	4154.9
16467	10.919	4.0909	0.	4657.1
16468	10.919	4.1818	5.e-002	83.94
16469	11.196	4.1818	0.	3746.1
16470	11.104	4.0909	0.	4093.6
16471	11.104	4.1818	5.e-002	60.476
16472	11.38	4.1818	0.	3466.9
16473	11.288	4.0909	0.	3717.8
16474	11.288	4.1818	5.e-002	47.425
16475	11.564	4.1818	0.	3264.5
16476	11.472	4.0909	0.	3452.1
16477	11.472	4.1818	5.e-002	38.43
16478	11.748	4.1818	0.	3109.7
16479	11.656	4.0909	0.	3253.
16480	11.656	4.1818	5.e-002	32.071
16481	11.933	4.1818	0.	2986.
16482	11.841	4.0909	0.	3097.5
16483	11.841	4.1818	5.e-002	27.28
16484	12.117	4.1818	0.	2883.2
16485	12.025	4.0909	0.	2971.4
16486	12.025	4.1818	5.e-002	23.555
16487	12.301	4.1818	0.	2795.1
16488	12.209	4.0909	0.	2866.
16489	12.209	4.1818	5.e-002	20.593
16490	12.485	4.1818	0.	2717.5
16491	12.393	4.0909	0.	2775.5
16492	12.393	4.1818	5.e-002	18.212
16493	12.67	4.1818	0.	2647.7
16494	12.577	4.0909	0.	2695.9
16495	12.577	4.1818	5.e-002	16.288
16496	12.854	4.1818	0.	2583.7
16497	12.762	4.0909	0.	2624.6
16498	12.762	4.1818	5.e-002	14.733
16499	13.038	4.1818	0.	2524.2
16500	12.946	4.0909	0.	2559.6
16501	12.946	4.1818	5.e-002	13.48
16502	13.222	4.1818	0.	2468.1
16503	13.13	4.0909	0.	2499.4
16504	13.13	4.1818	5.e-002	12.471
16505	13.407	4.1818	0.	2414.8
16506	13.314	4.0909	0.	2443.
16507	13.314	4.1818	5.e-002	11.663
16508	13.591	4.1818	0.	2363.6
16509	13.499	4.0909	0.	2389.5
16510	13.499	4.1818	5.e-002	11.014
16511	13.775	4.1818	0.	2314.1
16512	13.683	4.0909	0.	2338.3
16513	13.683	4.1818	5.e-002	10.494
16514	13.959	4.1818	0.	2265.9
16515	13.867	4.0909	0.	2288.9
16516	13.867	4.1818	5.e-002	10.075
16517	14.143	4.1818	0.	2218.8
16518	14.051	4.0909	0.	2240.8
16519	14.051	4.1818	5.e-002	9.7368
16520	14.328	4.1818	0.	2172.5
16521	14.236	4.0909	0.	2193.9
16522	14.236	4.1818	5.e-002	9.4607
16523	14.512	4.1818	0.	2126.9
16524	14.42	4.0909	0.	2147.8
16525	14.42	4.1818	5.e-002	9.2333
16526	14.696	4.1818	0.	2081.8
16527	14.604	4.0909	0.	2102.5
16528	14.604	4.1818	5.e-002	9.044
16529	14.88	4.1818	0.	2037.2
16530	14.788	4.0909	0.	2057.6
16531	14.788	4.1818	5.e-002	8.8844
16532	15.065	4.1818	0.	1992.8
16533	14.973	4.0909	0.	2013.1
16534	14.973	4.1818	5.e-002	8.7481
16535	15.249	4.1818	0.	1948.8
16536	15.157	4.0909	0.	1969.
16537	15.157	4.1818	5.e-002	8.63
16538	15.433	4.1818	0.	1904.9
16539	15.341	4.0909	0.	1925.1
16540	15.341	4.1818	5.e-002	8.5263
16541	15.617	4.1818	0.	1861.3
16542	15.525	4.0909	0.	1881.5
16543	15.525	4.1818	5.e-002	8.4342
16544	15.802	4.1818	0.	1817.8
16545	15.709	4.0909	0.	1838.
16546	15.709	4.1818	5.e-002	8.3512
16547	15.986	4.1818	0.	1774.5
16548	15.894	4.0909	0.	1794.8
16549	15.894	4.1818	5.e-002	8.2758
16550	16.17	4.1818	0.	1731.3
16551	16.078	4.0909	0.	1751.6
16552	16.078	4.1818	5.e-002	8.2066
16553	16.354	4.1818	0.	1688.3
16554	16.262	4.0909	0.	1708.6
16555	16.262	4.1818	5.e-002	8.1424
16556	16.539	4.1818	0.	1645.4
16557	16.446	4.0909	0.	1665.7
16558	16.446	4.1818	5.e-002	8.0824
16559	16.723	4.1818	0.	1602.6
16560	16.631	4.0909	0.	1622.9
16561	16.631	4.1818	5.e-002	8.0261
16562	16.907	4.1818	0.	1559.9
16563	16.815	4.0909	0.	1580.3
16564	16.815	4.1818	5.e-002	7.9729
16565	17.091	4.1818	0.	1517.4
16566	16.999	4.0909	0.	1537.7
16567	16.999	4.1818	5.e-002	7.9224
16568	17.275	4.1818	0.	1475.
16569	17.183	4.0909	0.	1495.3
16570	17.183	4.1818	5.e-002	7.8742
16571	17.46	4.1818	0.	1432.8
16572	17.368	4.0909	0.	1453.1
16573	17.368	4.1818	5.e-002	7.8281
16574	17.644	4.1818	0.	1390.7
16575	17.552	4.0909	0.	1411.
16576	17.552	4.1818	5.e-002	7.784
16577	17.828	4.1818	0.	1348.7
16578	17.736	4.0909	0.	1369.
16579	17.736	4.1818	5.e-002	7.7417
16580	18.012	4.1818	0.	1306.9
16581	17.92	4.0909	0.	1327.2
16582	17.92	4.1818	5.e-002	7.7011
16583	18.197	4.1818	0.	1265.3
16584	18.105	4.0909	0.	1285.6
16585	18.105	4.1818	5.e-002	7.662
16586	18.381	4.1818	0.	1223.9
16587	18.289	4.0909	0.	1244.1
16588	18.289	4.1818	5.e-002	7.6244
16589	18.565	4.1818	0.	1182.6
16590	18.473	4.0909	0.	1202.8
16591	18.473	4.1818	5.e-002	7.5882
16592	18.749	4.1818	0.	1141.6
16593	18.657	4.0909	0.	1161.7
16594	18.657	4.1818	5.e-002	7.5534
16595	18.934	4.1818	0.	1100.7
16596	18.841	4.0909	0.	1120.8
16597	18.841	4.1818	5.e-002	7.52
16598	19.118	4.1818	0.	1060.1
16599	19.026	4.0909	0.	1080.2
16600	19.026	4.1818	5.e-002	7.488
16601	19.302	4.1818	0.	1019.7
16602	19.21	4.0909	0.	1039.7
16603	19.21	4.1818	5.e-002	7.4574
16604	19.486	4.1818	0.	979.5
16605	19.394	4.0909	0.	999.46
16606	19.394	4.1818	5.e-002	7.4283
16607	19.67	4.1818	0.	939.56
16608	19.578	4.0909	0.	959.46
16609	19.578	4.1818	5.e-002	7.4006
16610	19.855	4.1818	0.	899.88
16611	19.763	4.0909	0.	919.72
16612	19.763	4.1818	5.e-002	7.3745
16613	20.039	4.1818	0.	860.46
16614	19.947	4.0909	0.	880.24
16615	19.947	4.1818	5.e-002	7.35
16616	20.223	4.1818	0.	821.31
16617	20.131	4.0909	0.	841.03
16618	20.131	4.1818	5.e-002	7.3272
16619	20.407	4.1818	0.	782.46
16620	20.315	4.0909	0.	802.11
16621	20.315	4.1818	5.e-002	7.3063
16622	20.592	4.1818	0.	743.91
16623	20.5	4.0909	0.	763.5
16624	20.5	4.1818	5.e-002	7.2874
16625	20.776	4.1818	0.	705.68
16626	20.684	4.0909	0.	725.2
16627	20.684	4.1818	5.e-002	7.2707
16628	20.96	4.1818	0.	667.8
16629	20.868	4.0909	0.	687.25
16630	20.868	4.1818	5.e-002	7.2564
16631	21.144	4.1818	0.	630.29
16632	21.052	4.0909	0.	649.66
16633	21.052	4.1818	5.e-002	7.2447
16634	21.329	4.1818	0.	593.17
16635	21.236	4.0909	0.	612.46
16636	21.236	4.1818	5.e-002	7.2358
16637	21.513	4.1818	0.	556.47
16638	21.421	4.0909	0.	575.67
16639	21.421	4.1818	5.e-002	7.2303
16640	21.697	4.1818	0.	520.25
16641	21.605	4.0909	0.	539.33
16642	21.605	4.1818	5.e-002	7.2284
16643	21.881	4.1818	0.	484.53
16644	21.789	4.0909	0.	503.49
16645	21.789	4.1818	5.e-002	7.2307
16646	22.066	4.1818	0.	449.4
16647	21.973	4.0909	0.	468.2
16648	21.973	4.1818	5.e-002	7.2378
16649	22.25	4.1818	0.	414.91
16650	22.158	4.0909	0.	433.52
16651	22.158	4.1818	5.e-002	7.2504
16652	22.434	4.1818	0.	381.17
16653	22.342	4.0909	0.	399.55
16654	22.342	4.1818	5.e-002	7.2694
16655	22.618	4.1818	0.	348.31
16656	22.526	4.0909	0.	366.39
16657	22.526	4.1818	5.e-002	7.2957
16658	22.802	4.1818	0.	316.51
16659	22.71	4.0909	0.	334.19
16660	22.71	4.1818	5.e-002	7.3304
16661	22.987	4.1818	0.	286.
16662	22.895	4.0909	0.	303.16
16663	22.895	4.1818	5.e-002	7.3748
16664	23.171	4.1818	0.	257.13
16665	23.079	4.0909	0.	273.57
16666	23.079	4.1818	5.e-002	7.43
16667	23.355	4.1818	0.	230.38
16668	23.263	4.0909	0.	245.84
16669	23.263	4.1818	5.e-002	7.497
16670	23.539	4.1818	0.	206.48
16671	23.447	4.0909	0.	220.55
16672	23.447	4.1818	5.e-002	7.5762
16673	23.724	4.1818	0.	186.44
16674	23.632	4.0909	0.	198.56
16675	23.632	4.1818	5.e-002	7.671
16676	23.816	4.0909	0.	181.04
16677	23.816	4.1818	5.e-002	7.8395
16678	23.908	4.1818	0.	171.96
16679	10.643	4.	0.	7491.4
16680	10.551	3.9091	0.	8895.3
16681	10.551	4.	5.e-002	961.33
16682	10.459	4.	0.	13217
16683	10.827	4.	0.	5456.8
16684	10.735	3.9091	0.	6308.3
16685	10.735	4.	5.e-002	168.53
16686	11.011	4.	0.	4588.2
16687	10.919	3.9091	0.	5127.3
16688	10.919	4.	5.e-002	108.99
16689	11.196	4.	0.	4059.4
16690	11.104	3.9091	0.	4439.
16691	11.104	4.	5.e-002	73.12
16692	11.38	4.	0.	3698.9
16693	11.288	3.9091	0.	3974.6
16694	11.288	4.	5.e-002	55.604
16695	11.564	4.	0.	3437.9
16696	11.472	3.9091	0.	3644.6
16697	11.472	4.	5.e-002	44.399
16698	11.748	4.	0.	3239.1
16699	11.656	3.9091	0.	3396.9
16700	11.656	4.	5.e-002	36.702
16701	11.933	4.	0.	3081.9
16702	11.841	3.9091	0.	3204.5
16703	11.841	4.	5.e-002	30.985
16704	12.117	4.	0.	2953.7
16705	12.025	3.9091	0.	3050.2
16706	12.025	4.	5.e-002	26.566
16707	12.301	4.	0.	2846.1
16708	12.209	3.9091	0.	2923.4
16709	12.209	4.	5.e-002	23.06
16710	12.485	4.	0.	2753.8
16711	12.393	3.9091	0.	2816.5
16712	12.393	4.	5.e-002	20.24
16713	12.67	4.	0.	2672.8
16714	12.577	3.9091	0.	2724.7
16715	12.577	4.	5.e-002	17.959
16716	12.854	4.	0.	2600.5
16717	12.762	3.9091	0.	2644.2
16718	12.762	4.	5.e-002	16.11
16719	13.038	4.	0.	2534.9
16720	12.946	3.9091	0.	2572.3
16721	12.946	4.	5.e-002	14.612
16722	13.222	4.	0.	2474.3
16723	13.13	3.9091	0.	2507.1
16724	13.13	4.	5.e-002	13.401
16725	13.407	4.	0.	2417.7
16726	13.314	3.9091	0.	2447.1
16727	13.314	4.	5.e-002	12.423
16728	13.591	4.	0.	2364.2
16729	13.499	3.9091	0.	2391.
16730	13.499	4.	5.e-002	11.634
16731	13.775	4.	0.	2313.1
16732	13.683	3.9091	0.	2337.9
16733	13.683	4.	5.e-002	10.998
16734	13.959	4.	0.	2263.8
16735	13.867	3.9091	0.	2287.3
16736	13.867	4.	5.e-002	10.484
16737	14.143	4.	0.	2216.
16738	14.051	3.9091	0.	2238.4
16739	14.051	4.	5.e-002	10.067
16740	14.328	4.	0.	2169.2
16741	14.236	3.9091	0.	2191.
16742	14.236	4.	5.e-002	9.7263
16743	14.512	4.	0.	2123.4
16744	14.42	3.9091	0.	2144.6
16745	14.42	4.	5.e-002	9.4469
16746	14.696	4.	0.	2078.2
16747	14.604	3.9091	0.	2099.1
16748	14.604	4.	5.e-002	9.2155
16749	14.88	4.	0.	2033.6
16750	14.788	3.9091	0.	2054.2
16751	14.788	4.	5.e-002	9.0219
16752	15.065	4.	0.	1989.3
16753	14.973	3.9091	0.	2009.8
16754	14.973	4.	5.e-002	8.8583
16755	15.249	4.	0.	1945.4
16756	15.157	3.9091	0.	1965.8
16757	15.157	4.	5.e-002	8.7184
16758	15.433	4.	0.	1901.7
16759	15.341	3.9091	0.	1922.1
16760	15.341	4.	5.e-002	8.5973
16761	15.617	4.	0.	1858.3
16762	15.525	3.9091	0.	1878.6
16763	15.525	4.	5.e-002	8.4913
16764	15.802	4.	0.	1815.
16765	15.709	3.9091	0.	1835.3
16766	15.709	4.	5.e-002	8.3973
16767	15.986	4.	0.	1771.9
16768	15.894	3.9091	0.	1792.2
16769	15.894	4.	5.e-002	8.3131
16770	16.17	4.	0.	1728.9
16771	16.078	3.9091	0.	1749.2
16772	16.078	4.	5.e-002	8.2368
16773	16.354	4.	0.	1686.
16774	16.262	3.9091	0.	1706.4
16775	16.262	4.	5.e-002	8.1671
16776	16.539	4.	0.	1643.2
16777	16.446	3.9091	0.	1663.6
16778	16.446	4.	5.e-002	8.1027
16779	16.723	4.	0.	1600.6
16780	16.631	3.9091	0.	1621.
16781	16.631	4.	5.e-002	8.0429
16782	16.907	4.	0.	1558.1
16783	16.815	3.9091	0.	1578.5
16784	16.815	4.	5.e-002	7.9869
16785	17.091	4.	0.	1515.7
16786	16.999	3.9091	0.	1536.1
16787	16.999	4.	5.e-002	7.9342
16788	17.275	4.	0.	1473.5
16789	17.183	3.9091	0.	1493.9
16790	17.183	4.	5.e-002	7.8842
16791	17.46	4.	0.	1431.4
16792	17.368	3.9091	0.	1451.7
16793	17.368	4.	5.e-002	7.8368
16794	17.644	4.	0.	1389.4
16795	17.552	3.9091	0.	1409.7
16796	17.552	4.	5.e-002	7.7916
16797	17.828	4.	0.	1347.6
16798	17.736	3.9091	0.	1367.9
16799	17.736	4.	5.e-002	7.7484
16800	18.012	4.	0.	1305.9
16801	17.92	3.9091	0.	1326.2
16802	17.92	4.	5.e-002	7.7071
16803	18.197	4.	0.	1264.4
16804	18.105	3.9091	0.	1284.7
16805	18.105	4.	5.e-002	7.6675
16806	18.381	4.	0.	1223.1
16807	18.289	3.9091	0.	1243.3
16808	18.289	4.	5.e-002	7.6294
16809	18.565	4.	0.	1182.
16810	18.473	3.9091	0.	1202.2
16811	18.473	4.	5.e-002	7.5929
16812	18.749	4.	0.	1141.
16813	18.657	3.9091	0.	1161.2
16814	18.657	4.	5.e-002	7.5579
16815	18.934	4.	0.	1100.3
16816	18.841	3.9091	0.	1120.4
16817	18.841	4.	5.e-002	7.5243
16818	19.118	4.	0.	1059.8
16819	19.026	3.9091	0.	1079.8
16820	19.026	4.	5.e-002	7.4922
16821	19.302	4.	0.	1019.5
16822	19.21	3.9091	0.	1039.5
16823	19.21	4.	5.e-002	7.4616
16824	19.486	4.	0.	979.46
16825	19.394	3.9091	0.	999.37
16826	19.394	4.	5.e-002	7.4324
16827	19.67	4.	0.	939.66
16828	19.578	3.9091	0.	959.5
16829	19.578	4.	5.e-002	7.4048
16830	19.855	4.	0.	900.12
16831	19.763	3.9091	0.	919.89
16832	19.763	4.	5.e-002	7.3788
16833	20.039	4.	0.	860.86
16834	19.947	3.9091	0.	880.55
16835	19.947	4.	5.e-002	7.3545
16836	20.223	4.	0.	821.88
16837	20.131	3.9091	0.	841.5
16838	20.131	4.	5.e-002	7.332
16839	20.407	4.	0.	783.2
16840	20.315	3.9091	0.	802.74
16841	20.315	4.	5.e-002	7.3114
16842	20.592	4.	0.	744.84
16843	20.5	3.9091	0.	764.29
16844	20.5	4.	5.e-002	7.2929
16845	20.776	4.	0.	706.82
16846	20.684	3.9091	0.	726.18
16847	20.684	4.	5.e-002	7.2767
16848	20.96	4.	0.	669.15
16849	20.868	3.9091	0.	688.42
16850	20.868	4.	5.e-002	7.2629
16851	21.144	4.	0.	631.87
16852	21.052	3.9091	0.	651.03
16853	21.052	4.	5.e-002	7.2519
16854	21.329	4.	0.	594.99
16855	21.236	3.9091	0.	614.04
16856	21.236	4.	5.e-002	7.244
16857	21.513	4.	0.	558.55
16858	21.421	3.9091	0.	577.48
16859	21.421	4.	5.e-002	7.2394
16860	21.697	4.	0.	522.59
16861	21.605	3.9091	0.	541.39
16862	21.605	4.	5.e-002	7.2388
16863	21.881	4.	0.	487.16
16864	21.789	3.9091	0.	505.8
16865	21.789	4.	5.e-002	7.2424
16866	22.066	4.	0.	452.32
16867	21.973	3.9091	0.	470.77
16868	21.973	4.	5.e-002	7.251
16869	22.25	4.	0.	418.13
16870	22.158	3.9091	0.	436.37
16871	22.158	4.	5.e-002	7.2652
16872	22.434	4.	0.	384.71
16873	22.342	3.9091	0.	402.67
16874	22.342	4.	5.e-002	7.2858
16875	22.618	4.	0.	352.16
16876	22.526	3.9091	0.	369.79
16877	22.526	4.	5.e-002	7.3136
16878	22.802	4.	0.	320.66
16879	22.71	3.9091	0.	337.86
16880	22.71	4.	5.e-002	7.3496
16881	22.987	4.	0.	290.46
16882	22.895	3.9091	0.	307.1
16883	22.895	4.	5.e-002	7.3946
16884	23.171	4.	0.	261.89
16885	23.079	3.9091	0.	277.79
16886	23.079	4.	5.e-002	7.4494
16887	23.355	4.	0.	235.43
16888	23.263	3.9091	0.	250.32
16889	23.263	4.	5.e-002	7.5147
16890	23.539	4.	0.	211.79
16891	23.447	3.9091	0.	225.28
16892	23.447	4.	5.e-002	7.5906
16893	23.724	4.	0.	191.96
16894	23.632	3.9091	0.	203.51
16895	23.632	4.	5.e-002	7.6791
16896	23.816	3.9091	0.	186.13
16897	23.816	4.	5.e-002	7.824
16898	23.908	4.	0.	177.69
16899	10.643	3.8182	0.	7818.1
16900	10.551	3.7273	0.	8731.7
16901	10.551	3.8182	5.e-002	532.32
16902	10.827	3.8182	0.	5988.6
16903	10.735	3.7273	0.	6726.1
16904	10.735	3.8182	5.e-002	243.68
16905	11.011	3.8182	0.	4976.8
16906	10.919	3.7273	0.	5512.5
16907	10.919	3.8182	5.e-002	123.
16908	11.196	3.8182	0.	4351.3
16909	11.104	3.7273	0.	4742.1
16910	11.104	3.8182	5.e-002	84.731
16911	11.38	3.8182	0.	3917.8
16912	11.288	3.7273	0.	4208.3
16913	11.288	3.8182	5.e-002	63.349
16914	11.564	3.8182	0.	3601.8
16915	11.472	3.7273	0.	3821.3
16916	11.472	3.8182	5.e-002	50.284
16917	11.748	3.8182	0.	3361.2
16918	11.656	3.7273	0.	3529.5
16919	11.656	3.8182	5.e-002	41.278
16920	11.933	3.8182	0.	3172.1
16921	11.841	3.7273	0.	3302.8
16922	11.841	3.8182	5.e-002	34.611
16923	12.117	3.8182	0.	3019.6
16924	12.025	3.7273	0.	3122.4
16925	12.025	3.8182	5.e-002	29.458
16926	12.301	3.8182	0.	2893.6
16927	12.209	3.7273	0.	2975.6
16928	12.209	3.8182	5.e-002	25.377
16929	12.485	3.8182	0.	2787.4
16930	12.393	3.7273	0.	2853.7
16931	12.393	3.8182	5.e-002	22.103
16932	12.67	3.8182	0.	2696.
16933	12.577	3.7273	0.	2750.6
16934	12.577	3.8182	5.e-002	19.462
16935	12.854	3.8182	0.	2616.
16936	12.762	3.7273	0.	2661.8
16937	12.762	3.8182	5.e-002	17.327
16938	13.038	3.8182	0.	2544.6
16939	12.946	3.7273	0.	2583.7
16940	12.946	3.8182	5.e-002	15.599
16941	13.222	3.8182	0.	2479.9
16942	13.13	3.7273	0.	2514.
16943	13.13	3.8182	5.e-002	14.203
16944	13.407	3.8182	0.	2420.4
16945	13.314	3.7273	0.	2450.7
16946	13.314	3.8182	5.e-002	13.075
16947	13.591	3.8182	0.	2364.7
16948	13.499	3.7273	0.	2392.3
16949	13.499	3.8182	5.e-002	12.164
16950	13.775	3.8182	0.	2312.1
16951	13.683	3.7273	0.	2337.6
16952	13.683	3.8182	5.e-002	11.428
16953	13.959	3.8182	0.	2261.9
16954	13.867	3.7273	0.	2285.9
16955	13.867	3.8182	5.e-002	10.832
16956	14.143	3.8182	0.	2213.4
16957	14.051	3.7273	0.	2236.3
16958	14.051	3.8182	5.e-002	10.348
16959	14.328	3.8182	0.	2166.3
16960	14.236	3.7273	0.	2188.4
16961	14.236	3.8182	5.e-002	9.9537
16962	14.512	3.8182	0.	2120.3
16963	14.42	3.7273	0.	2141.8
16964	14.42	3.8182	5.e-002	9.6302
16965	14.696	3.8182	0.	2075.1
16966	14.604	3.7273	0.	2096.2
16967	14.604	3.8182	5.e-002	9.363
16968	14.88	3.8182	0.	2030.4
16969	14.788	3.7273	0.	2051.3
16970	14.788	3.8182	5.e-002	9.1406
16971	15.065	3.8182	0.	1986.3
16972	14.973	3.7273	0.	2006.9
16973	14.973	3.8182	5.e-002	8.9538
16974	15.249	3.8182	0.	1942.5
16975	15.157	3.7273	0.	1963.
16976	15.157	3.8182	5.e-002	8.7951
16977	15.433	3.8182	0.	1898.9
16978	15.341	3.7273	0.	1919.4
16979	15.341	3.8182	5.e-002	8.6591
16980	15.617	3.8182	0.	1855.6
16981	15.525	3.7273	0.	1876.1
16982	15.525	3.8182	5.e-002	8.541
16983	15.802	3.8182	0.	1812.5
16984	15.709	3.7273	0.	1833.
16985	15.709	3.8182	5.e-002	8.4374
16986	15.986	3.8182	0.	1769.6
16987	15.894	3.7273	0.	1790.
16988	15.894	3.8182	5.e-002	8.3456
16989	16.17	3.8182	0.	1726.7
16990	16.078	3.7273	0.	1747.2
16991	16.078	3.8182	5.e-002	8.2632
16992	16.354	3.8182	0.	1684.
16993	16.262	3.7273	0.	1704.5
16994	16.262	3.8182	5.e-002	8.1886
16995	16.539	3.8182	0.	1641.4
16996	16.446	3.7273	0.	1661.9
16997	16.446	3.8182	5.e-002	8.1204
16998	16.723	3.8182	0.	1598.9
16999	16.631	3.7273	0.	1619.4
17000	16.631	3.8182	5.e-002	8.0575
17001	16.907	3.8182	0.	1556.6
17002	16.815	3.7273	0.	1577.
17003	16.815	3.8182	5.e-002	7.9991
17004	17.091	3.8182	0.	1514.3
17005	16.999	3.7273	0.	1534.8
17006	16.999	3.8182	5.e-002	7.9444
17007	17.275	3.8182	0.	1472.2
17008	17.183	3.7273	0.	1492.6
17009	17.183	3.8182	5.e-002	7.8929
17010	17.46	3.8182	0.	1430.2
17011	17.368	3.7273	0.	1450.6
17012	17.368	3.8182	5.e-002	7.8443
17013	17.644	3.8182	0.	1388.3
17014	17.552	3.7273	0.	1408.7
17015	17.552	3.8182	5.e-002	7.7981
17016	17.828	3.8182	0.	1346.6
17017	17.736	3.7273	0.	1367.
17018	17.736	3.8182	5.e-002	7.7542
17019	18.012	3.8182	0.	1305.
17020	17.92	3.7273	0.	1325.4
17021	17.92	3.8182	5.e-002	7.7122
17022	18.197	3.8182	0.	1263.7
17023	18.105	3.7273	0.	1284.
17024	18.105	3.8182	5.e-002	7.6721
17025	18.381	3.8182	0.	1222.4
17026	18.289	3.7273	0.	1242.7
17027	18.289	3.8182	5.e-002	7.6337
17028	18.565	3.8182	0.	1181.4
17029	18.473	3.7273	0.	1201.6
17030	18.473	3.8182	5.e-002	7.5969
17031	18.749	3.8182	0.	1140.6
17032	18.657	3.7273	0.	1160.7
17033	18.657	3.8182	5.e-002	7.5617
17034	18.934	3.8182	0.	1100.
17035	18.841	3.7273	0.	1120.1
17036	18.841	3.8182	5.e-002	7.528
17037	19.118	3.8182	0.	1059.6
17038	19.026	3.7273	0.	1079.6
17039	19.026	3.8182	5.e-002	7.4958
17040	19.302	3.8182	0.	1019.4
17041	19.21	3.7273	0.	1039.3
17042	19.21	3.8182	5.e-002	7.4651
17043	19.486	3.8182	0.	979.46
17044	19.394	3.7273	0.	999.32
17045	19.394	3.8182	5.e-002	7.436
17046	19.67	3.8182	0.	939.78
17047	19.578	3.7273	0.	959.56
17048	19.578	3.8182	5.e-002	7.4084
17049	19.855	3.8182	0.	900.37
17050	19.763	3.7273	0.	920.07
17051	19.763	3.8182	5.e-002	7.3825
17052	20.039	3.8182	0.	861.24
17053	19.947	3.7273	0.	880.84
17054	19.947	3.8182	5.e-002	7.3583
17055	20.223	3.8182	0.	822.4
17056	20.131	3.7273	0.	841.91
17057	20.131	3.8182	5.e-002	7.336
17058	20.407	3.8182	0.	783.87
17059	20.315	3.7273	0.	803.29
17060	20.315	3.8182	5.e-002	7.3157
17061	20.592	3.8182	0.	745.67
17062	20.5	3.7273	0.	764.98
17063	20.5	3.8182	5.e-002	7.2975
17064	20.776	3.8182	0.	707.82
17065	20.684	3.7273	0.	727.02
17066	20.684	3.8182	5.e-002	7.2817
17067	20.96	3.8182	0.	670.33
17068	20.868	3.7273	0.	689.42
17069	20.868	3.8182	5.e-002	7.2685
17070	21.144	3.8182	0.	633.24
17071	21.052	3.7273	0.	652.2
17072	21.052	3.8182	5.e-002	7.2581
17073	21.329	3.8182	0.	596.57
17074	21.236	3.7273	0.	615.39
17075	21.236	3.8182	5.e-002	7.2509
17076	21.513	3.8182	0.	560.34
17077	21.421	3.7273	0.	579.02
17078	21.421	3.8182	5.e-002	7.2473
17079	21.697	3.8182	0.	524.61
17080	21.605	3.7273	0.	543.12
17081	21.605	3.8182	5.e-002	7.2476
17082	21.881	3.8182	0.	489.41
17083	21.789	3.7273	0.	507.74
17084	21.789	3.8182	5.e-002	7.2524
17085	22.066	3.8182	0.	454.8
17086	21.973	3.7273	0.	472.92
17087	21.973	3.8182	5.e-002	7.2622
17088	22.25	3.8182	0.	420.86
17089	22.158	3.7273	0.	438.73
17090	22.158	3.8182	5.e-002	7.2777
17091	22.434	3.8182	0.	387.68
17092	22.342	3.7273	0.	405.25
17093	22.342	3.8182	5.e-002	7.2995
17094	22.618	3.8182	0.	355.37
17095	22.526	3.7273	0.	372.58
17096	22.526	3.8182	5.e-002	7.3284
17097	22.802	3.8182	0.	324.12
17098	22.71	3.7273	0.	340.87
17099	22.71	3.8182	5.e-002	7.3652
17100	22.987	3.8182	0.	294.15
17101	22.895	3.7273	0.	310.32
17102	22.895	3.8182	5.e-002	7.4105
17103	23.171	3.8182	0.	265.81
17104	23.079	3.7273	0.	281.21
17105	23.079	3.8182	5.e-002	7.4648
17106	23.355	3.8182	0.	239.58
17107	23.263	3.7273	0.	253.95
17108	23.263	3.8182	5.e-002	7.5286
17109	23.539	3.8182	0.	216.15
17110	23.447	3.7273	0.	229.1
17111	23.447	3.8182	5.e-002	7.6016
17112	23.724	3.8182	0.	196.49
17113	23.632	3.7273	0.	207.5
17114	23.632	3.8182	5.e-002	7.6851
17115	23.816	3.7273	0.	190.23
17116	23.816	3.8182	5.e-002	7.8107
17117	23.908	3.8182	0.	182.39
17118	10.643	3.6364	0.	7698.7
17119	10.551	3.5455	0.	8224.
17120	10.551	3.6364	5.e-002	228.92
17121	10.827	3.6364	0.	6271.9
17122	10.735	3.5455	0.	6842.6
17123	10.735	3.6364	5.e-002	180.63
17124	11.011	3.6364	0.	5283.2
17125	10.919	3.5455	0.	5765.2
17126	10.919	3.6364	5.e-002	129.63
17127	11.196	3.6364	0.	4599.7
17128	11.104	3.5455	0.	4978.
17129	11.104	3.6364	5.e-002	91.038
17130	11.38	3.6364	0.	4111.3
17131	11.288	3.5455	0.	4402.5
17132	11.288	3.6364	5.e-002	69.481
17133	11.564	3.6364	0.	3748.3
17134	11.472	3.5455	0.	3972.2
17135	11.472	3.6364	5.e-002	55.451
17136	11.748	3.6364	0.	3470.6
17137	11.656	3.5455	0.	3643.5
17138	11.656	3.6364	5.e-002	45.465
17139	11.933	3.6364	0.	3252.7
17140	11.841	3.5455	0.	3387.5
17141	11.841	3.6364	5.e-002	37.944
17142	12.117	3.6364	0.	3078.2
17143	12.025	3.5455	0.	3184.3
17144	12.025	3.6364	5.e-002	32.09
17145	12.301	3.6364	0.	2935.6
17146	12.209	3.5455	0.	3020.2
17147	12.209	3.6364	5.e-002	27.45
17148	12.485	3.6364	0.	2817.
17149	12.393	3.5455	0.	2885.4
17150	12.393	3.6364	5.e-002	23.738
17151	12.67	3.6364	0.	2716.4
17152	12.577	3.5455	0.	2772.6
17153	12.577	3.6364	5.e-002	20.757
17154	12.854	3.6364	0.	2629.5
17155	12.762	3.5455	0.	2676.6
17156	12.762	3.6364	5.e-002	18.357
17157	13.038	3.6364	0.	2553.1
17158	12.946	3.5455	0.	2593.3
17159	12.946	3.6364	5.e-002	16.423
17160	13.222	3.6364	0.	2484.8
17161	13.13	3.5455	0.	2519.8
17162	13.13	3.6364	5.e-002	14.865
17163	13.407	3.6364	0.	2422.6
17164	13.314	3.5455	0.	2453.7
17165	13.314	3.6364	5.e-002	13.609
17166	13.591	3.6364	0.	2365.2
17167	13.499	3.5455	0.	2393.4
17168	13.499	3.6364	5.e-002	12.596
17169	13.775	3.6364	0.	2311.4
17170	13.683	3.5455	0.	2337.4
17171	13.683	3.6364	5.e-002	11.777
17172	13.959	3.6364	0.	2260.3
17173	13.867	3.5455	0.	2284.7
17174	13.867	3.6364	5.e-002	11.115
17175	14.143	3.6364	0.	2211.3
17176	14.051	3.5455	0.	2234.6
17177	14.051	3.6364	5.e-002	10.577
17178	14.328	3.6364	0.	2163.9
17179	14.236	3.5455	0.	2186.3
17180	14.236	3.6364	5.e-002	10.139
17181	14.512	3.6364	0.	2117.7
17182	14.42	3.5455	0.	2139.5
17183	14.42	3.6364	5.e-002	9.7798
17184	14.696	3.6364	0.	2072.4
17185	14.604	3.5455	0.	2093.8
17186	14.604	3.6364	5.e-002	9.4838
17187	14.88	3.6364	0.	2027.8
17188	14.788	3.5455	0.	2048.9
17189	14.788	3.6364	5.e-002	9.238
17190	15.065	3.6364	0.	1983.7
17191	14.973	3.5455	0.	2004.6
17192	14.973	3.6364	5.e-002	9.0322
17193	15.249	3.6364	0.	1940.
17194	15.157	3.5455	0.	1960.8
17195	15.157	3.6364	5.e-002	8.8584
17196	15.433	3.6364	0.	1896.6
17197	15.341	3.5455	0.	1917.3
17198	15.341	3.6364	5.e-002	8.71
17199	15.617	3.6364	0.	1853.5
17200	15.525	3.5455	0.	1874.1
17201	15.525	3.6364	5.e-002	8.5821
17202	15.802	3.6364	0.	1810.5
17203	15.709	3.5455	0.	1831.1
17204	15.709	3.6364	5.e-002	8.4707
17205	15.986	3.6364	0.	1767.7
17206	15.894	3.5455	0.	1788.3
17207	15.894	3.6364	5.e-002	8.3725
17208	16.17	3.6364	0.	1725.
17209	16.078	3.5455	0.	1745.6
17210	16.078	3.6364	5.e-002	8.2851
17211	16.354	3.6364	0.	1682.4
17212	16.262	3.5455	0.	1703.
17213	16.262	3.6364	5.e-002	8.2065
17214	16.539	3.6364	0.	1639.9
17215	16.446	3.5455	0.	1660.5
17216	16.446	3.6364	5.e-002	8.1351
17217	16.723	3.6364	0.	1597.6
17218	16.631	3.5455	0.	1618.2
17219	16.631	3.6364	5.e-002	8.0697
17220	16.907	3.6364	0.	1555.3
17221	16.815	3.5455	0.	1575.9
17222	16.815	3.6364	5.e-002	8.0092
17223	17.091	3.6364	0.	1513.1
17224	16.999	3.5455	0.	1533.7
17225	16.999	3.6364	5.e-002	7.9529
17226	17.275	3.6364	0.	1471.1
17227	17.183	3.5455	0.	1491.7
17228	17.183	3.6364	5.e-002	7.9001
17229	17.46	3.6364	0.	1429.2
17230	17.368	3.5455	0.	1449.7
17231	17.368	3.6364	5.e-002	7.8505
17232	17.644	3.6364	0.	1387.5
17233	17.552	3.5455	0.	1407.9
17234	17.552	3.6364	5.e-002	7.8035
17235	17.828	3.6364	0.	1345.8
17236	17.736	3.5455	0.	1366.3
17237	17.736	3.6364	5.e-002	7.7589
17238	18.012	3.6364	0.	1304.4
17239	17.92	3.5455	0.	1324.8
17240	17.92	3.6364	5.e-002	7.7165
17241	18.197	3.6364	0.	1263.1
17242	18.105	3.5455	0.	1283.4
17243	18.105	3.6364	5.e-002	7.676
17244	18.381	3.6364	0.	1221.9
17245	18.289	3.5455	0.	1242.2
17246	18.289	3.6364	5.e-002	7.6372
17247	18.565	3.6364	0.	1181.
17248	18.473	3.5455	0.	1201.2
17249	18.473	3.6364	5.e-002	7.6002
17250	18.749	3.6364	0.	1140.2
17251	18.657	3.5455	0.	1160.4
17252	18.657	3.6364	5.e-002	7.5648
17253	18.934	3.6364	0.	1099.7
17254	18.841	3.5455	0.	1119.8
17255	18.841	3.6364	5.e-002	7.531
17256	19.118	3.6364	0.	1059.4
17257	19.026	3.5455	0.	1079.4
17258	19.026	3.6364	5.e-002	7.4987
17259	19.302	3.6364	0.	1019.3
17260	19.21	3.5455	0.	1039.2
17261	19.21	3.6364	5.e-002	7.468
17262	19.486	3.6364	0.	979.47
17263	19.394	3.5455	0.	999.3
17264	19.394	3.6364	5.e-002	7.4388
17265	19.67	3.6364	0.	939.89
17266	19.578	3.5455	0.	959.63
17267	19.578	3.6364	5.e-002	7.4113
17268	19.855	3.6364	0.	900.59
17269	19.763	3.5455	0.	920.22
17270	19.763	3.6364	5.e-002	7.3855
17271	20.039	3.6364	0.	861.56
17272	19.947	3.5455	0.	881.09
17273	19.947	3.6364	5.e-002	7.3614
17274	20.223	3.6364	0.	822.84
17275	20.131	3.5455	0.	842.26
17276	20.131	3.6364	5.e-002	7.3393
17277	20.407	3.6364	0.	784.44
17278	20.315	3.5455	0.	803.74
17279	20.315	3.6364	5.e-002	7.3192
17280	20.592	3.6364	0.	746.37
17281	20.5	3.5455	0.	765.54
17282	20.5	3.6364	5.e-002	7.3013
17283	20.776	3.6364	0.	708.66
17284	20.684	3.5455	0.	727.7
17285	20.684	3.6364	5.e-002	7.2859
17286	20.96	3.6364	0.	671.32
17287	20.868	3.5455	0.	690.22
17288	20.868	3.6364	5.e-002	7.2731
17289	21.144	3.6364	0.	634.38
17290	21.052	3.5455	0.	653.14
17291	21.052	3.6364	5.e-002	7.2632
17292	21.329	3.6364	0.	597.87
17293	21.236	3.5455	0.	616.47
17294	21.236	3.6364	5.e-002	7.2566
17295	21.513	3.6364	0.	561.81
17296	21.421	3.5455	0.	580.24
17297	21.421	3.6364	5.e-002	7.2537
17298	21.697	3.6364	0.	526.26
17299	21.605	3.5455	0.	544.5
17300	21.605	3.6364	5.e-002	7.2548
17301	21.881	3.6364	0.	491.24
17302	21.789	3.5455	0.	509.27
17303	21.789	3.6364	5.e-002	7.2605
17304	22.066	3.6364	0.	456.82
17305	21.973	3.5455	0.	474.61
17306	21.973	3.6364	5.e-002	7.2712
17307	22.25	3.6364	0.	423.06
17308	22.158	3.5455	0.	440.58
17309	22.158	3.6364	5.e-002	7.2877
17310	22.434	3.6364	0.	390.06
17311	22.342	3.5455	0.	407.26
17312	22.342	3.6364	5.e-002	7.3105
17313	22.618	3.6364	0.	357.95
17314	22.526	3.5455	0.	374.76
17315	22.526	3.6364	5.e-002	7.3402
17316	22.802	3.6364	0.	326.88
17317	22.71	3.5455	0.	343.21
17318	22.71	3.6364	5.e-002	7.3775
17319	22.987	3.6364	0.	297.09
17320	22.895	3.5455	0.	312.82
17321	22.895	3.6364	5.e-002	7.4229
17322	23.171	3.6364	0.	268.93
17323	23.079	3.5455	0.	283.86
17324	23.079	3.6364	5.e-002	7.4767
17325	23.355	3.6364	0.	242.87
17326	23.263	3.5455	0.	256.74
17327	23.263	3.6364	5.e-002	7.5392
17328	23.539	3.6364	0.	219.6
17329	23.447	3.5455	0.	232.04
17330	23.447	3.6364	5.e-002	7.6099
17331	23.724	3.6364	0.	200.06
17332	23.632	3.5455	0.	210.57
17333	23.632	3.6364	5.e-002	7.6895
17334	23.816	3.5455	0.	193.37
17335	23.816	3.6364	5.e-002	7.7999
17336	23.908	3.6364	0.	186.09
17337	10.643	3.4545	0.	7390.9
17338	10.551	3.3636	0.	7745.4
17339	10.551	3.4545	5.e-002	127.95
17340	10.827	3.4545	0.	6356.7
17341	10.735	3.3636	0.	6802.1
17342	10.735	3.4545	5.e-002	135.72
17343	11.011	3.4545	0.	5469.9
17344	10.919	3.3636	0.	5888.3
17345	10.919	3.4545	5.e-002	112.6
17346	11.196	3.4545	0.	4784.8
17347	11.104	3.3636	0.	5135.
17348	11.104	3.4545	5.e-002	90.7
17349	11.38	3.4545	0.	4264.9
17350	11.288	3.3636	0.	4544.2
17351	11.288	3.4545	5.e-002	72.82
17352	11.564	3.4545	0.	3867.9
17353	11.472	3.3636	0.	4086.7
17354	11.472	3.4545	5.e-002	59.266
17355	11.748	3.4545	0.	3560.6
17356	11.656	3.3636	0.	3731.4
17357	11.656	3.4545	5.e-002	48.863
17358	11.933	3.4545	0.	3319.1
17359	11.841	3.3636	0.	3453.
17360	11.841	3.4545	5.e-002	40.727
17361	12.117	3.4545	0.	3126.4
17362	12.025	3.3636	0.	3232.2
17363	12.025	3.4545	5.e-002	34.289
17364	12.301	3.4545	0.	2970.
17365	12.209	3.3636	0.	3054.6
17366	12.209	3.4545	5.e-002	29.164
17367	12.485	3.4545	0.	2841.
17368	12.393	3.3636	0.	2909.7
17369	12.393	3.4545	5.e-002	25.07
17370	12.67	3.4545	0.	2732.8
17371	12.577	3.3636	0.	2789.4
17372	12.577	3.4545	5.e-002	21.795
17373	12.854	3.4545	0.	2640.4
17374	12.762	3.3636	0.	2687.8
17375	12.762	3.4545	5.e-002	19.17
17376	13.038	3.4545	0.	2560.
17377	12.946	3.3636	0.	2600.6
17378	12.946	3.4545	5.e-002	17.065
17379	13.222	3.4545	0.	2488.7
17380	13.13	3.3636	0.	2524.1
17381	13.13	3.4545	5.e-002	15.376
17382	13.407	3.4545	0.	2424.5
17383	13.314	3.3636	0.	2456.
17384	13.314	3.4545	5.e-002	14.018
17385	13.591	3.4545	0.	2365.6
17386	13.499	3.3636	0.	2394.2
17387	13.499	3.4545	5.e-002	12.924
17388	13.775	3.4545	0.	2310.8
17389	13.683	3.3636	0.	2337.2
17390	13.683	3.4545	5.e-002	12.042
17391	13.959	3.4545	0.	2259.
17392	13.867	3.3636	0.	2283.9
17393	13.867	3.4545	5.e-002	11.329
17394	14.143	3.4545	0.	2209.6
17395	14.051	3.3636	0.	2233.3
17396	14.051	3.4545	5.e-002	10.751
17397	14.328	3.4545	0.	2162.
17398	14.236	3.3636	0.	2184.8
17399	14.236	3.4545	5.e-002	10.279
17400	14.512	3.4545	0.	2115.7
17401	14.42	3.3636	0.	2137.9
17402	14.42	3.4545	5.e-002	9.8935
17403	14.696	3.4545	0.	2070.3
17404	14.604	3.3636	0.	2092.1
17405	14.604	3.4545	5.e-002	9.5757
17406	14.88	3.4545	0.	2025.8
17407	14.788	3.3636	0.	2047.2
17408	14.788	3.4545	5.e-002	9.3123
17409	15.065	3.4545	0.	1981.8
17410	14.973	3.3636	0.	2003.
17411	14.973	3.4545	5.e-002	9.0922
17412	15.249	3.4545	0.	1938.2
17413	15.157	3.3636	0.	1959.2
17414	15.157	3.4545	5.e-002	8.9068
17415	15.433	3.4545	0.	1894.9
17416	15.341	3.3636	0.	1915.8
17417	15.341	3.4545	5.e-002	8.7491
17418	15.617	3.4545	0.	1851.8
17419	15.525	3.3636	0.	1872.7
17420	15.525	3.4545	5.e-002	8.6137
17421	15.802	3.4545	0.	1808.9
17422	15.709	3.3636	0.	1829.8
17423	15.709	3.4545	5.e-002	8.4963
17424	15.986	3.4545	0.	1766.2
17425	15.894	3.3636	0.	1787.
17426	15.894	3.4545	5.e-002	8.3933
17427	16.17	3.4545	0.	1723.6
17428	16.078	3.3636	0.	1744.4
17429	16.078	3.4545	5.e-002	8.302
17430	16.354	3.4545	0.	1681.2
17431	16.262	3.3636	0.	1701.9
17432	16.262	3.4545	5.e-002	8.2203
17433	16.539	3.4545	0.	1638.8
17434	16.446	3.3636	0.	1659.5
17435	16.446	3.4545	5.e-002	8.1464
17436	16.723	3.4545	0.	1596.5
17437	16.631	3.3636	0.	1617.2
17438	16.631	3.4545	5.e-002	8.079
17439	16.907	3.4545	0.	1554.3
17440	16.815	3.3636	0.	1575.1
17441	16.815	3.4545	5.e-002	8.017
17442	17.091	3.4545	0.	1512.3
17443	16.999	3.3636	0.	1533.
17444	16.999	3.4545	5.e-002	7.9594
17445	17.275	3.4545	0.	1470.3
17446	17.183	3.3636	0.	1491.
17447	17.183	3.4545	5.e-002	7.9057
17448	17.46	3.4545	0.	1428.5
17449	17.368	3.3636	0.	1449.1
17450	17.368	3.4545	5.e-002	7.8552
17451	17.644	3.4545	0.	1386.8
17452	17.552	3.3636	0.	1407.4
17453	17.552	3.4545	5.e-002	7.8076
17454	17.828	3.4545	0.	1345.3
17455	17.736	3.3636	0.	1365.8
17456	17.736	3.4545	5.e-002	7.7625
17457	18.012	3.4545	0.	1303.9
17458	17.92	3.3636	0.	1324.3
17459	17.92	3.4545	5.e-002	7.7197
17460	18.197	3.4545	0.	1262.6
17461	18.105	3.3636	0.	1283.
17462	18.105	3.4545	5.e-002	7.6789
17463	18.381	3.4545	0.	1221.6
17464	18.289	3.3636	0.	1241.9
17465	18.289	3.4545	5.e-002	7.6399
17466	18.565	3.4545	0.	1180.7
17467	18.473	3.3636	0.	1200.9
17468	18.473	3.4545	5.e-002	7.6027
17469	18.749	3.4545	0.	1140.
17470	18.657	3.3636	0.	1160.2
17471	18.657	3.4545	5.e-002	7.5672
17472	18.934	3.4545	0.	1099.5
17473	18.841	3.3636	0.	1119.6
17474	18.841	3.4545	5.e-002	7.5332
17475	19.118	3.4545	0.	1059.3
17476	19.026	3.3636	0.	1079.3
17477	19.026	3.4545	5.e-002	7.5009
17478	19.302	3.4545	0.	1019.3
17479	19.21	3.3636	0.	1039.2
17480	19.21	3.4545	5.e-002	7.4701
17481	19.486	3.4545	0.	979.5
17482	19.394	3.3636	0.	999.29
17483	19.394	3.4545	5.e-002	7.441
17484	19.67	3.4545	0.	939.99
17485	19.578	3.3636	0.	959.68
17486	19.578	3.4545	5.e-002	7.4135
17487	19.855	3.4545	0.	900.76
17488	19.763	3.3636	0.	920.34
17489	19.763	3.4545	5.e-002	7.3877
17490	20.039	3.4545	0.	861.82
17491	19.947	3.3636	0.	881.28
17492	19.947	3.4545	5.e-002	7.3638
17493	20.223	3.4545	0.	823.19
17494	20.131	3.3636	0.	842.52
17495	20.131	3.4545	5.e-002	7.3418
17496	20.407	3.4545	0.	784.88
17497	20.315	3.3636	0.	804.07
17498	20.315	3.4545	5.e-002	7.3218
17499	20.592	3.4545	0.	746.91
17500	20.5	3.3636	0.	765.96
17501	20.5	3.4545	5.e-002	7.3042
17502	20.776	3.4545	0.	709.3
17503	20.684	3.3636	0.	728.2
17504	20.684	3.4545	5.e-002	7.289
17505	20.96	3.4545	0.	672.08
17506	20.868	3.3636	0.	690.81
17507	20.868	3.4545	5.e-002	7.2766
17508	21.144	3.4545	0.	635.25
17509	21.052	3.3636	0.	653.82
17510	21.052	3.4545	5.e-002	7.2671
17511	21.329	3.4545	0.	598.86
17512	21.236	3.3636	0.	617.25
17513	21.236	3.4545	5.e-002	7.2609
17514	21.513	3.4545	0.	562.94
17515	21.421	3.3636	0.	581.13
17516	21.421	3.4545	5.e-002	7.2585
17517	21.697	3.4545	0.	527.51
17518	21.605	3.3636	0.	545.49
17519	21.605	3.4545	5.e-002	7.2602
17520	21.881	3.4545	0.	492.63
17521	21.789	3.3636	0.	510.38
17522	21.789	3.4545	5.e-002	7.2666
17523	22.066	3.4545	0.	458.34
17524	21.973	3.3636	0.	475.83
17525	21.973	3.4545	5.e-002	7.2781
17526	22.25	3.4545	0.	424.72
17527	22.158	3.3636	0.	441.92
17528	22.158	3.4545	5.e-002	7.2953
17529	22.434	3.4545	0.	391.86
17530	22.342	3.3636	0.	408.71
17531	22.342	3.4545	5.e-002	7.3187
17532	22.618	3.4545	0.	359.88
17533	22.526	3.3636	0.	376.32
17534	22.526	3.4545	5.e-002	7.349
17535	22.802	3.4545	0.	328.94
17536	22.71	3.3636	0.	344.88
17537	22.71	3.4545	5.e-002	7.3866
17538	22.987	3.4545	0.	299.28
17539	22.895	3.3636	0.	314.59
17540	22.895	3.4545	5.e-002	7.432
17541	23.171	3.4545	0.	271.25
17542	23.079	3.3636	0.	285.74
17543	23.079	3.4545	5.e-002	7.4853
17544	23.355	3.4545	0.	245.31
17545	23.263	3.3636	0.	258.73
17546	23.263	3.4545	5.e-002	7.5468
17547	23.539	3.4545	0.	222.16
17548	23.447	3.3636	0.	234.12
17549	23.447	3.4545	5.e-002	7.6158
17550	23.724	3.4545	0.	202.71
17551	23.632	3.3636	0.	212.74
17552	23.632	3.4545	5.e-002	7.6926
17553	23.816	3.3636	0.	195.6
17554	23.816	3.4545	5.e-002	7.7916
17555	23.908	3.4545	0.	188.84
17556	10.643	3.2727	0.	7168.6
17557	10.551	3.1818	0.	7481.4
17558	10.551	3.2727	5.e-002	78.503
17559	10.827	3.2727	0.	6349.1
17560	10.735	3.1818	0.	6733.
17561	10.735	3.2727	5.e-002	99.282
17562	11.011	3.2727	0.	5564.1
17563	10.919	3.1818	0.	5935.1
17564	10.919	3.2727	5.e-002	97.89
17565	11.196	3.2727	0.	4900.5
17566	11.104	3.1818	0.	5219.6
17567	11.104	3.2727	5.e-002	86.696
17568	11.38	3.2727	0.	4369.2
17569	11.288	3.1818	0.	4628.6
17570	11.288	3.2727	5.e-002	73.602
17571	11.564	3.2727	0.	3951.9
17572	11.472	3.1818	0.	4157.7
17573	11.472	3.2727	5.e-002	61.483
17574	11.748	3.2727	0.	3624.7
17575	11.656	3.1818	0.	3786.8
17576	11.656	3.2727	5.e-002	51.176
17577	11.933	3.2727	0.	3366.5
17578	11.841	3.1818	0.	3494.5
17579	11.841	3.2727	5.e-002	42.713
17580	12.117	3.2727	0.	3160.7
17581	12.025	3.1818	0.	3262.5
17582	12.025	3.2727	5.e-002	35.877
17583	12.301	3.2727	0.	2994.4
17584	12.209	3.1818	0.	3076.4
17585	12.209	3.2727	5.e-002	30.397
17586	12.485	3.2727	0.	2858.1
17587	12.393	3.1818	0.	2925.
17588	12.393	3.2727	5.e-002	26.019
17589	12.67	3.2727	0.	2744.4
17590	12.577	3.1818	0.	2800.
17591	12.577	3.2727	5.e-002	22.525
17592	12.854	3.2727	0.	2648.
17593	12.762	3.1818	0.	2694.9
17594	12.762	3.2727	5.e-002	19.736
17595	13.038	3.2727	0.	2564.8
17596	12.946	3.1818	0.	2605.1
17597	12.946	3.2727	5.e-002	17.507
17598	13.222	3.2727	0.	2491.5
17599	13.13	3.1818	0.	2526.9
17600	13.13	3.2727	5.e-002	15.724
17601	13.407	3.2727	0.	2425.8
17602	13.314	3.1818	0.	2457.5
17603	13.314	3.2727	5.e-002	14.295
17604	13.591	3.2727	0.	2365.9
17605	13.499	3.1818	0.	2394.8
17606	13.499	3.2727	5.e-002	13.146
17607	13.775	3.2727	0.	2310.4
17608	13.683	3.1818	0.	2337.1
17609	13.683	3.2727	5.e-002	12.221
17610	13.959	3.2727	0.	2258.2
17611	13.867	3.1818	0.	2283.4
17612	13.867	3.2727	5.e-002	11.473
17613	14.143	3.2727	0.	2208.5
17614	14.051	3.1818	0.	2232.5
17615	14.051	3.2727	5.e-002	10.867
17616	14.328	3.2727	0.	2160.7
17617	14.236	3.1818	0.	2183.8
17618	14.236	3.2727	5.e-002	10.374
17619	14.512	3.2727	0.	2114.3
17620	14.42	3.1818	0.	2136.8
17621	14.42	3.2727	5.e-002	9.9698
17622	14.696	3.2727	0.	2068.9
17623	14.604	3.1818	0.	2091.
17624	14.604	3.2727	5.e-002	9.6375
17625	14.88	3.2727	0.	2024.4
17626	14.788	3.1818	0.	2046.1
17627	14.788	3.2727	5.e-002	9.3623
17628	15.065	3.2727	0.	1980.4
17629	14.973	3.1818	0.	2001.9
17630	14.973	3.2727	5.e-002	9.1327
17631	15.249	3.2727	0.	1936.9
17632	15.157	3.1818	0.	1958.2
17633	15.157	3.2727	5.e-002	8.9395
17634	15.433	3.2727	0.	1893.7
17635	15.341	3.1818	0.	1914.9
17636	15.341	3.2727	5.e-002	8.7756
17637	15.617	3.2727	0.	1850.7
17638	15.525	3.1818	0.	1871.8
17639	15.525	3.2727	5.e-002	8.6351
17640	15.802	3.2727	0.	1807.9
17641	15.709	3.1818	0.	1829.
17642	15.709	3.2727	5.e-002	8.5136
17643	15.986	3.2727	0.	1765.3
17644	15.894	3.1818	0.	1786.3
17645	15.894	3.2727	5.e-002	8.4073
17646	16.17	3.2727	0.	1722.7
17647	16.078	3.1818	0.	1743.7
17648	16.078	3.2727	5.e-002	8.3134
17649	16.354	3.2727	0.	1680.3
17650	16.262	3.1818	0.	1701.3
17651	16.262	3.2727	5.e-002	8.2296
17652	16.539	3.2727	0.	1638.
17653	16.446	3.1818	0.	1658.9
17654	16.446	3.2727	5.e-002	8.1541
17655	16.723	3.2727	0.	1595.8
17656	16.631	3.1818	0.	1616.7
17657	16.631	3.2727	5.e-002	8.0853
17658	16.907	3.2727	0.	1553.7
17659	16.815	3.1818	0.	1574.5
17660	16.815	3.2727	5.e-002	8.0222
17661	17.091	3.2727	0.	1511.7
17662	16.999	3.1818	0.	1532.5
17663	16.999	3.2727	5.e-002	7.9639
17664	17.275	3.2727	0.	1469.8
17665	17.183	3.1818	0.	1490.6
17666	17.183	3.2727	5.e-002	7.9094
17667	17.46	3.2727	0.	1428.
17668	17.368	3.1818	0.	1448.7
17669	17.368	3.2727	5.e-002	7.8584
17670	17.644	3.2727	0.	1386.4
17671	17.552	3.1818	0.	1407.
17672	17.552	3.2727	5.e-002	7.8104
17673	17.828	3.2727	0.	1344.9
17674	17.736	3.1818	0.	1365.5
17675	17.736	3.2727	5.e-002	7.765
17676	18.012	3.2727	0.	1303.5
17677	17.92	3.1818	0.	1324.
17678	17.92	3.2727	5.e-002	7.7219
17679	18.197	3.2727	0.	1262.3
17680	18.105	3.1818	0.	1282.8
17681	18.105	3.2727	5.e-002	7.6808
17682	18.381	3.2727	0.	1221.3
17683	18.289	3.1818	0.	1241.7
17684	18.289	3.2727	5.e-002	7.6417
17685	18.565	3.2727	0.	1180.5
17686	18.473	3.1818	0.	1200.8
17687	18.473	3.2727	5.e-002	7.6044
17688	18.749	3.2727	0.	1139.8
17689	18.657	3.1818	0.	1160.
17690	18.657	3.2727	5.e-002	7.5687
17691	18.934	3.2727	0.	1099.4
17692	18.841	3.1818	0.	1119.5
17693	18.841	3.2727	5.e-002	7.5347
17694	19.118	3.2727	0.	1059.2
17695	19.026	3.1818	0.	1079.2
17696	19.026	3.2727	5.e-002	7.5023
17697	19.302	3.2727	0.	1019.2
17698	19.21	3.1818	0.	1039.1
17699	19.21	3.2727	5.e-002	7.4716
17700	19.486	3.2727	0.	979.52
17701	19.394	3.1818	0.	999.29
17702	19.394	3.2727	5.e-002	7.4424
17703	19.67	3.2727	0.	940.06
17704	19.578	3.1818	0.	959.72
17705	19.578	3.2727	5.e-002	7.415
17706	19.855	3.2727	0.	900.89
17707	19.763	3.1818	0.	920.41
17708	19.763	3.2727	5.e-002	7.3892
17709	20.039	3.2727	0.	862.01
17710	19.947	3.1818	0.	881.39
17711	19.947	3.2727	5.e-002	7.3654
17712	20.223	3.2727	0.	823.43
17713	20.131	3.1818	0.	842.67
17714	20.131	3.2727	5.e-002	7.3434
17715	20.407	3.2727	0.	785.19
17716	20.315	3.1818	0.	804.28
17717	20.315	3.2727	5.e-002	7.3236
17718	20.592	3.2727	0.	747.28
17719	20.5	3.1818	0.	766.21
17720	20.5	3.2727	5.e-002	7.3061
17721	20.776	3.2727	0.	709.74
17722	20.684	3.1818	0.	728.51
17723	20.684	3.2727	5.e-002	7.2911
17724	20.96	3.2727	0.	672.59
17725	20.868	3.1818	0.	691.17
17726	20.868	3.2727	5.e-002	7.2789
17727	21.144	3.2727	0.	635.85
17728	21.052	3.1818	0.	654.24
17729	21.052	3.2727	5.e-002	7.2697
17730	21.329	3.2727	0.	599.54
17731	21.236	3.1818	0.	617.73
17732	21.236	3.2727	5.e-002	7.2639
17733	21.513	3.2727	0.	563.7
17734	21.421	3.1818	0.	581.67
17735	21.421	3.2727	5.e-002	7.2618
17736	21.697	3.2727	0.	528.36
17737	21.605	3.1818	0.	546.1
17738	21.605	3.2727	5.e-002	7.2639
17739	21.881	3.2727	0.	493.56
17740	21.789	3.1818	0.	511.05
17741	21.789	3.2727	5.e-002	7.2707
17742	22.066	3.2727	0.	459.37
17743	21.973	3.1818	0.	476.57
17744	21.973	3.2727	5.e-002	7.2827
17745	22.25	3.2727	0.	425.84
17746	22.158	3.1818	0.	442.72
17747	22.158	3.2727	5.e-002	7.3003
17748	22.434	3.2727	0.	393.06
17749	22.342	3.1818	0.	409.58
17750	22.342	3.2727	5.e-002	7.3242
17751	22.618	3.2727	0.	361.17
17752	22.526	3.1818	0.	377.25
17753	22.526	3.2727	5.e-002	7.3548
17754	22.802	3.2727	0.	330.31
17755	22.71	3.1818	0.	345.88
17756	22.71	3.2727	5.e-002	7.3926
17757	22.987	3.2727	0.	300.74
17758	22.895	3.1818	0.	315.65
17759	22.895	3.2727	5.e-002	7.438
17760	23.171	3.2727	0.	272.79
17761	23.079	3.1818	0.	286.86
17762	23.079	3.2727	5.e-002	7.491
17763	23.355	3.2727	0.	246.93
17764	23.263	3.1818	0.	259.91
17765	23.263	3.2727	5.e-002	7.5517
17766	23.539	3.2727	0.	223.86
17767	23.447	3.1818	0.	235.37
17768	23.447	3.2727	5.e-002	7.6196
17769	23.724	3.2727	0.	204.47
17770	23.632	3.1818	0.	214.03
17771	23.632	3.2727	5.e-002	7.6945
17772	23.816	3.1818	0.	196.93
17773	23.816	3.2727	5.e-002	7.786
17774	23.908	3.2727	0.	190.66
17775	10.643	3.0909	0.	7055.
17776	10.551	3.	0.	7396.
17777	10.551	3.0909	5.e-002	61.456
17778	10.827	3.0909	0.	6331.2
17779	10.735	3.	0.	6705.4
17780	10.735	3.0909	5.e-002	83.45
17781	11.011	3.0909	0.	5600.8
17782	10.919	3.	0.	5946.
17783	10.919	3.0909	5.e-002	89.037
17784	11.196	3.0909	0.	4954.6
17785	11.104	3.	0.	5245.7
17786	11.104	3.0909	5.e-002	83.613
17787	11.38	3.0909	0.	4421.3
17788	11.288	3.	0.	4656.4
17789	11.288	3.0909	5.e-002	73.438
17790	11.564	3.0909	0.	3995.
17791	11.472	3.	0.	4181.6
17792	11.472	3.0909	5.e-002	62.408
17793	11.748	3.0909	0.	3657.9
17794	11.656	3.	0.	3805.7
17795	11.656	3.0909	5.e-002	52.315
17796	11.933	3.0909	0.	3391.2
17797	11.841	3.	0.	3508.7
17798	11.841	3.0909	5.e-002	43.739
17799	12.117	3.0909	0.	3178.6
17800	12.025	3.	0.	3272.9
17801	12.025	3.0909	5.e-002	36.708
17802	12.301	3.0909	0.	3007.2
17803	12.209	3.	0.	3083.9
17804	12.209	3.0909	5.e-002	31.043
17805	12.485	3.0909	0.	2867.
17806	12.393	3.	0.	2930.2
17807	12.393	3.0909	5.e-002	26.513
17808	12.67	3.0909	0.	2750.5
17809	12.577	3.	0.	2803.6
17810	12.577	3.0909	5.e-002	22.903
17811	12.854	3.0909	0.	2652.
17812	12.762	3.	0.	2697.3
17813	12.762	3.0909	5.e-002	20.027
17814	13.038	3.0909	0.	2567.2
17815	12.946	3.	0.	2606.7
17816	12.946	3.0909	5.e-002	17.733
17817	13.222	3.0909	0.	2492.9
17818	13.13	3.	0.	2527.8
17819	13.13	3.0909	5.e-002	15.901
17820	13.407	3.0909	0.	2426.4
17821	13.314	3.	0.	2458.
17822	13.314	3.0909	5.e-002	14.434
17823	13.591	3.0909	0.	2366.
17824	13.499	3.	0.	2394.9
17825	13.499	3.0909	5.e-002	13.257
17826	13.775	3.0909	0.	2310.2
17827	13.683	3.	0.	2337.1
17828	13.683	3.0909	5.e-002	12.31
17829	13.959	3.0909	0.	2257.7
17830	13.867	3.	0.	2283.2
17831	13.867	3.0909	5.e-002	11.546
17832	14.143	3.0909	0.	2207.9
17833	14.051	3.	0.	2232.3
17834	14.051	3.0909	5.e-002	10.926
17835	14.328	3.0909	0.	2160.
17836	14.236	3.	0.	2183.5
17837	14.236	3.0909	5.e-002	10.421
17838	14.512	3.0909	0.	2113.6
17839	14.42	3.	0.	2136.5
17840	14.42	3.0909	5.e-002	10.008
17841	14.696	3.0909	0.	2068.2
17842	14.604	3.	0.	2090.7
17843	14.604	3.0909	5.e-002	9.6686
17844	14.88	3.0909	0.	2023.7
17845	14.788	3.	0.	2045.8
17846	14.788	3.0909	5.e-002	9.3875
17847	15.065	3.0909	0.	1979.7
17848	14.973	3.	0.	2001.6
17849	14.973	3.0909	5.e-002	9.153
17850	15.249	3.0909	0.	1936.2
17851	15.157	3.	0.	1957.9
17852	15.157	3.0909	5.e-002	8.956
17853	15.433	3.0909	0.	1893.
17854	15.341	3.	0.	1914.6
17855	15.341	3.0909	5.e-002	8.7889
17856	15.617	3.0909	0.	1850.1
17857	15.525	3.	0.	1871.5
17858	15.525	3.0909	5.e-002	8.6459
17859	15.802	3.0909	0.	1807.4
17860	15.709	3.	0.	1828.7
17861	15.709	3.0909	5.e-002	8.5223
17862	15.986	3.0909	0.	1764.8
17863	15.894	3.	0.	1786.
17864	15.894	3.0909	5.e-002	8.4144
17865	16.17	3.0909	0.	1722.3
17866	16.078	3.	0.	1743.5
17867	16.078	3.0909	5.e-002	8.3192
17868	16.354	3.0909	0.	1679.9
17869	16.262	3.	0.	1701.1
17870	16.262	3.0909	5.e-002	8.2344
17871	16.539	3.0909	0.	1637.6
17872	16.446	3.	0.	1658.7
17873	16.446	3.0909	5.e-002	8.158
17874	16.723	3.0909	0.	1595.5
17875	16.631	3.	0.	1616.5
17876	16.631	3.0909	5.e-002	8.0885
17877	16.907	3.0909	0.	1553.4
17878	16.815	3.	0.	1574.4
17879	16.815	3.0909	5.e-002	8.0249
17880	17.091	3.0909	0.	1511.4
17881	16.999	3.	0.	1532.3
17882	16.999	3.0909	5.e-002	7.9661
17883	17.275	3.0909	0.	1469.5
17884	17.183	3.	0.	1490.4
17885	17.183	3.0909	5.e-002	7.9113
17886	17.46	3.0909	0.	1427.8
17887	17.368	3.	0.	1448.6
17888	17.368	3.0909	5.e-002	7.86
17889	17.644	3.0909	0.	1386.2
17890	17.552	3.	0.	1406.9
17891	17.552	3.0909	5.e-002	7.8118
17892	17.828	3.0909	0.	1344.7
17893	17.736	3.	0.	1365.4
17894	17.736	3.0909	5.e-002	7.7662
17895	18.012	3.0909	0.	1303.3
17896	17.92	3.	0.	1324.
17897	17.92	3.0909	5.e-002	7.723
17898	18.197	3.0909	0.	1262.2
17899	18.105	3.	0.	1282.7
17900	18.105	3.0909	5.e-002	7.6818
17901	18.381	3.0909	0.	1221.2
17902	18.289	3.	0.	1241.6
17903	18.289	3.0909	5.e-002	7.6426
17904	18.565	3.0909	0.	1180.4
17905	18.473	3.	0.	1200.7
17906	18.473	3.0909	5.e-002	7.6052
17907	18.749	3.0909	0.	1139.7
17908	18.657	3.	0.	1160.
17909	18.657	3.0909	5.e-002	7.5695
17910	18.934	3.0909	0.	1099.3
17911	18.841	3.	0.	1119.5
17912	18.841	3.0909	5.e-002	7.5355
17913	19.118	3.0909	0.	1059.2
17914	19.026	3.	0.	1079.2
17915	19.026	3.0909	5.e-002	7.5031
17916	19.302	3.0909	0.	1019.2
17917	19.21	3.	0.	1039.1
17918	19.21	3.0909	5.e-002	7.4723
17919	19.486	3.0909	0.	979.53
17920	19.394	3.	0.	999.29
17921	19.394	3.0909	5.e-002	7.4432
17922	19.67	3.0909	0.	940.1
17923	19.578	3.	0.	959.73
17924	19.578	3.0909	5.e-002	7.4157
17925	19.855	3.0909	0.	900.95
17926	19.763	3.	0.	920.44
17927	19.763	3.0909	5.e-002	7.39
17928	20.039	3.0909	0.	862.1
17929	19.947	3.	0.	881.43
17930	19.947	3.0909	5.e-002	7.3661
17931	20.223	3.0909	0.	823.56
17932	20.131	3.	0.	842.73
17933	20.131	3.0909	5.e-002	7.3443
17934	20.407	3.0909	0.	785.34
17935	20.315	3.	0.	804.35
17936	20.315	3.0909	5.e-002	7.3245
17937	20.592	3.0909	0.	747.47
17938	20.5	3.	0.	766.3
17939	20.5	3.0909	5.e-002	7.3071
17940	20.776	3.0909	0.	709.97
17941	20.684	3.	0.	728.61
17942	20.684	3.0909	5.e-002	7.2922
17943	20.96	3.0909	0.	672.85
17944	20.868	3.	0.	691.3
17945	20.868	3.0909	5.e-002	7.2801
17946	21.144	3.0909	0.	636.15
17947	21.052	3.	0.	654.38
17948	21.052	3.0909	5.e-002	7.271
17949	21.329	3.0909	0.	599.88
17950	21.236	3.	0.	617.89
17951	21.236	3.0909	5.e-002	7.2653
17952	21.513	3.0909	0.	564.08
17953	21.421	3.	0.	581.85
17954	21.421	3.0909	5.e-002	7.2635
17955	21.697	3.0909	0.	528.78
17956	21.605	3.	0.	546.3
17957	21.605	3.0909	5.e-002	7.2658
17958	21.881	3.0909	0.	494.03
17959	21.789	3.	0.	511.27
17960	21.789	3.0909	5.e-002	7.2728
17961	22.066	3.0909	0.	459.88
17962	21.973	3.	0.	476.81
17963	21.973	3.0909	5.e-002	7.285
17964	22.25	3.0909	0.	426.39
17965	22.158	3.	0.	442.99
17966	22.158	3.0909	5.e-002	7.3029
17967	22.434	3.0909	0.	393.66
17968	22.342	3.	0.	409.87
17969	22.342	3.0909	5.e-002	7.3269
17970	22.618	3.0909	0.	361.81
17971	22.526	3.	0.	377.56
17972	22.526	3.0909	5.e-002	7.3577
17973	22.802	3.0909	0.	331.
17974	22.71	3.	0.	346.21
17975	22.71	3.0909	5.e-002	7.3956
17976	22.987	3.0909	0.	301.47
17977	22.895	3.	0.	316.01
17978	22.895	3.0909	5.e-002	7.4409
17979	23.171	3.0909	0.	273.55
17980	23.079	3.	0.	287.24
17981	23.079	3.0909	5.e-002	7.4937
17982	23.355	3.0909	0.	247.74
17983	23.263	3.	0.	260.31
17984	23.263	3.0909	5.e-002	7.5541
17985	23.539	3.0909	0.	224.7
17986	23.447	3.	0.	235.78
17987	23.447	3.0909	5.e-002	7.6214
17988	23.724	3.0909	0.	205.34
17989	23.632	3.	0.	214.47
17990	23.632	3.0909	5.e-002	7.6954
17991	23.816	3.	0.	197.37
17992	23.816	3.0909	5.e-002	7.7832
17993	23.908	3.0909	0.	191.56
17994	10.643	2.9091	0.	7055.
17995	10.551	2.8182	0.	7481.4
17996	10.551	2.9091	5.e-002	61.456
17997	10.827	2.9091	0.	6331.2
17998	10.735	2.8182	0.	6733.
17999	10.735	2.9091	5.e-002	83.45
18000	11.011	2.9091	0.	5600.8
18001	10.919	2.8182	0.	5935.1
18002	10.919	2.9091	5.e-002	89.037
18003	11.196	2.9091	0.	4954.6
18004	11.104	2.8182	0.	5219.6
18005	11.104	2.9091	5.e-002	83.613
18006	11.38	2.9091	0.	4421.3
18007	11.288	2.8182	0.	4628.6
18008	11.288	2.9091	5.e-002	73.438
18009	11.564	2.9091	0.	3995.
18010	11.472	2.8182	0.	4157.7
18011	11.472	2.9091	5.e-002	62.408
18012	11.748	2.9091	0.	3657.9
18013	11.656	2.8182	0.	3786.8
18014	11.656	2.9091	5.e-002	52.315
18015	11.933	2.9091	0.	3391.2
18016	11.841	2.8182	0.	3494.5
18017	11.841	2.9091	5.e-002	43.739
18018	12.117	2.9091	0.	3178.6
18019	12.025	2.8182	0.	3262.5
18020	12.025	2.9091	5.e-002	36.708
18021	12.301	2.9091	0.	3007.2
18022	12.209	2.8182	0.	3076.4
18023	12.209	2.9091	5.e-002	31.043
18024	12.485	2.9091	0.	2867.
18025	12.393	2.8182	0.	2925.
18026	12.393	2.9091	5.e-002	26.513
18027	12.67	2.9091	0.	2750.5
18028	12.577	2.8182	0.	2800.
18029	12.577	2.9091	5.e-002	22.903
18030	12.854	2.9091	0.	2652.
18031	12.762	2.8182	0.	2694.9
18032	12.762	2.9091	5.e-002	20.027
18033	13.038	2.9091	0.	2567.2
18034	12.946	2.8182	0.	2605.1
18035	12.946	2.9091	5.e-002	17.733
18036	13.222	2.9091	0.	2492.9
18037	13.13	2.8182	0.	2526.9
18038	13.13	2.9091	5.e-002	15.901
18039	13.407	2.9091	0.	2426.4
18040	13.314	2.8182	0.	2457.5
18041	13.314	2.9091	5.e-002	14.434
18042	13.591	2.9091	0.	2366.
18043	13.499	2.8182	0.	2394.8
18044	13.499	2.9091	5.e-002	13.257
18045	13.775	2.9091	0.	2310.2
18046	13.683	2.8182	0.	2337.1
18047	13.683	2.9091	5.e-002	12.31
18048	13.959	2.9091	0.	2257.7
18049	13.867	2.8182	0.	2283.4
18050	13.867	2.9091	5.e-002	11.546
18051	14.143	2.9091	0.	2207.9
18052	14.051	2.8182	0.	2232.5
18053	14.051	2.9091	5.e-002	10.926
18054	14.328	2.9091	0.	2160.
18055	14.236	2.8182	0.	2183.8
18056	14.236	2.9091	5.e-002	10.421
18057	14.512	2.9091	0.	2113.6
18058	14.42	2.8182	0.	2136.8
18059	14.42	2.9091	5.e-002	10.008
18060	14.696	2.9091	0.	2068.2
18061	14.604	2.8182	0.	2091.
18062	14.604	2.9091	5.e-002	9.6686
18063	14.88	2.9091	0.	2023.7
18064	14.788	2.8182	0.	2046.1
18065	14.788	2.9091	5.e-002	9.3875
18066	15.065	2.9091	0.	1979.7
18067	14.973	2.8182	0.	2001.9
18068	14.973	2.9091	5.e-002	9.153
18069	15.249	2.9091	0.	1936.2
18070	15.157	2.8182	0.	1958.2
18071	15.157	2.9091	5.e-002	8.956
18072	15.433	2.9091	0.	1893.
18073	15.341	2.8182	0.	1914.9
18074	15.341	2.9091	5.e-002	8.7889
18075	15.617	2.9091	0.	1850.1
18076	15.525	2.8182	0.	1871.8
18077	15.525	2.9091	5.e-002	8.6459
18078	15.802	2.9091	0.	1807.4
18079	15.709	2.8182	0.	1829.
18080	15.709	2.9091	5.e-002	8.5223
18081	15.986	2.9091	0.	1764.8
18082	15.894	2.8182	0.	1786.3
18083	15.894	2.9091	5.e-002	8.4144
18084	16.17	2.9091	0.	1722.3
18085	16.078	2.8182	0.	1743.7
18086	16.078	2.9091	5.e-002	8.3192
18087	16.354	2.9091	0.	1679.9
18088	16.262	2.8182	0.	1701.3
18089	16.262	2.9091	5.e-002	8.2344
18090	16.539	2.9091	0.	1637.6
18091	16.446	2.8182	0.	1658.9
18092	16.446	2.9091	5.e-002	8.158
18093	16.723	2.9091	0.	1595.5
18094	16.631	2.8182	0.	1616.7
18095	16.631	2.9091	5.e-002	8.0885
18096	16.907	2.9091	0.	1553.4
18097	16.815	2.8182	0.	1574.5
18098	16.815	2.9091	5.e-002	8.0249
18099	17.091	2.9091	0.	1511.4
18100	16.999	2.8182	0.	1532.5
18101	16.999	2.9091	5.e-002	7.9661
18102	17.275	2.9091	0.	1469.5
18103	17.183	2.8182	0.	1490.6
18104	17.183	2.9091	5.e-002	7.9113
18105	17.46	2.9091	0.	1427.8
18106	17.368	2.8182	0.	1448.7
18107	17.368	2.9091	5.e-002	7.86
18108	17.644	2.9091	0.	1386.2
18109	17.552	2.8182	0.	1407.
18110	17.552	2.9091	5.e-002	7.8118
18111	17.828	2.9091	0.	1344.7
18112	17.736	2.8182	0.	1365.5
18113	17.736	2.9091	5.e-002	7.7662
18114	18.012	2.9091	0.	1303.3
18115	17.92	2.8182	0.	1324.
18116	17.92	2.9091	5.e-002	7.723
18117	18.197	2.9091	0.	1262.2
18118	18.105	2.8182	0.	1282.8
18119	18.105	2.9091	5.e-002	7.6818
18120	18.381	2.9091	0.	1221.2
18121	18.289	2.8182	0.	1241.7
18122	18.289	2.9091	5.e-002	7.6426
18123	18.565	2.9091	0.	1180.4
18124	18.473	2.8182	0.	1200.8
18125	18.473	2.9091	5.e-002	7.6052
18126	18.749	2.9091	0.	1139.7
18127	18.657	2.8182	0.	1160.
18128	18.657	2.9091	5.e-002	7.5695
18129	18.934	2.9091	0.	1099.3
18130	18.841	2.8182	0.	1119.5
18131	18.841	2.9091	5.e-002	7.5355
18132	19.118	2.9091	0.	1059.2
18133	19.026	2.8182	0.	1079.2
18134	19.026	2.9091	5.e-002	7.5031
18135	19.302	2.9091	0.	1019.2
18136	19.21	2.8182	0.	1039.1
18137	19.21	2.9091	5.e-002	7.4723
18138	19.486	2.9091	0.	979.53
18139	19.394	2.8182	0.	999.29
18140	19.394	2.9091	5.e-002	7.4432
18141	19.67	2.9091	0.	940.1
18142	19.578	2.8182	0.	959.72
18143	19.578	2.9091	5.e-002	7.4157
18144	19.855	2.9091	0.	900.95
18145	19.763	2.8182	0.	920.41
18146	19.763	2.9091	5.e-002	7.39
18147	20.039	2.9091	0.	862.1
18148	19.947	2.8182	0.	881.39
18149	19.947	2.9091	5.e-002	7.3661
18150	20.223	2.9091	0.	823.56
18151	20.131	2.8182	0.	842.67
18152	20.131	2.9091	5.e-002	7.3443
18153	20.407	2.9091	0.	785.34
18154	20.315	2.8182	0.	804.28
18155	20.315	2.9091	5.e-002	7.3245
18156	20.592	2.9091	0.	747.47
18157	20.5	2.8182	0.	766.21
18158	20.5	2.9091	5.e-002	7.3071
18159	20.776	2.9091	0.	709.97
18160	20.684	2.8182	0.	728.51
18161	20.684	2.9091	5.e-002	7.2922
18162	20.96	2.9091	0.	672.85
18163	20.868	2.8182	0.	691.17
18164	20.868	2.9091	5.e-002	7.2801
18165	21.144	2.9091	0.	636.15
18166	21.052	2.8182	0.	654.24
18167	21.052	2.9091	5.e-002	7.271
18168	21.329	2.9091	0.	599.88
18169	21.236	2.8182	0.	617.73
18170	21.236	2.9091	5.e-002	7.2653
18171	21.513	2.9091	0.	564.08
18172	21.421	2.8182	0.	581.67
18173	21.421	2.9091	5.e-002	7.2635
18174	21.697	2.9091	0.	528.78
18175	21.605	2.8182	0.	546.1
18176	21.605	2.9091	5.e-002	7.2658
18177	21.881	2.9091	0.	494.03
18178	21.789	2.8182	0.	511.05
18179	21.789	2.9091	5.e-002	7.2728
18180	22.066	2.9091	0.	459.88
18181	21.973	2.8182	0.	476.57
18182	21.973	2.9091	5.e-002	7.285
18183	22.25	2.9091	0.	426.39
18184	22.158	2.8182	0.	442.72
18185	22.158	2.9091	5.e-002	7.3029
18186	22.434	2.9091	0.	393.66
18187	22.342	2.8182	0.	409.58
18188	22.342	2.9091	5.e-002	7.3269
18189	22.618	2.9091	0.	361.81
18190	22.526	2.8182	0.	377.25
18191	22.526	2.9091	5.e-002	7.3577
18192	22.802	2.9091	0.	331.
18193	22.71	2.8182	0.	345.88
18194	22.71	2.9091	5.e-002	7.3956
18195	22.987	2.9091	0.	301.47
18196	22.895	2.8182	0.	315.65
18197	22.895	2.9091	5.e-002	7.4409
18198	23.171	2.9091	0.	273.55
18199	23.079	2.8182	0.	286.86
18200	23.079	2.9091	5.e-002	7.4937
18201	23.355	2.9091	0.	247.74
18202	23.263	2.8182	0.	259.91
18203	23.263	2.9091	5.e-002	7.5541
18204	23.539	2.9091	0.	224.7
18205	23.447	2.8182	0.	235.37
18206	23.447	2.9091	5.e-002	7.6214
18207	23.724	2.9091	0.	205.34
18208	23.632	2.8182	0.	214.03
18209	23.632	2.9091	5.e-002	7.6954
18210	23.816	2.8182	0.	196.93
18211	23.816	2.9091	5.e-002	7.7832
18212	23.908	2.9091	0.	191.56
18213	10.643	2.7273	0.	7168.6
18214	10.551	2.6364	0.	7745.4
18215	10.551	2.7273	5.e-002	78.503
18216	10.827	2.7273	0.	6349.1
18217	10.735	2.6364	0.	6802.1
18218	10.735	2.7273	5.e-002	99.282
18219	11.011	2.7273	0.	5564.1
18220	10.919	2.6364	0.	5888.3
18221	10.919	2.7273	5.e-002	97.89
18222	11.196	2.7273	0.	4900.5
18223	11.104	2.6364	0.	5135.
18224	11.104	2.7273	5.e-002	86.696
18225	11.38	2.7273	0.	4369.2
18226	11.288	2.6364	0.	4544.2
18227	11.288	2.7273	5.e-002	73.602
18228	11.564	2.7273	0.	3951.9
18229	11.472	2.6364	0.	4086.7
18230	11.472	2.7273	5.e-002	61.483
18231	11.748	2.7273	0.	3624.7
18232	11.656	2.6364	0.	3731.4
18233	11.656	2.7273	5.e-002	51.176
18234	11.933	2.7273	0.	3366.5
18235	11.841	2.6364	0.	3453.
18236	11.841	2.7273	5.e-002	42.713
18237	12.117	2.7273	0.	3160.7
18238	12.025	2.6364	0.	3232.2
18239	12.025	2.7273	5.e-002	35.877
18240	12.301	2.7273	0.	2994.4
18241	12.209	2.6364	0.	3054.6
18242	12.209	2.7273	5.e-002	30.397
18243	12.485	2.7273	0.	2858.1
18244	12.393	2.6364	0.	2909.7
18245	12.393	2.7273	5.e-002	26.019
18246	12.67	2.7273	0.	2744.4
18247	12.577	2.6364	0.	2789.4
18248	12.577	2.7273	5.e-002	22.525
18249	12.854	2.7273	0.	2648.
18250	12.762	2.6364	0.	2687.8
18251	12.762	2.7273	5.e-002	19.736
18252	13.038	2.7273	0.	2564.8
18253	12.946	2.6364	0.	2600.6
18254	12.946	2.7273	5.e-002	17.507
18255	13.222	2.7273	0.	2491.5
18256	13.13	2.6364	0.	2524.1
18257	13.13	2.7273	5.e-002	15.724
18258	13.407	2.7273	0.	2425.8
18259	13.314	2.6364	0.	2456.
18260	13.314	2.7273	5.e-002	14.295
18261	13.591	2.7273	0.	2365.9
18262	13.499	2.6364	0.	2394.2
18263	13.499	2.7273	5.e-002	13.146
18264	13.775	2.7273	0.	2310.4
18265	13.683	2.6364	0.	2337.2
18266	13.683	2.7273	5.e-002	12.221
18267	13.959	2.7273	0.	2258.2
18268	13.867	2.6364	0.	2283.9
18269	13.867	2.7273	5.e-002	11.473
18270	14.143	2.7273	0.	2208.5
18271	14.051	2.6364	0.	2233.3
18272	14.051	2.7273	5.e-002	10.867
18273	14.328	2.7273	0.	2160.7
18274	14.236	2.6364	0.	2184.8
18275	14.236	2.7273	5.e-002	10.374
18276	14.512	2.7273	0.	2114.3
18277	14.42	2.6364	0.	2137.9
18278	14.42	2.7273	5.e-002	9.9698
18279	14.696	2.7273	0.	2068.9
18280	14.604	2.6364	0.	2092.1
18281	14.604	2.7273	5.e-002	9.6375
18282	14.88	2.7273	0.	2024.4
18283	14.788	2.6364	0.	2047.2
18284	14.788	2.7273	5.e-002	9.3623
18285	15.065	2.7273	0.	1980.4
18286	14.973	2.6364	0.	2003.
18287	14.973	2.7273	5.e-002	9.1327
18288	15.249	2.7273	0.	1936.9
18289	15.157	2.6364	0.	1959.2
18290	15.157	2.7273	5.e-002	8.9395
18291	15.433	2.7273	0.	1893.7
18292	15.341	2.6364	0.	1915.8
18293	15.341	2.7273	5.e-002	8.7756
18294	15.617	2.7273	0.	1850.7
18295	15.525	2.6364	0.	1872.7
18296	15.525	2.7273	5.e-002	8.6351
18297	15.802	2.7273	0.	1807.9
18298	15.709	2.6364	0.	1829.8
18299	15.709	2.7273	5.e-002	8.5136
18300	15.986	2.7273	0.	1765.3
18301	15.894	2.6364	0.	1787.
18302	15.894	2.7273	5.e-002	8.4073
18303	16.17	2.7273	0.	1722.7
18304	16.078	2.6364	0.	1744.4
18305	16.078	2.7273	5.e-002	8.3134
18306	16.354	2.7273	0.	1680.3
18307	16.262	2.6364	0.	1701.9
18308	16.262	2.7273	5.e-002	8.2296
18309	16.539	2.7273	0.	1638.
18310	16.446	2.6364	0.	1659.5
18311	16.446	2.7273	5.e-002	8.1541
18312	16.723	2.7273	0.	1595.8
18313	16.631	2.6364	0.	1617.2
18314	16.631	2.7273	5.e-002	8.0853
18315	16.907	2.7273	0.	1553.7
18316	16.815	2.6364	0.	1575.1
18317	16.815	2.7273	5.e-002	8.0222
18318	17.091	2.7273	0.	1511.7
18319	16.999	2.6364	0.	1533.
18320	16.999	2.7273	5.e-002	7.9639
18321	17.275	2.7273	0.	1469.8
18322	17.183	2.6364	0.	1491.
18323	17.183	2.7273	5.e-002	7.9094
18324	17.46	2.7273	0.	1428.
18325	17.368	2.6364	0.	1449.1
18326	17.368	2.7273	5.e-002	7.8584
18327	17.644	2.7273	0.	1386.4
18328	17.552	2.6364	0.	1407.4
18329	17.552	2.7273	5.e-002	7.8104
18330	17.828	2.7273	0.	1344.9
18331	17.736	2.6364	0.	1365.8
18332	17.736	2.7273	5.e-002	7.765
18333	18.012	2.7273	0.	1303.5
18334	17.92	2.6364	0.	1324.3
18335	17.92	2.7273	5.e-002	7.7219
18336	18.197	2.7273	0.	1262.3
18337	18.105	2.6364	0.	1283.
18338	18.105	2.7273	5.e-002	7.6808
18339	18.381	2.7273	0.	1221.3
18340	18.289	2.6364	0.	1241.9
18341	18.289	2.7273	5.e-002	7.6417
18342	18.565	2.7273	0.	1180.5
18343	18.473	2.6364	0.	1200.9
18344	18.473	2.7273	5.e-002	7.6044
18345	18.749	2.7273	0.	1139.8
18346	18.657	2.6364	0.	1160.2
18347	18.657	2.7273	5.e-002	7.5687
18348	18.934	2.7273	0.	1099.4
18349	18.841	2.6364	0.	1119.6
18350	18.841	2.7273	5.e-002	7.5347
18351	19.118	2.7273	0.	1059.2
18352	19.026	2.6364	0.	1079.3
18353	19.026	2.7273	5.e-002	7.5023
18354	19.302	2.7273	0.	1019.2
18355	19.21	2.6364	0.	1039.2
18356	19.21	2.7273	5.e-002	7.4716
18357	19.486	2.7273	0.	979.52
18358	19.394	2.6364	0.	999.29
18359	19.394	2.7273	5.e-002	7.4424
18360	19.67	2.7273	0.	940.06
18361	19.578	2.6364	0.	959.68
18362	19.578	2.7273	5.e-002	7.415
18363	19.855	2.7273	0.	900.89
18364	19.763	2.6364	0.	920.34
18365	19.763	2.7273	5.e-002	7.3892
18366	20.039	2.7273	0.	862.01
18367	19.947	2.6364	0.	881.28
18368	19.947	2.7273	5.e-002	7.3654
18369	20.223	2.7273	0.	823.43
18370	20.131	2.6364	0.	842.52
18371	20.131	2.7273	5.e-002	7.3434
18372	20.407	2.7273	0.	785.19
18373	20.315	2.6364	0.	804.07
18374	20.315	2.7273	5.e-002	7.3236
18375	20.592	2.7273	0.	747.28
18376	20.5	2.6364	0.	765.96
18377	20.5	2.7273	5.e-002	7.3061
18378	20.776	2.7273	0.	709.74
18379	20.684	2.6364	0.	728.2
18380	20.684	2.7273	5.e-002	7.2911
18381	20.96	2.7273	0.	672.59
18382	20.868	2.6364	0.	690.81
18383	20.868	2.7273	5.e-002	7.2789
18384	21.144	2.7273	0.	635.85
18385	21.052	2.6364	0.	653.82
18386	21.052	2.7273	5.e-002	7.2697
18387	21.329	2.7273	0.	599.54
18388	21.236	2.6364	0.	617.25
18389	21.236	2.7273	5.e-002	7.2639
18390	21.513	2.7273	0.	563.7
18391	21.421	2.6364	0.	581.13
18392	21.421	2.7273	5.e-002	7.2618
18393	21.697	2.7273	0.	528.36
18394	21.605	2.6364	0.	545.49
18395	21.605	2.7273	5.e-002	7.2639
18396	21.881	2.7273	0.	493.56
18397	21.789	2.6364	0.	510.38
18398	21.789	2.7273	5.e-002	7.2707
18399	22.066	2.7273	0.	459.37
18400	21.973	2.6364	0.	475.83
18401	21.973	2.7273	5.e-002	7.2827
18402	22.25	2.7273	0.	425.84
18403	22.158	2.6364	0.	441.92
18404	22.158	2.7273	5.e-002	7.3003
18405	22.434	2.7273	0.	393.06
18406	22.342	2.6364	0.	408.71
18407	22.342	2.7273	5.e-002	7.3242
18408	22.618	2.7273	0.	361.17
18409	22.526	2.6364	0.	376.32
18410	22.526	2.7273	5.e-002	7.3548
18411	22.802	2.7273	0.	330.31
18412	22.71	2.6364	0.	344.88
18413	22.71	2.7273	5.e-002	7.3926
18414	22.987	2.7273	0.	300.74
18415	22.895	2.6364	0.	314.59
18416	22.895	2.7273	5.e-002	7.438
18417	23.171	2.7273	0.	272.79
18418	23.079	2.6364	0.	285.74
18419	23.079	2.7273	5.e-002	7.491
18420	23.355	2.7273	0.	246.93
18421	23.263	2.6364	0.	258.73
18422	23.263	2.7273	5.e-002	7.5517
18423	23.539	2.7273	0.	223.86
18424	23.447	2.6364	0.	234.12
18425	23.447	2.7273	5.e-002	7.6196
18426	23.724	2.7273	0.	204.47
18427	23.632	2.6364	0.	212.74
18428	23.632	2.7273	5.e-002	7.6945
18429	23.816	2.6364	0.	195.6
18430	23.816	2.7273	5.e-002	7.786
18431	23.908	2.7273	0.	190.66
18432	10.643	2.5455	0.	7390.9
18433	10.551	2.4545	0.	8224.
18434	10.551	2.5455	5.e-002	127.95
18435	10.827	2.5455	0.	6356.7
18436	10.735	2.4545	0.	6842.6
18437	10.735	2.5455	5.e-002	135.72
18438	11.011	2.5455	0.	5469.9
18439	10.919	2.4545	0.	5765.2
18440	10.919	2.5455	5.e-002	112.6
18441	11.196	2.5455	0.	4784.8
18442	11.104	2.4545	0.	4978.
18443	11.104	2.5455	5.e-002	90.7
18444	11.38	2.5455	0.	4264.9
18445	11.288	2.4545	0.	4402.5
18446	11.288	2.5455	5.e-002	72.82
18447	11.564	2.5455	0.	3867.9
18448	11.472	2.4545	0.	3972.2
18449	11.472	2.5455	5.e-002	59.266
18450	11.748	2.5455	0.	3560.6
18451	11.656	2.4545	0.	3643.5
18452	11.656	2.5455	5.e-002	48.863
18453	11.933	2.5455	0.	3319.1
18454	11.841	2.4545	0.	3387.5
18455	11.841	2.5455	5.e-002	40.727
18456	12.117	2.5455	0.	3126.4
18457	12.025	2.4545	0.	3184.3
18458	12.025	2.5455	5.e-002	34.289
18459	12.301	2.5455	0.	2970.
18460	12.209	2.4545	0.	3020.2
18461	12.209	2.5455	5.e-002	29.164
18462	12.485	2.5455	0.	2841.
18463	12.393	2.4545	0.	2885.4
18464	12.393	2.5455	5.e-002	25.07
18465	12.67	2.5455	0.	2732.8
18466	12.577	2.4545	0.	2772.6
18467	12.577	2.5455	5.e-002	21.795
18468	12.854	2.5455	0.	2640.4
18469	12.762	2.4545	0.	2676.6
18470	12.762	2.5455	5.e-002	19.17
18471	13.038	2.5455	0.	2560.
18472	12.946	2.4545	0.	2593.3
18473	12.946	2.5455	5.e-002	17.065
18474	13.222	2.5455	0.	2488.7
18475	13.13	2.4545	0.	2519.8
18476	13.13	2.5455	5.e-002	15.376
18477	13.407	2.5455	0.	2424.5
18478	13.314	2.4545	0.	2453.7
18479	13.314	2.5455	5.e-002	14.018
18480	13.591	2.5455	0.	2365.6
18481	13.499	2.4545	0.	2393.4
18482	13.499	2.5455	5.e-002	12.924
18483	13.775	2.5455	0.	2310.8
18484	13.683	2.4545	0.	2337.4
18485	13.683	2.5455	5.e-002	12.042
18486	13.959	2.5455	0.	2259.
18487	13.867	2.4545	0.	2284.7
18488	13.867	2.5455	5.e-002	11.329
18489	14.143	2.5455	0.	2209.6
18490	14.051	2.4545	0.	2234.6
18491	14.051	2.5455	5.e-002	10.751
18492	14.328	2.5455	0.	2162.
18493	14.236	2.4545	0.	2186.3
18494	14.236	2.5455	5.e-002	10.279
18495	14.512	2.5455	0.	2115.7
18496	14.42	2.4545	0.	2139.5
18497	14.42	2.5455	5.e-002	9.8935
18498	14.696	2.5455	0.	2070.3
18499	14.604	2.4545	0.	2093.8
18500	14.604	2.5455	5.e-002	9.5757
18501	14.88	2.5455	0.	2025.8
18502	14.788	2.4545	0.	2048.9
18503	14.788	2.5455	5.e-002	9.3123
18504	15.065	2.5455	0.	1981.8
18505	14.973	2.4545	0.	2004.6
18506	14.973	2.5455	5.e-002	9.0922
18507	15.249	2.5455	0.	1938.2
18508	15.157	2.4545	0.	1960.8
18509	15.157	2.5455	5.e-002	8.9068
18510	15.433	2.5455	0.	1894.9
18511	15.341	2.4545	0.	1917.3
18512	15.341	2.5455	5.e-002	8.7491
18513	15.617	2.5455	0.	1851.8
18514	15.525	2.4545	0.	1874.1
18515	15.525	2.5455	5.e-002	8.6137
18516	15.802	2.5455	0.	1808.9
18517	15.709	2.4545	0.	1831.1
18518	15.709	2.5455	5.e-002	8.4963
18519	15.986	2.5455	0.	1766.2
18520	15.894	2.4545	0.	1788.3
18521	15.894	2.5455	5.e-002	8.3933
18522	16.17	2.5455	0.	1723.6
18523	16.078	2.4545	0.	1745.6
18524	16.078	2.5455	5.e-002	8.302
18525	16.354	2.5455	0.	1681.2
18526	16.262	2.4545	0.	1703.
18527	16.262	2.5455	5.e-002	8.2203
18528	16.539	2.5455	0.	1638.8
18529	16.446	2.4545	0.	1660.5
18530	16.446	2.5455	5.e-002	8.1464
18531	16.723	2.5455	0.	1596.5
18532	16.631	2.4545	0.	1618.2
18533	16.631	2.5455	5.e-002	8.079
18534	16.907	2.5455	0.	1554.3
18535	16.815	2.4545	0.	1575.9
18536	16.815	2.5455	5.e-002	8.017
18537	17.091	2.5455	0.	1512.3
18538	16.999	2.4545	0.	1533.7
18539	16.999	2.5455	5.e-002	7.9594
18540	17.275	2.5455	0.	1470.3
18541	17.183	2.4545	0.	1491.7
18542	17.183	2.5455	5.e-002	7.9057
18543	17.46	2.5455	0.	1428.5
18544	17.368	2.4545	0.	1449.7
18545	17.368	2.5455	5.e-002	7.8552
18546	17.644	2.5455	0.	1386.8
18547	17.552	2.4545	0.	1407.9
18548	17.552	2.5455	5.e-002	7.8076
18549	17.828	2.5455	0.	1345.3
18550	17.736	2.4545	0.	1366.3
18551	17.736	2.5455	5.e-002	7.7625
18552	18.012	2.5455	0.	1303.9
18553	17.92	2.4545	0.	1324.8
18554	17.92	2.5455	5.e-002	7.7197
18555	18.197	2.5455	0.	1262.6
18556	18.105	2.4545	0.	1283.4
18557	18.105	2.5455	5.e-002	7.6789
18558	18.381	2.5455	0.	1221.6
18559	18.289	2.4545	0.	1242.2
18560	18.289	2.5455	5.e-002	7.6399
18561	18.565	2.5455	0.	1180.7
18562	18.473	2.4545	0.	1201.2
18563	18.473	2.5455	5.e-002	7.6027
18564	18.749	2.5455	0.	1140.
18565	18.657	2.4545	0.	1160.4
18566	18.657	2.5455	5.e-002	7.5672
18567	18.934	2.5455	0.	1099.5
18568	18.841	2.4545	0.	1119.8
18569	18.841	2.5455	5.e-002	7.5332
18570	19.118	2.5455	0.	1059.3
18571	19.026	2.4545	0.	1079.4
18572	19.026	2.5455	5.e-002	7.5009
18573	19.302	2.5455	0.	1019.3
18574	19.21	2.4545	0.	1039.2
18575	19.21	2.5455	5.e-002	7.4701
18576	19.486	2.5455	0.	979.5
18577	19.394	2.4545	0.	999.3
18578	19.394	2.5455	5.e-002	7.441
18579	19.67	2.5455	0.	939.99
18580	19.578	2.4545	0.	959.63
18581	19.578	2.5455	5.e-002	7.4135
18582	19.855	2.5455	0.	900.76
18583	19.763	2.4545	0.	920.22
18584	19.763	2.5455	5.e-002	7.3877
18585	20.039	2.5455	0.	861.82
18586	19.947	2.4545	0.	881.09
18587	19.947	2.5455	5.e-002	7.3638
18588	20.223	2.5455	0.	823.19
18589	20.131	2.4545	0.	842.26
18590	20.131	2.5455	5.e-002	7.3418
18591	20.407	2.5455	0.	784.88
18592	20.315	2.4545	0.	803.74
18593	20.315	2.5455	5.e-002	7.3218
18594	20.592	2.5455	0.	746.91
18595	20.5	2.4545	0.	765.54
18596	20.5	2.5455	5.e-002	7.3042
18597	20.776	2.5455	0.	709.3
18598	20.684	2.4545	0.	727.7
18599	20.684	2.5455	5.e-002	7.289
18600	20.96	2.5455	0.	672.08
18601	20.868	2.4545	0.	690.22
18602	20.868	2.5455	5.e-002	7.2766
18603	21.144	2.5455	0.	635.25
18604	21.052	2.4545	0.	653.14
18605	21.052	2.5455	5.e-002	7.2671
18606	21.329	2.5455	0.	598.86
18607	21.236	2.4545	0.	616.47
18608	21.236	2.5455	5.e-002	7.2609
18609	21.513	2.5455	0.	562.94
18610	21.421	2.4545	0.	580.24
18611	21.421	2.5455	5.e-002	7.2585
18612	21.697	2.5455	0.	527.51
18613	21.605	2.4545	0.	544.5
18614	21.605	2.5455	5.e-002	7.2602
18615	21.881	2.5455	0.	492.63
18616	21.789	2.4545	0.	509.27
18617	21.789	2.5455	5.e-002	7.2666
18618	22.066	2.5455	0.	458.34
18619	21.973	2.4545	0.	474.61
18620	21.973	2.5455	5.e-002	7.2781
18621	22.25	2.5455	0.	424.72
18622	22.158	2.4545	0.	440.58
18623	22.158	2.5455	5.e-002	7.2953
18624	22.434	2.5455	0.	391.86
18625	22.342	2.4545	0.	407.26
18626	22.342	2.5455	5.e-002	7.3187
18627	22.618	2.5455	0.	359.88
18628	22.526	2.4545	0.	374.76
18629	22.526	2.5455	5.e-002	7.349
18630	22.802	2.5455	0.	328.94
18631	22.71	2.4545	0.	343.21
18632	22.71	2.5455	5.e-002	7.3866
18633	22.987	2.5455	0.	299.28
18634	22.895	2.4545	0.	312.82
18635	22.895	2.5455	5.e-002	7.432
18636	23.171	2.5455	0.	271.25
18637	23.079	2.4545	0.	283.86
18638	23.079	2.5455	5.e-002	7.4853
18639	23.355	2.5455	0.	245.31
18640	23.263	2.4545	0.	256.74
18641	23.263	2.5455	5.e-002	7.5468
18642	23.539	2.5455	0.	222.16
18643	23.447	2.4545	0.	232.04
18644	23.447	2.5455	5.e-002	7.6158
18645	23.724	2.5455	0.	202.71
18646	23.632	2.4545	0.	210.57
18647	23.632	2.5455	5.e-002	7.6926
18648	23.816	2.4545	0.	193.37
18649	23.816	2.5455	5.e-002	7.7916
18650	23.908	2.5455	0.	188.84
18651	10.643	2.3636	0.	7698.7
18652	10.551	2.2727	0.	8731.7
18653	10.551	2.3636	5.e-002	228.92
18654	10.827	2.3636	0.	6271.9
18655	10.735	2.2727	0.	6726.1
18656	10.735	2.3636	5.e-002	180.63
18657	11.011	2.3636	0.	5283.2
18658	10.919	2.2727	0.	5512.5
18659	10.919	2.3636	5.e-002	129.63
18660	11.196	2.3636	0.	4599.7
18661	11.104	2.2727	0.	4742.1
18662	11.104	2.3636	5.e-002	91.038
18663	11.38	2.3636	0.	4111.3
18664	11.288	2.2727	0.	4208.3
18665	11.288	2.3636	5.e-002	69.481
18666	11.564	2.3636	0.	3748.3
18667	11.472	2.2727	0.	3821.3
18668	11.472	2.3636	5.e-002	55.451
18669	11.748	2.3636	0.	3470.6
18670	11.656	2.2727	0.	3529.5
18671	11.656	2.3636	5.e-002	45.465
18672	11.933	2.3636	0.	3252.7
18673	11.841	2.2727	0.	3302.8
18674	11.841	2.3636	5.e-002	37.944
18675	12.117	2.3636	0.	3078.2
18676	12.025	2.2727	0.	3122.4
18677	12.025	2.3636	5.e-002	32.09
18678	12.301	2.3636	0.	2935.6
18679	12.209	2.2727	0.	2975.6
18680	12.209	2.3636	5.e-002	27.45
18681	12.485	2.3636	0.	2817.
18682	12.393	2.2727	0.	2853.7
18683	12.393	2.3636	5.e-002	23.738
18684	12.67	2.3636	0.	2716.4
18685	12.577	2.2727	0.	2750.6
18686	12.577	2.3636	5.e-002	20.757
18687	12.854	2.3636	0.	2629.5
18688	12.762	2.2727	0.	2661.8
18689	12.762	2.3636	5.e-002	18.357
18690	13.038	2.3636	0.	2553.1
18691	12.946	2.2727	0.	2583.7
18692	12.946	2.3636	5.e-002	16.423
18693	13.222	2.3636	0.	2484.8
18694	13.13	2.2727	0.	2514.
18695	13.13	2.3636	5.e-002	14.865
18696	13.407	2.3636	0.	2422.6
18697	13.314	2.2727	0.	2450.7
18698	13.314	2.3636	5.e-002	13.609
18699	13.591	2.3636	0.	2365.2
18700	13.499	2.2727	0.	2392.3
18701	13.499	2.3636	5.e-002	12.596
18702	13.775	2.3636	0.	2311.4
18703	13.683	2.2727	0.	2337.6
18704	13.683	2.3636	5.e-002	11.777
18705	13.959	2.3636	0.	2260.3
18706	13.867	2.2727	0.	2285.9
18707	13.867	2.3636	5.e-002	11.115
18708	14.143	2.3636	0.	2211.3
18709	14.051	2.2727	0.	2236.3
18710	14.051	2.3636	5.e-002	10.577
18711	14.328	2.3636	0.	2163.9
18712	14.236	2.2727	0.	2188.4
18713	14.236	2.3636	5.e-002	10.139
18714	14.512	2.3636	0.	2117.7
18715	14.42	2.2727	0.	2141.8
18716	14.42	2.3636	5.e-002	9.7798
18717	14.696	2.3636	0.	2072.4
18718	14.604	2.2727	0.	2096.2
18719	14.604	2.3636	5.e-002	9.4838
18720	14.88	2.3636	0.	2027.8
18721	14.788	2.2727	0.	2051.3
18722	14.788	2.3636	5.e-002	9.238
18723	15.065	2.3636	0.	1983.7
18724	14.973	2.2727	0.	2006.9
18725	14.973	2.3636	5.e-002	9.0322
18726	15.249	2.3636	0.	1940.
18727	15.157	2.2727	0.	1963.
18728	15.157	2.3636	5.e-002	8.8584
18729	15.433	2.3636	0.	1896.6
18730	15.341	2.2727	0.	1919.4
18731	15.341	2.3636	5.e-002	8.71
18732	15.617	2.3636	0.	1853.5
18733	15.525	2.2727	0.	1876.1
18734	15.525	2.3636	5.e-002	8.5821
18735	15.802	2.3636	0.	1810.5
18736	15.709	2.2727	0.	1833.
18737	15.709	2.3636	5.e-002	8.4707
18738	15.986	2.3636	0.	1767.7
18739	15.894	2.2727	0.	1790.
18740	15.894	2.3636	5.e-002	8.3725
18741	16.17	2.3636	0.	1725.
18742	16.078	2.2727	0.	1747.2
18743	16.078	2.3636	5.e-002	8.2851
18744	16.354	2.3636	0.	1682.4
18745	16.262	2.2727	0.	1704.5
18746	16.262	2.3636	5.e-002	8.2065
18747	16.539	2.3636	0.	1639.9
18748	16.446	2.2727	0.	1661.9
18749	16.446	2.3636	5.e-002	8.1351
18750	16.723	2.3636	0.	1597.6
18751	16.631	2.2727	0.	1619.4
18752	16.631	2.3636	5.e-002	8.0697
18753	16.907	2.3636	0.	1555.3
18754	16.815	2.2727	0.	1577.
18755	16.815	2.3636	5.e-002	8.0092
18756	17.091	2.3636	0.	1513.1
18757	16.999	2.2727	0.	1534.8
18758	16.999	2.3636	5.e-002	7.9529
18759	17.275	2.3636	0.	1471.1
18760	17.183	2.2727	0.	1492.6
18761	17.183	2.3636	5.e-002	7.9001
18762	17.46	2.3636	0.	1429.2
18763	17.368	2.2727	0.	1450.6
18764	17.368	2.3636	5.e-002	7.8505
18765	17.644	2.3636	0.	1387.5
18766	17.552	2.2727	0.	1408.7
18767	17.552	2.3636	5.e-002	7.8035
18768	17.828	2.3636	0.	1345.8
18769	17.736	2.2727	0.	1367.
18770	17.736	2.3636	5.e-002	7.7589
18771	18.012	2.3636	0.	1304.4
18772	17.92	2.2727	0.	1325.4
18773	17.92	2.3636	5.e-002	7.7165
18774	18.197	2.3636	0.	1263.1
18775	18.105	2.2727	0.	1284.
18776	18.105	2.3636	5.e-002	7.676
18777	18.381	2.3636	0.	1221.9
18778	18.289	2.2727	0.	1242.7
18779	18.289	2.3636	5.e-002	7.6372
18780	18.565	2.3636	0.	1181.
18781	18.473	2.2727	0.	1201.6
18782	18.473	2.3636	5.e-002	7.6002
18783	18.749	2.3636	0.	1140.2
18784	18.657	2.2727	0.	1160.7
18785	18.657	2.3636	5.e-002	7.5648
18786	18.934	2.3636	0.	1099.7
18787	18.841	2.2727	0.	1120.1
18788	18.841	2.3636	5.e-002	7.531
18789	19.118	2.3636	0.	1059.4
18790	19.026	2.2727	0.	1079.6
18791	19.026	2.3636	5.e-002	7.4987
18792	19.302	2.3636	0.	1019.3
18793	19.21	2.2727	0.	1039.3
18794	19.21	2.3636	5.e-002	7.468
18795	19.486	2.3636	0.	979.47
18796	19.394	2.2727	0.	999.32
18797	19.394	2.3636	5.e-002	7.4388
18798	19.67	2.3636	0.	939.89
18799	19.578	2.2727	0.	959.56
18800	19.578	2.3636	5.e-002	7.4113
18801	19.855	2.3636	0.	900.59
18802	19.763	2.2727	0.	920.07
18803	19.763	2.3636	5.e-002	7.3855
18804	20.039	2.3636	0.	861.56
18805	19.947	2.2727	0.	880.84
18806	19.947	2.3636	5.e-002	7.3614
18807	20.223	2.3636	0.	822.84
18808	20.131	2.2727	0.	841.91
18809	20.131	2.3636	5.e-002	7.3393
18810	20.407	2.3636	0.	784.44
18811	20.315	2.2727	0.	803.29
18812	20.315	2.3636	5.e-002	7.3192
18813	20.592	2.3636	0.	746.37
18814	20.5	2.2727	0.	764.98
18815	20.5	2.3636	5.e-002	7.3013
18816	20.776	2.3636	0.	708.66
18817	20.684	2.2727	0.	727.02
18818	20.684	2.3636	5.e-002	7.2859
18819	20.96	2.3636	0.	671.32
18820	20.868	2.2727	0.	689.42
18821	20.868	2.3636	5.e-002	7.2731
18822	21.144	2.3636	0.	634.38
18823	21.052	2.2727	0.	652.2
18824	21.052	2.3636	5.e-002	7.2632
18825	21.329	2.3636	0.	597.87
18826	21.236	2.2727	0.	615.39
18827	21.236	2.3636	5.e-002	7.2566
18828	21.513	2.3636	0.	561.81
18829	21.421	2.2727	0.	579.02
18830	21.421	2.3636	5.e-002	7.2537
18831	21.697	2.3636	0.	526.26
18832	21.605	2.2727	0.	543.12
18833	21.605	2.3636	5.e-002	7.2548
18834	21.881	2.3636	0.	491.24
18835	21.789	2.2727	0.	507.74
18836	21.789	2.3636	5.e-002	7.2604
18837	22.066	2.3636	0.	456.82
18838	21.973	2.2727	0.	472.92
18839	21.973	2.3636	5.e-002	7.2712
18840	22.25	2.3636	0.	423.06
18841	22.158	2.2727	0.	438.73
18842	22.158	2.3636	5.e-002	7.2877
18843	22.434	2.3636	0.	390.06
18844	22.342	2.2727	0.	405.25
18845	22.342	2.3636	5.e-002	7.3105
18846	22.618	2.3636	0.	357.95
18847	22.526	2.2727	0.	372.58
18848	22.526	2.3636	5.e-002	7.3402
18849	22.802	2.3636	0.	326.88
18850	22.71	2.2727	0.	340.87
18851	22.71	2.3636	5.e-002	7.3775
18852	22.987	2.3636	0.	297.09
18853	22.895	2.2727	0.	310.32
18854	22.895	2.3636	5.e-002	7.4229
18855	23.171	2.3636	0.	268.93
18856	23.079	2.2727	0.	281.21
18857	23.079	2.3636	5.e-002	7.4767
18858	23.355	2.3636	0.	242.87
18859	23.263	2.2727	0.	253.95
18860	23.263	2.3636	5.e-002	7.5392
18861	23.539	2.3636	0.	219.6
18862	23.447	2.2727	0.	229.1
18863	23.447	2.3636	5.e-002	7.6099
18864	23.724	2.3636	0.	200.06
18865	23.632	2.2727	0.	207.5
18866	23.632	2.3636	5.e-002	7.6895
18867	23.816	2.2727	0.	190.23
18868	23.816	2.3636	5.e-002	7.7999
18869	23.908	2.3636	0.	186.09
18870	10.643	2.1818	0.	7818.1
18871	10.551	2.0909	0.	8895.3
18872	10.551	2.1818	5.e-002	532.32
18873	10.827	2.1818	0.	5988.6
18874	10.735	2.0909	0.	6308.3
18875	10.735	2.1818	5.e-002	243.68
18876	11.011	2.1818	0.	4976.8
18877	10.919	2.0909	0.	5127.3
18878	10.919	2.1818	5.e-002	123.
18879	11.196	2.1818	0.	4351.3
18880	11.104	2.0909	0.	4439.
18881	11.104	2.1818	5.e-002	84.731
18882	11.38	2.1818	0.	3917.8
18883	11.288	2.0909	0.	3974.6
18884	11.288	2.1818	5.e-002	63.349
18885	11.564	2.1818	0.	3601.8
18886	11.472	2.0909	0.	3644.6
18887	11.472	2.1818	5.e-002	50.284
18888	11.748	2.1818	0.	3361.2
18889	11.656	2.0909	0.	3396.9
18890	11.656	2.1818	5.e-002	41.278
18891	11.933	2.1818	0.	3172.1
18892	11.841	2.0909	0.	3204.5
18893	11.841	2.1818	5.e-002	34.611
18894	12.117	2.1818	0.	3019.6
18895	12.025	2.0909	0.	3050.2
18896	12.025	2.1818	5.e-002	29.458
18897	12.301	2.1818	0.	2893.6
18898	12.209	2.0909	0.	2923.4
18899	12.209	2.1818	5.e-002	25.377
18900	12.485	2.1818	0.	2787.4
18901	12.393	2.0909	0.	2816.5
18902	12.393	2.1818	5.e-002	22.103
18903	12.67	2.1818	0.	2696.
18904	12.577	2.0909	0.	2724.7
18905	12.577	2.1818	5.e-002	19.462
18906	12.854	2.1818	0.	2616.
18907	12.762	2.0909	0.	2644.2
18908	12.762	2.1818	5.e-002	17.327
18909	13.038	2.1818	0.	2544.6
18910	12.946	2.0909	0.	2572.3
18911	12.946	2.1818	5.e-002	15.599
18912	13.222	2.1818	0.	2479.9
18913	13.13	2.0909	0.	2507.1
18914	13.13	2.1818	5.e-002	14.203
18915	13.407	2.1818	0.	2420.4
18916	13.314	2.0909	0.	2447.1
18917	13.314	2.1818	5.e-002	13.075
18918	13.591	2.1818	0.	2364.7
18919	13.499	2.0909	0.	2391.
18920	13.499	2.1818	5.e-002	12.164
18921	13.775	2.1818	0.	2312.1
18922	13.683	2.0909	0.	2337.9
18923	13.683	2.1818	5.e-002	11.428
18924	13.959	2.1818	0.	2261.9
18925	13.867	2.0909	0.	2287.3
18926	13.867	2.1818	5.e-002	10.832
18927	14.143	2.1818	0.	2213.4
18928	14.051	2.0909	0.	2238.4
18929	14.051	2.1818	5.e-002	10.348
18930	14.328	2.1818	0.	2166.3
18931	14.236	2.0909	0.	2191.
18932	14.236	2.1818	5.e-002	9.9537
18933	14.512	2.1818	0.	2120.3
18934	14.42	2.0909	0.	2144.6
18935	14.42	2.1818	5.e-002	9.6302
18936	14.696	2.1818	0.	2075.1
18937	14.604	2.0909	0.	2099.1
18938	14.604	2.1818	5.e-002	9.363
18939	14.88	2.1818	0.	2030.4
18940	14.788	2.0909	0.	2054.2
18941	14.788	2.1818	5.e-002	9.1406
18942	15.065	2.1818	0.	1986.3
18943	14.973	2.0909	0.	2009.8
18944	14.973	2.1818	5.e-002	8.9538
18945	15.249	2.1818	0.	1942.5
18946	15.157	2.0909	0.	1965.8
18947	15.157	2.1818	5.e-002	8.7951
18948	15.433	2.1818	0.	1898.9
18949	15.341	2.0909	0.	1922.1
18950	15.341	2.1818	5.e-002	8.6591
18951	15.617	2.1818	0.	1855.6
18952	15.525	2.0909	0.	1878.6
18953	15.525	2.1818	5.e-002	8.541
18954	15.802	2.1818	0.	1812.5
18955	15.709	2.0909	0.	1835.3
18956	15.709	2.1818	5.e-002	8.4374
18957	15.986	2.1818	0.	1769.6
18958	15.894	2.0909	0.	1792.2
18959	15.894	2.1818	5.e-002	8.3456
18960	16.17	2.1818	0.	1726.7
18961	16.078	2.0909	0.	1749.2
18962	16.078	2.1818	5.e-002	8.2632
18963	16.354	2.1818	0.	1684.
18964	16.262	2.0909	0.	1706.4
18965	16.262	2.1818	5.e-002	8.1886
18966	16.539	2.1818	0.	1641.4
18967	16.446	2.0909	0.	1663.6
18968	16.446	2.1818	5.e-002	8.1204
18969	16.723	2.1818	0.	1598.9
18970	16.631	2.0909	0.	1621.
18971	16.631	2.1818	5.e-002	8.0575
18972	16.907	2.1818	0.	1556.6
18973	16.815	2.0909	0.	1578.5
18974	16.815	2.1818	5.e-002	7.9991
18975	17.091	2.1818	0.	1514.3
18976	16.999	2.0909	0.	1536.1
18977	16.999	2.1818	5.e-002	7.9444
18978	17.275	2.1818	0.	1472.2
18979	17.183	2.0909	0.	1493.9
18980	17.183	2.1818	5.e-002	7.8929
18981	17.46	2.1818	0.	1430.2
18982	17.368	2.0909	0.	1451.7
18983	17.368	2.1818	5.e-002	7.8443
18984	17.644	2.1818	0.	1388.3
18985	17.552	2.0909	0.	1409.7
18986	17.552	2.1818	5.e-002	7.7981
18987	17.828	2.1818	0.	1346.6
18988	17.736	2.0909	0.	1367.9
18989	17.736	2.1818	5.e-002	7.7542
18990	18.012	2.1818	0.	1305.
18991	17.92	2.0909	0.	1326.2
18992	17.92	2.1818	5.e-002	7.7122
18993	18.197	2.1818	0.	1263.7
18994	18.105	2.0909	0.	1284.7
18995	18.105	2.1818	5.e-002	7.6721
18996	18.381	2.1818	0.	1222.4
18997	18.289	2.0909	0.	1243.3
18998	18.289	2.1818	5.e-002	7.6337
18999	18.565	2.1818	0.	1181.4
19000	18.473	2.0909	0.	1202.2
19001	18.473	2.1818	5.e-002	7.5969
19002	18.749	2.1818	0.	1140.6
19003	18.657	2.0909	0.	1161.2
19004	18.657	2.1818	5.e-002	7.5617
19005	18.934	2.1818	0.	1100.
19006	18.841	2.0909	0.	1120.4
19007	18.841	2.1818	5.e-002	7.528
19008	19.118	2.1818	0.	1059.6
19009	19.026	2.0909	0.	1079.8
19010	19.026	2.1818	5.e-002	7.4958
19011	19.302	2.1818	0.	1019.4
19012	19.21	2.0909	0.	1039.5
19013	19.21	2.1818	5.e-002	7.4651
19014	19.486	2.1818	0.	979.46
19015	19.394	2.0909	0.	999.37
19016	19.394	2.1818	5.e-002	7.436
19017	19.67	2.1818	0.	939.78
19018	19.578	2.0909	0.	959.5
19019	19.578	2.1818	5.e-002	7.4084
19020	19.855	2.1818	0.	900.37
19021	19.763	2.0909	0.	919.89
19022	19.763	2.1818	5.e-002	7.3825
19023	20.039	2.1818	0.	861.24
19024	19.947	2.0909	0.	880.55
19025	19.947	2.1818	5.e-002	7.3583
19026	20.223	2.1818	0.	822.4
19027	20.131	2.0909	0.	841.5
19028	20.131	2.1818	5.e-002	7.336
19029	20.407	2.1818	0.	783.87
19030	20.315	2.0909	0.	802.74
19031	20.315	2.1818	5.e-002	7.3157
19032	20.592	2.1818	0.	745.67
19033	20.5	2.0909	0.	764.29
19034	20.5	2.1818	5.e-002	7.2975
19035	20.776	2.1818	0.	707.82
19036	20.684	2.0909	0.	726.18
19037	20.684	2.1818	5.e-002	7.2817
19038	20.96	2.1818	0.	670.33
19039	20.868	2.0909	0.	688.42
19040	20.868	2.1818	5.e-002	7.2685
19041	21.144	2.1818	0.	633.24
19042	21.052	2.0909	0.	651.03
19043	21.052	2.1818	5.e-002	7.2581
19044	21.329	2.1818	0.	596.57
19045	21.236	2.0909	0.	614.04
19046	21.236	2.1818	5.e-002	7.2509
19047	21.513	2.1818	0.	560.34
19048	21.421	2.0909	0.	577.48
19049	21.421	2.1818	5.e-002	7.2473
19050	21.697	2.1818	0.	524.61
19051	21.605	2.0909	0.	541.39
19052	21.605	2.1818	5.e-002	7.2476
19053	21.881	2.1818	0.	489.41
19054	21.789	2.0909	0.	505.8
19055	21.789	2.1818	5.e-002	7.2524
19056	22.066	2.1818	0.	454.8
19057	21.973	2.0909	0.	470.77
19058	21.973	2.1818	5.e-002	7.2622
19059	22.25	2.1818	0.	420.86
19060	22.158	2.0909	0.	436.37
19061	22.158	2.1818	5.e-002	7.2777
19062	22.434	2.1818	0.	387.68
19063	22.342	2.0909	0.	402.67
19064	22.342	2.1818	5.e-002	7.2995
19065	22.618	2.1818	0.	355.37
19066	22.526	2.0909	0.	369.79
19067	22.526	2.1818	5.e-002	7.3284
19068	22.802	2.1818	0.	324.12
19069	22.71	2.0909	0.	337.86
19070	22.71	2.1818	5.e-002	7.3652
19071	22.987	2.1818	0.	294.15
19072	22.895	2.0909	0.	307.1
19073	22.895	2.1818	5.e-002	7.4105
19074	23.171	2.1818	0.	265.81
19075	23.079	2.0909	0.	277.79
19076	23.079	2.1818	5.e-002	7.4648
19077	23.355	2.1818	0.	239.58
19078	23.263	2.0909	0.	250.32
19079	23.263	2.1818	5.e-002	7.5286
19080	23.539	2.1818	0.	216.15
19081	23.447	2.0909	0.	225.28
19082	23.447	2.1818	5.e-002	7.6016
19083	23.724	2.1818	0.	196.49
19084	23.632	2.0909	0.	203.51
19085	23.632	2.1818	5.e-002	7.6851
19086	23.816	2.0909	0.	186.13
19087	23.816	2.1818	5.e-002	7.8107
19088	23.908	2.1818	0.	182.39
19089	10.643	2.	0.	7491.3
19090	10.551	1.9091	0.	8122.1
19091	10.551	2.	5.e-002	961.33
19092	10.459	2.	0.	13217
19093	10.827	2.	0.	5456.7
19094	10.735	1.9091	0.	5642.3
19095	10.735	2.	5.e-002	168.53
19096	11.011	2.	0.	4588.2
19097	10.919	1.9091	0.	4657.1
19098	10.919	2.	5.e-002	108.99
19099	11.196	2.	0.	4059.4
19100	11.104	1.9091	0.	4093.6
19101	11.104	2.	5.e-002	73.12
19102	11.38	2.	0.	3698.9
19103	11.288	1.9091	0.	3717.8
19104	11.288	2.	5.e-002	55.604
19105	11.564	2.	0.	3437.9
19106	11.472	1.9091	0.	3452.1
19107	11.472	2.	5.e-002	44.399
19108	11.748	2.	0.	3239.1
19109	11.656	1.9091	0.	3253.
19110	11.656	2.	5.e-002	36.702
19111	11.933	2.	0.	3081.9
19112	11.841	1.9091	0.	3097.5
19113	11.841	2.	5.e-002	30.985
19114	12.117	2.	0.	2953.7
19115	12.025	1.9091	0.	2971.4
19116	12.025	2.	5.e-002	26.566
19117	12.301	2.	0.	2846.1
19118	12.209	1.9091	0.	2866.
19119	12.209	2.	5.e-002	23.06
19120	12.485	2.	0.	2753.8
19121	12.393	1.9091	0.	2775.5
19122	12.393	2.	5.e-002	20.24
19123	12.67	2.	0.	2672.8
19124	12.577	1.9091	0.	2695.9
19125	12.577	2.	5.e-002	17.959
19126	12.854	2.	0.	2600.5
19127	12.762	1.9091	0.	2624.6
19128	12.762	2.	5.e-002	16.11
19129	13.038	2.	0.	2534.9
19130	12.946	1.9091	0.	2559.6
19131	12.946	2.	5.e-002	14.612
19132	13.222	2.	0.	2474.3
19133	13.13	1.9091	0.	2499.4
19134	13.13	2.	5.e-002	13.401
19135	13.407	2.	0.	2417.7
19136	13.314	1.9091	0.	2443.
19137	13.314	2.	5.e-002	12.423
19138	13.591	2.	0.	2364.2
19139	13.499	1.9091	0.	2389.5
19140	13.499	2.	5.e-002	11.634
19141	13.775	2.	0.	2313.1
19142	13.683	1.9091	0.	2338.3
19143	13.683	2.	5.e-002	10.998
19144	13.959	2.	0.	2263.8
19145	13.867	1.9091	0.	2288.9
19146	13.867	2.	5.e-002	10.484
19147	14.143	2.	0.	2216.
19148	14.051	1.9091	0.	2240.8
19149	14.051	2.	5.e-002	10.067
19150	14.328	2.	0.	2169.2
19151	14.236	1.9091	0.	2193.9
19152	14.236	2.	5.e-002	9.7263
19153	14.512	2.	0.	2123.4
19154	14.42	1.9091	0.	2147.8
19155	14.42	2.	5.e-002	9.4469
19156	14.696	2.	0.	2078.2
19157	14.604	1.9091	0.	2102.5
19158	14.604	2.	5.e-002	9.2155
19159	14.88	2.	0.	2033.6
19160	14.788	1.9091	0.	2057.6
19161	14.788	2.	5.e-002	9.0219
19162	15.065	2.	0.	1989.3
19163	14.973	1.9091	0.	2013.1
19164	14.973	2.	5.e-002	8.8583
19165	15.249	2.	0.	1945.4
19166	15.157	1.9091	0.	1969.
19167	15.157	2.	5.e-002	8.7184
19168	15.433	2.	0.	1901.7
19169	15.341	1.9091	0.	1925.1
19170	15.341	2.	5.e-002	8.5973
19171	15.617	2.	0.	1858.3
19172	15.525	1.9091	0.	1881.5
19173	15.525	2.	5.e-002	8.4913
19174	15.802	2.	0.	1815.
19175	15.709	1.9091	0.	1838.
19176	15.709	2.	5.e-002	8.3973
19177	15.986	2.	0.	1771.9
19178	15.894	1.9091	0.	1794.8
19179	15.894	2.	5.e-002	8.3131
19180	16.17	2.	0.	1728.9
19181	16.078	1.9091	0.	1751.6
19182	16.078	2.	5.e-002	8.2368
19183	16.354	2.	0.	1686.
19184	16.262	1.9091	0.	1708.6
19185	16.262	2.	5.e-002	8.1671
19186	16.539	2.	0.	1643.2
19187	16.446	1.9091	0.	1665.7
19188	16.446	2.	5.e-002	8.1027
19189	16.723	2.	0.	1600.6
19190	16.631	1.9091	0.	1622.9
19191	16.631	2.	5.e-002	8.0429
19192	16.907	2.	0.	1558.1
19193	16.815	1.9091	0.	1580.3
19194	16.815	2.	5.e-002	7.9869
19195	17.091	2.	0.	1515.7
19196	16.999	1.9091	0.	1537.7
19197	16.999	2.	5.e-002	7.9342
19198	17.275	2.	0.	1473.5
19199	17.183	1.9091	0.	1495.3
19200	17.183	2.	5.e-002	7.8842
19201	17.46	2.	0.	1431.4
19202	17.368	1.9091	0.	1453.1
19203	17.368	2.	5.e-002	7.8368
19204	17.644	2.	0.	1389.4
19205	17.552	1.9091	0.	1411.
19206	17.552	2.	5.e-002	7.7916
19207	17.828	2.	0.	1347.6
19208	17.736	1.9091	0.	1369.
19209	17.736	2.	5.e-002	7.7484
19210	18.012	2.	0.	1305.9
19211	17.92	1.9091	0.	1327.2
19212	17.92	2.	5.e-002	7.7071
19213	18.197	2.	0.	1264.4
19214	18.105	1.9091	0.	1285.6
19215	18.105	2.	5.e-002	7.6675
19216	18.381	2.	0.	1223.1
19217	18.289	1.9091	0.	1244.1
19218	18.289	2.	5.e-002	7.6294
19219	18.565	2.	0.	1182.
19220	18.473	1.9091	0.	1202.8
19221	18.473	2.	5.e-002	7.5929
19222	18.749	2.	0.	1141.
19223	18.657	1.9091	0.	1161.7
19224	18.657	2.	5.e-002	7.5579
19225	18.934	2.	0.	1100.3
19226	18.841	1.9091	0.	1120.8
19227	18.841	2.	5.e-002	7.5243
19228	19.118	2.	0.	1059.8
19229	19.026	1.9091	0.	1080.2
19230	19.026	2.	5.e-002	7.4922
19231	19.302	2.	0.	1019.5
19232	19.21	1.9091	0.	1039.7
19233	19.21	2.	5.e-002	7.4616
19234	19.486	2.	0.	979.46
19235	19.394	1.9091	0.	999.46
19236	19.394	2.	5.e-002	7.4324
19237	19.67	2.	0.	939.66
19238	19.578	1.9091	0.	959.46
19239	19.578	2.	5.e-002	7.4048
19240	19.855	2.	0.	900.12
19241	19.763	1.9091	0.	919.72
19242	19.763	2.	5.e-002	7.3788
19243	20.039	2.	0.	860.86
19244	19.947	1.9091	0.	880.24
19245	19.947	2.	5.e-002	7.3545
19246	20.223	2.	0.	821.88
19247	20.131	1.9091	0.	841.03
19248	20.131	2.	5.e-002	7.332
19249	20.407	2.	0.	783.2
19250	20.315	1.9091	0.	802.11
19251	20.315	2.	5.e-002	7.3114
19252	20.592	2.	0.	744.84
19253	20.5	1.9091	0.	763.5
19254	20.5	2.	5.e-002	7.2929
19255	20.776	2.	0.	706.82
19256	20.684	1.9091	0.	725.2
19257	20.684	2.	5.e-002	7.2767
19258	20.96	2.	0.	669.15
19259	20.868	1.9091	0.	687.25
19260	20.868	2.	5.e-002	7.2629
19261	21.144	2.	0.	631.87
19262	21.052	1.9091	0.	649.66
19263	21.052	2.	5.e-002	7.2519
19264	21.329	2.	0.	594.99
19265	21.236	1.9091	0.	612.46
19266	21.236	2.	5.e-002	7.244
19267	21.513	2.	0.	558.55
19268	21.421	1.9091	0.	575.67
19269	21.421	2.	5.e-002	7.2394
19270	21.697	2.	0.	522.59
19271	21.605	1.9091	0.	539.33
19272	21.605	2.	5.e-002	7.2388
19273	21.881	2.	0.	487.16
19274	21.789	1.9091	0.	503.49
19275	21.789	2.	5.e-002	7.2424
19276	22.066	2.	0.	452.32
19277	21.973	1.9091	0.	468.2
19278	21.973	2.	5.e-002	7.251
19279	22.25	2.	0.	418.13
19280	22.158	1.9091	0.	433.52
19281	22.158	2.	5.e-002	7.2652
19282	22.434	2.	0.	384.71
19283	22.342	1.9091	0.	399.55
19284	22.342	2.	5.e-002	7.2858
19285	22.618	2.	0.	352.16
19286	22.526	1.9091	0.	366.39
19287	22.526	2.	5.e-002	7.3136
19288	22.802	2.	0.	320.66
19289	22.71	1.9091	0.	334.19
19290	22.71	2.	5.e-002	7.3496
19291	22.987	2.	0.	290.46
19292	22.895	1.9091	0.	303.16
19293	22.895	2.	5.e-002	7.3946
19294	23.171	2.	0.	261.89
19295	23.079	1.9091	0.	273.57
19296	23.079	2.	5.e-002	7.4494
19297	23.355	2.	0.	235.43
19298	23.263	1.9091	0.	245.84
19299	23.263	2.	5.e-002	7.5147
19300	23.539	2.	0.	211.79
19301	23.447	1.9091	0.	220.55
19302	23.447	2.	5.e-002	7.5906
19303	23.724	2.	0.	191.96
19304	23.632	1.9091	0.	198.56
19305	23.632	2.	5.e-002	7.6791
19306	23.816	1.9091	0.	181.04
19307	23.816	2.	5.e-002	7.824
19308	23.908	2.	0.	177.69
19309	10.643	1.8182	0.	6284.6
19310	10.551	1.7273	0.	6417.9
19311	10.551	1.8182	5.e-002	538.98
19312	10.459	1.8182	0.	6353.3
19313	10.827	1.8182	0.	4840.9
19314	10.735	1.7273	0.	4863.6
19315	10.735	1.8182	5.e-002	180.53
19316	11.011	1.8182	0.	4154.9
19317	10.919	1.7273	0.	4144.5
19318	10.919	1.8182	5.e-002	83.94
19319	11.196	1.8182	0.	3746.1
19320	11.104	1.7273	0.	3729.5
19321	11.104	1.8182	5.e-002	60.476
19322	11.38	1.8182	0.	3466.9
19323	11.288	1.7273	0.	3449.3
19324	11.288	1.8182	5.e-002	47.425
19325	11.564	1.8182	0.	3264.5
19326	11.472	1.7273	0.	3251.4
19327	11.472	1.8182	5.e-002	38.43
19328	11.748	1.8182	0.	3109.7
19329	11.656	1.7273	0.	3102.8
19330	11.656	1.8182	5.e-002	32.071
19331	11.933	1.8182	0.	2986.
19332	11.841	1.7273	0.	2985.5
19333	11.841	1.8182	5.e-002	27.28
19334	12.117	1.8182	0.	2883.2
19335	12.025	1.7273	0.	2888.6
19336	12.025	1.8182	5.e-002	23.555
19337	12.301	1.8182	0.	2795.1
19338	12.209	1.7273	0.	2805.5
19339	12.209	1.8182	5.e-002	20.593
19340	12.485	1.8182	0.	2717.5
19341	12.393	1.7273	0.	2732.
19342	12.393	1.8182	5.e-002	18.212
19343	12.67	1.8182	0.	2647.7
19344	12.577	1.7273	0.	2665.3
19345	12.577	1.8182	5.e-002	16.288
19346	12.854	1.8182	0.	2583.7
19347	12.762	1.7273	0.	2603.7
19348	12.762	1.8182	5.e-002	14.733
19349	13.038	1.8182	0.	2524.2
19350	12.946	1.7273	0.	2545.9
19351	12.946	1.8182	5.e-002	13.48
19352	13.222	1.8182	0.	2468.1
19353	13.13	1.7273	0.	2491.
19354	13.13	1.8182	5.e-002	12.471
19355	13.407	1.8182	0.	2414.8
19356	13.314	1.7273	0.	2438.5
19357	13.314	1.8182	5.e-002	11.663
19358	13.591	1.8182	0.	2363.6
19359	13.499	1.7273	0.	2387.9
19360	13.499	1.8182	5.e-002	11.014
19361	13.775	1.8182	0.	2314.1
19362	13.683	1.7273	0.	2338.7
19363	13.683	1.8182	5.e-002	10.494
19364	13.959	1.8182	0.	2265.9
19365	13.867	1.7273	0.	2290.6
19366	13.867	1.8182	5.e-002	10.075
19367	14.143	1.8182	0.	2218.8
19368	14.051	1.7273	0.	2243.5
19369	14.051	1.8182	5.e-002	9.7368
19370	14.328	1.8182	0.	2172.5
19371	14.236	1.7273	0.	2197.2
19372	14.236	1.8182	5.e-002	9.4607
19373	14.512	1.8182	0.	2126.9
19374	14.42	1.7273	0.	2151.4
19375	14.42	1.8182	5.e-002	9.2333
19376	14.696	1.8182	0.	2081.8
19377	14.604	1.7273	0.	2106.2
19378	14.604	1.8182	5.e-002	9.044
19379	14.88	1.8182	0.	2037.2
19380	14.788	1.7273	0.	2061.4
19381	14.788	1.8182	5.e-002	8.8844
19382	15.065	1.8182	0.	1992.8
19383	14.973	1.7273	0.	2016.9
19384	14.973	1.8182	5.e-002	8.7481
19385	15.249	1.8182	0.	1948.8
19386	15.157	1.7273	0.	1972.6
19387	15.157	1.8182	5.e-002	8.63
19388	15.433	1.8182	0.	1904.9
19389	15.341	1.7273	0.	1928.6
19390	15.341	1.8182	5.e-002	8.5263
19391	15.617	1.8182	0.	1861.3
19392	15.525	1.7273	0.	1884.8
19393	15.525	1.8182	5.e-002	8.4342
19394	15.802	1.8182	0.	1817.8
19395	15.709	1.7273	0.	1841.2
19396	15.709	1.8182	5.e-002	8.3512
19397	15.986	1.8182	0.	1774.5
19398	15.894	1.7273	0.	1797.7
19399	15.894	1.8182	5.e-002	8.2758
19400	16.17	1.8182	0.	1731.3
19401	16.078	1.7273	0.	1754.3
19402	16.078	1.8182	5.e-002	8.2066
19403	16.354	1.8182	0.	1688.3
19404	16.262	1.7273	0.	1711.1
19405	16.262	1.8182	5.e-002	8.1424
19406	16.539	1.8182	0.	1645.4
19407	16.446	1.7273	0.	1668.1
19408	16.446	1.8182	5.e-002	8.0824
19409	16.723	1.8182	0.	1602.6
19410	16.631	1.7273	0.	1625.1
19411	16.631	1.8182	5.e-002	8.0261
19412	16.907	1.8182	0.	1559.9
19413	16.815	1.7273	0.	1582.3
19414	16.815	1.8182	5.e-002	7.9729
19415	17.091	1.8182	0.	1517.4
19416	16.999	1.7273	0.	1539.6
19417	16.999	1.8182	5.e-002	7.9224
19418	17.275	1.8182	0.	1475.
19419	17.183	1.7273	0.	1497.1
19420	17.183	1.8182	5.e-002	7.8742
19421	17.46	1.8182	0.	1432.8
19422	17.368	1.7273	0.	1454.7
19423	17.368	1.8182	5.e-002	7.8281
19424	17.644	1.8182	0.	1390.7
19425	17.552	1.7273	0.	1412.4
19426	17.552	1.8182	5.e-002	7.784
19427	17.828	1.8182	0.	1348.7
19428	17.736	1.7273	0.	1370.3
19429	17.736	1.8182	5.e-002	7.7417
19430	18.012	1.8182	0.	1306.9
19431	17.92	1.7273	0.	1328.4
19432	17.92	1.8182	5.e-002	7.7011
19433	18.197	1.8182	0.	1265.3
19434	18.105	1.7273	0.	1286.6
19435	18.105	1.8182	5.e-002	7.662
19436	18.381	1.8182	0.	1223.9
19437	18.289	1.7273	0.	1245.
19438	18.289	1.8182	5.e-002	7.6244
19439	18.565	1.8182	0.	1182.6
19440	18.473	1.7273	0.	1203.6
19441	18.473	1.8182	5.e-002	7.5882
19442	18.749	1.8182	0.	1141.6
19443	18.657	1.7273	0.	1162.4
19444	18.657	1.8182	5.e-002	7.5534
19445	18.934	1.8182	0.	1100.7
19446	18.841	1.7273	0.	1121.4
19447	18.841	1.8182	5.e-002	7.52
19448	19.118	1.8182	0.	1060.1
19449	19.026	1.7273	0.	1080.6
19450	19.026	1.8182	5.e-002	7.488
19451	19.302	1.8182	0.	1019.7
19452	19.21	1.7273	0.	1040.
19453	19.21	1.8182	5.e-002	7.4574
19454	19.486	1.8182	0.	979.5
19455	19.394	1.7273	0.	999.6
19456	19.394	1.8182	5.e-002	7.4283
19457	19.67	1.8182	0.	939.56
19458	19.578	1.7273	0.	959.46
19459	19.578	1.8182	5.e-002	7.4006
19460	19.855	1.8182	0.	899.88
19461	19.763	1.7273	0.	919.56
19462	19.763	1.8182	5.e-002	7.3745
19463	20.039	1.8182	0.	860.46
19464	19.947	1.7273	0.	879.92
19465	19.947	1.8182	5.e-002	7.35
19466	20.223	1.8182	0.	821.31
19467	20.131	1.7273	0.	840.54
19468	20.131	1.8182	5.e-002	7.3272
19469	20.407	1.8182	0.	782.46
19470	20.315	1.7273	0.	801.44
19471	20.315	1.8182	5.e-002	7.3063
19472	20.592	1.8182	0.	743.91
19473	20.5	1.7273	0.	762.63
19474	20.5	1.8182	5.e-002	7.2874
19475	20.776	1.8182	0.	705.68
19476	20.684	1.7273	0.	724.13
19477	20.684	1.8182	5.e-002	7.2707
19478	20.96	1.8182	0.	667.8
19479	20.868	1.7273	0.	685.96
19480	20.868	1.8182	5.e-002	7.2564
19481	21.144	1.8182	0.	630.29
19482	21.052	1.7273	0.	648.13
19483	21.052	1.8182	5.e-002	7.2447
19484	21.329	1.8182	0.	593.17
19485	21.236	1.7273	0.	610.67
19486	21.236	1.8182	5.e-002	7.2358
19487	21.513	1.8182	0.	556.47
19488	21.421	1.7273	0.	573.61
19489	21.421	1.8182	5.e-002	7.2303
19490	21.697	1.8182	0.	520.25
19491	21.605	1.7273	0.	536.99
19492	21.605	1.8182	5.e-002	7.2284
19493	21.881	1.8182	0.	484.53
19494	21.789	1.7273	0.	500.84
19495	21.789	1.8182	5.e-002	7.2307
19496	22.066	1.8182	0.	449.4
19497	21.973	1.7273	0.	465.24
19498	21.973	1.8182	5.e-002	7.2378
19499	22.25	1.8182	0.	414.91
19500	22.158	1.7273	0.	430.23
19501	22.158	1.8182	5.e-002	7.2504
19502	22.434	1.8182	0.	381.17
19503	22.342	1.7273	0.	395.91
19504	22.342	1.8182	5.e-002	7.2694
19505	22.618	1.8182	0.	348.31
19506	22.526	1.7273	0.	362.41
19507	22.526	1.8182	5.e-002	7.2957
19508	22.802	1.8182	0.	316.51
19509	22.71	1.7273	0.	329.86
19510	22.71	1.8182	5.e-002	7.3304
19511	22.987	1.8182	0.	286.
19512	22.895	1.7273	0.	298.47
19513	22.895	1.8182	5.e-002	7.3748
19514	23.171	1.8182	0.	257.13
19515	23.079	1.7273	0.	268.54
19516	23.079	1.8182	5.e-002	7.43
19517	23.355	1.8182	0.	230.38
19518	23.263	1.7273	0.	240.48
19519	23.263	1.8182	5.e-002	7.497
19520	23.539	1.8182	0.	206.48
19521	23.447	1.7273	0.	214.87
19522	23.447	1.8182	5.e-002	7.5762
19523	23.724	1.8182	0.	186.44
19524	23.632	1.7273	0.	192.6
19525	23.632	1.8182	5.e-002	7.671
19526	23.816	1.7273	0.	174.9
19527	23.816	1.8182	5.e-002	7.8395
19528	23.908	1.8182	0.	171.96
19529	10.643	1.6364	0.	4878.4
19530	10.551	1.5455	0.	4852.2
19531	10.551	1.6364	5.e-002	301.92
19532	10.459	1.6364	0.	4405.4
19533	10.827	1.6364	0.	4135.1
19534	10.735	1.5455	0.	4036.
19535	10.735	1.6364	5.e-002	118.22
19536	11.011	1.6364	0.	3704.1
19537	10.919	1.5455	0.	3624.3
19538	10.919	1.6364	5.e-002	72.205
19539	11.196	1.6364	0.	3423.4
19540	11.104	1.5455	0.	3357.3
19541	11.104	1.6364	5.e-002	52.269
19542	11.38	1.6364	0.	3228.1
19543	11.288	1.5455	0.	3175.5
19544	11.288	1.6364	5.e-002	40.409
19545	11.564	1.6364	0.	3086.2
19546	11.472	1.5455	0.	3047.
19547	11.472	1.6364	5.e-002	33.146
19548	11.748	1.6364	0.	2976.5
19549	11.656	1.5455	0.	2949.8
19550	11.656	1.6364	5.e-002	27.798
19551	11.933	1.6364	0.	2887.
19552	11.841	1.5455	0.	2871.4
19553	11.841	1.6364	5.e-002	23.743
19554	12.117	1.6364	0.	2810.3
19555	12.025	1.5455	0.	2804.1
19556	12.025	1.6364	5.e-002	20.58
19557	12.301	1.6364	0.	2742.1
19558	12.209	1.5455	0.	2743.6
19559	12.209	1.6364	5.e-002	18.075
19560	12.485	1.6364	0.	2679.6
19561	12.393	1.5455	0.	2687.2
19562	12.393	1.6364	5.e-002	16.08
19563	12.67	1.6364	0.	2621.3
19564	12.577	1.5455	0.	2633.6
19565	12.577	1.6364	5.e-002	14.488
19566	12.854	1.6364	0.	2565.9
19567	12.762	1.5455	0.	2581.9
19568	12.762	1.6364	5.e-002	13.222
19569	13.038	1.6364	0.	2512.8
19570	12.946	1.5455	0.	2531.5
19571	12.946	1.6364	5.e-002	12.219
19572	13.222	1.6364	0.	2461.5
19573	13.13	1.5455	0.	2482.2
19574	13.13	1.6364	5.e-002	11.427
19575	13.407	1.6364	0.	2411.6
19576	13.314	1.5455	0.	2433.8
19577	13.314	1.6364	5.e-002	10.804
19578	13.591	1.6364	0.	2362.9
19579	13.499	1.5455	0.	2386.1
19580	13.499	1.6364	5.e-002	10.312
19581	13.775	1.6364	0.	2315.2
19582	13.683	1.5455	0.	2339.
19583	13.683	1.6364	5.e-002	9.9238
19584	13.959	1.6364	0.	2268.2
19585	13.867	1.5455	0.	2292.4
19586	13.867	1.6364	5.e-002	9.6145
19587	14.143	1.6364	0.	2221.9
19588	14.051	1.5455	0.	2246.3
19589	14.051	1.6364	5.e-002	9.3656
19590	14.328	1.6364	0.	2176.1
19591	14.236	1.5455	0.	2200.6
19592	14.236	1.6364	5.e-002	9.1627
19593	14.512	1.6364	0.	2130.8
19594	14.42	1.5455	0.	2155.3
19595	14.42	1.6364	5.e-002	8.9946
19596	14.696	1.6364	0.	2085.8
19597	14.604	1.5455	0.	2110.3
19598	14.604	1.6364	5.e-002	8.853
19599	14.88	1.6364	0.	2041.1
19600	14.788	1.5455	0.	2065.5
19601	14.788	1.6364	5.e-002	8.7317
19602	15.065	1.6364	0.	1996.7
19603	14.973	1.5455	0.	2020.9
19604	14.973	1.6364	5.e-002	8.6259
19605	15.249	1.6364	0.	1952.5
19606	15.157	1.5455	0.	1976.6
19607	15.157	1.6364	5.e-002	8.5322
19608	15.433	1.6364	0.	1908.5
19609	15.341	1.5455	0.	1932.4
19610	15.341	1.6364	5.e-002	8.448
19611	15.617	1.6364	0.	1864.7
19612	15.525	1.5455	0.	1888.4
19613	15.525	1.6364	5.e-002	8.3713
19614	15.802	1.6364	0.	1821.
19615	15.709	1.5455	0.	1844.6
19616	15.709	1.6364	5.e-002	8.3006
19617	15.986	1.6364	0.	1777.5
19618	15.894	1.5455	0.	1800.9
19619	15.894	1.6364	5.e-002	8.2349
19620	16.17	1.6364	0.	1734.1
19621	16.078	1.5455	0.	1757.4
19622	16.078	1.6364	5.e-002	8.1733
19623	16.354	1.6364	0.	1690.9
19624	16.262	1.5455	0.	1714.
19625	16.262	1.6364	5.e-002	8.1152
19626	16.539	1.6364	0.	1647.8
19627	16.446	1.5455	0.	1670.7
19628	16.446	1.6364	5.e-002	8.0601
19629	16.723	1.6364	0.	1604.8
19630	16.631	1.5455	0.	1627.6
19631	16.631	1.6364	5.e-002	8.0076
19632	16.907	1.6364	0.	1562.
19633	16.815	1.5455	0.	1584.6
19634	16.815	1.6364	5.e-002	7.9574
19635	17.091	1.6364	0.	1519.3
19636	16.999	1.5455	0.	1541.7
19637	16.999	1.6364	5.e-002	7.9093
19638	17.275	1.6364	0.	1476.8
19639	17.183	1.5455	0.	1499.
19640	17.183	1.6364	5.e-002	7.863
19641	17.46	1.6364	0.	1434.4
19642	17.368	1.5455	0.	1456.5
19643	17.368	1.6364	5.e-002	7.8184
19644	17.644	1.6364	0.	1392.1
19645	17.552	1.5455	0.	1414.1
19646	17.552	1.6364	5.e-002	7.7756
19647	17.828	1.6364	0.	1350.
19648	17.736	1.5455	0.	1371.8
19649	17.736	1.6364	5.e-002	7.7342
19650	18.012	1.6364	0.	1308.1
19651	17.92	1.5455	0.	1329.7
19652	17.92	1.6364	5.e-002	7.6943
19653	18.197	1.6364	0.	1266.4
19654	18.105	1.5455	0.	1287.8
19655	18.105	1.6364	5.e-002	7.6558
19656	18.381	1.6364	0.	1224.8
19657	18.289	1.5455	0.	1246.1
19658	18.289	1.6364	5.e-002	7.6187
19659	18.565	1.6364	0.	1183.4
19660	18.473	1.5455	0.	1204.6
19661	18.473	1.6364	5.e-002	7.5828
19662	18.749	1.6364	0.	1142.2
19663	18.657	1.5455	0.	1163.2
19664	18.657	1.6364	5.e-002	7.5483
19665	18.934	1.6364	0.	1101.3
19666	18.841	1.5455	0.	1122.
19667	18.841	1.6364	5.e-002	7.5151
19668	19.118	1.6364	0.	1060.5
19669	19.026	1.5455	0.	1081.1
19670	19.026	1.6364	5.e-002	7.4832
19671	19.302	1.6364	0.	1019.9
19672	19.21	1.5455	0.	1040.3
19673	19.21	1.6364	5.e-002	7.4527
19674	19.486	1.6364	0.	979.6
19675	19.394	1.5455	0.	999.81
19676	19.394	1.6364	5.e-002	7.4235
19677	19.67	1.6364	0.	939.5
19678	19.578	1.5455	0.	959.51
19679	19.578	1.6364	5.e-002	7.3958
19680	19.855	1.6364	0.	899.65
19681	19.763	1.5455	0.	919.45
19682	19.763	1.6364	5.e-002	7.3695
19683	20.039	1.6364	0.	860.05
19684	19.947	1.5455	0.	879.63
19685	19.947	1.6364	5.e-002	7.3449
19686	20.223	1.6364	0.	820.72
19687	20.131	1.5455	0.	840.06
19688	20.131	1.6364	5.e-002	7.3218
19689	20.407	1.6364	0.	781.67
19690	20.315	1.5455	0.	800.76
19691	20.315	1.6364	5.e-002	7.3006
19692	20.592	1.6364	0.	742.9
19693	20.5	1.5455	0.	761.73
19694	20.5	1.6364	5.e-002	7.2812
19695	20.776	1.6364	0.	704.45
19696	20.684	1.5455	0.	723.
19697	20.684	1.6364	5.e-002	7.264
19698	20.96	1.6364	0.	666.33
19699	20.868	1.5455	0.	684.57
19700	20.868	1.6364	5.e-002	7.249
19701	21.144	1.6364	0.	628.55
19702	21.052	1.5455	0.	646.47
19703	21.052	1.6364	5.e-002	7.2364
19704	21.329	1.6364	0.	591.15
19705	21.236	1.5455	0.	608.73
19706	21.236	1.6364	5.e-002	7.2266
19707	21.513	1.6364	0.	554.16
19708	21.421	1.5455	0.	571.36
19709	21.421	1.6364	5.e-002	7.2199
19710	21.697	1.6364	0.	517.61
19711	21.605	1.5455	0.	534.41
19712	21.605	1.6364	5.e-002	7.2167
19713	21.881	1.6364	0.	481.56
19714	21.789	1.5455	0.	497.91
19715	21.789	1.6364	5.e-002	7.2175
19716	22.066	1.6364	0.	446.07
19717	21.973	1.5455	0.	461.93
19718	21.973	1.6364	5.e-002	7.2228
19719	22.25	1.6364	0.	411.22
19720	22.158	1.5455	0.	426.53
19721	22.158	1.6364	5.e-002	7.2335
19722	22.434	1.6364	0.	377.1
19723	22.342	1.5455	0.	391.8
19724	22.342	1.6364	5.e-002	7.2504
19725	22.618	1.6364	0.	343.86
19726	22.526	1.5455	0.	357.87
19727	22.526	1.6364	5.e-002	7.2747
19728	22.802	1.6364	0.	311.67
19729	22.71	1.5455	0.	324.88
19730	22.71	1.6364	5.e-002	7.3077
19731	22.987	1.6364	0.	280.77
19732	22.895	1.5455	0.	293.06
19733	22.895	1.6364	5.e-002	7.3509
19734	23.171	1.6364	0.	251.52
19735	23.079	1.5455	0.	262.7
19736	23.079	1.6364	5.e-002	7.406
19737	23.355	1.6364	0.	224.41
19738	23.263	1.5455	0.	234.21
19739	23.263	1.6364	5.e-002	7.4746
19740	23.539	1.6364	0.	200.17
19741	23.447	1.5455	0.	208.2
19742	23.447	1.6364	5.e-002	7.5577
19743	23.724	1.6364	0.	179.86
19744	23.632	1.5455	0.	185.57
19745	23.632	1.6364	5.e-002	7.6601
19746	23.816	1.5455	0.	167.65
19747	23.816	1.6364	5.e-002	7.8567
19748	23.908	1.6364	0.	165.11
19749	10.643	1.4545	0.	3877.6
19750	10.551	1.3636	0.	3769.1
19751	10.551	1.4545	5.e-002	198.89
19752	10.459	1.4545	0.	3419.5
19753	10.827	1.4545	0.	3479.7
19754	10.735	1.3636	0.	3321.3
19755	10.735	1.4545	5.e-002	115.67
19756	11.011	1.4545	0.	3254.
19757	10.919	1.3636	0.	3120.5
19758	10.919	1.4545	5.e-002	69.198
19759	11.196	1.4545	0.	3096.5
19760	11.104	1.3636	0.	2988.9
19761	11.104	1.4545	5.e-002	48.898
19762	11.38	1.4545	0.	2987.
19763	11.288	1.3636	0.	2902.9
19764	11.288	1.4545	5.e-002	36.918
19765	11.564	1.4545	0.	2906.3
19766	11.472	1.3636	0.	2843.2
19767	11.472	1.4545	5.e-002	29.631
19768	11.748	1.4545	0.	2842.2
19769	11.656	1.3636	0.	2797.3
19770	11.656	1.4545	5.e-002	24.51
19771	11.933	1.4545	0.	2787.1
19772	11.841	1.3636	0.	2757.5
19773	11.841	1.4545	5.e-002	20.735
19774	12.117	1.4545	0.	2736.6
19775	12.025	1.3636	0.	2719.6
19776	12.025	1.4545	5.e-002	17.854
19777	12.301	1.4545	0.	2688.3
19778	12.209	1.3636	0.	2681.5
19779	12.209	1.4545	5.e-002	15.633
19780	12.485	1.4545	0.	2641.1
19781	12.393	1.3636	0.	2642.2
19782	12.393	1.4545	5.e-002	13.919
19783	12.67	1.4545	0.	2594.2
19784	12.577	1.3636	0.	2601.7
19785	12.577	1.4545	5.e-002	12.604
19786	12.854	1.4545	0.	2547.6
19787	12.762	1.3636	0.	2559.8
19788	12.762	1.4545	5.e-002	11.604
19789	13.038	1.4545	0.	2501.
19790	12.946	1.3636	0.	2516.9
19791	12.946	1.4545	5.e-002	10.85
19792	13.222	1.4545	0.	2454.6
19793	13.13	1.3636	0.	2473.2
19794	13.13	1.4545	5.e-002	10.284
19795	13.407	1.4545	0.	2408.3
19796	13.314	1.3636	0.	2428.9
19797	13.314	1.4545	5.e-002	9.8606
19798	13.591	1.4545	0.	2362.2
19799	13.499	1.3636	0.	2384.2
19800	13.499	1.4545	5.e-002	9.542
19801	13.775	1.4545	0.	2316.3
19802	13.683	1.3636	0.	2339.3
19803	13.683	1.4545	5.e-002	9.2995
19804	13.959	1.4545	0.	2270.6
19805	13.867	1.3636	0.	2294.3
19806	13.867	1.4545	5.e-002	9.1116
19807	14.143	1.4545	0.	2225.1
19808	14.051	1.3636	0.	2249.2
19809	14.051	1.4545	5.e-002	8.9624
19810	14.328	1.4545	0.	2179.9
19811	14.236	1.3636	0.	2204.2
19812	14.236	1.4545	5.e-002	8.8403
19813	14.512	1.4545	0.	2134.8
19814	14.42	1.3636	0.	2159.3
19815	14.42	1.4545	5.e-002	8.7373
19816	14.696	1.4545	0.	2090.
19817	14.604	1.3636	0.	2114.5
19818	14.604	1.4545	5.e-002	8.648
19819	14.88	1.4545	0.	2045.3
19820	14.788	1.3636	0.	2069.8
19821	14.788	1.4545	5.e-002	8.5683
19822	15.065	1.4545	0.	2000.9
19823	14.973	1.3636	0.	2025.2
19824	14.973	1.4545	5.e-002	8.4956
19825	15.249	1.4545	0.	1956.5
19826	15.157	1.3636	0.	1980.8
19827	15.157	1.4545	5.e-002	8.4282
19828	15.433	1.4545	0.	1912.4
19829	15.341	1.3636	0.	1936.5
19830	15.341	1.4545	5.e-002	8.3647
19831	15.617	1.4545	0.	1868.4
19832	15.525	1.3636	0.	1892.4
19833	15.525	1.4545	5.e-002	8.3045
19834	15.802	1.4545	0.	1824.5
19835	15.709	1.3636	0.	1848.3
19836	15.709	1.4545	5.e-002	8.2468
19837	15.986	1.4545	0.	1780.8
19838	15.894	1.3636	0.	1804.5
19839	15.894	1.4545	5.e-002	8.1914
19840	16.17	1.4545	0.	1737.2
19841	16.078	1.3636	0.	1760.7
19842	16.078	1.4545	5.e-002	8.138
19843	16.354	1.4545	0.	1693.8
19844	16.262	1.3636	0.	1717.1
19845	16.262	1.4545	5.e-002	8.0863
19846	16.539	1.4545	0.	1650.5
19847	16.446	1.3636	0.	1673.6
19848	16.446	1.4545	5.e-002	8.0363
19849	16.723	1.4545	0.	1607.4
19850	16.631	1.3636	0.	1630.3
19851	16.631	1.4545	5.e-002	7.9878
19852	16.907	1.4545	0.	1564.3
19853	16.815	1.3636	0.	1587.1
19854	16.815	1.4545	5.e-002	7.9408
19855	17.091	1.4545	0.	1521.5
19856	16.999	1.3636	0.	1544.1
19857	16.999	1.4545	5.e-002	7.8952
19858	17.275	1.4545	0.	1478.8
19859	17.183	1.3636	0.	1501.2
19860	17.183	1.4545	5.e-002	7.8509
19861	17.46	1.4545	0.	1436.2
19862	17.368	1.3636	0.	1458.5
19863	17.368	1.4545	5.e-002	7.808
19864	17.644	1.4545	0.	1393.8
19865	17.552	1.3636	0.	1415.9
19866	17.552	1.4545	5.e-002	7.7664
19867	17.828	1.4545	0.	1351.6
19868	17.736	1.3636	0.	1373.5
19869	17.736	1.4545	5.e-002	7.726
19870	18.012	1.4545	0.	1309.5
19871	17.92	1.3636	0.	1331.3
19872	17.92	1.4545	5.e-002	7.6869
19873	18.197	1.4545	0.	1267.6
19874	18.105	1.3636	0.	1289.2
19875	18.105	1.4545	5.e-002	7.649
19876	18.381	1.4545	0.	1225.9
19877	18.289	1.3636	0.	1247.3
19878	18.289	1.4545	5.e-002	7.6123
19879	18.565	1.4545	0.	1184.4
19880	18.473	1.3636	0.	1205.7
19881	18.473	1.4545	5.e-002	7.5769
19882	18.749	1.4545	0.	1143.
19883	18.657	1.3636	0.	1164.1
19884	18.657	1.4545	5.e-002	7.5426
19885	18.934	1.4545	0.	1101.9
19886	18.841	1.3636	0.	1122.8
19887	18.841	1.4545	5.e-002	7.5096
19888	19.118	1.4545	0.	1061.
19889	19.026	1.3636	0.	1081.7
19890	19.026	1.4545	5.e-002	7.4778
19891	19.302	1.4545	0.	1020.3
19892	19.21	1.3636	0.	1040.8
19893	19.21	1.4545	5.e-002	7.4474
19894	19.486	1.4545	0.	979.78
19895	19.394	1.3636	0.	1000.1
19896	19.394	1.4545	5.e-002	7.4182
19897	19.67	1.4545	0.	939.51
19898	19.578	1.3636	0.	959.65
19899	19.578	1.4545	5.e-002	7.3904
19900	19.855	1.4545	0.	899.47
19901	19.763	1.3636	0.	919.4
19902	19.763	1.4545	5.e-002	7.364
19903	20.039	1.4545	0.	859.68
19904	19.947	1.3636	0.	879.39
19905	19.947	1.4545	5.e-002	7.3391
19906	20.223	1.4545	0.	820.15
19907	20.131	1.3636	0.	839.62
19908	20.131	1.4545	5.e-002	7.3158
19909	20.407	1.4545	0.	780.87
19910	20.315	1.3636	0.	800.1
19911	20.315	1.4545	5.e-002	7.2941
19912	20.592	1.4545	0.	741.88
19913	20.5	1.3636	0.	760.84
19914	20.5	1.4545	5.e-002	7.2743
19915	20.776	1.4545	0.	703.17
19916	20.684	1.3636	0.	721.85
19917	20.684	1.4545	5.e-002	7.2565
19918	20.96	1.4545	0.	664.77
19919	20.868	1.3636	0.	683.15
19920	20.868	1.4545	5.e-002	7.2408
19921	21.144	1.4545	0.	626.71
19922	21.052	1.3636	0.	644.76
19923	21.052	1.4545	5.e-002	7.2273
19924	21.329	1.4545	0.	588.99
19925	21.236	1.3636	0.	606.7
19926	21.236	1.4545	5.e-002	7.2165
19927	21.513	1.4545	0.	551.66
19928	21.421	1.3636	0.	568.99
19929	21.421	1.4545	5.e-002	7.2085
19930	21.697	1.4545	0.	514.75
19931	21.605	1.3636	0.	531.67
19932	21.605	1.4545	5.e-002	7.2038
19933	21.881	1.4545	0.	478.31
19934	21.789	1.3636	0.	494.77
19935	21.789	1.4545	5.e-002	7.2028
19936	22.066	1.4545	0.	442.41
19937	21.973	1.3636	0.	458.36
19938	21.973	1.4545	5.e-002	7.2061
19939	22.25	1.4545	0.	407.12
19940	22.158	1.3636	0.	422.5
19941	22.158	1.4545	5.e-002	7.2145
19942	22.434	1.4545	0.	372.55
19943	22.342	1.3636	0.	387.28
19944	22.342	1.4545	5.e-002	7.2289
19945	22.618	1.4545	0.	338.83
19946	22.526	1.3636	0.	352.83
19947	22.526	1.4545	5.e-002	7.2506
19948	22.802	1.4545	0.	306.15
19949	22.71	1.3636	0.	319.31
19950	22.71	1.4545	5.e-002	7.2812
19951	22.987	1.4545	0.	274.77
19952	22.895	1.3636	0.	286.94
19953	22.895	1.4545	5.e-002	7.3225
19954	23.171	1.4545	0.	245.04
19955	23.079	1.3636	0.	256.02
19956	23.079	1.4545	5.e-002	7.3769
19957	23.355	1.4545	0.	217.46
19958	23.263	1.3636	0.	226.99
19959	23.263	1.4545	5.e-002	7.4467
19960	23.539	1.4545	0.	192.79
19961	23.447	1.3636	0.	200.47
19962	23.447	1.4545	5.e-002	7.5341
19963	23.724	1.4545	0.	172.14
19964	23.632	1.3636	0.	177.39
19965	23.632	1.4545	5.e-002	7.6455
19966	23.816	1.3636	0.	159.18
19967	23.816	1.4545	5.e-002	7.8751
19968	23.908	1.4545	0.	157.07
19969	10.643	1.2727	0.	3123.1
19970	10.551	1.1818	0.	2990.4
19971	10.551	1.2727	5.e-002	156.95
19972	10.459	1.2727	0.	2692.
19973	10.827	1.2727	0.	2912.
19974	10.735	1.1818	0.	2725.4
19975	10.735	1.2727	5.e-002	93.041
19976	11.011	1.2727	0.	2827.6
19977	10.919	1.1818	0.	2660.7
19978	10.919	1.2727	5.e-002	67.922
19979	11.196	1.2727	0.	2779.6
19980	11.104	1.1818	0.	2641.2
19981	11.104	1.2727	5.e-002	48.788
19982	11.38	1.2727	0.	2750.3
19983	11.288	1.1818	0.	2640.7
19984	11.288	1.2727	5.e-002	36.56
19985	11.564	1.2727	0.	2729.2
19986	11.472	1.1818	0.	2645.9
19987	11.472	1.2727	5.e-002	28.385
19988	11.748	1.2727	0.	2709.8
19989	11.656	1.1818	0.	2649.1
19990	11.656	1.2727	5.e-002	22.733
19991	11.933	1.2727	0.	2688.5
19992	11.841	1.1818	0.	2646.6
19993	11.841	1.2727	5.e-002	18.652
19994	12.117	1.2727	0.	2663.7
19995	12.025	1.1818	0.	2637.1
19996	12.025	1.2727	5.e-002	15.647
19997	12.301	1.2727	0.	2635.
19998	12.209	1.1818	0.	2620.6
19999	12.209	1.2727	5.e-002	13.433
20000	12.485	1.2727	0.	2602.6
20001	12.393	1.1818	0.	2597.9
20002	12.393	1.2727	5.e-002	11.827
20003	12.67	1.2727	0.	2567.1
20004	12.577	1.1818	0.	2570.
20005	12.577	1.2727	5.e-002	10.69
20006	12.854	1.2727	0.	2529.1
20007	12.762	1.1818	0.	2537.7
20008	12.762	1.2727	5.e-002	9.9112
20009	13.038	1.2727	0.	2489.
20010	12.946	1.1818	0.	2502.1
20011	12.946	1.2727	5.e-002	9.3945
20012	13.222	1.2727	0.	2447.5
20013	13.13	1.1818	0.	2463.9
20014	13.13	1.2727	5.e-002	9.0618
20015	13.407	1.2727	0.	2404.8
20016	13.314	1.1818	0.	2423.7
20017	13.314	1.2727	5.e-002	8.8521
20018	13.591	1.2727	0.	2361.3
20019	13.499	1.1818	0.	2382.1
20020	13.499	1.2727	5.e-002	8.7209
20021	13.775	1.2727	0.	2317.3
20022	13.683	1.1818	0.	2339.4
20023	13.683	1.2727	5.e-002	8.6375
20024	13.959	1.2727	0.	2272.9
20025	13.867	1.1818	0.	2296.
20026	13.867	1.2727	5.e-002	8.5814
20027	14.143	1.2727	0.	2228.4
20028	14.051	1.1818	0.	2252.1
20029	14.051	1.2727	5.e-002	8.5395
20030	14.328	1.2727	0.	2183.7
20031	14.236	1.1818	0.	2207.8
20032	14.236	1.2727	5.e-002	8.5039
20033	14.512	1.2727	0.	2139.
20034	14.42	1.1818	0.	2163.4
20035	14.42	1.2727	5.e-002	8.4702
20036	14.696	1.2727	0.	2094.4
20037	14.604	1.1818	0.	2118.9
20038	14.604	1.2727	5.e-002	8.4358
20039	14.88	1.2727	0.	2049.8
20040	14.788	1.1818	0.	2074.3
20041	14.788	1.2727	5.e-002	8.3997
20042	15.065	1.2727	0.	2005.2
20043	14.973	1.1818	0.	2029.7
20044	14.973	1.2727	5.e-002	8.3616
20045	15.249	1.2727	0.	1960.8
20046	15.157	1.1818	0.	1985.2
20047	15.157	1.2727	5.e-002	8.3213
20048	15.433	1.2727	0.	1916.5
20049	15.341	1.1818	0.	1940.8
20050	15.341	1.2727	5.e-002	8.2794
20051	15.617	1.2727	0.	1872.3
20052	15.525	1.1818	0.	1896.5
20053	15.525	1.2727	5.e-002	8.236
20054	15.802	1.2727	0.	1828.3
20055	15.709	1.1818	0.	1852.3
20056	15.709	1.2727	5.e-002	8.1917
20057	15.986	1.2727	0.	1784.4
20058	15.894	1.1818	0.	1808.2
20059	15.894	1.2727	5.e-002	8.1468
20060	16.17	1.2727	0.	1740.6
20061	16.078	1.1818	0.	1764.3
20062	16.078	1.2727	5.e-002	8.1016
20063	16.354	1.2727	0.	1697.
20064	16.262	1.1818	0.	1720.5
20065	16.262	1.2727	5.e-002	8.0565
20066	16.539	1.2727	0.	1653.5
20067	16.446	1.1818	0.	1676.8
20068	16.446	1.2727	5.e-002	8.0117
20069	16.723	1.2727	0.	1610.1
20070	16.631	1.1818	0.	1633.3
20071	16.631	1.2727	5.e-002	7.9673
20072	16.907	1.2727	0.	1566.9
20073	16.815	1.1818	0.	1589.9
20074	16.815	1.2727	5.e-002	7.9235
20075	17.091	1.2727	0.	1523.9
20076	16.999	1.1818	0.	1546.7
20077	16.999	1.2727	5.e-002	7.8805
20078	17.275	1.2727	0.	1481.
20079	17.183	1.1818	0.	1503.6
20080	17.183	1.2727	5.e-002	7.8382
20081	17.46	1.2727	0.	1438.2
20082	17.368	1.1818	0.	1460.7
20083	17.368	1.2727	5.e-002	7.7969
20084	17.644	1.2727	0.	1395.7
20085	17.552	1.1818	0.	1418.
20086	17.552	1.2727	5.e-002	7.7565
20087	17.828	1.2727	0.	1353.3
20088	17.736	1.1818	0.	1375.4
20089	17.736	1.2727	5.e-002	7.7172
20090	18.012	1.2727	0.	1311.1
20091	17.92	1.1818	0.	1333.
20092	17.92	1.2727	5.e-002	7.6789
20093	18.197	1.2727	0.	1269.
20094	18.105	1.1818	0.	1290.8
20095	18.105	1.2727	5.e-002	7.6416
20096	18.381	1.2727	0.	1227.1
20097	18.289	1.1818	0.	1248.8
20098	18.289	1.2727	5.e-002	7.6054
20099	18.565	1.2727	0.	1185.5
20100	18.473	1.1818	0.	1206.9
20101	18.473	1.2727	5.e-002	7.5704
20102	18.749	1.2727	0.	1144.
20103	18.657	1.1818	0.	1165.2
20104	18.657	1.2727	5.e-002	7.5364
20105	18.934	1.2727	0.	1102.7
20106	18.841	1.1818	0.	1123.8
20107	18.841	1.2727	5.e-002	7.5036
20108	19.118	1.2727	0.	1061.6
20109	19.026	1.1818	0.	1082.5
20110	19.026	1.2727	5.e-002	7.4719
20111	19.302	1.2727	0.	1020.7
20112	19.21	1.1818	0.	1041.4
20113	19.21	1.2727	5.e-002	7.4415
20114	19.486	1.2727	0.	980.06
20115	19.394	1.1818	0.	1000.6
20116	19.394	1.2727	5.e-002	7.4123
20117	19.67	1.2727	0.	939.6
20118	19.578	1.1818	0.	959.91
20119	19.578	1.2727	5.e-002	7.3844
20120	19.855	1.2727	0.	899.38
20121	19.763	1.1818	0.	919.47
20122	19.763	1.2727	5.e-002	7.3579
20123	20.039	1.2727	0.	859.38
20124	19.947	1.1818	0.	879.25
20125	19.947	1.2727	5.e-002	7.3327
20126	20.223	1.2727	0.	819.63
20127	20.131	1.1818	0.	839.26
20128	20.131	1.2727	5.e-002	7.3091
20129	20.407	1.2727	0.	780.12
20130	20.315	1.1818	0.	799.51
20131	20.315	1.2727	5.e-002	7.2871
20132	20.592	1.2727	0.	740.87
20133	20.5	1.1818	0.	760.
20134	20.5	1.2727	5.e-002	7.2668
20135	20.776	1.2727	0.	701.9
20136	20.684	1.1818	0.	720.75
20137	20.684	1.2727	5.e-002	7.2483
20138	20.96	1.2727	0.	663.2
20139	20.868	1.1818	0.	681.76
20140	20.868	1.2727	5.e-002	7.2318
20141	21.144	1.2727	0.	624.82
20142	21.052	1.1818	0.	643.06
20143	21.052	1.2727	5.e-002	7.2175
20144	21.329	1.2727	0.	586.76
20145	21.236	1.1818	0.	604.65
20146	21.236	1.2727	5.e-002	7.2055
20147	21.513	1.2727	0.	549.05
20148	21.421	1.1818	0.	566.57
20149	21.421	1.2727	5.e-002	7.1962
20150	21.697	1.2727	0.	511.74
20151	21.605	1.1818	0.	528.84
20152	21.605	1.2727	5.e-002	7.1898
20153	21.881	1.2727	0.	474.86
20154	21.789	1.1818	0.	491.51
20155	21.789	1.2727	5.e-002	7.1869
20156	22.066	1.2727	0.	438.49
20157	21.973	1.1818	0.	454.61
20158	21.973	1.2727	5.e-002	7.188
20159	22.25	1.2727	0.	402.69
20160	22.158	1.1818	0.	418.23
20161	22.158	1.2727	5.e-002	7.1938
20162	22.434	1.2727	0.	367.57
20163	22.342	1.1818	0.	382.45
20164	22.342	1.2727	5.e-002	7.2052
20165	22.618	1.2727	0.	333.28
20166	22.526	1.1818	0.	347.39
20167	22.526	1.2727	5.e-002	7.2237
20168	22.802	1.2727	0.	300.01
20169	22.71	1.1818	0.	313.21
20170	22.71	1.2727	5.e-002	7.251
20171	22.987	1.2727	0.	268.01
20172	22.895	1.1818	0.	280.16
20173	22.895	1.2727	5.e-002	7.2894
20174	23.171	1.2727	0.	237.67
20175	23.079	1.1818	0.	248.54
20176	23.079	1.2727	5.e-002	7.3419
20177	23.355	1.2727	0.	209.5
20178	23.263	1.1818	0.	218.81
20179	23.263	1.2727	5.e-002	7.4122
20180	23.539	1.2727	0.	184.28
20181	23.447	1.1818	0.	191.62
20182	23.447	1.2727	5.e-002	7.5036
20183	23.724	1.2727	0.	163.2
20184	23.632	1.1818	0.	167.96
20185	23.632	1.2727	5.e-002	7.6257
20186	23.816	1.1818	0.	149.37
20187	23.816	1.2727	5.e-002	7.8939
20188	23.908	1.2727	0.	147.73
20189	10.643	1.0909	0.	2522.7
20190	10.551	1.	0.	2381.1
20191	10.551	1.0909	5.e-002	124.42
20192	10.459	1.0909	0.	2147.4
20193	10.827	1.0909	0.	2428.8
20194	10.735	1.	0.	2229.3
20195	10.735	1.0909	5.e-002	81.121
20196	11.011	1.0909	0.	2446.5
20197	10.919	1.	0.	2259.9
20198	10.919	1.0909	5.e-002	63.909
20199	11.196	1.0909	0.	2486.
20200	11.104	1.	0.	2327.3
20201	11.104	1.0909	5.e-002	48.974
20202	11.38	1.0909	0.	2527.1
20203	11.288	1.	0.	2399.4
20204	11.288	1.0909	5.e-002	37.375
20205	11.564	1.0909	0.	2560.7
20206	11.472	1.	0.	2462.3
20207	11.472	1.0909	5.e-002	28.761
20208	11.748	1.0909	0.	2583.1
20209	11.656	1.	0.	2510.1
20210	11.656	1.0909	5.e-002	22.391
20211	11.933	1.0909	0.	2593.7
20212	11.841	1.	0.	2541.9
20213	11.841	1.0909	5.e-002	17.665
20214	12.117	1.0909	0.	2593.2
20215	12.025	1.	0.	2558.7
20216	12.025	1.0909	5.e-002	14.174
20217	12.301	1.0909	0.	2583.1
20218	12.209	1.	0.	2562.4
20219	12.209	1.0909	5.e-002	11.653
20220	12.485	1.0909	0.	2565.1
20221	12.393	1.	0.	2555.2
20222	12.393	1.0909	5.e-002	9.9168
20223	12.67	1.0909	0.	2540.5
20224	12.577	1.	0.	2539.2
20225	12.577	1.0909	5.e-002	8.8089
20226	12.854	1.0909	0.	2510.8
20227	12.762	1.	0.	2516.2
20228	12.762	1.0909	5.e-002	8.1782
20229	13.038	1.0909	0.	2477.
20230	12.946	1.	0.	2487.5
20231	12.946	1.0909	5.e-002	7.8785
20232	13.222	1.0909	0.	2440.2
20233	13.13	1.	0.	2454.7
20234	13.13	1.0909	5.e-002	7.7842
20235	13.407	1.0909	0.	2401.1
20236	13.314	1.	0.	2418.5
20237	13.314	1.0909	5.e-002	7.8027
20238	13.591	1.0909	0.	2360.3
20239	13.499	1.	0.	2379.9
20240	13.499	1.0909	5.e-002	7.8731
20241	13.775	1.0909	0.	2318.2
20242	13.683	1.	0.	2339.4
20243	13.683	1.0909	5.e-002	7.9596
20244	13.959	1.0909	0.	2275.2
20245	13.867	1.	0.	2297.6
20246	13.867	1.0909	5.e-002	8.0426
20247	14.143	1.0909	0.	2231.6
20248	14.051	1.	0.	2254.9
20249	14.051	1.0909	5.e-002	8.1128
20250	14.328	1.0909	0.	2187.6
20251	14.236	1.	0.	2211.4
20252	14.236	1.0909	5.e-002	8.1665
20253	14.512	1.0909	0.	2143.3
20254	14.42	1.	0.	2167.5
20255	14.42	1.0909	5.e-002	8.2034
20256	14.696	1.0909	0.	2098.8
20257	14.604	1.	0.	2123.3
20258	14.604	1.0909	5.e-002	8.2248
20259	14.88	1.0909	0.	2054.3
20260	14.788	1.	0.	2078.9
20261	14.788	1.0909	5.e-002	8.2326
20262	15.065	1.0909	0.	2009.8
20263	14.973	1.	0.	2034.3
20264	14.973	1.0909	5.e-002	8.2288
20265	15.249	1.0909	0.	1965.3
20266	15.157	1.	0.	1989.8
20267	15.157	1.0909	5.e-002	8.2157
20268	15.433	1.0909	0.	1920.8
20269	15.341	1.	0.	1945.3
20270	15.341	1.0909	5.e-002	8.1949
20271	15.617	1.0909	0.	1876.5
20272	15.525	1.	0.	1900.8
20273	15.525	1.0909	5.e-002	8.1683
20274	15.802	1.0909	0.	1832.3
20275	15.709	1.	0.	1856.5
20276	15.709	1.0909	5.e-002	8.1371
20277	15.986	1.0909	0.	1788.2
20278	15.894	1.	0.	1812.2
20279	15.894	1.0909	5.e-002	8.1025
20280	16.17	1.0909	0.	1744.2
20281	16.078	1.	0.	1768.1
20282	16.078	1.0909	5.e-002	8.0655
20283	16.354	1.0909	0.	1700.3
20284	16.262	1.	0.	1724.
20285	16.262	1.0909	5.e-002	8.0267
20286	16.539	1.0909	0.	1656.6
20287	16.446	1.	0.	1680.2
20288	16.446	1.0909	5.e-002	7.9869
20289	16.723	1.0909	0.	1613.1
20290	16.631	1.	0.	1636.4
20291	16.631	1.0909	5.e-002	7.9465
20292	16.907	1.0909	0.	1569.7
20293	16.815	1.	0.	1592.9
20294	16.815	1.0909	5.e-002	7.9059
20295	17.091	1.0909	0.	1526.5
20296	16.999	1.	0.	1549.5
20297	16.999	1.0909	5.e-002	7.8654
20298	17.275	1.0909	0.	1483.4
20299	17.183	1.	0.	1506.2
20300	17.183	1.0909	5.e-002	7.8251
20301	17.46	1.0909	0.	1440.5
20302	17.368	1.	0.	1463.1
20303	17.368	1.0909	5.e-002	7.7854
20304	17.644	1.0909	0.	1397.8
20305	17.552	1.	0.	1420.2
20306	17.552	1.0909	5.e-002	7.7463
20307	17.828	1.0909	0.	1355.2
20308	17.736	1.	0.	1377.5
20309	17.736	1.0909	5.e-002	7.7079
20310	18.012	1.0909	0.	1312.8
20311	17.92	1.	0.	1334.9
20312	17.92	1.0909	5.e-002	7.6704
20313	18.197	1.0909	0.	1270.6
20314	18.105	1.	0.	1292.6
20315	18.105	1.0909	5.e-002	7.6338
20316	18.381	1.0909	0.	1228.6
20317	18.289	1.	0.	1250.4
20318	18.289	1.0909	5.e-002	7.5981
20319	18.565	1.0909	0.	1186.7
20320	18.473	1.	0.	1208.3
20321	18.473	1.0909	5.e-002	7.5634
20322	18.749	1.0909	0.	1145.1
20323	18.657	1.	0.	1166.5
20324	18.657	1.0909	5.e-002	7.5297
20325	18.934	1.0909	0.	1103.6
20326	18.841	1.	0.	1124.9
20327	18.841	1.0909	5.e-002	7.497
20328	19.118	1.0909	0.	1062.4
20329	19.026	1.	0.	1083.4
20330	19.026	1.0909	5.e-002	7.4655
20331	19.302	1.0909	0.	1021.3
20332	19.21	1.	0.	1042.2
20333	19.21	1.0909	5.e-002	7.4351
20334	19.486	1.0909	0.	980.47
20335	19.394	1.	0.	1001.1
20336	19.394	1.0909	5.e-002	7.4059
20337	19.67	1.0909	0.	939.83
20338	19.578	1.	0.	960.31
20339	19.578	1.0909	5.e-002	7.3779
20340	19.855	1.0909	0.	899.4
20341	19.763	1.	0.	919.67
20342	19.763	1.0909	5.e-002	7.3512
20343	20.039	1.0909	0.	859.19
20344	19.947	1.	0.	879.25
20345	19.947	1.0909	5.e-002	7.3258
20346	20.223	1.0909	0.	819.21
20347	20.131	1.	0.	839.04
20348	20.131	1.0909	5.e-002	7.3019
20349	20.407	1.0909	0.	779.46
20350	20.315	1.	0.	799.05
20351	20.315	1.0909	5.e-002	7.2795
20352	20.592	1.0909	0.	739.95
20353	20.5	1.	0.	759.28
20354	20.5	1.0909	5.e-002	7.2586
20355	20.776	1.0909	0.	700.69
20356	20.684	1.	0.	719.75
20357	20.684	1.0909	5.e-002	7.2395
20358	20.96	1.0909	0.	661.69
20359	20.868	1.	0.	680.47
20360	20.868	1.0909	5.e-002	7.2222
20361	21.144	1.0909	0.	622.96
20362	21.052	1.	0.	641.44
20363	21.052	1.0909	5.e-002	7.2069
20364	21.329	1.0909	0.	584.54
20365	21.236	1.	0.	602.67
20366	21.236	1.0909	5.e-002	7.1938
20367	21.513	1.0909	0.	546.43
20368	21.421	1.	0.	564.2
20369	21.421	1.0909	5.e-002	7.1831
20370	21.697	1.0909	0.	508.68
20371	21.605	1.	0.	526.04
20372	21.605	1.0909	5.e-002	7.175
20373	21.881	1.0909	0.	471.32
20374	21.789	1.	0.	488.23
20375	21.789	1.0909	5.e-002	7.1701
20376	22.066	1.0909	0.	434.42
20377	21.973	1.	0.	450.81
20378	21.973	1.0909	5.e-002	7.1687
20379	22.25	1.0909	0.	398.04
20380	22.158	1.	0.	413.85
20381	22.158	1.0909	5.e-002	7.1715
20382	22.434	1.0909	0.	362.29
20383	22.342	1.	0.	377.43
20384	22.342	1.0909	5.e-002	7.1796
20385	22.618	1.0909	0.	327.32
20386	22.526	1.	0.	341.66
20387	22.526	1.0909	5.e-002	7.1942
20388	22.802	1.0909	0.	293.32
20389	22.71	1.	0.	306.71
20390	22.71	1.0909	5.e-002	7.2172
20391	22.987	1.0909	0.	260.55
20392	22.895	1.	0.	272.82
20393	22.895	1.0909	5.e-002	7.2513
20394	23.171	1.0909	0.	229.42
20395	23.079	1.	0.	240.31
20396	23.079	1.0909	5.e-002	7.3004
20397	23.355	1.0909	0.	200.48
20398	23.263	1.	0.	209.66
20399	23.263	1.0909	5.e-002	7.3695
20400	23.539	1.0909	0.	174.54
20401	23.447	1.	0.	181.58
20402	23.447	1.0909	5.e-002	7.4644
20403	23.724	1.0909	0.	152.89
20404	23.632	1.	0.	157.15
20405	23.632	1.0909	5.e-002	7.5987
20406	23.816	1.	0.	138.05
20407	23.816	1.0909	5.e-002	7.9116
20408	23.908	1.0909	0.	136.92
20409	10.643	0.90909	0.	2029.5
20410	10.551	0.81818	0.	1879.3
20411	10.551	0.90909	5.e-002	103.17
20412	10.459	0.90909	0.	1708.4
20413	10.827	0.90909	0.	2020.8
20414	10.735	0.81818	0.	1814.1
20415	10.735	0.90909	5.e-002	71.602
20416	11.011	0.90909	0.	2115.7
20417	10.919	0.81818	0.	1918.4
20418	10.919	0.90909	5.e-002	60.007
20419	11.196	0.90909	0.	2225.9
20420	11.104	0.81818	0.	2055.7
20421	11.104	0.90909	5.e-002	48.466
20422	11.38	0.90909	0.	2326.1
20423	11.288	0.81818	0.	2187.7
20424	11.288	0.90909	5.e-002	38.214
20425	11.564	0.90909	0.	2406.9
20426	11.472	0.81818	0.	2298.9
20427	11.472	0.90909	5.e-002	29.71
20428	11.748	0.90909	0.	2466.2
20429	11.656	0.81818	0.	2384.9
20430	11.656	0.90909	5.e-002	22.908
20431	11.933	0.90909	0.	2505.4
20432	11.841	0.81818	0.	2446.5
20433	11.841	0.90909	5.e-002	17.572
20434	12.117	0.90909	0.	2527.1
20435	12.025	0.81818	0.	2486.5
20436	12.025	0.90909	5.e-002	13.468
20437	12.301	0.90909	0.	2534.1
20438	12.209	0.81818	0.	2508.2
20439	12.209	0.90909	5.e-002	10.42
20440	12.485	0.90909	0.	2529.2
20441	12.393	0.81818	0.	2515.1
20442	12.393	0.90909	5.e-002	8.3077
20443	12.67	0.90909	0.	2514.8
20444	12.577	0.81818	0.	2510.
20445	12.577	0.90909	5.e-002	7.0291
20446	12.854	0.90909	0.	2492.9
20447	12.762	0.81818	0.	2495.4
20448	12.762	0.90909	5.e-002	6.439
20449	13.038	0.90909	0.	2465.2
20450	12.946	0.81818	0.	2473.4
20451	12.946	0.90909	5.e-002	6.3277
20452	13.222	0.90909	0.	2433.
20453	13.13	0.81818	0.	2445.5
20454	13.13	0.90909	5.e-002	6.4817
20455	13.407	0.90909	0.	2397.3
20456	13.314	0.81818	0.	2413.2
20457	13.314	0.90909	5.e-002	6.7456
20458	13.591	0.90909	0.	2359.1
20459	13.499	0.81818	0.	2377.6
20460	13.499	0.90909	5.e-002	7.0306
20461	13.775	0.90909	0.	2318.9
20462	13.683	0.81818	0.	2339.3
20463	13.683	0.90909	5.e-002	7.2941
20464	13.959	0.90909	0.	2277.4
20465	13.867	0.81818	0.	2299.1
20466	13.867	0.90909	5.e-002	7.519
20467	14.143	0.90909	0.	2234.7
20468	14.051	0.81818	0.	2257.5
20469	14.051	0.90909	5.e-002	7.7013
20470	14.328	0.90909	0.	2191.4
20471	14.236	0.81818	0.	2214.9
20472	14.236	0.90909	5.e-002	7.843
20473	14.512	0.90909	0.	2147.5
20474	14.42	0.81818	0.	2171.6
20475	14.42	0.90909	5.e-002	7.9488
20476	14.696	0.90909	0.	2103.3
20477	14.604	0.81818	0.	2127.7
20478	14.604	0.90909	5.e-002	8.0239
20479	14.88	0.90909	0.	2058.9
20480	14.788	0.81818	0.	2083.5
20481	14.788	0.90909	5.e-002	8.0737
20482	15.065	0.90909	0.	2014.4
20483	14.973	0.81818	0.	2039.
20484	14.973	0.90909	5.e-002	8.1028
20485	15.249	0.90909	0.	1969.9
20486	15.157	0.81818	0.	1994.5
20487	15.157	0.90909	5.e-002	8.1153
20488	15.433	0.90909	0.	1925.3
20489	15.341	0.81818	0.	1949.9
20490	15.341	0.90909	5.e-002	8.1146
20491	15.617	0.90909	0.	1880.8
20492	15.525	0.81818	0.	1905.3
20493	15.525	0.90909	5.e-002	8.1037
20494	15.802	0.90909	0.	1836.4
20495	15.709	0.81818	0.	1860.8
20496	15.709	0.90909	5.e-002	8.0848
20497	15.986	0.90909	0.	1792.1
20498	15.894	0.81818	0.	1816.4
20499	15.894	0.90909	5.e-002	8.0599
20500	16.17	0.90909	0.	1748.
20501	16.078	0.81818	0.	1772.
20502	16.078	0.90909	5.e-002	8.0305
20503	16.354	0.90909	0.	1703.9
20504	16.262	0.81818	0.	1727.8
20505	16.262	0.90909	5.e-002	7.9978
20506	16.539	0.90909	0.	1660.
20507	16.446	0.81818	0.	1683.8
20508	16.446	0.90909	5.e-002	7.9627
20509	16.723	0.90909	0.	1616.3
20510	16.631	0.81818	0.	1639.8
20511	16.631	0.90909	5.e-002	7.9261
20512	16.907	0.90909	0.	1572.7
20513	16.815	0.81818	0.	1596.1
20514	16.815	0.90909	5.e-002	7.8884
20515	17.091	0.90909	0.	1529.3
20516	16.999	0.81818	0.	1552.5
20517	16.999	0.90909	5.e-002	7.8502
20518	17.275	0.90909	0.	1486.
20519	17.183	0.81818	0.	1509.
20520	17.183	0.90909	5.e-002	7.8118
20521	17.46	0.90909	0.	1442.9
20522	17.368	0.81818	0.	1465.8
20523	17.368	0.90909	5.e-002	7.7736
20524	17.644	0.90909	0.	1400.
20525	17.552	0.81818	0.	1422.7
20526	17.552	0.90909	5.e-002	7.7357
20527	17.828	0.90909	0.	1357.3
20528	17.736	0.81818	0.	1379.8
20529	17.736	0.90909	5.e-002	7.6983
20530	18.012	0.90909	0.	1314.7
20531	17.92	0.81818	0.	1337.1
20532	17.92	0.90909	5.e-002	7.6615
20533	18.197	0.90909	0.	1272.4
20534	18.105	0.81818	0.	1294.5
20535	18.105	0.90909	5.e-002	7.6254
20536	18.381	0.90909	0.	1230.2
20537	18.289	0.81818	0.	1252.1
20538	18.289	0.90909	5.e-002	7.5902
20539	18.565	0.90909	0.	1188.2
20540	18.473	0.81818	0.	1210.
20541	18.473	0.90909	5.e-002	7.5558
20542	18.749	0.90909	0.	1146.4
20543	18.657	0.81818	0.	1168.
20544	18.657	0.90909	5.e-002	7.5224
20545	18.934	0.90909	0.	1104.7
20546	18.841	0.81818	0.	1126.2
20547	18.841	0.90909	5.e-002	7.4899
20548	19.118	0.90909	0.	1063.3
20549	19.026	0.81818	0.	1084.6
20550	19.026	0.90909	5.e-002	7.4585
20551	19.302	0.90909	0.	1022.1
20552	19.21	0.81818	0.	1043.1
20553	19.21	0.90909	5.e-002	7.4281
20554	19.486	0.90909	0.	981.05
20555	19.394	0.81818	0.	1001.9
20556	19.394	0.90909	5.e-002	7.3989
20557	19.67	0.90909	0.	940.21
20558	19.578	0.81818	0.	960.89
20559	19.578	0.90909	5.e-002	7.3708
20560	19.855	0.90909	0.	899.58
20561	19.763	0.81818	0.	920.05
20562	19.763	0.90909	5.e-002	7.3439
20563	20.039	0.90909	0.	859.16
20564	19.947	0.81818	0.	879.42
20565	19.947	0.90909	5.e-002	7.3183
20566	20.223	0.90909	0.	818.94
20567	20.131	0.81818	0.	838.99
20568	20.131	0.90909	5.e-002	7.294
20569	20.407	0.90909	0.	778.94
20570	20.315	0.81818	0.	798.76
20571	20.315	0.90909	5.e-002	7.2712
20572	20.592	0.90909	0.	739.16
20573	20.5	0.81818	0.	758.74
20574	20.5	0.90909	5.e-002	7.2498
20575	20.776	0.90909	0.	699.61
20576	20.684	0.81818	0.	718.93
20577	20.684	0.90909	5.e-002	7.2301
20578	20.96	0.90909	0.	660.3
20579	20.868	0.81818	0.	679.35
20580	20.868	0.90909	5.e-002	7.212
20581	21.144	0.90909	0.	621.23
20582	21.052	0.81818	0.	639.98
20583	21.052	0.90909	5.e-002	7.1957
20584	21.329	0.90909	0.	582.42
20585	21.236	0.81818	0.	600.86
20586	21.236	0.90909	5.e-002	7.1814
20587	21.513	0.90909	0.	543.9
20588	21.421	0.81818	0.	561.99
20589	21.421	0.90909	5.e-002	7.1692
20590	21.697	0.90909	0.	505.68
20591	21.605	0.81818	0.	523.39
20592	21.605	0.90909	5.e-002	7.1594
20593	21.881	0.90909	0.	467.81
20594	21.789	0.81818	0.	485.08
20595	21.789	0.90909	5.e-002	7.1523
20596	22.066	0.90909	0.	430.34
20597	21.973	0.81818	0.	447.12
20598	21.973	0.90909	5.e-002	7.1483
20599	22.25	0.90909	0.	393.32
20600	22.158	0.81818	0.	409.54
20601	22.158	0.90909	5.e-002	7.1481
20602	22.434	0.90909	0.	356.87
20603	22.342	0.81818	0.	372.41
20604	22.342	0.90909	5.e-002	7.1523
20605	22.618	0.90909	0.	321.1
20606	22.526	0.81818	0.	335.86
20607	22.526	0.90909	5.e-002	7.1624
20608	22.802	0.90909	0.	286.22
20609	22.71	0.81818	0.	300.01
20610	22.71	0.90909	5.e-002	7.1801
20611	22.987	0.90909	0.	252.51
20612	22.895	0.81818	0.	265.11
20613	22.895	0.90909	5.e-002	7.2083
20614	23.171	0.90909	0.	220.37
20615	23.079	0.81818	0.	231.48
20616	23.079	0.90909	5.e-002	7.2517
20617	23.355	0.90909	0.	190.39
20618	23.263	0.81818	0.	199.63
20619	23.263	0.90909	5.e-002	7.3169
20620	23.539	0.90909	0.	163.48
20621	23.447	0.81818	0.	170.34
20622	23.447	0.90909	5.e-002	7.4132
20623	23.724	0.90909	0.	141.06
20624	23.632	0.81818	0.	144.81
20625	23.632	0.90909	5.e-002	7.5608
20626	23.816	0.81818	0.	124.97
20627	23.816	0.90909	5.e-002	7.9261
20628	23.908	0.90909	0.	124.43
20629	10.643	0.72727	0.	1611.6
20630	10.551	0.63636	0.	1448.8
20631	10.551	0.72727	5.e-002	88.147
20632	10.459	0.72727	0.	1335.9
20633	10.827	0.72727	0.	1677.6
20634	10.735	0.63636	0.	1464.9
20635	10.735	0.72727	5.e-002	65.255
20636	11.011	0.72727	0.	1838.
20637	10.919	0.63636	0.	1636.6
20638	10.919	0.72727	5.e-002	56.949
20639	11.196	0.72727	0.	2005.8
20640	11.104	0.63636	0.	1832.3
20641	11.104	0.72727	5.e-002	47.736
20642	11.38	0.72727	0.	2153.8
20643	11.288	0.63636	0.	2011.8
20644	11.288	0.72727	5.e-002	38.729
20645	11.564	0.72727	0.	2273.1
20646	11.472	0.63636	0.	2161.
20647	11.472	0.72727	5.e-002	30.625
20648	11.748	0.72727	0.	2362.9
20649	11.656	0.63636	0.	2277.3
20650	11.656	0.72727	5.e-002	23.702
20651	11.933	0.72727	0.	2426.2
20652	11.841	0.63636	0.	2363.
20653	11.841	0.72727	5.e-002	17.975
20654	12.117	0.72727	0.	2466.9
20655	12.025	0.63636	0.	2422.2
20656	12.025	0.72727	5.e-002	13.359
20657	12.301	0.72727	0.	2488.9
20658	12.209	0.63636	0.	2459.3
20659	12.209	0.72727	5.e-002	9.7553
20660	12.485	0.72727	0.	2495.7
20661	12.393	0.63636	0.	2478.3
20662	12.393	0.72727	5.e-002	7.1108
20663	12.67	0.72727	0.	2490.5
20664	12.577	0.63636	0.	2482.8
20665	12.577	0.72727	5.e-002	5.435
20666	12.854	0.72727	0.	2475.8
20667	12.762	0.63636	0.	2475.9
20668	12.762	0.72727	5.e-002	4.7242
20669	13.038	0.72727	0.	2453.7
20670	12.946	0.63636	0.	2459.8
20671	12.946	0.72727	5.e-002	4.7673
20672	13.222	0.72727	0.	2425.8
20673	13.13	0.63636	0.	2436.7
20674	13.13	0.72727	5.e-002	5.193
20675	13.407	0.72727	0.	2393.5
20676	13.314	0.63636	0.	2408.
20677	13.314	0.72727	5.e-002	5.725
20678	13.591	0.72727	0.	2357.8
20679	13.499	0.63636	0.	2375.2
20680	13.499	0.72727	5.e-002	6.2343
20681	13.775	0.72727	0.	2319.5
20682	13.683	0.63636	0.	2339.1
20683	13.683	0.72727	5.e-002	6.6748
20684	13.959	0.72727	0.	2279.4
20685	13.867	0.63636	0.	2300.5
20686	13.867	0.72727	5.e-002	7.037
20687	14.143	0.72727	0.	2237.8
20688	14.051	0.63636	0.	2260.1
20689	14.051	0.72727	5.e-002	7.3251
20690	14.328	0.72727	0.	2195.1
20691	14.236	0.63636	0.	2218.3
20692	14.236	0.72727	5.e-002	7.5484
20693	14.512	0.72727	0.	2151.8
20694	14.42	0.63636	0.	2175.6
20695	14.42	0.72727	5.e-002	7.7173
20696	14.696	0.72727	0.	2107.9
20697	14.604	0.63636	0.	2132.1
20698	14.604	0.72727	5.e-002	7.8413
20699	14.88	0.72727	0.	2063.6
20700	14.788	0.63636	0.	2088.1
20701	14.788	0.72727	5.e-002	7.9289
20702	15.065	0.72727	0.	2019.1
20703	14.973	0.63636	0.	2043.8
20704	14.973	0.72727	5.e-002	7.9875
20705	15.249	0.72727	0.	1974.6
20706	15.157	0.63636	0.	1999.3
20707	15.157	0.72727	5.e-002	8.0229
20708	15.433	0.72727	0.	1929.9
20709	15.341	0.63636	0.	1954.6
20710	15.341	0.72727	5.e-002	8.0402
20711	15.617	0.72727	0.	1885.3
20712	15.525	0.63636	0.	1909.9
20713	15.525	0.72727	5.e-002	8.0433
20714	15.802	0.72727	0.	1840.8
20715	15.709	0.63636	0.	1865.3
20716	15.709	0.72727	5.e-002	8.0354
20717	15.986	0.72727	0.	1796.3
20718	15.894	0.63636	0.	1820.7
20719	15.894	0.72727	5.e-002	8.0191
20720	16.17	0.72727	0.	1751.9
20721	16.078	0.63636	0.	1776.2
20722	16.078	0.72727	5.e-002	7.9964
20723	16.354	0.72727	0.	1707.7
20724	16.262	0.63636	0.	1731.8
20725	16.262	0.72727	5.e-002	7.969
20726	16.539	0.72727	0.	1663.6
20727	16.446	0.63636	0.	1687.5
20728	16.446	0.72727	5.e-002	7.9381
20729	16.723	0.72727	0.	1619.7
20730	16.631	0.63636	0.	1643.4
20731	16.631	0.72727	5.e-002	7.9048
20732	16.907	0.72727	0.	1575.9
20733	16.815	0.63636	0.	1599.5
20734	16.815	0.72727	5.e-002	7.8698
20735	17.091	0.72727	0.	1532.3
20736	16.999	0.63636	0.	1555.7
20737	16.999	0.72727	5.e-002	7.8337
20738	17.275	0.72727	0.	1488.9
20739	17.183	0.63636	0.	1512.1
20740	17.183	0.72727	5.e-002	7.797
20741	17.46	0.72727	0.	1445.6
20742	17.368	0.63636	0.	1468.6
20743	17.368	0.72727	5.e-002	7.7601
20744	17.644	0.72727	0.	1402.5
20745	17.552	0.63636	0.	1425.4
20746	17.552	0.72727	5.e-002	7.7233
20747	17.828	0.72727	0.	1359.6
20748	17.736	0.63636	0.	1382.3
20749	17.736	0.72727	5.e-002	7.6867
20750	18.012	0.72727	0.	1316.9
20751	17.92	0.63636	0.	1339.4
20752	17.92	0.72727	5.e-002	7.6506
20753	18.197	0.72727	0.	1274.3
20754	18.105	0.63636	0.	1296.7
20755	18.105	0.72727	5.e-002	7.6151
20756	18.381	0.72727	0.	1232.
20757	18.289	0.63636	0.	1254.1
20758	18.289	0.72727	5.e-002	7.5803
20759	18.565	0.72727	0.	1189.8
20760	18.473	0.63636	0.	1211.8
20761	18.473	0.72727	5.e-002	7.5463
20762	18.749	0.72727	0.	1147.8
20763	18.657	0.63636	0.	1169.7
20764	18.657	0.72727	5.e-002	7.5131
20765	18.934	0.72727	0.	1106.1
20766	18.841	0.63636	0.	1127.7
20767	18.841	0.72727	5.e-002	7.4808
20768	19.118	0.72727	0.	1064.5
20769	19.026	0.63636	0.	1085.9
20770	19.026	0.72727	5.e-002	7.4494
20771	19.302	0.72727	0.	1023.
20772	19.21	0.63636	0.	1044.3
20773	19.21	0.72727	5.e-002	7.4191
20774	19.486	0.72727	0.	981.82
20775	19.394	0.63636	0.	1002.9
20776	19.394	0.72727	5.e-002	7.3898
20777	19.67	0.72727	0.	940.79
20778	19.578	0.63636	0.	961.69
20779	19.578	0.72727	5.e-002	7.3616
20780	19.855	0.72727	0.	899.96
20781	19.763	0.63636	0.	920.67
20782	19.763	0.72727	5.e-002	7.3346
20783	20.039	0.72727	0.	859.32
20784	19.947	0.63636	0.	879.83
20785	19.947	0.72727	5.e-002	7.3087
20786	20.223	0.72727	0.	818.88
20787	20.131	0.63636	0.	839.18
20788	20.131	0.72727	5.e-002	7.2842
20789	20.407	0.72727	0.	778.63
20790	20.315	0.63636	0.	798.72
20791	20.315	0.72727	5.e-002	7.2609
20792	20.592	0.72727	0.	738.59
20793	20.5	0.63636	0.	758.45
20794	20.5	0.72727	5.e-002	7.239
20795	20.776	0.72727	0.	698.75
20796	20.684	0.63636	0.	718.37
20797	20.684	0.72727	5.e-002	7.2186
20798	20.96	0.72727	0.	659.12
20799	20.868	0.63636	0.	678.49
20800	20.868	0.72727	5.e-002	7.1998
20801	21.144	0.72727	0.	619.71
20802	21.052	0.63636	0.	638.8
20803	21.052	0.72727	5.e-002	7.1826
20804	21.329	0.72727	0.	580.52
20805	21.236	0.63636	0.	599.33
20806	21.236	0.72727	5.e-002	7.1671
20807	21.513	0.72727	0.	541.58
20808	21.421	0.63636	0.	560.06
20809	21.421	0.72727	5.e-002	7.1535
20810	21.697	0.72727	0.	502.89
20811	21.605	0.63636	0.	521.02
20812	21.605	0.72727	5.e-002	7.142
20813	21.881	0.72727	0.	464.5
20814	21.789	0.63636	0.	482.23
20815	21.789	0.72727	5.e-002	7.1328
20816	22.066	0.72727	0.	426.43
20817	21.973	0.63636	0.	443.71
20818	21.973	0.72727	5.e-002	7.1262
20819	22.25	0.72727	0.	388.74
20820	22.158	0.63636	0.	405.5
20821	22.158	0.72727	5.e-002	7.1227
20822	22.434	0.72727	0.	351.52
20823	22.342	0.63636	0.	367.65
20824	22.342	0.72727	5.e-002	7.1229
20825	22.618	0.72727	0.	314.87
20826	22.526	0.63636	0.	330.25
20827	22.526	0.72727	5.e-002	7.1279
20828	22.802	0.72727	0.	278.98
20829	22.71	0.63636	0.	293.43
20830	22.71	0.72727	5.e-002	7.1394
20831	22.987	0.72727	0.	244.11
20832	22.895	0.63636	0.	257.37
20833	22.895	0.72727	5.e-002	7.1601
20834	23.171	0.72727	0.	210.67
20835	23.079	0.63636	0.	222.38
20836	23.079	0.72727	5.e-002	7.1948
20837	23.355	0.72727	0.	179.31
20838	23.263	0.63636	0.	188.97
20839	23.263	0.72727	5.e-002	7.2519
20840	23.539	0.72727	0.	151.04
20841	23.447	0.63636	0.	157.96
20842	23.447	0.72727	5.e-002	7.3451
20843	23.724	0.72727	0.	127.49
20844	23.632	0.63636	0.	130.78
20845	23.632	0.72727	5.e-002	7.5062
20846	23.816	0.63636	0.	109.79
20847	23.816	0.72727	5.e-002	7.9325
20848	23.908	0.72727	0.	109.95
20849	10.643	0.54545	0.	1252.5
20850	10.551	0.45455	0.	1069.9
20851	10.551	0.54545	5.e-002	78.076
20852	10.459	0.54545	0.	1006.2
20853	10.827	0.54545	0.	1396.3
20854	10.735	0.45455	0.	1180.1
20855	10.735	0.54545	5.e-002	61.647
20856	11.011	0.54545	0.	1616.3
20857	10.919	0.45455	0.	1418.7
20858	10.919	0.54545	5.e-002	55.041
20859	11.196	0.54545	0.	1830.4
20860	11.104	0.45455	0.	1661.6
20861	11.104	0.54545	5.e-002	47.169
20862	11.38	0.54545	0.	2014.5
20863	11.288	0.45455	0.	1875.4
20864	11.288	0.54545	5.e-002	39.041
20865	11.564	0.54545	0.	2162.5
20866	11.472	0.45455	0.	2051.4
20867	11.472	0.54545	5.e-002	31.349
20868	11.748	0.54545	0.	2275.7
20869	11.656	0.45455	0.	2189.3
20870	11.656	0.54545	5.e-002	24.481
20871	11.933	0.54545	0.	2357.9
20872	11.841	0.45455	0.	2292.9
20873	11.841	0.54545	5.e-002	18.573
20874	12.117	0.54545	0.	2413.9
20875	12.025	0.45455	0.	2366.9
20876	12.025	0.54545	5.e-002	13.63
20877	12.301	0.54545	0.	2448.3
20878	12.209	0.45455	0.	2416.3
20879	12.209	0.54545	5.e-002	9.5985
20880	12.485	0.54545	0.	2465.2
20881	12.393	0.45455	0.	2445.4
20882	12.393	0.54545	5.e-002	6.4327
20883	12.67	0.54545	0.	2468.1
20884	12.577	0.45455	0.	2458.1
20885	12.577	0.54545	5.e-002	4.1751
20886	12.854	0.54545	0.	2459.8
20887	12.762	0.45455	0.	2457.8
20888	12.762	0.54545	5.e-002	3.071
20889	13.038	0.54545	0.	2442.8
20890	12.946	0.45455	0.	2447.1
20891	12.946	0.54545	5.e-002	3.2143
20892	13.222	0.54545	0.	2418.9
20893	13.13	0.45455	0.	2428.3
20894	13.13	0.54545	5.e-002	3.965
20895	13.407	0.54545	0.	2389.7
20896	13.314	0.45455	0.	2403.1
20897	13.314	0.54545	5.e-002	4.7898
20898	13.591	0.54545	0.	2356.5
20899	13.499	0.45455	0.	2372.9
20900	13.499	0.54545	5.e-002	5.5203
20901	13.775	0.54545	0.	2320.1
20902	13.683	0.45455	0.	2338.8
20903	13.683	0.54545	5.e-002	6.1242
20904	13.959	0.54545	0.	2281.3
20905	13.867	0.45455	0.	2301.9
20906	13.867	0.54545	5.e-002	6.6077
20907	14.143	0.54545	0.	2240.7
20908	14.051	0.45455	0.	2262.6
20909	14.051	0.54545	5.e-002	6.987
20910	14.328	0.54545	0.	2198.8
20911	14.236	0.45455	0.	2221.7
20912	14.236	0.54545	5.e-002	7.2794
20913	14.512	0.54545	0.	2155.9
20914	14.42	0.45455	0.	2179.6
20915	14.42	0.54545	5.e-002	7.5009
20916	14.696	0.54545	0.	2112.4
20917	14.604	0.45455	0.	2136.5
20918	14.604	0.54545	5.e-002	7.6654
20919	14.88	0.54545	0.	2068.3
20920	14.788	0.45455	0.	2092.8
20921	14.788	0.54545	5.e-002	7.7842
20922	15.065	0.54545	0.	2023.9
20923	14.973	0.45455	0.	2048.6
20924	14.973	0.54545	5.e-002	7.8669
20925	15.249	0.54545	0.	1979.3
20926	15.157	0.45455	0.	2004.1
20927	15.157	0.54545	5.e-002	7.921
20928	15.433	0.54545	0.	1934.7
20929	15.341	0.45455	0.	1959.5
20930	15.341	0.54545	5.e-002	7.9527
20931	15.617	0.54545	0.	1889.9
20932	15.525	0.45455	0.	1914.7
20933	15.525	0.54545	5.e-002	7.9671
20934	15.802	0.54545	0.	1845.2
20935	15.709	0.45455	0.	1870.
20936	15.709	0.54545	5.e-002	7.9679
20937	15.986	0.54545	0.	1800.6
20938	15.894	0.45455	0.	1825.2
20939	15.894	0.54545	5.e-002	7.9585
20940	16.17	0.54545	0.	1756.1
20941	16.078	0.45455	0.	1780.6
20942	16.078	0.54545	5.e-002	7.9412
20943	16.354	0.54545	0.	1711.7
20944	16.262	0.45455	0.	1736.
20945	16.262	0.54545	5.e-002	7.918
20946	16.539	0.54545	0.	1667.4
20947	16.446	0.45455	0.	1691.6
20948	16.446	0.54545	5.e-002	7.8904
20949	16.723	0.54545	0.	1623.3
20950	16.631	0.45455	0.	1647.3
20951	16.631	0.54545	5.e-002	7.8597
20952	16.907	0.54545	0.	1579.3
20953	16.815	0.45455	0.	1603.1
20954	16.815	0.54545	5.e-002	7.8268
20955	17.091	0.54545	0.	1535.5
20956	16.999	0.45455	0.	1559.2
20957	16.999	0.54545	5.e-002	7.7924
20958	17.275	0.54545	0.	1491.9
20959	17.183	0.45455	0.	1515.4
20960	17.183	0.54545	5.e-002	7.757
20961	17.46	0.54545	0.	1448.5
20962	17.368	0.45455	0.	1471.8
20963	17.368	0.54545	5.e-002	7.7212
20964	17.644	0.54545	0.	1405.2
20965	17.552	0.45455	0.	1428.3
20966	17.552	0.54545	5.e-002	7.6852
20967	17.828	0.54545	0.	1362.1
20968	17.736	0.45455	0.	1385.1
20969	17.736	0.54545	5.e-002	7.6494
20970	18.012	0.54545	0.	1319.2
20971	17.92	0.45455	0.	1342.
20972	17.92	0.54545	5.e-002	7.614
20973	18.197	0.54545	0.	1276.5
20974	18.105	0.45455	0.	1299.1
20975	18.105	0.54545	5.e-002	7.579
20976	18.381	0.54545	0.	1234.
20977	18.289	0.45455	0.	1256.5
20978	18.289	0.54545	5.e-002	7.5446
20979	18.565	0.54545	0.	1191.7
20980	18.473	0.45455	0.	1214.
20981	18.473	0.54545	5.e-002	7.511
20982	18.749	0.54545	0.	1149.5
20983	18.657	0.45455	0.	1171.6
20984	18.657	0.54545	5.e-002	7.4781
20985	18.934	0.54545	0.	1107.6
20986	18.841	0.45455	0.	1129.5
20987	18.841	0.54545	5.e-002	7.4461
20988	19.118	0.54545	0.	1065.8
20989	19.026	0.45455	0.	1087.6
20990	19.026	0.54545	5.e-002	7.4151
20991	19.302	0.54545	0.	1024.2
20992	19.21	0.45455	0.	1045.8
20993	19.21	0.54545	5.e-002	7.3849
20994	19.486	0.54545	0.	982.84
20995	19.394	0.45455	0.	1004.2
20996	19.394	0.54545	5.e-002	7.3558
20997	19.67	0.54545	0.	941.63
20998	19.578	0.45455	0.	962.85
20999	19.578	0.54545	5.e-002	7.3278
21000	19.855	0.54545	0.	900.6
21001	19.763	0.45455	0.	921.64
21002	19.763	0.54545	5.e-002	7.3009
21003	20.039	0.54545	0.	859.75
21004	19.947	0.45455	0.	880.61
21005	19.947	0.54545	5.e-002	7.2751
21006	20.223	0.54545	0.	819.09
21007	20.131	0.45455	0.	839.76
21008	20.131	0.54545	5.e-002	7.2506
21009	20.407	0.54545	0.	778.61
21010	20.315	0.45455	0.	799.08
21011	20.315	0.54545	5.e-002	7.2273
21012	20.592	0.54545	0.	738.31
21013	20.5	0.45455	0.	758.57
21014	20.5	0.54545	5.e-002	7.2054
21015	20.776	0.54545	0.	698.2
21016	20.684	0.45455	0.	718.24
21017	20.684	0.54545	5.e-002	7.1848
21018	20.96	0.54545	0.	658.27
21019	20.868	0.45455	0.	678.09
21020	20.868	0.54545	5.e-002	7.1657
21021	21.144	0.54545	0.	618.52
21022	21.052	0.45455	0.	638.1
21023	21.052	0.54545	5.e-002	7.1481
21024	21.329	0.54545	0.	578.97
21025	21.236	0.45455	0.	598.29
21026	21.236	0.54545	5.e-002	7.1321
21027	21.513	0.54545	0.	539.62
21028	21.421	0.45455	0.	558.66
21029	21.421	0.54545	5.e-002	7.1177
21030	21.697	0.54545	0.	500.48
21031	21.605	0.45455	0.	519.21
21032	21.605	0.54545	5.e-002	7.1052
21033	21.881	0.54545	0.	461.58
21034	21.789	0.45455	0.	479.96
21035	21.789	0.54545	5.e-002	7.0947
21036	22.066	0.54545	0.	422.92
21037	21.973	0.45455	0.	440.91
21038	21.973	0.54545	5.e-002	7.0862
21039	22.25	0.54545	0.	384.56
21040	22.158	0.45455	0.	402.09
21041	22.158	0.54545	5.e-002	7.0803
21042	22.434	0.54545	0.	346.55
21043	22.342	0.45455	0.	363.54
21044	22.342	0.54545	5.e-002	7.0773
21045	22.618	0.54545	0.	308.98
21046	22.526	0.45455	0.	325.31
21047	22.526	0.54545	5.e-002	7.0779
21048	22.802	0.54545	0.	271.98
21049	22.71	0.45455	0.	287.48
21050	22.71	0.54545	5.e-002	7.0834
21051	22.987	0.54545	0.	235.79
21052	22.895	0.45455	0.	250.19
21053	22.895	0.54545	5.e-002	7.0961
21054	23.171	0.54545	0.	200.76
21055	23.079	0.45455	0.	213.67
21056	23.079	0.54545	5.e-002	7.1202
21057	23.355	0.54545	0.	167.53
21058	23.263	0.45455	0.	178.33
21059	23.263	0.54545	5.e-002	7.1647
21060	23.539	0.54545	0.	137.26
21061	23.447	0.45455	0.	144.94
21062	23.447	0.54545	5.e-002	7.2477
21063	23.724	0.54545	0.	111.93
21064	23.632	0.45455	0.	115.11
21065	23.632	0.54545	5.e-002	7.4153
21066	23.816	0.45455	0.	91.999
21067	23.816	0.54545	5.e-002	7.9254
21068	23.908	0.54545	0.	93.003
21069	10.643	0.36364	0.	951.42
21070	10.551	0.27273	0.	748.12
21071	10.551	0.36364	5.e-002	72.936
21072	10.459	0.36364	0.	703.72
21073	10.827	0.36364	0.	1184.6
21074	10.735	0.27273	0.	982.68
21075	10.735	0.36364	5.e-002	60.99
21076	11.011	0.36364	0.	1456.1
21077	10.919	0.27273	0.	1278.4
21078	10.919	0.36364	5.e-002	54.885
21079	11.196	0.36364	0.	1702.5
21080	11.104	0.27273	0.	1550.3
21081	11.104	0.36364	5.e-002	47.521
21082	11.38	0.36364	0.	1909.9
21083	11.288	0.27273	0.	1782.5
21084	11.288	0.36364	5.e-002	39.873
21085	11.564	0.36364	0.	2076.6
21086	11.472	0.27273	0.	1972.7
21087	11.472	0.36364	5.e-002	32.48
21088	11.748	0.36364	0.	2205.5
21089	11.656	0.27273	0.	2123.2
21090	11.656	0.36364	5.e-002	25.701
21091	11.933	0.36364	0.	2301.2
21092	11.841	0.27273	0.	2238.1
21093	11.841	0.36364	5.e-002	19.718
21094	12.117	0.36364	0.	2368.8
21095	12.025	0.27273	0.	2322.3
21096	12.025	0.36364	5.e-002	14.582
21097	12.301	0.36364	0.	2413.
21098	12.209	0.27273	0.	2380.6
21099	12.209	0.36364	5.e-002	10.269
21100	12.485	0.36364	0.	2438.1
21101	12.393	0.27273	0.	2417.5
21102	12.393	0.36364	5.e-002	6.7182
21103	12.67	0.36364	0.	2447.8
21104	12.577	0.27273	0.	2437.
21105	12.577	0.36364	5.e-002	3.8757
21106	12.854	0.36364	0.	2445.1
21107	12.762	0.27273	0.	2442.3
21108	12.762	0.36364	5.e-002	1.8403
21109	13.038	0.36364	0.	2432.7
21110	12.946	0.27273	0.	2436.2
21111	12.946	0.36364	5.e-002	1.5404
21112	13.222	0.36364	0.	2412.5
21113	13.13	0.27273	0.	2421.2
21114	13.13	0.36364	5.e-002	2.633
21115	13.407	0.36364	0.	2386.2
21116	13.314	0.27273	0.	2399.1
21117	13.314	0.36364	5.e-002	3.7365
21118	13.591	0.36364	0.	2355.3
21119	13.499	0.27273	0.	2371.4
21120	13.499	0.36364	5.e-002	4.6519
21121	13.775	0.36364	0.	2320.7
21122	13.683	0.27273	0.	2339.3
21123	13.683	0.36364	5.e-002	5.3827
21124	13.959	0.36364	0.	2283.3
21125	13.867	0.27273	0.	2303.9
21126	13.867	0.36364	5.e-002	5.9563
21127	14.143	0.36364	0.	2243.7
21128	14.051	0.27273	0.	2265.8
21129	14.051	0.36364	5.e-002	6.4006
21130	14.328	0.36364	0.	2202.6
21131	14.236	0.27273	0.	2225.8
21132	14.236	0.36364	5.e-002	6.7403
21133	14.512	0.36364	0.	2160.2
21134	14.42	0.27273	0.	2184.3
21135	14.42	0.36364	5.e-002	6.9964
21136	14.696	0.36364	0.	2117.
21137	14.604	0.27273	0.	2141.7
21138	14.604	0.36364	5.e-002	7.1858
21139	14.88	0.36364	0.	2073.2
21140	14.788	0.27273	0.	2098.3
21141	14.788	0.36364	5.e-002	7.3225
21142	15.065	0.36364	0.	2028.9
21143	14.973	0.27273	0.	2054.3
21144	14.973	0.36364	5.e-002	7.4177
21145	15.249	0.36364	0.	1984.3
21146	15.157	0.27273	0.	2009.9
21147	15.157	0.36364	5.e-002	7.4803
21148	15.433	0.36364	0.	1939.6
21149	15.341	0.27273	0.	1965.3
21150	15.341	0.36364	5.e-002	7.5177
21151	15.617	0.36364	0.	1894.8
21152	15.525	0.27273	0.	1920.5
21153	15.525	0.36364	5.e-002	7.5356
21154	15.802	0.36364	0.	1850.
21155	15.709	0.27273	0.	1875.7
21156	15.709	0.36364	5.e-002	7.5384
21157	15.986	0.36364	0.	1805.2
21158	15.894	0.27273	0.	1830.9
21159	15.894	0.36364	5.e-002	7.5299
21160	16.17	0.36364	0.	1760.5
21161	16.078	0.27273	0.	1786.1
21162	16.078	0.36364	5.e-002	7.5128
21163	16.354	0.36364	0.	1715.9
21164	16.262	0.27273	0.	1741.4
21165	16.262	0.36364	5.e-002	7.4893
21166	16.539	0.36364	0.	1671.5
21167	16.446	0.27273	0.	1696.9
21168	16.446	0.36364	5.e-002	7.4613
21169	16.723	0.36364	0.	1627.2
21170	16.631	0.27273	0.	1652.4
21171	16.631	0.36364	5.e-002	7.43
21172	16.907	0.36364	0.	1583.1
21173	16.815	0.27273	0.	1608.2
21174	16.815	0.36364	5.e-002	7.3966
21175	17.091	0.36364	0.	1539.1
21176	16.999	0.27273	0.	1564.1
21177	16.999	0.36364	5.e-002	7.3618
21178	17.275	0.36364	0.	1495.3
21179	17.183	0.27273	0.	1520.1
21180	17.183	0.36364	5.e-002	7.3262
21181	17.46	0.36364	0.	1451.7
21182	17.368	0.27273	0.	1476.4
21183	17.368	0.36364	5.e-002	7.2904
21184	17.644	0.36364	0.	1408.3
21185	17.552	0.27273	0.	1432.8
21186	17.552	0.36364	5.e-002	7.2547
21187	17.828	0.36364	0.	1365.
21188	17.736	0.27273	0.	1389.5
21189	17.736	0.36364	5.e-002	7.2196
21190	18.012	0.36364	0.	1322.
21191	17.92	0.27273	0.	1346.3
21192	17.92	0.36364	5.e-002	7.185
21193	18.197	0.36364	0.	1279.1
21194	18.105	0.27273	0.	1303.3
21195	18.105	0.36364	5.e-002	7.1513
21196	18.381	0.36364	0.	1236.5
21197	18.289	0.27273	0.	1260.5
21198	18.289	0.36364	5.e-002	7.1185
21199	18.565	0.36364	0.	1194.
21200	18.473	0.27273	0.	1217.9
21201	18.473	0.36364	5.e-002	7.0868
21202	18.749	0.36364	0.	1151.7
21203	18.657	0.27273	0.	1175.4
21204	18.657	0.36364	5.e-002	7.0563
21205	18.934	0.36364	0.	1109.6
21206	18.841	0.27273	0.	1133.2
21207	18.841	0.36364	5.e-002	7.027
21208	19.118	0.36364	0.	1067.6
21209	19.026	0.27273	0.	1091.1
21210	19.026	0.36364	5.e-002	6.9989
21211	19.302	0.36364	0.	1025.9
21212	19.21	0.27273	0.	1049.3
21213	19.21	0.36364	5.e-002	6.9722
21214	19.486	0.36364	0.	984.33
21215	19.394	0.27273	0.	1007.6
21216	19.394	0.36364	5.e-002	6.9469
21217	19.67	0.36364	0.	942.94
21218	19.578	0.27273	0.	966.05
21219	19.578	0.36364	5.e-002	6.9231
21220	19.855	0.36364	0.	901.73
21221	19.763	0.27273	0.	924.7
21222	19.763	0.36364	5.e-002	6.9008
21223	20.039	0.36364	0.	860.7
21224	19.947	0.27273	0.	883.52
21225	19.947	0.36364	5.e-002	6.8801
21226	20.223	0.36364	0.	819.83
21227	20.131	0.27273	0.	842.51
21228	20.131	0.36364	5.e-002	6.861
21229	20.407	0.36364	0.	779.14
21230	20.315	0.27273	0.	801.66
21231	20.315	0.36364	5.e-002	6.8437
21232	20.592	0.36364	0.	738.6
21233	20.5	0.27273	0.	760.97
21234	20.5	0.36364	5.e-002	6.8282
21235	20.776	0.36364	0.	698.24
21236	20.684	0.27273	0.	720.44
21237	20.684	0.36364	5.e-002	6.8145
21238	20.96	0.36364	0.	658.03
21239	20.868	0.27273	0.	680.06
21240	20.868	0.36364	5.e-002	6.8028
21241	21.144	0.36364	0.	617.99
21242	21.052	0.27273	0.	639.82
21243	21.052	0.36364	5.e-002	6.7931
21244	21.329	0.36364	0.	578.11
21245	21.236	0.27273	0.	599.73
21246	21.236	0.36364	5.e-002	6.7855
21247	21.513	0.36364	0.	538.39
21248	21.421	0.27273	0.	559.78
21249	21.421	0.36364	5.e-002	6.7802
21250	21.697	0.36364	0.	498.84
21251	21.605	0.27273	0.	519.98
21252	21.605	0.36364	5.e-002	6.7772
21253	21.881	0.36364	0.	459.46
21254	21.789	0.27273	0.	480.32
21255	21.789	0.36364	5.e-002	6.7767
21256	22.066	0.36364	0.	420.26
21257	21.973	0.27273	0.	440.8
21258	21.973	0.36364	5.e-002	6.7788
21259	22.25	0.36364	0.	381.27
21260	22.158	0.27273	0.	401.43
21261	22.158	0.36364	5.e-002	6.7838
21262	22.434	0.36364	0.	342.52
21263	22.342	0.27273	0.	362.23
21264	22.342	0.36364	5.e-002	6.792
21265	22.618	0.36364	0.	304.06
21266	22.526	0.27273	0.	323.21
21267	22.526	0.36364	5.e-002	6.8038
21268	22.802	0.36364	0.	265.96
21269	22.71	0.27273	0.	284.42
21270	22.71	0.36364	5.e-002	6.82
21271	22.987	0.36364	0.	228.38
21272	22.895	0.27273	0.	245.91
21273	22.895	0.36364	5.e-002	6.8423
21274	23.171	0.36364	0.	191.55
21275	23.079	0.27273	0.	207.79
21276	23.079	0.36364	5.e-002	6.8735
21277	23.355	0.36364	0.	155.98
21278	23.263	0.27273	0.	170.29
21279	23.263	0.36364	5.e-002	6.9198
21280	23.539	0.36364	0.	122.74
21281	23.447	0.27273	0.	133.83
21282	23.447	0.36364	5.e-002	6.9994
21283	23.724	0.36364	0.	94.298
21284	23.632	0.27273	0.	99.593
21285	23.632	0.36364	5.e-002	7.1818
21286	23.816	0.27273	0.	71.29
21287	23.816	0.36364	5.e-002	7.8294
21288	23.908	0.36364	0.	72.825
21289	10.643	0.18182	0.	749.11
21290	10.551	0.18182	5.e-002	80.557
21291	10.551	9.0909e-002	0.	478.47
21292	10.459	0.18182	0.	427.82
21293	10.827	0.18182	0.	1069.8
21294	10.735	0.18182	5.e-002	70.943
21295	10.735	9.0909e-002	0.	832.32
21296	11.011	0.18182	0.	1369.5
21297	10.919	0.18182	5.e-002	65.131
21298	10.919	9.0909e-002	0.	1162.1
21299	11.196	0.18182	0.	1628.3
21300	11.104	0.18182	5.e-002	58.232
21301	11.104	9.0909e-002	0.	1451.
21302	11.38	0.18182	0.	1843.9
21303	11.288	0.18182	5.e-002	50.666
21304	11.288	9.0909e-002	0.	1695.8
21305	11.564	0.18182	0.	2018.3
21306	11.472	0.18182	5.e-002	43.004
21307	11.472	9.0909e-002	0.	1897.6
21308	11.748	0.18182	0.	2155.1
21309	11.656	0.18182	5.e-002	35.695
21310	11.656	9.0909e-002	0.	2059.
21311	11.933	0.18182	0.	2258.6
21312	11.841	0.18182	5.e-002	29.034
21313	11.841	9.0909e-002	0.	2184.2
21314	12.117	0.18182	0.	2333.8
21315	12.025	0.18182	5.e-002	23.171
21316	12.025	9.0909e-002	0.	2277.8
21317	12.301	0.18182	0.	2384.9
21318	12.209	0.18182	5.e-002	18.146
21319	12.209	9.0909e-002	0.	2344.5
21320	12.485	0.18182	0.	2416.3
21321	12.393	0.18182	5.e-002	13.928
21322	12.393	9.0909e-002	0.	2388.7
21323	12.67	0.18182	0.	2431.4
21324	12.577	0.18182	5.e-002	10.45
21325	12.577	9.0909e-002	0.	2414.3
21326	12.854	0.18182	0.	2433.4
21327	12.762	0.18182	5.e-002	7.6223
21328	12.762	9.0909e-002	0.	2424.8
21329	13.038	0.18182	0.	2424.8
21330	12.946	0.18182	5.e-002	5.3564
21331	12.946	9.0909e-002	0.	2423.
21332	13.222	0.18182	0.	2407.9
21333	13.13	0.18182	5.e-002	3.5673
21334	13.13	9.0909e-002	0.	2411.5
21335	13.407	0.18182	0.	2384.3
21336	13.314	0.18182	5.e-002	2.1826
21337	13.314	9.0909e-002	0.	2392.1
21338	13.591	0.18182	0.	2355.5
21339	13.499	0.18182	5.e-002	1.1593
21340	13.499	9.0909e-002	0.	2366.6
21341	13.775	0.18182	0.	2322.6
21342	13.683	0.18182	5.e-002	0.57896
21343	13.683	9.0909e-002	0.	2336.3
21344	13.959	0.18182	0.	2286.5
21345	13.867	0.18182	5.e-002	0.69091
21346	13.867	9.0909e-002	0.	2302.1
21347	14.143	0.18182	0.	2248.
21348	14.051	0.18182	5.e-002	1.0296
21349	14.051	9.0909e-002	0.	2265.
21350	14.328	0.18182	0.	2207.7
21351	14.236	0.18182	5.e-002	1.3076
21352	14.236	9.0909e-002	0.	2225.7
21353	14.512	0.18182	0.	2165.9
21354	14.42	0.18182	5.e-002	1.5009
21355	14.42	9.0909e-002	0.	2184.6
21356	14.696	0.18182	0.	2123.1
21357	14.604	0.18182	5.e-002	1.6206
21358	14.604	9.0909e-002	0.	2142.2
21359	14.88	0.18182	0.	2079.6
21360	14.788	0.18182	5.e-002	1.6815
21361	14.788	9.0909e-002	0.	2098.9
21362	15.065	0.18182	0.	2035.5
21363	14.973	0.18182	5.e-002	1.6968
21364	14.973	9.0909e-002	0.	2054.8
21365	15.249	0.18182	0.	1991.1
21366	15.157	0.18182	5.e-002	1.6781
21367	15.157	9.0909e-002	0.	2010.3
21368	15.433	0.18182	0.	1946.4
21369	15.341	0.18182	5.e-002	1.6343
21370	15.341	9.0909e-002	0.	1965.5
21371	15.617	0.18182	0.	1901.6
21372	15.525	0.18182	5.e-002	1.5731
21373	15.525	9.0909e-002	0.	1920.4
21374	15.802	0.18182	0.	1856.8
21375	15.709	0.18182	5.e-002	1.5002
21376	15.709	9.0909e-002	0.	1875.3
21377	15.986	0.18182	0.	1811.9
21378	15.894	0.18182	5.e-002	1.4203
21379	15.894	9.0909e-002	0.	1830.1
21380	16.17	0.18182	0.	1767.2
21381	16.078	0.18182	5.e-002	1.337
21382	16.078	9.0909e-002	0.	1784.9
21383	16.354	0.18182	0.	1722.5
21384	16.262	0.18182	5.e-002	1.2533
21385	16.262	9.0909e-002	0.	1739.9
21386	16.539	0.18182	0.	1678.
21387	16.446	0.18182	5.e-002	1.1714
21388	16.446	9.0909e-002	0.	1694.9
21389	16.723	0.18182	0.	1633.6
21390	16.631	0.18182	5.e-002	1.0931
21391	16.631	9.0909e-002	0.	1650.1
21392	16.907	0.18182	0.	1589.4
21393	16.815	0.18182	5.e-002	1.0197
21394	16.815	9.0909e-002	0.	1605.4
21395	17.091	0.18182	0.	1545.3
21396	16.999	0.18182	5.e-002	0.95239
21397	16.999	9.0909e-002	0.	1560.9
21398	17.275	0.18182	0.	1501.4
21399	17.183	0.18182	5.e-002	0.89203
21400	17.183	9.0909e-002	0.	1516.6
21401	17.46	0.18182	0.	1457.7
21402	17.368	0.18182	5.e-002	0.83944
21403	17.368	9.0909e-002	0.	1472.5
21404	17.644	0.18182	0.	1414.2
21405	17.552	0.18182	5.e-002	0.79532
21406	17.552	9.0909e-002	0.	1428.5
21407	17.828	0.18182	0.	1370.9
21408	17.736	0.18182	5.e-002	0.76015
21409	17.736	9.0909e-002	0.	1384.8
21410	18.012	0.18182	0.	1327.8
21411	17.92	0.18182	5.e-002	0.73431
21412	17.92	9.0909e-002	0.	1341.2
21413	18.197	0.18182	0.	1284.9
21414	18.105	0.18182	5.e-002	0.71805
21415	18.105	9.0909e-002	0.	1297.8
21416	18.381	0.18182	0.	1242.1
21417	18.289	0.18182	5.e-002	0.71148
21418	18.289	9.0909e-002	0.	1254.7
21419	18.565	0.18182	0.	1199.6
21420	18.473	0.18182	5.e-002	0.71453
21421	18.473	9.0909e-002	0.	1211.7
21422	18.749	0.18182	0.	1157.2
21423	18.657	0.18182	5.e-002	0.72699
21424	18.657	9.0909e-002	0.	1168.9
21425	18.934	0.18182	0.	1115.
21426	18.841	0.18182	5.e-002	0.74859
21427	18.841	9.0909e-002	0.	1126.3
21428	19.118	0.18182	0.	1073.
21429	19.026	0.18182	5.e-002	0.77903
21430	19.026	9.0909e-002	0.	1083.9
21431	19.302	0.18182	0.	1031.2
21432	19.21	0.18182	5.e-002	0.81803
21433	19.21	9.0909e-002	0.	1041.7
21434	19.486	0.18182	0.	989.55
21435	19.394	0.18182	5.e-002	0.86541
21436	19.394	9.0909e-002	0.	999.71
21437	19.67	0.18182	0.	948.07
21438	19.578	0.18182	5.e-002	0.92108
21439	19.578	9.0909e-002	0.	957.86
21440	19.855	0.18182	0.	906.77
21441	19.763	0.18182	5.e-002	0.98508
21442	19.763	9.0909e-002	0.	916.18
21443	20.039	0.18182	0.	865.62
21444	19.947	0.18182	5.e-002	1.0575
21445	19.947	9.0909e-002	0.	874.68
21446	20.223	0.18182	0.	824.64
21447	20.131	0.18182	5.e-002	1.1387
21448	20.131	9.0909e-002	0.	833.35
21449	20.407	0.18182	0.	783.8
21450	20.315	0.18182	5.e-002	1.229
21451	20.315	9.0909e-002	0.	792.18
21452	20.592	0.18182	0.	743.12
21453	20.5	0.18182	5.e-002	1.3289
21454	20.5	9.0909e-002	0.	751.17
21455	20.776	0.18182	0.	702.58
21456	20.684	0.18182	5.e-002	1.4388
21457	20.684	9.0909e-002	0.	710.32
21458	20.96	0.18182	0.	662.18
21459	20.868	0.18182	5.e-002	1.5595
21460	20.868	9.0909e-002	0.	669.63
21461	21.144	0.18182	0.	621.92
21462	21.052	0.18182	5.e-002	1.6917
21463	21.052	9.0909e-002	0.	629.09
21464	21.329	0.18182	0.	581.78
21465	21.236	0.18182	5.e-002	1.8361
21466	21.236	9.0909e-002	0.	588.7
21467	21.513	0.18182	0.	541.76
21468	21.421	0.18182	5.e-002	1.9937
21469	21.421	9.0909e-002	0.	548.46
21470	21.697	0.18182	0.	501.87
21471	21.605	0.18182	5.e-002	2.1655
21472	21.605	9.0909e-002	0.	508.37
21473	21.881	0.18182	0.	462.09
21474	21.789	0.18182	5.e-002	2.3527
21475	21.789	9.0909e-002	0.	468.43
21476	22.066	0.18182	0.	422.43
21477	21.973	0.18182	5.e-002	2.5566
21478	21.973	9.0909e-002	0.	428.64
21479	22.25	0.18182	0.	382.89
21480	22.158	0.18182	5.e-002	2.7788
21481	22.158	9.0909e-002	0.	389.02
21482	22.434	0.18182	0.	343.47
21483	22.342	0.18182	5.e-002	3.0211
21484	22.342	9.0909e-002	0.	349.56
21485	22.618	0.18182	0.	304.18
21486	22.526	0.18182	5.e-002	3.286
21487	22.526	9.0909e-002	0.	310.3
21488	22.802	0.18182	0.	265.04
21489	22.71	0.18182	5.e-002	3.5762
21490	22.71	9.0909e-002	0.	271.26
21491	22.987	0.18182	0.	226.09
21492	22.895	0.18182	5.e-002	3.8957
21493	22.895	9.0909e-002	0.	232.47
21494	23.171	0.18182	0.	187.42
21495	23.079	0.18182	5.e-002	4.2502
21496	23.079	9.0909e-002	0.	194.01
21497	23.355	0.18182	0.	149.17
21498	23.263	0.18182	5.e-002	4.6491
21499	23.263	9.0909e-002	0.	155.99
21500	23.539	0.18182	0.	111.77
21501	23.447	0.18182	5.e-002	5.1053
21502	23.447	9.0909e-002	0.	118.6
21503	23.724	0.18182	0.	77.029
21504	23.632	0.18182	5.e-002	5.6785
21505	23.632	9.0909e-002	0.	82.354
21506	23.816	0.18182	5.e-002	6.9008
21507	23.816	9.0909e-002	0.	48.706
21508	23.908	0.18182	0.	48.214
21509	23.724	0.18182	0.1	77.029
21510	23.816	0.27273	0.1	71.29
21511	23.908	0.18182	0.1	48.214
21512	23.816	9.0909e-002	0.1	48.706
21513	23.539	0.18182	0.1	111.77
21514	23.632	0.27273	0.1	99.593
21515	23.632	9.0909e-002	0.1	82.354
21516	23.355	0.18182	0.1	149.17
21517	23.447	0.27273	0.1	133.83
21518	23.447	9.0909e-002	0.1	118.6
21519	23.171	0.18182	0.1	187.42
21520	23.263	0.27273	0.1	170.29
21521	23.263	9.0909e-002	0.1	155.99
21522	22.987	0.18182	0.1	226.09
21523	23.079	0.27273	0.1	207.79
21524	23.079	9.0909e-002	0.1	194.01
21525	22.802	0.18182	0.1	265.04
21526	22.895	0.27273	0.1	245.91
21527	22.895	9.0909e-002	0.1	232.47
21528	22.618	0.18182	0.1	304.18
21529	22.71	0.27273	0.1	284.42
21530	22.71	9.0909e-002	0.1	271.26
21531	22.434	0.18182	0.1	343.47
21532	22.526	0.27273	0.1	323.21
21533	22.526	9.0909e-002	0.1	310.3
21534	22.25	0.18182	0.1	382.89
21535	22.342	0.27273	0.1	362.23
21536	22.342	9.0909e-002	0.1	349.56
21537	22.066	0.18182	0.1	422.43
21538	22.158	0.27273	0.1	401.43
21539	22.158	9.0909e-002	0.1	389.02
21540	21.881	0.18182	0.1	462.09
21541	21.973	0.27273	0.1	440.8
21542	21.973	9.0909e-002	0.1	428.64
21543	21.697	0.18182	0.1	501.87
21544	21.789	0.27273	0.1	480.32
21545	21.789	9.0909e-002	0.1	468.43
21546	21.513	0.18182	0.1	541.76
21547	21.605	0.27273	0.1	519.98
21548	21.605	9.0909e-002	0.1	508.37
21549	21.329	0.18182	0.1	581.78
21550	21.421	0.27273	0.1	559.78
21551	21.421	9.0909e-002	0.1	548.46
21552	21.144	0.18182	0.1	621.92
21553	21.236	0.27273	0.1	599.73
21554	21.236	9.0909e-002	0.1	588.7
21555	20.96	0.18182	0.1	662.18
21556	21.052	0.27273	0.1	639.82
21557	21.052	9.0909e-002	0.1	629.09
21558	20.776	0.18182	0.1	702.58
21559	20.868	0.27273	0.1	680.06
21560	20.868	9.0909e-002	0.1	669.63
21561	20.592	0.18182	0.1	743.12
21562	20.684	0.27273	0.1	720.44
21563	20.684	9.0909e-002	0.1	710.32
21564	20.407	0.18182	0.1	783.8
21565	20.5	0.27273	0.1	760.97
21566	20.5	9.0909e-002	0.1	751.17
21567	20.223	0.18182	0.1	824.64
21568	20.315	0.27273	0.1	801.66
21569	20.315	9.0909e-002	0.1	792.18
21570	20.039	0.18182	0.1	865.62
21571	20.131	0.27273	0.1	842.51
21572	20.131	9.0909e-002	0.1	833.35
21573	19.855	0.18182	0.1	906.77
21574	19.947	0.27273	0.1	883.52
21575	19.947	9.0909e-002	0.1	874.68
21576	19.67	0.18182	0.1	948.07
21577	19.763	0.27273	0.1	924.7
21578	19.763	9.0909e-002	0.1	916.18
21579	19.486	0.18182	0.1	989.55
21580	19.578	0.27273	0.1	966.05
21581	19.578	9.0909e-002	0.1	957.86
21582	19.302	0.18182	0.1	1031.2
21583	19.394	0.27273	0.1	1007.6
21584	19.394	9.0909e-002	0.1	999.71
21585	19.118	0.18182	0.1	1073.
21586	19.21	0.27273	0.1	1049.3
21587	19.21	9.0909e-002	0.1	1041.7
21588	18.934	0.18182	0.1	1115.
21589	19.026	0.27273	0.1	1091.1
21590	19.026	9.0909e-002	0.1	1083.9
21591	18.749	0.18182	0.1	1157.2
21592	18.841	0.27273	0.1	1133.2
21593	18.841	9.0909e-002	0.1	1126.3
21594	18.565	0.18182	0.1	1199.6
21595	18.657	0.27273	0.1	1175.4
21596	18.657	9.0909e-002	0.1	1168.9
21597	18.381	0.18182	0.1	1242.1
21598	18.473	0.27273	0.1	1217.9
21599	18.473	9.0909e-002	0.1	1211.7
21600	18.197	0.18182	0.1	1284.9
21601	18.289	0.27273	0.1	1260.5
21602	18.289	9.0909e-002	0.1	1254.7
21603	18.012	0.18182	0.1	1327.8
21604	18.105	0.27273	0.1	1303.3
21605	18.105	9.0909e-002	0.1	1297.8
21606	17.828	0.18182	0.1	1370.9
21607	17.92	0.27273	0.1	1346.3
21608	17.92	9.0909e-002	0.1	1341.2
21609	17.644	0.18182	0.1	1414.2
21610	17.736	0.27273	0.1	1389.5
21611	17.736	9.0909e-002	0.1	1384.8
21612	17.46	0.18182	0.1	1457.7
21613	17.552	0.27273	0.1	1432.8
21614	17.552	9.0909e-002	0.1	1428.5
21615	17.275	0.18182	0.1	1501.4
21616	17.368	0.27273	0.1	1476.4
21617	17.368	9.0909e-002	0.1	1472.5
21618	17.091	0.18182	0.1	1545.3
21619	17.183	0.27273	0.1	1520.1
21620	17.183	9.0909e-002	0.1	1516.6
21621	16.907	0.18182	0.1	1589.4
21622	16.999	0.27273	0.1	1564.1
21623	16.999	9.0909e-002	0.1	1560.9
21624	16.723	0.18182	0.1	1633.6
21625	16.815	0.27273	0.1	1608.2
21626	16.815	9.0909e-002	0.1	1605.4
21627	16.539	0.18182	0.1	1678.
21628	16.631	0.27273	0.1	1652.4
21629	16.631	9.0909e-002	0.1	1650.1
21630	16.354	0.18182	0.1	1722.5
21631	16.446	0.27273	0.1	1696.9
21632	16.446	9.0909e-002	0.1	1694.9
21633	16.17	0.18182	0.1	1767.2
21634	16.262	0.27273	0.1	1741.4
21635	16.262	9.0909e-002	0.1	1739.9
21636	15.986	0.18182	0.1	1811.9
21637	16.078	0.27273	0.1	1786.1
21638	16.078	9.0909e-002	0.1	1784.9
21639	15.802	0.18182	0.1	1856.8
21640	15.894	0.27273	0.1	1830.9
21641	15.894	9.0909e-002	0.1	1830.1
21642	15.617	0.18182	0.1	1901.6
21643	15.709	0.27273	0.1	1875.7
21644	15.709	9.0909e-002	0.1	1875.3
21645	15.433	0.18182	0.1	1946.4
21646	15.525	0.27273	0.1	1920.5
21647	15.525	9.0909e-002	0.1	1920.4
21648	15.249	0.18182	0.1	1991.1
21649	15.341	0.27273	0.1	1965.3
21650	15.341	9.0909e-002	0.1	1965.5
21651	15.065	0.18182	0.1	2035.5
21652	15.157	0.27273	0.1	2009.9
21653	15.157	9.0909e-002	0.1	2010.3
21654	14.88	0.18182	0.1	2079.6
21655	14.973	0.27273	0.1	2054.3
21656	14.973	9.0909e-002	0.1	2054.8
21657	14.696	0.18182	0.1	2123.1
21658	14.788	0.27273	0.1	2098.3
21659	14.788	9.0909e-002	0.1	2098.9
21660	14.512	0.18182	0.1	2165.9
21661	14.604	0.27273	0.1	2141.7
21662	14.604	9.0909e-002	0.1	2142.2
21663	14.328	0.18182	0.1	2207.7
21664	14.42	0.27273	0.1	2184.3
21665	14.42	9.0909e-002	0.1	2184.6
21666	14.143	0.18182	0.1	2248.
21667	14.236	0.27273	0.1	2225.8
21668	14.236	9.0909e-002	0.1	2225.7
21669	13.959	0.18182	0.1	2286.5
21670	14.051	0.27273	0.1	2265.8
21671	14.051	9.0909e-002	0.1	2265.
21672	13.775	0.18182	0.1	2322.6
21673	13.867	0.27273	0.1	2303.9
21674	13.867	9.0909e-002	0.1	2302.1
21675	13.591	0.18182	0.1	2355.5
21676	13.683	0.27273	0.1	2339.3
21677	13.683	9.0909e-002	0.1	2336.3
21678	13.407	0.18182	0.1	2384.3
21679	13.499	0.27273	0.1	2371.4
21680	13.499	9.0909e-002	0.1	2366.6
21681	13.222	0.18182	0.1	2407.9
21682	13.314	0.27273	0.1	2399.1
21683	13.314	9.0909e-002	0.1	2392.1
21684	13.038	0.18182	0.1	2424.8
21685	13.13	0.27273	0.1	2421.2
21686	13.13	9.0909e-002	0.1	2411.5
21687	12.854	0.18182	0.1	2433.4
21688	12.946	0.27273	0.1	2436.2
21689	12.946	9.0909e-002	0.1	2423.
21690	12.67	0.18182	0.1	2431.4
21691	12.762	0.27273	0.1	2442.3
21692	12.762	9.0909e-002	0.1	2424.8
21693	12.485	0.18182	0.1	2416.3
21694	12.577	0.27273	0.1	2437.
21695	12.577	9.0909e-002	0.1	2414.3
21696	12.301	0.18182	0.1	2384.9
21697	12.393	0.27273	0.1	2417.5
21698	12.393	9.0909e-002	0.1	2388.7
21699	12.117	0.18182	0.1	2333.8
21700	12.209	0.27273	0.1	2380.6
21701	12.209	9.0909e-002	0.1	2344.5
21702	11.933	0.18182	0.1	2258.6
21703	12.025	0.27273	0.1	2322.3
21704	12.025	9.0909e-002	0.1	2277.8
21705	11.748	0.18182	0.1	2155.1
21706	11.841	0.27273	0.1	2238.1
21707	11.841	9.0909e-002	0.1	2184.2
21708	11.564	0.18182	0.1	2018.3
21709	11.656	0.27273	0.1	2123.2
21710	11.656	9.0909e-002	0.1	2059.
21711	11.38	0.18182	0.1	1843.9
21712	11.472	0.27273	0.1	1972.7
21713	11.472	9.0909e-002	0.1	1897.6
21714	11.196	0.18182	0.1	1628.3
21715	11.288	0.27273	0.1	1782.5
21716	11.288	9.0909e-002	0.1	1695.8
21717	11.011	0.18182	0.1	1369.5
21718	11.104	0.27273	0.1	1550.3
21719	11.104	9.0909e-002	0.1	1451.
21720	10.827	0.18182	0.1	1069.8
21721	10.919	0.27273	0.1	1278.4
21722	10.919	9.0909e-002	0.1	1162.1
21723	10.643	0.18182	0.1	749.11
21724	10.735	0.27273	0.1	982.68
21725	10.735	9.0909e-002	0.1	832.32
21726	10.551	0.27273	0.1	748.12
21727	10.459	0.18182	0.1	427.82
21728	10.551	9.0909e-002	0.1	478.47
21729	23.724	0.36364	0.1	94.298
21730	23.816	0.45455	0.1	91.999
21731	23.908	0.36364	0.1	72.825
21732	23.539	0.36364	0.1	122.74
21733	23.632	0.45455	0.1	115.11
21734	23.355	0.36364	0.1	155.98
21735	23.447	0.45455	0.1	144.94
21736	23.171	0.36364	0.1	191.55
21737	23.263	0.45455	0.1	178.33
21738	22.987	0.36364	0.1	228.38
21739	23.079	0.45455	0.1	213.67
21740	22.802	0.36364	0.1	265.96
21741	22.895	0.45455	0.1	250.19
21742	22.618	0.36364	0.1	304.06
21743	22.71	0.45455	0.1	287.48
21744	22.434	0.36364	0.1	342.52
21745	22.526	0.45455	0.1	325.31
21746	22.25	0.36364	0.1	381.27
21747	22.342	0.45455	0.1	363.54
21748	22.066	0.36364	0.1	420.26
21749	22.158	0.45455	0.1	402.09
21750	21.881	0.36364	0.1	459.46
21751	21.973	0.45455	0.1	440.91
21752	21.697	0.36364	0.1	498.84
21753	21.789	0.45455	0.1	479.96
21754	21.513	0.36364	0.1	538.39
21755	21.605	0.45455	0.1	519.21
21756	21.329	0.36364	0.1	578.11
21757	21.421	0.45455	0.1	558.66
21758	21.144	0.36364	0.1	617.99
21759	21.236	0.45455	0.1	598.29
21760	20.96	0.36364	0.1	658.03
21761	21.052	0.45455	0.1	638.1
21762	20.776	0.36364	0.1	698.24
21763	20.868	0.45455	0.1	678.09
21764	20.592	0.36364	0.1	738.6
21765	20.684	0.45455	0.1	718.24
21766	20.407	0.36364	0.1	779.14
21767	20.5	0.45455	0.1	758.57
21768	20.223	0.36364	0.1	819.83
21769	20.315	0.45455	0.1	799.08
21770	20.039	0.36364	0.1	860.7
21771	20.131	0.45455	0.1	839.76
21772	19.855	0.36364	0.1	901.73
21773	19.947	0.45455	0.1	880.61
21774	19.67	0.36364	0.1	942.94
21775	19.763	0.45455	0.1	921.64
21776	19.486	0.36364	0.1	984.33
21777	19.578	0.45455	0.1	962.85
21778	19.302	0.36364	0.1	1025.9
21779	19.394	0.45455	0.1	1004.2
21780	19.118	0.36364	0.1	1067.6
21781	19.21	0.45455	0.1	1045.8
21782	18.934	0.36364	0.1	1109.6
21783	19.026	0.45455	0.1	1087.6
21784	18.749	0.36364	0.1	1151.7
21785	18.841	0.45455	0.1	1129.5
21786	18.565	0.36364	0.1	1194.
21787	18.657	0.45455	0.1	1171.6
21788	18.381	0.36364	0.1	1236.5
21789	18.473	0.45455	0.1	1214.
21790	18.197	0.36364	0.1	1279.1
21791	18.289	0.45455	0.1	1256.5
21792	18.012	0.36364	0.1	1322.
21793	18.105	0.45455	0.1	1299.1
21794	17.828	0.36364	0.1	1365.
21795	17.92	0.45455	0.1	1342.
21796	17.644	0.36364	0.1	1408.3
21797	17.736	0.45455	0.1	1385.1
21798	17.46	0.36364	0.1	1451.7
21799	17.552	0.45455	0.1	1428.3
21800	17.275	0.36364	0.1	1495.3
21801	17.368	0.45455	0.1	1471.8
21802	17.091	0.36364	0.1	1539.1
21803	17.183	0.45455	0.1	1515.4
21804	16.907	0.36364	0.1	1583.1
21805	16.999	0.45455	0.1	1559.2
21806	16.723	0.36364	0.1	1627.2
21807	16.815	0.45455	0.1	1603.1
21808	16.539	0.36364	0.1	1671.5
21809	16.631	0.45455	0.1	1647.3
21810	16.354	0.36364	0.1	1715.9
21811	16.446	0.45455	0.1	1691.6
21812	16.17	0.36364	0.1	1760.5
21813	16.262	0.45455	0.1	1736.
21814	15.986	0.36364	0.1	1805.2
21815	16.078	0.45455	0.1	1780.6
21816	15.802	0.36364	0.1	1850.
21817	15.894	0.45455	0.1	1825.2
21818	15.617	0.36364	0.1	1894.8
21819	15.709	0.45455	0.1	1870.
21820	15.433	0.36364	0.1	1939.6
21821	15.525	0.45455	0.1	1914.7
21822	15.249	0.36364	0.1	1984.3
21823	15.341	0.45455	0.1	1959.5
21824	15.065	0.36364	0.1	2028.9
21825	15.157	0.45455	0.1	2004.1
21826	14.88	0.36364	0.1	2073.2
21827	14.973	0.45455	0.1	2048.6
21828	14.696	0.36364	0.1	2117.
21829	14.788	0.45455	0.1	2092.8
21830	14.512	0.36364	0.1	2160.2
21831	14.604	0.45455	0.1	2136.5
21832	14.328	0.36364	0.1	2202.6
21833	14.42	0.45455	0.1	2179.6
21834	14.143	0.36364	0.1	2243.7
21835	14.236	0.45455	0.1	2221.7
21836	13.959	0.36364	0.1	2283.3
21837	14.051	0.45455	0.1	2262.6
21838	13.775	0.36364	0.1	2320.7
21839	13.867	0.45455	0.1	2301.9
21840	13.591	0.36364	0.1	2355.3
21841	13.683	0.45455	0.1	2338.8
21842	13.407	0.36364	0.1	2386.2
21843	13.499	0.45455	0.1	2372.9
21844	13.222	0.36364	0.1	2412.5
21845	13.314	0.45455	0.1	2403.1
21846	13.038	0.36364	0.1	2432.7
21847	13.13	0.45455	0.1	2428.3
21848	12.854	0.36364	0.1	2445.1
21849	12.946	0.45455	0.1	2447.1
21850	12.67	0.36364	0.1	2447.8
21851	12.762	0.45455	0.1	2457.8
21852	12.485	0.36364	0.1	2438.1
21853	12.577	0.45455	0.1	2458.1
21854	12.301	0.36364	0.1	2413.
21855	12.393	0.45455	0.1	2445.4
21856	12.117	0.36364	0.1	2368.8
21857	12.209	0.45455	0.1	2416.3
21858	11.933	0.36364	0.1	2301.2
21859	12.025	0.45455	0.1	2366.9
21860	11.748	0.36364	0.1	2205.5
21861	11.841	0.45455	0.1	2292.9
21862	11.564	0.36364	0.1	2076.6
21863	11.656	0.45455	0.1	2189.3
21864	11.38	0.36364	0.1	1909.9
21865	11.472	0.45455	0.1	2051.4
21866	11.196	0.36364	0.1	1702.5
21867	11.288	0.45455	0.1	1875.4
21868	11.011	0.36364	0.1	1456.1
21869	11.104	0.45455	0.1	1661.6
21870	10.827	0.36364	0.1	1184.6
21871	10.919	0.45455	0.1	1418.7
21872	10.643	0.36364	0.1	951.42
21873	10.735	0.45455	0.1	1180.1
21874	10.551	0.45455	0.1	1069.9
21875	10.459	0.36364	0.1	703.72
21876	23.724	0.54545	0.1	111.93
21877	23.816	0.63636	0.1	109.79
21878	23.908	0.54545	0.1	93.003
21879	23.539	0.54545	0.1	137.26
21880	23.632	0.63636	0.1	130.78
21881	23.355	0.54545	0.1	167.53
21882	23.447	0.63636	0.1	157.96
21883	23.171	0.54545	0.1	200.76
21884	23.263	0.63636	0.1	188.97
21885	22.987	0.54545	0.1	235.79
21886	23.079	0.63636	0.1	222.38
21887	22.802	0.54545	0.1	271.98
21888	22.895	0.63636	0.1	257.37
21889	22.618	0.54545	0.1	308.98
21890	22.71	0.63636	0.1	293.43
21891	22.434	0.54545	0.1	346.55
21892	22.526	0.63636	0.1	330.25
21893	22.25	0.54545	0.1	384.56
21894	22.342	0.63636	0.1	367.65
21895	22.066	0.54545	0.1	422.92
21896	22.158	0.63636	0.1	405.5
21897	21.881	0.54545	0.1	461.58
21898	21.973	0.63636	0.1	443.71
21899	21.697	0.54545	0.1	500.48
21900	21.789	0.63636	0.1	482.23
21901	21.513	0.54545	0.1	539.62
21902	21.605	0.63636	0.1	521.02
21903	21.329	0.54545	0.1	578.97
21904	21.421	0.63636	0.1	560.06
21905	21.144	0.54545	0.1	618.52
21906	21.236	0.63636	0.1	599.33
21907	20.96	0.54545	0.1	658.27
21908	21.052	0.63636	0.1	638.8
21909	20.776	0.54545	0.1	698.2
21910	20.868	0.63636	0.1	678.49
21911	20.592	0.54545	0.1	738.31
21912	20.684	0.63636	0.1	718.37
21913	20.407	0.54545	0.1	778.61
21914	20.5	0.63636	0.1	758.45
21915	20.223	0.54545	0.1	819.09
21916	20.315	0.63636	0.1	798.72
21917	20.039	0.54545	0.1	859.75
21918	20.131	0.63636	0.1	839.18
21919	19.855	0.54545	0.1	900.6
21920	19.947	0.63636	0.1	879.83
21921	19.67	0.54545	0.1	941.63
21922	19.763	0.63636	0.1	920.67
21923	19.486	0.54545	0.1	982.84
21924	19.578	0.63636	0.1	961.69
21925	19.302	0.54545	0.1	1024.2
21926	19.394	0.63636	0.1	1002.9
21927	19.118	0.54545	0.1	1065.8
21928	19.21	0.63636	0.1	1044.3
21929	18.934	0.54545	0.1	1107.6
21930	19.026	0.63636	0.1	1085.9
21931	18.749	0.54545	0.1	1149.5
21932	18.841	0.63636	0.1	1127.7
21933	18.565	0.54545	0.1	1191.7
21934	18.657	0.63636	0.1	1169.7
21935	18.381	0.54545	0.1	1234.
21936	18.473	0.63636	0.1	1211.8
21937	18.197	0.54545	0.1	1276.5
21938	18.289	0.63636	0.1	1254.1
21939	18.012	0.54545	0.1	1319.2
21940	18.105	0.63636	0.1	1296.7
21941	17.828	0.54545	0.1	1362.1
21942	17.92	0.63636	0.1	1339.4
21943	17.644	0.54545	0.1	1405.2
21944	17.736	0.63636	0.1	1382.3
21945	17.46	0.54545	0.1	1448.5
21946	17.552	0.63636	0.1	1425.4
21947	17.275	0.54545	0.1	1491.9
21948	17.368	0.63636	0.1	1468.6
21949	17.091	0.54545	0.1	1535.5
21950	17.183	0.63636	0.1	1512.1
21951	16.907	0.54545	0.1	1579.3
21952	16.999	0.63636	0.1	1555.7
21953	16.723	0.54545	0.1	1623.3
21954	16.815	0.63636	0.1	1599.5
21955	16.539	0.54545	0.1	1667.4
21956	16.631	0.63636	0.1	1643.4
21957	16.354	0.54545	0.1	1711.7
21958	16.446	0.63636	0.1	1687.5
21959	16.17	0.54545	0.1	1756.1
21960	16.262	0.63636	0.1	1731.8
21961	15.986	0.54545	0.1	1800.6
21962	16.078	0.63636	0.1	1776.2
21963	15.802	0.54545	0.1	1845.2
21964	15.894	0.63636	0.1	1820.7
21965	15.617	0.54545	0.1	1889.9
21966	15.709	0.63636	0.1	1865.3
21967	15.433	0.54545	0.1	1934.7
21968	15.525	0.63636	0.1	1909.9
21969	15.249	0.54545	0.1	1979.3
21970	15.341	0.63636	0.1	1954.6
21971	15.065	0.54545	0.1	2023.9
21972	15.157	0.63636	0.1	1999.3
21973	14.88	0.54545	0.1	2068.3
21974	14.973	0.63636	0.1	2043.8
21975	14.696	0.54545	0.1	2112.4
21976	14.788	0.63636	0.1	2088.1
21977	14.512	0.54545	0.1	2155.9
21978	14.604	0.63636	0.1	2132.1
21979	14.328	0.54545	0.1	2198.8
21980	14.42	0.63636	0.1	2175.6
21981	14.143	0.54545	0.1	2240.7
21982	14.236	0.63636	0.1	2218.3
21983	13.959	0.54545	0.1	2281.3
21984	14.051	0.63636	0.1	2260.1
21985	13.775	0.54545	0.1	2320.1
21986	13.867	0.63636	0.1	2300.5
21987	13.591	0.54545	0.1	2356.5
21988	13.683	0.63636	0.1	2339.1
21989	13.407	0.54545	0.1	2389.7
21990	13.499	0.63636	0.1	2375.2
21991	13.222	0.54545	0.1	2418.9
21992	13.314	0.63636	0.1	2408.
21993	13.038	0.54545	0.1	2442.8
21994	13.13	0.63636	0.1	2436.7
21995	12.854	0.54545	0.1	2459.8
21996	12.946	0.63636	0.1	2459.8
21997	12.67	0.54545	0.1	2468.1
21998	12.762	0.63636	0.1	2475.9
21999	12.485	0.54545	0.1	2465.2
22000	12.577	0.63636	0.1	2482.8
22001	12.301	0.54545	0.1	2448.3
22002	12.393	0.63636	0.1	2478.3
22003	12.117	0.54545	0.1	2413.9
22004	12.209	0.63636	0.1	2459.3
22005	11.933	0.54545	0.1	2357.9
22006	12.025	0.63636	0.1	2422.2
22007	11.748	0.54545	0.1	2275.7
22008	11.841	0.63636	0.1	2363.
22009	11.564	0.54545	0.1	2162.5
22010	11.656	0.63636	0.1	2277.3
22011	11.38	0.54545	0.1	2014.5
22012	11.472	0.63636	0.1	2161.
22013	11.196	0.54545	0.1	1830.4
22014	11.288	0.63636	0.1	2011.8
22015	11.011	0.54545	0.1	1616.3
22016	11.104	0.63636	0.1	1832.3
22017	10.827	0.54545	0.1	1396.3
22018	10.919	0.63636	0.1	1636.6
22019	10.643	0.54545	0.1	1252.5
22020	10.735	0.63636	0.1	1464.9
22021	10.551	0.63636	0.1	1448.8
22022	10.459	0.54545	0.1	1006.2
22023	23.724	0.72727	0.1	127.49
22024	23.816	0.81818	0.1	124.97
22025	23.908	0.72727	0.1	109.95
22026	23.539	0.72727	0.1	151.04
22027	23.632	0.81818	0.1	144.81
22028	23.355	0.72727	0.1	179.31
22029	23.447	0.81818	0.1	170.34
22030	23.171	0.72727	0.1	210.67
22031	23.263	0.81818	0.1	199.63
22032	22.987	0.72727	0.1	244.11
22033	23.079	0.81818	0.1	231.48
22034	22.802	0.72727	0.1	278.98
22035	22.895	0.81818	0.1	265.11
22036	22.618	0.72727	0.1	314.87
22037	22.71	0.81818	0.1	300.01
22038	22.434	0.72727	0.1	351.52
22039	22.526	0.81818	0.1	335.86
22040	22.25	0.72727	0.1	388.74
22041	22.342	0.81818	0.1	372.41
22042	22.066	0.72727	0.1	426.43
22043	22.158	0.81818	0.1	409.54
22044	21.881	0.72727	0.1	464.5
22045	21.973	0.81818	0.1	447.12
22046	21.697	0.72727	0.1	502.89
22047	21.789	0.81818	0.1	485.08
22048	21.513	0.72727	0.1	541.58
22049	21.605	0.81818	0.1	523.39
22050	21.329	0.72727	0.1	580.52
22051	21.421	0.81818	0.1	561.99
22052	21.144	0.72727	0.1	619.71
22053	21.236	0.81818	0.1	600.86
22054	20.96	0.72727	0.1	659.12
22055	21.052	0.81818	0.1	639.98
22056	20.776	0.72727	0.1	698.75
22057	20.868	0.81818	0.1	679.35
22058	20.592	0.72727	0.1	738.59
22059	20.684	0.81818	0.1	718.93
22060	20.407	0.72727	0.1	778.63
22061	20.5	0.81818	0.1	758.74
22062	20.223	0.72727	0.1	818.88
22063	20.315	0.81818	0.1	798.76
22064	20.039	0.72727	0.1	859.32
22065	20.131	0.81818	0.1	838.99
22066	19.855	0.72727	0.1	899.96
22067	19.947	0.81818	0.1	879.42
22068	19.67	0.72727	0.1	940.79
22069	19.763	0.81818	0.1	920.05
22070	19.486	0.72727	0.1	981.82
22071	19.578	0.81818	0.1	960.89
22072	19.302	0.72727	0.1	1023.
22073	19.394	0.81818	0.1	1001.9
22074	19.118	0.72727	0.1	1064.5
22075	19.21	0.81818	0.1	1043.1
22076	18.934	0.72727	0.1	1106.1
22077	19.026	0.81818	0.1	1084.6
22078	18.749	0.72727	0.1	1147.8
22079	18.841	0.81818	0.1	1126.2
22080	18.565	0.72727	0.1	1189.8
22081	18.657	0.81818	0.1	1168.
22082	18.381	0.72727	0.1	1232.
22083	18.473	0.81818	0.1	1210.
22084	18.197	0.72727	0.1	1274.3
22085	18.289	0.81818	0.1	1252.1
22086	18.012	0.72727	0.1	1316.9
22087	18.105	0.81818	0.1	1294.5
22088	17.828	0.72727	0.1	1359.6
22089	17.92	0.81818	0.1	1337.1
22090	17.644	0.72727	0.1	1402.5
22091	17.736	0.81818	0.1	1379.8
22092	17.46	0.72727	0.1	1445.6
22093	17.552	0.81818	0.1	1422.7
22094	17.275	0.72727	0.1	1488.9
22095	17.368	0.81818	0.1	1465.8
22096	17.091	0.72727	0.1	1532.3
22097	17.183	0.81818	0.1	1509.
22098	16.907	0.72727	0.1	1575.9
22099	16.999	0.81818	0.1	1552.5
22100	16.723	0.72727	0.1	1619.7
22101	16.815	0.81818	0.1	1596.1
22102	16.539	0.72727	0.1	1663.6
22103	16.631	0.81818	0.1	1639.8
22104	16.354	0.72727	0.1	1707.7
22105	16.446	0.81818	0.1	1683.8
22106	16.17	0.72727	0.1	1751.9
22107	16.262	0.81818	0.1	1727.8
22108	15.986	0.72727	0.1	1796.3
22109	16.078	0.81818	0.1	1772.
22110	15.802	0.72727	0.1	1840.8
22111	15.894	0.81818	0.1	1816.4
22112	15.617	0.72727	0.1	1885.3
22113	15.709	0.81818	0.1	1860.8
22114	15.433	0.72727	0.1	1929.9
22115	15.525	0.81818	0.1	1905.3
22116	15.249	0.72727	0.1	1974.6
22117	15.341	0.81818	0.1	1949.9
22118	15.065	0.72727	0.1	2019.1
22119	15.157	0.81818	0.1	1994.5
22120	14.88	0.72727	0.1	2063.6
22121	14.973	0.81818	0.1	2039.
22122	14.696	0.72727	0.1	2107.9
22123	14.788	0.81818	0.1	2083.5
22124	14.512	0.72727	0.1	2151.8
22125	14.604	0.81818	0.1	2127.7
22126	14.328	0.72727	0.1	2195.1
22127	14.42	0.81818	0.1	2171.6
22128	14.143	0.72727	0.1	2237.8
22129	14.236	0.81818	0.1	2214.9
22130	13.959	0.72727	0.1	2279.4
22131	14.051	0.81818	0.1	2257.5
22132	13.775	0.72727	0.1	2319.5
22133	13.867	0.81818	0.1	2299.1
22134	13.591	0.72727	0.1	2357.8
22135	13.683	0.81818	0.1	2339.3
22136	13.407	0.72727	0.1	2393.5
22137	13.499	0.81818	0.1	2377.6
22138	13.222	0.72727	0.1	2425.8
22139	13.314	0.81818	0.1	2413.2
22140	13.038	0.72727	0.1	2453.7
22141	13.13	0.81818	0.1	2445.5
22142	12.854	0.72727	0.1	2475.8
22143	12.946	0.81818	0.1	2473.4
22144	12.67	0.72727	0.1	2490.5
22145	12.762	0.81818	0.1	2495.4
22146	12.485	0.72727	0.1	2495.7
22147	12.577	0.81818	0.1	2510.
22148	12.301	0.72727	0.1	2488.9
22149	12.393	0.81818	0.1	2515.1
22150	12.117	0.72727	0.1	2466.9
22151	12.209	0.81818	0.1	2508.2
22152	11.933	0.72727	0.1	2426.3
22153	12.025	0.81818	0.1	2486.5
22154	11.748	0.72727	0.1	2362.9
22155	11.841	0.81818	0.1	2446.5
22156	11.564	0.72727	0.1	2273.1
22157	11.656	0.81818	0.1	2384.9
22158	11.38	0.72727	0.1	2153.8
22159	11.472	0.81818	0.1	2298.9
22160	11.196	0.72727	0.1	2005.8
22161	11.288	0.81818	0.1	2187.7
22162	11.011	0.72727	0.1	1838.
22163	11.104	0.81818	0.1	2055.7
22164	10.827	0.72727	0.1	1677.6
22165	10.919	0.81818	0.1	1918.4
22166	10.643	0.72727	0.1	1611.6
22167	10.735	0.81818	0.1	1814.1
22168	10.551	0.81818	0.1	1879.3
22169	10.459	0.72727	0.1	1335.9
22170	23.724	0.90909	0.1	141.06
22171	23.816	1.	0.1	138.05
22172	23.908	0.90909	0.1	124.43
22173	23.539	0.90909	0.1	163.48
22174	23.632	1.	0.1	157.15
22175	23.355	0.90909	0.1	190.39
22176	23.447	1.	0.1	181.58
22177	23.171	0.90909	0.1	220.37
22178	23.263	1.	0.1	209.66
22179	22.987	0.90909	0.1	252.51
22180	23.079	1.	0.1	240.31
22181	22.802	0.90909	0.1	286.22
22182	22.895	1.	0.1	272.82
22183	22.618	0.90909	0.1	321.1
22184	22.71	1.	0.1	306.71
22185	22.434	0.90909	0.1	356.87
22186	22.526	1.	0.1	341.66
22187	22.25	0.90909	0.1	393.32
22188	22.342	1.	0.1	377.43
22189	22.066	0.90909	0.1	430.34
22190	22.158	1.	0.1	413.85
22191	21.881	0.90909	0.1	467.81
22192	21.973	1.	0.1	450.81
22193	21.697	0.90909	0.1	505.68
22194	21.789	1.	0.1	488.23
22195	21.513	0.90909	0.1	543.9
22196	21.605	1.	0.1	526.04
22197	21.329	0.90909	0.1	582.42
22198	21.421	1.	0.1	564.2
22199	21.144	0.90909	0.1	621.23
22200	21.236	1.	0.1	602.67
22201	20.96	0.90909	0.1	660.3
22202	21.052	1.	0.1	641.44
22203	20.776	0.90909	0.1	699.61
22204	20.868	1.	0.1	680.47
22205	20.592	0.90909	0.1	739.16
22206	20.684	1.	0.1	719.75
22207	20.407	0.90909	0.1	778.94
22208	20.5	1.	0.1	759.28
22209	20.223	0.90909	0.1	818.94
22210	20.315	1.	0.1	799.05
22211	20.039	0.90909	0.1	859.16
22212	20.131	1.	0.1	839.04
22213	19.855	0.90909	0.1	899.58
22214	19.947	1.	0.1	879.25
22215	19.67	0.90909	0.1	940.21
22216	19.763	1.	0.1	919.67
22217	19.486	0.90909	0.1	981.05
22218	19.578	1.	0.1	960.31
22219	19.302	0.90909	0.1	1022.1
22220	19.394	1.	0.1	1001.1
22221	19.118	0.90909	0.1	1063.3
22222	19.21	1.	0.1	1042.2
22223	18.934	0.90909	0.1	1104.7
22224	19.026	1.	0.1	1083.4
22225	18.749	0.90909	0.1	1146.4
22226	18.841	1.	0.1	1124.9
22227	18.565	0.90909	0.1	1188.2
22228	18.657	1.	0.1	1166.5
22229	18.381	0.90909	0.1	1230.2
22230	18.473	1.	0.1	1208.3
22231	18.197	0.90909	0.1	1272.4
22232	18.289	1.	0.1	1250.4
22233	18.012	0.90909	0.1	1314.7
22234	18.105	1.	0.1	1292.6
22235	17.828	0.90909	0.1	1357.3
22236	17.92	1.	0.1	1334.9
22237	17.644	0.90909	0.1	1400.
22238	17.736	1.	0.1	1377.5
22239	17.46	0.90909	0.1	1442.9
22240	17.552	1.	0.1	1420.2
22241	17.275	0.90909	0.1	1486.
22242	17.368	1.	0.1	1463.1
22243	17.091	0.90909	0.1	1529.3
22244	17.183	1.	0.1	1506.2
22245	16.907	0.90909	0.1	1572.7
22246	16.999	1.	0.1	1549.5
22247	16.723	0.90909	0.1	1616.3
22248	16.815	1.	0.1	1592.9
22249	16.539	0.90909	0.1	1660.
22250	16.631	1.	0.1	1636.4
22251	16.354	0.90909	0.1	1703.9
22252	16.446	1.	0.1	1680.2
22253	16.17	0.90909	0.1	1748.
22254	16.262	1.	0.1	1724.
22255	15.986	0.90909	0.1	1792.1
22256	16.078	1.	0.1	1768.1
22257	15.802	0.90909	0.1	1836.4
22258	15.894	1.	0.1	1812.2
22259	15.617	0.90909	0.1	1880.8
22260	15.709	1.	0.1	1856.5
22261	15.433	0.90909	0.1	1925.3
22262	15.525	1.	0.1	1900.8
22263	15.249	0.90909	0.1	1969.9
22264	15.341	1.	0.1	1945.3
22265	15.065	0.90909	0.1	2014.4
22266	15.157	1.	0.1	1989.8
22267	14.88	0.90909	0.1	2058.9
22268	14.973	1.	0.1	2034.3
22269	14.696	0.90909	0.1	2103.3
22270	14.788	1.	0.1	2078.9
22271	14.512	0.90909	0.1	2147.5
22272	14.604	1.	0.1	2123.3
22273	14.328	0.90909	0.1	2191.4
22274	14.42	1.	0.1	2167.5
22275	14.143	0.90909	0.1	2234.7
22276	14.236	1.	0.1	2211.4
22277	13.959	0.90909	0.1	2277.4
22278	14.051	1.	0.1	2254.9
22279	13.775	0.90909	0.1	2318.9
22280	13.867	1.	0.1	2297.6
22281	13.591	0.90909	0.1	2359.1
22282	13.683	1.	0.1	2339.4
22283	13.407	0.90909	0.1	2397.3
22284	13.499	1.	0.1	2379.9
22285	13.222	0.90909	0.1	2433.
22286	13.314	1.	0.1	2418.5
22287	13.038	0.90909	0.1	2465.2
22288	13.13	1.	0.1	2454.7
22289	12.854	0.90909	0.1	2492.9
22290	12.946	1.	0.1	2487.5
22291	12.67	0.90909	0.1	2514.8
22292	12.762	1.	0.1	2516.2
22293	12.485	0.90909	0.1	2529.2
22294	12.577	1.	0.1	2539.2
22295	12.301	0.90909	0.1	2534.1
22296	12.393	1.	0.1	2555.2
22297	12.117	0.90909	0.1	2527.1
22298	12.209	1.	0.1	2562.4
22299	11.933	0.90909	0.1	2505.4
22300	12.025	1.	0.1	2558.7
22301	11.748	0.90909	0.1	2466.2
22302	11.841	1.	0.1	2541.9
22303	11.564	0.90909	0.1	2406.9
22304	11.656	1.	0.1	2510.1
22305	11.38	0.90909	0.1	2326.1
22306	11.472	1.	0.1	2462.3
22307	11.196	0.90909	0.1	2225.9
22308	11.288	1.	0.1	2399.4
22309	11.011	0.90909	0.1	2115.7
22310	11.104	1.	0.1	2327.3
22311	10.827	0.90909	0.1	2020.8
22312	10.919	1.	0.1	2259.9
22313	10.643	0.90909	0.1	2029.5
22314	10.735	1.	0.1	2229.3
22315	10.551	1.	0.1	2381.1
22316	10.459	0.90909	0.1	1708.4
22317	23.724	1.0909	0.1	152.89
22318	23.816	1.1818	0.1	149.37
22319	23.908	1.0909	0.1	136.92
22320	23.539	1.0909	0.1	174.54
22321	23.632	1.1818	0.1	167.96
22322	23.355	1.0909	0.1	200.48
22323	23.447	1.1818	0.1	191.62
22324	23.171	1.0909	0.1	229.42
22325	23.263	1.1818	0.1	218.81
22326	22.987	1.0909	0.1	260.55
22327	23.079	1.1818	0.1	248.54
22328	22.802	1.0909	0.1	293.32
22329	22.895	1.1818	0.1	280.16
22330	22.618	1.0909	0.1	327.32
22331	22.71	1.1818	0.1	313.21
22332	22.434	1.0909	0.1	362.29
22333	22.526	1.1818	0.1	347.39
22334	22.25	1.0909	0.1	398.04
22335	22.342	1.1818	0.1	382.45
22336	22.066	1.0909	0.1	434.42
22337	22.158	1.1818	0.1	418.23
22338	21.881	1.0909	0.1	471.32
22339	21.973	1.1818	0.1	454.61
22340	21.697	1.0909	0.1	508.68
22341	21.789	1.1818	0.1	491.51
22342	21.513	1.0909	0.1	546.43
22343	21.605	1.1818	0.1	528.84
22344	21.329	1.0909	0.1	584.54
22345	21.421	1.1818	0.1	566.57
22346	21.144	1.0909	0.1	622.96
22347	21.236	1.1818	0.1	604.65
22348	20.96	1.0909	0.1	661.69
22349	21.052	1.1818	0.1	643.06
22350	20.776	1.0909	0.1	700.69
22351	20.868	1.1818	0.1	681.76
22352	20.592	1.0909	0.1	739.95
22353	20.684	1.1818	0.1	720.75
22354	20.407	1.0909	0.1	779.46
22355	20.5	1.1818	0.1	760.
22356	20.223	1.0909	0.1	819.21
22357	20.315	1.1818	0.1	799.51
22358	20.039	1.0909	0.1	859.19
22359	20.131	1.1818	0.1	839.26
22360	19.855	1.0909	0.1	899.4
22361	19.947	1.1818	0.1	879.25
22362	19.67	1.0909	0.1	939.83
22363	19.763	1.1818	0.1	919.47
22364	19.486	1.0909	0.1	980.47
22365	19.578	1.1818	0.1	959.91
22366	19.302	1.0909	0.1	1021.3
22367	19.394	1.1818	0.1	1000.6
22368	19.118	1.0909	0.1	1062.4
22369	19.21	1.1818	0.1	1041.4
22370	18.934	1.0909	0.1	1103.6
22371	19.026	1.1818	0.1	1082.5
22372	18.749	1.0909	0.1	1145.1
22373	18.841	1.1818	0.1	1123.8
22374	18.565	1.0909	0.1	1186.7
22375	18.657	1.1818	0.1	1165.2
22376	18.381	1.0909	0.1	1228.6
22377	18.473	1.1818	0.1	1206.9
22378	18.197	1.0909	0.1	1270.6
22379	18.289	1.1818	0.1	1248.8
22380	18.012	1.0909	0.1	1312.8
22381	18.105	1.1818	0.1	1290.8
22382	17.828	1.0909	0.1	1355.2
22383	17.92	1.1818	0.1	1333.
22384	17.644	1.0909	0.1	1397.8
22385	17.736	1.1818	0.1	1375.4
22386	17.46	1.0909	0.1	1440.5
22387	17.552	1.1818	0.1	1418.
22388	17.275	1.0909	0.1	1483.4
22389	17.368	1.1818	0.1	1460.7
22390	17.091	1.0909	0.1	1526.5
22391	17.183	1.1818	0.1	1503.6
22392	16.907	1.0909	0.1	1569.7
22393	16.999	1.1818	0.1	1546.7
22394	16.723	1.0909	0.1	1613.1
22395	16.815	1.1818	0.1	1589.9
22396	16.539	1.0909	0.1	1656.6
22397	16.631	1.1818	0.1	1633.3
22398	16.354	1.0909	0.1	1700.3
22399	16.446	1.1818	0.1	1676.8
22400	16.17	1.0909	0.1	1744.2
22401	16.262	1.1818	0.1	1720.5
22402	15.986	1.0909	0.1	1788.2
22403	16.078	1.1818	0.1	1764.3
22404	15.802	1.0909	0.1	1832.3
22405	15.894	1.1818	0.1	1808.2
22406	15.617	1.0909	0.1	1876.5
22407	15.709	1.1818	0.1	1852.3
22408	15.433	1.0909	0.1	1920.8
22409	15.525	1.1818	0.1	1896.5
22410	15.249	1.0909	0.1	1965.3
22411	15.341	1.1818	0.1	1940.8
22412	15.065	1.0909	0.1	2009.8
22413	15.157	1.1818	0.1	1985.2
22414	14.88	1.0909	0.1	2054.3
22415	14.973	1.1818	0.1	2029.7
22416	14.696	1.0909	0.1	2098.8
22417	14.788	1.1818	0.1	2074.3
22418	14.512	1.0909	0.1	2143.3
22419	14.604	1.1818	0.1	2118.9
22420	14.328	1.0909	0.1	2187.6
22421	14.42	1.1818	0.1	2163.4
22422	14.143	1.0909	0.1	2231.6
22423	14.236	1.1818	0.1	2207.8
22424	13.959	1.0909	0.1	2275.2
22425	14.051	1.1818	0.1	2252.1
22426	13.775	1.0909	0.1	2318.2
22427	13.867	1.1818	0.1	2296.
22428	13.591	1.0909	0.1	2360.3
22429	13.683	1.1818	0.1	2339.4
22430	13.407	1.0909	0.1	2401.1
22431	13.499	1.1818	0.1	2382.1
22432	13.222	1.0909	0.1	2440.2
22433	13.314	1.1818	0.1	2423.7
22434	13.038	1.0909	0.1	2477.
22435	13.13	1.1818	0.1	2463.9
22436	12.854	1.0909	0.1	2510.8
22437	12.946	1.1818	0.1	2502.1
22438	12.67	1.0909	0.1	2540.5
22439	12.762	1.1818	0.1	2537.7
22440	12.485	1.0909	0.1	2565.1
22441	12.577	1.1818	0.1	2570.
22442	12.301	1.0909	0.1	2583.1
22443	12.393	1.1818	0.1	2597.9
22444	12.117	1.0909	0.1	2593.2
22445	12.209	1.1818	0.1	2620.6
22446	11.933	1.0909	0.1	2593.7
22447	12.025	1.1818	0.1	2637.1
22448	11.748	1.0909	0.1	2583.1
22449	11.841	1.1818	0.1	2646.6
22450	11.564	1.0909	0.1	2560.7
22451	11.656	1.1818	0.1	2649.1
22452	11.38	1.0909	0.1	2527.1
22453	11.472	1.1818	0.1	2645.9
22454	11.196	1.0909	0.1	2486.
22455	11.288	1.1818	0.1	2640.7
22456	11.011	1.0909	0.1	2446.5
22457	11.104	1.1818	0.1	2641.2
22458	10.827	1.0909	0.1	2428.8
22459	10.919	1.1818	0.1	2660.7
22460	10.643	1.0909	0.1	2522.7
22461	10.735	1.1818	0.1	2725.4
22462	10.551	1.1818	0.1	2990.4
22463	10.459	1.0909	0.1	2147.4
22464	23.724	1.2727	0.1	163.2
22465	23.816	1.3636	0.1	159.18
22466	23.908	1.2727	0.1	147.73
22467	23.539	1.2727	0.1	184.28
22468	23.632	1.3636	0.1	177.39
22469	23.355	1.2727	0.1	209.5
22470	23.447	1.3636	0.1	200.47
22471	23.171	1.2727	0.1	237.67
22472	23.263	1.3636	0.1	226.99
22473	22.987	1.2727	0.1	268.01
22474	23.079	1.3636	0.1	256.02
22475	22.802	1.2727	0.1	300.01
22476	22.895	1.3636	0.1	286.94
22477	22.618	1.2727	0.1	333.28
22478	22.71	1.3636	0.1	319.31
22479	22.434	1.2727	0.1	367.57
22480	22.526	1.3636	0.1	352.83
22481	22.25	1.2727	0.1	402.69
22482	22.342	1.3636	0.1	387.28
22483	22.066	1.2727	0.1	438.49
22484	22.158	1.3636	0.1	422.5
22485	21.881	1.2727	0.1	474.86
22486	21.973	1.3636	0.1	458.36
22487	21.697	1.2727	0.1	511.74
22488	21.789	1.3636	0.1	494.77
22489	21.513	1.2727	0.1	549.05
22490	21.605	1.3636	0.1	531.67
22491	21.329	1.2727	0.1	586.76
22492	21.421	1.3636	0.1	568.99
22493	21.144	1.2727	0.1	624.82
22494	21.236	1.3636	0.1	606.7
22495	20.96	1.2727	0.1	663.2
22496	21.052	1.3636	0.1	644.76
22497	20.776	1.2727	0.1	701.9
22498	20.868	1.3636	0.1	683.15
22499	20.592	1.2727	0.1	740.87
22500	20.684	1.3636	0.1	721.85
22501	20.407	1.2727	0.1	780.12
22502	20.5	1.3636	0.1	760.84
22503	20.223	1.2727	0.1	819.63
22504	20.315	1.3636	0.1	800.1
22505	20.039	1.2727	0.1	859.38
22506	20.131	1.3636	0.1	839.62
22507	19.855	1.2727	0.1	899.38
22508	19.947	1.3636	0.1	879.39
22509	19.67	1.2727	0.1	939.6
22510	19.763	1.3636	0.1	919.4
22511	19.486	1.2727	0.1	980.06
22512	19.578	1.3636	0.1	959.65
22513	19.302	1.2727	0.1	1020.7
22514	19.394	1.3636	0.1	1000.1
22515	19.118	1.2727	0.1	1061.6
22516	19.21	1.3636	0.1	1040.8
22517	18.934	1.2727	0.1	1102.7
22518	19.026	1.3636	0.1	1081.7
22519	18.749	1.2727	0.1	1144.
22520	18.841	1.3636	0.1	1122.8
22521	18.565	1.2727	0.1	1185.5
22522	18.657	1.3636	0.1	1164.1
22523	18.381	1.2727	0.1	1227.1
22524	18.473	1.3636	0.1	1205.7
22525	18.197	1.2727	0.1	1269.
22526	18.289	1.3636	0.1	1247.3
22527	18.012	1.2727	0.1	1311.1
22528	18.105	1.3636	0.1	1289.2
22529	17.828	1.2727	0.1	1353.3
22530	17.92	1.3636	0.1	1331.3
22531	17.644	1.2727	0.1	1395.7
22532	17.736	1.3636	0.1	1373.5
22533	17.46	1.2727	0.1	1438.2
22534	17.552	1.3636	0.1	1415.9
22535	17.275	1.2727	0.1	1481.
22536	17.368	1.3636	0.1	1458.5
22537	17.091	1.2727	0.1	1523.9
22538	17.183	1.3636	0.1	1501.2
22539	16.907	1.2727	0.1	1566.9
22540	16.999	1.3636	0.1	1544.1
22541	16.723	1.2727	0.1	1610.1
22542	16.815	1.3636	0.1	1587.1
22543	16.539	1.2727	0.1	1653.5
22544	16.631	1.3636	0.1	1630.3
22545	16.354	1.2727	0.1	1697.
22546	16.446	1.3636	0.1	1673.6
22547	16.17	1.2727	0.1	1740.6
22548	16.262	1.3636	0.1	1717.1
22549	15.986	1.2727	0.1	1784.4
22550	16.078	1.3636	0.1	1760.7
22551	15.802	1.2727	0.1	1828.3
22552	15.894	1.3636	0.1	1804.5
22553	15.617	1.2727	0.1	1872.3
22554	15.709	1.3636	0.1	1848.3
22555	15.433	1.2727	0.1	1916.5
22556	15.525	1.3636	0.1	1892.4
22557	15.249	1.2727	0.1	1960.8
22558	15.341	1.3636	0.1	1936.5
22559	15.065	1.2727	0.1	2005.2
22560	15.157	1.3636	0.1	1980.8
22561	14.88	1.2727	0.1	2049.8
22562	14.973	1.3636	0.1	2025.2
22563	14.696	1.2727	0.1	2094.4
22564	14.788	1.3636	0.1	2069.8
22565	14.512	1.2727	0.1	2139.
22566	14.604	1.3636	0.1	2114.5
22567	14.328	1.2727	0.1	2183.7
22568	14.42	1.3636	0.1	2159.3
22569	14.143	1.2727	0.1	2228.4
22570	14.236	1.3636	0.1	2204.2
22571	13.959	1.2727	0.1	2272.9
22572	14.051	1.3636	0.1	2249.2
22573	13.775	1.2727	0.1	2317.3
22574	13.867	1.3636	0.1	2294.3
22575	13.591	1.2727	0.1	2361.3
22576	13.683	1.3636	0.1	2339.3
22577	13.407	1.2727	0.1	2404.8
22578	13.499	1.3636	0.1	2384.2
22579	13.222	1.2727	0.1	2447.5
22580	13.314	1.3636	0.1	2428.9
22581	13.038	1.2727	0.1	2489.
22582	13.13	1.3636	0.1	2473.2
22583	12.854	1.2727	0.1	2529.1
22584	12.946	1.3636	0.1	2516.9
22585	12.67	1.2727	0.1	2567.1
22586	12.762	1.3636	0.1	2559.8
22587	12.485	1.2727	0.1	2602.6
22588	12.577	1.3636	0.1	2601.7
22589	12.301	1.2727	0.1	2635.
22590	12.393	1.3636	0.1	2642.2
22591	12.117	1.2727	0.1	2663.7
22592	12.209	1.3636	0.1	2681.5
22593	11.933	1.2727	0.1	2688.5
22594	12.025	1.3636	0.1	2719.6
22595	11.748	1.2727	0.1	2709.8
22596	11.841	1.3636	0.1	2757.5
22597	11.564	1.2727	0.1	2729.2
22598	11.656	1.3636	0.1	2797.3
22599	11.38	1.2727	0.1	2750.3
22600	11.472	1.3636	0.1	2843.2
22601	11.196	1.2727	0.1	2779.6
22602	11.288	1.3636	0.1	2902.9
22603	11.011	1.2727	0.1	2827.6
22604	11.104	1.3636	0.1	2988.9
22605	10.827	1.2727	0.1	2912.
22606	10.919	1.3636	0.1	3120.5
22607	10.643	1.2727	0.1	3123.1
22608	10.735	1.3636	0.1	3321.3
22609	10.551	1.3636	0.1	3769.1
22610	10.459	1.2727	0.1	2692.
22611	23.724	1.4545	0.1	172.14
22612	23.816	1.5455	0.1	167.65
22613	23.908	1.4545	0.1	157.07
22614	23.539	1.4545	0.1	192.79
22615	23.632	1.5455	0.1	185.57
22616	23.355	1.4545	0.1	217.46
22617	23.447	1.5455	0.1	208.2
22618	23.171	1.4545	0.1	245.04
22619	23.263	1.5455	0.1	234.21
22620	22.987	1.4545	0.1	274.77
22621	23.079	1.5455	0.1	262.7
22622	22.802	1.4545	0.1	306.15
22623	22.895	1.5455	0.1	293.06
22624	22.618	1.4545	0.1	338.83
22625	22.71	1.5455	0.1	324.88
22626	22.434	1.4545	0.1	372.55
22627	22.526	1.5455	0.1	357.87
22628	22.25	1.4545	0.1	407.12
22629	22.342	1.5455	0.1	391.8
22630	22.066	1.4545	0.1	442.41
22631	22.158	1.5455	0.1	426.53
22632	21.881	1.4545	0.1	478.31
22633	21.973	1.5455	0.1	461.93
22634	21.697	1.4545	0.1	514.75
22635	21.789	1.5455	0.1	497.91
22636	21.513	1.4545	0.1	551.66
22637	21.605	1.5455	0.1	534.41
22638	21.329	1.4545	0.1	588.99
22639	21.421	1.5455	0.1	571.36
22640	21.144	1.4545	0.1	626.71
22641	21.236	1.5455	0.1	608.73
22642	20.96	1.4545	0.1	664.77
22643	21.052	1.5455	0.1	646.47
22644	20.776	1.4545	0.1	703.17
22645	20.868	1.5455	0.1	684.57
22646	20.592	1.4545	0.1	741.88
22647	20.684	1.5455	0.1	723.
22648	20.407	1.4545	0.1	780.87
22649	20.5	1.5455	0.1	761.73
22650	20.223	1.4545	0.1	820.15
22651	20.315	1.5455	0.1	800.75
22652	20.039	1.4545	0.1	859.68
22653	20.131	1.5455	0.1	840.06
22654	19.855	1.4545	0.1	899.47
22655	19.947	1.5455	0.1	879.63
22656	19.67	1.4545	0.1	939.51
22657	19.763	1.5455	0.1	919.45
22658	19.486	1.4545	0.1	979.78
22659	19.578	1.5455	0.1	959.51
22660	19.302	1.4545	0.1	1020.3
22661	19.394	1.5455	0.1	999.81
22662	19.118	1.4545	0.1	1061.
22663	19.21	1.5455	0.1	1040.3
22664	18.934	1.4545	0.1	1101.9
22665	19.026	1.5455	0.1	1081.1
22666	18.749	1.4545	0.1	1143.
22667	18.841	1.5455	0.1	1122.
22668	18.565	1.4545	0.1	1184.4
22669	18.657	1.5455	0.1	1163.2
22670	18.381	1.4545	0.1	1225.9
22671	18.473	1.5455	0.1	1204.6
22672	18.197	1.4545	0.1	1267.6
22673	18.289	1.5455	0.1	1246.1
22674	18.012	1.4545	0.1	1309.5
22675	18.105	1.5455	0.1	1287.8
22676	17.828	1.4545	0.1	1351.6
22677	17.92	1.5455	0.1	1329.7
22678	17.644	1.4545	0.1	1393.8
22679	17.736	1.5455	0.1	1371.8
22680	17.46	1.4545	0.1	1436.2
22681	17.552	1.5455	0.1	1414.1
22682	17.275	1.4545	0.1	1478.8
22683	17.368	1.5455	0.1	1456.5
22684	17.091	1.4545	0.1	1521.5
22685	17.183	1.5455	0.1	1499.
22686	16.907	1.4545	0.1	1564.3
22687	16.999	1.5455	0.1	1541.7
22688	16.723	1.4545	0.1	1607.4
22689	16.815	1.5455	0.1	1584.6
22690	16.539	1.4545	0.1	1650.5
22691	16.631	1.5455	0.1	1627.6
22692	16.354	1.4545	0.1	1693.8
22693	16.446	1.5455	0.1	1670.7
22694	16.17	1.4545	0.1	1737.2
22695	16.262	1.5455	0.1	1714.
22696	15.986	1.4545	0.1	1780.8
22697	16.078	1.5455	0.1	1757.4
22698	15.802	1.4545	0.1	1824.5
22699	15.894	1.5455	0.1	1800.9
22700	15.617	1.4545	0.1	1868.4
22701	15.709	1.5455	0.1	1844.6
22702	15.433	1.4545	0.1	1912.4
22703	15.525	1.5455	0.1	1888.4
22704	15.249	1.4545	0.1	1956.5
22705	15.341	1.5455	0.1	1932.4
22706	15.065	1.4545	0.1	2000.9
22707	15.157	1.5455	0.1	1976.6
22708	14.88	1.4545	0.1	2045.3
22709	14.973	1.5455	0.1	2020.9
22710	14.696	1.4545	0.1	2090.
22711	14.788	1.5455	0.1	2065.5
22712	14.512	1.4545	0.1	2134.8
22713	14.604	1.5455	0.1	2110.3
22714	14.328	1.4545	0.1	2179.9
22715	14.42	1.5455	0.1	2155.3
22716	14.143	1.4545	0.1	2225.1
22717	14.236	1.5455	0.1	2200.6
22718	13.959	1.4545	0.1	2270.6
22719	14.051	1.5455	0.1	2246.3
22720	13.775	1.4545	0.1	2316.3
22721	13.867	1.5455	0.1	2292.4
22722	13.591	1.4545	0.1	2362.2
22723	13.683	1.5455	0.1	2339.
22724	13.407	1.4545	0.1	2408.3
22725	13.499	1.5455	0.1	2386.1
22726	13.222	1.4545	0.1	2454.6
22727	13.314	1.5455	0.1	2433.8
22728	13.038	1.4545	0.1	2501.
22729	13.13	1.5455	0.1	2482.2
22730	12.854	1.4545	0.1	2547.6
22731	12.946	1.5455	0.1	2531.5
22732	12.67	1.4545	0.1	2594.2
22733	12.762	1.5455	0.1	2581.9
22734	12.485	1.4545	0.1	2641.1
22735	12.577	1.5455	0.1	2633.6
22736	12.301	1.4545	0.1	2688.3
22737	12.393	1.5455	0.1	2687.2
22738	12.117	1.4545	0.1	2736.6
22739	12.209	1.5455	0.1	2743.6
22740	11.933	1.4545	0.1	2787.1
22741	12.025	1.5455	0.1	2804.1
22742	11.748	1.4545	0.1	2842.2
22743	11.841	1.5455	0.1	2871.4
22744	11.564	1.4545	0.1	2906.3
22745	11.656	1.5455	0.1	2949.8
22746	11.38	1.4545	0.1	2987.
22747	11.472	1.5455	0.1	3047.
22748	11.196	1.4545	0.1	3096.5
22749	11.288	1.5455	0.1	3175.5
22750	11.011	1.4545	0.1	3254.
22751	11.104	1.5455	0.1	3357.3
22752	10.827	1.4545	0.1	3479.7
22753	10.919	1.5455	0.1	3624.3
22754	10.643	1.4545	0.1	3877.6
22755	10.735	1.5455	0.1	4036.
22756	10.551	1.5455	0.1	4852.2
22757	10.459	1.4545	0.1	3419.5
22758	23.724	1.6364	0.1	179.86
22759	23.816	1.7273	0.1	174.9
22760	23.908	1.6364	0.1	165.11
22761	23.539	1.6364	0.1	200.17
22762	23.632	1.7273	0.1	192.6
22763	23.355	1.6364	0.1	224.41
22764	23.447	1.7273	0.1	214.87
22765	23.171	1.6364	0.1	251.52
22766	23.263	1.7273	0.1	240.48
22767	22.987	1.6364	0.1	280.77
22768	23.079	1.7273	0.1	268.54
22769	22.802	1.6364	0.1	311.67
22770	22.895	1.7273	0.1	298.47
22771	22.618	1.6364	0.1	343.86
22772	22.71	1.7273	0.1	329.86
22773	22.434	1.6364	0.1	377.1
22774	22.526	1.7273	0.1	362.41
22775	22.25	1.6364	0.1	411.22
22776	22.342	1.7273	0.1	395.91
22777	22.066	1.6364	0.1	446.07
22778	22.158	1.7273	0.1	430.23
22779	21.881	1.6364	0.1	481.56
22780	21.973	1.7273	0.1	465.23
22781	21.697	1.6364	0.1	517.61
22782	21.789	1.7273	0.1	500.84
22783	21.513	1.6364	0.1	554.16
22784	21.605	1.7273	0.1	536.99
22785	21.329	1.6364	0.1	591.15
22786	21.421	1.7273	0.1	573.61
22787	21.144	1.6364	0.1	628.55
22788	21.236	1.7273	0.1	610.67
22789	20.96	1.6364	0.1	666.33
22790	21.052	1.7273	0.1	648.13
22791	20.776	1.6364	0.1	704.45
22792	20.868	1.7273	0.1	685.96
22793	20.592	1.6364	0.1	742.9
22794	20.684	1.7273	0.1	724.13
22795	20.407	1.6364	0.1	781.67
22796	20.5	1.7273	0.1	762.63
22797	20.223	1.6364	0.1	820.72
22798	20.315	1.7273	0.1	801.44
22799	20.039	1.6364	0.1	860.05
22800	20.131	1.7273	0.1	840.54
22801	19.855	1.6364	0.1	899.65
22802	19.947	1.7273	0.1	879.92
22803	19.67	1.6364	0.1	939.5
22804	19.763	1.7273	0.1	919.56
22805	19.486	1.6364	0.1	979.6
22806	19.578	1.7273	0.1	959.46
22807	19.302	1.6364	0.1	1019.9
22808	19.394	1.7273	0.1	999.6
22809	19.118	1.6364	0.1	1060.5
22810	19.21	1.7273	0.1	1040.
22811	18.934	1.6364	0.1	1101.3
22812	19.026	1.7273	0.1	1080.6
22813	18.749	1.6364	0.1	1142.2
22814	18.841	1.7273	0.1	1121.4
22815	18.565	1.6364	0.1	1183.4
22816	18.657	1.7273	0.1	1162.4
22817	18.381	1.6364	0.1	1224.8
22818	18.473	1.7273	0.1	1203.6
22819	18.197	1.6364	0.1	1266.4
22820	18.289	1.7273	0.1	1245.
22821	18.012	1.6364	0.1	1308.1
22822	18.105	1.7273	0.1	1286.6
22823	17.828	1.6364	0.1	1350.
22824	17.92	1.7273	0.1	1328.4
22825	17.644	1.6364	0.1	1392.1
22826	17.736	1.7273	0.1	1370.3
22827	17.46	1.6364	0.1	1434.4
22828	17.552	1.7273	0.1	1412.4
22829	17.275	1.6364	0.1	1476.8
22830	17.368	1.7273	0.1	1454.7
22831	17.091	1.6364	0.1	1519.3
22832	17.183	1.7273	0.1	1497.1
22833	16.907	1.6364	0.1	1562.
22834	16.999	1.7273	0.1	1539.6
22835	16.723	1.6364	0.1	1604.8
22836	16.815	1.7273	0.1	1582.3
22837	16.539	1.6364	0.1	1647.8
22838	16.631	1.7273	0.1	1625.1
22839	16.354	1.6364	0.1	1690.9
22840	16.446	1.7273	0.1	1668.1
22841	16.17	1.6364	0.1	1734.1
22842	16.262	1.7273	0.1	1711.1
22843	15.986	1.6364	0.1	1777.5
22844	16.078	1.7273	0.1	1754.3
22845	15.802	1.6364	0.1	1821.
22846	15.894	1.7273	0.1	1797.7
22847	15.617	1.6364	0.1	1864.7
22848	15.709	1.7273	0.1	1841.2
22849	15.433	1.6364	0.1	1908.5
22850	15.525	1.7273	0.1	1884.8
22851	15.249	1.6364	0.1	1952.5
22852	15.341	1.7273	0.1	1928.6
22853	15.065	1.6364	0.1	1996.7
22854	15.157	1.7273	0.1	1972.6
22855	14.88	1.6364	0.1	2041.1
22856	14.973	1.7273	0.1	2016.9
22857	14.696	1.6364	0.1	2085.8
22858	14.788	1.7273	0.1	2061.4
22859	14.512	1.6364	0.1	2130.8
22860	14.604	1.7273	0.1	2106.2
22861	14.328	1.6364	0.1	2176.1
22862	14.42	1.7273	0.1	2151.4
22863	14.143	1.6364	0.1	2221.9
22864	14.236	1.7273	0.1	2197.2
22865	13.959	1.6364	0.1	2268.2
22866	14.051	1.7273	0.1	2243.5
22867	13.775	1.6364	0.1	2315.2
22868	13.867	1.7273	0.1	2290.6
22869	13.591	1.6364	0.1	2362.9
22870	13.683	1.7273	0.1	2338.7
22871	13.407	1.6364	0.1	2411.6
22872	13.499	1.7273	0.1	2387.9
22873	13.222	1.6364	0.1	2461.5
22874	13.314	1.7273	0.1	2438.5
22875	13.038	1.6364	0.1	2512.8
22876	13.13	1.7273	0.1	2491.
22877	12.854	1.6364	0.1	2565.9
22878	12.946	1.7273	0.1	2545.9
22879	12.67	1.6364	0.1	2621.3
22880	12.762	1.7273	0.1	2603.7
22881	12.485	1.6364	0.1	2679.6
22882	12.577	1.7273	0.1	2665.3
22883	12.301	1.6364	0.1	2742.1
22884	12.393	1.7273	0.1	2732.
22885	12.117	1.6364	0.1	2810.3
22886	12.209	1.7273	0.1	2805.5
22887	11.933	1.6364	0.1	2887.
22888	12.025	1.7273	0.1	2888.6
22889	11.748	1.6364	0.1	2976.5
22890	11.841	1.7273	0.1	2985.5
22891	11.564	1.6364	0.1	3086.2
22892	11.656	1.7273	0.1	3102.8
22893	11.38	1.6364	0.1	3228.1
22894	11.472	1.7273	0.1	3251.4
22895	11.196	1.6364	0.1	3423.4
22896	11.288	1.7273	0.1	3449.3
22897	11.011	1.6364	0.1	3704.1
22898	11.104	1.7273	0.1	3729.5
22899	10.827	1.6364	0.1	4135.1
22900	10.919	1.7273	0.1	4144.5
22901	10.643	1.6364	0.1	4878.4
22902	10.735	1.7273	0.1	4863.6
22903	10.551	1.7273	0.1	6417.9
22904	10.459	1.6364	0.1	4405.4
22905	23.724	1.8182	0.1	186.44
22906	23.816	1.9091	0.1	181.04
22907	23.908	1.8182	0.1	171.96
22908	23.539	1.8182	0.1	206.48
22909	23.632	1.9091	0.1	198.56
22910	23.355	1.8182	0.1	230.38
22911	23.447	1.9091	0.1	220.55
22912	23.171	1.8182	0.1	257.13
22913	23.263	1.9091	0.1	245.84
22914	22.987	1.8182	0.1	286.
22915	23.079	1.9091	0.1	273.57
22916	22.802	1.8182	0.1	316.51
22917	22.895	1.9091	0.1	303.16
22918	22.618	1.8182	0.1	348.31
22919	22.71	1.9091	0.1	334.19
22920	22.434	1.8182	0.1	381.17
22921	22.526	1.9091	0.1	366.39
22922	22.25	1.8182	0.1	414.91
22923	22.342	1.9091	0.1	399.55
22924	22.066	1.8182	0.1	449.4
22925	22.158	1.9091	0.1	433.52
22926	21.881	1.8182	0.1	484.53
22927	21.973	1.9091	0.1	468.2
22928	21.697	1.8182	0.1	520.25
22929	21.789	1.9091	0.1	503.49
22930	21.513	1.8182	0.1	556.47
22931	21.605	1.9091	0.1	539.33
22932	21.329	1.8182	0.1	593.17
22933	21.421	1.9091	0.1	575.67
22934	21.144	1.8182	0.1	630.29
22935	21.236	1.9091	0.1	612.46
22936	20.96	1.8182	0.1	667.8
22937	21.052	1.9091	0.1	649.66
22938	20.776	1.8182	0.1	705.68
22939	20.868	1.9091	0.1	687.25
22940	20.592	1.8182	0.1	743.91
22941	20.684	1.9091	0.1	725.2
22942	20.407	1.8182	0.1	782.46
22943	20.5	1.9091	0.1	763.5
22944	20.223	1.8182	0.1	821.31
22945	20.315	1.9091	0.1	802.11
22946	20.039	1.8182	0.1	860.46
22947	20.131	1.9091	0.1	841.03
22948	19.855	1.8182	0.1	899.88
22949	19.947	1.9091	0.1	880.24
22950	19.67	1.8182	0.1	939.56
22951	19.763	1.9091	0.1	919.72
22952	19.486	1.8182	0.1	979.5
22953	19.578	1.9091	0.1	959.46
22954	19.302	1.8182	0.1	1019.7
22955	19.394	1.9091	0.1	999.46
22956	19.118	1.8182	0.1	1060.1
22957	19.21	1.9091	0.1	1039.7
22958	18.934	1.8182	0.1	1100.7
22959	19.026	1.9091	0.1	1080.2
22960	18.749	1.8182	0.1	1141.6
22961	18.841	1.9091	0.1	1120.8
22962	18.565	1.8182	0.1	1182.6
22963	18.657	1.9091	0.1	1161.7
22964	18.381	1.8182	0.1	1223.9
22965	18.473	1.9091	0.1	1202.8
22966	18.197	1.8182	0.1	1265.3
22967	18.289	1.9091	0.1	1244.1
22968	18.012	1.8182	0.1	1306.9
22969	18.105	1.9091	0.1	1285.6
22970	17.828	1.8182	0.1	1348.7
22971	17.92	1.9091	0.1	1327.2
22972	17.644	1.8182	0.1	1390.7
22973	17.736	1.9091	0.1	1369.
22974	17.46	1.8182	0.1	1432.8
22975	17.552	1.9091	0.1	1411.
22976	17.275	1.8182	0.1	1475.
22977	17.368	1.9091	0.1	1453.1
22978	17.091	1.8182	0.1	1517.4
22979	17.183	1.9091	0.1	1495.3
22980	16.907	1.8182	0.1	1559.9
22981	16.999	1.9091	0.1	1537.7
22982	16.723	1.8182	0.1	1602.6
22983	16.815	1.9091	0.1	1580.3
22984	16.539	1.8182	0.1	1645.4
22985	16.631	1.9091	0.1	1622.9
22986	16.354	1.8182	0.1	1688.3
22987	16.446	1.9091	0.1	1665.7
22988	16.17	1.8182	0.1	1731.3
22989	16.262	1.9091	0.1	1708.6
22990	15.986	1.8182	0.1	1774.5
22991	16.078	1.9091	0.1	1751.6
22992	15.802	1.8182	0.1	1817.8
22993	15.894	1.9091	0.1	1794.8
22994	15.617	1.8182	0.1	1861.3
22995	15.709	1.9091	0.1	1838.
22996	15.433	1.8182	0.1	1904.9
22997	15.525	1.9091	0.1	1881.5
22998	15.249	1.8182	0.1	1948.8
22999	15.341	1.9091	0.1	1925.1
23000	15.065	1.8182	0.1	1992.8
23001	15.157	1.9091	0.1	1969.
23002	14.88	1.8182	0.1	2037.2
23003	14.973	1.9091	0.1	2013.1
23004	14.696	1.8182	0.1	2081.8
23005	14.788	1.9091	0.1	2057.6
23006	14.512	1.8182	0.1	2126.9
23007	14.604	1.9091	0.1	2102.5
23008	14.328	1.8182	0.1	2172.5
23009	14.42	1.9091	0.1	2147.8
23010	14.143	1.8182	0.1	2218.8
23011	14.236	1.9091	0.1	2193.9
23012	13.959	1.8182	0.1	2265.9
23013	14.051	1.9091	0.1	2240.8
23014	13.775	1.8182	0.1	2314.1
23015	13.867	1.9091	0.1	2288.9
23016	13.591	1.8182	0.1	2363.6
23017	13.683	1.9091	0.1	2338.3
23018	13.407	1.8182	0.1	2414.8
23019	13.499	1.9091	0.1	2389.5
23020	13.222	1.8182	0.1	2468.1
23021	13.314	1.9091	0.1	2443.
23022	13.038	1.8182	0.1	2524.2
23023	13.13	1.9091	0.1	2499.4
23024	12.854	1.8182	0.1	2583.7
23025	12.946	1.9091	0.1	2559.6
23026	12.67	1.8182	0.1	2647.7
23027	12.762	1.9091	0.1	2624.6
23028	12.485	1.8182	0.1	2717.5
23029	12.577	1.9091	0.1	2695.9
23030	12.301	1.8182	0.1	2795.1
23031	12.393	1.9091	0.1	2775.5
23032	12.117	1.8182	0.1	2883.2
23033	12.209	1.9091	0.1	2866.
23034	11.933	1.8182	0.1	2986.
23035	12.025	1.9091	0.1	2971.4
23036	11.748	1.8182	0.1	3109.7
23037	11.841	1.9091	0.1	3097.5
23038	11.564	1.8182	0.1	3264.5
23039	11.656	1.9091	0.1	3253.
23040	11.38	1.8182	0.1	3466.9
23041	11.472	1.9091	0.1	3452.1
23042	11.196	1.8182	0.1	3746.1
23043	11.288	1.9091	0.1	3717.8
23044	11.011	1.8182	0.1	4154.9
23045	11.104	1.9091	0.1	4093.6
23046	10.827	1.8182	0.1	4840.9
23047	10.919	1.9091	0.1	4657.1
23048	10.643	1.8182	0.1	6284.6
23049	10.735	1.9091	0.1	5642.3
23050	10.551	1.9091	0.1	8122.1
23051	10.459	1.8182	0.1	6353.3
23052	23.724	2.	0.1	191.96
23053	23.816	2.0909	0.1	186.13
23054	23.908	2.	0.1	177.69
23055	23.539	2.	0.1	211.79
23056	23.632	2.0909	0.1	203.51
23057	23.355	2.	0.1	235.43
23058	23.447	2.0909	0.1	225.28
23059	23.171	2.	0.1	261.89
23060	23.263	2.0909	0.1	250.32
23061	22.987	2.	0.1	290.46
23062	23.079	2.0909	0.1	277.79
23063	22.802	2.	0.1	320.66
23064	22.895	2.0909	0.1	307.1
23065	22.618	2.	0.1	352.16
23066	22.71	2.0909	0.1	337.86
23067	22.434	2.	0.1	384.71
23068	22.526	2.0909	0.1	369.79
23069	22.25	2.	0.1	418.13
23070	22.342	2.0909	0.1	402.67
23071	22.066	2.	0.1	452.32
23072	22.158	2.0909	0.1	436.37
23073	21.881	2.	0.1	487.16
23074	21.973	2.0909	0.1	470.77
23075	21.697	2.	0.1	522.59
23076	21.789	2.0909	0.1	505.8
23077	21.513	2.	0.1	558.55
23078	21.605	2.0909	0.1	541.39
23079	21.329	2.	0.1	594.99
23080	21.421	2.0909	0.1	577.48
23081	21.144	2.	0.1	631.87
23082	21.236	2.0909	0.1	614.04
23083	20.96	2.	0.1	669.15
23084	21.052	2.0909	0.1	651.03
23085	20.776	2.	0.1	706.82
23086	20.868	2.0909	0.1	688.42
23087	20.592	2.	0.1	744.84
23088	20.684	2.0909	0.1	726.18
23089	20.407	2.	0.1	783.2
23090	20.5	2.0909	0.1	764.29
23091	20.223	2.	0.1	821.88
23092	20.315	2.0909	0.1	802.74
23093	20.039	2.	0.1	860.86
23094	20.131	2.0909	0.1	841.5
23095	19.855	2.	0.1	900.12
23096	19.947	2.0909	0.1	880.55
23097	19.67	2.	0.1	939.66
23098	19.763	2.0909	0.1	919.89
23099	19.486	2.	0.1	979.46
23100	19.578	2.0909	0.1	959.5
23101	19.302	2.	0.1	1019.5
23102	19.394	2.0909	0.1	999.37
23103	19.118	2.	0.1	1059.8
23104	19.21	2.0909	0.1	1039.5
23105	18.934	2.	0.1	1100.3
23106	19.026	2.0909	0.1	1079.8
23107	18.749	2.	0.1	1141.
23108	18.841	2.0909	0.1	1120.4
23109	18.565	2.	0.1	1182.
23110	18.657	2.0909	0.1	1161.2
23111	18.381	2.	0.1	1223.1
23112	18.473	2.0909	0.1	1202.2
23113	18.197	2.	0.1	1264.4
23114	18.289	2.0909	0.1	1243.3
23115	18.012	2.	0.1	1305.9
23116	18.105	2.0909	0.1	1284.7
23117	17.828	2.	0.1	1347.6
23118	17.92	2.0909	0.1	1326.2
23119	17.644	2.	0.1	1389.4
23120	17.736	2.0909	0.1	1367.9
23121	17.46	2.	0.1	1431.4
23122	17.552	2.0909	0.1	1409.7
23123	17.275	2.	0.1	1473.5
23124	17.368	2.0909	0.1	1451.7
23125	17.091	2.	0.1	1515.7
23126	17.183	2.0909	0.1	1493.9
23127	16.907	2.	0.1	1558.1
23128	16.999	2.0909	0.1	1536.1
23129	16.723	2.	0.1	1600.6
23130	16.815	2.0909	0.1	1578.5
23131	16.539	2.	0.1	1643.2
23132	16.631	2.0909	0.1	1621.
23133	16.354	2.	0.1	1686.
23134	16.446	2.0909	0.1	1663.6
23135	16.17	2.	0.1	1728.9
23136	16.262	2.0909	0.1	1706.4
23137	15.986	2.	0.1	1771.9
23138	16.078	2.0909	0.1	1749.2
23139	15.802	2.	0.1	1815.
23140	15.894	2.0909	0.1	1792.2
23141	15.617	2.	0.1	1858.3
23142	15.709	2.0909	0.1	1835.3
23143	15.433	2.	0.1	1901.7
23144	15.525	2.0909	0.1	1878.6
23145	15.249	2.	0.1	1945.4
23146	15.341	2.0909	0.1	1922.1
23147	15.065	2.	0.1	1989.3
23148	15.157	2.0909	0.1	1965.8
23149	14.88	2.	0.1	2033.6
23150	14.973	2.0909	0.1	2009.8
23151	14.696	2.	0.1	2078.2
23152	14.788	2.0909	0.1	2054.2
23153	14.512	2.	0.1	2123.4
23154	14.604	2.0909	0.1	2099.1
23155	14.328	2.	0.1	2169.2
23156	14.42	2.0909	0.1	2144.6
23157	14.143	2.	0.1	2216.
23158	14.236	2.0909	0.1	2191.
23159	13.959	2.	0.1	2263.8
23160	14.051	2.0909	0.1	2238.4
23161	13.775	2.	0.1	2313.1
23162	13.867	2.0909	0.1	2287.3
23163	13.591	2.	0.1	2364.2
23164	13.683	2.0909	0.1	2337.9
23165	13.407	2.	0.1	2417.7
23166	13.499	2.0909	0.1	2391.
23167	13.222	2.	0.1	2474.3
23168	13.314	2.0909	0.1	2447.1
23169	13.038	2.	0.1	2534.9
23170	13.13	2.0909	0.1	2507.1
23171	12.854	2.	0.1	2600.5
23172	12.946	2.0909	0.1	2572.3
23173	12.67	2.	0.1	2672.8
23174	12.762	2.0909	0.1	2644.2
23175	12.485	2.	0.1	2753.8
23176	12.577	2.0909	0.1	2724.7
23177	12.301	2.	0.1	2846.1
23178	12.393	2.0909	0.1	2816.5
23179	12.117	2.	0.1	2953.7
23180	12.209	2.0909	0.1	2923.4
23181	11.933	2.	0.1	3081.9
23182	12.025	2.0909	0.1	3050.2
23183	11.748	2.	0.1	3239.1
23184	11.841	2.0909	0.1	3204.5
23185	11.564	2.	0.1	3437.9
23186	11.656	2.0909	0.1	3396.9
23187	11.38	2.	0.1	3698.9
23188	11.472	2.0909	0.1	3644.6
23189	11.196	2.	0.1	4059.4
23190	11.288	2.0909	0.1	3974.6
23191	11.011	2.	0.1	4588.2
23192	11.104	2.0909	0.1	4439.
23193	10.827	2.	0.1	5456.8
23194	10.919	2.0909	0.1	5127.3
23195	10.643	2.	0.1	7491.4
23196	10.735	2.0909	0.1	6308.3
23197	10.551	2.0909	0.1	8895.3
23198	10.459	2.	0.1	13217
23199	23.724	2.1818	0.1	196.49
23200	23.816	2.2727	0.1	190.23
23201	23.908	2.1818	0.1	182.39
23202	23.539	2.1818	0.1	216.15
23203	23.632	2.2727	0.1	207.5
23204	23.355	2.1818	0.1	239.58
23205	23.447	2.2727	0.1	229.1
23206	23.171	2.1818	0.1	265.81
23207	23.263	2.2727	0.1	253.95
23208	22.987	2.1818	0.1	294.15
23209	23.079	2.2727	0.1	281.21
23210	22.802	2.1818	0.1	324.12
23211	22.895	2.2727	0.1	310.32
23212	22.618	2.1818	0.1	355.37
23213	22.71	2.2727	0.1	340.87
23214	22.434	2.1818	0.1	387.68
23215	22.526	2.2727	0.1	372.58
23216	22.25	2.1818	0.1	420.86
23217	22.342	2.2727	0.1	405.25
23218	22.066	2.1818	0.1	454.8
23219	22.158	2.2727	0.1	438.73
23220	21.881	2.1818	0.1	489.41
23221	21.973	2.2727	0.1	472.92
23222	21.697	2.1818	0.1	524.61
23223	21.789	2.2727	0.1	507.74
23224	21.513	2.1818	0.1	560.34
23225	21.605	2.2727	0.1	543.12
23226	21.329	2.1818	0.1	596.57
23227	21.421	2.2727	0.1	579.02
23228	21.144	2.1818	0.1	633.24
23229	21.236	2.2727	0.1	615.39
23230	20.96	2.1818	0.1	670.33
23231	21.052	2.2727	0.1	652.2
23232	20.776	2.1818	0.1	707.82
23233	20.868	2.2727	0.1	689.42
23234	20.592	2.1818	0.1	745.67
23235	20.684	2.2727	0.1	727.02
23236	20.407	2.1818	0.1	783.87
23237	20.5	2.2727	0.1	764.98
23238	20.223	2.1818	0.1	822.4
23239	20.315	2.2727	0.1	803.29
23240	20.039	2.1818	0.1	861.24
23241	20.131	2.2727	0.1	841.91
23242	19.855	2.1818	0.1	900.37
23243	19.947	2.2727	0.1	880.84
23244	19.67	2.1818	0.1	939.78
23245	19.763	2.2727	0.1	920.07
23246	19.486	2.1818	0.1	979.46
23247	19.578	2.2727	0.1	959.56
23248	19.302	2.1818	0.1	1019.4
23249	19.394	2.2727	0.1	999.32
23250	19.118	2.1818	0.1	1059.6
23251	19.21	2.2727	0.1	1039.3
23252	18.934	2.1818	0.1	1100.
23253	19.026	2.2727	0.1	1079.6
23254	18.749	2.1818	0.1	1140.6
23255	18.841	2.2727	0.1	1120.1
23256	18.565	2.1818	0.1	1181.4
23257	18.657	2.2727	0.1	1160.7
23258	18.381	2.1818	0.1	1222.4
23259	18.473	2.2727	0.1	1201.6
23260	18.197	2.1818	0.1	1263.7
23261	18.289	2.2727	0.1	1242.7
23262	18.012	2.1818	0.1	1305.
23263	18.105	2.2727	0.1	1284.
23264	17.828	2.1818	0.1	1346.6
23265	17.92	2.2727	0.1	1325.4
23266	17.644	2.1818	0.1	1388.3
23267	17.736	2.2727	0.1	1367.
23268	17.46	2.1818	0.1	1430.2
23269	17.552	2.2727	0.1	1408.7
23270	17.275	2.1818	0.1	1472.2
23271	17.368	2.2727	0.1	1450.6
23272	17.091	2.1818	0.1	1514.3
23273	17.183	2.2727	0.1	1492.6
23274	16.907	2.1818	0.1	1556.6
23275	16.999	2.2727	0.1	1534.8
23276	16.723	2.1818	0.1	1598.9
23277	16.815	2.2727	0.1	1577.
23278	16.539	2.1818	0.1	1641.4
23279	16.631	2.2727	0.1	1619.4
23280	16.354	2.1818	0.1	1684.
23281	16.446	2.2727	0.1	1661.9
23282	16.17	2.1818	0.1	1726.7
23283	16.262	2.2727	0.1	1704.5
23284	15.986	2.1818	0.1	1769.6
23285	16.078	2.2727	0.1	1747.2
23286	15.802	2.1818	0.1	1812.5
23287	15.894	2.2727	0.1	1790.
23288	15.617	2.1818	0.1	1855.6
23289	15.709	2.2727	0.1	1833.
23290	15.433	2.1818	0.1	1898.9
23291	15.525	2.2727	0.1	1876.1
23292	15.249	2.1818	0.1	1942.5
23293	15.341	2.2727	0.1	1919.4
23294	15.065	2.1818	0.1	1986.3
23295	15.157	2.2727	0.1	1963.
23296	14.88	2.1818	0.1	2030.4
23297	14.973	2.2727	0.1	2006.9
23298	14.696	2.1818	0.1	2075.1
23299	14.788	2.2727	0.1	2051.3
23300	14.512	2.1818	0.1	2120.3
23301	14.604	2.2727	0.1	2096.2
23302	14.328	2.1818	0.1	2166.3
23303	14.42	2.2727	0.1	2141.8
23304	14.143	2.1818	0.1	2213.4
23305	14.236	2.2727	0.1	2188.4
23306	13.959	2.1818	0.1	2261.9
23307	14.051	2.2727	0.1	2236.3
23308	13.775	2.1818	0.1	2312.1
23309	13.867	2.2727	0.1	2285.9
23310	13.591	2.1818	0.1	2364.7
23311	13.683	2.2727	0.1	2337.6
23312	13.407	2.1818	0.1	2420.4
23313	13.499	2.2727	0.1	2392.3
23314	13.222	2.1818	0.1	2479.9
23315	13.314	2.2727	0.1	2450.7
23316	13.038	2.1818	0.1	2544.6
23317	13.13	2.2727	0.1	2514.
23318	12.854	2.1818	0.1	2616.
23319	12.946	2.2727	0.1	2583.7
23320	12.67	2.1818	0.1	2696.
23321	12.762	2.2727	0.1	2661.8
23322	12.485	2.1818	0.1	2787.4
23323	12.577	2.2727	0.1	2750.6
23324	12.301	2.1818	0.1	2893.6
23325	12.393	2.2727	0.1	2853.7
23326	12.117	2.1818	0.1	3019.6
23327	12.209	2.2727	0.1	2975.6
23328	11.933	2.1818	0.1	3172.1
23329	12.025	2.2727	0.1	3122.4
23330	11.748	2.1818	0.1	3361.2
23331	11.841	2.2727	0.1	3302.8
23332	11.564	2.1818	0.1	3601.8
23333	11.656	2.2727	0.1	3529.5
23334	11.38	2.1818	0.1	3917.8
23335	11.472	2.2727	0.1	3821.3
23336	11.196	2.1818	0.1	4351.3
23337	11.288	2.2727	0.1	4208.3
23338	11.011	2.1818	0.1	4976.8
23339	11.104	2.2727	0.1	4742.1
23340	10.827	2.1818	0.1	5988.6
23341	10.919	2.2727	0.1	5512.5
23342	10.643	2.1818	0.1	7818.1
23343	10.735	2.2727	0.1	6726.1
23344	10.551	2.2727	0.1	8731.7
23345	10.459	2.1818	0.1	10584
23346	23.724	2.3636	0.1	200.06
23347	23.816	2.4545	0.1	193.37
23348	23.908	2.3636	0.1	186.09
23349	23.539	2.3636	0.1	219.6
23350	23.632	2.4545	0.1	210.57
23351	23.355	2.3636	0.1	242.87
23352	23.447	2.4545	0.1	232.04
23353	23.171	2.3636	0.1	268.93
23354	23.263	2.4545	0.1	256.74
23355	22.987	2.3636	0.1	297.09
23356	23.079	2.4545	0.1	283.86
23357	22.802	2.3636	0.1	326.88
23358	22.895	2.4545	0.1	312.82
23359	22.618	2.3636	0.1	357.95
23360	22.71	2.4545	0.1	343.21
23361	22.434	2.3636	0.1	390.06
23362	22.526	2.4545	0.1	374.76
23363	22.25	2.3636	0.1	423.06
23364	22.342	2.4545	0.1	407.26
23365	22.066	2.3636	0.1	456.82
23366	22.158	2.4545	0.1	440.58
23367	21.881	2.3636	0.1	491.24
23368	21.973	2.4545	0.1	474.61
23369	21.697	2.3636	0.1	526.26
23370	21.789	2.4545	0.1	509.27
23371	21.513	2.3636	0.1	561.81
23372	21.605	2.4545	0.1	544.5
23373	21.329	2.3636	0.1	597.87
23374	21.421	2.4545	0.1	580.24
23375	21.144	2.3636	0.1	634.38
23376	21.236	2.4545	0.1	616.47
23377	20.96	2.3636	0.1	671.32
23378	21.052	2.4545	0.1	653.14
23379	20.776	2.3636	0.1	708.66
23380	20.868	2.4545	0.1	690.22
23381	20.592	2.3636	0.1	746.37
23382	20.684	2.4545	0.1	727.7
23383	20.407	2.3636	0.1	784.44
23384	20.5	2.4545	0.1	765.54
23385	20.223	2.3636	0.1	822.84
23386	20.315	2.4545	0.1	803.74
23387	20.039	2.3636	0.1	861.56
23388	20.131	2.4545	0.1	842.26
23389	19.855	2.3636	0.1	900.59
23390	19.947	2.4545	0.1	881.09
23391	19.67	2.3636	0.1	939.89
23392	19.763	2.4545	0.1	920.22
23393	19.486	2.3636	0.1	979.47
23394	19.578	2.4545	0.1	959.63
23395	19.302	2.3636	0.1	1019.3
23396	19.394	2.4545	0.1	999.3
23397	19.118	2.3636	0.1	1059.4
23398	19.21	2.4545	0.1	1039.2
23399	18.934	2.3636	0.1	1099.7
23400	19.026	2.4545	0.1	1079.4
23401	18.749	2.3636	0.1	1140.2
23402	18.841	2.4545	0.1	1119.8
23403	18.565	2.3636	0.1	1181.
23404	18.657	2.4545	0.1	1160.4
23405	18.381	2.3636	0.1	1221.9
23406	18.473	2.4545	0.1	1201.2
23407	18.197	2.3636	0.1	1263.1
23408	18.289	2.4545	0.1	1242.2
23409	18.012	2.3636	0.1	1304.4
23410	18.105	2.4545	0.1	1283.4
23411	17.828	2.3636	0.1	1345.8
23412	17.92	2.4545	0.1	1324.8
23413	17.644	2.3636	0.1	1387.5
23414	17.736	2.4545	0.1	1366.3
23415	17.46	2.3636	0.1	1429.2
23416	17.552	2.4545	0.1	1407.9
23417	17.275	2.3636	0.1	1471.1
23418	17.368	2.4545	0.1	1449.7
23419	17.091	2.3636	0.1	1513.1
23420	17.183	2.4545	0.1	1491.7
23421	16.907	2.3636	0.1	1555.3
23422	16.999	2.4545	0.1	1533.7
23423	16.723	2.3636	0.1	1597.6
23424	16.815	2.4545	0.1	1575.9
23425	16.539	2.3636	0.1	1639.9
23426	16.631	2.4545	0.1	1618.2
23427	16.354	2.3636	0.1	1682.4
23428	16.446	2.4545	0.1	1660.5
23429	16.17	2.3636	0.1	1725.
23430	16.262	2.4545	0.1	1703.
23431	15.986	2.3636	0.1	1767.7
23432	16.078	2.4545	0.1	1745.6
23433	15.802	2.3636	0.1	1810.5
23434	15.894	2.4545	0.1	1788.3
23435	15.617	2.3636	0.1	1853.5
23436	15.709	2.4545	0.1	1831.1
23437	15.433	2.3636	0.1	1896.6
23438	15.525	2.4545	0.1	1874.1
23439	15.249	2.3636	0.1	1940.
23440	15.341	2.4545	0.1	1917.3
23441	15.065	2.3636	0.1	1983.7
23442	15.157	2.4545	0.1	1960.8
23443	14.88	2.3636	0.1	2027.8
23444	14.973	2.4545	0.1	2004.6
23445	14.696	2.3636	0.1	2072.4
23446	14.788	2.4545	0.1	2048.9
23447	14.512	2.3636	0.1	2117.7
23448	14.604	2.4545	0.1	2093.8
23449	14.328	2.3636	0.1	2163.9
23450	14.42	2.4545	0.1	2139.5
23451	14.143	2.3636	0.1	2211.3
23452	14.236	2.4545	0.1	2186.3
23453	13.959	2.3636	0.1	2260.3
23454	14.051	2.4545	0.1	2234.6
23455	13.775	2.3636	0.1	2311.4
23456	13.867	2.4545	0.1	2284.7
23457	13.591	2.3636	0.1	2365.2
23458	13.683	2.4545	0.1	2337.4
23459	13.407	2.3636	0.1	2422.6
23460	13.499	2.4545	0.1	2393.4
23461	13.222	2.3636	0.1	2484.8
23462	13.314	2.4545	0.1	2453.7
23463	13.038	2.3636	0.1	2553.1
23464	13.13	2.4545	0.1	2519.8
23465	12.854	2.3636	0.1	2629.5
23466	12.946	2.4545	0.1	2593.3
23467	12.67	2.3636	0.1	2716.4
23468	12.762	2.4545	0.1	2676.6
23469	12.485	2.3636	0.1	2817.
23470	12.577	2.4545	0.1	2772.6
23471	12.301	2.3636	0.1	2935.6
23472	12.393	2.4545	0.1	2885.4
23473	12.117	2.3636	0.1	3078.2
23474	12.209	2.4545	0.1	3020.2
23475	11.933	2.3636	0.1	3252.7
23476	12.025	2.4545	0.1	3184.3
23477	11.748	2.3636	0.1	3470.6
23478	11.841	2.4545	0.1	3387.5
23479	11.564	2.3636	0.1	3748.3
23480	11.656	2.4545	0.1	3643.5
23481	11.38	2.3636	0.1	4111.3
23482	11.472	2.4545	0.1	3972.2
23483	11.196	2.3636	0.1	4599.7
23484	11.288	2.4545	0.1	4402.5
23485	11.011	2.3636	0.1	5283.2
23486	11.104	2.4545	0.1	4978.
23487	10.827	2.3636	0.1	6271.9
23488	10.919	2.4545	0.1	5765.2
23489	10.643	2.3636	0.1	7698.7
23490	10.735	2.4545	0.1	6842.6
23491	10.551	2.4545	0.1	8224.
23492	10.459	2.3636	0.1	9174.
23493	23.724	2.5455	0.1	202.71
23494	23.816	2.6364	0.1	195.6
23495	23.908	2.5455	0.1	188.84
23496	23.539	2.5455	0.1	222.16
23497	23.632	2.6364	0.1	212.74
23498	23.355	2.5455	0.1	245.31
23499	23.447	2.6364	0.1	234.12
23500	23.171	2.5455	0.1	271.25
23501	23.263	2.6364	0.1	258.73
23502	22.987	2.5455	0.1	299.28
23503	23.079	2.6364	0.1	285.74
23504	22.802	2.5455	0.1	328.94
23505	22.895	2.6364	0.1	314.59
23506	22.618	2.5455	0.1	359.88
23507	22.71	2.6364	0.1	344.88
23508	22.434	2.5455	0.1	391.86
23509	22.526	2.6364	0.1	376.32
23510	22.25	2.5455	0.1	424.72
23511	22.342	2.6364	0.1	408.71
23512	22.066	2.5455	0.1	458.34
23513	22.158	2.6364	0.1	441.92
23514	21.881	2.5455	0.1	492.63
23515	21.973	2.6364	0.1	475.83
23516	21.697	2.5455	0.1	527.51
23517	21.789	2.6364	0.1	510.38
23518	21.513	2.5455	0.1	562.94
23519	21.605	2.6364	0.1	545.49
23520	21.329	2.5455	0.1	598.86
23521	21.421	2.6364	0.1	581.13
23522	21.144	2.5455	0.1	635.25
23523	21.236	2.6364	0.1	617.25
23524	20.96	2.5455	0.1	672.08
23525	21.052	2.6364	0.1	653.82
23526	20.776	2.5455	0.1	709.3
23527	20.868	2.6364	0.1	690.81
23528	20.592	2.5455	0.1	746.91
23529	20.684	2.6364	0.1	728.2
23530	20.407	2.5455	0.1	784.88
23531	20.5	2.6364	0.1	765.96
23532	20.223	2.5455	0.1	823.19
23533	20.315	2.6364	0.1	804.07
23534	20.039	2.5455	0.1	861.82
23535	20.131	2.6364	0.1	842.52
23536	19.855	2.5455	0.1	900.76
23537	19.947	2.6364	0.1	881.28
23538	19.67	2.5455	0.1	939.99
23539	19.763	2.6364	0.1	920.34
23540	19.486	2.5455	0.1	979.5
23541	19.578	2.6364	0.1	959.68
23542	19.302	2.5455	0.1	1019.3
23543	19.394	2.6364	0.1	999.29
23544	19.118	2.5455	0.1	1059.3
23545	19.21	2.6364	0.1	1039.2
23546	18.934	2.5455	0.1	1099.5
23547	19.026	2.6364	0.1	1079.3
23548	18.749	2.5455	0.1	1140.
23549	18.841	2.6364	0.1	1119.6
23550	18.565	2.5455	0.1	1180.7
23551	18.657	2.6364	0.1	1160.2
23552	18.381	2.5455	0.1	1221.6
23553	18.473	2.6364	0.1	1200.9
23554	18.197	2.5455	0.1	1262.6
23555	18.289	2.6364	0.1	1241.9
23556	18.012	2.5455	0.1	1303.9
23557	18.105	2.6364	0.1	1283.
23558	17.828	2.5455	0.1	1345.3
23559	17.92	2.6364	0.1	1324.3
23560	17.644	2.5455	0.1	1386.8
23561	17.736	2.6364	0.1	1365.8
23562	17.46	2.5455	0.1	1428.5
23563	17.552	2.6364	0.1	1407.4
23564	17.275	2.5455	0.1	1470.3
23565	17.368	2.6364	0.1	1449.1
23566	17.091	2.5455	0.1	1512.3
23567	17.183	2.6364	0.1	1491.
23568	16.907	2.5455	0.1	1554.3
23569	16.999	2.6364	0.1	1533.
23570	16.723	2.5455	0.1	1596.5
23571	16.815	2.6364	0.1	1575.1
23572	16.539	2.5455	0.1	1638.8
23573	16.631	2.6364	0.1	1617.2
23574	16.354	2.5455	0.1	1681.2
23575	16.446	2.6364	0.1	1659.5
23576	16.17	2.5455	0.1	1723.6
23577	16.262	2.6364	0.1	1701.9
23578	15.986	2.5455	0.1	1766.2
23579	16.078	2.6364	0.1	1744.4
23580	15.802	2.5455	0.1	1808.9
23581	15.894	2.6364	0.1	1787.
23582	15.617	2.5455	0.1	1851.8
23583	15.709	2.6364	0.1	1829.8
23584	15.433	2.5455	0.1	1894.9
23585	15.525	2.6364	0.1	1872.7
23586	15.249	2.5455	0.1	1938.2
23587	15.341	2.6364	0.1	1915.8
23588	15.065	2.5455	0.1	1981.8
23589	15.157	2.6364	0.1	1959.2
23590	14.88	2.5455	0.1	2025.8
23591	14.973	2.6364	0.1	2003.
23592	14.696	2.5455	0.1	2070.3
23593	14.788	2.6364	0.1	2047.2
23594	14.512	2.5455	0.1	2115.7
23595	14.604	2.6364	0.1	2092.1
23596	14.328	2.5455	0.1	2162.
23597	14.42	2.6364	0.1	2137.9
23598	14.143	2.5455	0.1	2209.6
23599	14.236	2.6364	0.1	2184.8
23600	13.959	2.5455	0.1	2259.
23601	14.051	2.6364	0.1	2233.3
23602	13.775	2.5455	0.1	2310.8
23603	13.867	2.6364	0.1	2283.9
23604	13.591	2.5455	0.1	2365.6
23605	13.683	2.6364	0.1	2337.2
23606	13.407	2.5455	0.1	2424.5
23607	13.499	2.6364	0.1	2394.2
23608	13.222	2.5455	0.1	2488.7
23609	13.314	2.6364	0.1	2456.
23610	13.038	2.5455	0.1	2560.
23611	13.13	2.6364	0.1	2524.1
23612	12.854	2.5455	0.1	2640.4
23613	12.946	2.6364	0.1	2600.6
23614	12.67	2.5455	0.1	2732.8
23615	12.762	2.6364	0.1	2687.8
23616	12.485	2.5455	0.1	2841.
23617	12.577	2.6364	0.1	2789.4
23618	12.301	2.5455	0.1	2970.
23619	12.393	2.6364	0.1	2909.7
23620	12.117	2.5455	0.1	3126.4
23621	12.209	2.6364	0.1	3054.6
23622	11.933	2.5455	0.1	3319.1
23623	12.025	2.6364	0.1	3232.2
23624	11.748	2.5455	0.1	3560.6
23625	11.841	2.6364	0.1	3453.
23626	11.564	2.5455	0.1	3867.9
23627	11.656	2.6364	0.1	3731.4
23628	11.38	2.5455	0.1	4264.9
23629	11.472	2.6364	0.1	4086.7
23630	11.196	2.5455	0.1	4784.8
23631	11.288	2.6364	0.1	4544.2
23632	11.011	2.5455	0.1	5469.9
23633	11.104	2.6364	0.1	5135.
23634	10.827	2.5455	0.1	6356.7
23635	10.919	2.6364	0.1	5888.3
23636	10.643	2.5455	0.1	7390.9
23637	10.735	2.6364	0.1	6802.1
23638	10.551	2.6364	0.1	7745.4
23639	10.459	2.5455	0.1	8302.9
23640	23.724	2.7273	0.1	204.47
23641	23.816	2.8182	0.1	196.93
23642	23.908	2.7273	0.1	190.66
23643	23.539	2.7273	0.1	223.86
23644	23.632	2.8182	0.1	214.03
23645	23.355	2.7273	0.1	246.93
23646	23.447	2.8182	0.1	235.37
23647	23.171	2.7273	0.1	272.79
23648	23.263	2.8182	0.1	259.91
23649	22.987	2.7273	0.1	300.74
23650	23.079	2.8182	0.1	286.86
23651	22.802	2.7273	0.1	330.31
23652	22.895	2.8182	0.1	315.65
23653	22.618	2.7273	0.1	361.17
23654	22.71	2.8182	0.1	345.88
23655	22.434	2.7273	0.1	393.06
23656	22.526	2.8182	0.1	377.25
23657	22.25	2.7273	0.1	425.84
23658	22.342	2.8182	0.1	409.58
23659	22.066	2.7273	0.1	459.37
23660	22.158	2.8182	0.1	442.72
23661	21.881	2.7273	0.1	493.56
23662	21.973	2.8182	0.1	476.57
23663	21.697	2.7273	0.1	528.36
23664	21.789	2.8182	0.1	511.05
23665	21.513	2.7273	0.1	563.7
23666	21.605	2.8182	0.1	546.1
23667	21.329	2.7273	0.1	599.54
23668	21.421	2.8182	0.1	581.67
23669	21.144	2.7273	0.1	635.85
23670	21.236	2.8182	0.1	617.73
23671	20.96	2.7273	0.1	672.59
23672	21.052	2.8182	0.1	654.24
23673	20.776	2.7273	0.1	709.74
23674	20.868	2.8182	0.1	691.17
23675	20.592	2.7273	0.1	747.28
23676	20.684	2.8182	0.1	728.51
23677	20.407	2.7273	0.1	785.19
23678	20.5	2.8182	0.1	766.21
23679	20.223	2.7273	0.1	823.43
23680	20.315	2.8182	0.1	804.28
23681	20.039	2.7273	0.1	862.01
23682	20.131	2.8182	0.1	842.67
23683	19.855	2.7273	0.1	900.89
23684	19.947	2.8182	0.1	881.39
23685	19.67	2.7273	0.1	940.06
23686	19.763	2.8182	0.1	920.41
23687	19.486	2.7273	0.1	979.52
23688	19.578	2.8182	0.1	959.72
23689	19.302	2.7273	0.1	1019.2
23690	19.394	2.8182	0.1	999.29
23691	19.118	2.7273	0.1	1059.2
23692	19.21	2.8182	0.1	1039.1
23693	18.934	2.7273	0.1	1099.4
23694	19.026	2.8182	0.1	1079.2
23695	18.749	2.7273	0.1	1139.8
23696	18.841	2.8182	0.1	1119.5
23697	18.565	2.7273	0.1	1180.5
23698	18.657	2.8182	0.1	1160.
23699	18.381	2.7273	0.1	1221.3
23700	18.473	2.8182	0.1	1200.8
23701	18.197	2.7273	0.1	1262.3
23702	18.289	2.8182	0.1	1241.7
23703	18.012	2.7273	0.1	1303.5
23704	18.105	2.8182	0.1	1282.8
23705	17.828	2.7273	0.1	1344.9
23706	17.92	2.8182	0.1	1324.
23707	17.644	2.7273	0.1	1386.4
23708	17.736	2.8182	0.1	1365.5
23709	17.46	2.7273	0.1	1428.
23710	17.552	2.8182	0.1	1407.
23711	17.275	2.7273	0.1	1469.8
23712	17.368	2.8182	0.1	1448.7
23713	17.091	2.7273	0.1	1511.7
23714	17.183	2.8182	0.1	1490.6
23715	16.907	2.7273	0.1	1553.7
23716	16.999	2.8182	0.1	1532.5
23717	16.723	2.7273	0.1	1595.8
23718	16.815	2.8182	0.1	1574.5
23719	16.539	2.7273	0.1	1638.
23720	16.631	2.8182	0.1	1616.7
23721	16.354	2.7273	0.1	1680.3
23722	16.446	2.8182	0.1	1658.9
23723	16.17	2.7273	0.1	1722.7
23724	16.262	2.8182	0.1	1701.3
23725	15.986	2.7273	0.1	1765.3
23726	16.078	2.8182	0.1	1743.7
23727	15.802	2.7273	0.1	1807.9
23728	15.894	2.8182	0.1	1786.3
23729	15.617	2.7273	0.1	1850.7
23730	15.709	2.8182	0.1	1829.
23731	15.433	2.7273	0.1	1893.7
23732	15.525	2.8182	0.1	1871.8
23733	15.249	2.7273	0.1	1936.9
23734	15.341	2.8182	0.1	1914.9
23735	15.065	2.7273	0.1	1980.4
23736	15.157	2.8182	0.1	1958.2
23737	14.88	2.7273	0.1	2024.4
23738	14.973	2.8182	0.1	2001.9
23739	14.696	2.7273	0.1	2068.9
23740	14.788	2.8182	0.1	2046.1
23741	14.512	2.7273	0.1	2114.3
23742	14.604	2.8182	0.1	2091.
23743	14.328	2.7273	0.1	2160.7
23744	14.42	2.8182	0.1	2136.8
23745	14.143	2.7273	0.1	2208.5
23746	14.236	2.8182	0.1	2183.8
23747	13.959	2.7273	0.1	2258.2
23748	14.051	2.8182	0.1	2232.5
23749	13.775	2.7273	0.1	2310.4
23750	13.867	2.8182	0.1	2283.4
23751	13.591	2.7273	0.1	2365.9
23752	13.683	2.8182	0.1	2337.1
23753	13.407	2.7273	0.1	2425.8
23754	13.499	2.8182	0.1	2394.8
23755	13.222	2.7273	0.1	2491.5
23756	13.314	2.8182	0.1	2457.5
23757	13.038	2.7273	0.1	2564.8
23758	13.13	2.8182	0.1	2526.9
23759	12.854	2.7273	0.1	2648.
23760	12.946	2.8182	0.1	2605.1
23761	12.67	2.7273	0.1	2744.4
23762	12.762	2.8182	0.1	2694.9
23763	12.485	2.7273	0.1	2858.1
23764	12.577	2.8182	0.1	2800.
23765	12.301	2.7273	0.1	2994.4
23766	12.393	2.8182	0.1	2925.
23767	12.117	2.7273	0.1	3160.7
23768	12.209	2.8182	0.1	3076.4
23769	11.933	2.7273	0.1	3366.5
23770	12.025	2.8182	0.1	3262.5
23771	11.748	2.7273	0.1	3624.7
23772	11.841	2.8182	0.1	3494.5
23773	11.564	2.7273	0.1	3951.9
23774	11.656	2.8182	0.1	3786.8
23775	11.38	2.7273	0.1	4369.2
23776	11.472	2.8182	0.1	4157.7
23777	11.196	2.7273	0.1	4900.5
23778	11.288	2.8182	0.1	4628.6
23779	11.011	2.7273	0.1	5564.1
23780	11.104	2.8182	0.1	5219.6
23781	10.827	2.7273	0.1	6349.1
23782	10.919	2.8182	0.1	5935.1
23783	10.643	2.7273	0.1	7168.6
23784	10.735	2.8182	0.1	6733.
23785	10.551	2.8182	0.1	7481.4
23786	10.459	2.7273	0.1	7828.5
23787	23.724	2.9091	0.1	205.34
23788	23.816	3.	0.1	197.37
23789	23.908	2.9091	0.1	191.56
23790	23.539	2.9091	0.1	224.7
23791	23.632	3.	0.1	214.47
23792	23.355	2.9091	0.1	247.74
23793	23.447	3.	0.1	235.78
23794	23.171	2.9091	0.1	273.55
23795	23.263	3.	0.1	260.31
23796	22.987	2.9091	0.1	301.47
23797	23.079	3.	0.1	287.24
23798	22.802	2.9091	0.1	331.
23799	22.895	3.	0.1	316.01
23800	22.618	2.9091	0.1	361.81
23801	22.71	3.	0.1	346.21
23802	22.434	2.9091	0.1	393.66
23803	22.526	3.	0.1	377.56
23804	22.25	2.9091	0.1	426.39
23805	22.342	3.	0.1	409.87
23806	22.066	2.9091	0.1	459.88
23807	22.158	3.	0.1	442.99
23808	21.881	2.9091	0.1	494.03
23809	21.973	3.	0.1	476.81
23810	21.697	2.9091	0.1	528.78
23811	21.789	3.	0.1	511.27
23812	21.513	2.9091	0.1	564.08
23813	21.605	3.	0.1	546.3
23814	21.329	2.9091	0.1	599.88
23815	21.421	3.	0.1	581.85
23816	21.144	2.9091	0.1	636.15
23817	21.236	3.	0.1	617.89
23818	20.96	2.9091	0.1	672.85
23819	21.052	3.	0.1	654.38
23820	20.776	2.9091	0.1	709.97
23821	20.868	3.	0.1	691.3
23822	20.592	2.9091	0.1	747.47
23823	20.684	3.	0.1	728.61
23824	20.407	2.9091	0.1	785.34
23825	20.5	3.	0.1	766.3
23826	20.223	2.9091	0.1	823.56
23827	20.315	3.	0.1	804.35
23828	20.039	2.9091	0.1	862.1
23829	20.131	3.	0.1	842.73
23830	19.855	2.9091	0.1	900.95
23831	19.947	3.	0.1	881.43
23832	19.67	2.9091	0.1	940.1
23833	19.763	3.	0.1	920.44
23834	19.486	2.9091	0.1	979.53
23835	19.578	3.	0.1	959.73
23836	19.302	2.9091	0.1	1019.2
23837	19.394	3.	0.1	999.29
23838	19.118	2.9091	0.1	1059.2
23839	19.21	3.	0.1	1039.1
23840	18.934	2.9091	0.1	1099.3
23841	19.026	3.	0.1	1079.2
23842	18.749	2.9091	0.1	1139.7
23843	18.841	3.	0.1	1119.5
23844	18.565	2.9091	0.1	1180.4
23845	18.657	3.	0.1	1160.
23846	18.381	2.9091	0.1	1221.2
23847	18.473	3.	0.1	1200.7
23848	18.197	2.9091	0.1	1262.2
23849	18.289	3.	0.1	1241.6
23850	18.012	2.9091	0.1	1303.3
23851	18.105	3.	0.1	1282.7
23852	17.828	2.9091	0.1	1344.7
23853	17.92	3.	0.1	1324.
23854	17.644	2.9091	0.1	1386.2
23855	17.736	3.	0.1	1365.4
23856	17.46	2.9091	0.1	1427.8
23857	17.552	3.	0.1	1406.9
23858	17.275	2.9091	0.1	1469.5
23859	17.368	3.	0.1	1448.6
23860	17.091	2.9091	0.1	1511.4
23861	17.183	3.	0.1	1490.4
23862	16.907	2.9091	0.1	1553.4
23863	16.999	3.	0.1	1532.3
23864	16.723	2.9091	0.1	1595.5
23865	16.815	3.	0.1	1574.4
23866	16.539	2.9091	0.1	1637.6
23867	16.631	3.	0.1	1616.5
23868	16.354	2.9091	0.1	1679.9
23869	16.446	3.	0.1	1658.7
23870	16.17	2.9091	0.1	1722.3
23871	16.262	3.	0.1	1701.1
23872	15.986	2.9091	0.1	1764.8
23873	16.078	3.	0.1	1743.5
23874	15.802	2.9091	0.1	1807.4
23875	15.894	3.	0.1	1786.
23876	15.617	2.9091	0.1	1850.1
23877	15.709	3.	0.1	1828.7
23878	15.433	2.9091	0.1	1893.
23879	15.525	3.	0.1	1871.5
23880	15.249	2.9091	0.1	1936.2
23881	15.341	3.	0.1	1914.6
23882	15.065	2.9091	0.1	1979.7
23883	15.157	3.	0.1	1957.9
23884	14.88	2.9091	0.1	2023.7
23885	14.973	3.	0.1	2001.6
23886	14.696	2.9091	0.1	2068.2
23887	14.788	3.	0.1	2045.8
23888	14.512	2.9091	0.1	2113.6
23889	14.604	3.	0.1	2090.7
23890	14.328	2.9091	0.1	2160.
23891	14.42	3.	0.1	2136.5
23892	14.143	2.9091	0.1	2207.9
23893	14.236	3.	0.1	2183.5
23894	13.959	2.9091	0.1	2257.7
23895	14.051	3.	0.1	2232.3
23896	13.775	2.9091	0.1	2310.2
23897	13.867	3.	0.1	2283.2
23898	13.591	2.9091	0.1	2366.
23899	13.683	3.	0.1	2337.1
23900	13.407	2.9091	0.1	2426.4
23901	13.499	3.	0.1	2394.9
23902	13.222	2.9091	0.1	2492.9
23903	13.314	3.	0.1	2458.
23904	13.038	2.9091	0.1	2567.2
23905	13.13	3.	0.1	2527.8
23906	12.854	2.9091	0.1	2652.
23907	12.946	3.	0.1	2606.7
23908	12.67	2.9091	0.1	2750.5
23909	12.762	3.	0.1	2697.3
23910	12.485	2.9091	0.1	2867.
23911	12.577	3.	0.1	2803.6
23912	12.301	2.9091	0.1	3007.2
23913	12.393	3.	0.1	2930.2
23914	12.117	2.9091	0.1	3178.6
23915	12.209	3.	0.1	3083.9
23916	11.933	2.9091	0.1	3391.2
23917	12.025	3.	0.1	3272.9
23918	11.748	2.9091	0.1	3657.9
23919	11.841	3.	0.1	3508.7
23920	11.564	2.9091	0.1	3995.
23921	11.656	3.	0.1	3805.7
23922	11.38	2.9091	0.1	4421.3
23923	11.472	3.	0.1	4181.6
23924	11.196	2.9091	0.1	4954.6
23925	11.288	3.	0.1	4656.4
23926	11.011	2.9091	0.1	5600.8
23927	11.104	3.	0.1	5245.7
23928	10.827	2.9091	0.1	6331.2
23929	10.919	3.	0.1	5946.
23930	10.643	2.9091	0.1	7055.
23931	10.735	3.	0.1	6705.4
23932	10.551	3.	0.1	7396.
23933	10.459	2.9091	0.1	7615.9
23934	23.724	3.0909	0.1	205.34
23935	23.816	3.1818	0.1	196.93
23936	23.908	3.0909	0.1	191.56
23937	23.539	3.0909	0.1	224.7
23938	23.632	3.1818	0.1	214.03
23939	23.355	3.0909	0.1	247.74
23940	23.447	3.1818	0.1	235.37
23941	23.171	3.0909	0.1	273.55
23942	23.263	3.1818	0.1	259.91
23943	22.987	3.0909	0.1	301.47
23944	23.079	3.1818	0.1	286.86
23945	22.802	3.0909	0.1	331.
23946	22.895	3.1818	0.1	315.65
23947	22.618	3.0909	0.1	361.81
23948	22.71	3.1818	0.1	345.88
23949	22.434	3.0909	0.1	393.66
23950	22.526	3.1818	0.1	377.25
23951	22.25	3.0909	0.1	426.39
23952	22.342	3.1818	0.1	409.58
23953	22.066	3.0909	0.1	459.88
23954	22.158	3.1818	0.1	442.72
23955	21.881	3.0909	0.1	494.03
23956	21.973	3.1818	0.1	476.57
23957	21.697	3.0909	0.1	528.78
23958	21.789	3.1818	0.1	511.05
23959	21.513	3.0909	0.1	564.08
23960	21.605	3.1818	0.1	546.1
23961	21.329	3.0909	0.1	599.88
23962	21.421	3.1818	0.1	581.67
23963	21.144	3.0909	0.1	636.15
23964	21.236	3.1818	0.1	617.73
23965	20.96	3.0909	0.1	672.85
23966	21.052	3.1818	0.1	654.24
23967	20.776	3.0909	0.1	709.97
23968	20.868	3.1818	0.1	691.17
23969	20.592	3.0909	0.1	747.47
23970	20.684	3.1818	0.1	728.51
23971	20.407	3.0909	0.1	785.34
23972	20.5	3.1818	0.1	766.21
23973	20.223	3.0909	0.1	823.56
23974	20.315	3.1818	0.1	804.28
23975	20.039	3.0909	0.1	862.1
23976	20.131	3.1818	0.1	842.67
23977	19.855	3.0909	0.1	900.95
23978	19.947	3.1818	0.1	881.39
23979	19.67	3.0909	0.1	940.1
23980	19.763	3.1818	0.1	920.41
23981	19.486	3.0909	0.1	979.53
23982	19.578	3.1818	0.1	959.72
23983	19.302	3.0909	0.1	1019.2
23984	19.394	3.1818	0.1	999.29
23985	19.118	3.0909	0.1	1059.2
23986	19.21	3.1818	0.1	1039.1
23987	18.934	3.0909	0.1	1099.3
23988	19.026	3.1818	0.1	1079.2
23989	18.749	3.0909	0.1	1139.7
23990	18.841	3.1818	0.1	1119.5
23991	18.565	3.0909	0.1	1180.4
23992	18.657	3.1818	0.1	1160.
23993	18.381	3.0909	0.1	1221.2
23994	18.473	3.1818	0.1	1200.8
23995	18.197	3.0909	0.1	1262.2
23996	18.289	3.1818	0.1	1241.7
23997	18.012	3.0909	0.1	1303.3
23998	18.105	3.1818	0.1	1282.8
23999	17.828	3.0909	0.1	1344.7
24000	17.92	3.1818	0.1	1324.
24001	17.644	3.0909	0.1	1386.2
24002	17.736	3.1818	0.1	1365.5
24003	17.46	3.0909	0.1	1427.8
24004	17.552	3.1818	0.1	1407.
24005	17.275	3.0909	0.1	1469.5
24006	17.368	3.1818	0.1	1448.7
24007	17.091	3.0909	0.1	1511.4
24008	17.183	3.1818	0.1	1490.6
24009	16.907	3.0909	0.1	1553.4
24010	16.999	3.1818	0.1	1532.5
24011	16.723	3.0909	0.1	1595.5
24012	16.815	3.1818	0.1	1574.5
24013	16.539	3.0909	0.1	1637.6
24014	16.631	3.1818	0.1	1616.7
24015	16.354	3.0909	0.1	1679.9
24016	16.446	3.1818	0.1	1658.9
24017	16.17	3.0909	0.1	1722.3
24018	16.262	3.1818	0.1	1701.3
24019	15.986	3.0909	0.1	1764.8
24020	16.078	3.1818	0.1	1743.7
24021	15.802	3.0909	0.1	1807.4
24022	15.894	3.1818	0.1	1786.3
24023	15.617	3.0909	0.1	1850.1
24024	15.709	3.1818	0.1	1829.
24025	15.433	3.0909	0.1	1893.
24026	15.525	3.1818	0.1	1871.8
24027	15.249	3.0909	0.1	1936.2
24028	15.341	3.1818	0.1	1914.9
24029	15.065	3.0909	0.1	1979.7
24030	15.157	3.1818	0.1	1958.2
24031	14.88	3.0909	0.1	2023.7
24032	14.973	3.1818	0.1	2001.9
24033	14.696	3.0909	0.1	2068.2
24034	14.788	3.1818	0.1	2046.1
24035	14.512	3.0909	0.1	2113.6
24036	14.604	3.1818	0.1	2091.
24037	14.328	3.0909	0.1	2160.
24038	14.42	3.1818	0.1	2136.8
24039	14.143	3.0909	0.1	2207.9
24040	14.236	3.1818	0.1	2183.8
24041	13.959	3.0909	0.1	2257.7
24042	14.051	3.1818	0.1	2232.5
24043	13.775	3.0909	0.1	2310.2
24044	13.867	3.1818	0.1	2283.4
24045	13.591	3.0909	0.1	2366.
24046	13.683	3.1818	0.1	2337.1
24047	13.407	3.0909	0.1	2426.4
24048	13.499	3.1818	0.1	2394.8
24049	13.222	3.0909	0.1	2492.9
24050	13.314	3.1818	0.1	2457.5
24051	13.038	3.0909	0.1	2567.2
24052	13.13	3.1818	0.1	2526.9
24053	12.854	3.0909	0.1	2652.
24054	12.946	3.1818	0.1	2605.1
24055	12.67	3.0909	0.1	2750.5
24056	12.762	3.1818	0.1	2694.9
24057	12.485	3.0909	0.1	2867.
24058	12.577	3.1818	0.1	2800.
24059	12.301	3.0909	0.1	3007.2
24060	12.393	3.1818	0.1	2925.
24061	12.117	3.0909	0.1	3178.6
24062	12.209	3.1818	0.1	3076.4
24063	11.933	3.0909	0.1	3391.2
24064	12.025	3.1818	0.1	3262.5
24065	11.748	3.0909	0.1	3657.9
24066	11.841	3.1818	0.1	3494.5
24067	11.564	3.0909	0.1	3995.
24068	11.656	3.1818	0.1	3786.8
24069	11.38	3.0909	0.1	4421.3
24070	11.472	3.1818	0.1	4157.7
24071	11.196	3.0909	0.1	4954.6
24072	11.288	3.1818	0.1	4628.6
24073	11.011	3.0909	0.1	5600.8
24074	11.104	3.1818	0.1	5219.6
24075	10.827	3.0909	0.1	6331.2
24076	10.919	3.1818	0.1	5935.1
24077	10.643	3.0909	0.1	7055.
24078	10.735	3.1818	0.1	6733.
24079	10.551	3.1818	0.1	7481.4
24080	10.459	3.0909	0.1	7615.9
24081	23.724	3.2727	0.1	204.47
24082	23.816	3.3636	0.1	195.6
24083	23.908	3.2727	0.1	190.66
24084	23.539	3.2727	0.1	223.86
24085	23.632	3.3636	0.1	212.74
24086	23.355	3.2727	0.1	246.93
24087	23.447	3.3636	0.1	234.12
24088	23.171	3.2727	0.1	272.79
24089	23.263	3.3636	0.1	258.73
24090	22.987	3.2727	0.1	300.74
24091	23.079	3.3636	0.1	285.74
24092	22.802	3.2727	0.1	330.31
24093	22.895	3.3636	0.1	314.59
24094	22.618	3.2727	0.1	361.17
24095	22.71	3.3636	0.1	344.88
24096	22.434	3.2727	0.1	393.06
24097	22.526	3.3636	0.1	376.32
24098	22.25	3.2727	0.1	425.84
24099	22.342	3.3636	0.1	408.71
24100	22.066	3.2727	0.1	459.37
24101	22.158	3.3636	0.1	441.92
24102	21.881	3.2727	0.1	493.56
24103	21.973	3.3636	0.1	475.83
24104	21.697	3.2727	0.1	528.36
24105	21.789	3.3636	0.1	510.38
24106	21.513	3.2727	0.1	563.7
24107	21.605	3.3636	0.1	545.49
24108	21.329	3.2727	0.1	599.54
24109	21.421	3.3636	0.1	581.13
24110	21.144	3.2727	0.1	635.85
24111	21.236	3.3636	0.1	617.25
24112	20.96	3.2727	0.1	672.59
24113	21.052	3.3636	0.1	653.82
24114	20.776	3.2727	0.1	709.74
24115	20.868	3.3636	0.1	690.81
24116	20.592	3.2727	0.1	747.28
24117	20.684	3.3636	0.1	728.2
24118	20.407	3.2727	0.1	785.19
24119	20.5	3.3636	0.1	765.96
24120	20.223	3.2727	0.1	823.43
24121	20.315	3.3636	0.1	804.07
24122	20.039	3.2727	0.1	862.01
24123	20.131	3.3636	0.1	842.52
24124	19.855	3.2727	0.1	900.89
24125	19.947	3.3636	0.1	881.28
24126	19.67	3.2727	0.1	940.06
24127	19.763	3.3636	0.1	920.34
24128	19.486	3.2727	0.1	979.52
24129	19.578	3.3636	0.1	959.68
24130	19.302	3.2727	0.1	1019.2
24131	19.394	3.3636	0.1	999.29
24132	19.118	3.2727	0.1	1059.2
24133	19.21	3.3636	0.1	1039.2
24134	18.934	3.2727	0.1	1099.4
24135	19.026	3.3636	0.1	1079.3
24136	18.749	3.2727	0.1	1139.8
24137	18.841	3.3636	0.1	1119.6
24138	18.565	3.2727	0.1	1180.5
24139	18.657	3.3636	0.1	1160.2
24140	18.381	3.2727	0.1	1221.3
24141	18.473	3.3636	0.1	1200.9
24142	18.197	3.2727	0.1	1262.3
24143	18.289	3.3636	0.1	1241.9
24144	18.012	3.2727	0.1	1303.5
24145	18.105	3.3636	0.1	1283.
24146	17.828	3.2727	0.1	1344.9
24147	17.92	3.3636	0.1	1324.3
24148	17.644	3.2727	0.1	1386.4
24149	17.736	3.3636	0.1	1365.8
24150	17.46	3.2727	0.1	1428.
24151	17.552	3.3636	0.1	1407.4
24152	17.275	3.2727	0.1	1469.8
24153	17.368	3.3636	0.1	1449.1
24154	17.091	3.2727	0.1	1511.7
24155	17.183	3.3636	0.1	1491.
24156	16.907	3.2727	0.1	1553.7
24157	16.999	3.3636	0.1	1533.
24158	16.723	3.2727	0.1	1595.8
24159	16.815	3.3636	0.1	1575.1
24160	16.539	3.2727	0.1	1638.
24161	16.631	3.3636	0.1	1617.2
24162	16.354	3.2727	0.1	1680.3
24163	16.446	3.3636	0.1	1659.5
24164	16.17	3.2727	0.1	1722.7
24165	16.262	3.3636	0.1	1701.9
24166	15.986	3.2727	0.1	1765.3
24167	16.078	3.3636	0.1	1744.4
24168	15.802	3.2727	0.1	1807.9
24169	15.894	3.3636	0.1	1787.
24170	15.617	3.2727	0.1	1850.7
24171	15.709	3.3636	0.1	1829.8
24172	15.433	3.2727	0.1	1893.7
24173	15.525	3.3636	0.1	1872.7
24174	15.249	3.2727	0.1	1936.9
24175	15.341	3.3636	0.1	1915.8
24176	15.065	3.2727	0.1	1980.4
24177	15.157	3.3636	0.1	1959.2
24178	14.88	3.2727	0.1	2024.4
24179	14.973	3.3636	0.1	2003.
24180	14.696	3.2727	0.1	2068.9
24181	14.788	3.3636	0.1	2047.2
24182	14.512	3.2727	0.1	2114.3
24183	14.604	3.3636	0.1	2092.1
24184	14.328	3.2727	0.1	2160.7
24185	14.42	3.3636	0.1	2137.9
24186	14.143	3.2727	0.1	2208.5
24187	14.236	3.3636	0.1	2184.8
24188	13.959	3.2727	0.1	2258.2
24189	14.051	3.3636	0.1	2233.3
24190	13.775	3.2727	0.1	2310.4
24191	13.867	3.3636	0.1	2283.9
24192	13.591	3.2727	0.1	2365.9
24193	13.683	3.3636	0.1	2337.2
24194	13.407	3.2727	0.1	2425.8
24195	13.499	3.3636	0.1	2394.2
24196	13.222	3.2727	0.1	2491.5
24197	13.314	3.3636	0.1	2456.
24198	13.038	3.2727	0.1	2564.8
24199	13.13	3.3636	0.1	2524.1
24200	12.854	3.2727	0.1	2648.
24201	12.946	3.3636	0.1	2600.6
24202	12.67	3.2727	0.1	2744.4
24203	12.762	3.3636	0.1	2687.8
24204	12.485	3.2727	0.1	2858.1
24205	12.577	3.3636	0.1	2789.4
24206	12.301	3.2727	0.1	2994.4
24207	12.393	3.3636	0.1	2909.7
24208	12.117	3.2727	0.1	3160.7
24209	12.209	3.3636	0.1	3054.6
24210	11.933	3.2727	0.1	3366.5
24211	12.025	3.3636	0.1	3232.2
24212	11.748	3.2727	0.1	3624.7
24213	11.841	3.3636	0.1	3453.
24214	11.564	3.2727	0.1	3951.9
24215	11.656	3.3636	0.1	3731.4
24216	11.38	3.2727	0.1	4369.2
24217	11.472	3.3636	0.1	4086.7
24218	11.196	3.2727	0.1	4900.5
24219	11.288	3.3636	0.1	4544.2
24220	11.011	3.2727	0.1	5564.1
24221	11.104	3.3636	0.1	5135.
24222	10.827	3.2727	0.1	6349.1
24223	10.919	3.3636	0.1	5888.3
24224	10.643	3.2727	0.1	7168.6
24225	10.735	3.3636	0.1	6802.1
24226	10.551	3.3636	0.1	7745.4
24227	10.459	3.2727	0.1	7828.5
24228	23.724	3.4545	0.1	202.71
24229	23.816	3.5455	0.1	193.37
24230	23.908	3.4545	0.1	188.84
24231	23.539	3.4545	0.1	222.16
24232	23.632	3.5455	0.1	210.57
24233	23.355	3.4545	0.1	245.31
24234	23.447	3.5455	0.1	232.04
24235	23.171	3.4545	0.1	271.25
24236	23.263	3.5455	0.1	256.74
24237	22.987	3.4545	0.1	299.28
24238	23.079	3.5455	0.1	283.86
24239	22.802	3.4545	0.1	328.94
24240	22.895	3.5455	0.1	312.82
24241	22.618	3.4545	0.1	359.88
24242	22.71	3.5455	0.1	343.21
24243	22.434	3.4545	0.1	391.86
24244	22.526	3.5455	0.1	374.76
24245	22.25	3.4545	0.1	424.72
24246	22.342	3.5455	0.1	407.26
24247	22.066	3.4545	0.1	458.34
24248	22.158	3.5455	0.1	440.58
24249	21.881	3.4545	0.1	492.63
24250	21.973	3.5455	0.1	474.61
24251	21.697	3.4545	0.1	527.51
24252	21.789	3.5455	0.1	509.27
24253	21.513	3.4545	0.1	562.94
24254	21.605	3.5455	0.1	544.5
24255	21.329	3.4545	0.1	598.86
24256	21.421	3.5455	0.1	580.24
24257	21.144	3.4545	0.1	635.25
24258	21.236	3.5455	0.1	616.47
24259	20.96	3.4545	0.1	672.08
24260	21.052	3.5455	0.1	653.14
24261	20.776	3.4545	0.1	709.3
24262	20.868	3.5455	0.1	690.22
24263	20.592	3.4545	0.1	746.91
24264	20.684	3.5455	0.1	727.7
24265	20.407	3.4545	0.1	784.88
24266	20.5	3.5455	0.1	765.54
24267	20.223	3.4545	0.1	823.19
24268	20.315	3.5455	0.1	803.74
24269	20.039	3.4545	0.1	861.82
24270	20.131	3.5455	0.1	842.26
24271	19.855	3.4545	0.1	900.76
24272	19.947	3.5455	0.1	881.09
24273	19.67	3.4545	0.1	939.99
24274	19.763	3.5455	0.1	920.22
24275	19.486	3.4545	0.1	979.5
24276	19.578	3.5455	0.1	959.63
24277	19.302	3.4545	0.1	1019.3
24278	19.394	3.5455	0.1	999.3
24279	19.118	3.4545	0.1	1059.3
24280	19.21	3.5455	0.1	1039.2
24281	18.934	3.4545	0.1	1099.5
24282	19.026	3.5455	0.1	1079.4
24283	18.749	3.4545	0.1	1140.
24284	18.841	3.5455	0.1	1119.8
24285	18.565	3.4545	0.1	1180.7
24286	18.657	3.5455	0.1	1160.4
24287	18.381	3.4545	0.1	1221.6
24288	18.473	3.5455	0.1	1201.2
24289	18.197	3.4545	0.1	1262.6
24290	18.289	3.5455	0.1	1242.2
24291	18.012	3.4545	0.1	1303.9
24292	18.105	3.5455	0.1	1283.4
24293	17.828	3.4545	0.1	1345.3
24294	17.92	3.5455	0.1	1324.8
24295	17.644	3.4545	0.1	1386.8
24296	17.736	3.5455	0.1	1366.3
24297	17.46	3.4545	0.1	1428.5
24298	17.552	3.5455	0.1	1407.9
24299	17.275	3.4545	0.1	1470.3
24300	17.368	3.5455	0.1	1449.7
24301	17.091	3.4545	0.1	1512.3
24302	17.183	3.5455	0.1	1491.7
24303	16.907	3.4545	0.1	1554.3
24304	16.999	3.5455	0.1	1533.7
24305	16.723	3.4545	0.1	1596.5
24306	16.815	3.5455	0.1	1575.9
24307	16.539	3.4545	0.1	1638.8
24308	16.631	3.5455	0.1	1618.2
24309	16.354	3.4545	0.1	1681.2
24310	16.446	3.5455	0.1	1660.5
24311	16.17	3.4545	0.1	1723.6
24312	16.262	3.5455	0.1	1703.
24313	15.986	3.4545	0.1	1766.2
24314	16.078	3.5455	0.1	1745.6
24315	15.802	3.4545	0.1	1808.9
24316	15.894	3.5455	0.1	1788.3
24317	15.617	3.4545	0.1	1851.8
24318	15.709	3.5455	0.1	1831.1
24319	15.433	3.4545	0.1	1894.9
24320	15.525	3.5455	0.1	1874.1
24321	15.249	3.4545	0.1	1938.2
24322	15.341	3.5455	0.1	1917.3
24323	15.065	3.4545	0.1	1981.8
24324	15.157	3.5455	0.1	1960.8
24325	14.88	3.4545	0.1	2025.8
24326	14.973	3.5455	0.1	2004.6
24327	14.696	3.4545	0.1	2070.3
24328	14.788	3.5455	0.1	2048.9
24329	14.512	3.4545	0.1	2115.7
24330	14.604	3.5455	0.1	2093.8
24331	14.328	3.4545	0.1	2162.
24332	14.42	3.5455	0.1	2139.5
24333	14.143	3.4545	0.1	2209.6
24334	14.236	3.5455	0.1	2186.3
24335	13.959	3.4545	0.1	2259.
24336	14.051	3.5455	0.1	2234.6
24337	13.775	3.4545	0.1	2310.8
24338	13.867	3.5455	0.1	2284.7
24339	13.591	3.4545	0.1	2365.6
24340	13.683	3.5455	0.1	2337.4
24341	13.407	3.4545	0.1	2424.5
24342	13.499	3.5455	0.1	2393.4
24343	13.222	3.4545	0.1	2488.7
24344	13.314	3.5455	0.1	2453.7
24345	13.038	3.4545	0.1	2560.
24346	13.13	3.5455	0.1	2519.8
24347	12.854	3.4545	0.1	2640.4
24348	12.946	3.5455	0.1	2593.3
24349	12.67	3.4545	0.1	2732.8
24350	12.762	3.5455	0.1	2676.6
24351	12.485	3.4545	0.1	2841.
24352	12.577	3.5455	0.1	2772.6
24353	12.301	3.4545	0.1	2970.
24354	12.393	3.5455	0.1	2885.4
24355	12.117	3.4545	0.1	3126.4
24356	12.209	3.5455	0.1	3020.2
24357	11.933	3.4545	0.1	3319.1
24358	12.025	3.5455	0.1	3184.3
24359	11.748	3.4545	0.1	3560.6
24360	11.841	3.5455	0.1	3387.5
24361	11.564	3.4545	0.1	3867.9
24362	11.656	3.5455	0.1	3643.5
24363	11.38	3.4545	0.1	4264.9
24364	11.472	3.5455	0.1	3972.2
24365	11.196	3.4545	0.1	4784.8
24366	11.288	3.5455	0.1	4402.5
24367	11.011	3.4545	0.1	5469.9
24368	11.104	3.5455	0.1	4978.
24369	10.827	3.4545	0.1	6356.7
24370	10.919	3.5455	0.1	5765.2
24371	10.643	3.4545	0.1	7390.9
24372	10.735	3.5455	0.1	6842.6
24373	10.551	3.5455	0.1	8224.
24374	10.459	3.4545	0.1	8302.9
24375	23.724	3.6364	0.1	200.06
24376	23.816	3.7273	0.1	190.23
24377	23.908	3.6364	0.1	186.09
24378	23.539	3.6364	0.1	219.6
24379	23.632	3.7273	0.1	207.5
24380	23.355	3.6364	0.1	242.87
24381	23.447	3.7273	0.1	229.1
24382	23.171	3.6364	0.1	268.93
24383	23.263	3.7273	0.1	253.95
24384	22.987	3.6364	0.1	297.09
24385	23.079	3.7273	0.1	281.21
24386	22.802	3.6364	0.1	326.88
24387	22.895	3.7273	0.1	310.32
24388	22.618	3.6364	0.1	357.95
24389	22.71	3.7273	0.1	340.87
24390	22.434	3.6364	0.1	390.06
24391	22.526	3.7273	0.1	372.58
24392	22.25	3.6364	0.1	423.06
24393	22.342	3.7273	0.1	405.25
24394	22.066	3.6364	0.1	456.82
24395	22.158	3.7273	0.1	438.73
24396	21.881	3.6364	0.1	491.24
24397	21.973	3.7273	0.1	472.92
24398	21.697	3.6364	0.1	526.26
24399	21.789	3.7273	0.1	507.74
24400	21.513	3.6364	0.1	561.81
24401	21.605	3.7273	0.1	543.12
24402	21.329	3.6364	0.1	597.87
24403	21.421	3.7273	0.1	579.02
24404	21.144	3.6364	0.1	634.38
24405	21.236	3.7273	0.1	615.39
24406	20.96	3.6364	0.1	671.32
24407	21.052	3.7273	0.1	652.2
24408	20.776	3.6364	0.1	708.66
24409	20.868	3.7273	0.1	689.42
24410	20.592	3.6364	0.1	746.37
24411	20.684	3.7273	0.1	727.02
24412	20.407	3.6364	0.1	784.44
24413	20.5	3.7273	0.1	764.98
24414	20.223	3.6364	0.1	822.84
24415	20.315	3.7273	0.1	803.29
24416	20.039	3.6364	0.1	861.56
24417	20.131	3.7273	0.1	841.91
24418	19.855	3.6364	0.1	900.59
24419	19.947	3.7273	0.1	880.84
24420	19.67	3.6364	0.1	939.89
24421	19.763	3.7273	0.1	920.07
24422	19.486	3.6364	0.1	979.47
24423	19.578	3.7273	0.1	959.56
24424	19.302	3.6364	0.1	1019.3
24425	19.394	3.7273	0.1	999.32
24426	19.118	3.6364	0.1	1059.4
24427	19.21	3.7273	0.1	1039.3
24428	18.934	3.6364	0.1	1099.7
24429	19.026	3.7273	0.1	1079.6
24430	18.749	3.6364	0.1	1140.2
24431	18.841	3.7273	0.1	1120.1
24432	18.565	3.6364	0.1	1181.
24433	18.657	3.7273	0.1	1160.7
24434	18.381	3.6364	0.1	1221.9
24435	18.473	3.7273	0.1	1201.6
24436	18.197	3.6364	0.1	1263.1
24437	18.289	3.7273	0.1	1242.7
24438	18.012	3.6364	0.1	1304.4
24439	18.105	3.7273	0.1	1284.
24440	17.828	3.6364	0.1	1345.8
24441	17.92	3.7273	0.1	1325.4
24442	17.644	3.6364	0.1	1387.5
24443	17.736	3.7273	0.1	1367.
24444	17.46	3.6364	0.1	1429.2
24445	17.552	3.7273	0.1	1408.7
24446	17.275	3.6364	0.1	1471.1
24447	17.368	3.7273	0.1	1450.6
24448	17.091	3.6364	0.1	1513.1
24449	17.183	3.7273	0.1	1492.6
24450	16.907	3.6364	0.1	1555.3
24451	16.999	3.7273	0.1	1534.8
24452	16.723	3.6364	0.1	1597.6
24453	16.815	3.7273	0.1	1577.
24454	16.539	3.6364	0.1	1639.9
24455	16.631	3.7273	0.1	1619.4
24456	16.354	3.6364	0.1	1682.4
24457	16.446	3.7273	0.1	1661.9
24458	16.17	3.6364	0.1	1725.
24459	16.262	3.7273	0.1	1704.5
24460	15.986	3.6364	0.1	1767.7
24461	16.078	3.7273	0.1	1747.2
24462	15.802	3.6364	0.1	1810.5
24463	15.894	3.7273	0.1	1790.
24464	15.617	3.6364	0.1	1853.5
24465	15.709	3.7273	0.1	1833.
24466	15.433	3.6364	0.1	1896.6
24467	15.525	3.7273	0.1	1876.1
24468	15.249	3.6364	0.1	1940.
24469	15.341	3.7273	0.1	1919.4
24470	15.065	3.6364	0.1	1983.7
24471	15.157	3.7273	0.1	1963.
24472	14.88	3.6364	0.1	2027.8
24473	14.973	3.7273	0.1	2006.9
24474	14.696	3.6364	0.1	2072.4
24475	14.788	3.7273	0.1	2051.3
24476	14.512	3.6364	0.1	2117.7
24477	14.604	3.7273	0.1	2096.2
24478	14.328	3.6364	0.1	2163.9
24479	14.42	3.7273	0.1	2141.8
24480	14.143	3.6364	0.1	2211.3
24481	14.236	3.7273	0.1	2188.4
24482	13.959	3.6364	0.1	2260.3
24483	14.051	3.7273	0.1	2236.3
24484	13.775	3.6364	0.1	2311.4
24485	13.867	3.7273	0.1	2285.9
24486	13.591	3.6364	0.1	2365.2
24487	13.683	3.7273	0.1	2337.6
24488	13.407	3.6364	0.1	2422.6
24489	13.499	3.7273	0.1	2392.3
24490	13.222	3.6364	0.1	2484.8
24491	13.314	3.7273	0.1	2450.7
24492	13.038	3.6364	0.1	2553.1
24493	13.13	3.7273	0.1	2514.
24494	12.854	3.6364	0.1	2629.5
24495	12.946	3.7273	0.1	2583.7
24496	12.67	3.6364	0.1	2716.4
24497	12.762	3.7273	0.1	2661.8
24498	12.485	3.6364	0.1	2817.
24499	12.577	3.7273	0.1	2750.6
24500	12.301	3.6364	0.1	2935.6
24501	12.393	3.7273	0.1	2853.7
24502	12.117	3.6364	0.1	3078.2
24503	12.209	3.7273	0.1	2975.6
24504	11.933	3.6364	0.1	3252.7
24505	12.025	3.7273	0.1	3122.4
24506	11.748	3.6364	0.1	3470.6
24507	11.841	3.7273	0.1	3302.8
24508	11.564	3.6364	0.1	3748.3
24509	11.656	3.7273	0.1	3529.5
24510	11.38	3.6364	0.1	4111.3
24511	11.472	3.7273	0.1	3821.3
24512	11.196	3.6364	0.1	4599.7
24513	11.288	3.7273	0.1	4208.3
24514	11.011	3.6364	0.1	5283.2
24515	11.104	3.7273	0.1	4742.1
24516	10.827	3.6364	0.1	6271.9
24517	10.919	3.7273	0.1	5512.5
24518	10.643	3.6364	0.1	7698.7
24519	10.735	3.7273	0.1	6726.1
24520	10.551	3.7273	0.1	8731.7
24521	10.459	3.6364	0.1	9174.
24522	23.724	3.8182	0.1	196.49
24523	23.816	3.9091	0.1	186.13
24524	23.908	3.8182	0.1	182.39
24525	23.539	3.8182	0.1	216.15
24526	23.632	3.9091	0.1	203.51
24527	23.355	3.8182	0.1	239.58
24528	23.447	3.9091	0.1	225.28
24529	23.171	3.8182	0.1	265.81
24530	23.263	3.9091	0.1	250.32
24531	22.987	3.8182	0.1	294.15
24532	23.079	3.9091	0.1	277.79
24533	22.802	3.8182	0.1	324.12
24534	22.895	3.9091	0.1	307.1
24535	22.618	3.8182	0.1	355.37
24536	22.71	3.9091	0.1	337.86
24537	22.434	3.8182	0.1	387.68
24538	22.526	3.9091	0.1	369.79
24539	22.25	3.8182	0.1	420.86
24540	22.342	3.9091	0.1	402.67
24541	22.066	3.8182	0.1	454.8
24542	22.158	3.9091	0.1	436.37
24543	21.881	3.8182	0.1	489.41
24544	21.973	3.9091	0.1	470.77
24545	21.697	3.8182	0.1	524.61
24546	21.789	3.9091	0.1	505.8
24547	21.513	3.8182	0.1	560.34
24548	21.605	3.9091	0.1	541.39
24549	21.329	3.8182	0.1	596.57
24550	21.421	3.9091	0.1	577.48
24551	21.144	3.8182	0.1	633.24
24552	21.236	3.9091	0.1	614.04
24553	20.96	3.8182	0.1	670.33
24554	21.052	3.9091	0.1	651.03
24555	20.776	3.8182	0.1	707.82
24556	20.868	3.9091	0.1	688.42
24557	20.592	3.8182	0.1	745.67
24558	20.684	3.9091	0.1	726.18
24559	20.407	3.8182	0.1	783.87
24560	20.5	3.9091	0.1	764.29
24561	20.223	3.8182	0.1	822.4
24562	20.315	3.9091	0.1	802.74
24563	20.039	3.8182	0.1	861.24
24564	20.131	3.9091	0.1	841.5
24565	19.855	3.8182	0.1	900.37
24566	19.947	3.9091	0.1	880.55
24567	19.67	3.8182	0.1	939.78
24568	19.763	3.9091	0.1	919.89
24569	19.486	3.8182	0.1	979.46
24570	19.578	3.9091	0.1	959.5
24571	19.302	3.8182	0.1	1019.4
24572	19.394	3.9091	0.1	999.37
24573	19.118	3.8182	0.1	1059.6
24574	19.21	3.9091	0.1	1039.5
24575	18.934	3.8182	0.1	1100.
24576	19.026	3.9091	0.1	1079.8
24577	18.749	3.8182	0.1	1140.6
24578	18.841	3.9091	0.1	1120.4
24579	18.565	3.8182	0.1	1181.4
24580	18.657	3.9091	0.1	1161.2
24581	18.381	3.8182	0.1	1222.4
24582	18.473	3.9091	0.1	1202.2
24583	18.197	3.8182	0.1	1263.7
24584	18.289	3.9091	0.1	1243.3
24585	18.012	3.8182	0.1	1305.
24586	18.105	3.9091	0.1	1284.7
24587	17.828	3.8182	0.1	1346.6
24588	17.92	3.9091	0.1	1326.2
24589	17.644	3.8182	0.1	1388.3
24590	17.736	3.9091	0.1	1367.9
24591	17.46	3.8182	0.1	1430.2
24592	17.552	3.9091	0.1	1409.7
24593	17.275	3.8182	0.1	1472.2
24594	17.368	3.9091	0.1	1451.7
24595	17.091	3.8182	0.1	1514.3
24596	17.183	3.9091	0.1	1493.9
24597	16.907	3.8182	0.1	1556.6
24598	16.999	3.9091	0.1	1536.1
24599	16.723	3.8182	0.1	1598.9
24600	16.815	3.9091	0.1	1578.5
24601	16.539	3.8182	0.1	1641.4
24602	16.631	3.9091	0.1	1621.
24603	16.354	3.8182	0.1	1684.
24604	16.446	3.9091	0.1	1663.6
24605	16.17	3.8182	0.1	1726.7
24606	16.262	3.9091	0.1	1706.4
24607	15.986	3.8182	0.1	1769.6
24608	16.078	3.9091	0.1	1749.2
24609	15.802	3.8182	0.1	1812.5
24610	15.894	3.9091	0.1	1792.2
24611	15.617	3.8182	0.1	1855.6
24612	15.709	3.9091	0.1	1835.3
24613	15.433	3.8182	0.1	1898.9
24614	15.525	3.9091	0.1	1878.6
24615	15.249	3.8182	0.1	1942.5
24616	15.341	3.9091	0.1	1922.1
24617	15.065	3.8182	0.1	1986.3
24618	15.157	3.9091	0.1	1965.8
24619	14.88	3.8182	0.1	2030.4
24620	14.973	3.9091	0.1	2009.8
24621	14.696	3.8182	0.1	2075.1
24622	14.788	3.9091	0.1	2054.2
24623	14.512	3.8182	0.1	2120.3
24624	14.604	3.9091	0.1	2099.1
24625	14.328	3.8182	0.1	2166.3
24626	14.42	3.9091	0.1	2144.6
24627	14.143	3.8182	0.1	2213.4
24628	14.236	3.9091	0.1	2191.
24629	13.959	3.8182	0.1	2261.9
24630	14.051	3.9091	0.1	2238.4
24631	13.775	3.8182	0.1	2312.1
24632	13.867	3.9091	0.1	2287.3
24633	13.591	3.8182	0.1	2364.7
24634	13.683	3.9091	0.1	2337.9
24635	13.407	3.8182	0.1	2420.4
24636	13.499	3.9091	0.1	2391.
24637	13.222	3.8182	0.1	2479.9
24638	13.314	3.9091	0.1	2447.1
24639	13.038	3.8182	0.1	2544.6
24640	13.13	3.9091	0.1	2507.1
24641	12.854	3.8182	0.1	2616.
24642	12.946	3.9091	0.1	2572.3
24643	12.67	3.8182	0.1	2696.
24644	12.762	3.9091	0.1	2644.2
24645	12.485	3.8182	0.1	2787.4
24646	12.577	3.9091	0.1	2724.7
24647	12.301	3.8182	0.1	2893.6
24648	12.393	3.9091	0.1	2816.5
24649	12.117	3.8182	0.1	3019.6
24650	12.209	3.9091	0.1	2923.4
24651	11.933	3.8182	0.1	3172.1
24652	12.025	3.9091	0.1	3050.2
24653	11.748	3.8182	0.1	3361.2
24654	11.841	3.9091	0.1	3204.5
24655	11.564	3.8182	0.1	3601.8
24656	11.656	3.9091	0.1	3396.9
24657	11.38	3.8182	0.1	3917.8
24658	11.472	3.9091	0.1	3644.6
24659	11.196	3.8182	0.1	4351.3
24660	11.288	3.9091	0.1	3974.6
24661	11.011	3.8182	0.1	4976.8
24662	11.104	3.9091	0.1	4439.
24663	10.827	3.8182	0.1	5988.6
24664	10.919	3.9091	0.1	5127.3
24665	10.643	3.8182	0.1	7818.1
24666	10.735	3.9091	0.1	6308.3
24667	10.551	3.9091	0.1	8895.3
24668	10.459	3.8182	0.1	10584
24669	23.724	4.	0.1	191.96
24670	23.816	4.0909	0.1	181.04
24671	23.908	4.	0.1	177.69
24672	23.539	4.	0.1	211.79
24673	23.632	4.0909	0.1	198.56
24674	23.355	4.	0.1	235.43
24675	23.447	4.0909	0.1	220.55
24676	23.171	4.	0.1	261.89
24677	23.263	4.0909	0.1	245.84
24678	22.987	4.	0.1	290.46
24679	23.079	4.0909	0.1	273.57
24680	22.802	4.	0.1	320.66
24681	22.895	4.0909	0.1	303.16
24682	22.618	4.	0.1	352.16
24683	22.71	4.0909	0.1	334.19
24684	22.434	4.	0.1	384.71
24685	22.526	4.0909	0.1	366.39
24686	22.25	4.	0.1	418.13
24687	22.342	4.0909	0.1	399.55
24688	22.066	4.	0.1	452.32
24689	22.158	4.0909	0.1	433.52
24690	21.881	4.	0.1	487.16
24691	21.973	4.0909	0.1	468.2
24692	21.697	4.	0.1	522.59
24693	21.789	4.0909	0.1	503.49
24694	21.513	4.	0.1	558.55
24695	21.605	4.0909	0.1	539.33
24696	21.329	4.	0.1	594.99
24697	21.421	4.0909	0.1	575.67
24698	21.144	4.	0.1	631.87
24699	21.236	4.0909	0.1	612.46
24700	20.96	4.	0.1	669.15
24701	21.052	4.0909	0.1	649.66
24702	20.776	4.	0.1	706.82
24703	20.868	4.0909	0.1	687.25
24704	20.592	4.	0.1	744.84
24705	20.684	4.0909	0.1	725.2
24706	20.407	4.	0.1	783.2
24707	20.5	4.0909	0.1	763.5
24708	20.223	4.	0.1	821.88
24709	20.315	4.0909	0.1	802.11
24710	20.039	4.	0.1	860.86
24711	20.131	4.0909	0.1	841.03
24712	19.855	4.	0.1	900.12
24713	19.947	4.0909	0.1	880.24
24714	19.67	4.	0.1	939.66
24715	19.763	4.0909	0.1	919.72
24716	19.486	4.	0.1	979.46
24717	19.578	4.0909	0.1	959.46
24718	19.302	4.	0.1	1019.5
24719	19.394	4.0909	0.1	999.46
24720	19.118	4.	0.1	1059.8
24721	19.21	4.0909	0.1	1039.7
24722	18.934	4.	0.1	1100.3
24723	19.026	4.0909	0.1	1080.2
24724	18.749	4.	0.1	1141.
24725	18.841	4.0909	0.1	1120.8
24726	18.565	4.	0.1	1182.
24727	18.657	4.0909	0.1	1161.7
24728	18.381	4.	0.1	1223.1
24729	18.473	4.0909	0.1	1202.8
24730	18.197	4.	0.1	1264.4
24731	18.289	4.0909	0.1	1244.1
24732	18.012	4.	0.1	1305.9
24733	18.105	4.0909	0.1	1285.6
24734	17.828	4.	0.1	1347.6
24735	17.92	4.0909	0.1	1327.2
24736	17.644	4.	0.1	1389.4
24737	17.736	4.0909	0.1	1369.
24738	17.46	4.	0.1	1431.4
24739	17.552	4.0909	0.1	1411.
24740	17.275	4.	0.1	1473.5
24741	17.368	4.0909	0.1	1453.1
24742	17.091	4.	0.1	1515.7
24743	17.183	4.0909	0.1	1495.3
24744	16.907	4.	0.1	1558.1
24745	16.999	4.0909	0.1	1537.7
24746	16.723	4.	0.1	1600.6
24747	16.815	4.0909	0.1	1580.3
24748	16.539	4.	0.1	1643.2
24749	16.631	4.0909	0.1	1622.9
24750	16.354	4.	0.1	1686.
24751	16.446	4.0909	0.1	1665.7
24752	16.17	4.	0.1	1728.9
24753	16.262	4.0909	0.1	1708.6
24754	15.986	4.	0.1	1771.9
24755	16.078	4.0909	0.1	1751.6
24756	15.802	4.	0.1	1815.
24757	15.894	4.0909	0.1	1794.8
24758	15.617	4.	0.1	1858.3
24759	15.709	4.0909	0.1	1838.
24760	15.433	4.	0.1	1901.7
24761	15.525	4.0909	0.1	1881.5
24762	15.249	4.	0.1	1945.4
24763	15.341	4.0909	0.1	1925.1
24764	15.065	4.	0.1	1989.3
24765	15.157	4.0909	0.1	1969.
24766	14.88	4.	0.1	2033.6
24767	14.973	4.0909	0.1	2013.1
24768	14.696	4.	0.1	2078.2
24769	14.788	4.0909	0.1	2057.6
24770	14.512	4.	0.1	2123.4
24771	14.604	4.0909	0.1	2102.5
24772	14.328	4.	0.1	2169.2
24773	14.42	4.0909	0.1	2147.8
24774	14.143	4.	0.1	2216.
24775	14.236	4.0909	0.1	2193.9
24776	13.959	4.	0.1	2263.8
24777	14.051	4.0909	0.1	2240.8
24778	13.775	4.	0.1	2313.1
24779	13.867	4.0909	0.1	2288.9
24780	13.591	4.	0.1	2364.2
24781	13.683	4.0909	0.1	2338.3
24782	13.407	4.	0.1	2417.7
24783	13.499	4.0909	0.1	2389.5
24784	13.222	4.	0.1	2474.3
24785	13.314	4.0909	0.1	2443.
24786	13.038	4.	0.1	2534.9
24787	13.13	4.0909	0.1	2499.4
24788	12.854	4.	0.1	2600.5
24789	12.946	4.0909	0.1	2559.6
24790	12.67	4.	0.1	2672.8
24791	12.762	4.0909	0.1	2624.6
24792	12.485	4.	0.1	2753.8
24793	12.577	4.0909	0.1	2695.9
24794	12.301	4.	0.1	2846.1
24795	12.393	4.0909	0.1	2775.5
24796	12.117	4.	0.1	2953.7
24797	12.209	4.0909	0.1	2866.
24798	11.933	4.	0.1	3081.9
24799	12.025	4.0909	0.1	2971.4
24800	11.748	4.	0.1	3239.1
24801	11.841	4.0909	0.1	3097.5
24802	11.564	4.	0.1	3437.9
24803	11.656	4.0909	0.1	3253.
24804	11.38	4.	0.1	3698.9
24805	11.472	4.0909	0.1	3452.1
24806	11.196	4.	0.1	4059.4
24807	11.288	4.0909	0.1	3717.8
24808	11.011	4.	0.1	4588.2
24809	11.104	4.0909	0.1	4093.6
24810	10.827	4.	0.1	5456.7
24811	10.919	4.0909	0.1	4657.1
24812	10.643	4.	0.1	7491.3
24813	10.735	4.0909	0.1	5642.3
24814	10.551	4.0909	0.1	8122.1
24815	10.459	4.	0.1	13217
24816	23.724	4.1818	0.1	186.44
24817	23.816	4.2727	0.1	174.9
24818	23.908	4.1818	0.1	171.96
24819	23.539	4.1818	0.1	206.48
24820	23.632	4.2727	0.1	192.6
24821	23.355	4.1818	0.1	230.38
24822	23.447	4.2727	0.1	214.87
24823	23.171	4.1818	0.1	257.13
24824	23.263	4.2727	0.1	240.48
24825	22.987	4.1818	0.1	286.
24826	23.079	4.2727	0.1	268.54
24827	22.802	4.1818	0.1	316.51
24828	22.895	4.2727	0.1	298.47
24829	22.618	4.1818	0.1	348.31
24830	22.71	4.2727	0.1	329.86
24831	22.434	4.1818	0.1	381.17
24832	22.526	4.2727	0.1	362.41
24833	22.25	4.1818	0.1	414.91
24834	22.342	4.2727	0.1	395.91
24835	22.066	4.1818	0.1	449.4
24836	22.158	4.2727	0.1	430.23
24837	21.881	4.1818	0.1	484.53
24838	21.973	4.2727	0.1	465.23
24839	21.697	4.1818	0.1	520.25
24840	21.789	4.2727	0.1	500.84
24841	21.513	4.1818	0.1	556.47
24842	21.605	4.2727	0.1	536.99
24843	21.329	4.1818	0.1	593.17
24844	21.421	4.2727	0.1	573.61
24845	21.144	4.1818	0.1	630.29
24846	21.236	4.2727	0.1	610.67
24847	20.96	4.1818	0.1	667.8
24848	21.052	4.2727	0.1	648.13
24849	20.776	4.1818	0.1	705.68
24850	20.868	4.2727	0.1	685.96
24851	20.592	4.1818	0.1	743.91
24852	20.684	4.2727	0.1	724.13
24853	20.407	4.1818	0.1	782.46
24854	20.5	4.2727	0.1	762.63
24855	20.223	4.1818	0.1	821.31
24856	20.315	4.2727	0.1	801.44
24857	20.039	4.1818	0.1	860.46
24858	20.131	4.2727	0.1	840.54
24859	19.855	4.1818	0.1	899.88
24860	19.947	4.2727	0.1	879.92
24861	19.67	4.1818	0.1	939.56
24862	19.763	4.2727	0.1	919.56
24863	19.486	4.1818	0.1	979.5
24864	19.578	4.2727	0.1	959.46
24865	19.302	4.1818	0.1	1019.7
24866	19.394	4.2727	0.1	999.6
24867	19.118	4.1818	0.1	1060.1
24868	19.21	4.2727	0.1	1040.
24869	18.934	4.1818	0.1	1100.7
24870	19.026	4.2727	0.1	1080.6
24871	18.749	4.1818	0.1	1141.6
24872	18.841	4.2727	0.1	1121.4
24873	18.565	4.1818	0.1	1182.6
24874	18.657	4.2727	0.1	1162.4
24875	18.381	4.1818	0.1	1223.9
24876	18.473	4.2727	0.1	1203.6
24877	18.197	4.1818	0.1	1265.3
24878	18.289	4.2727	0.1	1245.
24879	18.012	4.1818	0.1	1306.9
24880	18.105	4.2727	0.1	1286.6
24881	17.828	4.1818	0.1	1348.7
24882	17.92	4.2727	0.1	1328.4
24883	17.644	4.1818	0.1	1390.7
24884	17.736	4.2727	0.1	1370.3
24885	17.46	4.1818	0.1	1432.8
24886	17.552	4.2727	0.1	1412.4
24887	17.275	4.1818	0.1	1475.
24888	17.368	4.2727	0.1	1454.7
24889	17.091	4.1818	0.1	1517.4
24890	17.183	4.2727	0.1	1497.1
24891	16.907	4.1818	0.1	1559.9
24892	16.999	4.2727	0.1	1539.6
24893	16.723	4.1818	0.1	1602.6
24894	16.815	4.2727	0.1	1582.3
24895	16.539	4.1818	0.1	1645.4
24896	16.631	4.2727	0.1	1625.1
24897	16.354	4.1818	0.1	1688.3
24898	16.446	4.2727	0.1	1668.1
24899	16.17	4.1818	0.1	1731.3
24900	16.262	4.2727	0.1	1711.1
24901	15.986	4.1818	0.1	1774.5
24902	16.078	4.2727	0.1	1754.3
24903	15.802	4.1818	0.1	1817.8
24904	15.894	4.2727	0.1	1797.7
24905	15.617	4.1818	0.1	1861.3
24906	15.709	4.2727	0.1	1841.2
24907	15.433	4.1818	0.1	1904.9
24908	15.525	4.2727	0.1	1884.8
24909	15.249	4.1818	0.1	1948.8
24910	15.341	4.2727	0.1	1928.6
24911	15.065	4.1818	0.1	1992.8
24912	15.157	4.2727	0.1	1972.6
24913	14.88	4.1818	0.1	2037.2
24914	14.973	4.2727	0.1	2016.9
24915	14.696	4.1818	0.1	2081.8
24916	14.788	4.2727	0.1	2061.4
24917	14.512	4.1818	0.1	2126.9
24918	14.604	4.2727	0.1	2106.2
24919	14.328	4.1818	0.1	2172.5
24920	14.42	4.2727	0.1	2151.4
24921	14.143	4.1818	0.1	2218.8
24922	14.236	4.2727	0.1	2197.2
24923	13.959	4.1818	0.1	2265.9
24924	14.051	4.2727	0.1	2243.5
24925	13.775	4.1818	0.1	2314.1
24926	13.867	4.2727	0.1	2290.6
24927	13.591	4.1818	0.1	2363.6
24928	13.683	4.2727	0.1	2338.7
24929	13.407	4.1818	0.1	2414.8
24930	13.499	4.2727	0.1	2387.9
24931	13.222	4.1818	0.1	2468.1
24932	13.314	4.2727	0.1	2438.5
24933	13.038	4.1818	0.1	2524.2
24934	13.13	4.2727	0.1	2491.
24935	12.854	4.1818	0.1	2583.7
24936	12.946	4.2727	0.1	2545.9
24937	12.67	4.1818	0.1	2647.7
24938	12.762	4.2727	0.1	2603.7
24939	12.485	4.1818	0.1	2717.5
24940	12.577	4.2727	0.1	2665.3
24941	12.301	4.1818	0.1	2795.1
24942	12.393	4.2727	0.1	2732.
24943	12.117	4.1818	0.1	2883.2
24944	12.209	4.2727	0.1	2805.5
24945	11.933	4.1818	0.1	2986.
24946	12.025	4.2727	0.1	2888.6
24947	11.748	4.1818	0.1	3109.7
24948	11.841	4.2727	0.1	2985.5
24949	11.564	4.1818	0.1	3264.5
24950	11.656	4.2727	0.1	3102.8
24951	11.38	4.1818	0.1	3466.9
24952	11.472	4.2727	0.1	3251.4
24953	11.196	4.1818	0.1	3746.1
24954	11.288	4.2727	0.1	3449.3
24955	11.011	4.1818	0.1	4154.9
24956	11.104	4.2727	0.1	3729.5
24957	10.827	4.1818	0.1	4840.9
24958	10.919	4.2727	0.1	4144.5
24959	10.643	4.1818	0.1	6284.6
24960	10.735	4.2727	0.1	4863.6
24961	10.551	4.2727	0.1	6417.9
24962	10.459	4.1818	0.1	6353.3
24963	23.724	4.3636	0.1	179.86
24964	23.816	4.4545	0.1	167.65
24965	23.908	4.3636	0.1	165.11
24966	23.539	4.3636	0.1	200.17
24967	23.632	4.4545	0.1	185.57
24968	23.355	4.3636	0.1	224.41
24969	23.447	4.4545	0.1	208.2
24970	23.171	4.3636	0.1	251.52
24971	23.263	4.4545	0.1	234.21
24972	22.987	4.3636	0.1	280.77
24973	23.079	4.4545	0.1	262.7
24974	22.802	4.3636	0.1	311.67
24975	22.895	4.4545	0.1	293.06
24976	22.618	4.3636	0.1	343.86
24977	22.71	4.4545	0.1	324.88
24978	22.434	4.3636	0.1	377.1
24979	22.526	4.4545	0.1	357.87
24980	22.25	4.3636	0.1	411.22
24981	22.342	4.4545	0.1	391.8
24982	22.066	4.3636	0.1	446.07
24983	22.158	4.4545	0.1	426.53
24984	21.881	4.3636	0.1	481.56
24985	21.973	4.4545	0.1	461.93
24986	21.697	4.3636	0.1	517.61
24987	21.789	4.4545	0.1	497.91
24988	21.513	4.3636	0.1	554.16
24989	21.605	4.4545	0.1	534.41
24990	21.329	4.3636	0.1	591.15
24991	21.421	4.4545	0.1	571.36
24992	21.144	4.3636	0.1	628.55
24993	21.236	4.4545	0.1	608.73
24994	20.96	4.3636	0.1	666.33
24995	21.052	4.4545	0.1	646.47
24996	20.776	4.3636	0.1	704.45
24997	20.868	4.4545	0.1	684.57
24998	20.592	4.3636	0.1	742.9
24999	20.684	4.4545	0.1	723.
25000	20.407	4.3636	0.1	781.67
25001	20.5	4.4545	0.1	761.73
25002	20.223	4.3636	0.1	820.72
25003	20.315	4.4545	0.1	800.76
25004	20.039	4.3636	0.1	860.05
25005	20.131	4.4545	0.1	840.06
25006	19.855	4.3636	0.1	899.65
25007	19.947	4.4545	0.1	879.63
25008	19.67	4.3636	0.1	939.5
25009	19.763	4.4545	0.1	919.45
25010	19.486	4.3636	0.1	979.6
25011	19.578	4.4545	0.1	959.51
25012	19.302	4.3636	0.1	1019.9
25013	19.394	4.4545	0.1	999.81
25014	19.118	4.3636	0.1	1060.5
25015	19.21	4.4545	0.1	1040.3
25016	18.934	4.3636	0.1	1101.3
25017	19.026	4.4545	0.1	1081.1
25018	18.749	4.3636	0.1	1142.2
25019	18.841	4.4545	0.1	1122.
25020	18.565	4.3636	0.1	1183.4
25021	18.657	4.4545	0.1	1163.2
25022	18.381	4.3636	0.1	1224.8
25023	18.473	4.4545	0.1	1204.6
25024	18.197	4.3636	0.1	1266.4
25025	18.289	4.4545	0.1	1246.1
25026	18.012	4.3636	0.1	1308.1
25027	18.105	4.4545	0.1	1287.8
25028	17.828	4.3636	0.1	1350.
25029	17.92	4.4545	0.1	1329.7
25030	17.644	4.3636	0.1	1392.1
25031	17.736	4.4545	0.1	1371.8
25032	17.46	4.3636	0.1	1434.4
25033	17.552	4.4545	0.1	1414.1
25034	17.275	4.3636	0.1	1476.8
25035	17.368	4.4545	0.1	1456.5
25036	17.091	4.3636	0.1	1519.3
25037	17.183	4.4545	0.1	1499.
25038	16.907	4.3636	0.1	1562.
25039	16.999	4.4545	0.1	1541.7
25040	16.723	4.3636	0.1	1604.8
25041	16.815	4.4545	0.1	1584.6
25042	16.539	4.3636	0.1	1647.8
25043	16.631	4.4545	0.1	1627.6
25044	16.354	4.3636	0.1	1690.9
25045	16.446	4.4545	0.1	1670.7
25046	16.17	4.3636	0.1	1734.1
25047	16.262	4.4545	0.1	1714.
25048	15.986	4.3636	0.1	1777.5
25049	16.078	4.4545	0.1	1757.4
25050	15.802	4.3636	0.1	1821.
25051	15.894	4.4545	0.1	1800.9
25052	15.617	4.3636	0.1	1864.7
25053	15.709	4.4545	0.1	1844.6
25054	15.433	4.3636	0.1	1908.5
25055	15.525	4.4545	0.1	1888.4
25056	15.249	4.3636	0.1	1952.5
25057	15.341	4.4545	0.1	1932.4
25058	15.065	4.3636	0.1	1996.7
25059	15.157	4.4545	0.1	1976.6
25060	14.88	4.3636	0.1	2041.1
25061	14.973	4.4545	0.1	2020.9
25062	14.696	4.3636	0.1	2085.8
25063	14.788	4.4545	0.1	2065.5
25064	14.512	4.3636	0.1	2130.8
25065	14.604	4.4545	0.1	2110.3
25066	14.328	4.3636	0.1	2176.1
25067	14.42	4.4545	0.1	2155.3
25068	14.143	4.3636	0.1	2221.9
25069	14.236	4.4545	0.1	2200.6
25070	13.959	4.3636	0.1	2268.2
25071	14.051	4.4545	0.1	2246.3
25072	13.775	4.3636	0.1	2315.2
25073	13.867	4.4545	0.1	2292.4
25074	13.591	4.3636	0.1	2362.9
25075	13.683	4.4545	0.1	2339.
25076	13.407	4.3636	0.1	2411.6
25077	13.499	4.4545	0.1	2386.1
25078	13.222	4.3636	0.1	2461.5
25079	13.314	4.4545	0.1	2433.8
25080	13.038	4.3636	0.1	2512.8
25081	13.13	4.4545	0.1	2482.2
25082	12.854	4.3636	0.1	2565.9
25083	12.946	4.4545	0.1	2531.5
25084	12.67	4.3636	0.1	2621.3
25085	12.762	4.4545	0.1	2581.9
25086	12.485	4.3636	0.1	2679.6
25087	12.577	4.4545	0.1	2633.6
25088	12.301	4.3636	0.1	2742.1
25089	12.393	4.4545	0.1	2687.2
25090	12.117	4.3636	0.1	2810.3
25091	12.209	4.4545	0.1	2743.6
25092	11.933	4.3636	0.1	2887.
25093	12.025	4.4545	0.1	2804.1
25094	11.748	4.3636	0.1	2976.5
25095	11.841	4.4545	0.1	2871.4
25096	11.564	4.3636	0.1	3086.2
25097	11.656	4.4545	0.1	2949.8
25098	11.38	4.3636	0.1	3228.1
25099	11.472	4.4545	0.1	3047.
25100	11.196	4.3636	0.1	3423.4
25101	11.288	4.4545	0.1	3175.5
25102	11.011	4.3636	0.1	3704.1
25103	11.104	4.4545	0.1	3357.3
25104	10.827	4.3636	0.1	4135.1
25105	10.919	4.4545	0.1	3624.3
25106	10.643	4.3636	0.1	4878.4
25107	10.735	4.4545	0.1	4036.
25108	10.551	4.4545	0.1	4852.2
25109	10.459	4.3636	0.1	4405.4
25110	23.724	4.5455	0.1	172.14
25111	23.816	4.6364	0.1	159.18
25112	23.908	4.5455	0.1	157.07
25113	23.539	4.5455	0.1	192.79
25114	23.632	4.6364	0.1	177.39
25115	23.355	4.5455	0.1	217.46
25116	23.447	4.6364	0.1	200.47
25117	23.171	4.5455	0.1	245.04
25118	23.263	4.6364	0.1	226.99
25119	22.987	4.5455	0.1	274.77
25120	23.079	4.6364	0.1	256.02
25121	22.802	4.5455	0.1	306.15
25122	22.895	4.6364	0.1	286.94
25123	22.618	4.5455	0.1	338.83
25124	22.71	4.6364	0.1	319.31
25125	22.434	4.5455	0.1	372.55
25126	22.526	4.6364	0.1	352.83
25127	22.25	4.5455	0.1	407.12
25128	22.342	4.6364	0.1	387.28
25129	22.066	4.5455	0.1	442.41
25130	22.158	4.6364	0.1	422.5
25131	21.881	4.5455	0.1	478.31
25132	21.973	4.6364	0.1	458.36
25133	21.697	4.5455	0.1	514.75
25134	21.789	4.6364	0.1	494.77
25135	21.513	4.5455	0.1	551.66
25136	21.605	4.6364	0.1	531.67
25137	21.329	4.5455	0.1	588.99
25138	21.421	4.6364	0.1	568.99
25139	21.144	4.5455	0.1	626.71
25140	21.236	4.6364	0.1	606.7
25141	20.96	4.5455	0.1	664.77
25142	21.052	4.6364	0.1	644.76
25143	20.776	4.5455	0.1	703.17
25144	20.868	4.6364	0.1	683.15
25145	20.592	4.5455	0.1	741.88
25146	20.684	4.6364	0.1	721.85
25147	20.407	4.5455	0.1	780.87
25148	20.5	4.6364	0.1	760.84
25149	20.223	4.5455	0.1	820.15
25150	20.315	4.6364	0.1	800.1
25151	20.039	4.5455	0.1	859.68
25152	20.131	4.6364	0.1	839.62
25153	19.855	4.5455	0.1	899.47
25154	19.947	4.6364	0.1	879.39
25155	19.67	4.5455	0.1	939.51
25156	19.763	4.6364	0.1	919.4
25157	19.486	4.5455	0.1	979.78
25158	19.578	4.6364	0.1	959.65
25159	19.302	4.5455	0.1	1020.3
25160	19.394	4.6364	0.1	1000.1
25161	19.118	4.5455	0.1	1061.
25162	19.21	4.6364	0.1	1040.8
25163	18.934	4.5455	0.1	1101.9
25164	19.026	4.6364	0.1	1081.7
25165	18.749	4.5455	0.1	1143.
25166	18.841	4.6364	0.1	1122.8
25167	18.565	4.5455	0.1	1184.4
25168	18.657	4.6364	0.1	1164.1
25169	18.381	4.5455	0.1	1225.9
25170	18.473	4.6364	0.1	1205.7
25171	18.197	4.5455	0.1	1267.6
25172	18.289	4.6364	0.1	1247.3
25173	18.012	4.5455	0.1	1309.5
25174	18.105	4.6364	0.1	1289.2
25175	17.828	4.5455	0.1	1351.6
25176	17.92	4.6364	0.1	1331.3
25177	17.644	4.5455	0.1	1393.8
25178	17.736	4.6364	0.1	1373.5
25179	17.46	4.5455	0.1	1436.2
25180	17.552	4.6364	0.1	1415.9
25181	17.275	4.5455	0.1	1478.8
25182	17.368	4.6364	0.1	1458.5
25183	17.091	4.5455	0.1	1521.5
25184	17.183	4.6364	0.1	1501.2
25185	16.907	4.5455	0.1	1564.3
25186	16.999	4.6364	0.1	1544.1
25187	16.723	4.5455	0.1	1607.4
25188	16.815	4.6364	0.1	1587.1
25189	16.539	4.5455	0.1	1650.5
25190	16.631	4.6364	0.1	1630.3
25191	16.354	4.5455	0.1	1693.8
25192	16.446	4.6364	0.1	1673.6
25193	16.17	4.5455	0.1	1737.2
25194	16.262	4.6364	0.1	1717.1
25195	15.986	4.5455	0.1	1780.8
25196	16.078	4.6364	0.1	1760.7
25197	15.802	4.5455	0.1	1824.5
25198	15.894	4.6364	0.1	1804.5
25199	15.617	4.5455	0.1	1868.4
25200	15.709	4.6364	0.1	1848.3
25201	15.433	4.5455	0.1	1912.4
25202	15.525	4.6364	0.1	1892.4
25203	15.249	4.5455	0.1	1956.5
25204	15.341	4.6364	0.1	1936.5
25205	15.065	4.5455	0.1	2000.9
25206	15.157	4.6364	0.1	1980.8
25207	14.88	4.5455	0.1	2045.3
25208	14.973	4.6364	0.1	2025.2
25209	14.696	4.5455	0.1	2090.
25210	14.788	4.6364	0.1	2069.8
25211	14.512	4.5455	0.1	2134.8
25212	14.604	4.6364	0.1	2114.5
25213	14.328	4.5455	0.1	2179.9
25214	14.42	4.6364	0.1	2159.3
25215	14.143	4.5455	0.1	2225.1
25216	14.236	4.6364	0.1	2204.2
25217	13.959	4.5455	0.1	2270.6
25218	14.051	4.6364	0.1	2249.2
25219	13.775	4.5455	0.1	2316.3
25220	13.867	4.6364	0.1	2294.3
25221	13.591	4.5455	0.1	2362.2
25222	13.683	4.6364	0.1	2339.3
25223	13.407	4.5455	0.1	2408.3
25224	13.499	4.6364	0.1	2384.2
25225	13.222	4.5455	0.1	2454.6
25226	13.314	4.6364	0.1	2428.9
25227	13.038	4.5455	0.1	2501.
25228	13.13	4.6364	0.1	2473.2
25229	12.854	4.5455	0.1	2547.6
25230	12.946	4.6364	0.1	2516.9
25231	12.67	4.5455	0.1	2594.2
25232	12.762	4.6364	0.1	2559.8
25233	12.485	4.5455	0.1	2641.1
25234	12.577	4.6364	0.1	2601.7
25235	12.301	4.5455	0.1	2688.3
25236	12.393	4.6364	0.1	2642.2
25237	12.117	4.5455	0.1	2736.6
25238	12.209	4.6364	0.1	2681.5
25239	11.933	4.5455	0.1	2787.1
25240	12.025	4.6364	0.1	2719.6
25241	11.748	4.5455	0.1	2842.2
25242	11.841	4.6364	0.1	2757.5
25243	11.564	4.5455	0.1	2906.3
25244	11.656	4.6364	0.1	2797.3
25245	11.38	4.5455	0.1	2987.
25246	11.472	4.6364	0.1	2843.2
25247	11.196	4.5455	0.1	3096.5
25248	11.288	4.6364	0.1	2902.9
25249	11.011	4.5455	0.1	3254.
25250	11.104	4.6364	0.1	2988.9
25251	10.827	4.5455	0.1	3479.7
25252	10.919	4.6364	0.1	3120.5
25253	10.643	4.5455	0.1	3877.6
25254	10.735	4.6364	0.1	3321.3
25255	10.551	4.6364	0.1	3769.1
25256	10.459	4.5455	0.1	3419.5
25257	23.724	4.7273	0.1	163.2
25258	23.816	4.8182	0.1	149.37
25259	23.908	4.7273	0.1	147.73
25260	23.539	4.7273	0.1	184.28
25261	23.632	4.8182	0.1	167.96
25262	23.355	4.7273	0.1	209.5
25263	23.447	4.8182	0.1	191.62
25264	23.171	4.7273	0.1	237.67
25265	23.263	4.8182	0.1	218.81
25266	22.987	4.7273	0.1	268.01
25267	23.079	4.8182	0.1	248.54
25268	22.802	4.7273	0.1	300.01
25269	22.895	4.8182	0.1	280.16
25270	22.618	4.7273	0.1	333.28
25271	22.71	4.8182	0.1	313.21
25272	22.434	4.7273	0.1	367.57
25273	22.526	4.8182	0.1	347.39
25274	22.25	4.7273	0.1	402.69
25275	22.342	4.8182	0.1	382.45
25276	22.066	4.7273	0.1	438.49
25277	22.158	4.8182	0.1	418.23
25278	21.881	4.7273	0.1	474.86
25279	21.973	4.8182	0.1	454.61
25280	21.697	4.7273	0.1	511.74
25281	21.789	4.8182	0.1	491.51
25282	21.513	4.7273	0.1	549.05
25283	21.605	4.8182	0.1	528.84
25284	21.329	4.7273	0.1	586.76
25285	21.421	4.8182	0.1	566.57
25286	21.144	4.7273	0.1	624.82
25287	21.236	4.8182	0.1	604.65
25288	20.96	4.7273	0.1	663.2
25289	21.052	4.8182	0.1	643.06
25290	20.776	4.7273	0.1	701.9
25291	20.868	4.8182	0.1	681.76
25292	20.592	4.7273	0.1	740.87
25293	20.684	4.8182	0.1	720.75
25294	20.407	4.7273	0.1	780.12
25295	20.5	4.8182	0.1	760.
25296	20.223	4.7273	0.1	819.63
25297	20.315	4.8182	0.1	799.51
25298	20.039	4.7273	0.1	859.38
25299	20.131	4.8182	0.1	839.26
25300	19.855	4.7273	0.1	899.38
25301	19.947	4.8182	0.1	879.25
25302	19.67	4.7273	0.1	939.6
25303	19.763	4.8182	0.1	919.47
25304	19.486	4.7273	0.1	980.06
25305	19.578	4.8182	0.1	959.91
25306	19.302	4.7273	0.1	1020.7
25307	19.394	4.8182	0.1	1000.6
25308	19.118	4.7273	0.1	1061.6
25309	19.21	4.8182	0.1	1041.4
25310	18.934	4.7273	0.1	1102.7
25311	19.026	4.8182	0.1	1082.5
25312	18.749	4.7273	0.1	1144.
25313	18.841	4.8182	0.1	1123.8
25314	18.565	4.7273	0.1	1185.5
25315	18.657	4.8182	0.1	1165.2
25316	18.381	4.7273	0.1	1227.1
25317	18.473	4.8182	0.1	1206.9
25318	18.197	4.7273	0.1	1269.
25319	18.289	4.8182	0.1	1248.8
25320	18.012	4.7273	0.1	1311.1
25321	18.105	4.8182	0.1	1290.8
25322	17.828	4.7273	0.1	1353.3
25323	17.92	4.8182	0.1	1333.
25324	17.644	4.7273	0.1	1395.7
25325	17.736	4.8182	0.1	1375.4
25326	17.46	4.7273	0.1	1438.2
25327	17.552	4.8182	0.1	1418.
25328	17.275	4.7273	0.1	1481.
25329	17.368	4.8182	0.1	1460.7
25330	17.091	4.7273	0.1	1523.9
25331	17.183	4.8182	0.1	1503.6
25332	16.907	4.7273	0.1	1566.9
25333	16.999	4.8182	0.1	1546.7
25334	16.723	4.7273	0.1	1610.1
25335	16.815	4.8182	0.1	1589.9
25336	16.539	4.7273	0.1	1653.5
25337	16.631	4.8182	0.1	1633.3
25338	16.354	4.7273	0.1	1697.
25339	16.446	4.8182	0.1	1676.8
25340	16.17	4.7273	0.1	1740.6
25341	16.262	4.8182	0.1	1720.5
25342	15.986	4.7273	0.1	1784.4
25343	16.078	4.8182	0.1	1764.3
25344	15.802	4.7273	0.1	1828.3
25345	15.894	4.8182	0.1	1808.2
25346	15.617	4.7273	0.1	1872.3
25347	15.709	4.8182	0.1	1852.3
25348	15.433	4.7273	0.1	1916.5
25349	15.525	4.8182	0.1	1896.5
25350	15.249	4.7273	0.1	1960.8
25351	15.341	4.8182	0.1	1940.8
25352	15.065	4.7273	0.1	2005.2
25353	15.157	4.8182	0.1	1985.2
25354	14.88	4.7273	0.1	2049.8
25355	14.973	4.8182	0.1	2029.7
25356	14.696	4.7273	0.1	2094.4
25357	14.788	4.8182	0.1	2074.3
25358	14.512	4.7273	0.1	2139.
25359	14.604	4.8182	0.1	2118.9
25360	14.328	4.7273	0.1	2183.7
25361	14.42	4.8182	0.1	2163.4
25362	14.143	4.7273	0.1	2228.4
25363	14.236	4.8182	0.1	2207.8
25364	13.959	4.7273	0.1	2272.9
25365	14.051	4.8182	0.1	2252.1
25366	13.775	4.7273	0.1	2317.3
25367	13.867	4.8182	0.1	2296.
25368	13.591	4.7273	0.1	2361.3
25369	13.683	4.8182	0.1	2339.4
25370	13.407	4.7273	0.1	2404.8
25371	13.499	4.8182	0.1	2382.1
25372	13.222	4.7273	0.1	2447.5
25373	13.314	4.8182	0.1	2423.7
25374	13.038	4.7273	0.1	2489.
25375	13.13	4.8182	0.1	2463.9
25376	12.854	4.7273	0.1	2529.1
25377	12.946	4.8182	0.1	2502.1
25378	12.67	4.7273	0.1	2567.1
25379	12.762	4.8182	0.1	2537.7
25380	12.485	4.7273	0.1	2602.6
25381	12.577	4.8182	0.1	2570.
25382	12.301	4.7273	0.1	2635.
25383	12.393	4.8182	0.1	2597.9
25384	12.117	4.7273	0.1	2663.7
25385	12.209	4.8182	0.1	2620.6
25386	11.933	4.7273	0.1	2688.5
25387	12.025	4.8182	0.1	2637.1
25388	11.748	4.7273	0.1	2709.8
25389	11.841	4.8182	0.1	2646.6
25390	11.564	4.7273	0.1	2729.2
25391	11.656	4.8182	0.1	2649.1
25392	11.38	4.7273	0.1	2750.3
25393	11.472	4.8182	0.1	2645.9
25394	11.196	4.7273	0.1	2779.6
25395	11.288	4.8182	0.1	2640.7
25396	11.011	4.7273	0.1	2827.6
25397	11.104	4.8182	0.1	2641.2
25398	10.827	4.7273	0.1	2912.
25399	10.919	4.8182	0.1	2660.7
25400	10.643	4.7273	0.1	3123.1
25401	10.735	4.8182	0.1	2725.4
25402	10.551	4.8182	0.1	2990.4
25403	10.459	4.7273	0.1	2692.
25404	23.724	4.9091	0.1	152.89
25405	23.816	5.	0.1	138.05
25406	23.908	4.9091	0.1	136.92
25407	23.539	4.9091	0.1	174.54
25408	23.632	5.	0.1	157.15
25409	23.355	4.9091	0.1	200.48
25410	23.447	5.	0.1	181.58
25411	23.171	4.9091	0.1	229.42
25412	23.263	5.	0.1	209.66
25413	22.987	4.9091	0.1	260.55
25414	23.079	5.	0.1	240.31
25415	22.802	4.9091	0.1	293.32
25416	22.895	5.	0.1	272.82
25417	22.618	4.9091	0.1	327.32
25418	22.71	5.	0.1	306.71
25419	22.434	4.9091	0.1	362.29
25420	22.526	5.	0.1	341.66
25421	22.25	4.9091	0.1	398.04
25422	22.342	5.	0.1	377.43
25423	22.066	4.9091	0.1	434.42
25424	22.158	5.	0.1	413.85
25425	21.881	4.9091	0.1	471.32
25426	21.973	5.	0.1	450.81
25427	21.697	4.9091	0.1	508.68
25428	21.789	5.	0.1	488.23
25429	21.513	4.9091	0.1	546.43
25430	21.605	5.	0.1	526.04
25431	21.329	4.9091	0.1	584.54
25432	21.421	5.	0.1	564.2
25433	21.144	4.9091	0.1	622.96
25434	21.236	5.	0.1	602.67
25435	20.96	4.9091	0.1	661.69
25436	21.052	5.	0.1	641.44
25437	20.776	4.9091	0.1	700.69
25438	20.868	5.	0.1	680.47
25439	20.592	4.9091	0.1	739.95
25440	20.684	5.	0.1	719.75
25441	20.407	4.9091	0.1	779.46
25442	20.5	5.	0.1	759.28
25443	20.223	4.9091	0.1	819.21
25444	20.315	5.	0.1	799.05
25445	20.039	4.9091	0.1	859.19
25446	20.131	5.	0.1	839.04
25447	19.855	4.9091	0.1	899.4
25448	19.947	5.	0.1	879.25
25449	19.67	4.9091	0.1	939.83
25450	19.763	5.	0.1	919.67
25451	19.486	4.9091	0.1	980.47
25452	19.578	5.	0.1	960.31
25453	19.302	4.9091	0.1	1021.3
25454	19.394	5.	0.1	1001.1
25455	19.118	4.9091	0.1	1062.4
25456	19.21	5.	0.1	1042.2
25457	18.934	4.9091	0.1	1103.6
25458	19.026	5.	0.1	1083.4
25459	18.749	4.9091	0.1	1145.1
25460	18.841	5.	0.1	1124.9
25461	18.565	4.9091	0.1	1186.7
25462	18.657	5.	0.1	1166.5
25463	18.381	4.9091	0.1	1228.6
25464	18.473	5.	0.1	1208.3
25465	18.197	4.9091	0.1	1270.6
25466	18.289	5.	0.1	1250.4
25467	18.012	4.9091	0.1	1312.8
25468	18.105	5.	0.1	1292.6
25469	17.828	4.9091	0.1	1355.2
25470	17.92	5.	0.1	1334.9
25471	17.644	4.9091	0.1	1397.8
25472	17.736	5.	0.1	1377.5
25473	17.46	4.9091	0.1	1440.5
25474	17.552	5.	0.1	1420.2
25475	17.275	4.9091	0.1	1483.4
25476	17.368	5.	0.1	1463.1
25477	17.091	4.9091	0.1	1526.5
25478	17.183	5.	0.1	1506.2
25479	16.907	4.9091	0.1	1569.7
25480	16.999	5.	0.1	1549.5
25481	16.723	4.9091	0.1	1613.1
25482	16.815	5.	0.1	1592.9
25483	16.539	4.9091	0.1	1656.6
25484	16.631	5.	0.1	1636.4
25485	16.354	4.9091	0.1	1700.3
25486	16.446	5.	0.1	1680.2
25487	16.17	4.9091	0.1	1744.2
25488	16.262	5.	0.1	1724.
25489	15.986	4.9091	0.1	1788.2
25490	16.078	5.	0.1	1768.1
25491	15.802	4.9091	0.1	1832.3
25492	15.894	5.	0.1	1812.2
25493	15.617	4.9091	0.1	1876.5
25494	15.709	5.	0.1	1856.5
25495	15.433	4.9091	0.1	1920.8
25496	15.525	5.	0.1	1900.8
25497	15.249	4.9091	0.1	1965.3
25498	15.341	5.	0.1	1945.3
25499	15.065	4.9091	0.1	2009.8
25500	15.157	5.	0.1	1989.8
25501	14.88	4.9091	0.1	2054.3
25502	14.973	5.	0.1	2034.3
25503	14.696	4.9091	0.1	2098.8
25504	14.788	5.	0.1	2078.9
25505	14.512	4.9091	0.1	2143.3
25506	14.604	5.	0.1	2123.3
25507	14.328	4.9091	0.1	2187.6
25508	14.42	5.	0.1	2167.5
25509	14.143	4.9091	0.1	2231.6
25510	14.236	5.	0.1	2211.4
25511	13.959	4.9091	0.1	2275.2
25512	14.051	5.	0.1	2254.9
25513	13.775	4.9091	0.1	2318.2
25514	13.867	5.	0.1	2297.6
25515	13.591	4.9091	0.1	2360.3
25516	13.683	5.	0.1	2339.4
25517	13.407	4.9091	0.1	2401.1
25518	13.499	5.	0.1	2379.9
25519	13.222	4.9091	0.1	2440.2
25520	13.314	5.	0.1	2418.5
25521	13.038	4.9091	0.1	2477.
25522	13.13	5.	0.1	2454.7
25523	12.854	4.9091	0.1	2510.8
25524	12.946	5.	0.1	2487.5
25525	12.67	4.9091	0.1	2540.5
25526	12.762	5.	0.1	2516.2
25527	12.485	4.9091	0.1	2565.1
25528	12.577	5.	0.1	2539.2
25529	12.301	4.9091	0.1	2583.1
25530	12.393	5.	0.1	2555.2
25531	12.117	4.9091	0.1	2593.2
25532	12.209	5.	0.1	2562.4
25533	11.933	4.9091	0.1	2593.7
25534	12.025	5.	0.1	2558.7
25535	11.748	4.9091	0.1	2583.1
25536	11.841	5.	0.1	2541.9
25537	11.564	4.9091	0.1	2560.7
25538	11.656	5.	0.1	2510.1
25539	11.38	4.9091	0.1	2527.1
25540	11.472	5.	0.1	2462.3
25541	11.196	4.9091	0.1	2486.
25542	11.288	5.	0.1	2399.4
25543	11.011	4.9091	0.1	2446.5
25544	11.104	5.	0.1	2327.3
25545	10.827	4.9091	0.1	2428.8
25546	10.919	5.	0.1	2259.9
25547	10.643	4.9091	0.1	2522.7
25548	10.735	5.	0.1	2229.3
25549	10.551	5.	0.1	2381.1
25550	10.459	4.9091	0.1	2147.4
25551	23.724	5.0909	0.1	141.06
25552	23.816	5.1818	0.1	124.97
25553	23.908	5.0909	0.1	124.43
25554	23.539	5.0909	0.1	163.48
25555	23.632	5.1818	0.1	144.81
25556	23.355	5.0909	0.1	190.39
25557	23.447	5.1818	0.1	170.34
25558	23.171	5.0909	0.1	220.37
25559	23.263	5.1818	0.1	199.63
25560	22.987	5.0909	0.1	252.51
25561	23.079	5.1818	0.1	231.48
25562	22.802	5.0909	0.1	286.22
25563	22.895	5.1818	0.1	265.11
25564	22.618	5.0909	0.1	321.1
25565	22.71	5.1818	0.1	300.01
25566	22.434	5.0909	0.1	356.87
25567	22.526	5.1818	0.1	335.86
25568	22.25	5.0909	0.1	393.32
25569	22.342	5.1818	0.1	372.41
25570	22.066	5.0909	0.1	430.34
25571	22.158	5.1818	0.1	409.54
25572	21.881	5.0909	0.1	467.81
25573	21.973	5.1818	0.1	447.12
25574	21.697	5.0909	0.1	505.68
25575	21.789	5.1818	0.1	485.08
25576	21.513	5.0909	0.1	543.9
25577	21.605	5.1818	0.1	523.39
25578	21.329	5.0909	0.1	582.42
25579	21.421	5.1818	0.1	561.99
25580	21.144	5.0909	0.1	621.23
25581	21.236	5.1818	0.1	600.86
25582	20.96	5.0909	0.1	660.3
25583	21.052	5.1818	0.1	639.98
25584	20.776	5.0909	0.1	699.61
25585	20.868	5.1818	0.1	679.35
25586	20.592	5.0909	0.1	739.16
25587	20.684	5.1818	0.1	718.93
25588	20.407	5.0909	0.1	778.94
25589	20.5	5.1818	0.1	758.74
25590	20.223	5.0909	0.1	818.94
25591	20.315	5.1818	0.1	798.76
25592	20.039	5.0909	0.1	859.16
25593	20.131	5.1818	0.1	838.99
25594	19.855	5.0909	0.1	899.58
25595	19.947	5.1818	0.1	879.42
25596	19.67	5.0909	0.1	940.21
25597	19.763	5.1818	0.1	920.06
25598	19.486	5.0909	0.1	981.05
25599	19.578	5.1818	0.1	960.89
25600	19.302	5.0909	0.1	1022.1
25601	19.394	5.1818	0.1	1001.9
25602	19.118	5.0909	0.1	1063.3
25603	19.21	5.1818	0.1	1043.1
25604	18.934	5.0909	0.1	1104.7
25605	19.026	5.1818	0.1	1084.6
25606	18.749	5.0909	0.1	1146.4
25607	18.841	5.1818	0.1	1126.2
25608	18.565	5.0909	0.1	1188.2
25609	18.657	5.1818	0.1	1168.
25610	18.381	5.0909	0.1	1230.2
25611	18.473	5.1818	0.1	1210.
25612	18.197	5.0909	0.1	1272.4
25613	18.289	5.1818	0.1	1252.1
25614	18.012	5.0909	0.1	1314.7
25615	18.105	5.1818	0.1	1294.5
25616	17.828	5.0909	0.1	1357.3
25617	17.92	5.1818	0.1	1337.1
25618	17.644	5.0909	0.1	1400.
25619	17.736	5.1818	0.1	1379.8
25620	17.46	5.0909	0.1	1442.9
25621	17.552	5.1818	0.1	1422.7
25622	17.275	5.0909	0.1	1486.
25623	17.368	5.1818	0.1	1465.8
25624	17.091	5.0909	0.1	1529.3
25625	17.183	5.1818	0.1	1509.
25626	16.907	5.0909	0.1	1572.7
25627	16.999	5.1818	0.1	1552.5
25628	16.723	5.0909	0.1	1616.3
25629	16.815	5.1818	0.1	1596.1
25630	16.539	5.0909	0.1	1660.
25631	16.631	5.1818	0.1	1639.8
25632	16.354	5.0909	0.1	1703.9
25633	16.446	5.1818	0.1	1683.8
25634	16.17	5.0909	0.1	1748.
25635	16.262	5.1818	0.1	1727.8
25636	15.986	5.0909	0.1	1792.1
25637	16.078	5.1818	0.1	1772.
25638	15.802	5.0909	0.1	1836.4
25639	15.894	5.1818	0.1	1816.4
25640	15.617	5.0909	0.1	1880.8
25641	15.709	5.1818	0.1	1860.8
25642	15.433	5.0909	0.1	1925.3
25643	15.525	5.1818	0.1	1905.3
25644	15.249	5.0909	0.1	1969.9
25645	15.341	5.1818	0.1	1949.9
25646	15.065	5.0909	0.1	2014.4
25647	15.157	5.1818	0.1	1994.5
25648	14.88	5.0909	0.1	2058.9
25649	14.973	5.1818	0.1	2039.
25650	14.696	5.0909	0.1	2103.3
25651	14.788	5.1818	0.1	2083.5
25652	14.512	5.0909	0.1	2147.5
25653	14.604	5.1818	0.1	2127.7
25654	14.328	5.0909	0.1	2191.4
25655	14.42	5.1818	0.1	2171.6
25656	14.143	5.0909	0.1	2234.7
25657	14.236	5.1818	0.1	2214.9
25658	13.959	5.0909	0.1	2277.4
25659	14.051	5.1818	0.1	2257.5
25660	13.775	5.0909	0.1	2318.9
25661	13.867	5.1818	0.1	2299.1
25662	13.591	5.0909	0.1	2359.1
25663	13.683	5.1818	0.1	2339.3
25664	13.407	5.0909	0.1	2397.3
25665	13.499	5.1818	0.1	2377.6
25666	13.222	5.0909	0.1	2433.
25667	13.314	5.1818	0.1	2413.2
25668	13.038	5.0909	0.1	2465.2
25669	13.13	5.1818	0.1	2445.5
25670	12.854	5.0909	0.1	2492.9
25671	12.946	5.1818	0.1	2473.4
25672	12.67	5.0909	0.1	2514.8
25673	12.762	5.1818	0.1	2495.4
25674	12.485	5.0909	0.1	2529.2
25675	12.577	5.1818	0.1	2510.
25676	12.301	5.0909	0.1	2534.1
25677	12.393	5.1818	0.1	2515.1
25678	12.117	5.0909	0.1	2527.1
25679	12.209	5.1818	0.1	2508.2
25680	11.933	5.0909	0.1	2505.4
25681	12.025	5.1818	0.1	2486.5
25682	11.748	5.0909	0.1	2466.2
25683	11.841	5.1818	0.1	2446.5
25684	11.564	5.0909	0.1	2406.9
25685	11.656	5.1818	0.1	2384.9
25686	11.38	5.0909	0.1	2326.1
25687	11.472	5.1818	0.1	2298.9
25688	11.196	5.0909	0.1	2225.9
25689	11.288	5.1818	0.1	2187.7
25690	11.011	5.0909	0.1	2115.7
25691	11.104	5.1818	0.1	2055.7
25692	10.827	5.0909	0.1	2020.8
25693	10.919	5.1818	0.1	1918.4
25694	10.643	5.0909	0.1	2029.5
25695	10.735	5.1818	0.1	1814.1
25696	10.551	5.1818	0.1	1879.3
25697	10.459	5.0909	0.1	1708.4
25698	23.724	5.2727	0.1	127.49
25699	23.816	5.3636	0.1	109.79
25700	23.908	5.2727	0.1	109.95
25701	23.539	5.2727	0.1	151.04
25702	23.632	5.3636	0.1	130.78
25703	23.355	5.2727	0.1	179.31
25704	23.447	5.3636	0.1	157.96
25705	23.171	5.2727	0.1	210.67
25706	23.263	5.3636	0.1	188.97
25707	22.987	5.2727	0.1	244.11
25708	23.079	5.3636	0.1	222.38
25709	22.802	5.2727	0.1	278.98
25710	22.895	5.3636	0.1	257.37
25711	22.618	5.2727	0.1	314.87
25712	22.71	5.3636	0.1	293.43
25713	22.434	5.2727	0.1	351.52
25714	22.526	5.3636	0.1	330.25
25715	22.25	5.2727	0.1	388.74
25716	22.342	5.3636	0.1	367.65
25717	22.066	5.2727	0.1	426.43
25718	22.158	5.3636	0.1	405.5
25719	21.881	5.2727	0.1	464.5
25720	21.973	5.3636	0.1	443.71
25721	21.697	5.2727	0.1	502.89
25722	21.789	5.3636	0.1	482.23
25723	21.513	5.2727	0.1	541.58
25724	21.605	5.3636	0.1	521.02
25725	21.329	5.2727	0.1	580.52
25726	21.421	5.3636	0.1	560.06
25727	21.144	5.2727	0.1	619.71
25728	21.236	5.3636	0.1	599.33
25729	20.96	5.2727	0.1	659.12
25730	21.052	5.3636	0.1	638.8
25731	20.776	5.2727	0.1	698.75
25732	20.868	5.3636	0.1	678.49
25733	20.592	5.2727	0.1	738.59
25734	20.684	5.3636	0.1	718.37
25735	20.407	5.2727	0.1	778.63
25736	20.5	5.3636	0.1	758.45
25737	20.223	5.2727	0.1	818.88
25738	20.315	5.3636	0.1	798.72
25739	20.039	5.2727	0.1	859.32
25740	20.131	5.3636	0.1	839.18
25741	19.855	5.2727	0.1	899.96
25742	19.947	5.3636	0.1	879.83
25743	19.67	5.2727	0.1	940.79
25744	19.763	5.3636	0.1	920.67
25745	19.486	5.2727	0.1	981.82
25746	19.578	5.3636	0.1	961.69
25747	19.302	5.2727	0.1	1023.
25748	19.394	5.3636	0.1	1002.9
25749	19.118	5.2727	0.1	1064.5
25750	19.21	5.3636	0.1	1044.3
25751	18.934	5.2727	0.1	1106.1
25752	19.026	5.3636	0.1	1085.9
25753	18.749	5.2727	0.1	1147.8
25754	18.841	5.3636	0.1	1127.7
25755	18.565	5.2727	0.1	1189.8
25756	18.657	5.3636	0.1	1169.7
25757	18.381	5.2727	0.1	1232.
25758	18.473	5.3636	0.1	1211.8
25759	18.197	5.2727	0.1	1274.3
25760	18.289	5.3636	0.1	1254.1
25761	18.012	5.2727	0.1	1316.9
25762	18.105	5.3636	0.1	1296.7
25763	17.828	5.2727	0.1	1359.6
25764	17.92	5.3636	0.1	1339.4
25765	17.644	5.2727	0.1	1402.5
25766	17.736	5.3636	0.1	1382.3
25767	17.46	5.2727	0.1	1445.6
25768	17.552	5.3636	0.1	1425.4
25769	17.275	5.2727	0.1	1488.9
25770	17.368	5.3636	0.1	1468.6
25771	17.091	5.2727	0.1	1532.3
25772	17.183	5.3636	0.1	1512.1
25773	16.907	5.2727	0.1	1575.9
25774	16.999	5.3636	0.1	1555.7
25775	16.723	5.2727	0.1	1619.7
25776	16.815	5.3636	0.1	1599.5
25777	16.539	5.2727	0.1	1663.6
25778	16.631	5.3636	0.1	1643.4
25779	16.354	5.2727	0.1	1707.7
25780	16.446	5.3636	0.1	1687.5
25781	16.17	5.2727	0.1	1751.9
25782	16.262	5.3636	0.1	1731.8
25783	15.986	5.2727	0.1	1796.3
25784	16.078	5.3636	0.1	1776.2
25785	15.802	5.2727	0.1	1840.8
25786	15.894	5.3636	0.1	1820.7
25787	15.617	5.2727	0.1	1885.3
25788	15.709	5.3636	0.1	1865.3
25789	15.433	5.2727	0.1	1929.9
25790	15.525	5.3636	0.1	1909.9
25791	15.249	5.2727	0.1	1974.6
25792	15.341	5.3636	0.1	1954.6
25793	15.065	5.2727	0.1	2019.1
25794	15.157	5.3636	0.1	1999.3
25795	14.88	5.2727	0.1	2063.6
25796	14.973	5.3636	0.1	2043.8
25797	14.696	5.2727	0.1	2107.9
25798	14.788	5.3636	0.1	2088.1
25799	14.512	5.2727	0.1	2151.8
25800	14.604	5.3636	0.1	2132.1
25801	14.328	5.2727	0.1	2195.1
25802	14.42	5.3636	0.1	2175.6
25803	14.143	5.2727	0.1	2237.8
25804	14.236	5.3636	0.1	2218.3
25805	13.959	5.2727	0.1	2279.4
25806	14.051	5.3636	0.1	2260.1
25807	13.775	5.2727	0.1	2319.5
25808	13.867	5.3636	0.1	2300.5
25809	13.591	5.2727	0.1	2357.8
25810	13.683	5.3636	0.1	2339.1
25811	13.407	5.2727	0.1	2393.5
25812	13.499	5.3636	0.1	2375.2
25813	13.222	5.2727	0.1	2425.8
25814	13.314	5.3636	0.1	2408.
25815	13.038	5.2727	0.1	2453.7
25816	13.13	5.3636	0.1	2436.7
25817	12.854	5.2727	0.1	2475.8
25818	12.946	5.3636	0.1	2459.8
25819	12.67	5.2727	0.1	2490.5
25820	12.762	5.3636	0.1	2475.9
25821	12.485	5.2727	0.1	2495.7
25822	12.577	5.3636	0.1	2482.8
25823	12.301	5.2727	0.1	2488.9
25824	12.393	5.3636	0.1	2478.3
25825	12.117	5.2727	0.1	2466.9
25826	12.209	5.3636	0.1	2459.3
25827	11.933	5.2727	0.1	2426.3
25828	12.025	5.3636	0.1	2422.2
25829	11.748	5.2727	0.1	2362.9
25830	11.841	5.3636	0.1	2363.
25831	11.564	5.2727	0.1	2273.1
25832	11.656	5.3636	0.1	2277.3
25833	11.38	5.2727	0.1	2153.8
25834	11.472	5.3636	0.1	2161.
25835	11.196	5.2727	0.1	2005.8
25836	11.288	5.3636	0.1	2011.8
25837	11.011	5.2727	0.1	1838.
25838	11.104	5.3636	0.1	1832.3
25839	10.827	5.2727	0.1	1677.6
25840	10.919	5.3636	0.1	1636.6
25841	10.643	5.2727	0.1	1611.6
25842	10.735	5.3636	0.1	1464.9
25843	10.551	5.3636	0.1	1448.8
25844	10.459	5.2727	0.1	1335.9
25845	23.724	5.4545	0.1	111.93
25846	23.816	5.5455	0.1	91.999
25847	23.908	5.4545	0.1	93.003
25848	23.539	5.4545	0.1	137.26
25849	23.632	5.5455	0.1	115.11
25850	23.355	5.4545	0.1	167.53
25851	23.447	5.5455	0.1	144.94
25852	23.171	5.4545	0.1	200.76
25853	23.263	5.5455	0.1	178.33
25854	22.987	5.4545	0.1	235.79
25855	23.079	5.5455	0.1	213.67
25856	22.802	5.4545	0.1	271.98
25857	22.895	5.5455	0.1	250.19
25858	22.618	5.4545	0.1	308.98
25859	22.71	5.5455	0.1	287.48
25860	22.434	5.4545	0.1	346.55
25861	22.526	5.5455	0.1	325.31
25862	22.25	5.4545	0.1	384.56
25863	22.342	5.5455	0.1	363.54
25864	22.066	5.4545	0.1	422.92
25865	22.158	5.5455	0.1	402.09
25866	21.881	5.4545	0.1	461.58
25867	21.973	5.5455	0.1	440.91
25868	21.697	5.4545	0.1	500.48
25869	21.789	5.5455	0.1	479.96
25870	21.513	5.4545	0.1	539.62
25871	21.605	5.5455	0.1	519.21
25872	21.329	5.4545	0.1	578.97
25873	21.421	5.5455	0.1	558.66
25874	21.144	5.4545	0.1	618.52
25875	21.236	5.5455	0.1	598.29
25876	20.96	5.4545	0.1	658.27
25877	21.052	5.5455	0.1	638.1
25878	20.776	5.4545	0.1	698.2
25879	20.868	5.5455	0.1	678.09
25880	20.592	5.4545	0.1	738.31
25881	20.684	5.5455	0.1	718.24
25882	20.407	5.4545	0.1	778.61
25883	20.5	5.5455	0.1	758.57
25884	20.223	5.4545	0.1	819.09
25885	20.315	5.5455	0.1	799.08
25886	20.039	5.4545	0.1	859.75
25887	20.131	5.5455	0.1	839.76
25888	19.855	5.4545	0.1	900.6
25889	19.947	5.5455	0.1	880.61
25890	19.67	5.4545	0.1	941.63
25891	19.763	5.5455	0.1	921.64
25892	19.486	5.4545	0.1	982.84
25893	19.578	5.5455	0.1	962.85
25894	19.302	5.4545	0.1	1024.2
25895	19.394	5.5455	0.1	1004.2
25896	19.118	5.4545	0.1	1065.8
25897	19.21	5.5455	0.1	1045.8
25898	18.934	5.4545	0.1	1107.6
25899	19.026	5.5455	0.1	1087.6
25900	18.749	5.4545	0.1	1149.5
25901	18.841	5.5455	0.1	1129.5
25902	18.565	5.4545	0.1	1191.7
25903	18.657	5.5455	0.1	1171.6
25904	18.381	5.4545	0.1	1234.
25905	18.473	5.5455	0.1	1214.
25906	18.197	5.4545	0.1	1276.5
25907	18.289	5.5455	0.1	1256.5
25908	18.012	5.4545	0.1	1319.2
25909	18.105	5.5455	0.1	1299.1
25910	17.828	5.4545	0.1	1362.1
25911	17.92	5.5455	0.1	1342.
25912	17.644	5.4545	0.1	1405.2
25913	17.736	5.5455	0.1	1385.1
25914	17.46	5.4545	0.1	1448.5
25915	17.552	5.5455	0.1	1428.3
25916	17.275	5.4545	0.1	1491.9
25917	17.368	5.5455	0.1	1471.8
25918	17.091	5.4545	0.1	1535.5
25919	17.183	5.5455	0.1	1515.4
25920	16.907	5.4545	0.1	1579.3
25921	16.999	5.5455	0.1	1559.2
25922	16.723	5.4545	0.1	1623.3
25923	16.815	5.5455	0.1	1603.1
25924	16.539	5.4545	0.1	1667.4
25925	16.631	5.5455	0.1	1647.3
25926	16.354	5.4545	0.1	1711.7
25927	16.446	5.5455	0.1	1691.6
25928	16.17	5.4545	0.1	1756.1
25929	16.262	5.5455	0.1	1736.
25930	15.986	5.4545	0.1	1800.6
25931	16.078	5.5455	0.1	1780.6
25932	15.802	5.4545	0.1	1845.2
25933	15.894	5.5455	0.1	1825.2
25934	15.617	5.4545	0.1	1889.9
25935	15.709	5.5455	0.1	1870.
25936	15.433	5.4545	0.1	1934.7
25937	15.525	5.5455	0.1	1914.7
25938	15.249	5.4545	0.1	1979.3
25939	15.341	5.5455	0.1	1959.5
25940	15.065	5.4545	0.1	2023.9
25941	15.157	5.5455	0.1	2004.1
25942	14.88	5.4545	0.1	2068.3
25943	14.973	5.5455	0.1	2048.6
25944	14.696	5.4545	0.1	2112.4
25945	14.788	5.5455	0.1	2092.8
25946	14.512	5.4545	0.1	2155.9
25947	14.604	5.5455	0.1	2136.5
25948	14.328	5.4545	0.1	2198.8
25949	14.42	5.5455	0.1	2179.6
25950	14.143	5.4545	0.1	2240.7
25951	14.236	5.5455	0.1	2221.7
25952	13.959	5.4545	0.1	2281.3
25953	14.051	5.5455	0.1	2262.6
25954	13.775	5.4545	0.1	2320.1
25955	13.867	5.5455	0.1	2301.9
25956	13.591	5.4545	0.1	2356.5
25957	13.683	5.5455	0.1	2338.8
25958	13.407	5.4545	0.1	2389.7
25959	13.499	5.5455	0.1	2372.9
25960	13.222	5.4545	0.1	2418.9
25961	13.314	5.5455	0.1	2403.1
25962	13.038	5.4545	0.1	2442.8
25963	13.13	5.5455	0.1	2428.3
25964	12.854	5.4545	0.1	2459.8
25965	12.946	5.5455	0.1	2447.1
25966	12.67	5.4545	0.1	2468.1
25967	12.762	5.5455	0.1	2457.8
25968	12.485	5.4545	0.1	2465.2
25969	12.577	5.5455	0.1	2458.1
25970	12.301	5.4545	0.1	2448.3
25971	12.393	5.5455	0.1	2445.4
25972	12.117	5.4545	0.1	2413.9
25973	12.209	5.5455	0.1	2416.3
25974	11.933	5.4545	0.1	2357.9
25975	12.025	5.5455	0.1	2366.9
25976	11.748	5.4545	0.1	2275.7
25977	11.841	5.5455	0.1	2292.9
25978	11.564	5.4545	0.1	2162.5
25979	11.656	5.5455	0.1	2189.3
25980	11.38	5.4545	0.1	2014.5
25981	11.472	5.5455	0.1	2051.4
25982	11.196	5.4545	0.1	1830.4
25983	11.288	5.5455	0.1	1875.4
25984	11.011	5.4545	0.1	1616.3
25985	11.104	5.5455	0.1	1661.6
25986	10.827	5.4545	0.1	1396.3
25987	10.919	5.5455	0.1	1418.7
25988	10.643	5.4545	0.1	1252.5
25989	10.735	5.5455	0.1	1180.1
25990	10.551	5.5455	0.1	1069.9
25991	10.459	5.4545	0.1	1006.2
25992	23.724	5.6364	0.1	94.298
25993	23.816	5.7273	0.1	71.29
25994	23.908	5.6364	0.1	72.825
25995	23.539	5.6364	0.1	122.74
25996	23.632	5.7273	0.1	99.593
25997	23.355	5.6364	0.1	155.98
25998	23.447	5.7273	0.1	133.83
25999	23.171	5.6364	0.1	191.55
26000	23.263	5.7273	0.1	170.29
26001	22.987	5.6364	0.1	228.38
26002	23.079	5.7273	0.1	207.79
26003	22.802	5.6364	0.1	265.96
26004	22.895	5.7273	0.1	245.91
26005	22.618	5.6364	0.1	304.06
26006	22.71	5.7273	0.1	284.42
26007	22.434	5.6364	0.1	342.52
26008	22.526	5.7273	0.1	323.21
26009	22.25	5.6364	0.1	381.27
26010	22.342	5.7273	0.1	362.23
26011	22.066	5.6364	0.1	420.26
26012	22.158	5.7273	0.1	401.43
26013	21.881	5.6364	0.1	459.46
26014	21.973	5.7273	0.1	440.8
26015	21.697	5.6364	0.1	498.84
26016	21.789	5.7273	0.1	480.32
26017	21.513	5.6364	0.1	538.39
26018	21.605	5.7273	0.1	519.98
26019	21.329	5.6364	0.1	578.11
26020	21.421	5.7273	0.1	559.78
26021	21.144	5.6364	0.1	617.99
26022	21.236	5.7273	0.1	599.73
26023	20.96	5.6364	0.1	658.03
26024	21.052	5.7273	0.1	639.82
26025	20.776	5.6364	0.1	698.24
26026	20.868	5.7273	0.1	680.06
26027	20.592	5.6364	0.1	738.6
26028	20.684	5.7273	0.1	720.44
26029	20.407	5.6364	0.1	779.14
26030	20.5	5.7273	0.1	760.97
26031	20.223	5.6364	0.1	819.83
26032	20.315	5.7273	0.1	801.66
26033	20.039	5.6364	0.1	860.7
26034	20.131	5.7273	0.1	842.51
26035	19.855	5.6364	0.1	901.73
26036	19.947	5.7273	0.1	883.52
26037	19.67	5.6364	0.1	942.94
26038	19.763	5.7273	0.1	924.7
26039	19.486	5.6364	0.1	984.33
26040	19.578	5.7273	0.1	966.05
26041	19.302	5.6364	0.1	1025.9
26042	19.394	5.7273	0.1	1007.6
26043	19.118	5.6364	0.1	1067.6
26044	19.21	5.7273	0.1	1049.3
26045	18.934	5.6364	0.1	1109.6
26046	19.026	5.7273	0.1	1091.1
26047	18.749	5.6364	0.1	1151.7
26048	18.841	5.7273	0.1	1133.2
26049	18.565	5.6364	0.1	1194.
26050	18.657	5.7273	0.1	1175.4
26051	18.381	5.6364	0.1	1236.5
26052	18.473	5.7273	0.1	1217.9
26053	18.197	5.6364	0.1	1279.1
26054	18.289	5.7273	0.1	1260.5
26055	18.012	5.6364	0.1	1322.
26056	18.105	5.7273	0.1	1303.3
26057	17.828	5.6364	0.1	1365.
26058	17.92	5.7273	0.1	1346.3
26059	17.644	5.6364	0.1	1408.3
26060	17.736	5.7273	0.1	1389.5
26061	17.46	5.6364	0.1	1451.7
26062	17.552	5.7273	0.1	1432.8
26063	17.275	5.6364	0.1	1495.3
26064	17.368	5.7273	0.1	1476.4
26065	17.091	5.6364	0.1	1539.1
26066	17.183	5.7273	0.1	1520.1
26067	16.907	5.6364	0.1	1583.1
26068	16.999	5.7273	0.1	1564.1
26069	16.723	5.6364	0.1	1627.2
26070	16.815	5.7273	0.1	1608.2
26071	16.539	5.6364	0.1	1671.5
26072	16.631	5.7273	0.1	1652.4
26073	16.354	5.6364	0.1	1715.9
26074	16.446	5.7273	0.1	1696.9
26075	16.17	5.6364	0.1	1760.5
26076	16.262	5.7273	0.1	1741.4
26077	15.986	5.6364	0.1	1805.2
26078	16.078	5.7273	0.1	1786.1
26079	15.802	5.6364	0.1	1850.
26080	15.894	5.7273	0.1	1830.9
26081	15.617	5.6364	0.1	1894.8
26082	15.709	5.7273	0.1	1875.7
26083	15.433	5.6364	0.1	1939.6
26084	15.525	5.7273	0.1	1920.5
26085	15.249	5.6364	0.1	1984.3
26086	15.341	5.7273	0.1	1965.3
26087	15.065	5.6364	0.1	2028.9
26088	15.157	5.7273	0.1	2009.9
26089	14.88	5.6364	0.1	2073.2
26090	14.973	5.7273	0.1	2054.3
26091	14.696	5.6364	0.1	2117.
26092	14.788	5.7273	0.1	2098.3
26093	14.512	5.6364	0.1	2160.2
26094	14.604	5.7273	0.1	2141.7
26095	14.328	5.6364	0.1	2202.6
26096	14.42	5.7273	0.1	2184.3
26097	14.143	5.6364	0.1	2243.7
26098	14.236	5.7273	0.1	2225.8
26099	13.959	5.6364	0.1	2283.3
26100	14.051	5.7273	0.1	2265.8
26101	13.775	5.6364	0.1	2320.7
26102	13.867	5.7273	0.1	2303.9
26103	13.591	5.6364	0.1	2355.3
26104	13.683	5.7273	0.1	2339.3
26105	13.407	5.6364	0.1	2386.2
26106	13.499	5.7273	0.1	2371.4
26107	13.222	5.6364	0.1	2412.5
26108	13.314	5.7273	0.1	2399.1
26109	13.038	5.6364	0.1	2432.7
26110	13.13	5.7273	0.1	2421.2
26111	12.854	5.6364	0.1	2445.1
26112	12.946	5.7273	0.1	2436.2
26113	12.67	5.6364	0.1	2447.8
26114	12.762	5.7273	0.1	2442.3
26115	12.485	5.6364	0.1	2438.1
26116	12.577	5.7273	0.1	2437.
26117	12.301	5.6364	0.1	2413.
26118	12.393	5.7273	0.1	2417.5
26119	12.117	5.6364	0.1	2368.8
26120	12.209	5.7273	0.1	2380.6
26121	11.933	5.6364	0.1	2301.2
26122	12.025	5.7273	0.1	2322.3
26123	11.748	5.6364	0.1	2205.5
26124	11.841	5.7273	0.1	2238.1
26125	11.564	5.6364	0.1	2076.6
26126	11.656	5.7273	0.1	2123.2
26127	11.38	5.6364	0.1	1909.9
26128	11.472	5.7273	0.1	1972.7
26129	11.196	5.6364	0.1	1702.5
26130	11.288	5.7273	0.1	1782.5
26131	11.011	5.6364	0.1	1456.1
26132	11.104	5.7273	0.1	1550.3
26133	10.827	5.6364	0.1	1184.6
26134	10.919	5.7273	0.1	1278.4
26135	10.643	5.6364	0.1	951.42
26136	10.735	5.7273	0.1	982.68
26137	10.551	5.7273	0.1	748.12
26138	10.459	5.6364	0.1	703.72
26139	23.724	5.8182	0.1	77.029
26140	23.816	5.9091	0.1	48.706
26141	23.908	5.8182	0.1	48.214
26142	23.539	5.8182	0.1	111.77
26143	23.632	5.9091	0.1	82.354
26144	23.355	5.8182	0.1	149.17
26145	23.447	5.9091	0.1	118.6
26146	23.171	5.8182	0.1	187.42
26147	23.263	5.9091	0.1	155.99
26148	22.987	5.8182	0.1	226.09
26149	23.079	5.9091	0.1	194.01
26150	22.802	5.8182	0.1	265.04
26151	22.895	5.9091	0.1	232.47
26152	22.618	5.8182	0.1	304.18
26153	22.71	5.9091	0.1	271.26
26154	22.434	5.8182	0.1	343.47
26155	22.526	5.9091	0.1	310.3
26156	22.25	5.8182	0.1	382.89
26157	22.342	5.9091	0.1	349.56
26158	22.066	5.8182	0.1	422.43
26159	22.158	5.9091	0.1	389.02
26160	21.881	5.8182	0.1	462.09
26161	21.973	5.9091	0.1	428.64
26162	21.697	5.8182	0.1	501.87
26163	21.789	5.9091	0.1	468.43
26164	21.513	5.8182	0.1	541.76
26165	21.605	5.9091	0.1	508.37
26166	21.329	5.8182	0.1	581.78
26167	21.421	5.9091	0.1	548.46
26168	21.144	5.8182	0.1	621.92
26169	21.236	5.9091	0.1	588.7
26170	20.96	5.8182	0.1	662.18
26171	21.052	5.9091	0.1	629.09
26172	20.776	5.8182	0.1	702.58
26173	20.868	5.9091	0.1	669.63
26174	20.592	5.8182	0.1	743.12
26175	20.684	5.9091	0.1	710.32
26176	20.407	5.8182	0.1	783.8
26177	20.5	5.9091	0.1	751.17
26178	20.223	5.8182	0.1	824.64
26179	20.315	5.9091	0.1	792.18
26180	20.039	5.8182	0.1	865.62
26181	20.131	5.9091	0.1	833.35
26182	19.855	5.8182	0.1	906.77
26183	19.947	5.9091	0.1	874.68
26184	19.67	5.8182	0.1	948.07
26185	19.763	5.9091	0.1	916.18
26186	19.486	5.8182	0.1	989.55
26187	19.578	5.9091	0.1	957.86
26188	19.302	5.8182	0.1	1031.2
26189	19.394	5.9091	0.1	999.71
26190	19.118	5.8182	0.1	1073.
26191	19.21	5.9091	0.1	1041.7
26192	18.934	5.8182	0.1	1115.
26193	19.026	5.9091	0.1	1083.9
26194	18.749	5.8182	0.1	1157.2
26195	18.841	5.9091	0.1	1126.3
26196	18.565	5.8182	0.1	1199.6
26197	18.657	5.9091	0.1	1168.9
26198	18.381	5.8182	0.1	1242.1
26199	18.473	5.9091	0.1	1211.7
26200	18.197	5.8182	0.1	1284.9
26201	18.289	5.9091	0.1	1254.7
26202	18.012	5.8182	0.1	1327.8
26203	18.105	5.9091	0.1	1297.8
26204	17.828	5.8182	0.1	1370.9
26205	17.92	5.9091	0.1	1341.2
26206	17.644	5.8182	0.1	1414.2
26207	17.736	5.9091	0.1	1384.8
26208	17.46	5.8182	0.1	1457.7
26209	17.552	5.9091	0.1	1428.5
26210	17.275	5.8182	0.1	1501.4
26211	17.368	5.9091	0.1	1472.5
26212	17.091	5.8182	0.1	1545.3
26213	17.183	5.9091	0.1	1516.6
26214	16.907	5.8182	0.1	1589.4
26215	16.999	5.9091	0.1	1560.9
26216	16.723	5.8182	0.1	1633.6
26217	16.815	5.9091	0.1	1605.4
26218	16.539	5.8182	0.1	1678.
26219	16.631	5.9091	0.1	1650.1
26220	16.354	5.8182	0.1	1722.5
26221	16.446	5.9091	0.1	1694.9
26222	16.17	5.8182	0.1	1767.2
26223	16.262	5.9091	0.1	1739.9
26224	15.986	5.8182	0.1	1811.9
26225	16.078	5.9091	0.1	1784.9
26226	15.802	5.8182	0.1	1856.8
26227	15.894	5.9091	0.1	1830.1
26228	15.617	5.8182	0.1	1901.6
26229	15.709	5.9091	0.1	1875.3
26230	15.433	5.8182	0.1	1946.4
26231	15.525	5.9091	0.1	1920.4
26232	15.249	5.8182	0.1	1991.1
26233	15.341	5.9091	0.1	1965.5
26234	15.065	5.8182	0.1	2035.5
26235	15.157	5.9091	0.1	2010.3
26236	14.88	5.8182	0.1	2079.6
26237	14.973	5.9091	0.1	2054.8
26238	14.696	5.8182	0.1	2123.1
26239	14.788	5.9091	0.1	2098.9
26240	14.512	5.8182	0.1	2165.9
26241	14.604	5.9091	0.1	2142.2
26242	14.328	5.8182	0.1	2207.7
26243	14.42	5.9091	0.1	2184.6
26244	14.143	5.8182	0.1	2248.
26245	14.236	5.9091	0.1	2225.7
26246	13.959	5.8182	0.1	2286.5
26247	14.051	5.9091	0.1	2265.
26248	13.775	5.8182	0.1	2322.6
26249	13.867	5.9091	0.1	2302.1
26250	13.591	5.8182	0.1	2355.5
26251	13.683	5.9091	0.1	2336.3
26252	13.407	5.8182	0.1	2384.3
26253	13.499	5.9091	0.1	2366.6
26254	13.222	5.8182	0.1	2407.9
26255	13.314	5.9091	0.1	2392.1
26256	13.038	5.8182	0.1	2424.8
26257	13.13	5.9091	0.1	2411.5
26258	12.854	5.8182	0.1	2433.4
26259	12.946	5.9091	0.1	2423.
26260	12.67	5.8182	0.1	2431.4
26261	12.762	5.9091	0.1	2424.8
26262	12.485	5.8182	0.1	2416.3
26263	12.577	5.9091	0.1	2414.3
26264	12.301	5.8182	0.1	2384.9
26265	12.393	5.9091	0.1	2388.7
26266	12.117	5.8182	0.1	2333.8
26267	12.209	5.9091	0.1	2344.5
26268	11.933	5.8182	0.1	2258.6
26269	12.025	5.9091	0.1	2277.8
26270	11.748	5.8182	0.1	2155.1
26271	11.841	5.9091	0.1	2184.2
26272	11.564	5.8182	0.1	2018.3
26273	11.656	5.9091	0.1	2059.
26274	11.38	5.8182	0.1	1843.9
26275	11.472	5.9091	0.1	1897.6
26276	11.196	5.8182	0.1	1628.3
26277	11.288	5.9091	0.1	1695.8
26278	11.011	5.8182	0.1	1369.5
26279	11.104	5.9091	0.1	1451.
26280	10.827	5.8182	0.1	1069.8
26281	10.919	5.9091	0.1	1162.1
26282	10.643	5.8182	0.1	749.11
26283	10.735	5.9091	0.1	832.32
26284	10.459	5.8182	0.1	427.82
26285	10.551	5.9091	0.1	478.47
26286	0.18214	0.27273	0.1	4248.5
26287	0.27321	0.18182	0.1	4528.9
26288	9.1071e-002	0.18182	0.1	2702.7
26289	0.18214	9.0909e-002	0.1	3829.9
26290	0.18214	0.45455	0.1	4878.6
26291	0.27321	0.36364	0.1	4639.9
26292	9.1071e-002	0.36364	0.1	3407.8
26293	0.18214	0.63636	0.1	5483.3
26294	0.27321	0.54545	0.1	5006.5
26295	9.1071e-002	0.54545	0.1	3991.6
26296	0.18214	0.81818	0.1	5942.4
26297	0.27321	0.72727	0.1	5372.
26298	9.1071e-002	0.72727	0.1	4409.
26299	0.18214	1.	0.1	6286.1
26300	0.27321	0.90909	0.1	5681.1
26301	9.1071e-002	0.90909	0.1	4708.8
26302	0.18214	1.1818	0.1	6546.5
26303	0.27321	1.0909	0.1	5931.
26304	9.1071e-002	1.0909	0.1	4930.6
26305	0.18214	1.3636	0.1	6746.7
26306	0.27321	1.2727	0.1	6130.5
26307	9.1071e-002	1.2727	0.1	5098.4
26308	0.18214	1.5455	0.1	6902.4
26309	0.27321	1.4545	0.1	6289.6
26310	9.1071e-002	1.4545	0.1	5227.5
26311	0.18214	1.7273	0.1	7024.3
26312	0.27321	1.6364	0.1	6416.4
26313	9.1071e-002	1.6364	0.1	5328.
26314	0.18214	1.9091	0.1	7119.7
26315	0.27321	1.8182	0.1	6517.2
26316	9.1071e-002	1.8182	0.1	5406.5
26317	0.18214	2.0909	0.1	7193.8
26318	0.27321	2.	0.1	6596.9
26319	9.1071e-002	2.	0.1	5467.6
26320	0.18214	2.2727	0.1	7250.4
26321	0.27321	2.1818	0.1	6658.9
26322	9.1071e-002	2.1818	0.1	5514.8
26323	0.18214	2.4545	0.1	7292.1
26324	0.27321	2.3636	0.1	6705.8
26325	9.1071e-002	2.3636	0.1	5550.2
26326	0.18214	2.6364	0.1	7320.8
26327	0.27321	2.5455	0.1	6739.5
26328	9.1071e-002	2.5455	0.1	5575.5
26329	0.18214	2.8182	0.1	7337.5
26330	0.27321	2.7273	0.1	6761.3
26331	9.1071e-002	2.7273	0.1	5591.8
26332	0.18214	3.	0.1	7343.
26333	0.27321	2.9091	0.1	6772.
26334	9.1071e-002	2.9091	0.1	5599.8
26335	0.18214	3.1818	0.1	7337.5
26336	0.27321	3.0909	0.1	6772.
26337	9.1071e-002	3.0909	0.1	5599.8
26338	0.18214	3.3636	0.1	7320.8
26339	0.27321	3.2727	0.1	6761.3
26340	9.1071e-002	3.2727	0.1	5591.8
26341	0.18214	3.5455	0.1	7292.1
26342	0.27321	3.4545	0.1	6739.5
26343	9.1071e-002	3.4545	0.1	5575.5
26344	0.18214	3.7273	0.1	7250.4
26345	0.27321	3.6364	0.1	6705.8
26346	9.1071e-002	3.6364	0.1	5550.2
26347	0.18214	3.9091	0.1	7193.8
26348	0.27321	3.8182	0.1	6658.9
26349	9.1071e-002	3.8182	0.1	5514.8
26350	0.18214	4.0909	0.1	7119.7
26351	0.27321	4.	0.1	6596.9
26352	9.1071e-002	4.	0.1	5467.6
26353	0.18214	4.2727	0.1	7024.3
26354	0.27321	4.1818	0.1	6517.2
26355	9.1071e-002	4.1818	0.1	5406.5
26356	0.18214	4.4545	0.1	6902.4
26357	0.27321	4.3636	0.1	6416.4
26358	9.1071e-002	4.3636	0.1	5328.
26359	0.18214	4.6364	0.1	6746.7
26360	0.27321	4.5455	0.1	6289.6
26361	9.1071e-002	4.5455	0.1	5227.5
26362	0.18214	4.8182	0.1	6546.5
26363	0.27321	4.7273	0.1	6130.5
26364	9.1071e-002	4.7273	0.1	5098.4
26365	0.18214	5.	0.1	6286.1
26366	0.27321	4.9091	0.1	5931.
26367	9.1071e-002	4.9091	0.1	4930.6
26368	0.18214	5.1818	0.1	5942.4
26369	0.27321	5.0909	0.1	5681.1
26370	9.1071e-002	5.0909	0.1	4708.8
26371	0.18214	5.3636	0.1	5483.3
26372	0.27321	5.2727	0.1	5372.
26373	9.1071e-002	5.2727	0.1	4409.
26374	0.18214	5.5455	0.1	4878.6
26375	0.27321	5.4545	0.1	5006.5
26376	9.1071e-002	5.4545	0.1	3991.6
26377	0.18214	5.7273	0.1	4248.5
26378	0.27321	5.6364	0.1	4639.9
26379	9.1071e-002	5.6364	0.1	3407.8
26380	0.27321	5.8182	0.1	4528.9
26381	9.1071e-002	5.8182	0.1	2702.7
26382	0.18214	5.9091	0.1	3829.9
26383	0.36429	0.27273	0.1	4886.1
26384	0.45536	0.18182	0.1	5294.4
26385	0.36429	9.0909e-002	0.1	4917.5
26386	0.36429	0.45455	0.1	4793.5
26387	0.45536	0.36364	0.1	5057.
26388	0.36429	0.63636	0.1	4925.2
26389	0.45536	0.54545	0.1	5056.6
26390	0.36429	0.81818	0.1	5133.8
26391	0.45536	0.72727	0.1	5177.1
26392	0.36429	1.	0.1	5343.1
26393	0.45536	0.90909	0.1	5339.6
26394	0.36429	1.1818	0.1	5528.1
26395	0.45536	1.0909	0.1	5503.9
26396	0.36429	1.3636	0.1	5684.1
26397	0.45536	1.2727	0.1	5653.1
26398	0.36429	1.5455	0.1	5812.8
26399	0.45536	1.4545	0.1	5782.3
26400	0.36429	1.7273	0.1	5917.7
26401	0.45536	1.6364	0.1	5891.1
26402	0.36429	1.9091	0.1	6002.2
26403	0.45536	1.8182	0.1	5981.1
26404	0.36429	2.0909	0.1	6069.3
26405	0.45536	2.	0.1	6054.2
26406	0.36429	2.2727	0.1	6121.3
26407	0.45536	2.1818	0.1	6112.3
26408	0.36429	2.4545	0.1	6160.
26409	0.45536	2.3636	0.1	6156.9
26410	0.36429	2.6364	0.1	6186.8
26411	0.45536	2.5455	0.1	6189.3
26412	0.36429	2.8182	0.1	6202.6
26413	0.45536	2.7273	0.1	6210.4
26414	0.36429	3.	0.1	6207.8
26415	0.45536	2.9091	0.1	6220.9
26416	0.36429	3.1818	0.1	6202.6
26417	0.45536	3.0909	0.1	6220.9
26418	0.36429	3.3636	0.1	6186.8
26419	0.45536	3.2727	0.1	6210.4
26420	0.36429	3.5455	0.1	6160.
26421	0.45536	3.4545	0.1	6189.3
26422	0.36429	3.7273	0.1	6121.3
26423	0.45536	3.6364	0.1	6156.9
26424	0.36429	3.9091	0.1	6069.3
26425	0.45536	3.8182	0.1	6112.3
26426	0.36429	4.0909	0.1	6002.2
26427	0.45536	4.	0.1	6054.2
26428	0.36429	4.2727	0.1	5917.7
26429	0.45536	4.1818	0.1	5981.1
26430	0.36429	4.4545	0.1	5812.8
26431	0.45536	4.3636	0.1	5891.1
26432	0.36429	4.6364	0.1	5684.1
26433	0.45536	4.5455	0.1	5782.3
26434	0.36429	4.8182	0.1	5528.1
26435	0.45536	4.7273	0.1	5653.1
26436	0.36429	5.	0.1	5343.1
26437	0.45536	4.9091	0.1	5503.9
26438	0.36429	5.1818	0.1	5133.8
26439	0.45536	5.0909	0.1	5339.6
26440	0.36429	5.3636	0.1	4925.2
26441	0.45536	5.2727	0.1	5177.1
26442	0.36429	5.5455	0.1	4793.5
26443	0.45536	5.4545	0.1	5056.6
26444	0.36429	5.7273	0.1	4886.1
26445	0.45536	5.6364	0.1	5057.
26446	0.45536	5.8182	0.1	5294.4
26447	0.36429	5.9091	0.1	4917.5
26448	0.54643	0.27273	0.1	5449.9
26449	0.6375	0.18182	0.1	5700.1
26450	0.54643	9.0909e-002	0.1	5465.1
26451	0.54643	0.45455	0.1	5306.7
26452	0.6375	0.36364	0.1	5469.1
26453	0.54643	0.63636	0.1	5301.6
26454	0.6375	0.54545	0.1	5377.9
26455	0.54643	0.81818	0.1	5380.8
26456	0.6375	0.72727	0.1	5378.9
26457	0.54643	1.	0.1	5500.4
26458	0.6375	0.90909	0.1	5440.9
26459	0.54643	1.1818	0.1	5629.5
26460	0.6375	1.0909	0.1	5532.8
26461	0.54643	1.3636	0.1	5752.
26462	0.6375	1.2727	0.1	5633.3
26463	0.54643	1.5455	0.1	5861.2
26464	0.6375	1.4545	0.1	5730.6
26465	0.54643	1.7273	0.1	5955.
26466	0.6375	1.6364	0.1	5818.8
26467	0.54643	1.9091	0.1	6033.5
26468	0.6375	1.8182	0.1	5895.6
26469	0.54643	2.0909	0.1	6097.5
26470	0.6375	2.	0.1	5960.4
26471	0.54643	2.2727	0.1	6148.2
26472	0.6375	2.1818	0.1	6013.2
26473	0.54643	2.4545	0.1	6186.5
26474	0.6375	2.3636	0.1	6054.7
26475	0.54643	2.6364	0.1	6213.2
26476	0.6375	2.5455	0.1	6085.2
26477	0.54643	2.8182	0.1	6229.
26478	0.6375	2.7273	0.1	6105.2
26479	0.54643	3.	0.1	6234.2
26480	0.6375	2.9091	0.1	6115.2
26481	0.54643	3.1818	0.1	6229.
26482	0.6375	3.0909	0.1	6115.2
26483	0.54643	3.3636	0.1	6213.2
26484	0.6375	3.2727	0.1	6105.2
26485	0.54643	3.5455	0.1	6186.5
26486	0.6375	3.4545	0.1	6085.2
26487	0.54643	3.7273	0.1	6148.2
26488	0.6375	3.6364	0.1	6054.7
26489	0.54643	3.9091	0.1	6097.5
26490	0.6375	3.8182	0.1	6013.2
26491	0.54643	4.0909	0.1	6033.5
26492	0.6375	4.	0.1	5960.4
26493	0.54643	4.2727	0.1	5955.
26494	0.6375	4.1818	0.1	5895.6
26495	0.54643	4.4545	0.1	5861.2
26496	0.6375	4.3636	0.1	5818.8
26497	0.54643	4.6364	0.1	5752.
26498	0.6375	4.5455	0.1	5730.6
26499	0.54643	4.8182	0.1	5629.5
26500	0.6375	4.7273	0.1	5633.3
26501	0.54643	5.	0.1	5500.4
26502	0.6375	4.9091	0.1	5532.8
26503	0.54643	5.1818	0.1	5380.8
26504	0.6375	5.0909	0.1	5440.9
26505	0.54643	5.3636	0.1	5301.6
26506	0.6375	5.2727	0.1	5378.9
26507	0.54643	5.5455	0.1	5306.7
26508	0.6375	5.4545	0.1	5377.9
26509	0.54643	5.7273	0.1	5449.9
26510	0.6375	5.6364	0.1	5469.1
26511	0.6375	5.8182	0.1	5700.1
26512	0.54643	5.9091	0.1	5465.1
26513	0.72857	0.27273	0.1	5712.2
26514	0.81964	0.18182	0.1	5905.7
26515	0.72857	9.0909e-002	0.1	5754.3
26516	0.72857	0.45455	0.1	5533.9
26517	0.81964	0.36364	0.1	5683.1
26518	0.72857	0.63636	0.1	5450.6
26519	0.81964	0.54545	0.1	5555.8
26520	0.72857	0.81818	0.1	5437.
26521	0.81964	0.72727	0.1	5492.6
26522	0.72857	1.	0.1	5473.2
26523	0.81964	0.90909	0.1	5483.8
26524	0.72857	1.1818	0.1	5537.3
26525	0.81964	1.0909	0.1	5513.
26526	0.72857	1.3636	0.1	5612.7
26527	0.81964	1.2727	0.1	5563.7
26528	0.72857	1.5455	0.1	5688.9
26529	0.81964	1.4545	0.1	5623.7
26530	0.72857	1.7273	0.1	5760.
26531	0.81964	1.6364	0.1	5684.9
26532	0.72857	1.9091	0.1	5822.9
26533	0.81964	1.8182	0.1	5742.4
26534	0.72857	2.0909	0.1	5876.4
26535	0.81964	2.	0.1	5793.5
26536	0.72857	2.2727	0.1	5919.9
26537	0.81964	2.1818	0.1	5836.8
26538	0.72857	2.4545	0.1	5953.5
26539	0.81964	2.3636	0.1	5871.6
26540	0.72857	2.6364	0.1	5977.3
26541	0.81964	2.5455	0.1	5897.8
26542	0.72857	2.8182	0.1	5991.5
26543	0.81964	2.7273	0.1	5915.3
26544	0.72857	3.	0.1	5996.2
26545	0.81964	2.9091	0.1	5924.
26546	0.72857	3.1818	0.1	5991.5
26547	0.81964	3.0909	0.1	5924.
26548	0.72857	3.3636	0.1	5977.3
26549	0.81964	3.2727	0.1	5915.3
26550	0.72857	3.5455	0.1	5953.5
26551	0.81964	3.4545	0.1	5897.8
26552	0.72857	3.7273	0.1	5919.9
26553	0.81964	3.6364	0.1	5871.6
26554	0.72857	3.9091	0.1	5876.4
26555	0.81964	3.8182	0.1	5836.8
26556	0.72857	4.0909	0.1	5822.9
26557	0.81964	4.	0.1	5793.5
26558	0.72857	4.2727	0.1	5760.
26559	0.81964	4.1818	0.1	5742.4
26560	0.72857	4.4545	0.1	5688.9
26561	0.81964	4.3636	0.1	5684.9
26562	0.72857	4.6364	0.1	5612.7
26563	0.81964	4.5455	0.1	5623.7
26564	0.72857	4.8182	0.1	5537.3
26565	0.81964	4.7273	0.1	5563.7
26566	0.72857	5.	0.1	5473.2
26567	0.81964	4.9091	0.1	5513.
26568	0.72857	5.1818	0.1	5437.
26569	0.81964	5.0909	0.1	5483.8
26570	0.72857	5.3636	0.1	5450.6
26571	0.81964	5.2727	0.1	5492.6
26572	0.72857	5.5455	0.1	5533.9
26573	0.81964	5.4545	0.1	5555.8
26574	0.72857	5.7273	0.1	5712.2
26575	0.81964	5.6364	0.1	5683.1
26576	0.81964	5.8182	0.1	5905.7
26577	0.72857	5.9091	0.1	5754.3
26578	0.91071	0.27273	0.1	5873.
26579	1.0018	0.18182	0.1	6015.5
26580	0.91071	9.0909e-002	0.1	5918.7
26581	0.91071	0.45455	0.1	5701.3
26582	1.0018	0.36364	0.1	5814.4
26583	0.91071	0.63636	0.1	5594.
26584	1.0018	0.54545	0.1	5681.6
26585	0.91071	0.81818	0.1	5536.4
26586	1.0018	0.72727	0.1	5591.9
26587	0.91071	1.	0.1	5521.8
26588	1.0018	0.90909	0.1	5544.
26589	0.91071	1.1818	0.1	5538.5
26590	1.0018	1.0909	0.1	5531.
26591	0.91071	1.3636	0.1	5574.4
26592	1.0018	1.2727	0.1	5543.1
26593	0.91071	1.5455	0.1	5619.6
26594	1.0018	1.4545	0.1	5570.6
26595	0.91071	1.7273	0.1	5667.2
26596	1.0018	1.6364	0.1	5605.9
26597	0.91071	1.9091	0.1	5712.9
26598	1.0018	1.8182	0.1	5643.4
26599	0.91071	2.0909	0.1	5753.9
26600	1.0018	2.	0.1	5679.4
26601	0.91071	2.2727	0.1	5788.5
26602	1.0018	2.1818	0.1	5711.7
26603	0.91071	2.4545	0.1	5815.9
26604	1.0018	2.3636	0.1	5738.6
26605	0.91071	2.6364	0.1	5835.7
26606	1.0018	2.5455	0.1	5759.3
26607	0.91071	2.8182	0.1	5847.7
26608	1.0018	2.7273	0.1	5773.4
26609	0.91071	3.	0.1	5851.7
26610	1.0018	2.9091	0.1	5780.4
26611	0.91071	3.1818	0.1	5847.7
26612	1.0018	3.0909	0.1	5780.4
26613	0.91071	3.3636	0.1	5835.7
26614	1.0018	3.2727	0.1	5773.4
26615	0.91071	3.5455	0.1	5815.9
26616	1.0018	3.4545	0.1	5759.3
26617	0.91071	3.7273	0.1	5788.5
26618	1.0018	3.6364	0.1	5738.6
26619	0.91071	3.9091	0.1	5753.9
26620	1.0018	3.8182	0.1	5711.7
26621	0.91071	4.0909	0.1	5712.9
26622	1.0018	4.	0.1	5679.4
26623	0.91071	4.2727	0.1	5667.2
26624	1.0018	4.1818	0.1	5643.4
26625	0.91071	4.4545	0.1	5619.6
26626	1.0018	4.3636	0.1	5605.9
26627	0.91071	4.6364	0.1	5574.4
26628	1.0018	4.5455	0.1	5570.6
26629	0.91071	4.8182	0.1	5538.5
26630	1.0018	4.7273	0.1	5543.1
26631	0.91071	5.	0.1	5521.8
26632	1.0018	4.9091	0.1	5531.
26633	0.91071	5.1818	0.1	5536.4
26634	1.0018	5.0909	0.1	5544.
26635	0.91071	5.3636	0.1	5594.
26636	1.0018	5.2727	0.1	5591.9
26637	0.91071	5.5455	0.1	5701.3
26638	1.0018	5.4545	0.1	5681.6
26639	0.91071	5.7273	0.1	5873.
26640	1.0018	5.6364	0.1	5814.4
26641	1.0018	5.8182	0.1	6015.5
26642	0.91071	5.9091	0.1	5918.7
26643	1.0929	0.27273	0.1	5954.7
26644	1.1839	0.18182	0.1	6064.2
26645	1.0929	9.0909e-002	0.1	6005.1
26646	1.0929	0.45455	0.1	5792.6
26647	1.1839	0.36364	0.1	5882.3
26648	1.0929	0.63636	0.1	5677.1
26649	1.1839	0.54545	0.1	5752.1
26650	1.0929	0.81818	0.1	5597.2
26651	1.1839	0.72727	0.1	5652.
26652	1.0929	1.	0.1	5551.5
26653	1.1839	0.90909	0.1	5582.9
26654	1.0929	1.1818	0.1	5534.5
26655	1.1839	1.0909	0.1	5543.
26656	1.0929	1.3636	0.1	5538.7
26657	1.1839	1.2727	0.1	5526.9
26658	1.0929	1.5455	0.1	5556.5
26659	1.1839	1.4545	0.1	5528.2
26660	1.0929	1.7273	0.1	5581.8
26661	1.1839	1.6364	0.1	5540.7
26662	1.0929	1.9091	0.1	5609.8
26663	1.1839	1.8182	0.1	5559.4
26664	1.0929	2.0909	0.1	5637.2
26665	1.1839	2.	0.1	5580.5
26666	1.0929	2.2727	0.1	5661.7
26667	1.1839	2.1818	0.1	5601.2
26668	1.0929	2.4545	0.1	5681.9
26669	1.1839	2.3636	0.1	5619.5
26670	1.0929	2.6364	0.1	5696.9
26671	1.1839	2.5455	0.1	5634.2
26672	1.0929	2.8182	0.1	5706.1
26673	1.1839	2.7273	0.1	5644.4
26674	1.0929	3.	0.1	5709.1
26675	1.1839	2.9091	0.1	5649.6
26676	1.0929	3.1818	0.1	5706.1
26677	1.1839	3.0909	0.1	5649.6
26678	1.0929	3.3636	0.1	5696.9
26679	1.1839	3.2727	0.1	5644.4
26680	1.0929	3.5455	0.1	5681.9
26681	1.1839	3.4545	0.1	5634.2
26682	1.0929	3.7273	0.1	5661.7
26683	1.1839	3.6364	0.1	5619.5
26684	1.0929	3.9091	0.1	5637.2
26685	1.1839	3.8182	0.1	5601.2
26686	1.0929	4.0909	0.1	5609.8
26687	1.1839	4.	0.1	5580.5
26688	1.0929	4.2727	0.1	5581.8
26689	1.1839	4.1818	0.1	5559.4
26690	1.0929	4.4545	0.1	5556.5
26691	1.1839	4.3636	0.1	5540.7
26692	1.0929	4.6364	0.1	5538.7
26693	1.1839	4.5455	0.1	5528.2
26694	1.0929	4.8182	0.1	5534.5
26695	1.1839	4.7273	0.1	5526.9
26696	1.0929	5.	0.1	5551.5
26697	1.1839	4.9091	0.1	5543.
26698	1.0929	5.1818	0.1	5597.2
26699	1.1839	5.0909	0.1	5582.9
26700	1.0929	5.3636	0.1	5677.1
26701	1.1839	5.2727	0.1	5652.
26702	1.0929	5.5455	0.1	5792.6
26703	1.1839	5.4545	0.1	5752.1
26704	1.0929	5.7273	0.1	5954.7
26705	1.1839	5.6364	0.1	5882.3
26706	1.1839	5.8182	0.1	6064.2
26707	1.0929	5.9091	0.1	6005.1
26708	1.275	0.27273	0.1	5990.4
26709	1.3661	0.18182	0.1	6075.1
26710	1.275	9.0909e-002	0.1	6043.2
26711	1.275	0.45455	0.1	5840.5
26712	1.3661	0.36364	0.1	5910.8
26713	1.275	0.63636	0.1	5725.4
26714	1.3661	0.54545	0.1	5786.9
26715	1.275	0.81818	0.1	5636.1
26716	1.3661	0.72727	0.1	5684.5
26717	1.275	1.	0.1	5573.
26718	1.3661	0.90909	0.1	5605.2
26719	1.275	1.1818	0.1	5534.2
26720	1.3661	1.0909	0.1	5549.2
26721	1.275	1.3636	0.1	5515.5
26722	1.3661	1.2727	0.1	5514.1
26723	1.275	1.5455	0.1	5511.7
26724	1.3661	1.4545	0.1	5495.8
26725	1.275	1.7273	0.1	5517.9
26726	1.3661	1.6364	0.1	5490.1
26727	1.275	1.9091	0.1	5529.9
26728	1.3661	1.8182	0.1	5492.7
26729	1.275	2.0909	0.1	5544.4
26730	1.3661	2.	0.1	5500.3
26731	1.275	2.2727	0.1	5558.9
26732	1.3661	2.1818	0.1	5510.1
26733	1.275	2.4545	0.1	5571.7
26734	1.3661	2.3636	0.1	5520.1
26735	1.275	2.6364	0.1	5581.6
26736	1.3661	2.5455	0.1	5528.7
26737	1.275	2.8182	0.1	5587.8
26738	1.3661	2.7273	0.1	5534.9
26739	1.275	3.	0.1	5589.9
26740	1.3661	2.9091	0.1	5538.2
26741	1.275	3.1818	0.1	5587.8
26742	1.3661	3.0909	0.1	5538.2
26743	1.275	3.3636	0.1	5581.6
26744	1.3661	3.2727	0.1	5534.9
26745	1.275	3.5455	0.1	5571.7
26746	1.3661	3.4545	0.1	5528.7
26747	1.275	3.7273	0.1	5558.9
26748	1.3661	3.6364	0.1	5520.1
26749	1.275	3.9091	0.1	5544.4
26750	1.3661	3.8182	0.1	5510.1
26751	1.275	4.0909	0.1	5529.9
26752	1.3661	4.	0.1	5500.3
26753	1.275	4.2727	0.1	5517.9
26754	1.3661	4.1818	0.1	5492.7
26755	1.275	4.4545	0.1	5511.7
26756	1.3661	4.3636	0.1	5490.1
26757	1.275	4.6364	0.1	5515.5
26758	1.3661	4.5455	0.1	5495.8
26759	1.275	4.8182	0.1	5534.2
26760	1.3661	4.7273	0.1	5514.1
26761	1.275	5.	0.1	5573.
26762	1.3661	4.9091	0.1	5549.2
26763	1.275	5.1818	0.1	5636.1
26764	1.3661	5.0909	0.1	5605.2
26765	1.275	5.3636	0.1	5725.4
26766	1.3661	5.2727	0.1	5684.5
26767	1.275	5.5455	0.1	5840.5
26768	1.3661	5.4545	0.1	5786.9
26769	1.275	5.7273	0.1	5990.4
26770	1.3661	5.6364	0.1	5910.8
26771	1.3661	5.8182	0.1	6075.1
26772	1.275	5.9091	0.1	6043.2
26773	1.4571	0.27273	0.1	5994.4
26774	1.5482	0.18182	0.1	6060.5
26775	1.4571	9.0909e-002	0.1	6049.
26776	1.4571	0.45455	0.1	5856.2
26777	1.5482	0.36364	0.1	5911.7
26778	1.4571	0.63636	0.1	5744.8
26779	1.5482	0.54545	0.1	5795.
26780	1.4571	0.81818	0.1	5652.5
26781	1.5482	0.72727	0.1	5694.3
26782	1.4571	1.	0.1	5580.3
26783	1.5482	0.90909	0.1	5610.9
26784	1.4571	1.1818	0.1	5528.1
26785	1.5482	1.0909	0.1	5546.
26786	1.4571	1.3636	0.1	5493.6
26787	1.5482	1.2727	0.1	5498.6
26788	1.4571	1.5455	0.1	5473.5
26789	1.5482	1.4545	0.1	5466.5
26790	1.4571	1.7273	0.1	5464.4
26791	1.5482	1.6364	0.1	5446.8
26792	1.4571	1.9091	0.1	5462.8
26793	1.5482	1.8182	0.1	5436.5
26794	1.4571	2.0909	0.1	5465.8
26795	1.5482	2.	0.1	5432.7
26796	1.4571	2.2727	0.1	5471.1
26797	1.5482	2.1818	0.1	5432.9
26798	1.4571	2.4545	0.1	5476.9
26799	1.5482	2.3636	0.1	5435.2
26800	1.4571	2.6364	0.1	5481.9
26801	1.5482	2.5455	0.1	5438.2
26802	1.4571	2.8182	0.1	5485.2
26803	1.5482	2.7273	0.1	5440.7
26804	1.4571	3.	0.1	5486.4
26805	1.5482	2.9091	0.1	5442.2
26806	1.4571	3.1818	0.1	5485.2
26807	1.5482	3.0909	0.1	5442.2
26808	1.4571	3.3636	0.1	5481.9
26809	1.5482	3.2727	0.1	5440.7
26810	1.4571	3.5455	0.1	5476.9
26811	1.5482	3.4545	0.1	5438.2
26812	1.4571	3.7273	0.1	5471.1
26813	1.5482	3.6364	0.1	5435.2
26814	1.4571	3.9091	0.1	5465.8
26815	1.5482	3.8182	0.1	5432.9
26816	1.4571	4.0909	0.1	5462.8
26817	1.5482	4.	0.1	5432.7
26818	1.4571	4.2727	0.1	5464.4
26819	1.5482	4.1818	0.1	5436.5
26820	1.4571	4.4545	0.1	5473.5
26821	1.5482	4.3636	0.1	5446.8
26822	1.4571	4.6364	0.1	5493.6
26823	1.5482	4.5455	0.1	5466.5
26824	1.4571	4.8182	0.1	5528.1
26825	1.5482	4.7273	0.1	5498.6
26826	1.4571	5.	0.1	5580.3
26827	1.5482	4.9091	0.1	5546.
26828	1.4571	5.1818	0.1	5652.5
26829	1.5482	5.0909	0.1	5610.9
26830	1.4571	5.3636	0.1	5744.8
26831	1.5482	5.2727	0.1	5694.3
26832	1.4571	5.5455	0.1	5856.2
26833	1.5482	5.4545	0.1	5795.
26834	1.4571	5.7273	0.1	5994.4
26835	1.5482	5.6364	0.1	5911.7
26836	1.5482	5.8182	0.1	6060.5
26837	1.4571	5.9091	0.1	6049.
26838	1.6393	0.27273	0.1	5977.1
26839	1.7304	0.18182	0.1	6028.8
26840	1.6393	9.0909e-002	0.1	6032.6
26841	1.6393	0.45455	0.1	5849.8
26842	1.7304	0.36364	0.1	5893.5
26843	1.6393	0.63636	0.1	5743.7
26844	1.7304	0.54545	0.1	5784.3
26845	1.6393	0.81818	0.1	5651.9
26846	1.7304	0.72727	0.1	5687.1
26847	1.6393	1.	0.1	5575.7
26848	1.7304	0.90909	0.1	5603.2
26849	1.6393	1.1818	0.1	5515.7
26850	1.7304	1.0909	0.1	5533.9
26851	1.6393	1.3636	0.1	5470.8
26852	1.7304	1.2727	0.1	5479.1
26853	1.6393	1.5455	0.1	5439.2
26854	1.7304	1.4545	0.1	5437.8
26855	1.6393	1.7273	0.1	5418.5
26856	1.7304	1.6364	0.1	5408.1
26857	1.6393	1.9091	0.1	5406.
26858	1.7304	1.8182	0.1	5387.8
26859	1.6393	2.0909	0.1	5399.5
26860	1.7304	2.	0.1	5374.8
26861	1.6393	2.2727	0.1	5396.8
26862	1.7304	2.1818	0.1	5367.1
26863	1.6393	2.4545	0.1	5396.4
26864	1.7304	2.3636	0.1	5362.9
26865	1.6393	2.6364	0.1	5396.9
26866	1.7304	2.5455	0.1	5360.9
26867	1.6393	2.8182	0.1	5397.6
26868	1.7304	2.7273	0.1	5360.1
26869	1.6393	3.	0.1	5397.8
26870	1.7304	2.9091	0.1	5359.9
26871	1.6393	3.1818	0.1	5397.6
26872	1.7304	3.0909	0.1	5359.9
26873	1.6393	3.3636	0.1	5396.9
26874	1.7304	3.2727	0.1	5360.1
26875	1.6393	3.5455	0.1	5396.4
26876	1.7304	3.4545	0.1	5360.9
26877	1.6393	3.7273	0.1	5396.8
26878	1.7304	3.6364	0.1	5362.9
26879	1.6393	3.9091	0.1	5399.5
26880	1.7304	3.8182	0.1	5367.1
26881	1.6393	4.0909	0.1	5406.
26882	1.7304	4.	0.1	5374.8
26883	1.6393	4.2727	0.1	5418.5
26884	1.7304	4.1818	0.1	5387.8
26885	1.6393	4.4545	0.1	5439.2
26886	1.7304	4.3636	0.1	5408.1
26887	1.6393	4.6364	0.1	5470.8
26888	1.7304	4.5455	0.1	5437.8
26889	1.6393	4.8182	0.1	5515.7
26890	1.7304	4.7273	0.1	5479.1
26891	1.6393	5.	0.1	5575.7
26892	1.7304	4.9091	0.1	5533.9
26893	1.6393	5.1818	0.1	5651.9
26894	1.7304	5.0909	0.1	5603.2
26895	1.6393	5.3636	0.1	5743.7
26896	1.7304	5.2727	0.1	5687.1
26897	1.6393	5.5455	0.1	5849.8
26898	1.7304	5.4545	0.1	5784.3
26899	1.6393	5.7273	0.1	5977.1
26900	1.7304	5.6364	0.1	5893.5
26901	1.7304	5.8182	0.1	6028.8
26902	1.6393	5.9091	0.1	6032.6
26903	1.8214	0.27273	0.1	5944.7
26904	1.9125	0.18182	0.1	5985.1
26905	1.8214	9.0909e-002	0.1	6000.8
26906	1.8214	0.45455	0.1	5827.5
26907	1.9125	0.36364	0.1	5861.9
26908	1.8214	0.63636	0.1	5727.1
26909	1.9125	0.54545	0.1	5759.8
26910	1.8214	0.81818	0.1	5637.8
26911	1.9125	0.72727	0.1	5667.1
26912	1.8214	1.	0.1	5560.8
26913	1.9125	0.90909	0.1	5584.8
26914	1.8214	1.1818	0.1	5496.7
26915	1.9125	1.0909	0.1	5514.
26916	1.8214	1.3636	0.1	5445.6
26917	1.9125	1.2727	0.1	5455.3
26918	1.8214	1.5455	0.1	5406.2
26919	1.9125	1.4545	0.1	5408.2
26920	1.8214	1.7273	0.1	5377.
26921	1.9125	1.6364	0.1	5371.6
26922	1.8214	1.9091	0.1	5356.3
26923	1.9125	1.8182	0.1	5344.1
26924	1.8214	2.0909	0.1	5342.2
26925	1.9125	2.	0.1	5324.1
26926	1.8214	2.2727	0.1	5333.
26927	1.9125	2.1818	0.1	5310.
26928	1.8214	2.4545	0.1	5327.3
26929	1.9125	2.3636	0.1	5300.5
26930	1.8214	2.6364	0.1	5324.
26931	1.9125	2.5455	0.1	5294.4
26932	1.8214	2.8182	0.1	5322.4
26933	1.9125	2.7273	0.1	5290.8
26934	1.8214	3.	0.1	5321.9
26935	1.9125	2.9091	0.1	5289.2
26936	1.8214	3.1818	0.1	5322.4
26937	1.9125	3.0909	0.1	5289.2
26938	1.8214	3.3636	0.1	5324.
26939	1.9125	3.2727	0.1	5290.8
26940	1.8214	3.5455	0.1	5327.3
26941	1.9125	3.4545	0.1	5294.4
26942	1.8214	3.7273	0.1	5333.
26943	1.9125	3.6364	0.1	5300.5
26944	1.8214	3.9091	0.1	5342.2
26945	1.9125	3.8182	0.1	5310.
26946	1.8214	4.0909	0.1	5356.3
26947	1.9125	4.	0.1	5324.1
26948	1.8214	4.2727	0.1	5377.
26949	1.9125	4.1818	0.1	5344.1
26950	1.8214	4.4545	0.1	5406.2
26951	1.9125	4.3636	0.1	5371.6
26952	1.8214	4.6364	0.1	5445.6
26953	1.9125	4.5455	0.1	5408.2
26954	1.8214	4.8182	0.1	5496.7
26955	1.9125	4.7273	0.1	5455.3
26956	1.8214	5.	0.1	5560.8
26957	1.9125	4.9091	0.1	5514.
26958	1.8214	5.1818	0.1	5637.8
26959	1.9125	5.0909	0.1	5584.8
26960	1.8214	5.3636	0.1	5727.1
26961	1.9125	5.2727	0.1	5667.1
26962	1.8214	5.5455	0.1	5827.5
26963	1.9125	5.4545	0.1	5759.8
26964	1.8214	5.7273	0.1	5944.7
26965	1.9125	5.6364	0.1	5861.9
26966	1.9125	5.8182	0.1	5985.1
26967	1.8214	5.9091	0.1	6000.8
26968	2.0036	0.27273	0.1	5901.9
26969	2.0946	0.18182	0.1	5933.3
26970	2.0036	9.0909e-002	0.1	5958.
26971	2.0036	0.45455	0.1	5793.9
26972	2.0946	0.36364	0.1	5820.8
26973	2.0036	0.63636	0.1	5699.4
26974	2.0946	0.54545	0.1	5725.5
26975	2.0036	0.81818	0.1	5613.6
26976	2.0946	0.72727	0.1	5637.6
26977	2.0036	1.	0.1	5537.5
26978	2.0946	0.90909	0.1	5557.9
26979	2.0036	1.1818	0.1	5472.1
26980	2.0946	1.0909	0.1	5487.6
26981	2.0036	1.3636	0.1	5417.4
26982	2.0946	1.2727	0.1	5427.3
26983	2.0036	1.5455	0.1	5373.1
26984	2.0946	1.4545	0.1	5376.9
26985	2.0036	1.7273	0.1	5338.2
26986	2.0946	1.6364	0.1	5335.9
26987	2.0036	1.9091	0.1	5311.5
26988	2.0946	1.8182	0.1	5303.5
26989	2.0036	2.0909	0.1	5291.7
26990	2.0946	2.	0.1	5278.4
26991	2.0036	2.2727	0.1	5277.4
26992	2.0946	2.1818	0.1	5259.6
26993	2.0036	2.4545	0.1	5267.5
26994	2.0946	2.3636	0.1	5246.
26995	2.0036	2.6364	0.1	5261.1
26996	2.0946	2.5455	0.1	5236.7
26997	2.0036	2.8182	0.1	5257.6
26998	2.0946	2.7273	0.1	5230.9
26999	2.0036	3.	0.1	5256.4
27000	2.0946	2.9091	0.1	5228.1
27001	2.0036	3.1818	0.1	5257.6
27002	2.0946	3.0909	0.1	5228.1
27003	2.0036	3.3636	0.1	5261.1
27004	2.0946	3.2727	0.1	5230.9
27005	2.0036	3.5455	0.1	5267.5
27006	2.0946	3.4545	0.1	5236.7
27007	2.0036	3.7273	0.1	5277.4
27008	2.0946	3.6364	0.1	5246.
27009	2.0036	3.9091	0.1	5291.7
27010	2.0946	3.8182	0.1	5259.6
27011	2.0036	4.0909	0.1	5311.5
27012	2.0946	4.	0.1	5278.4
27013	2.0036	4.2727	0.1	5338.2
27014	2.0946	4.1818	0.1	5303.5
27015	2.0036	4.4545	0.1	5373.1
27016	2.0946	4.3636	0.1	5335.9
27017	2.0036	4.6364	0.1	5417.4
27018	2.0946	4.5455	0.1	5376.9
27019	2.0036	4.8182	0.1	5472.1
27020	2.0946	4.7273	0.1	5427.3
27021	2.0036	5.	0.1	5537.5
27022	2.0946	4.9091	0.1	5487.6
27023	2.0036	5.1818	0.1	5613.6
27024	2.0946	5.0909	0.1	5557.9
27025	2.0036	5.3636	0.1	5699.4
27026	2.0946	5.2727	0.1	5637.6
27027	2.0036	5.5455	0.1	5793.9
27028	2.0946	5.4545	0.1	5725.5
27029	2.0036	5.7273	0.1	5901.9
27030	2.0946	5.6364	0.1	5820.8
27031	2.0946	5.8182	0.1	5933.3
27032	2.0036	5.9091	0.1	5958.
27033	2.1857	0.27273	0.1	5851.8
27034	2.2768	0.18182	0.1	5875.8
27035	2.1857	9.0909e-002	0.1	5907.4
27036	2.1857	0.45455	0.1	5752.1
27037	2.2768	0.36364	0.1	5772.8
27038	2.1857	0.63636	0.1	5663.4
27039	2.2768	0.54545	0.1	5683.9
27040	2.1857	0.81818	0.1	5581.6
27041	2.2768	0.72727	0.1	5601.
27042	2.1857	1.	0.1	5507.7
27043	2.2768	0.90909	0.1	5524.7
27044	2.1857	1.1818	0.1	5442.5
27045	2.2768	1.0909	0.1	5456.1
27046	2.1857	1.3636	0.1	5386.4
27047	2.2768	1.2727	0.1	5395.7
27048	2.1857	1.5455	0.1	5339.4
27049	2.2768	1.4545	0.1	5343.9
27050	2.1857	1.7273	0.1	5300.9
27051	2.2768	1.6364	0.1	5300.5
27052	2.1857	1.9091	0.1	5270.1
27053	2.2768	1.8182	0.1	5264.9
27054	2.1857	2.0909	0.1	5246.2
27055	2.2768	2.	0.1	5236.4
27056	2.1857	2.2727	0.1	5228.1
27057	2.2768	2.1818	0.1	5214.2
27058	2.1857	2.4545	0.1	5215.
27059	2.2768	2.3636	0.1	5197.6
27060	2.1857	2.6364	0.1	5206.3
27061	2.2768	2.5455	0.1	5185.9
27062	2.1857	2.8182	0.1	5201.3
27063	2.2768	2.7273	0.1	5178.3
27064	2.1857	3.	0.1	5199.6
27065	2.2768	2.9091	0.1	5174.7
27066	2.1857	3.1818	0.1	5201.3
27067	2.2768	3.0909	0.1	5174.7
27068	2.1857	3.3636	0.1	5206.3
27069	2.2768	3.2727	0.1	5178.3
27070	2.1857	3.5455	0.1	5215.
27071	2.2768	3.4545	0.1	5185.9
27072	2.1857	3.7273	0.1	5228.1
27073	2.2768	3.6364	0.1	5197.6
27074	2.1857	3.9091	0.1	5246.2
27075	2.2768	3.8182	0.1	5214.2
27076	2.1857	4.0909	0.1	5270.1
27077	2.2768	4.	0.1	5236.4
27078	2.1857	4.2727	0.1	5300.9
27079	2.2768	4.1818	0.1	5264.9
27080	2.1857	4.4545	0.1	5339.4
27081	2.2768	4.3636	0.1	5300.5
27082	2.1857	4.6364	0.1	5386.4
27083	2.2768	4.5455	0.1	5343.9
27084	2.1857	4.8182	0.1	5442.5
27085	2.2768	4.7273	0.1	5395.7
27086	2.1857	5.	0.1	5507.7
27087	2.2768	4.9091	0.1	5456.1
27088	2.1857	5.1818	0.1	5581.6
27089	2.2768	5.0909	0.1	5524.7
27090	2.1857	5.3636	0.1	5663.4
27091	2.2768	5.2727	0.1	5601.
27092	2.1857	5.5455	0.1	5752.1
27093	2.2768	5.4545	0.1	5683.9
27094	2.1857	5.7273	0.1	5851.8
27095	2.2768	5.6364	0.1	5772.8
27096	2.2768	5.8182	0.1	5875.8
27097	2.1857	5.9091	0.1	5907.4
27098	2.3679	0.27273	0.1	5796.5
27099	2.4589	0.18182	0.1	5814.5
27100	2.3679	9.0909e-002	0.1	5851.3
27101	2.3679	0.45455	0.1	5704.4
27102	2.4589	0.36364	0.1	5720.
27103	2.3679	0.63636	0.1	5621.3
27104	2.4589	0.54545	0.1	5637.1
27105	2.3679	0.81818	0.1	5543.8
27106	2.4589	0.72727	0.1	5559.2
27107	2.3679	1.	0.1	5472.8
27108	2.4589	0.90909	0.1	5486.6
27109	2.3679	1.1818	0.1	5409.
27110	2.4589	1.0909	0.1	5420.4
27111	2.3679	1.3636	0.1	5352.9
27112	2.4589	1.2727	0.1	5361.1
27113	2.3679	1.5455	0.1	5304.7
27114	2.4589	1.4545	0.1	5309.3
27115	2.3679	1.7273	0.1	5264.2
27116	2.4589	1.6364	0.1	5264.8
27117	2.3679	1.9091	0.1	5230.9
27118	2.4589	1.8182	0.1	5227.4
27119	2.3679	2.0909	0.1	5204.3
27120	2.4589	2.	0.1	5196.9
27121	2.3679	2.2727	0.1	5183.6
27122	2.4589	2.1818	0.1	5172.5
27123	2.3679	2.4545	0.1	5168.3
27124	2.4589	2.3636	0.1	5153.9
27125	2.3679	2.6364	0.1	5157.8
27126	2.4589	2.5455	0.1	5140.4
27127	2.3679	2.8182	0.1	5151.7
27128	2.4589	2.7273	0.1	5131.7
27129	2.3679	3.	0.1	5149.7
27130	2.4589	2.9091	0.1	5127.4
27131	2.3679	3.1818	0.1	5151.7
27132	2.4589	3.0909	0.1	5127.4
27133	2.3679	3.3636	0.1	5157.8
27134	2.4589	3.2727	0.1	5131.7
27135	2.3679	3.5455	0.1	5168.3
27136	2.4589	3.4545	0.1	5140.4
27137	2.3679	3.7273	0.1	5183.6
27138	2.4589	3.6364	0.1	5153.9
27139	2.3679	3.9091	0.1	5204.3
27140	2.4589	3.8182	0.1	5172.5
27141	2.3679	4.0909	0.1	5230.9
27142	2.4589	4.	0.1	5196.9
27143	2.3679	4.2727	0.1	5264.2
27144	2.4589	4.1818	0.1	5227.4
27145	2.3679	4.4545	0.1	5304.7
27146	2.4589	4.3636	0.1	5264.8
27147	2.3679	4.6364	0.1	5352.9
27148	2.4589	4.5455	0.1	5309.3
27149	2.3679	4.8182	0.1	5409.
27150	2.4589	4.7273	0.1	5361.1
27151	2.3679	5.	0.1	5472.8
27152	2.4589	4.9091	0.1	5420.4
27153	2.3679	5.1818	0.1	5543.8
27154	2.4589	5.0909	0.1	5486.6
27155	2.3679	5.3636	0.1	5621.3
27156	2.4589	5.2727	0.1	5559.2
27157	2.3679	5.5455	0.1	5704.4
27158	2.4589	5.4545	0.1	5637.1
27159	2.3679	5.7273	0.1	5796.5
27160	2.4589	5.6364	0.1	5720.
27161	2.4589	5.8182	0.1	5814.5
27162	2.3679	5.9091	0.1	5851.3
27163	2.55	0.27273	0.1	5737.7
27164	2.6411	0.18182	0.1	5750.6
27165	2.55	9.0909e-002	0.1	5791.4
27166	2.55	0.45455	0.1	5652.6
27167	2.6411	0.36364	0.1	5663.8
27168	2.55	0.63636	0.1	5574.8
27169	2.6411	0.54545	0.1	5586.6
27170	2.55	0.81818	0.1	5501.7
27171	2.6411	0.72727	0.1	5513.5
27172	2.55	1.	0.1	5434.
27173	2.6411	0.90909	0.1	5444.8
27174	2.55	1.1818	0.1	5372.3
27175	2.6411	1.0909	0.1	5381.5
27176	2.55	1.3636	0.1	5317.2
27177	2.6411	1.2727	0.1	5324.1
27178	2.55	1.5455	0.1	5269.1
27179	2.6411	1.4545	0.1	5273.
27180	2.55	1.7273	0.1	5227.8
27181	2.6411	1.6364	0.1	5228.6
27182	2.55	1.9091	0.1	5193.2
27183	2.6411	1.8182	0.1	5190.6
27184	2.55	2.0909	0.1	5165.
27185	2.6411	2.	0.1	5159.
27186	2.55	2.2727	0.1	5142.7
27187	2.6411	2.1818	0.1	5133.5
27188	2.55	2.4545	0.1	5125.9
27189	2.6411	2.3636	0.1	5113.6
27190	2.55	2.6364	0.1	5114.2
27191	2.6411	2.5455	0.1	5099.
27192	2.55	2.8182	0.1	5107.3
27193	2.6411	2.7273	0.1	5089.5
27194	2.55	3.	0.1	5105.
27195	2.6411	2.9091	0.1	5084.8
27196	2.55	3.1818	0.1	5107.3
27197	2.6411	3.0909	0.1	5084.8
27198	2.55	3.3636	0.1	5114.2
27199	2.6411	3.2727	0.1	5089.5
27200	2.55	3.5455	0.1	5125.9
27201	2.6411	3.4545	0.1	5099.
27202	2.55	3.7273	0.1	5142.7
27203	2.6411	3.6364	0.1	5113.6
27204	2.55	3.9091	0.1	5165.
27205	2.6411	3.8182	0.1	5133.5
27206	2.55	4.0909	0.1	5193.2
27207	2.6411	4.	0.1	5159.
27208	2.55	4.2727	0.1	5227.8
27209	2.6411	4.1818	0.1	5190.6
27210	2.55	4.4545	0.1	5269.1
27211	2.6411	4.3636	0.1	5228.6
27212	2.55	4.6364	0.1	5317.2
27213	2.6411	4.5455	0.1	5273.
27214	2.55	4.8182	0.1	5372.3
27215	2.6411	4.7273	0.1	5324.1
27216	2.55	5.	0.1	5434.
27217	2.6411	4.9091	0.1	5381.5
27218	2.55	5.1818	0.1	5501.7
27219	2.6411	5.0909	0.1	5444.8
27220	2.55	5.3636	0.1	5574.8
27221	2.6411	5.2727	0.1	5513.5
27222	2.55	5.5455	0.1	5652.6
27223	2.6411	5.4545	0.1	5586.6
27224	2.55	5.7273	0.1	5737.7
27225	2.6411	5.6364	0.1	5663.8
27226	2.6411	5.8182	0.1	5750.6
27227	2.55	5.9091	0.1	5791.4
27228	2.7321	0.27273	0.1	5676.6
27229	2.8232	0.18182	0.1	5685.2
27230	2.7321	9.0909e-002	0.1	5728.8
27231	2.7321	0.45455	0.1	5597.8
27232	2.8232	0.36364	0.1	5605.4
27233	2.7321	0.63636	0.1	5525.2
27234	2.8232	0.54545	0.1	5533.5
27235	2.7321	0.81818	0.1	5456.4
27236	2.8232	0.72727	0.1	5465.
27237	2.7321	1.	0.1	5392.2
27238	2.8232	0.90909	0.1	5400.3
27239	2.7321	1.1818	0.1	5333.1
27240	2.8232	1.0909	0.1	5340.1
27241	2.7321	1.3636	0.1	5279.7
27242	2.8232	1.2727	0.1	5285.
27243	2.7321	1.5455	0.1	5232.4
27244	2.8232	1.4545	0.1	5235.5
27245	2.7321	1.7273	0.1	5191.3
27246	2.8232	1.6364	0.1	5191.8
27247	2.7321	1.9091	0.1	5156.3
27248	2.8232	1.8182	0.1	5154.1
27249	2.7321	2.0909	0.1	5127.4
27250	2.8232	2.	0.1	5122.2
27251	2.7321	2.2727	0.1	5104.2
27252	2.8232	2.1818	0.1	5096.2
27253	2.7321	2.4545	0.1	5086.6
27254	2.8232	2.3636	0.1	5075.6
27255	2.7321	2.6364	0.1	5074.2
27256	2.8232	2.5455	0.1	5060.5
27257	2.7321	2.8182	0.1	5066.8
27258	2.8232	2.7273	0.1	5050.5
27259	2.7321	3.	0.1	5064.4
27260	2.8232	2.9091	0.1	5045.6
27261	2.7321	3.1818	0.1	5066.8
27262	2.8232	3.0909	0.1	5045.6
27263	2.7321	3.3636	0.1	5074.2
27264	2.8232	3.2727	0.1	5050.5
27265	2.7321	3.5455	0.1	5086.6
27266	2.8232	3.4545	0.1	5060.5
27267	2.7321	3.7273	0.1	5104.2
27268	2.8232	3.6364	0.1	5075.6
27269	2.7321	3.9091	0.1	5127.4
27270	2.8232	3.8182	0.1	5096.2
27271	2.7321	4.0909	0.1	5156.3
27272	2.8232	4.	0.1	5122.2
27273	2.7321	4.2727	0.1	5191.3
27274	2.8232	4.1818	0.1	5154.1
27275	2.7321	4.4545	0.1	5232.4
27276	2.8232	4.3636	0.1	5191.8
27277	2.7321	4.6364	0.1	5279.7
27278	2.8232	4.5455	0.1	5235.5
27279	2.7321	4.8182	0.1	5333.1
27280	2.8232	4.7273	0.1	5285.
27281	2.7321	5.	0.1	5392.2
27282	2.8232	4.9091	0.1	5340.1
27283	2.7321	5.1818	0.1	5456.4
27284	2.8232	5.0909	0.1	5400.3
27285	2.7321	5.3636	0.1	5525.2
27286	2.8232	5.2727	0.1	5465.
27287	2.7321	5.5455	0.1	5597.8
27288	2.8232	5.4545	0.1	5533.5
27289	2.7321	5.7273	0.1	5676.6
27290	2.8232	5.6364	0.1	5605.4
27291	2.8232	5.8182	0.1	5685.2
27292	2.7321	5.9091	0.1	5728.8
27293	2.9143	0.27273	0.1	5613.9
27294	3.0054	0.18182	0.1	5618.8
27295	2.9143	9.0909e-002	0.1	5664.5
27296	2.9143	0.45455	0.1	5541.
27297	3.0054	0.36364	0.1	5545.5
27298	2.9143	0.63636	0.1	5473.2
27299	3.0054	0.54545	0.1	5478.5
27300	2.9143	0.81818	0.1	5408.8
27301	3.0054	0.72727	0.1	5414.5
27302	2.9143	1.	0.1	5348.1
27303	3.0054	0.90909	0.1	5353.7
27304	2.9143	1.1818	0.1	5291.9
27305	3.0054	1.0909	0.1	5296.8
27306	2.9143	1.3636	0.1	5240.6
27307	3.0054	1.2727	0.1	5244.3
27308	2.9143	1.5455	0.1	5194.8
27309	3.0054	1.4545	0.1	5196.7
27310	2.9143	1.7273	0.1	5154.5
27311	3.0054	1.6364	0.1	5154.4
27312	2.9143	1.9091	0.1	5119.8
27313	3.0054	1.8182	0.1	5117.4
27314	2.9143	2.0909	0.1	5090.9
27315	3.0054	2.	0.1	5086.
27316	2.9143	2.2727	0.1	5067.5
27317	3.0054	2.1818	0.1	5060.
27318	2.9143	2.4545	0.1	5049.5
27319	3.0054	2.3636	0.1	5039.4
27320	2.9143	2.6364	0.1	5036.8
27321	3.0054	2.5455	0.1	5024.
27322	2.9143	2.8182	0.1	5029.2
27323	3.0054	2.7273	0.1	5013.9
27324	2.9143	3.	0.1	5026.7
27325	3.0054	2.9091	0.1	5008.9
27326	2.9143	3.1818	0.1	5029.2
27327	3.0054	3.0909	0.1	5008.9
27328	2.9143	3.3636	0.1	5036.8
27329	3.0054	3.2727	0.1	5013.9
27330	2.9143	3.5455	0.1	5049.5
27331	3.0054	3.4545	0.1	5024.
27332	2.9143	3.7273	0.1	5067.5
27333	3.0054	3.6364	0.1	5039.4
27334	2.9143	3.9091	0.1	5090.9
27335	3.0054	3.8182	0.1	5060.
27336	2.9143	4.0909	0.1	5119.8
27337	3.0054	4.	0.1	5086.
27338	2.9143	4.2727	0.1	5154.5
27339	3.0054	4.1818	0.1	5117.4
27340	2.9143	4.4545	0.1	5194.8
27341	3.0054	4.3636	0.1	5154.4
27342	2.9143	4.6364	0.1	5240.6
27343	3.0054	4.5455	0.1	5196.7
27344	2.9143	4.8182	0.1	5291.9
27345	3.0054	4.7273	0.1	5244.3
27346	2.9143	5.	0.1	5348.1
27347	3.0054	4.9091	0.1	5296.8
27348	2.9143	5.1818	0.1	5408.8
27349	3.0054	5.0909	0.1	5353.7
27350	2.9143	5.3636	0.1	5473.2
27351	3.0054	5.2727	0.1	5414.5
27352	2.9143	5.5455	0.1	5541.
27353	3.0054	5.4545	0.1	5478.5
27354	2.9143	5.7273	0.1	5613.9
27355	3.0054	5.6364	0.1	5545.5
27356	3.0054	5.8182	0.1	5618.8
27357	2.9143	5.9091	0.1	5664.5
27358	3.0964	0.27273	0.1	5550.3
27359	3.1875	0.18182	0.1	5552.1
27360	3.0964	9.0909e-002	0.1	5599.1
27361	3.0964	0.45455	0.1	5482.9
27362	3.1875	0.36364	0.1	5484.6
27363	3.0964	0.63636	0.1	5419.7
27364	3.1875	0.54545	0.1	5422.3
27365	3.0964	0.81818	0.1	5359.4
27366	3.1875	0.72727	0.1	5362.6
27367	3.0964	1.	0.1	5302.3
27368	3.1875	0.90909	0.1	5305.6
27369	3.0964	1.1818	0.1	5249.1
27370	3.1875	1.0909	0.1	5252.
27371	3.0964	1.3636	0.1	5200.3
27372	3.1875	1.2727	0.1	5202.3
27373	3.0964	1.5455	0.1	5156.2
27374	3.1875	1.4545	0.1	5156.9
27375	3.0964	1.7273	0.1	5117.2
27376	3.1875	1.6364	0.1	5116.3
27377	3.0964	1.9091	0.1	5083.5
27378	3.1875	1.8182	0.1	5080.5
27379	3.0964	2.0909	0.1	5055.
27380	3.1875	2.	0.1	5049.9
27381	3.0964	2.2727	0.1	5031.8
27382	3.1875	2.1818	0.1	5024.4
27383	3.0964	2.4545	0.1	5013.9
27384	3.1875	2.3636	0.1	5004.1
27385	3.0964	2.6364	0.1	5001.1
27386	3.1875	2.5455	0.1	4988.9
27387	3.0964	2.8182	0.1	4993.5
27388	3.1875	2.7273	0.1	4978.8
27389	3.0964	3.	0.1	4991.
27390	3.1875	2.9091	0.1	4973.8
27391	3.0964	3.1818	0.1	4993.5
27392	3.1875	3.0909	0.1	4973.8
27393	3.0964	3.3636	0.1	5001.1
27394	3.1875	3.2727	0.1	4978.8
27395	3.0964	3.5455	0.1	5013.9
27396	3.1875	3.4545	0.1	4988.9
27397	3.0964	3.7273	0.1	5031.8
27398	3.1875	3.6364	0.1	5004.1
27399	3.0964	3.9091	0.1	5055.
27400	3.1875	3.8182	0.1	5024.4
27401	3.0964	4.0909	0.1	5083.5
27402	3.1875	4.	0.1	5049.9
27403	3.0964	4.2727	0.1	5117.2
27404	3.1875	4.1818	0.1	5080.5
27405	3.0964	4.4545	0.1	5156.2
27406	3.1875	4.3636	0.1	5116.3
27407	3.0964	4.6364	0.1	5200.3
27408	3.1875	4.5455	0.1	5156.9
27409	3.0964	4.8182	0.1	5249.1
27410	3.1875	4.7273	0.1	5202.3
27411	3.0964	5.	0.1	5302.3
27412	3.1875	4.9091	0.1	5252.
27413	3.0964	5.1818	0.1	5359.4
27414	3.1875	5.0909	0.1	5305.6
27415	3.0964	5.3636	0.1	5419.7
27416	3.1875	5.2727	0.1	5362.6
27417	3.0964	5.5455	0.1	5482.9
27418	3.1875	5.4545	0.1	5422.3
27419	3.0964	5.7273	0.1	5550.3
27420	3.1875	5.6364	0.1	5484.6
27421	3.1875	5.8182	0.1	5552.1
27422	3.0964	5.9091	0.1	5599.1
27423	3.2786	0.27273	0.1	5486.3
27424	3.3696	0.18182	0.1	5485.4
27425	3.2786	9.0909e-002	0.1	5533.1
27426	3.2786	0.45455	0.1	5423.9
27427	3.3696	0.36364	0.1	5423.2
27428	3.2786	0.63636	0.1	5365.1
27429	3.3696	0.54545	0.1	5365.3
27430	3.2786	0.81818	0.1	5308.7
27431	3.3696	0.72727	0.1	5309.6
27432	3.2786	1.	0.1	5255.2
27433	3.3696	0.90909	0.1	5256.4
27434	3.2786	1.1818	0.1	5205.1
27435	3.3696	1.0909	0.1	5206.
27436	3.2786	1.3636	0.1	5158.9
27437	3.3696	1.2727	0.1	5159.2
27438	3.2786	1.5455	0.1	5116.9
27439	3.3696	1.4545	0.1	5116.2
27440	3.2786	1.7273	0.1	5079.5
27441	3.3696	1.6364	0.1	5077.5
27442	3.2786	1.9091	0.1	5046.9
27443	3.3696	1.8182	0.1	5043.3
27444	3.2786	2.0909	0.1	5019.3
27445	3.3696	2.	0.1	5013.8
27446	3.2786	2.2727	0.1	4996.7
27447	3.3696	2.1818	0.1	4989.1
27448	3.2786	2.4545	0.1	4979.1
27449	3.3696	2.3636	0.1	4969.3
27450	3.2786	2.6364	0.1	4966.5
27451	3.3696	2.5455	0.1	4954.5
27452	3.2786	2.8182	0.1	4959.
27453	3.3696	2.7273	0.1	4944.6
27454	3.2786	3.	0.1	4956.5
27455	3.3696	2.9091	0.1	4939.6
27456	3.2786	3.1818	0.1	4959.
27457	3.3696	3.0909	0.1	4939.6
27458	3.2786	3.3636	0.1	4966.5
27459	3.3696	3.2727	0.1	4944.6
27460	3.2786	3.5455	0.1	4979.1
27461	3.3696	3.4545	0.1	4954.5
27462	3.2786	3.7273	0.1	4996.7
27463	3.3696	3.6364	0.1	4969.3
27464	3.2786	3.9091	0.1	5019.3
27465	3.3696	3.8182	0.1	4989.1
27466	3.2786	4.0909	0.1	5046.9
27467	3.3696	4.	0.1	5013.8
27468	3.2786	4.2727	0.1	5079.5
27469	3.3696	4.1818	0.1	5043.3
27470	3.2786	4.4545	0.1	5116.9
27471	3.3696	4.3636	0.1	5077.5
27472	3.2786	4.6364	0.1	5158.9
27473	3.3696	4.5455	0.1	5116.2
27474	3.2786	4.8182	0.1	5205.1
27475	3.3696	4.7273	0.1	5159.2
27476	3.2786	5.	0.1	5255.2
27477	3.3696	4.9091	0.1	5206.
27478	3.2786	5.1818	0.1	5308.7
27479	3.3696	5.0909	0.1	5256.4
27480	3.2786	5.3636	0.1	5365.1
27481	3.3696	5.2727	0.1	5309.6
27482	3.2786	5.5455	0.1	5423.9
27483	3.3696	5.4545	0.1	5365.3
27484	3.2786	5.7273	0.1	5486.3
27485	3.3696	5.6364	0.1	5423.1
27486	3.3696	5.8182	0.1	5485.4
27487	3.2786	5.9091	0.1	5533.1
27488	3.4607	0.27273	0.1	5422.2
27489	3.5518	0.18182	0.1	5418.8
27490	3.4607	9.0909e-002	0.1	5466.9
27491	3.4607	0.45455	0.1	5364.5
27492	3.5518	0.36364	0.1	5361.5
27493	3.4607	0.63636	0.1	5309.8
27494	3.5518	0.54545	0.1	5307.8
27495	3.4607	0.81818	0.1	5257.2
27496	3.5518	0.72727	0.1	5256.
27497	3.4607	1.	0.1	5207.1
27498	3.5518	0.90909	0.1	5206.3
27499	3.4607	1.1818	0.1	5160.1
27500	3.5518	1.0909	0.1	5159.2
27501	3.4607	1.3636	0.1	5116.5
27502	3.5518	1.2727	0.1	5115.2
27503	3.4607	1.5455	0.1	5076.8
27504	3.5518	1.4545	0.1	5074.7
27505	3.4607	1.7273	0.1	5041.2
27506	3.5518	1.6364	0.1	5038.1
27507	3.4607	1.9091	0.1	5010.1
27508	3.5518	1.8182	0.1	5005.5
27509	3.4607	2.0909	0.1	4983.5
27510	3.5518	2.	0.1	4977.4
27511	3.4607	2.2727	0.1	4961.7
27512	3.5518	2.1818	0.1	4953.7
27513	3.4607	2.4545	0.1	4944.7
27514	3.5518	2.3636	0.1	4934.7
27515	3.4607	2.6364	0.1	4932.5
27516	3.5518	2.5455	0.1	4920.3
27517	3.4607	2.8182	0.1	4925.2
27518	3.5518	2.7273	0.1	4910.8
27519	3.4607	3.	0.1	4922.7
27520	3.5518	2.9091	0.1	4906.
27521	3.4607	3.1818	0.1	4925.2
27522	3.5518	3.0909	0.1	4906.
27523	3.4607	3.3636	0.1	4932.5
27524	3.5518	3.2727	0.1	4910.8
27525	3.4607	3.5455	0.1	4944.7
27526	3.5518	3.4545	0.1	4920.3
27527	3.4607	3.7273	0.1	4961.7
27528	3.5518	3.6364	0.1	4934.7
27529	3.4607	3.9091	0.1	4983.5
27530	3.5518	3.8182	0.1	4953.7
27531	3.4607	4.0909	0.1	5010.1
27532	3.5518	4.	0.1	4977.4
27533	3.4607	4.2727	0.1	5041.2
27534	3.5518	4.1818	0.1	5005.5
27535	3.4607	4.4545	0.1	5076.8
27536	3.5518	4.3636	0.1	5038.1
27537	3.4607	4.6364	0.1	5116.5
27538	3.5518	4.5455	0.1	5074.7
27539	3.4607	4.8182	0.1	5160.1
27540	3.5518	4.7273	0.1	5115.2
27541	3.4607	5.	0.1	5207.1
27542	3.5518	4.9091	0.1	5159.2
27543	3.4607	5.1818	0.1	5257.2
27544	3.5518	5.0909	0.1	5206.3
27545	3.4607	5.3636	0.1	5309.8
27546	3.5518	5.2727	0.1	5256.
27547	3.4607	5.5455	0.1	5364.5
27548	3.5518	5.4545	0.1	5307.8
27549	3.4607	5.7273	0.1	5422.2
27550	3.5518	5.6364	0.1	5361.5
27551	3.5518	5.8182	0.1	5418.8
27552	3.4607	5.9091	0.1	5466.9
27553	3.6429	0.27273	0.1	5358.1
27554	3.7339	0.18182	0.1	5352.6
27555	3.6429	9.0909e-002	0.1	5400.7
27556	3.6429	0.45455	0.1	5304.8
27557	3.7339	0.36364	0.1	5299.9
27558	3.6429	0.63636	0.1	5254.
27559	3.7339	0.54545	0.1	5250.1
27560	3.6429	0.81818	0.1	5205.1
27561	3.7339	0.72727	0.1	5201.9
27562	3.6429	1.	0.1	5158.3
27563	3.7339	0.90909	0.1	5155.6
27564	3.6429	1.1818	0.1	5114.3
27565	3.7339	1.0909	0.1	5111.7
27566	3.6429	1.3636	0.1	5073.4
27567	3.7339	1.2727	0.1	5070.5
27568	3.6429	1.5455	0.1	5036.
27569	3.7339	1.4545	0.1	5032.5
27570	3.6429	1.7273	0.1	5002.3
27571	3.7339	1.6364	0.1	4998.
27572	3.6429	1.9091	0.1	4972.8
27573	3.7339	1.8182	0.1	4967.2
27574	3.6429	2.0909	0.1	4947.5
27575	3.7339	2.	0.1	4940.5
27576	3.6429	2.2727	0.1	4926.6
27577	3.7339	2.1818	0.1	4918.
27578	3.6429	2.4545	0.1	4910.3
27579	3.7339	2.3636	0.1	4899.8
27580	3.6429	2.6364	0.1	4898.6
27581	3.7339	2.5455	0.1	4886.1
27582	3.6429	2.8182	0.1	4891.5
27583	3.7339	2.7273	0.1	4877.
27584	3.6429	3.	0.1	4889.2
27585	3.7339	2.9091	0.1	4872.4
27586	3.6429	3.1818	0.1	4891.5
27587	3.7339	3.0909	0.1	4872.4
27588	3.6429	3.3636	0.1	4898.6
27589	3.7339	3.2727	0.1	4877.
27590	3.6429	3.5455	0.1	4910.3
27591	3.7339	3.4545	0.1	4886.1
27592	3.6429	3.7273	0.1	4926.6
27593	3.7339	3.6364	0.1	4899.8
27594	3.6429	3.9091	0.1	4947.5
27595	3.7339	3.8182	0.1	4918.
27596	3.6429	4.0909	0.1	4972.8
27597	3.7339	4.	0.1	4940.5
27598	3.6429	4.2727	0.1	5002.3
27599	3.7339	4.1818	0.1	4967.2
27600	3.6429	4.4545	0.1	5036.
27601	3.7339	4.3636	0.1	4998.
27602	3.6429	4.6364	0.1	5073.4
27603	3.7339	4.5455	0.1	5032.5
27604	3.6429	4.8182	0.1	5114.3
27605	3.7339	4.7273	0.1	5070.5
27606	3.6429	5.	0.1	5158.3
27607	3.7339	4.9091	0.1	5111.7
27608	3.6429	5.1818	0.1	5205.1
27609	3.7339	5.0909	0.1	5155.6
27610	3.6429	5.3636	0.1	5254.
27611	3.7339	5.2727	0.1	5201.9
27612	3.6429	5.5455	0.1	5304.8
27613	3.7339	5.4545	0.1	5250.1
27614	3.6429	5.7273	0.1	5358.1
27615	3.7339	5.6364	0.1	5299.9
27616	3.7339	5.8182	0.1	5352.6
27617	3.6429	5.9091	0.1	5400.7
27618	3.825	0.27273	0.1	5294.3
27619	3.9161	0.18182	0.1	5286.9
27620	3.825	9.0909e-002	0.1	5334.6
27621	3.825	0.45455	0.1	5245.1
27622	3.9161	0.36364	0.1	5238.4
27623	3.825	0.63636	0.1	5198.
27624	3.9161	0.54545	0.1	5192.2
27625	3.825	0.81818	0.1	5152.5
27626	3.9161	0.72727	0.1	5147.5
27627	3.825	1.	0.1	5109.
27628	3.9161	0.90909	0.1	5104.5
27629	3.825	1.1818	0.1	5067.9
27630	3.9161	1.0909	0.1	5063.7
27631	3.825	1.3636	0.1	5029.6
27632	3.9161	1.2727	0.1	5025.2
27633	3.825	1.5455	0.1	4994.5
27634	3.9161	1.4545	0.1	4989.7
27635	3.825	1.7273	0.1	4962.9
27636	3.9161	1.6364	0.1	4957.3
27637	3.825	1.9091	0.1	4934.9
27638	3.9161	1.8182	0.1	4928.3
27639	3.825	2.0909	0.1	4911.
27640	3.9161	2.	0.1	4903.1
27641	3.825	2.2727	0.1	4891.2
27642	3.9161	2.1818	0.1	4881.8
27643	3.825	2.4545	0.1	4875.7
27644	3.9161	2.3636	0.1	4864.6
27645	3.825	2.6364	0.1	4864.5
27646	3.9161	2.5455	0.1	4851.6
27647	3.825	2.8182	0.1	4857.8
27648	3.9161	2.7273	0.1	4842.9
27649	3.825	3.	0.1	4855.5
27650	3.9161	2.9091	0.1	4838.6
27651	3.825	3.1818	0.1	4857.8
27652	3.9161	3.0909	0.1	4838.6
27653	3.825	3.3636	0.1	4864.5
27654	3.9161	3.2727	0.1	4842.9
27655	3.825	3.5455	0.1	4875.7
27656	3.9161	3.4545	0.1	4851.6
27657	3.825	3.7273	0.1	4891.2
27658	3.9161	3.6364	0.1	4864.6
27659	3.825	3.9091	0.1	4911.
27660	3.9161	3.8182	0.1	4881.8
27661	3.825	4.0909	0.1	4934.9
27662	3.9161	4.	0.1	4903.1
27663	3.825	4.2727	0.1	4962.9
27664	3.9161	4.1818	0.1	4928.3
27665	3.825	4.4545	0.1	4994.5
27666	3.9161	4.3636	0.1	4957.3
27667	3.825	4.6364	0.1	5029.6
27668	3.9161	4.5455	0.1	4989.7
27669	3.825	4.8182	0.1	5067.9
27670	3.9161	4.7273	0.1	5025.2
27671	3.825	5.	0.1	5109.
27672	3.9161	4.9091	0.1	5063.7
27673	3.825	5.1818	0.1	5152.5
27674	3.9161	5.0909	0.1	5104.5
27675	3.825	5.3636	0.1	5198.
27676	3.9161	5.2727	0.1	5147.5
27677	3.825	5.5455	0.1	5245.1
27678	3.9161	5.4545	0.1	5192.2
27679	3.825	5.7273	0.1	5294.3
27680	3.9161	5.6364	0.1	5238.4
27681	3.9161	5.8182	0.1	5286.9
27682	3.825	5.9091	0.1	5334.6
27683	4.0071	0.27273	0.1	5230.9
27684	4.0982	0.18182	0.1	5221.7
27685	4.0071	9.0909e-002	0.1	5268.9
27686	4.0071	0.45455	0.1	5185.5
27687	4.0982	0.36364	0.1	5177.1
27688	4.0071	0.63636	0.1	5141.8
27689	4.0982	0.54545	0.1	5134.4
27690	4.0071	0.81818	0.1	5099.6
27691	4.0982	0.72727	0.1	5093.
27692	4.0071	1.	0.1	5059.2
27693	4.0982	0.90909	0.1	5053.1
27694	4.0071	1.1818	0.1	5021.
27695	4.0982	1.0909	0.1	5015.1
27696	4.0071	1.3636	0.1	4985.3
27697	4.0982	1.2727	0.1	4979.4
27698	4.0071	1.5455	0.1	4952.4
27699	4.0982	1.4545	0.1	4946.2
27700	4.0071	1.7273	0.1	4922.7
27701	4.0982	1.6364	0.1	4915.9
27702	4.0071	1.9091	0.1	4896.5
27703	4.0982	1.8182	0.1	4888.8
27704	4.0071	2.0909	0.1	4874.
27705	4.0982	2.	0.1	4865.2
27706	4.0071	2.2727	0.1	4855.3
27707	4.0982	2.1818	0.1	4845.1
27708	4.0071	2.4545	0.1	4840.6
27709	4.0982	2.3636	0.1	4828.9
27710	4.0071	2.6364	0.1	4830.
27711	4.0982	2.5455	0.1	4816.7
27712	4.0071	2.8182	0.1	4823.7
27713	4.0982	2.7273	0.1	4808.4
27714	4.0071	3.	0.1	4821.5
27715	4.0982	2.9091	0.1	4804.3
27716	4.0071	3.1818	0.1	4823.7
27717	4.0982	3.0909	0.1	4804.3
27718	4.0071	3.3636	0.1	4830.
27719	4.0982	3.2727	0.1	4808.4
27720	4.0071	3.5455	0.1	4840.6
27721	4.0982	3.4545	0.1	4816.7
27722	4.0071	3.7273	0.1	4855.3
27723	4.0982	3.6364	0.1	4828.9
27724	4.0071	3.9091	0.1	4874.
27725	4.0982	3.8182	0.1	4845.1
27726	4.0071	4.0909	0.1	4896.5
27727	4.0982	4.	0.1	4865.2
27728	4.0071	4.2727	0.1	4922.7
27729	4.0982	4.1818	0.1	4888.8
27730	4.0071	4.4545	0.1	4952.4
27731	4.0982	4.3636	0.1	4915.9
27732	4.0071	4.6364	0.1	4985.3
27733	4.0982	4.5455	0.1	4946.2
27734	4.0071	4.8182	0.1	5021.
27735	4.0982	4.7273	0.1	4979.4
27736	4.0071	5.	0.1	5059.2
27737	4.0982	4.9091	0.1	5015.1
27738	4.0071	5.1818	0.1	5099.6
27739	4.0982	5.0909	0.1	5053.1
27740	4.0071	5.3636	0.1	5141.8
27741	4.0982	5.2727	0.1	5093.
27742	4.0071	5.5455	0.1	5185.5
27743	4.0982	5.4545	0.1	5134.4
27744	4.0071	5.7273	0.1	5230.9
27745	4.0982	5.6364	0.1	5177.1
27746	4.0982	5.8182	0.1	5221.7
27747	4.0071	5.9091	0.1	5268.9
27748	4.1893	0.27273	0.1	5167.9
27749	4.2804	0.18182	0.1	5157.1
27750	4.1893	9.0909e-002	0.1	5203.6
27751	4.1893	0.45455	0.1	5126.
27752	4.2804	0.36364	0.1	5116.1
27753	4.1893	0.63636	0.1	5085.6
27754	4.2804	0.54545	0.1	5076.7
27755	4.1893	0.81818	0.1	5046.5
27756	4.2804	0.72727	0.1	5038.4
27757	4.1893	1.	0.1	5009.1
27758	4.2804	0.90909	0.1	5001.5
27759	4.1893	1.1818	0.1	4973.6
27760	4.2804	1.0909	0.1	4966.3
27761	4.1893	1.3636	0.1	4940.4
27762	4.2804	1.2727	0.1	4933.1
27763	4.1893	1.5455	0.1	4909.7
27764	4.2804	1.4545	0.1	4902.2
27765	4.1893	1.7273	0.1	4882.
27766	4.2804	1.6364	0.1	4874.
27767	4.1893	1.9091	0.1	4857.5
27768	4.2804	1.8182	0.1	4848.7
27769	4.1893	2.0909	0.1	4836.3
27770	4.2804	2.	0.1	4826.6
27771	4.1893	2.2727	0.1	4818.8
27772	4.2804	2.1818	0.1	4807.8
27773	4.1893	2.4545	0.1	4805.
27774	4.2804	2.3636	0.1	4792.6
27775	4.1893	2.6364	0.1	4795.
27776	4.2804	2.5455	0.1	4781.1
27777	4.1893	2.8182	0.1	4789.
27778	4.2804	2.7273	0.1	4773.3
27779	4.1893	3.	0.1	4787.
27780	4.2804	2.9091	0.1	4769.4
27781	4.1893	3.1818	0.1	4789.
27782	4.2804	3.0909	0.1	4769.4
27783	4.1893	3.3636	0.1	4795.
27784	4.2804	3.2727	0.1	4773.3
27785	4.1893	3.5455	0.1	4805.
27786	4.2804	3.4545	0.1	4781.1
27787	4.1893	3.7273	0.1	4818.8
27788	4.2804	3.6364	0.1	4792.6
27789	4.1893	3.9091	0.1	4836.3
27790	4.2804	3.8182	0.1	4807.8
27791	4.1893	4.0909	0.1	4857.5
27792	4.2804	4.	0.1	4826.6
27793	4.1893	4.2727	0.1	4882.
27794	4.2804	4.1818	0.1	4848.7
27795	4.1893	4.4545	0.1	4909.7
27796	4.2804	4.3636	0.1	4874.
27797	4.1893	4.6364	0.1	4940.4
27798	4.2804	4.5455	0.1	4902.2
27799	4.1893	4.8182	0.1	4973.6
27800	4.2804	4.7273	0.1	4933.1
27801	4.1893	5.	0.1	5009.1
27802	4.2804	4.9091	0.1	4966.3
27803	4.1893	5.1818	0.1	5046.5
27804	4.2804	5.0909	0.1	5001.5
27805	4.1893	5.3636	0.1	5085.6
27806	4.2804	5.2727	0.1	5038.4
27807	4.1893	5.5455	0.1	5126.
27808	4.2804	5.4545	0.1	5076.7
27809	4.1893	5.7273	0.1	5167.9
27810	4.2804	5.6364	0.1	5116.1
27811	4.2804	5.8182	0.1	5157.1
27812	4.1893	5.9091	0.1	5203.6
27813	4.3714	0.27273	0.1	5105.3
27814	4.4625	0.18182	0.1	5093.
27815	4.3714	9.0909e-002	0.1	5138.7
27816	4.3714	0.45455	0.1	5066.7
27817	4.4625	0.36364	0.1	5055.4
27818	4.3714	0.63636	0.1	5029.5
27819	4.4625	0.54545	0.1	5019.1
27820	4.3714	0.81818	0.1	4993.4
27821	4.4625	0.72727	0.1	4983.8
27822	4.3714	1.	0.1	4958.7
27823	4.4625	0.90909	0.1	4949.7
27824	4.3714	1.1818	0.1	4925.8
27825	4.4625	1.0909	0.1	4917.1
27826	4.3714	1.3636	0.1	4895.
27827	4.4625	1.2727	0.1	4886.4
27828	4.3714	1.5455	0.1	4866.5
27829	4.4625	1.4545	0.1	4857.8
27830	4.3714	1.7273	0.1	4840.7
27831	4.4625	1.6364	0.1	4831.6
27832	4.3714	1.9091	0.1	4817.8
27833	4.4625	1.8182	0.1	4808.
27834	4.3714	2.0909	0.1	4798.1
27835	4.4625	2.	0.1	4787.4
27836	4.3714	2.2727	0.1	4781.6
27837	4.4625	2.1818	0.1	4769.8
27838	4.3714	2.4545	0.1	4768.7
27839	4.4625	2.3636	0.1	4755.6
27840	4.3714	2.6364	0.1	4759.4
27841	4.4625	2.5455	0.1	4744.8
27842	4.3714	2.8182	0.1	4753.7
27843	4.4625	2.7273	0.1	4737.6
27844	4.3714	3.	0.1	4751.8
27845	4.4625	2.9091	0.1	4733.9
27846	4.3714	3.1818	0.1	4753.7
27847	4.4625	3.0909	0.1	4733.9
27848	4.3714	3.3636	0.1	4759.4
27849	4.4625	3.2727	0.1	4737.6
27850	4.3714	3.5455	0.1	4768.7
27851	4.4625	3.4545	0.1	4744.8
27852	4.3714	3.7273	0.1	4781.6
27853	4.4625	3.6364	0.1	4755.6
27854	4.3714	3.9091	0.1	4798.1
27855	4.4625	3.8182	0.1	4769.8
27856	4.3714	4.0909	0.1	4817.8
27857	4.4625	4.	0.1	4787.4
27858	4.3714	4.2727	0.1	4840.7
27859	4.4625	4.1818	0.1	4808.
27860	4.3714	4.4545	0.1	4866.5
27861	4.4625	4.3636	0.1	4831.6
27862	4.3714	4.6364	0.1	4895.
27863	4.4625	4.5455	0.1	4857.8
27864	4.3714	4.8182	0.1	4925.8
27865	4.4625	4.7273	0.1	4886.4
27866	4.3714	5.	0.1	4958.7
27867	4.4625	4.9091	0.1	4917.1
27868	4.3714	5.1818	0.1	4993.4
27869	4.4625	5.0909	0.1	4949.7
27870	4.3714	5.3636	0.1	5029.4
27871	4.4625	5.2727	0.1	4983.8
27872	4.3714	5.5455	0.1	5066.7
27873	4.4625	5.4545	0.1	5019.1
27874	4.3714	5.7273	0.1	5105.3
27875	4.4625	5.6364	0.1	5055.4
27876	4.4625	5.8182	0.1	5093.
27877	4.3714	5.9091	0.1	5138.7
27878	4.5536	0.27273	0.1	5043.1
27879	4.6446	0.18182	0.1	5029.4
27880	4.5536	9.0909e-002	0.1	5074.2
27881	4.5536	0.45455	0.1	5007.7
27882	4.6446	0.36364	0.1	4995.
27883	4.5536	0.63636	0.1	4973.4
27884	4.6446	0.54545	0.1	4961.6
27885	4.5536	0.81818	0.1	4940.1
27886	4.6446	0.72727	0.1	4929.1
27887	4.5536	1.	0.1	4908.1
27888	4.6446	0.90909	0.1	4897.8
27889	4.5536	1.1818	0.1	4877.7
27890	4.6446	1.0909	0.1	4867.7
27891	4.5536	1.3636	0.1	4849.2
27892	4.6446	1.2727	0.1	4839.3
27893	4.5536	1.5455	0.1	4822.8
27894	4.6446	1.4545	0.1	4812.9
27895	4.5536	1.7273	0.1	4798.9
27896	4.6446	1.6364	0.1	4788.6
27897	4.5536	1.9091	0.1	4777.6
27898	4.6446	1.8182	0.1	4766.7
27899	4.5536	2.0909	0.1	4759.1
27900	4.6446	2.	0.1	4747.5
27901	4.5536	2.2727	0.1	4743.8
27902	4.6446	2.1818	0.1	4731.2
27903	4.5536	2.4545	0.1	4731.7
27904	4.6446	2.3636	0.1	4717.9
27905	4.5536	2.6364	0.1	4723.
27906	4.6446	2.5455	0.1	4707.9
27907	4.5536	2.8182	0.1	4717.7
27908	4.6446	2.7273	0.1	4701.1
27909	4.5536	3.	0.1	4716.
27910	4.6446	2.9091	0.1	4697.7
27911	4.5536	3.1818	0.1	4717.7
27912	4.6446	3.0909	0.1	4697.7
27913	4.5536	3.3636	0.1	4723.
27914	4.6446	3.2727	0.1	4701.1
27915	4.5536	3.5455	0.1	4731.7
27916	4.6446	3.4545	0.1	4707.9
27917	4.5536	3.7273	0.1	4743.8
27918	4.6446	3.6364	0.1	4717.9
27919	4.5536	3.9091	0.1	4759.1
27920	4.6446	3.8182	0.1	4731.2
27921	4.5536	4.0909	0.1	4777.6
27922	4.6446	4.	0.1	4747.5
27923	4.5536	4.2727	0.1	4798.9
27924	4.6446	4.1818	0.1	4766.7
27925	4.5536	4.4545	0.1	4822.8
27926	4.6446	4.3636	0.1	4788.6
27927	4.5536	4.6364	0.1	4849.2
27928	4.6446	4.5455	0.1	4812.9
27929	4.5536	4.8182	0.1	4877.7
27930	4.6446	4.7273	0.1	4839.3
27931	4.5536	5.	0.1	4908.1
27932	4.6446	4.9091	0.1	4867.7
27933	4.5536	5.1818	0.1	4940.1
27934	4.6446	5.0909	0.1	4897.8
27935	4.5536	5.3636	0.1	4973.4
27936	4.6446	5.2727	0.1	4929.1
27937	4.5536	5.5455	0.1	5007.7
27938	4.6446	5.4545	0.1	4961.6
27939	4.5536	5.7273	0.1	5043.1
27940	4.6446	5.6364	0.1	4995.
27941	4.6446	5.8182	0.1	5029.4
27942	4.5536	5.9091	0.1	5074.2
27943	4.7357	0.27273	0.1	4981.3
27944	4.8268	0.18182	0.1	4966.3
27945	4.7357	9.0909e-002	0.1	5010.1
27946	4.7357	0.45455	0.1	4948.8
27947	4.8268	0.36364	0.1	4934.8
27948	4.7357	0.63636	0.1	4917.4
27949	4.8268	0.54545	0.1	4904.3
27950	4.7357	0.81818	0.1	4886.8
27951	4.8268	0.72727	0.1	4874.5
27952	4.7357	1.	0.1	4857.4
27953	4.8268	0.90909	0.1	4845.7
27954	4.7357	1.1818	0.1	4829.4
27955	4.8268	1.0909	0.1	4818.1
27956	4.7357	1.3636	0.1	4803.
27957	4.8268	1.2727	0.1	4792.
27958	4.7357	1.5455	0.1	4778.6
27959	4.8268	1.4545	0.1	4767.6
27960	4.7357	1.7273	0.1	4756.5
27961	4.8268	1.6364	0.1	4745.1
27962	4.7357	1.9091	0.1	4736.7
27963	4.8268	1.8182	0.1	4724.9
27964	4.7357	2.0909	0.1	4719.6
27965	4.8268	2.	0.1	4707.1
27966	4.7357	2.2727	0.1	4705.3
27967	4.8268	2.1818	0.1	4691.9
27968	4.7357	2.4545	0.1	4694.1
27969	4.8268	2.3636	0.1	4679.6
27970	4.7357	2.6364	0.1	4685.9
27971	4.8268	2.5455	0.1	4670.2
27972	4.7357	2.8182	0.1	4681.
27973	4.8268	2.7273	0.1	4663.9
27974	4.7357	3.	0.1	4679.4
27975	4.8268	2.9091	0.1	4660.7
27976	4.7357	3.1818	0.1	4681.
27977	4.8268	3.0909	0.1	4660.7
27978	4.7357	3.3636	0.1	4685.9
27979	4.8268	3.2727	0.1	4663.9
27980	4.7357	3.5455	0.1	4694.1
27981	4.8268	3.4545	0.1	4670.2
27982	4.7357	3.7273	0.1	4705.3
27983	4.8268	3.6364	0.1	4679.6
27984	4.7357	3.9091	0.1	4719.6
27985	4.8268	3.8182	0.1	4691.9
27986	4.7357	4.0909	0.1	4736.7
27987	4.8268	4.	0.1	4707.1
27988	4.7357	4.2727	0.1	4756.5
27989	4.8268	4.1818	0.1	4724.9
27990	4.7357	4.4545	0.1	4778.6
27991	4.8268	4.3636	0.1	4745.1
27992	4.7357	4.6364	0.1	4803.
27993	4.8268	4.5455	0.1	4767.6
27994	4.7357	4.8182	0.1	4829.4
27995	4.8268	4.7273	0.1	4792.
27996	4.7357	5.	0.1	4857.4
27997	4.8268	4.9091	0.1	4818.1
27998	4.7357	5.1818	0.1	4886.8
27999	4.8268	5.0909	0.1	4845.7
28000	4.7357	5.3636	0.1	4917.4
28001	4.8268	5.2727	0.1	4874.5
28002	4.7357	5.5455	0.1	4948.8
28003	4.8268	5.4545	0.1	4904.3
28004	4.7357	5.7273	0.1	4981.3
28005	4.8268	5.6364	0.1	4934.8
28006	4.8268	5.8182	0.1	4966.3
28007	4.7357	5.9091	0.1	5010.1
28008	4.9179	0.27273	0.1	4919.8
28009	5.0089	0.18182	0.1	4903.5
28010	4.9179	9.0909e-002	0.1	4946.3
28011	4.9179	0.45455	0.1	4890.2
28012	5.0089	0.36364	0.1	4874.9
28013	4.9179	0.63636	0.1	4861.4
28014	5.0089	0.54545	0.1	4847.
28015	4.9179	0.81818	0.1	4833.4
28016	5.0089	0.72727	0.1	4819.9
28017	4.9179	1.	0.1	4806.5
28018	5.0089	0.90909	0.1	4793.6
28019	4.9179	1.1818	0.1	4780.8
28020	5.0089	1.0909	0.1	4768.3
28021	4.9179	1.3636	0.1	4756.5
28022	5.0089	1.2727	0.1	4744.4
28023	4.9179	1.5455	0.1	4734.1
28024	5.0089	1.4545	0.1	4721.9
28025	4.9179	1.7273	0.1	4713.6
28026	5.0089	1.6364	0.1	4701.2
28027	4.9179	1.9091	0.1	4695.3
28028	5.0089	1.8182	0.1	4682.6
28029	4.9179	2.0909	0.1	4679.5
28030	5.0089	2.	0.1	4666.1
28031	4.9179	2.2727	0.1	4666.2
28032	5.0089	2.1818	0.1	4652.1
28033	4.9179	2.4545	0.1	4655.8
28034	5.0089	2.3636	0.1	4640.6
28035	4.9179	2.6364	0.1	4648.2
28036	5.0089	2.5455	0.1	4631.9
28037	4.9179	2.8182	0.1	4643.6
28038	5.0089	2.7273	0.1	4626.1
28039	4.9179	3.	0.1	4642.1
28040	5.0089	2.9091	0.1	4623.1
28041	4.9179	3.1818	0.1	4643.6
28042	5.0089	3.0909	0.1	4623.1
28043	4.9179	3.3636	0.1	4648.2
28044	5.0089	3.2727	0.1	4626.1
28045	4.9179	3.5455	0.1	4655.8
28046	5.0089	3.4545	0.1	4631.9
28047	4.9179	3.7273	0.1	4666.2
28048	5.0089	3.6364	0.1	4640.6
28049	4.9179	3.9091	0.1	4679.5
28050	5.0089	3.8182	0.1	4652.1
28051	4.9179	4.0909	0.1	4695.3
28052	5.0089	4.	0.1	4666.1
28053	4.9179	4.2727	0.1	4713.6
28054	5.0089	4.1818	0.1	4682.6
28055	4.9179	4.4545	0.1	4734.1
28056	5.0089	4.3636	0.1	4701.2
28057	4.9179	4.6364	0.1	4756.5
28058	5.0089	4.5455	0.1	4721.9
28059	4.9179	4.8182	0.1	4780.8
28060	5.0089	4.7273	0.1	4744.4
28061	4.9179	5.	0.1	4806.5
28062	5.0089	4.9091	0.1	4768.3
28063	4.9179	5.1818	0.1	4833.4
28064	5.0089	5.0909	0.1	4793.6
28065	4.9179	5.3636	0.1	4861.4
28066	5.0089	5.2727	0.1	4819.9
28067	4.9179	5.5455	0.1	4890.2
28068	5.0089	5.4545	0.1	4847.
28069	4.9179	5.7273	0.1	4919.8
28070	5.0089	5.6364	0.1	4874.9
28071	5.0089	5.8182	0.1	4903.5
28072	4.9179	5.9091	0.1	4946.3
28073	5.1	0.27273	0.1	4858.6
28074	5.1911	0.18182	0.1	4841.
28075	5.1	9.0909e-002	0.1	4882.8
28076	5.1	0.45455	0.1	4831.7
28077	5.1911	0.36364	0.1	4815.1
28078	5.1	0.63636	0.1	4805.5
28079	5.1911	0.54545	0.1	4789.9
28080	5.1	0.81818	0.1	4780.
28081	5.1911	0.72727	0.1	4765.3
28082	5.1	1.	0.1	4755.4
28083	5.1911	0.90909	0.1	4741.4
28084	5.1	1.1818	0.1	4731.9
28085	5.1911	1.0909	0.1	4718.4
28086	5.1	1.3636	0.1	4709.8
28087	5.1911	1.2727	0.1	4696.5
28088	5.1	1.5455	0.1	4689.1
28089	5.1911	1.4545	0.1	4676.
28090	5.1	1.7273	0.1	4670.3
28091	5.1911	1.6364	0.1	4657.
28092	5.1	1.9091	0.1	4653.4
28093	5.1911	1.8182	0.1	4639.8
28094	5.1	2.0909	0.1	4638.8
28095	5.1911	2.	0.1	4624.7
28096	5.1	2.2727	0.1	4626.5
28097	5.1911	2.1818	0.1	4611.7
28098	5.1	2.4545	0.1	4616.8
28099	5.1911	2.3636	0.1	4601.1
28100	5.1	2.6364	0.1	4609.8
28101	5.1911	2.5455	0.1	4593.1
28102	5.1	2.8182	0.1	4605.6
28103	5.1911	2.7273	0.1	4587.6
28104	5.1	3.	0.1	4604.2
28105	5.1911	2.9091	0.1	4584.9
28106	5.1	3.1818	0.1	4605.6
28107	5.1911	3.0909	0.1	4584.9
28108	5.1	3.3636	0.1	4609.8
28109	5.1911	3.2727	0.1	4587.6
28110	5.1	3.5455	0.1	4616.8
28111	5.1911	3.4545	0.1	4593.1
28112	5.1	3.7273	0.1	4626.5
28113	5.1911	3.6364	0.1	4601.1
28114	5.1	3.9091	0.1	4638.8
28115	5.1911	3.8182	0.1	4611.7
28116	5.1	4.0909	0.1	4653.4
28117	5.1911	4.	0.1	4624.7
28118	5.1	4.2727	0.1	4670.3
28119	5.1911	4.1818	0.1	4639.8
28120	5.1	4.4545	0.1	4689.1
28121	5.1911	4.3636	0.1	4657.
28122	5.1	4.6364	0.1	4709.8
28123	5.1911	4.5455	0.1	4676.
28124	5.1	4.8182	0.1	4731.9
28125	5.1911	4.7273	0.1	4696.5
28126	5.1	5.	0.1	4755.4
28127	5.1911	4.9091	0.1	4718.4
28128	5.1	5.1818	0.1	4780.
28129	5.1911	5.0909	0.1	4741.4
28130	5.1	5.3636	0.1	4805.5
28131	5.1911	5.2727	0.1	4765.3
28132	5.1	5.5455	0.1	4831.7
28133	5.1911	5.4545	0.1	4789.9
28134	5.1	5.7273	0.1	4858.6
28135	5.1911	5.6364	0.1	4815.1
28136	5.1911	5.8182	0.1	4841.
28137	5.1	5.9091	0.1	4882.8
28138	5.2821	0.27273	0.1	4797.5
28139	5.3732	0.18182	0.1	4778.6
28140	5.2821	9.0909e-002	0.1	4819.4
28141	5.2821	0.45455	0.1	4773.3
28142	5.3732	0.36364	0.1	4755.4
28143	5.2821	0.63636	0.1	4749.6
28144	5.3732	0.54545	0.1	4732.7
28145	5.2821	0.81818	0.1	4726.6
28146	5.3732	0.72727	0.1	4710.6
28147	5.2821	1.	0.1	4704.3
28148	5.3732	0.90909	0.1	4689.
28149	5.2821	1.1818	0.1	4682.9
28150	5.3732	1.0909	0.1	4668.3
28151	5.2821	1.3636	0.1	4662.7
28152	5.3732	1.2727	0.1	4648.4
28153	5.2821	1.5455	0.1	4643.9
28154	5.3732	1.4545	0.1	4629.8
28155	5.2821	1.7273	0.1	4626.6
28156	5.3732	1.6364	0.1	4612.5
28157	5.2821	1.9091	0.1	4611.1
28158	5.3732	1.8182	0.1	4596.7
28159	5.2821	2.0909	0.1	4597.6
28160	5.3732	2.	0.1	4582.8
28161	5.2821	2.2727	0.1	4586.3
28162	5.3732	2.1818	0.1	4570.9
28163	5.2821	2.4545	0.1	4577.4
28164	5.3732	2.3636	0.1	4561.2
28165	5.2821	2.6364	0.1	4570.9
28166	5.3732	2.5455	0.1	4553.7
28167	5.2821	2.8182	0.1	4567.
28168	5.3732	2.7273	0.1	4548.7
28169	5.2821	3.	0.1	4565.7
28170	5.3732	2.9091	0.1	4546.2
28171	5.2821	3.1818	0.1	4567.
28172	5.3732	3.0909	0.1	4546.2
28173	5.2821	3.3636	0.1	4570.9
28174	5.3732	3.2727	0.1	4548.7
28175	5.2821	3.5455	0.1	4577.4
28176	5.3732	3.4545	0.1	4553.7
28177	5.2821	3.7273	0.1	4586.3
28178	5.3732	3.6364	0.1	4561.2
28179	5.2821	3.9091	0.1	4597.6
28180	5.3732	3.8182	0.1	4570.9
28181	5.2821	4.0909	0.1	4611.1
28182	5.3732	4.	0.1	4582.8
28183	5.2821	4.2727	0.1	4626.6
28184	5.3732	4.1818	0.1	4596.7
28185	5.2821	4.4545	0.1	4643.9
28186	5.3732	4.3636	0.1	4612.5
28187	5.2821	4.6364	0.1	4662.7
28188	5.3732	4.5455	0.1	4629.8
28189	5.2821	4.8182	0.1	4682.9
28190	5.3732	4.7273	0.1	4648.4
28191	5.2821	5.	0.1	4704.3
28192	5.3732	4.9091	0.1	4668.3
28193	5.2821	5.1818	0.1	4726.6
28194	5.3732	5.0909	0.1	4689.
28195	5.2821	5.3636	0.1	4749.6
28196	5.3732	5.2727	0.1	4710.6
28197	5.2821	5.5455	0.1	4773.3
28198	5.3732	5.4545	0.1	4732.7
28199	5.2821	5.7273	0.1	4797.5
28200	5.3732	5.6364	0.1	4755.4
28201	5.3732	5.8182	0.1	4778.6
28202	5.2821	5.9091	0.1	4819.4
28203	5.4643	0.27273	0.1	4736.4
28204	5.5554	0.18182	0.1	4716.2
28205	5.4643	9.0909e-002	0.1	4756.
28206	5.4643	0.45455	0.1	4714.8
28207	5.5554	0.36364	0.1	4695.6
28208	5.4643	0.63636	0.1	4693.7
28209	5.5554	0.54545	0.1	4675.5
28210	5.4643	0.81818	0.1	4673.
28211	5.5554	0.72727	0.1	4655.8
28212	5.4643	1.	0.1	4653.
28213	5.5554	0.90909	0.1	4636.6
28214	5.4643	1.1818	0.1	4633.8
28215	5.5554	1.0909	0.1	4618.
28216	5.4643	1.3636	0.1	4615.5
28217	5.5554	1.2727	0.1	4600.2
28218	5.4643	1.5455	0.1	4598.4
28219	5.5554	1.4545	0.1	4583.3
28220	5.4643	1.7273	0.1	4582.6
28221	5.5554	1.6364	0.1	4567.7
28222	5.4643	1.9091	0.1	4568.5
28223	5.5554	1.8182	0.1	4553.4
28224	5.4643	2.0909	0.1	4556.1
28225	5.5554	2.	0.1	4540.7
28226	5.4643	2.2727	0.1	4545.8
28227	5.5554	2.1818	0.1	4529.8
28228	5.4643	2.4545	0.1	4537.5
28229	5.5554	2.3636	0.1	4520.9
28230	5.4643	2.6364	0.1	4531.6
28231	5.5554	2.5455	0.1	4514.1
28232	5.4643	2.8182	0.1	4527.9
28233	5.5554	2.7273	0.1	4509.4
28234	5.4643	3.	0.1	4526.7
28235	5.5554	2.9091	0.1	4507.1
28236	5.4643	3.1818	0.1	4527.9
28237	5.5554	3.0909	0.1	4507.1
28238	5.4643	3.3636	0.1	4531.6
28239	5.5554	3.2727	0.1	4509.4
28240	5.4643	3.5455	0.1	4537.5
28241	5.5554	3.4545	0.1	4514.1
28242	5.4643	3.7273	0.1	4545.8
28243	5.5554	3.6364	0.1	4520.9
28244	5.4643	3.9091	0.1	4556.1
28245	5.5554	3.8182	0.1	4529.8
28246	5.4643	4.0909	0.1	4568.5
28247	5.5554	4.	0.1	4540.7
28248	5.4643	4.2727	0.1	4582.6
28249	5.5554	4.1818	0.1	4553.4
28250	5.4643	4.4545	0.1	4598.4
28251	5.5554	4.3636	0.1	4567.7
28252	5.4643	4.6364	0.1	4615.5
28253	5.5554	4.5455	0.1	4583.3
28254	5.4643	4.8182	0.1	4633.8
28255	5.5554	4.7273	0.1	4600.2
28256	5.4643	5.	0.1	4653.
28257	5.5554	4.9091	0.1	4618.
28258	5.4643	5.1818	0.1	4673.
28259	5.5554	5.0909	0.1	4636.6
28260	5.4643	5.3636	0.1	4693.7
28261	5.5554	5.2727	0.1	4655.8
28262	5.4643	5.5455	0.1	4714.8
28263	5.5554	5.4545	0.1	4675.5
28264	5.4643	5.7273	0.1	4736.4
28265	5.5554	5.6364	0.1	4695.6
28266	5.5554	5.8182	0.1	4716.2
28267	5.4643	5.9091	0.1	4756.
28268	5.6464	0.27273	0.1	4675.3
28269	5.7375	0.18182	0.1	4653.5
28270	5.6464	9.0909e-002	0.1	4692.5
28271	5.6464	0.45455	0.1	4656.2
28272	5.7375	0.36364	0.1	4635.5
28273	5.6464	0.63636	0.1	4637.6
28274	5.7375	0.54545	0.1	4618.
28275	5.6464	0.81818	0.1	4619.3
28276	5.7375	0.72727	0.1	4600.8
28277	5.6464	1.	0.1	4601.6
28278	5.7375	0.90909	0.1	4584.
28279	5.6464	1.1818	0.1	4584.4
28280	5.7375	1.0909	0.1	4567.6
28281	5.6464	1.3636	0.1	4568.1
28282	5.7375	1.2727	0.1	4551.8
28283	5.6464	1.5455	0.1	4552.7
28284	5.7375	1.4545	0.1	4536.8
28285	5.6464	1.7273	0.1	4538.5
28286	5.7375	1.6364	0.1	4522.7
28287	5.6464	1.9091	0.1	4525.6
28288	5.7375	1.8182	0.1	4509.9
28289	5.6464	2.0909	0.1	4514.4
28290	5.7375	2.	0.1	4498.4
28291	5.6464	2.2727	0.1	4505.
28292	5.7375	2.1818	0.1	4488.6
28293	5.6464	2.4545	0.1	4497.4
28294	5.7375	2.3636	0.1	4480.4
28295	5.6464	2.6364	0.1	4491.9
28296	5.7375	2.5455	0.1	4474.2
28297	5.6464	2.8182	0.1	4488.6
28298	5.7375	2.7273	0.1	4470.
28299	5.6464	3.	0.1	4487.5
28300	5.7375	2.9091	0.1	4467.8
28301	5.6464	3.1818	0.1	4488.6
28302	5.7375	3.0909	0.1	4467.8
28303	5.6464	3.3636	0.1	4491.9
28304	5.7375	3.2727	0.1	4470.
28305	5.6464	3.5455	0.1	4497.4
28306	5.7375	3.4545	0.1	4474.2
28307	5.6464	3.7273	0.1	4505.
28308	5.7375	3.6364	0.1	4480.4
28309	5.6464	3.9091	0.1	4514.4
28310	5.7375	3.8182	0.1	4488.6
28311	5.6464	4.0909	0.1	4525.6
28312	5.7375	4.	0.1	4498.4
28313	5.6464	4.2727	0.1	4538.5
28314	5.7375	4.1818	0.1	4509.9
28315	5.6464	4.4545	0.1	4552.7
28316	5.7375	4.3636	0.1	4522.7
28317	5.6464	4.6364	0.1	4568.1
28318	5.7375	4.5455	0.1	4536.8
28319	5.6464	4.8182	0.1	4584.4
28320	5.7375	4.7273	0.1	4551.8
28321	5.6464	5.	0.1	4601.6
28322	5.7375	4.9091	0.1	4567.6
28323	5.6464	5.1818	0.1	4619.3
28324	5.7375	5.0909	0.1	4584.
28325	5.6464	5.3636	0.1	4637.6
28326	5.7375	5.2727	0.1	4600.8
28327	5.6464	5.5455	0.1	4656.2
28328	5.7375	5.4545	0.1	4618.
28329	5.6464	5.7273	0.1	4675.3
28330	5.7375	5.6364	0.1	4635.5
28331	5.7375	5.8182	0.1	4653.5
28332	5.6464	5.9091	0.1	4692.5
28333	5.8286	0.27273	0.1	4613.8
28334	5.9196	0.18182	0.1	4590.4
28335	5.8286	9.0909e-002	0.1	4628.6
28336	5.8286	0.45455	0.1	4597.3
28337	5.9196	0.36364	0.1	4575.1
28338	5.8286	0.63636	0.1	4581.2
28339	5.9196	0.54545	0.1	4560.2
28340	5.8286	0.81818	0.1	4565.4
28341	5.9196	0.72727	0.1	4545.5
28342	5.8286	1.	0.1	4549.9
28343	5.9196	0.90909	0.1	4531.1
28344	5.8286	1.1818	0.1	4534.9
28345	5.9196	1.0909	0.1	4516.9
28346	5.8286	1.3636	0.1	4520.5
28347	5.9196	1.2727	0.1	4503.2
28348	5.8286	1.5455	0.1	4506.9
28349	5.9196	1.4545	0.1	4490.1
28350	5.8286	1.7273	0.1	4494.2
28351	5.9196	1.6364	0.1	4477.8
28352	5.8286	1.9091	0.1	4482.7
28353	5.9196	1.8182	0.1	4466.4
28354	5.8286	2.0909	0.1	4472.6
28355	5.9196	2.	0.1	4456.2
28356	5.8286	2.2727	0.1	4464.
28357	5.9196	2.1818	0.1	4447.3
28358	5.8286	2.4545	0.1	4457.2
28359	5.9196	2.3636	0.1	4440.
28360	5.8286	2.6364	0.1	4452.2
28361	5.9196	2.5455	0.1	4434.4
28362	5.8286	2.8182	0.1	4449.2
28363	5.9196	2.7273	0.1	4430.5
28364	5.8286	3.	0.1	4448.2
28365	5.9196	2.9091	0.1	4428.6
28366	5.8286	3.1818	0.1	4449.2
28367	5.9196	3.0909	0.1	4428.6
28368	5.8286	3.3636	0.1	4452.2
28369	5.9196	3.2727	0.1	4430.5
28370	5.8286	3.5455	0.1	4457.2
28371	5.9196	3.4545	0.1	4434.4
28372	5.8286	3.7273	0.1	4464.
28373	5.9196	3.6364	0.1	4440.
28374	5.8286	3.9091	0.1	4472.6
28375	5.9196	3.8182	0.1	4447.3
28376	5.8286	4.0909	0.1	4482.7
28377	5.9196	4.	0.1	4456.2
28378	5.8286	4.2727	0.1	4494.2
28379	5.9196	4.1818	0.1	4466.4
28380	5.8286	4.4545	0.1	4506.9
28381	5.9196	4.3636	0.1	4477.8
28382	5.8286	4.6364	0.1	4520.5
28383	5.9196	4.5455	0.1	4490.1
28384	5.8286	4.8182	0.1	4534.9
28385	5.9196	4.7273	0.1	4503.2
28386	5.8286	5.	0.1	4549.9
28387	5.9196	4.9091	0.1	4516.9
28388	5.8286	5.1818	0.1	4565.4
28389	5.9196	5.0909	0.1	4531.1
28390	5.8286	5.3636	0.1	4581.2
28391	5.9196	5.2727	0.1	4545.5
28392	5.8286	5.5455	0.1	4597.3
28393	5.9196	5.4545	0.1	4560.2
28394	5.8286	5.7273	0.1	4613.8
28395	5.9196	5.6364	0.1	4575.1
28396	5.9196	5.8182	0.1	4590.4
28397	5.8286	5.9091	0.1	4628.6
28398	6.0107	0.27273	0.1	4551.7
28399	6.1018	0.18182	0.1	4526.6
28400	6.0107	9.0909e-002	0.1	4564.1
28401	6.0107	0.45455	0.1	4538.
28402	6.1018	0.36364	0.1	4514.
28403	6.0107	0.63636	0.1	4524.5
28404	6.1018	0.54545	0.1	4501.9
28405	6.0107	0.81818	0.1	4511.2
28406	6.1018	0.72727	0.1	4489.8
28407	6.0107	1.	0.1	4498.1
28408	6.1018	0.90909	0.1	4477.9
28409	6.0107	1.1818	0.1	4485.3
28410	6.1018	1.0909	0.1	4466.1
28411	6.0107	1.3636	0.1	4472.9
28412	6.1018	1.2727	0.1	4454.6
28413	6.0107	1.5455	0.1	4461.
28414	6.1018	1.4545	0.1	4443.4
28415	6.0107	1.7273	0.1	4449.9
28416	6.1018	1.6364	0.1	4432.8
28417	6.0107	1.9091	0.1	4439.8
28418	6.1018	1.8182	0.1	4423.
28419	6.0107	2.0909	0.1	4430.9
28420	6.1018	2.	0.1	4414.
28421	6.0107	2.2727	0.1	4423.3
28422	6.1018	2.1818	0.1	4406.3
28423	6.0107	2.4545	0.1	4417.1
28424	6.1018	2.3636	0.1	4399.8
28425	6.0107	2.6364	0.1	4412.7
28426	6.1018	2.5455	0.1	4394.8
28427	6.0107	2.8182	0.1	4409.9
28428	6.1018	2.7273	0.1	4391.4
28429	6.0107	3.	0.1	4409.
28430	6.1018	2.9091	0.1	4389.7
28431	6.0107	3.1818	0.1	4409.9
28432	6.1018	3.0909	0.1	4389.7
28433	6.0107	3.3636	0.1	4412.7
28434	6.1018	3.2727	0.1	4391.4
28435	6.0107	3.5455	0.1	4417.1
28436	6.1018	3.4545	0.1	4394.8
28437	6.0107	3.7273	0.1	4423.3
28438	6.1018	3.6364	0.1	4399.8
28439	6.0107	3.9091	0.1	4430.9
28440	6.1018	3.8182	0.1	4406.3
28441	6.0107	4.0909	0.1	4439.8
28442	6.1018	4.	0.1	4414.
28443	6.0107	4.2727	0.1	4449.9
28444	6.1018	4.1818	0.1	4423.
28445	6.0107	4.4545	0.1	4461.
28446	6.1018	4.3636	0.1	4432.8
28447	6.0107	4.6364	0.1	4472.9
28448	6.1018	4.5455	0.1	4443.4
28449	6.0107	4.8182	0.1	4485.3
28450	6.1018	4.7273	0.1	4454.6
28451	6.0107	5.	0.1	4498.1
28452	6.1018	4.9091	0.1	4466.1
28453	6.0107	5.1818	0.1	4511.2
28454	6.1018	5.0909	0.1	4477.9
28455	6.0107	5.3636	0.1	4524.5
28456	6.1018	5.2727	0.1	4489.8
28457	6.0107	5.5455	0.1	4538.
28458	6.1018	5.4545	0.1	4501.9
28459	6.0107	5.7273	0.1	4551.7
28460	6.1018	5.6364	0.1	4514.
28461	6.1018	5.8182	0.1	4526.6
28462	6.0107	5.9091	0.1	4564.1
28463	6.1929	0.27273	0.1	4488.9
28464	6.2839	0.18182	0.1	4461.7
28465	6.1929	9.0909e-002	0.1	4498.7
28466	6.1929	0.45455	0.1	4477.9
28467	6.2839	0.36364	0.1	4452.
28468	6.1929	0.63636	0.1	4467.2
28469	6.2839	0.54545	0.1	4442.7
28470	6.1929	0.81818	0.1	4456.5
28471	6.2839	0.72727	0.1	4433.5
28472	6.1929	1.	0.1	4445.9
28473	6.2839	0.90909	0.1	4424.3
28474	6.1929	1.1818	0.1	4435.4
28475	6.2839	1.0909	0.1	4415.
28476	6.1929	1.3636	0.1	4425.1
28477	6.2839	1.2727	0.1	4405.8
28478	6.1929	1.5455	0.1	4415.2
28479	6.2839	1.4545	0.1	4396.8
28480	6.1929	1.7273	0.1	4405.8
28481	6.2839	1.6364	0.1	4388.1
28482	6.1929	1.9091	0.1	4397.2
28483	6.2839	1.8182	0.1	4379.8
28484	6.1929	2.0909	0.1	4389.4
28485	6.2839	2.	0.1	4372.3
28486	6.1929	2.2727	0.1	4382.8
28487	6.2839	2.1818	0.1	4365.7
28488	6.1929	2.4545	0.1	4377.5
28489	6.2839	2.3636	0.1	4360.2
28490	6.1929	2.6364	0.1	4373.5
28491	6.2839	2.5455	0.1	4355.9
28492	6.1929	2.8182	0.1	4371.1
28493	6.2839	2.7273	0.1	4352.9
28494	6.1929	3.	0.1	4370.3
28495	6.2839	2.9091	0.1	4351.4
28496	6.1929	3.1818	0.1	4371.1
28497	6.2839	3.0909	0.1	4351.4
28498	6.1929	3.3636	0.1	4373.5
28499	6.2839	3.2727	0.1	4352.9
28500	6.1929	3.5455	0.1	4377.5
28501	6.2839	3.4545	0.1	4355.9
28502	6.1929	3.7273	0.1	4382.8
28503	6.2839	3.6364	0.1	4360.2
28504	6.1929	3.9091	0.1	4389.4
28505	6.2839	3.8182	0.1	4365.7
28506	6.1929	4.0909	0.1	4397.2
28507	6.2839	4.	0.1	4372.3
28508	6.1929	4.2727	0.1	4405.8
28509	6.2839	4.1818	0.1	4379.8
28510	6.1929	4.4545	0.1	4415.2
28511	6.2839	4.3636	0.1	4388.1
28512	6.1929	4.6364	0.1	4425.1
28513	6.2839	4.5455	0.1	4396.8
28514	6.1929	4.8182	0.1	4435.4
28515	6.2839	4.7273	0.1	4405.8
28516	6.1929	5.	0.1	4445.9
28517	6.2839	4.9091	0.1	4415.
28518	6.1929	5.1818	0.1	4456.5
28519	6.2839	5.0909	0.1	4424.3
28520	6.1929	5.3636	0.1	4467.2
28521	6.2839	5.2727	0.1	4433.5
28522	6.1929	5.5455	0.1	4477.9
28523	6.2839	5.4545	0.1	4442.7
28524	6.1929	5.7273	0.1	4488.9
28525	6.2839	5.6364	0.1	4452.
28526	6.2839	5.8182	0.1	4461.7
28527	6.1929	5.9091	0.1	4498.7
28528	6.375	0.27273	0.1	4424.8
28529	6.4661	0.18182	0.1	4395.2
28530	6.375	9.0909e-002	0.1	4431.9
28531	6.375	0.45455	0.1	4416.8
28532	6.4661	0.36364	0.1	4388.7
28533	6.375	0.63636	0.1	4409.1
28534	6.4661	0.54545	0.1	4382.5
28535	6.375	0.81818	0.1	4401.2
28536	6.4661	0.72727	0.1	4376.3
28537	6.375	1.	0.1	4393.4
28538	6.4661	0.90909	0.1	4370.
28539	6.375	1.1818	0.1	4385.4
28540	6.4661	1.0909	0.1	4363.5
28541	6.375	1.3636	0.1	4377.4
28542	6.4661	1.2727	0.1	4356.9
28543	6.375	1.5455	0.1	4369.6
28544	6.4661	1.4545	0.1	4350.2
28545	6.375	1.7273	0.1	4362.
28546	6.4661	1.6364	0.1	4343.6
28547	6.375	1.9091	0.1	4355.
28548	6.4661	1.8182	0.1	4337.2
28549	6.375	2.0909	0.1	4348.6
28550	6.4661	2.	0.1	4331.3
28551	6.375	2.2727	0.1	4343.1
28552	6.4661	2.1818	0.1	4326.
28553	6.375	2.4545	0.1	4338.6
28554	6.4661	2.3636	0.1	4321.5
28555	6.375	2.6364	0.1	4335.2
28556	6.4661	2.5455	0.1	4317.9
28557	6.375	2.8182	0.1	4333.2
28558	6.4661	2.7273	0.1	4315.5
28559	6.375	3.	0.1	4332.5
28560	6.4661	2.9091	0.1	4314.3
28561	6.375	3.1818	0.1	4333.2
28562	6.4661	3.0909	0.1	4314.3
28563	6.375	3.3636	0.1	4335.2
28564	6.4661	3.2727	0.1	4315.5
28565	6.375	3.5455	0.1	4338.6
28566	6.4661	3.4545	0.1	4317.9
28567	6.375	3.7273	0.1	4343.1
28568	6.4661	3.6364	0.1	4321.5
28569	6.375	3.9091	0.1	4348.6
28570	6.4661	3.8182	0.1	4326.
28571	6.375	4.0909	0.1	4355.
28572	6.4661	4.	0.1	4331.3
28573	6.375	4.2727	0.1	4362.
28574	6.4661	4.1818	0.1	4337.2
28575	6.375	4.4545	0.1	4369.6
28576	6.4661	4.3636	0.1	4343.6
28577	6.375	4.6364	0.1	4377.4
28578	6.4661	4.5455	0.1	4350.2
28579	6.375	4.8182	0.1	4385.4
28580	6.4661	4.7273	0.1	4356.9
28581	6.375	5.	0.1	4393.4
28582	6.4661	4.9091	0.1	4363.5
28583	6.375	5.1818	0.1	4401.2
28584	6.4661	5.0909	0.1	4370.
28585	6.375	5.3636	0.1	4409.1
28586	6.4661	5.2727	0.1	4376.3
28587	6.375	5.5455	0.1	4416.8
28588	6.4661	5.4545	0.1	4382.5
28589	6.375	5.7273	0.1	4424.8
28590	6.4661	5.6364	0.1	4388.7
28591	6.4661	5.8182	0.1	4395.2
28592	6.375	5.9091	0.1	4431.9
28593	6.5571	0.27273	0.1	4359.1
28594	6.6482	0.18182	0.1	4326.7
28595	6.5571	9.0909e-002	0.1	4363.3
28596	6.5571	0.45455	0.1	4354.4
28597	6.6482	0.36364	0.1	4323.6
28598	6.5571	0.63636	0.1	4349.8
28599	6.6482	0.54545	0.1	4320.8
28600	6.5571	0.81818	0.1	4345.1
28601	6.6482	0.72727	0.1	4318.
28602	6.5571	1.	0.1	4340.2
28603	6.6482	0.90909	0.1	4315.
28604	6.5571	1.1818	0.1	4335.1
28605	6.6482	1.0909	0.1	4311.6
28606	6.5571	1.3636	0.1	4329.7
28607	6.6482	1.2727	0.1	4307.8
28608	6.5571	1.5455	0.1	4324.2
28609	6.6482	1.4545	0.1	4303.8
28610	6.5571	1.7273	0.1	4318.8
28611	6.6482	1.6364	0.1	4299.6
28612	6.5571	1.9091	0.1	4313.5
28613	6.6482	1.8182	0.1	4295.3
28614	6.5571	2.0909	0.1	4308.6
28615	6.6482	2.	0.1	4291.2
28616	6.5571	2.2727	0.1	4304.4
28617	6.6482	2.1818	0.1	4287.4
28618	6.5571	2.4545	0.1	4300.8
28619	6.6482	2.3636	0.1	4284.1
28620	6.5571	2.6364	0.1	4298.2
28621	6.6482	2.5455	0.1	4281.5
28622	6.5571	2.8182	0.1	4296.6
28623	6.6482	2.7273	0.1	4279.7
28624	6.5571	3.	0.1	4296.
28625	6.6482	2.9091	0.1	4278.8
28626	6.5571	3.1818	0.1	4296.6
28627	6.6482	3.0909	0.1	4278.8
28628	6.5571	3.3636	0.1	4298.2
28629	6.6482	3.2727	0.1	4279.7
28630	6.5571	3.5455	0.1	4300.8
28631	6.6482	3.4545	0.1	4281.5
28632	6.5571	3.7273	0.1	4304.4
28633	6.6482	3.6364	0.1	4284.1
28634	6.5571	3.9091	0.1	4308.6
28635	6.6482	3.8182	0.1	4287.4
28636	6.5571	4.0909	0.1	4313.5
28637	6.6482	4.	0.1	4291.2
28638	6.5571	4.2727	0.1	4318.8
28639	6.6482	4.1818	0.1	4295.3
28640	6.5571	4.4545	0.1	4324.2
28641	6.6482	4.3636	0.1	4299.6
28642	6.5571	4.6364	0.1	4329.7
28643	6.6482	4.5455	0.1	4303.8
28644	6.5571	4.8182	0.1	4335.1
28645	6.6482	4.7273	0.1	4307.8
28646	6.5571	5.	0.1	4340.2
28647	6.6482	4.9091	0.1	4311.6
28648	6.5571	5.1818	0.1	4345.1
28649	6.6482	5.0909	0.1	4315.
28650	6.5571	5.3636	0.1	4349.8
28651	6.6482	5.2727	0.1	4318.
28652	6.5571	5.5455	0.1	4354.4
28653	6.6482	5.4545	0.1	4320.8
28654	6.5571	5.7273	0.1	4359.1
28655	6.6482	5.6364	0.1	4323.6
28656	6.6482	5.8182	0.1	4326.7
28657	6.5571	5.9091	0.1	4363.3
28658	6.7393	0.27273	0.1	4291.2
28659	6.8304	0.18182	0.1	4255.5
28660	6.7393	9.0909e-002	0.1	4292.2
28661	6.7393	0.45455	0.1	4290.1
28662	6.8304	0.36364	0.1	4256.2
28663	6.7393	0.63636	0.1	4289.1
28664	6.8304	0.54545	0.1	4257.2
28665	6.7393	0.81818	0.1	4287.9
28666	6.8304	0.72727	0.1	4258.2
28667	6.7393	1.	0.1	4286.3
28668	6.8304	0.90909	0.1	4258.8
28669	6.7393	1.1818	0.1	4284.4
28670	6.8304	1.0909	0.1	4259.
28671	6.7393	1.3636	0.1	4282.
28672	6.8304	1.2727	0.1	4258.6
28673	6.7393	1.5455	0.1	4279.2
28674	6.8304	1.4545	0.1	4257.7
28675	6.7393	1.7273	0.1	4276.2
28676	6.8304	1.6364	0.1	4256.3
28677	6.7393	1.9091	0.1	4273.1
28678	6.8304	1.8182	0.1	4254.5
28679	6.7393	2.0909	0.1	4270.
28680	6.8304	2.	0.1	4252.6
28681	6.7393	2.2727	0.1	4267.2
28682	6.8304	2.1818	0.1	4250.6
28683	6.7393	2.4545	0.1	4264.8
28684	6.8304	2.3636	0.1	4248.8
28685	6.7393	2.6364	0.1	4263.
28686	6.8304	2.5455	0.1	4247.3
28687	6.7393	2.8182	0.1	4261.9
28688	6.8304	2.7273	0.1	4246.2
28689	6.7393	3.	0.1	4261.5
28690	6.8304	2.9091	0.1	4245.6
28691	6.7393	3.1818	0.1	4261.9
28692	6.8304	3.0909	0.1	4245.6
28693	6.7393	3.3636	0.1	4263.
28694	6.8304	3.2727	0.1	4246.2
28695	6.7393	3.5455	0.1	4264.8
28696	6.8304	3.4545	0.1	4247.3
28697	6.7393	3.7273	0.1	4267.2
28698	6.8304	3.6364	0.1	4248.8
28699	6.7393	3.9091	0.1	4270.
28700	6.8304	3.8182	0.1	4250.6
28701	6.7393	4.0909	0.1	4273.1
28702	6.8304	4.	0.1	4252.6
28703	6.7393	4.2727	0.1	4276.2
28704	6.8304	4.1818	0.1	4254.5
28705	6.7393	4.4545	0.1	4279.2
28706	6.8304	4.3636	0.1	4256.3
28707	6.7393	4.6364	0.1	4282.
28708	6.8304	4.5455	0.1	4257.7
28709	6.7393	4.8182	0.1	4284.4
28710	6.8304	4.7273	0.1	4258.6
28711	6.7393	5.	0.1	4286.3
28712	6.8304	4.9091	0.1	4259.
28713	6.7393	5.1818	0.1	4287.9
28714	6.8304	5.0909	0.1	4258.8
28715	6.7393	5.3636	0.1	4289.1
28716	6.8304	5.2727	0.1	4258.2
28717	6.7393	5.5455	0.1	4290.1
28718	6.8304	5.4545	0.1	4257.2
28719	6.7393	5.7273	0.1	4291.2
28720	6.8304	5.6364	0.1	4256.2
28721	6.8304	5.8182	0.1	4255.5
28722	6.7393	5.9091	0.1	4292.2
28723	6.9214	0.27273	0.1	4220.4
28724	7.0125	0.18182	0.1	4180.8
28725	6.9214	9.0909e-002	0.1	4218.
28726	6.9214	0.45455	0.1	4223.3
28727	7.0125	0.36364	0.1	4185.6
28728	6.9214	0.63636	0.1	4226.3
28729	7.0125	0.54545	0.1	4191.
28730	6.9214	0.81818	0.1	4229.1
28731	7.0125	0.72727	0.1	4196.2
28732	6.9214	1.	0.1	4231.4
28733	7.0125	0.90909	0.1	4201.2
28734	6.9214	1.1818	0.1	4233.2
28735	7.0125	1.0909	0.1	4205.5
28736	6.9214	1.3636	0.1	4234.3
28737	7.0125	1.2727	0.1	4209.1
28738	6.9214	1.5455	0.1	4234.7
28739	7.0125	1.4545	0.1	4211.8
28740	6.9214	1.7273	0.1	4234.6
28741	7.0125	1.6364	0.1	4213.8
28742	6.9214	1.9091	0.1	4234.
28743	7.0125	1.8182	0.1	4215.1
28744	6.9214	2.0909	0.1	4233.2
28745	7.0125	2.	0.1	4215.8
28746	6.9214	2.2727	0.1	4232.2
28747	7.0125	2.1818	0.1	4216.1
28748	6.9214	2.4545	0.1	4231.2
28749	7.0125	2.3636	0.1	4216.1
28750	6.9214	2.6364	0.1	4230.4
28751	7.0125	2.5455	0.1	4216.
28752	6.9214	2.8182	0.1	4229.9
28753	7.0125	2.7273	0.1	4215.8
28754	6.9214	3.	0.1	4229.7
28755	7.0125	2.9091	0.1	4215.7
28756	6.9214	3.1818	0.1	4229.9
28757	7.0125	3.0909	0.1	4215.7
28758	6.9214	3.3636	0.1	4230.4
28759	7.0125	3.2727	0.1	4215.8
28760	6.9214	3.5455	0.1	4231.2
28761	7.0125	3.4545	0.1	4216.
28762	6.9214	3.7273	0.1	4232.2
28763	7.0125	3.6364	0.1	4216.1
28764	6.9214	3.9091	0.1	4233.2
28765	7.0125	3.8182	0.1	4216.1
28766	6.9214	4.0909	0.1	4234.
28767	7.0125	4.	0.1	4215.8
28768	6.9214	4.2727	0.1	4234.6
28769	7.0125	4.1818	0.1	4215.1
28770	6.9214	4.4545	0.1	4234.7
28771	7.0125	4.3636	0.1	4213.8
28772	6.9214	4.6364	0.1	4234.3
28773	7.0125	4.5455	0.1	4211.8
28774	6.9214	4.8182	0.1	4233.2
28775	7.0125	4.7273	0.1	4209.1
28776	6.9214	5.	0.1	4231.4
28777	7.0125	4.9091	0.1	4205.5
28778	6.9214	5.1818	0.1	4229.1
28779	7.0125	5.0909	0.1	4201.2
28780	6.9214	5.3636	0.1	4226.3
28781	7.0125	5.2727	0.1	4196.2
28782	6.9214	5.5455	0.1	4223.3
28783	7.0125	5.4545	0.1	4191.
28784	6.9214	5.7273	0.1	4220.4
28785	7.0125	5.6364	0.1	4185.6
28786	7.0125	5.8182	0.1	4180.8
28787	6.9214	5.9091	0.1	4218.
28788	7.1036	0.27273	0.1	4145.9
28789	7.1946	0.18182	0.1	4101.5
28790	7.1036	9.0909e-002	0.1	4139.7
28791	7.1036	0.45455	0.1	4153.3
28792	7.1946	0.36364	0.1	4111.1
28793	7.1036	0.63636	0.1	4160.9
28794	7.1946	0.54545	0.1	4121.3
28795	7.1036	0.81818	0.1	4168.3
28796	7.1946	0.72727	0.1	4131.6
28797	7.1036	1.	0.1	4175.2
28798	7.1946	0.90909	0.1	4141.5
28799	7.1036	1.1818	0.1	4181.3
28800	7.1946	1.0909	0.1	4150.8
28801	7.1036	1.3636	0.1	4186.6
28802	7.1946	1.2727	0.1	4159.1
28803	7.1036	1.5455	0.1	4190.9
28804	7.1946	1.4545	0.1	4166.4
28805	7.1036	1.7273	0.1	4194.4
28806	7.1946	1.6364	0.1	4172.6
28807	7.1036	1.9091	0.1	4196.9
28808	7.1946	1.8182	0.1	4177.6
28809	7.1036	2.0909	0.1	4198.8
28810	7.1946	2.	0.1	4181.7
28811	7.1036	2.2727	0.1	4200.1
28812	7.1946	2.1818	0.1	4184.8
28813	7.1036	2.4545	0.1	4200.9
28814	7.1946	2.3636	0.1	4187.1
28815	7.1036	2.6364	0.1	4201.4
28816	7.1946	2.5455	0.1	4188.7
28817	7.1036	2.8182	0.1	4201.7
28818	7.1946	2.7273	0.1	4189.8
28819	7.1036	3.	0.1	4201.8
28820	7.1946	2.9091	0.1	4190.3
28821	7.1036	3.1818	0.1	4201.7
28822	7.1946	3.0909	0.1	4190.3
28823	7.1036	3.3636	0.1	4201.4
28824	7.1946	3.2727	0.1	4189.8
28825	7.1036	3.5455	0.1	4200.9
28826	7.1946	3.4545	0.1	4188.7
28827	7.1036	3.7273	0.1	4200.1
28828	7.1946	3.6364	0.1	4187.1
28829	7.1036	3.9091	0.1	4198.8
28830	7.1946	3.8182	0.1	4184.8
28831	7.1036	4.0909	0.1	4196.9
28832	7.1946	4.	0.1	4181.7
28833	7.1036	4.2727	0.1	4194.4
28834	7.1946	4.1818	0.1	4177.6
28835	7.1036	4.4545	0.1	4190.9
28836	7.1946	4.3636	0.1	4172.6
28837	7.1036	4.6364	0.1	4186.6
28838	7.1946	4.5455	0.1	4166.4
28839	7.1036	4.8182	0.1	4181.3
28840	7.1946	4.7273	0.1	4159.1
28841	7.1036	5.	0.1	4175.2
28842	7.1946	4.9091	0.1	4150.8
28843	7.1036	5.1818	0.1	4168.3
28844	7.1946	5.0909	0.1	4141.5
28845	7.1036	5.3636	0.1	4160.9
28846	7.1946	5.2727	0.1	4131.6
28847	7.1036	5.5455	0.1	4153.3
28848	7.1946	5.4545	0.1	4121.3
28849	7.1036	5.7273	0.1	4145.9
28850	7.1946	5.6364	0.1	4111.1
28851	7.1946	5.8182	0.1	4101.5
28852	7.1036	5.9091	0.1	4139.7
28853	7.2857	0.27273	0.1	4066.6
28854	7.3768	0.18182	0.1	4016.5
28855	7.2857	9.0909e-002	0.1	4056.1
28856	7.2857	0.45455	0.1	4079.1
28857	7.3768	0.36364	0.1	4031.5
28858	7.2857	0.63636	0.1	4092.
28859	7.3768	0.54545	0.1	4047.3
28860	7.2857	0.81818	0.1	4104.8
28861	7.3768	0.72727	0.1	4063.4
28862	7.2857	1.	0.1	4117.1
28863	7.3768	0.90909	0.1	4079.3
28864	7.2857	1.1818	0.1	4128.6
28865	7.3768	1.0909	0.1	4094.4
28866	7.2857	1.3636	0.1	4138.9
28867	7.3768	1.2727	0.1	4108.6
28868	7.2857	1.5455	0.1	4148.
28869	7.3768	1.4545	0.1	4121.4
28870	7.2857	1.7273	0.1	4155.8
28871	7.3768	1.6364	0.1	4132.8
28872	7.2857	1.9091	0.1	4162.4
28873	7.3768	1.8182	0.1	4142.6
28874	7.2857	2.0909	0.1	4167.7
28875	7.3768	2.	0.1	4150.9
28876	7.2857	2.2727	0.1	4171.8
28877	7.3768	2.1818	0.1	4157.6
28878	7.2857	2.4545	0.1	4175.
28879	7.3768	2.3636	0.1	4162.9
28880	7.2857	2.6364	0.1	4177.1
28881	7.3768	2.5455	0.1	4166.8
28882	7.2857	2.8182	0.1	4178.4
28883	7.3768	2.7273	0.1	4169.4
28884	7.2857	3.	0.1	4178.8
28885	7.3768	2.9091	0.1	4170.7
28886	7.2857	3.1818	0.1	4178.4
28887	7.3768	3.0909	0.1	4170.7
28888	7.2857	3.3636	0.1	4177.1
28889	7.3768	3.2727	0.1	4169.4
28890	7.2857	3.5455	0.1	4175.
28891	7.3768	3.4545	0.1	4166.8
28892	7.2857	3.7273	0.1	4171.8
28893	7.3768	3.6364	0.1	4162.9
28894	7.2857	3.9091	0.1	4167.7
28895	7.3768	3.8182	0.1	4157.6
28896	7.2857	4.0909	0.1	4162.4
28897	7.3768	4.	0.1	4150.9
28898	7.2857	4.2727	0.1	4155.8
28899	7.3768	4.1818	0.1	4142.6
28900	7.2857	4.4545	0.1	4148.
28901	7.3768	4.3636	0.1	4132.8
28902	7.2857	4.6364	0.1	4138.9
28903	7.3768	4.5455	0.1	4121.4
28904	7.2857	4.8182	0.1	4128.6
28905	7.3768	4.7273	0.1	4108.6
28906	7.2857	5.	0.1	4117.1
28907	7.3768	4.9091	0.1	4094.4
28908	7.2857	5.1818	0.1	4104.8
28909	7.3768	5.0909	0.1	4079.3
28910	7.2857	5.3636	0.1	4092.
28911	7.3768	5.2727	0.1	4063.4
28912	7.2857	5.5455	0.1	4079.1
28913	7.3768	5.4545	0.1	4047.3
28914	7.2857	5.7273	0.1	4066.6
28915	7.3768	5.6364	0.1	4031.5
28916	7.3768	5.8182	0.1	4016.5
28917	7.2857	5.9091	0.1	4056.1
28918	7.4679	0.27273	0.1	3981.2
28919	7.5589	0.18182	0.1	3924.2
28920	7.4679	9.0909e-002	0.1	3965.9
28921	7.4679	0.45455	0.1	3999.6
28922	7.5589	0.36364	0.1	3945.3
28923	7.4679	0.63636	0.1	4018.7
28924	7.5589	0.54545	0.1	3967.6
28925	7.4679	0.81818	0.1	4037.9
28926	7.5589	0.72727	0.1	3990.6
28927	7.4679	1.	0.1	4056.6
28928	7.5589	0.90909	0.1	4013.6
28929	7.4679	1.1818	0.1	4074.5
28930	7.5589	1.0909	0.1	4036.
28931	7.4679	1.3636	0.1	4091.1
28932	7.5589	1.2727	0.1	4057.3
28933	7.4679	1.5455	0.1	4106.2
28934	7.5589	1.4545	0.1	4077.1
28935	7.4679	1.7273	0.1	4119.6
28936	7.5589	1.6364	0.1	4095.
28937	7.4679	1.9091	0.1	4131.1
28938	7.5589	1.8182	0.1	4110.8
28939	7.4679	2.0909	0.1	4140.8
28940	7.5589	2.	0.1	4124.5
28941	7.4679	2.2727	0.1	4148.7
28942	7.5589	2.1818	0.1	4135.9
28943	7.4679	2.4545	0.1	4154.8
28944	7.5589	2.3636	0.1	4145.1
28945	7.4679	2.6364	0.1	4159.2
28946	7.5589	2.5455	0.1	4152.
28947	7.4679	2.8182	0.1	4161.8
28948	7.5589	2.7273	0.1	4156.7
28949	7.4679	3.	0.1	4162.7
28950	7.5589	2.9091	0.1	4159.
28951	7.4679	3.1818	0.1	4161.8
28952	7.5589	3.0909	0.1	4159.
28953	7.4679	3.3636	0.1	4159.2
28954	7.5589	3.2727	0.1	4156.7
28955	7.4679	3.5455	0.1	4154.8
28956	7.5589	3.4545	0.1	4152.
28957	7.4679	3.7273	0.1	4148.7
28958	7.5589	3.6364	0.1	4145.1
28959	7.4679	3.9091	0.1	4140.8
28960	7.5589	3.8182	0.1	4135.9
28961	7.4679	4.0909	0.1	4131.1
28962	7.5589	4.	0.1	4124.5
28963	7.4679	4.2727	0.1	4119.6
28964	7.5589	4.1818	0.1	4110.8
28965	7.4679	4.4545	0.1	4106.2
28966	7.5589	4.3636	0.1	4095.
28967	7.4679	4.6364	0.1	4091.1
28968	7.5589	4.5455	0.1	4077.1
28969	7.4679	4.8182	0.1	4074.5
28970	7.5589	4.7273	0.1	4057.3
28971	7.4679	5.	0.1	4056.6
28972	7.5589	4.9091	0.1	4036.
28973	7.4679	5.1818	0.1	4037.9
28974	7.5589	5.0909	0.1	4013.6
28975	7.4679	5.3636	0.1	4018.7
28976	7.5589	5.2727	0.1	3990.6
28977	7.4679	5.5455	0.1	3999.6
28978	7.5589	5.4545	0.1	3967.6
28979	7.4679	5.7273	0.1	3981.2
28980	7.5589	5.6364	0.1	3945.3
28981	7.5589	5.8182	0.1	3924.2
28982	7.4679	5.9091	0.1	3965.9
28983	7.65	0.27273	0.1	3888.2
28984	7.7411	0.18182	0.1	3822.8
28985	7.65	9.0909e-002	0.1	3867.3
28986	7.65	0.45455	0.1	3913.3
28987	7.7411	0.36364	0.1	3850.9
28988	7.65	0.63636	0.1	3939.6
28989	7.7411	0.54545	0.1	3880.7
28990	7.65	0.81818	0.1	3966.3
28991	7.7411	0.72727	0.1	3911.8
28992	7.65	1.	0.1	3993.
28993	7.7411	0.90909	0.1	3943.4
28994	7.65	1.1818	0.1	4018.8
28995	7.7411	1.0909	0.1	3974.7
28996	7.65	1.3636	0.1	4043.3
28997	7.7411	1.2727	0.1	4004.9
28998	7.65	1.5455	0.1	4065.8
28999	7.7411	1.4545	0.1	4033.4
29000	7.65	1.7273	0.1	4086.2
29001	7.7411	1.6364	0.1	4059.6
29002	7.65	1.9091	0.1	4104.2
29003	7.7411	1.8182	0.1	4083.1
29004	7.65	2.0909	0.1	4119.5
29005	7.7411	2.	0.1	4103.7
29006	7.65	2.2727	0.1	4132.2
29007	7.7411	2.1818	0.1	4121.2
29008	7.65	2.4545	0.1	4142.3
29009	7.7411	2.3636	0.1	4135.5
29010	7.65	2.6364	0.1	4149.5
29011	7.7411	2.5455	0.1	4146.4
29012	7.65	2.8182	0.1	4153.9
29013	7.7411	2.7273	0.1	4153.8
29014	7.65	3.	0.1	4155.4
29015	7.7411	2.9091	0.1	4157.6
29016	7.65	3.1818	0.1	4153.9
29017	7.7411	3.0909	0.1	4157.6
29018	7.65	3.3636	0.1	4149.5
29019	7.7411	3.2727	0.1	4153.8
29020	7.65	3.5455	0.1	4142.3
29021	7.7411	3.4545	0.1	4146.4
29022	7.65	3.7273	0.1	4132.2
29023	7.7411	3.6364	0.1	4135.5
29024	7.65	3.9091	0.1	4119.5
29025	7.7411	3.8182	0.1	4121.2
29026	7.65	4.0909	0.1	4104.2
29027	7.7411	4.	0.1	4103.7
29028	7.65	4.2727	0.1	4086.2
29029	7.7411	4.1818	0.1	4083.1
29030	7.65	4.4545	0.1	4065.8
29031	7.7411	4.3636	0.1	4059.6
29032	7.65	4.6364	0.1	4043.3
29033	7.7411	4.5455	0.1	4033.4
29034	7.65	4.8182	0.1	4018.8
29035	7.7411	4.7273	0.1	4004.9
29036	7.65	5.	0.1	3993.
29037	7.7411	4.9091	0.1	3974.7
29038	7.65	5.1818	0.1	3966.3
29039	7.7411	5.0909	0.1	3943.4
29040	7.65	5.3636	0.1	3939.6
29041	7.7411	5.2727	0.1	3911.8
29042	7.65	5.5455	0.1	3913.3
29043	7.7411	5.4545	0.1	3880.7
29044	7.65	5.7273	0.1	3888.2
29045	7.7411	5.6364	0.1	3850.9
29046	7.7411	5.8182	0.1	3822.8
29047	7.65	5.9091	0.1	3867.3
29048	7.8321	0.27273	0.1	3785.4
29049	7.9232	0.18182	0.1	3710.2
29050	7.8321	9.0909e-002	0.1	3758.4
29051	7.8321	0.45455	0.1	3818.3
29052	7.9232	0.36364	0.1	3746.
29053	7.8321	0.63636	0.1	3853.
29054	7.9232	0.54545	0.1	3784.6
29055	7.8321	0.81818	0.1	3888.9
29056	7.9232	0.72727	0.1	3825.3
29057	7.8321	1.	0.1	3925.2
29058	7.9232	0.90909	0.1	3867.4
29059	7.8321	1.1818	0.1	3960.9
29060	7.9232	1.0909	0.1	3909.6
29061	7.8321	1.3636	0.1	3995.2
29062	7.9232	1.2727	0.1	3951.1
29063	7.8321	1.5455	0.1	4027.3
29064	7.9232	1.4545	0.1	3990.7
29065	7.8321	1.7273	0.1	4056.6
29066	7.9232	1.6364	0.1	4027.5
29067	7.8321	1.9091	0.1	4082.8
29068	7.9232	1.8182	0.1	4060.9
29069	7.8321	2.0909	0.1	4105.5
29070	7.9232	2.	0.1	4090.4
29071	7.8321	2.2727	0.1	4124.5
29072	7.9232	2.1818	0.1	4115.8
29073	7.8321	2.4545	0.1	4139.7
29074	7.9232	2.3636	0.1	4136.8
29075	7.8321	2.6364	0.1	4150.8
29076	7.9232	2.5455	0.1	4153.
29077	7.8321	2.8182	0.1	4157.5
29078	7.9232	2.7273	0.1	4164.
29079	7.8321	3.	0.1	4159.8
29080	7.9232	2.9091	0.1	4169.7
29081	7.8321	3.1818	0.1	4157.5
29082	7.9232	3.0909	0.1	4169.7
29083	7.8321	3.3636	0.1	4150.8
29084	7.9232	3.2727	0.1	4164.
29085	7.8321	3.5455	0.1	4139.7
29086	7.9232	3.4545	0.1	4153.
29087	7.8321	3.7273	0.1	4124.5
29088	7.9232	3.6364	0.1	4136.8
29089	7.8321	3.9091	0.1	4105.5
29090	7.9232	3.8182	0.1	4115.8
29091	7.8321	4.0909	0.1	4082.8
29092	7.9232	4.	0.1	4090.4
29093	7.8321	4.2727	0.1	4056.6
29094	7.9232	4.1818	0.1	4060.9
29095	7.8321	4.4545	0.1	4027.3
29096	7.9232	4.3636	0.1	4027.5
29097	7.8321	4.6364	0.1	3995.2
29098	7.9232	4.5455	0.1	3990.7
29099	7.8321	4.8182	0.1	3960.9
29100	7.9232	4.7273	0.1	3951.1
29101	7.8321	5.	0.1	3925.2
29102	7.9232	4.9091	0.1	3909.6
29103	7.8321	5.1818	0.1	3888.9
29104	7.9232	5.0909	0.1	3867.4
29105	7.8321	5.3636	0.1	3853.
29106	7.9232	5.2727	0.1	3825.3
29107	7.8321	5.5455	0.1	3818.3
29108	7.9232	5.4545	0.1	3784.6
29109	7.8321	5.7273	0.1	3785.4
29110	7.9232	5.6364	0.1	3746.
29111	7.9232	5.8182	0.1	3710.2
29112	7.8321	5.9091	0.1	3758.4
29113	8.0143	0.27273	0.1	3670.7
29114	8.1054	0.18182	0.1	3583.7
29115	8.0143	9.0909e-002	0.1	3636.6
29116	8.0143	0.45455	0.1	3712.4
29117	8.1054	0.36364	0.1	3628.2
29118	8.0143	0.63636	0.1	3757.1
29119	8.1054	0.54545	0.1	3676.9
29120	8.0143	0.81818	0.1	3804.
29121	8.1054	0.72727	0.1	3729.1
29122	8.0143	1.	0.1	3852.1
29123	8.1054	0.90909	0.1	3783.9
29124	8.0143	1.1818	0.1	3900.1
29125	8.1054	1.0909	0.1	3839.9
29126	8.0143	1.3636	0.1	3946.8
29127	8.1054	1.2727	0.1	3895.5
29128	8.0143	1.5455	0.1	3991.
29129	8.1054	1.4545	0.1	3949.2
29130	8.0143	1.7273	0.1	4031.9
29131	8.1054	1.6364	0.1	3999.5
29132	8.0143	1.9091	0.1	4068.6
29133	8.1054	1.8182	0.1	4045.6
29134	8.0143	2.0909	0.1	4100.8
29135	8.1054	2.	0.1	4086.8
29136	8.0143	2.2727	0.1	4128.1
29137	8.1054	2.1818	0.1	4122.4
29138	8.0143	2.4545	0.1	4150.1
29139	8.1054	2.3636	0.1	4152.2
29140	8.0143	2.6364	0.1	4166.2
29141	8.1054	2.5455	0.1	4175.3
29142	8.0143	2.8182	0.1	4176.2
29143	8.1054	2.7273	0.1	4191.3
29144	8.0143	3.	0.1	4179.5
29145	8.1054	2.9091	0.1	4199.4
29146	8.0143	3.1818	0.1	4176.2
29147	8.1054	3.0909	0.1	4199.4
29148	8.0143	3.3636	0.1	4166.2
29149	8.1054	3.2727	0.1	4191.3
29150	8.0143	3.5455	0.1	4150.1
29151	8.1054	3.4545	0.1	4175.3
29152	8.0143	3.7273	0.1	4128.1
29153	8.1054	3.6364	0.1	4152.2
29154	8.0143	3.9091	0.1	4100.8
29155	8.1054	3.8182	0.1	4122.4
29156	8.0143	4.0909	0.1	4068.6
29157	8.1054	4.	0.1	4086.8
29158	8.0143	4.2727	0.1	4031.9
29159	8.1054	4.1818	0.1	4045.6
29160	8.0143	4.4545	0.1	3991.
29161	8.1054	4.3636	0.1	3999.5
29162	8.0143	4.6364	0.1	3946.8
29163	8.1054	4.5455	0.1	3949.2
29164	8.0143	4.8182	0.1	3900.1
29165	8.1054	4.7273	0.1	3895.5
29166	8.0143	5.	0.1	3852.1
29167	8.1054	4.9091	0.1	3839.9
29168	8.0143	5.1818	0.1	3804.
29169	8.1054	5.0909	0.1	3783.9
29170	8.0143	5.3636	0.1	3757.1
29171	8.1054	5.2727	0.1	3729.1
29172	8.0143	5.5455	0.1	3712.4
29173	8.1054	5.4545	0.1	3676.9
29174	8.0143	5.7273	0.1	3670.7
29175	8.1054	5.6364	0.1	3628.2
29176	8.1054	5.8182	0.1	3583.7
29177	8.0143	5.9091	0.1	3636.6
29178	8.1964	0.27273	0.1	3541.2
29179	8.2875	0.18182	0.1	3440.3
29180	8.1964	9.0909e-002	0.1	3499.2
29181	8.1964	0.45455	0.1	3592.9
29182	8.2875	0.36364	0.1	3494.4
29183	8.1964	0.63636	0.1	3649.2
29184	8.2875	0.54545	0.1	3554.6
29185	8.1964	0.81818	0.1	3709.4
29186	8.2875	0.72727	0.1	3620.6
29187	8.1964	1.	0.1	3772.2
29188	8.2875	0.90909	0.1	3691.1
29189	8.1964	1.1818	0.1	3835.7
29190	8.2875	1.0909	0.1	3764.2
29191	8.1964	1.3636	0.1	3898.2
29192	8.2875	1.2727	0.1	3837.8
29193	8.1964	1.5455	0.1	3958.
29194	8.2875	1.4545	0.1	3909.5
29195	8.1964	1.7273	0.1	4013.6
29196	8.2875	1.6364	0.1	3977.3
29197	8.1964	1.9091	0.1	4064.
29198	8.2875	1.8182	0.1	4039.7
29199	8.1964	2.0909	0.1	4108.5
29200	8.2875	2.	0.1	4095.8
29201	8.1964	2.2727	0.1	4146.5
29202	8.2875	2.1818	0.1	4144.8
29203	8.1964	2.4545	0.1	4177.4
29204	8.2875	2.3636	0.1	4186.
29205	8.1964	2.6364	0.1	4200.4
29206	8.2875	2.5455	0.1	4218.4
29207	8.1964	2.8182	0.1	4214.5
29208	8.2875	2.7273	0.1	4240.9
29209	8.1964	3.	0.1	4219.3
29210	8.2875	2.9091	0.1	4252.4
29211	8.1964	3.1818	0.1	4214.5
29212	8.2875	3.0909	0.1	4252.4
29213	8.1964	3.3636	0.1	4200.4
29214	8.2875	3.2727	0.1	4240.9
29215	8.1964	3.5455	0.1	4177.4
29216	8.2875	3.4545	0.1	4218.4
29217	8.1964	3.7273	0.1	4146.5
29218	8.2875	3.6364	0.1	4186.
29219	8.1964	3.9091	0.1	4108.5
29220	8.2875	3.8182	0.1	4144.8
29221	8.1964	4.0909	0.1	4064.
29222	8.2875	4.	0.1	4095.8
29223	8.1964	4.2727	0.1	4013.6
29224	8.2875	4.1818	0.1	4039.7
29225	8.1964	4.4545	0.1	3958.
29226	8.2875	4.3636	0.1	3977.3
29227	8.1964	4.6364	0.1	3898.2
29228	8.2875	4.5455	0.1	3909.5
29229	8.1964	4.8182	0.1	3835.7
29230	8.2875	4.7273	0.1	3837.8
29231	8.1964	5.	0.1	3772.2
29232	8.2875	4.9091	0.1	3764.2
29233	8.1964	5.1818	0.1	3709.4
29234	8.2875	5.0909	0.1	3691.1
29235	8.1964	5.3636	0.1	3649.2
29236	8.2875	5.2727	0.1	3620.6
29237	8.1964	5.5455	0.1	3592.9
29238	8.2875	5.4545	0.1	3554.6
29239	8.1964	5.7273	0.1	3541.2
29240	8.2875	5.6364	0.1	3494.4
29241	8.2875	5.8182	0.1	3440.3
29242	8.1964	5.9091	0.1	3499.2
29243	8.3786	0.27273	0.1	3393.6
29244	8.4696	0.18182	0.1	3276.6
29245	8.3786	9.0909e-002	0.1	3342.6
29246	8.3786	0.45455	0.1	3456.4
29247	8.4696	0.36364	0.1	3340.9
29248	8.3786	0.63636	0.1	3526.5
29249	8.4696	0.54545	0.1	3414.4
29250	8.3786	0.81818	0.1	3602.9
29251	8.4696	0.72727	0.1	3496.7
29252	8.3786	1.	0.1	3683.8
29253	8.4696	0.90909	0.1	3586.5
29254	8.3786	1.1818	0.1	3767.
29255	8.4696	1.0909	0.1	3681.2
29256	8.3786	1.3636	0.1	3849.7
29257	8.4696	1.2727	0.1	3777.7
29258	8.3786	1.5455	0.1	3929.3
29259	8.4696	1.4545	0.1	3872.6
29260	8.3786	1.7273	0.1	4003.9
29261	8.4696	1.6364	0.1	3962.8
29262	8.3786	1.9091	0.1	4071.8
29263	8.4696	1.8182	0.1	4046.3
29264	8.3786	2.0909	0.1	4132.3
29265	8.4696	2.	0.1	4121.6
29266	8.3786	2.2727	0.1	4184.3
29267	8.4696	2.1818	0.1	4187.8
29268	8.3786	2.4545	0.1	4226.9
29269	8.4696	2.3636	0.1	4243.9
29270	8.3786	2.6364	0.1	4258.8
29271	8.4696	2.5455	0.1	4288.5
29272	8.3786	2.8182	0.1	4278.7
29273	8.4696	2.7273	0.1	4319.7
29274	8.3786	3.	0.1	4285.4
29275	8.4696	2.9091	0.1	4335.7
29276	8.3786	3.1818	0.1	4278.7
29277	8.4696	3.0909	0.1	4335.7
29278	8.3786	3.3636	0.1	4258.8
29279	8.4696	3.2727	0.1	4319.7
29280	8.3786	3.5455	0.1	4226.9
29281	8.4696	3.4545	0.1	4288.5
29282	8.3786	3.7273	0.1	4184.3
29283	8.4696	3.6364	0.1	4243.9
29284	8.3786	3.9091	0.1	4132.3
29285	8.4696	3.8182	0.1	4187.8
29286	8.3786	4.0909	0.1	4071.8
29287	8.4696	4.	0.1	4121.6
29288	8.3786	4.2727	0.1	4003.9
29289	8.4696	4.1818	0.1	4046.3
29290	8.3786	4.4545	0.1	3929.3
29291	8.4696	4.3636	0.1	3962.8
29292	8.3786	4.6364	0.1	3849.7
29293	8.4696	4.5455	0.1	3872.6
29294	8.3786	4.8182	0.1	3767.
29295	8.4696	4.7273	0.1	3777.7
29296	8.3786	5.	0.1	3683.8
29297	8.4696	4.9091	0.1	3681.2
29298	8.3786	5.1818	0.1	3602.9
29299	8.4696	5.0909	0.1	3586.5
29300	8.3786	5.3636	0.1	3526.5
29301	8.4696	5.2727	0.1	3496.7
29302	8.3786	5.5455	0.1	3456.4
29303	8.4696	5.4545	0.1	3414.4
29304	8.3786	5.7273	0.1	3393.6
29305	8.4696	5.6364	0.1	3340.9
29306	8.4696	5.8182	0.1	3276.6
29307	8.3786	5.9091	0.1	3342.6
29308	8.5607	0.27273	0.1	3224.1
29309	8.6518	0.18182	0.1	3088.8
29310	8.5607	9.0909e-002	0.1	3163.3
29311	8.5607	0.45455	0.1	3299.3
29312	8.6518	0.36364	0.1	3163.7
29313	8.5607	0.63636	0.1	3385.3
29314	8.6518	0.54545	0.1	3252.1
29315	8.5607	0.81818	0.1	3481.3
29316	8.6518	0.72727	0.1	3353.8
29317	8.5607	1.	0.1	3585.1
29318	8.6518	0.90909	0.1	3467.4
29319	8.5607	1.1818	0.1	3693.2
29320	8.6518	1.0909	0.1	3589.4
29321	8.5607	1.3636	0.1	3801.8
29322	8.6518	1.2727	0.1	3715.4
29323	8.5607	1.5455	0.1	3907.1
29324	8.6518	1.4545	0.1	3840.2
29325	8.5607	1.7273	0.1	4006.
29326	8.6518	1.6364	0.1	3959.5
29327	8.5607	1.9091	0.1	4096.6
29328	8.6518	1.8182	0.1	4070.
29329	8.5607	2.0909	0.1	4177.5
29330	8.6518	2.	0.1	4170.
29331	8.5607	2.2727	0.1	4247.6
29332	8.6518	2.1818	0.1	4258.4
29333	8.5607	2.4545	0.1	4305.5
29334	8.6518	2.3636	0.1	4333.8
29335	8.5607	2.6364	0.1	4349.2
29336	8.6518	2.5455	0.1	4394.2
29337	8.5607	2.8182	0.1	4376.5
29338	8.6518	2.7273	0.1	4436.7
29339	8.5607	3.	0.1	4385.9
29340	8.6518	2.9091	0.1	4458.7
29341	8.5607	3.1818	0.1	4376.5
29342	8.6518	3.0909	0.1	4458.7
29343	8.5607	3.3636	0.1	4349.2
29344	8.6518	3.2727	0.1	4436.7
29345	8.5607	3.5455	0.1	4305.5
29346	8.6518	3.4545	0.1	4394.2
29347	8.5607	3.7273	0.1	4247.6
29348	8.6518	3.6364	0.1	4333.8
29349	8.5607	3.9091	0.1	4177.5
29350	8.6518	3.8182	0.1	4258.4
29351	8.5607	4.0909	0.1	4096.6
29352	8.6518	4.	0.1	4170.
29353	8.5607	4.2727	0.1	4006.
29354	8.6518	4.1818	0.1	4070.
29355	8.5607	4.4545	0.1	3907.1
29356	8.6518	4.3636	0.1	3959.5
29357	8.5607	4.6364	0.1	3801.8
29358	8.6518	4.5455	0.1	3840.2
29359	8.5607	4.8182	0.1	3693.2
29360	8.6518	4.7273	0.1	3715.4
29361	8.5607	5.	0.1	3585.1
29362	8.6518	4.9091	0.1	3589.4
29363	8.5607	5.1818	0.1	3481.3
29364	8.6518	5.0909	0.1	3467.4
29365	8.5607	5.3636	0.1	3385.3
29366	8.6518	5.2727	0.1	3353.8
29367	8.5607	5.5455	0.1	3299.3
29368	8.6518	5.4545	0.1	3252.1
29369	8.5607	5.7273	0.1	3224.1
29370	8.6518	5.6364	0.1	3163.7
29371	8.6518	5.8182	0.1	3088.8
29372	8.5607	5.9091	0.1	3163.3
29373	8.7429	0.27273	0.1	3028.7
29374	8.8339	0.18182	0.1	2872.9
29375	8.7429	9.0909e-002	0.1	2957.2
29376	8.7429	0.45455	0.1	3117.1
29377	8.8339	0.36364	0.1	2958.2
29378	8.7429	0.63636	0.1	3221.8
29379	8.8339	0.54545	0.1	3063.3
29380	8.7429	0.81818	0.1	3341.6
29381	8.8339	0.72727	0.1	3188.2
29382	8.7429	1.	0.1	3473.8
29383	8.8339	0.90909	0.1	3331.1
29384	8.7429	1.1818	0.1	3613.8
29385	8.8339	1.0909	0.1	3487.7
29386	8.7429	1.3636	0.1	3755.9
29387	8.8339	1.2727	0.1	3651.6
29388	8.7429	1.5455	0.1	3894.5
29389	8.8339	1.4545	0.1	3815.6
29390	8.7429	1.7273	0.1	4024.9
29391	8.8339	1.6364	0.1	3972.7
29392	8.7429	1.9091	0.1	4144.4
29393	8.8339	1.8182	0.1	4118.2
29394	8.7429	2.0909	0.1	4251.5
29395	8.8339	2.	0.1	4249.7
29396	8.7429	2.2727	0.1	4344.9
29397	8.8339	2.1818	0.1	4366.2
29398	8.7429	2.4545	0.1	4422.5
29399	8.8339	2.3636	0.1	4466.4
29400	8.7429	2.6364	0.1	4481.5
29401	8.8339	2.5455	0.1	4547.
29402	8.7429	2.8182	0.1	4518.5
29403	8.8339	2.7273	0.1	4603.9
29404	8.7429	3.	0.1	4531.2
29405	8.8339	2.9091	0.1	4633.4
29406	8.7429	3.1818	0.1	4518.5
29407	8.8339	3.0909	0.1	4633.4
29408	8.7429	3.3636	0.1	4481.5
29409	8.8339	3.2727	0.1	4603.9
29410	8.7429	3.5455	0.1	4422.5
29411	8.8339	3.4545	0.1	4547.
29412	8.7429	3.7273	0.1	4344.9
29413	8.8339	3.6364	0.1	4466.4
29414	8.7429	3.9091	0.1	4251.5
29415	8.8339	3.8182	0.1	4366.2
29416	8.7429	4.0909	0.1	4144.4
29417	8.8339	4.	0.1	4249.7
29418	8.7429	4.2727	0.1	4024.9
29419	8.8339	4.1818	0.1	4118.2
29420	8.7429	4.4545	0.1	3894.5
29421	8.8339	4.3636	0.1	3972.7
29422	8.7429	4.6364	0.1	3755.9
29423	8.8339	4.5455	0.1	3815.6
29424	8.7429	4.8182	0.1	3613.8
29425	8.8339	4.7273	0.1	3651.6
29426	8.7429	5.	0.1	3473.8
29427	8.8339	4.9091	0.1	3487.7
29428	8.7429	5.1818	0.1	3341.6
29429	8.8339	5.0909	0.1	3331.1
29430	8.7429	5.3636	0.1	3221.8
29431	8.8339	5.2727	0.1	3188.2
29432	8.7429	5.5455	0.1	3117.1
29433	8.8339	5.4545	0.1	3063.3
29434	8.7429	5.7273	0.1	3028.7
29435	8.8339	5.6364	0.1	2958.2
29436	8.8339	5.8182	0.1	2872.9
29437	8.7429	5.9091	0.1	2957.2
29438	8.925	0.27273	0.1	2802.9
29439	9.0161	0.18182	0.1	2624.9
29440	8.925	9.0909e-002	0.1	2720.1
29441	8.925	0.45455	0.1	2905.4
29442	9.0161	0.36364	0.1	2720.
29443	8.925	0.63636	0.1	3031.7
29444	9.0161	0.54545	0.1	2843.7
29445	8.925	0.81818	0.1	3180.5
29446	9.0161	0.72727	0.1	2996.1
29447	8.925	1.	0.1	3348.5
29448	9.0161	0.90909	0.1	3175.1
29449	8.925	1.1818	0.1	3529.3
29450	9.0161	1.0909	0.1	3375.4
29451	8.925	1.3636	0.1	3714.9
29452	9.0161	1.2727	0.1	3588.6
29453	8.925	1.5455	0.1	3896.9
29454	9.0161	1.4545	0.1	3804.
29455	8.925	1.7273	0.1	4068.3
29456	9.0161	1.6364	0.1	4011.
29457	8.925	1.9091	0.1	4225.
29458	9.0161	1.8182	0.1	4202.
29459	8.925	2.0909	0.1	4365.4
29460	9.0161	2.	0.1	4373.9
29461	8.925	2.2727	0.1	4488.2
29462	9.0161	2.1818	0.1	4526.1
29463	8.925	2.4545	0.1	4590.8
29464	9.0161	2.3636	0.1	4657.1
29465	8.925	2.6364	0.1	4668.9
29466	9.0161	2.5455	0.1	4762.5
29467	8.925	2.8182	0.1	4718.
29468	9.0161	2.7273	0.1	4836.5
29469	8.925	3.	0.1	4734.8
29470	9.0161	2.9091	0.1	4874.6
29471	8.925	3.1818	0.1	4718.
29472	9.0161	3.0909	0.1	4874.6
29473	8.925	3.3636	0.1	4668.9
29474	9.0161	3.2727	0.1	4836.5
29475	8.925	3.5455	0.1	4590.8
29476	9.0161	3.4545	0.1	4762.5
29477	8.925	3.7273	0.1	4488.2
29478	9.0161	3.6364	0.1	4657.1
29479	8.925	3.9091	0.1	4365.4
29480	9.0161	3.8182	0.1	4526.1
29481	8.925	4.0909	0.1	4225.
29482	9.0161	4.	0.1	4373.9
29483	8.925	4.2727	0.1	4068.3
29484	9.0161	4.1818	0.1	4202.
29485	8.925	4.4545	0.1	3896.9
29486	9.0161	4.3636	0.1	4011.
29487	8.925	4.6364	0.1	3714.9
29488	9.0161	4.5455	0.1	3804.
29489	8.925	4.8182	0.1	3529.3
29490	9.0161	4.7273	0.1	3588.5
29491	8.925	5.	0.1	3348.5
29492	9.0161	4.9091	0.1	3375.4
29493	8.925	5.1818	0.1	3180.5
29494	9.0161	5.0909	0.1	3175.1
29495	8.925	5.3636	0.1	3031.7
29496	9.0161	5.2727	0.1	2996.1
29497	8.925	5.5455	0.1	2905.4
29498	9.0161	5.4545	0.1	2843.7
29499	8.925	5.7273	0.1	2802.9
29500	9.0161	5.6364	0.1	2720.
29501	9.0161	5.8182	0.1	2624.9
29502	8.925	5.9091	0.1	2720.1
29503	9.1071	0.27273	0.1	2542.9
29504	9.1982	0.18182	0.1	2341.6
29505	9.1071	9.0909e-002	0.1	2448.2
29506	9.1071	0.45455	0.1	2660.1
29507	9.1982	0.36364	0.1	2445.5
29508	9.1071	0.63636	0.1	2811.4
29509	9.1982	0.54545	0.1	2590.2
29510	9.1071	0.81818	0.1	2995.5
29511	9.1982	0.72727	0.1	2775.3
29512	9.1071	1.	0.1	3208.2
29513	9.1982	0.90909	0.1	2998.6
29514	9.1071	1.1818	0.1	3441.3
29515	9.1982	1.0909	0.1	3253.7
29516	9.1071	1.3636	0.1	3683.9
29517	9.1982	1.2727	0.1	3530.5
29518	9.1071	1.5455	0.1	3923.3
29519	9.1982	1.4545	0.1	3814.3
29520	9.1071	1.7273	0.1	4148.6
29521	9.1982	1.6364	0.1	4088.6
29522	9.1071	1.9091	0.1	4353.4
29523	9.1982	1.8182	0.1	4340.2
29524	9.1071	2.0909	0.1	4536.
29525	9.1982	2.	0.1	4563.8
29526	9.1071	2.2727	0.1	4695.5
29527	9.1982	2.1818	0.1	4760.6
29528	9.1071	2.4545	0.1	4828.5
29529	9.1982	2.3636	0.1	4929.
29530	9.1071	2.6364	0.1	4929.
29531	9.1982	2.5455	0.1	5062.1
29532	9.1071	2.8182	0.1	4991.6
29533	9.1982	2.7273	0.1	5153.3
29534	9.1071	3.	0.1	5012.8
29535	9.1982	2.9091	0.1	5199.2
29536	9.1071	3.1818	0.1	4991.6
29537	9.1982	3.0909	0.1	5199.2
29538	9.1071	3.3636	0.1	4929.
29539	9.1982	3.2727	0.1	5153.3
29540	9.1071	3.5455	0.1	4828.5
29541	9.1982	3.4545	0.1	5062.1
29542	9.1071	3.7273	0.1	4695.5
29543	9.1982	3.6364	0.1	4929.
29544	9.1071	3.9091	0.1	4536.
29545	9.1982	3.8182	0.1	4760.6
29546	9.1071	4.0909	0.1	4353.4
29547	9.1982	4.	0.1	4563.8
29548	9.1071	4.2727	0.1	4148.6
29549	9.1982	4.1818	0.1	4340.2
29550	9.1071	4.4545	0.1	3923.3
29551	9.1982	4.3636	0.1	4088.6
29552	9.1071	4.6364	0.1	3683.9
29553	9.1982	4.5455	0.1	3814.3
29554	9.1071	4.8182	0.1	3441.3
29555	9.1982	4.7273	0.1	3530.5
29556	9.1071	5.	0.1	3208.2
29557	9.1982	4.9091	0.1	3253.7
29558	9.1071	5.1818	0.1	2995.5
29559	9.1982	5.0909	0.1	2998.6
29560	9.1071	5.3636	0.1	2811.4
29561	9.1982	5.2727	0.1	2775.3
29562	9.1071	5.5455	0.1	2660.1
29563	9.1982	5.4545	0.1	2590.2
29564	9.1071	5.7273	0.1	2542.9
29565	9.1982	5.6364	0.1	2445.5
29566	9.1982	5.8182	0.1	2341.6
29567	9.1071	5.9091	0.1	2448.2
29568	9.2893	0.27273	0.1	2245.5
29569	9.3804	0.18182	0.1	2020.9
29570	9.2893	9.0909e-002	0.1	2138.8
29571	9.2893	0.45455	0.1	2378.4
29572	9.3804	0.36364	0.1	2133.1
29573	9.2893	0.63636	0.1	2559.5
29574	9.3804	0.54545	0.1	2302.8
29575	9.2893	0.81818	0.1	2786.6
29576	9.3804	0.72727	0.1	2527.8
29577	9.2893	1.	0.1	3054.6
29578	9.3804	0.90909	0.1	2804.7
29579	9.2893	1.1818	0.1	3354.4
29580	9.3804	1.0909	0.1	3127.2
29581	9.2893	1.3636	0.1	3671.8
29582	9.3804	1.2727	0.1	3484.8
29583	9.2893	1.5455	0.1	3988.4
29584	9.3804	1.4545	0.1	3860.7
29585	9.2893	1.7273	0.1	4286.2
29586	9.3804	1.6364	0.1	4230.1
29587	9.2893	1.9091	0.1	4554.2
29588	9.3804	1.8182	0.1	4565.5
29589	9.2893	2.0909	0.1	4790.2
29590	9.3804	2.	0.1	4858.2
29591	9.2893	2.2727	0.1	4994.5
29592	9.3804	2.1818	0.1	5110.
29593	9.2893	2.4545	0.1	5161.8
29594	9.3804	2.3636	0.1	5318.6
29595	9.2893	2.6364	0.1	5284.5
29596	9.3804	2.5455	0.1	5475.6
29597	9.2893	2.8182	0.1	5358.2
29598	9.3804	2.7273	0.1	5575.2
29599	9.2893	3.	0.1	5382.7
29600	9.3804	2.9091	0.1	5622.3
29601	9.2893	3.1818	0.1	5358.2
29602	9.3804	3.0909	0.1	5622.3
29603	9.2893	3.3636	0.1	5284.5
29604	9.3804	3.2727	0.1	5575.2
29605	9.2893	3.5455	0.1	5161.8
29606	9.3804	3.4545	0.1	5475.6
29607	9.2893	3.7273	0.1	4994.5
29608	9.3804	3.6364	0.1	5318.6
29609	9.2893	3.9091	0.1	4790.2
29610	9.3804	3.8182	0.1	5110.
29611	9.2893	4.0909	0.1	4554.2
29612	9.3804	4.	0.1	4858.2
29613	9.2893	4.2727	0.1	4286.2
29614	9.3804	4.1818	0.1	4565.5
29615	9.2893	4.4545	0.1	3988.4
29616	9.3804	4.3636	0.1	4230.1
29617	9.2893	4.6364	0.1	3671.8
29618	9.3804	4.5455	0.1	3860.7
29619	9.2893	4.8182	0.1	3354.4
29620	9.3804	4.7273	0.1	3484.8
29621	9.2893	5.	0.1	3054.6
29622	9.3804	4.9091	0.1	3127.2
29623	9.2893	5.1818	0.1	2786.6
29624	9.3804	5.0909	0.1	2804.7
29625	9.2893	5.3636	0.1	2559.5
29626	9.3804	5.2727	0.1	2527.8
29627	9.2893	5.5455	0.1	2378.4
29628	9.3804	5.4545	0.1	2302.8
29629	9.2893	5.7273	0.1	2245.5
29630	9.3804	5.6364	0.1	2133.1
29631	9.3804	5.8182	0.1	2020.9
29632	9.2893	5.9091	0.1	2138.8
29633	9.4714	0.27273	0.1	1910.4
29634	9.5625	0.18182	0.1	1662.6
29635	9.4714	9.0909e-002	0.1	1790.5
29636	9.4714	0.45455	0.1	2062.2
29637	9.5625	0.36364	0.1	1786.2
29638	9.4714	0.63636	0.1	2280.5
29639	9.5625	0.54545	0.1	1990.
29640	9.4714	0.81818	0.1	2560.1
29641	9.5625	0.72727	0.1	2265.1
29642	9.4714	1.	0.1	2895.1
29643	9.5625	0.90909	0.1	2605.4
29644	9.4714	1.1818	0.1	3277.4
29645	9.5625	1.0909	0.1	3006.4
29646	9.4714	1.3636	0.1	3692.7
29647	9.5625	1.2727	0.1	3462.7
29648	9.4714	1.5455	0.1	4117.5
29649	9.5625	1.4545	0.1	3963.7
29650	9.4714	1.7273	0.1	4518.9
29651	9.5625	1.6364	0.1	4472.3
29652	9.4714	1.9091	0.1	4874.1
29653	9.5625	1.8182	0.1	4938.6
29654	9.4714	2.0909	0.1	5179.5
29655	9.5625	2.	0.1	5329.4
29656	9.4714	2.2727	0.1	5433.6
29657	9.5625	2.1818	0.1	5643.8
29658	9.4714	2.4545	0.1	5629.9
29659	9.5625	2.3636	0.1	5889.1
29660	9.4714	2.6364	0.1	5762.5
29661	9.5625	2.5455	0.1	6040.6
29662	9.4714	2.8182	0.1	5834.9
29663	9.5625	2.7273	0.1	6117.5
29664	9.4714	3.	0.1	5857.4
29665	9.5625	2.9091	0.1	6147.4
29666	9.4714	3.1818	0.1	5834.9
29667	9.5625	3.0909	0.1	6147.4
29668	9.4714	3.3636	0.1	5762.5
29669	9.5625	3.2727	0.1	6117.5
29670	9.4714	3.5455	0.1	5629.9
29671	9.5625	3.4545	0.1	6040.6
29672	9.4714	3.7273	0.1	5433.6
29673	9.5625	3.6364	0.1	5889.1
29674	9.4714	3.9091	0.1	5179.5
29675	9.5625	3.8182	0.1	5643.8
29676	9.4714	4.0909	0.1	4874.1
29677	9.5625	4.	0.1	5329.4
29678	9.4714	4.2727	0.1	4518.9
29679	9.5625	4.1818	0.1	4938.6
29680	9.4714	4.4545	0.1	4117.5
29681	9.5625	4.3636	0.1	4472.3
29682	9.4714	4.6364	0.1	3692.7
29683	9.5625	4.5455	0.1	3963.7
29684	9.4714	4.8182	0.1	3277.4
29685	9.5625	4.7273	0.1	3462.7
29686	9.4714	5.	0.1	2895.1
29687	9.5625	4.9091	0.1	3006.4
29688	9.4714	5.1818	0.1	2560.1
29689	9.5625	5.0909	0.1	2605.4
29690	9.4714	5.3636	0.1	2280.5
29691	9.5625	5.2727	0.1	2265.1
29692	9.4714	5.5455	0.1	2062.2
29693	9.5625	5.4545	0.1	1990.
29694	9.4714	5.7273	0.1	1910.4
29695	9.5625	5.6364	0.1	1786.2
29696	9.5625	5.8182	0.1	1662.6
29697	9.4714	5.9091	0.1	1790.5
29698	9.6536	0.27273	0.1	1542.
29699	9.7446	0.18182	0.1	1271.2
29700	9.6536	9.0909e-002	0.1	1404.1
29701	9.6536	0.45455	0.1	1723.3
29702	9.7446	0.36364	0.1	1422.1
29703	9.6536	0.63636	0.1	1992.
29704	9.7446	0.54545	0.1	1680.6
29705	9.6536	0.81818	0.1	2334.8
29706	9.7446	0.72727	0.1	2020.
29707	9.6536	1.	0.1	2746.5
29708	9.7446	0.90909	0.1	2430.9
29709	9.6536	1.1818	0.1	3225.
29710	9.7446	1.0909	0.1	2915.3
29711	9.6536	1.3636	0.1	3766.9
29712	9.7446	1.2727	0.1	3483.3
29713	9.6536	1.5455	0.1	4345.9
29714	9.7446	1.4545	0.1	4141.1
29715	9.6536	1.7273	0.1	4907.
29716	9.7446	1.6364	0.1	4885.8
29717	9.6536	1.9091	0.1	5398.5
29718	9.7446	1.8182	0.1	5623.3
29719	9.6536	2.0909	0.1	5792.6
29720	9.7446	2.	0.1	6155.8
29721	9.6536	2.2727	0.1	6095.
29722	9.7446	2.1818	0.1	6548.8
29723	9.6536	2.4545	0.1	6293.3
29724	9.7446	2.3636	0.1	6743.4
29725	9.6536	2.6364	0.1	6388.7
29726	9.7446	2.5455	0.1	6789.6
29727	9.6536	2.8182	0.1	6423.5
29728	9.7446	2.7273	0.1	6767.9
29729	9.6536	3.	0.1	6431.
29730	9.7446	2.9091	0.1	6745.1
29731	9.6536	3.1818	0.1	6423.5
29732	9.7446	3.0909	0.1	6745.1
29733	9.6536	3.3636	0.1	6388.7
29734	9.7446	3.2727	0.1	6767.9
29735	9.6536	3.5455	0.1	6293.3
29736	9.7446	3.4545	0.1	6789.6
29737	9.6536	3.7273	0.1	6095.
29738	9.7446	3.6364	0.1	6743.4
29739	9.6536	3.9091	0.1	5792.6
29740	9.7446	3.8182	0.1	6548.8
29741	9.6536	4.0909	0.1	5398.5
29742	9.7446	4.	0.1	6155.8
29743	9.6536	4.2727	0.1	4907.
29744	9.7446	4.1818	0.1	5623.3
29745	9.6536	4.4545	0.1	4345.9
29746	9.7446	4.3636	0.1	4885.8
29747	9.6536	4.6364	0.1	3766.9
29748	9.7446	4.5455	0.1	4141.1
29749	9.6536	4.8182	0.1	3225.
29750	9.7446	4.7273	0.1	3483.3
29751	9.6536	5.	0.1	2746.5
29752	9.7446	4.9091	0.1	2915.3
29753	9.6536	5.1818	0.1	2334.8
29754	9.7446	5.0909	0.1	2430.9
29755	9.6536	5.3636	0.1	1992.
29756	9.7446	5.2727	0.1	2020.
29757	9.6536	5.5455	0.1	1723.3
29758	9.7446	5.4545	0.1	1680.6
29759	9.6536	5.7273	0.1	1542.
29760	9.7446	5.6364	0.1	1422.1
29761	9.7446	5.8182	0.1	1271.2
29762	9.6536	5.9091	0.1	1404.1
29763	9.8357	0.27273	0.1	1159.9
29764	9.9268	0.18182	0.1	869.89
29765	9.8357	9.0909e-002	0.1	984.69
29766	9.8357	0.45455	0.1	1400.9
29767	9.9268	0.36364	0.1	1114.
29768	9.8357	0.63636	0.1	1741.4
29769	9.9268	0.54545	0.1	1471.2
29770	9.8357	0.81818	0.1	2156.6
29771	9.9268	0.72727	0.1	1896.
29772	9.8357	1.	0.1	2646.6
29773	9.9268	0.90909	0.1	2387.2
29774	9.8357	1.1818	0.1	3226.9
29775	9.9268	1.0909	0.1	2961.1
29776	9.8357	1.3636	0.1	3916.3
29777	9.9268	1.2727	0.1	3650.9
29778	9.8357	1.5455	0.1	4734.1
29779	9.9268	1.4545	0.1	4505.5
29780	9.8357	1.7273	0.1	5635.7
29781	9.9268	1.6364	0.1	5618.
29782	9.8357	1.9091	0.1	6373.3
29783	9.9268	1.8182	0.1	7131.5
29784	9.8357	2.0909	0.1	6897.9
29785	9.9268	2.	0.1	8250.6
29786	9.8357	2.2727	0.1	7180.6
29787	9.9268	2.1818	0.1	8236.2
29788	9.8357	2.4545	0.1	7225.8
29789	9.9268	2.3636	0.1	8004.4
29790	9.8357	2.6364	0.1	7158.8
29791	9.9268	2.5455	0.1	7671.6
29792	9.8357	2.8182	0.1	7081.9
29793	9.9268	2.7273	0.1	7443.2
29794	9.8357	3.	0.1	7052.3
29795	9.9268	2.9091	0.1	7327.8
29796	9.8357	3.1818	0.1	7081.9
29797	9.9268	3.0909	0.1	7327.8
29798	9.8357	3.3636	0.1	7158.8
29799	9.9268	3.2727	0.1	7443.2
29800	9.8357	3.5455	0.1	7225.8
29801	9.9268	3.4545	0.1	7671.6
29802	9.8357	3.7273	0.1	7180.6
29803	9.9268	3.6364	0.1	8004.4
29804	9.8357	3.9091	0.1	6897.9
29805	9.9268	3.8182	0.1	8236.2
29806	9.8357	4.0909	0.1	6373.3
29807	9.9268	4.	0.1	8250.6
29808	9.8357	4.2727	0.1	5635.7
29809	9.9268	4.1818	0.1	7131.5
29810	9.8357	4.4545	0.1	4734.1
29811	9.9268	4.3636	0.1	5618.
29812	9.8357	4.6364	0.1	3916.3
29813	9.9268	4.5455	0.1	4505.5
29814	9.8357	4.8182	0.1	3226.9
29815	9.9268	4.7273	0.1	3650.9
29816	9.8357	5.	0.1	2646.6
29817	9.9268	4.9091	0.1	2961.1
29818	9.8357	5.1818	0.1	2156.6
29819	9.9268	5.0909	0.1	2387.2
29820	9.8357	5.3636	0.1	1741.4
29821	9.9268	5.2727	0.1	1896.
29822	9.8357	5.5455	0.1	1400.9
29823	9.9268	5.4545	0.1	1471.2
29824	9.8357	5.7273	0.1	1159.9
29825	9.9268	5.6364	0.1	1114.
29826	9.9268	5.8182	0.1	869.89
29827	9.8357	5.9091	0.1	984.69
29828	10.018	0.27273	0.1	862.88
29829	10.109	0.18182	0.1	485.12
29830	10.018	9.0909e-002	0.1	552.51
29831	10.018	0.45455	0.1	1241.5
29832	10.109	0.36364	0.1	801.21
29833	10.018	0.63636	0.1	1687.
29834	10.109	0.54545	0.1	1150.8
29835	10.018	0.81818	0.1	2190.7
29836	10.109	0.72727	0.1	1532.8
29837	10.018	1.	0.1	2772.
29838	10.109	0.90909	0.1	1962.5
29839	10.018	1.1818	0.1	3468.
29840	10.109	1.0909	0.1	2464.7
29841	10.018	1.3636	0.1	4344.7
29842	10.109	1.2727	0.1	3080.3
29843	10.018	1.5455	0.1	5543.
29844	10.109	1.4545	0.1	3894.7
29845	10.018	1.7273	0.1	7250.4
29846	10.109	1.6364	0.1	4984.4
29847	10.018	1.9091	0.1	8977.1
29848	10.109	1.8182	0.1	7157.5
29849	10.018	2.0909	0.1	9461.5
29850	10.109	2.	0.1	13957
29851	10.018	2.2727	0.1	9020.3
29852	10.109	2.1818	0.1	10816
29853	10.018	2.4545	0.1	8436.4
29854	10.109	2.3636	0.1	9309.
29855	10.018	2.6364	0.1	7949.6
29856	10.109	2.5455	0.1	8435.2
29857	10.018	2.8182	0.1	7684.2
29858	10.109	2.7273	0.1	7959.8
29859	10.018	3.	0.1	7598.5
29860	10.109	2.9091	0.1	7747.4
29861	10.018	3.1818	0.1	7684.2
29862	10.109	3.0909	0.1	7747.4
29863	10.018	3.3636	0.1	7949.6
29864	10.109	3.2727	0.1	7959.8
29865	10.018	3.5455	0.1	8436.4
29866	10.109	3.4545	0.1	8435.2
29867	10.018	3.7273	0.1	9020.3
29868	10.109	3.6364	0.1	9309.
29869	10.018	3.9091	0.1	9461.5
29870	10.109	3.8182	0.1	10816
29871	10.018	4.0909	0.1	8977.1
29872	10.109	4.	0.1	13957
29873	10.018	4.2727	0.1	7250.4
29874	10.109	4.1818	0.1	7157.5
29875	10.018	4.4545	0.1	5543.
29876	10.109	4.3636	0.1	4984.4
29877	10.018	4.6364	0.1	4344.7
29878	10.109	4.5455	0.1	3894.7
29879	10.018	4.8182	0.1	3468.
29880	10.109	4.7273	0.1	3080.3
29881	10.018	5.	0.1	2772.
29882	10.109	4.9091	0.1	2464.7
29883	10.018	5.1818	0.1	2190.7
29884	10.109	5.0909	0.1	1962.5
29885	10.018	5.3636	0.1	1687.
29886	10.109	5.2727	0.1	1532.8
29887	10.018	5.5455	0.1	1241.5
29888	10.109	5.4545	0.1	1150.8
29889	10.018	5.7273	0.1	862.88
29890	10.109	5.6364	0.1	801.21
29891	10.109	5.8182	0.1	485.12
29892	10.018	5.9091	0.1	552.51
29893	10.367	3.7273	0.1	11108
29894	10.283	3.8182	0.1	12277
29895	10.367	3.9091	0.1	14695
29896	10.367	3.5455	0.1	9279.7
29897	10.283	3.6364	0.1	9844.5
29898	10.367	3.3636	0.1	8393.1
29899	10.283	3.4545	0.1	8713.5
29900	10.367	3.1818	0.1	7961.6
29901	10.283	3.2727	0.1	8118.9
29902	10.367	3.	0.1	7832.3
29903	10.283	3.0909	0.1	7863.7
29904	10.367	2.8182	0.1	7961.6
29905	10.283	2.9091	0.1	7863.7
29906	10.367	2.6364	0.1	8393.1
29907	10.283	2.7273	0.1	8118.9
29908	10.367	2.4545	0.1	9279.7
29909	10.283	2.5455	0.1	8713.5
29910	10.367	2.2727	0.1	11108
29911	10.283	2.3636	0.1	9844.5
29912	10.283	2.1818	0.1	12277
29913	10.367	2.0909	0.1	14695
29914	10.2	3.7273	0.1	11224
29915	10.2	3.9091	0.1	15137
29916	10.2	3.5455	0.1	9340.3
29917	10.2	3.3636	0.1	8455.3
29918	10.2	3.1818	0.1	8024.1
29919	10.2	3.	0.1	7895.
29920	10.2	2.8182	0.1	8024.1
29921	10.2	2.6364	0.1	8455.3
29922	10.2	2.4545	0.1	9340.3
29923	10.2	2.2727	0.1	11224
29924	10.2	2.0909	0.1	15137
29925	10.367	5.7273	0.1	479.17
29926	10.367	5.9091	0.1	172.98
29927	10.367	5.8182	5.e-002	121.2
29928	10.367	5.5455	0.1	754.27
29929	10.367	5.6364	5.e-002	258.94
29930	10.367	5.3636	0.1	1029.8
29931	10.367	5.4545	5.e-002	395.08
29932	10.367	5.1818	0.1	1330.5
29933	10.367	5.2727	5.e-002	542.38
29934	10.367	5.	0.1	1677.5
29935	10.367	5.0909	5.e-002	708.78
29936	10.367	4.8182	0.1	2101.3
29937	10.367	4.9091	5.e-002	905.83
29938	10.367	4.6364	0.1	2665.
29939	10.367	4.7273	5.e-002	1153.2
29940	10.367	4.4545	0.1	3404.1
29941	10.367	4.5455	5.e-002	1485.
29942	10.367	4.2727	0.1	5205.5
29943	10.367	4.3636	5.e-002	2011.
29944	10.367	4.0909	0.1	10582
29945	10.367	4.1818	5.e-002	3358.3
29946	10.283	4.	0.1	15378
29947	10.367	4.	5.e-002	2860.3
29948	10.2	4.0909	0.1	11173
29949	10.2	4.	5.e-002	3407.2
29950	10.2	4.2727	0.1	5771.6
29951	10.2	4.1818	5.e-002	3815.6
29952	10.2	4.4545	0.1	3794.7
29953	10.2	4.3636	5.e-002	2359.6
29954	10.2	4.6364	0.1	2981.3
29955	10.2	4.5455	5.e-002	1763.7
29956	10.2	4.8182	0.1	2358.
29957	10.2	4.7273	5.e-002	1385.8
29958	10.2	5.	0.1	1884.7
29959	10.2	4.9091	5.e-002	1098.4
29960	10.2	5.1818	0.1	1494.
29961	10.2	5.0909	5.e-002	865.31
29962	10.2	5.3636	0.1	1154.1
29963	10.2	5.2727	5.e-002	665.18
29964	10.2	5.5455	0.1	843.16
29965	10.2	5.4545	5.e-002	485.78
29966	10.2	5.7273	0.1	535.18
29967	10.2	5.6364	5.e-002	318.78
29968	10.2	5.9091	0.1	193.31
29969	10.2	5.8182	5.e-002	150.63
29970	10.367	0.27273	0.1	479.17
29971	10.367	9.0909e-002	0.1	172.98
29972	10.367	0.18182	5.e-002	121.2
29973	10.367	0.45455	0.1	754.27
29974	10.367	0.36364	5.e-002	258.94
29975	10.367	0.63636	0.1	1029.8
29976	10.367	0.54545	5.e-002	395.08
29977	10.367	0.81818	0.1	1330.5
29978	10.367	0.72727	5.e-002	542.38
29979	10.367	1.	0.1	1677.5
29980	10.367	0.90909	5.e-002	708.78
29981	10.367	1.1818	0.1	2101.3
29982	10.367	1.0909	5.e-002	905.83
29983	10.367	1.3636	0.1	2665.
29984	10.367	1.2727	5.e-002	1153.2
29985	10.367	1.5455	0.1	3404.1
29986	10.367	1.4545	5.e-002	1485.
29987	10.367	1.7273	0.1	5205.5
29988	10.367	1.6364	5.e-002	2011.
29989	10.367	1.9091	0.1	10582
29990	10.367	1.8182	5.e-002	3358.3
29991	10.283	2.	0.1	15378
29992	10.367	2.	5.e-002	2860.3
29993	10.2	1.9091	0.1	11173
29994	10.2	2.	5.e-002	3407.2
29995	10.2	1.7273	0.1	5771.6
29996	10.2	1.8182	5.e-002	3815.6
29997	10.2	1.5455	0.1	3794.7
29998	10.2	1.6364	5.e-002	2359.6
29999	10.2	1.3636	0.1	2981.3
30000	10.2	1.4545	5.e-002	1763.7
30001	10.2	1.1818	0.1	2358.
30002	10.2	1.2727	5.e-002	1385.8
30003	10.2	1.	0.1	1884.7
30004	10.2	1.0909	5.e-002	1098.4
30005	10.2	0.81818	0.1	1494.
30006	10.2	0.90909	5.e-002	865.31
30007	10.2	0.63636	0.1	1154.1
30008	10.2	0.72727	5.e-002	665.18
30009	10.2	0.45455	0.1	843.16
30010	10.2	0.54545	5.e-002	485.78
30011	10.2	0.27273	0.1	535.18
30012	10.2	0.36364	5.e-002	318.78
30013	10.2	9.0909e-002	0.1	193.31
30014	10.2	0.18182	5.e-002	150.63
30015	10.459	6.	0.1	209.19
30016	10.367	6.	5.e-002	38.355
30017	10.643	6.	0.1	596.51
30018	10.551	6.	5.e-002	30.429
30019	10.827	6.	0.1	955.39
30020	10.735	6.	5.e-002	77.943
30021	11.011	6.	0.1	1267.7
30022	10.919	6.	5.e-002	102.25
30023	11.196	6.	0.1	1537.1
30024	11.104	6.	5.e-002	115.16
30025	11.38	6.	0.1	1763.6
30026	11.288	6.	5.e-002	119.94
30027	11.564	6.	0.1	1949.
30028	11.472	6.	5.e-002	119.61
30029	11.748	6.	0.1	2096.3
30030	11.656	6.	5.e-002	116.27
30031	11.933	6.	0.1	2209.6
30032	11.841	6.	5.e-002	111.45
30033	12.117	6.	0.1	2293.3
30034	12.025	6.	5.e-002	106.2
30035	12.301	6.	0.1	2352.
30036	12.209	6.	5.e-002	101.17
30037	12.485	6.	0.1	2389.7
30038	12.393	6.	5.e-002	96.748
30039	12.67	6.	0.1	2410.2
30040	12.577	6.	5.e-002	93.114
30041	12.854	6.	0.1	2416.6
30042	12.762	6.	5.e-002	90.319
30043	13.038	6.	0.1	2411.6
30044	12.946	6.	5.e-002	88.335
30045	13.222	6.	0.1	2397.5
30046	13.13	6.	5.e-002	87.087
30047	13.407	6.	0.1	2376.2
30048	13.314	6.	5.e-002	86.479
30049	13.591	6.	0.1	2349.1
30050	13.499	6.	5.e-002	86.406
30051	13.775	6.	0.1	2317.4
30052	13.683	6.	5.e-002	86.766
30053	13.959	6.	0.1	2282.3
30054	13.867	6.	5.e-002	87.464
30055	14.143	6.	0.1	2244.3
30056	14.051	6.	5.e-002	88.417
30057	14.328	6.	0.1	2204.3
30058	14.236	6.	5.e-002	89.551
30059	14.512	6.	0.1	2162.7
30060	14.42	6.	5.e-002	90.804
30061	14.696	6.	0.1	2119.9
30062	14.604	6.	5.e-002	92.125
30063	14.88	6.	0.1	2076.1
30064	14.788	6.	5.e-002	93.47
30065	15.065	6.	0.1	2031.8
30066	14.973	6.	5.e-002	94.806
30067	15.249	6.	0.1	1986.9
30068	15.157	6.	5.e-002	96.106
30069	15.433	6.	0.1	1941.8
30070	15.341	6.	5.e-002	97.348
30071	15.617	6.	0.1	1896.5
30072	15.525	6.	5.e-002	98.517
30073	15.802	6.	0.1	1851.2
30074	15.709	6.	5.e-002	99.6
30075	15.986	6.	0.1	1805.8
30076	15.894	6.	5.e-002	100.59
30077	16.17	6.	0.1	1760.5
30078	16.078	6.	5.e-002	101.48
30079	16.354	6.	0.1	1715.2
30080	16.262	6.	5.e-002	102.27
30081	16.539	6.	0.1	1670.1
30082	16.446	6.	5.e-002	102.95
30083	16.723	6.	0.1	1625.1
30084	16.631	6.	5.e-002	103.53
30085	16.907	6.	0.1	1580.3
30086	16.815	6.	5.e-002	104.
30087	17.091	6.	0.1	1535.7
30088	16.999	6.	5.e-002	104.37
30089	17.275	6.	0.1	1491.2
30090	17.183	6.	5.e-002	104.63
30091	17.46	6.	0.1	1446.9
30092	17.368	6.	5.e-002	104.79
30093	17.644	6.	0.1	1402.9
30094	17.552	6.	5.e-002	104.86
30095	17.828	6.	0.1	1359.
30096	17.736	6.	5.e-002	104.82
30097	18.012	6.	0.1	1315.3
30098	17.92	6.	5.e-002	104.68
30099	18.197	6.	0.1	1271.8
30100	18.105	6.	5.e-002	104.45
30101	18.381	6.	0.1	1228.5
30102	18.289	6.	5.e-002	104.13
30103	18.565	6.	0.1	1185.5
30104	18.473	6.	5.e-002	103.71
30105	18.749	6.	0.1	1142.6
30106	18.657	6.	5.e-002	103.19
30107	18.934	6.	0.1	1099.9
30108	18.841	6.	5.e-002	102.58
30109	19.118	6.	0.1	1057.4
30110	19.026	6.	5.e-002	101.87
30111	19.302	6.	0.1	1015.1
30112	19.21	6.	5.e-002	101.06
30113	19.486	6.	0.1	972.92
30114	19.394	6.	5.e-002	100.15
30115	19.67	6.	0.1	930.96
30116	19.578	6.	5.e-002	99.143
30117	19.855	6.	0.1	889.18
30118	19.763	6.	5.e-002	98.028
30119	20.039	6.	0.1	847.57
30120	19.947	6.	5.e-002	96.804
30121	20.223	6.	0.1	806.13
30122	20.131	6.	5.e-002	95.465
30123	20.407	6.	0.1	764.86
30124	20.315	6.	5.e-002	94.006
30125	20.592	6.	0.1	723.75
30126	20.5	6.	5.e-002	92.422
30127	20.776	6.	0.1	682.81
30128	20.684	6.	5.e-002	90.705
30129	20.96	6.	0.1	642.02
30130	20.868	6.	5.e-002	88.847
30131	21.144	6.	0.1	601.39
30132	21.052	6.	5.e-002	86.838
30133	21.329	6.	0.1	560.92
30134	21.236	6.	5.e-002	84.667
30135	21.513	6.	0.1	520.6
30136	21.421	6.	5.e-002	82.323
30137	21.697	6.	0.1	480.45
30138	21.605	6.	5.e-002	79.791
30139	21.881	6.	0.1	440.46
30140	21.789	6.	5.e-002	77.053
30141	22.066	6.	0.1	400.65
30142	21.973	6.	5.e-002	74.091
30143	22.25	6.	0.1	361.02
30144	22.158	6.	5.e-002	70.881
30145	22.434	6.	0.1	321.6
30146	22.342	6.	5.e-002	67.396
30147	22.618	6.	0.1	282.42
30148	22.526	6.	5.e-002	63.6
30149	22.802	6.	0.1	243.51
30150	22.71	6.	5.e-002	59.449
30151	22.987	6.	0.1	204.94
30152	22.895	6.	5.e-002	54.886
30153	23.171	6.	0.1	166.81
30154	23.079	6.	5.e-002	49.832
30155	23.355	6.	0.1	129.26
30156	23.263	6.	5.e-002	44.172
30157	23.539	6.	0.1	92.607
30158	23.447	6.	5.e-002	37.728
30159	23.724	6.	0.1	57.132
30160	23.632	6.	5.e-002	30.155
30161	23.908	6.	0.1	23.932
30162	23.816	6.	5.e-002	20.37
30163	24.	5.9091	0.1	23.04
30164	24.	6.	5.e-002	7.8636
30165	24.	5.7273	0.1	52.763
30166	24.	5.8182	5.e-002	7.0078
30167	24.	5.5455	0.1	76.699
30168	24.	5.6364	5.e-002	7.9834
30169	24.	5.3636	0.1	95.707
30170	24.	5.4545	5.e-002	8.8362
30171	24.	5.1818	0.1	111.68
30172	24.	5.2727	5.e-002	9.2938
30173	24.	5.	0.1	125.34
30174	24.	5.0909	5.e-002	9.4987
30175	24.	4.8182	0.1	137.14
30176	24.	4.9091	5.e-002	9.5299
30177	24.	4.6364	0.1	147.33
30178	24.	4.7273	5.e-002	9.4408
30179	24.	4.4545	0.1	156.13
30180	24.	4.5455	5.e-002	9.2704
30181	24.	4.2727	0.1	163.65
30182	24.	4.3636	5.e-002	9.0485
30183	24.	4.0909	0.1	170.01
30184	24.	4.1818	5.e-002	8.7996
30185	24.	3.9091	0.1	175.29
30186	24.	4.	5.e-002	8.5443
30187	24.	3.7273	0.1	179.53
30188	24.	3.8182	5.e-002	8.3005
30189	24.	3.5455	0.1	182.79
30190	24.	3.6364	5.e-002	8.084
30191	24.	3.3636	0.1	185.1
30192	24.	3.4545	5.e-002	7.9084
30193	24.	3.1818	0.1	186.48
30194	24.	3.2727	5.e-002	7.7848
30195	24.	3.	0.1	186.93
30196	24.	3.0909	5.e-002	7.7209
30197	24.	2.8182	0.1	186.48
30198	24.	2.9091	5.e-002	7.7209
30199	24.	2.6364	0.1	185.1
30200	24.	2.7273	5.e-002	7.7848
30201	24.	2.4545	0.1	182.79
30202	24.	2.5455	5.e-002	7.9084
30203	24.	2.2727	0.1	179.53
30204	24.	2.3636	5.e-002	8.084
30205	24.	2.0909	0.1	175.29
30206	24.	2.1818	5.e-002	8.3005
30207	24.	1.9091	0.1	170.01
30208	24.	2.	5.e-002	8.5443
30209	24.	1.7273	0.1	163.65
30210	24.	1.8182	5.e-002	8.7997
30211	24.	1.5455	0.1	156.13
30212	24.	1.6364	5.e-002	9.0486
30213	24.	1.3636	0.1	147.33
30214	24.	1.4545	5.e-002	9.2704
30215	24.	1.1818	0.1	137.14
30216	24.	1.2727	5.e-002	9.4409
30217	24.	1.	0.1	125.34
30218	24.	1.0909	5.e-002	9.53
30219	24.	0.81818	0.1	111.68
30220	24.	0.90909	5.e-002	9.4987
30221	24.	0.63636	0.1	95.708
30222	24.	0.72727	5.e-002	9.2938
30223	24.	0.45455	0.1	76.699
30224	24.	0.54545	5.e-002	8.8362
30225	24.	0.27273	0.1	52.763
30226	24.	0.36364	5.e-002	7.9834
30227	24.	9.0909e-002	0.1	23.04
30228	24.	0.18182	5.e-002	7.0078
30229	2.3842e-015	0.27273	0.1	1829.2
30230	7.9472e-016	9.0909e-002	0.1	1393.
30231	1.6109e-015	0.18182	5.e-002	164.02
30232	3.9736e-015	0.45455	0.1	2621.7
30233	3.2219e-015	0.36364	5.e-002	86.612
30234	5.563e-015	0.63636	0.1	3046.8
30235	4.8328e-015	0.54545	5.e-002	78.744
30236	7.1525e-015	0.81818	0.1	3321.3
30237	6.4438e-015	0.72727	5.e-002	69.557
30238	8.7419e-015	1.	0.1	3509.5
30239	8.0547e-015	0.90909	5.e-002	59.436
30240	1.0331e-014	1.1818	0.1	3646.
30241	9.6657e-015	1.0909	5.e-002	50.738
30242	1.1921e-014	1.3636	0.1	3748.
30243	1.1277e-014	1.2727	5.e-002	43.681
30244	1.351e-014	1.5455	0.1	3826.
30245	1.2888e-014	1.4545	5.e-002	37.948
30246	1.51e-014	1.7273	0.1	3886.1
30247	1.4498e-014	1.6364	5.e-002	33.305
30248	1.6689e-014	1.9091	0.1	3932.8
30249	1.6109e-014	1.8182	5.e-002	29.56
30250	1.8279e-014	2.0909	0.1	3968.8
30251	1.772e-014	2.	5.e-002	26.567
30252	1.9868e-014	2.2727	0.1	3996.1
30253	1.9331e-014	2.1818	5.e-002	24.212
30254	2.1457e-014	2.4545	0.1	4016.1
30255	2.0942e-014	2.3636	5.e-002	22.414
30256	2.3047e-014	2.6364	0.1	4029.8
30257	2.2553e-014	2.5455	5.e-002	21.113
30258	2.4636e-014	2.8182	0.1	4037.8
30259	2.4164e-014	2.7273	5.e-002	20.268
30260	2.6226e-014	3.	0.1	4040.4
30261	2.5775e-014	2.9091	5.e-002	19.851
30262	2.7815e-014	3.1818	0.1	4037.8
30263	2.7386e-014	3.0909	5.e-002	19.851
30264	2.9405e-014	3.3636	0.1	4029.8
30265	2.8997e-014	3.2727	5.e-002	20.268
30266	3.0994e-014	3.5455	0.1	4016.1
30267	3.0608e-014	3.4545	5.e-002	21.113
30268	3.2583e-014	3.7273	0.1	3996.1
30269	3.2219e-014	3.6364	5.e-002	22.414
30270	3.4173e-014	3.9091	0.1	3968.8
30271	3.383e-014	3.8182	5.e-002	24.212
30272	3.5762e-014	4.0909	0.1	3932.8
30273	3.5441e-014	4.	5.e-002	26.567
30274	3.7352e-014	4.2727	0.1	3886.1
30275	3.7052e-014	4.1818	5.e-002	29.56
30276	3.8941e-014	4.4545	0.1	3826.
30277	3.8663e-014	4.3636	5.e-002	33.305
30278	4.0531e-014	4.6364	0.1	3748.
30279	4.0274e-014	4.5455	5.e-002	37.948
30280	4.212e-014	4.8182	0.1	3646.
30281	4.1885e-014	4.7273	5.e-002	43.681
30282	4.371e-014	5.	0.1	3509.5
30283	4.3495e-014	4.9091	5.e-002	50.738
30284	4.5299e-014	5.1818	0.1	3321.3
30285	4.5106e-014	5.0909	5.e-002	59.436
30286	4.6888e-014	5.3636	0.1	3046.8
30287	4.6717e-014	5.2727	5.e-002	69.557
30288	4.8478e-014	5.5455	0.1	2621.7
30289	4.8328e-014	5.4545	5.e-002	78.744
30290	5.0067e-014	5.7273	0.1	1829.2
30291	4.9939e-014	5.6364	5.e-002	86.612
30292	5.1657e-014	5.9091	0.1	1393.
30293	5.155e-014	5.8182	5.e-002	164.02
30294	23.908	0.	0.1	23.931
30295	24.	0.	5.e-002	7.8636
30296	23.724	0.	0.1	57.132
30297	23.816	0.	5.e-002	20.37
30298	23.539	0.	0.1	92.607
30299	23.632	0.	5.e-002	30.155
30300	23.355	0.	0.1	129.26
30301	23.447	0.	5.e-002	37.728
30302	23.171	0.	0.1	166.81
30303	23.263	0.	5.e-002	44.173
30304	22.987	0.	0.1	204.94
30305	23.079	0.	5.e-002	49.832
30306	22.802	0.	0.1	243.51
30307	22.895	0.	5.e-002	54.886
30308	22.618	0.	0.1	282.42
30309	22.71	0.	5.e-002	59.449
30310	22.434	0.	0.1	321.6
30311	22.526	0.	5.e-002	63.6
30312	22.25	0.	0.1	361.02
30313	22.342	0.	5.e-002	67.396
30314	22.066	0.	0.1	400.65
30315	22.158	0.	5.e-002	70.882
30316	21.881	0.	0.1	440.46
30317	21.973	0.	5.e-002	74.091
30318	21.697	0.	0.1	480.45
30319	21.789	0.	5.e-002	77.053
30320	21.513	0.	0.1	520.6
30321	21.605	0.	5.e-002	79.791
30322	21.329	0.	0.1	560.92
30323	21.421	0.	5.e-002	82.323
30324	21.144	0.	0.1	601.39
30325	21.236	0.	5.e-002	84.667
30326	20.96	0.	0.1	642.02
30327	21.052	0.	5.e-002	86.838
30328	20.776	0.	0.1	682.81
30329	20.868	0.	5.e-002	88.847
30330	20.592	0.	0.1	723.75
30331	20.684	0.	5.e-002	90.705
30332	20.407	0.	0.1	764.86
30333	20.5	0.	5.e-002	92.422
30334	20.223	0.	0.1	806.13
30335	20.315	0.	5.e-002	94.007
30336	20.039	0.	0.1	847.57
30337	20.131	0.	5.e-002	95.465
30338	19.855	0.	0.1	889.18
30339	19.947	0.	5.e-002	96.804
30340	19.67	0.	0.1	930.96
30341	19.763	0.	5.e-002	98.028
30342	19.486	0.	0.1	972.92
30343	19.578	0.	5.e-002	99.144
30344	19.302	0.	0.1	1015.1
30345	19.394	0.	5.e-002	100.15
30346	19.118	0.	0.1	1057.4
30347	19.21	0.	5.e-002	101.06
30348	18.934	0.	0.1	1099.9
30349	19.026	0.	5.e-002	101.87
30350	18.749	0.	0.1	1142.6
30351	18.841	0.	5.e-002	102.58
30352	18.565	0.	0.1	1185.5
30353	18.657	0.	5.e-002	103.19
30354	18.381	0.	0.1	1228.5
30355	18.473	0.	5.e-002	103.71
30356	18.197	0.	0.1	1271.8
30357	18.289	0.	5.e-002	104.13
30358	18.012	0.	0.1	1315.3
30359	18.105	0.	5.e-002	104.45
30360	17.828	0.	0.1	1359.
30361	17.92	0.	5.e-002	104.68
30362	17.644	0.	0.1	1402.9
30363	17.736	0.	5.e-002	104.82
30364	17.46	0.	0.1	1446.9
30365	17.552	0.	5.e-002	104.86
30366	17.275	0.	0.1	1491.2
30367	17.368	0.	5.e-002	104.79
30368	17.091	0.	0.1	1535.7
30369	17.183	0.	5.e-002	104.63
30370	16.907	0.	0.1	1580.3
30371	16.999	0.	5.e-002	104.37
30372	16.723	0.	0.1	1625.1
30373	16.815	0.	5.e-002	104.
30374	16.539	0.	0.1	1670.1
30375	16.631	0.	5.e-002	103.53
30376	16.354	0.	0.1	1715.2
30377	16.446	0.	5.e-002	102.95
30378	16.17	0.	0.1	1760.5
30379	16.262	0.	5.e-002	102.27
30380	15.986	0.	0.1	1805.8
30381	16.078	0.	5.e-002	101.48
30382	15.802	0.	0.1	1851.2
30383	15.894	0.	5.e-002	100.59
30384	15.617	0.	0.1	1896.5
30385	15.709	0.	5.e-002	99.6
30386	15.433	0.	0.1	1941.8
30387	15.525	0.	5.e-002	98.517
30388	15.249	0.	0.1	1986.9
30389	15.341	0.	5.e-002	97.348
30390	15.065	0.	0.1	2031.8
30391	15.157	0.	5.e-002	96.106
30392	14.88	0.	0.1	2076.1
30393	14.973	0.	5.e-002	94.806
30394	14.696	0.	0.1	2119.9
30395	14.788	0.	5.e-002	93.47
30396	14.512	0.	0.1	2162.7
30397	14.604	0.	5.e-002	92.125
30398	14.328	0.	0.1	2204.3
30399	14.42	0.	5.e-002	90.805
30400	14.143	0.	0.1	2244.3
30401	14.236	0.	5.e-002	89.552
30402	13.959	0.	0.1	2282.3
30403	14.051	0.	5.e-002	88.417
30404	13.775	0.	0.1	2317.4
30405	13.867	0.	5.e-002	87.465
30406	13.591	0.	0.1	2349.1
30407	13.683	0.	5.e-002	86.766
30408	13.407	0.	0.1	2376.2
30409	13.499	0.	5.e-002	86.406
30410	13.222	0.	0.1	2397.5
30411	13.314	0.	5.e-002	86.479
30412	13.038	0.	0.1	2411.6
30413	13.13	0.	5.e-002	87.088
30414	12.854	0.	0.1	2416.6
30415	12.946	0.	5.e-002	88.335
30416	12.67	0.	0.1	2410.2
30417	12.762	0.	5.e-002	90.319
30418	12.485	0.	0.1	2389.7
30419	12.577	0.	5.e-002	93.114
30420	12.301	0.	0.1	2352.
30421	12.393	0.	5.e-002	96.748
30422	12.117	0.	0.1	2293.3
30423	12.209	0.	5.e-002	101.17
30424	11.933	0.	0.1	2209.6
30425	12.025	0.	5.e-002	106.2
30426	11.748	0.	0.1	2096.3
30427	11.841	0.	5.e-002	111.45
30428	11.564	0.	0.1	1949.
30429	11.656	0.	5.e-002	116.27
30430	11.38	0.	0.1	1763.6
30431	11.472	0.	5.e-002	119.61
30432	11.196	0.	0.1	1537.1
30433	11.288	0.	5.e-002	119.94
30434	11.011	0.	0.1	1267.7
30435	11.104	0.	5.e-002	115.16
30436	10.827	0.	0.1	955.39
30437	10.919	0.	5.e-002	102.25
30438	10.643	0.	0.1	596.51
30439	10.735	0.	5.e-002	77.943
30440	10.459	0.	0.1	209.19
30441	10.551	0.	5.e-002	30.429
30442	10.367	0.	5.e-002	38.355
30443	10.109	0.	0.1	241.32
30444	10.2	0.	5.e-002	43.39
30445	9.9268	0.	0.1	700.93
30446	10.018	0.	5.e-002	20.889
30447	9.7446	0.	0.1	1146.4
30448	9.8357	0.	5.e-002	61.535
30449	9.5625	0.	0.1	1552.8
30450	9.6536	0.	5.e-002	76.09
30451	9.3804	0.	0.1	1922.8
30452	9.4714	0.	5.e-002	77.914
30453	9.1982	0.	0.1	2255.
30454	9.2893	0.	5.e-002	70.922
30455	9.0161	0.	0.1	2549.5
30456	9.1071	0.	5.e-002	58.725
30457	8.8339	0.	0.1	2808.
30458	8.925	0.	5.e-002	43.837
30459	8.6518	0.	0.1	3033.8
30460	8.7429	0.	5.e-002	28.145
30461	8.4696	0.	0.1	3230.4
30462	8.5607	0.	5.e-002	13.197
30463	8.2875	0.	0.1	3402.
30464	8.3786	0.	5.e-002	5.5674
30465	8.1054	0.	0.1	3552.3
30466	8.1964	0.	5.e-002	15.797
30467	7.9232	0.	0.1	3684.9
30468	8.0143	0.	5.e-002	26.363
30469	7.7411	0.	0.1	3802.9
30470	7.8321	0.	5.e-002	35.251
30471	7.5589	0.	0.1	3909.1
30472	7.65	0.	5.e-002	42.337
30473	7.3768	0.	0.1	4005.6
30474	7.4679	0.	5.e-002	47.676
30475	7.1946	0.	0.1	4094.4
30476	7.2857	0.	5.e-002	51.368
30477	7.0125	0.	0.1	4177.
30478	7.1036	0.	5.e-002	53.533
30479	6.8304	0.	0.1	4254.9
30480	6.9214	0.	5.e-002	54.287
30481	6.6482	0.	0.1	4328.9
30482	6.7393	0.	5.e-002	53.737
30483	6.4661	0.	0.1	4400.1
30484	6.5571	0.	5.e-002	51.973
30485	6.2839	0.	0.1	4469.
30486	6.375	0.	5.e-002	49.073
30487	6.1018	0.	0.1	4536.3
30488	6.1929	0.	5.e-002	45.094
30489	5.9196	0.	0.1	4602.4
30490	6.0107	0.	5.e-002	40.08
30491	5.7375	0.	0.1	4667.7
30492	5.8286	0.	5.e-002	34.061
30493	5.5554	0.	0.1	4732.4
30494	5.6464	0.	5.e-002	27.054
30495	5.3732	0.	0.1	4796.9
30496	5.4643	0.	5.e-002	19.081
30497	5.1911	0.	0.1	4861.2
30498	5.2821	0.	5.e-002	10.234
30499	5.0089	0.	0.1	4925.7
30500	5.1	0.	5.e-002	3.0505
30501	4.8268	0.	0.1	4990.3
30502	4.9179	0.	5.e-002	11.915
30503	4.6446	0.	0.1	5055.2
30504	4.7357	0.	5.e-002	24.033
30505	4.4625	0.	0.1	5120.5
30506	4.5536	0.	5.e-002	37.469
30507	4.2804	0.	0.1	5186.1
30508	4.3714	0.	5.e-002	52.193
30509	4.0982	0.	0.1	5252.1
30510	4.1893	0.	5.e-002	68.261
30511	3.9161	0.	0.1	5318.5
30512	4.0071	0.	5.e-002	85.754
30513	3.7339	0.	0.1	5385.2
30514	3.825	0.	5.e-002	104.77
30515	3.5518	0.	0.1	5452.
30516	3.6429	0.	5.e-002	125.4
30517	3.3696	0.	0.1	5518.8
30518	3.4607	0.	5.e-002	147.79
30519	3.1875	0.	0.1	5585.5
30520	3.2786	0.	5.e-002	172.06
30521	3.0054	0.	0.1	5651.5
30522	3.0964	0.	5.e-002	198.36
30523	2.8232	0.	0.1	5716.6
30524	2.9143	0.	5.e-002	226.86
30525	2.6411	0.	0.1	5780.
30526	2.7321	0.	5.e-002	257.77
30527	2.4589	0.	0.1	5841.
30528	2.55	0.	5.e-002	291.29
30529	2.2768	0.	0.1	5898.5
30530	2.3679	0.	5.e-002	327.71
30531	2.0946	0.	0.1	5951.
30532	2.1857	0.	5.e-002	367.33
30533	1.9125	0.	0.1	5996.4
30534	2.0036	0.	5.e-002	410.52
30535	1.7304	0.	0.1	6032.
30536	1.8214	0.	5.e-002	457.76
30537	1.5482	0.	0.1	6053.8
30538	1.6393	0.	5.e-002	509.63
30539	1.3661	0.	0.1	6056.2
30540	1.4571	0.	5.e-002	566.91
30541	1.1839	0.	0.1	6030.6
30542	1.275	0.	5.e-002	630.65
30543	1.0018	0.	0.1	5963.6
30544	1.0929	0.	5.e-002	702.37
30545	0.81964	0.	0.1	5832.6
30546	0.91071	0.	5.e-002	784.2
30547	0.6375	0.	0.1	5595.7
30548	0.72857	0.	5.e-002	880.42
30549	0.45536	0.	0.1	5174.5
30550	0.54643	0.	5.e-002	996.95
30551	0.27321	0.	0.1	4314.9
30552	0.36429	0.	5.e-002	1153.9
30553	9.1071e-002	0.	0.1	2552.9
30554	0.18214	0.	5.e-002	1466.5
30555	0.	0.	5.e-002	1937.
30556	9.1071e-002	6.	0.1	2552.9
30557	5.2451e-014	6.	5.e-002	1937.
30558	0.27321	6.	0.1	4314.9
30559	0.18214	6.	5.e-002	1466.5
30560	0.45536	6.	0.1	5174.5
30561	0.36429	6.	5.e-002	1153.9
30562	0.6375	6.	0.1	5595.7
30563	0.54643	6.	5.e-002	996.95
30564	0.81964	6.	0.1	5832.6
30565	0.72857	6.	5.e-002	880.42
30566	1.0018	6.	0.1	5963.6
30567	0.91071	6.	5.e-002	784.2
30568	1.1839	6.	0.1	6030.6
30569	1.0929	6.	5.e-002	702.37
30570	1.3661	6.	0.1	6056.2
30571	1.275	6.	5.e-002	630.65
30572	1.5482	6.	0.1	6053.8
30573	1.4571	6.	5.e-002	566.91
30574	1.7304	6.	0.1	6032.
30575	1.6393	6.	5.e-002	509.63
30576	1.9125	6.	0.1	5996.4
30577	1.8214	6.	5.e-002	457.76
30578	2.0946	6.	0.1	5951.
30579	2.0036	6.	5.e-002	410.52
30580	2.2768	6.	0.1	5898.5
30581	2.1857	6.	5.e-002	367.33
30582	2.4589	6.	0.1	5841.
30583	2.3679	6.	5.e-002	327.71
30584	2.6411	6.	0.1	5780.
30585	2.55	6.	5.e-002	291.29
30586	2.8232	6.	0.1	5716.6
30587	2.7321	6.	5.e-002	257.77
30588	3.0054	6.	0.1	5651.5
30589	2.9143	6.	5.e-002	226.86
30590	3.1875	6.	0.1	5585.5
30591	3.0964	6.	5.e-002	198.36
30592	3.3696	6.	0.1	5518.8
30593	3.2786	6.	5.e-002	172.06
30594	3.5518	6.	0.1	5452.
30595	3.4607	6.	5.e-002	147.79
30596	3.7339	6.	0.1	5385.2
30597	3.6429	6.	5.e-002	125.4
30598	3.9161	6.	0.1	5318.5
30599	3.825	6.	5.e-002	104.77
30600	4.0982	6.	0.1	5252.1
30601	4.0071	6.	5.e-002	85.754
30602	4.2804	6.	0.1	5186.1
30603	4.1893	6.	5.e-002	68.261
30604	4.4625	6.	0.1	5120.5
30605	4.3714	6.	5.e-002	52.193
30606	4.6446	6.	0.1	5055.2
30607	4.5536	6.	5.e-002	37.469
30608	4.8268	6.	0.1	4990.3
30609	4.7357	6.	5.e-002	24.033
30610	5.0089	6.	0.1	4925.7
30611	4.9179	6.	5.e-002	11.915
30612	5.1911	6.	0.1	4861.2
30613	5.1	6.	5.e-002	3.0505
30614	5.3732	6.	0.1	4796.9
30615	5.2821	6.	5.e-002	10.234
30616	5.5554	6.	0.1	4732.4
30617	5.4643	6.	5.e-002	19.081
30618	5.7375	6.	0.1	4667.7
30619	5.6464	6.	5.e-002	27.054
30620	5.9196	6.	0.1	4602.4
30621	5.8286	6.	5.e-002	34.06
30622	6.1018	6.	0.1	4536.3
30623	6.0107	6.	5.e-002	40.08
30624	6.2839	6.	0.1	4469.
30625	6.1929	6.	5.e-002	45.093
30626	6.4661	6.	0.1	4400.1
30627	6.375	6.	5.e-002	49.072
30628	6.6482	6.	0.1	4328.9
30629	6.5571	6.	5.e-002	51.973
30630	6.8304	6.	0.1	4254.9
30631	6.7393	6.	5.e-002	53.736
30632	7.0125	6.	0.1	4177.
30633	6.9214	6.	5.e-002	54.287
30634	7.1946	6.	0.1	4094.4
30635	7.1036	6.	5.e-002	53.533
30636	7.3768	6.	0.1	4005.6
30637	7.2857	6.	5.e-002	51.368
30638	7.5589	6.	0.1	3909.1
30639	7.4679	6.	5.e-002	47.675
30640	7.7411	6.	0.1	3802.9
30641	7.65	6.	5.e-002	42.337
30642	7.9232	6.	0.1	3684.9
30643	7.8321	6.	5.e-002	35.25
30644	8.1054	6.	0.1	3552.3
30645	8.0143	6.	5.e-002	26.363
30646	8.2875	6.	0.1	3402.
30647	8.1964	6.	5.e-002	15.797
30648	8.4696	6.	0.1	3230.4
30649	8.3786	6.	5.e-002	5.5673
30650	8.6518	6.	0.1	3033.8
30651	8.5607	6.	5.e-002	13.198
30652	8.8339	6.	0.1	2808.
30653	8.7429	6.	5.e-002	28.145
30654	9.0161	6.	0.1	2549.5
30655	8.925	6.	5.e-002	43.837
30656	9.1982	6.	0.1	2255.
30657	9.1071	6.	5.e-002	58.725
30658	9.3804	6.	0.1	1922.8
30659	9.2893	6.	5.e-002	70.922
30660	9.5625	6.	0.1	1552.8
30661	9.4714	6.	5.e-002	77.915
30662	9.7446	6.	0.1	1146.4
30663	9.6536	6.	5.e-002	76.091
30664	9.9268	6.	0.1	700.93
30665	9.8357	6.	5.e-002	61.535
30666	10.109	6.	0.1	241.32
30667	10.018	6.	5.e-002	20.889
30668	10.2	6.	5.e-002	43.39
30669	9.9268	6.	0.	700.93
30670	10.109	6.	0.	241.32
30671	9.7446	6.	0.	1146.4
30672	9.5625	6.	0.	1552.8
30673	9.3804	6.	0.	1922.8
30674	9.1982	6.	0.	2255.
30675	9.0161	6.	0.	2549.5
30676	8.8339	6.	0.	2808.
30677	8.6518	6.	0.	3033.8
30678	8.4696	6.	0.	3230.4
30679	8.2875	6.	0.	3402.
30680	8.1054	6.	0.	3552.3
30681	7.9232	6.	0.	3684.9
30682	7.7411	6.	0.	3802.9
30683	7.5589	6.	0.	3909.1
30684	7.3768	6.	0.	4005.6
30685	7.1946	6.	0.	4094.4
30686	7.0125	6.	0.	4177.
30687	6.8304	6.	0.	4254.9
30688	6.6482	6.	0.	4328.9
30689	6.4661	6.	0.	4400.1
30690	6.2839	6.	0.	4469.
30691	6.1018	6.	0.	4536.3
30692	5.9196	6.	0.	4602.4
30693	5.7375	6.	0.	4667.7
30694	5.5554	6.	0.	4732.4
30695	5.3732	6.	0.	4796.9
30696	5.1911	6.	0.	4861.2
30697	5.0089	6.	0.	4925.7
30698	4.8268	6.	0.	4990.3
30699	4.6446	6.	0.	5055.2
30700	4.4625	6.	0.	5120.5
30701	4.2804	6.	0.	5186.1
30702	4.0982	6.	0.	5252.1
30703	3.9161	6.	0.	5318.5
30704	3.7339	6.	0.	5385.2
30705	3.5518	6.	0.	5452.
30706	3.3696	6.	0.	5518.8
30707	3.1875	6.	0.	5585.5
30708	3.0054	6.	0.	5651.5
30709	2.8232	6.	0.	5716.6
30710	2.6411	6.	0.	5780.
30711	2.4589	6.	0.	5841.
30712	2.2768	6.	0.	5898.5
30713	2.0946	6.	0.	5951.
30714	1.9125	6.	0.	5996.4
30715	1.7304	6.	0.	6032.
30716	1.5482	6.	0.	6053.8
30717	1.3661	6.	0.	6056.2
30718	1.1839	6.	0.	6030.6
30719	1.0018	6.	0.	5963.6
30720	0.81964	6.	0.	5832.6
30721	0.6375	6.	0.	5595.7
30722	0.45536	6.	0.	5174.5
30723	0.27321	6.	0.	4314.9
30724	9.1071e-002	6.	0.	2552.9
30725	10.2	5.9091	0.	193.31
30726	5.1657e-014	5.9091	0.	1393.
30727	0.27321	0.	0.	4314.9
30728	9.1071e-002	0.	0.	2552.9
30729	0.45536	0.	0.	5174.5
30730	0.6375	0.	0.	5595.7
30731	0.81964	0.	0.	5832.6
30732	1.0018	0.	0.	5963.6
30733	1.1839	0.	0.	6030.6
30734	1.3661	0.	0.	6056.2
30735	1.5482	0.	0.	6053.8
30736	1.7304	0.	0.	6032.
30737	1.9125	0.	0.	5996.4
30738	2.0946	0.	0.	5951.
30739	2.2768	0.	0.	5898.5
30740	2.4589	0.	0.	5841.
30741	2.6411	0.	0.	5780.
30742	2.8232	0.	0.	5716.6
30743	3.0054	0.	0.	5651.5
30744	3.1875	0.	0.	5585.5
30745	3.3696	0.	0.	5518.8
30746	3.5518	0.	0.	5452.
30747	3.7339	0.	0.	5385.2
30748	3.9161	0.	0.	5318.5
30749	4.0982	0.	0.	5252.1
30750	4.2804	0.	0.	5186.1
30751	4.4625	0.	0.	5120.5
30752	4.6446	0.	0.	5055.2
30753	4.8268	0.	0.	4990.3
30754	5.0089	0.	0.	4925.7
30755	5.1911	0.	0.	4861.2
30756	5.3732	0.	0.	4796.9
30757	5.5554	0.	0.	4732.4
30758	5.7375	0.	0.	4667.7
30759	5.9196	0.	0.	4602.4
30760	6.1018	0.	0.	4536.3
30761	6.2839	0.	0.	4469.
30762	6.4661	0.	0.	4400.1
30763	6.6482	0.	0.	4328.9
30764	6.8304	0.	0.	4254.9
30765	7.0125	0.	0.	4177.
30766	7.1946	0.	0.	4094.4
30767	7.3768	0.	0.	4005.6
30768	7.5589	0.	0.	3909.1
30769	7.7411	0.	0.	3802.9
30770	7.9232	0.	0.	3684.9
30771	8.1054	0.	0.	3552.3
30772	8.2875	0.	0.	3402.
30773	8.4696	0.	0.	3230.4
30774	8.6518	0.	0.	3033.8
30775	8.8339	0.	0.	2808.
30776	9.0161	0.	0.	2549.5
30777	9.1982	0.	0.	2255.
30778	9.3804	0.	0.	1922.8
30779	9.5625	0.	0.	1552.8
30780	9.7446	0.	0.	1146.4
30781	9.9268	0.	0.	700.93
30782	10.109	0.	0.	241.32
30783	10.2	9.0909e-002	0.	193.31
30784	7.9472e-016	9.0909e-002	0.	1393.
30785	10.643	0.	0.	596.51
30786	10.459	0.	0.	209.19
30787	10.827	0.	0.	955.39
30788	11.011	0.	0.	1267.7
30789	11.196	0.	0.	1537.1
30790	11.38	0.	0.	1763.6
30791	11.564	0.	0.	1949.
30792	11.748	0.	0.	2096.3
30793	11.933	0.	0.	2209.6
30794	12.117	0.	0.	2293.3
30795	12.301	0.	0.	2352.
30796	12.485	0.	0.	2389.7
30797	12.67	0.	0.	2410.2
30798	12.854	0.	0.	2416.6
30799	13.038	0.	0.	2411.6
30800	13.222	0.	0.	2397.5
30801	13.407	0.	0.	2376.2
30802	13.591	0.	0.	2349.1
30803	13.775	0.	0.	2317.4
30804	13.959	0.	0.	2282.3
30805	14.143	0.	0.	2244.3
30806	14.328	0.	0.	2204.3
30807	14.512	0.	0.	2162.7
30808	14.696	0.	0.	2119.9
30809	14.88	0.	0.	2076.1
30810	15.065	0.	0.	2031.8
30811	15.249	0.	0.	1986.9
30812	15.433	0.	0.	1941.8
30813	15.617	0.	0.	1896.5
30814	15.802	0.	0.	1851.2
30815	15.986	0.	0.	1805.8
30816	16.17	0.	0.	1760.5
30817	16.354	0.	0.	1715.2
30818	16.539	0.	0.	1670.1
30819	16.723	0.	0.	1625.1
30820	16.907	0.	0.	1580.3
30821	17.091	0.	0.	1535.7
30822	17.275	0.	0.	1491.2
30823	17.46	0.	0.	1446.9
30824	17.644	0.	0.	1402.9
30825	17.828	0.	0.	1359.
30826	18.012	0.	0.	1315.3
30827	18.197	0.	0.	1271.8
30828	18.381	0.	0.	1228.5
30829	18.565	0.	0.	1185.5
30830	18.749	0.	0.	1142.6
30831	18.934	0.	0.	1099.9
30832	19.118	0.	0.	1057.4
30833	19.302	0.	0.	1015.1
30834	19.486	0.	0.	972.92
30835	19.67	0.	0.	930.96
30836	19.855	0.	0.	889.18
30837	20.039	0.	0.	847.57
30838	20.223	0.	0.	806.13
30839	20.407	0.	0.	764.86
30840	20.592	0.	0.	723.75
30841	20.776	0.	0.	682.81
30842	20.96	0.	0.	642.02
30843	21.144	0.	0.	601.39
30844	21.329	0.	0.	560.92
30845	21.513	0.	0.	520.6
30846	21.697	0.	0.	480.45
30847	21.881	0.	0.	440.46
30848	22.066	0.	0.	400.65
30849	22.25	0.	0.	361.02
30850	22.434	0.	0.	321.6
30851	22.618	0.	0.	282.42
30852	22.802	0.	0.	243.51
30853	22.987	0.	0.	204.94
30854	23.171	0.	0.	166.81
30855	23.355	0.	0.	129.26
30856	23.539	0.	0.	92.607
30857	23.724	0.	0.	57.132
30858	23.908	0.	0.	23.932
30859	10.367	9.0909e-002	0.	172.98
30860	24.	9.0909e-002	0.	23.04
30861	5.0067e-014	5.7273	0.	1829.2
30862	4.8478e-014	5.5455	0.	2621.7
30863	4.6888e-014	5.3636	0.	3046.8
30864	4.5299e-014	5.1818	0.	3321.3
30865	4.371e-014	5.	0.	3509.5
30866	4.212e-014	4.8182	0.	3646.
30867	4.0531e-014	4.6364	0.	3748.
30868	3.8941e-014	4.4545	0.	3826.
30869	3.7352e-014	4.2727	0.	3886.1
30870	3.5762e-014	4.0909	0.	3932.8
30871	3.4173e-014	3.9091	0.	3968.8
30872	3.2583e-014	3.7273	0.	3996.1
30873	3.0994e-014	3.5455	0.	4016.1
30874	2.9405e-014	3.3636	0.	4029.8
30875	2.7815e-014	3.1818	0.	4037.8
30876	2.6226e-014	3.	0.	4040.4
30877	2.4636e-014	2.8182	0.	4037.8
30878	2.3047e-014	2.6364	0.	4029.8
30879	2.1457e-014	2.4545	0.	4016.1
30880	1.9868e-014	2.2727	0.	3996.1
30881	1.8279e-014	2.0909	0.	3968.8
30882	1.6689e-014	1.9091	0.	3932.8
30883	1.51e-014	1.7273	0.	3886.1
30884	1.351e-014	1.5455	0.	3826.
30885	1.1921e-014	1.3636	0.	3748.
30886	1.0331e-014	1.1818	0.	3646.
30887	8.7419e-015	1.	0.	3509.5
30888	7.1525e-015	0.81818	0.	3321.3
30889	5.563e-015	0.63636	0.	3046.8
30890	3.9736e-015	0.45455	0.	2621.7
30891	2.3842e-015	0.27273	0.	1829.2
30892	24.	0.27273	0.	52.763
30893	24.	0.45455	0.	76.699
30894	24.	0.63636	0.	95.708
30895	24.	0.81818	0.	111.68
30896	24.	1.	0.	125.34
30897	24.	1.1818	0.	137.14
30898	24.	1.3636	0.	147.33
30899	24.	1.5455	0.	156.13
30900	24.	1.7273	0.	163.65
30901	24.	1.9091	0.	170.01
30902	24.	2.0909	0.	175.29
30903	24.	2.2727	0.	179.53
30904	24.	2.4545	0.	182.79
30905	24.	2.6364	0.	185.1
30906	24.	2.8182	0.	186.48
30907	24.	3.	0.	186.93
30908	24.	3.1818	0.	186.48
30909	24.	3.3636	0.	185.1
30910	24.	3.5455	0.	182.79
30911	24.	3.7273	0.	179.53
30912	24.	3.9091	0.	175.29
30913	24.	4.0909	0.	170.01
30914	24.	4.2727	0.	163.65
30915	24.	4.4545	0.	156.13
30916	24.	4.6364	0.	147.33
30917	24.	4.8182	0.	137.14
30918	24.	5.	0.	125.34
30919	24.	5.1818	0.	111.68
30920	24.	5.3636	0.	95.707
30921	24.	5.5455	0.	76.699
30922	24.	5.7273	0.	52.763
30923	24.	5.9091	0.	23.04
30924	23.908	6.	0.	23.931
30925	23.724	6.	0.	57.132
30926	23.539	6.	0.	92.607
30927	23.355	6.	0.	129.26
30928	23.171	6.	0.	166.81
30929	22.987	6.	0.	204.94
30930	22.802	6.	0.	243.51
30931	22.618	6.	0.	282.42
30932	22.434	6.	0.	321.6
30933	22.25	6.	0.	361.02
30934	22.066	6.	0.	400.65
30935	21.881	6.	0.	440.46
30936	21.697	6.	0.	480.45
30937	21.513	6.	0.	520.6
30938	21.329	6.	0.	560.92
30939	21.144	6.	0.	601.39
30940	20.96	6.	0.	642.02
30941	20.776	6.	0.	682.81
30942	20.592	6.	0.	723.75
30943	20.407	6.	0.	764.86
30944	20.223	6.	0.	806.13
30945	20.039	6.	0.	847.57
30946	19.855	6.	0.	889.18
30947	19.67	6.	0.	930.96
30948	19.486	6.	0.	972.92
30949	19.302	6.	0.	1015.1
30950	19.118	6.	0.	1057.4
30951	18.934	6.	0.	1099.9
30952	18.749	6.	0.	1142.6
30953	18.565	6.	0.	1185.5
30954	18.381	6.	0.	1228.5
30955	18.197	6.	0.	1271.8
30956	18.012	6.	0.	1315.3
30957	17.828	6.	0.	1359.
30958	17.644	6.	0.	1402.9
30959	17.46	6.	0.	1446.9
30960	17.275	6.	0.	1491.2
30961	17.091	6.	0.	1535.7
30962	16.907	6.	0.	1580.3
30963	16.723	6.	0.	1625.1
30964	16.539	6.	0.	1670.1
30965	16.354	6.	0.	1715.2
30966	16.17	6.	0.	1760.5
30967	15.986	6.	0.	1805.8
30968	15.802	6.	0.	1851.2
30969	15.617	6.	0.	1896.5
30970	15.433	6.	0.	1941.8
30971	15.249	6.	0.	1986.9
30972	15.065	6.	0.	2031.8
30973	14.88	6.	0.	2076.1
30974	14.696	6.	0.	2119.9
30975	14.512	6.	0.	2162.7
30976	14.328	6.	0.	2204.3
30977	14.143	6.	0.	2244.3
30978	13.959	6.	0.	2282.3
30979	13.775	6.	0.	2317.4
30980	13.591	6.	0.	2349.1
30981	13.407	6.	0.	2376.2
30982	13.222	6.	0.	2397.5
30983	13.038	6.	0.	2411.6
30984	12.854	6.	0.	2416.6
30985	12.67	6.	0.	2410.2
30986	12.485	6.	0.	2389.7
30987	12.301	6.	0.	2352.
30988	12.117	6.	0.	2293.3
30989	11.933	6.	0.	2209.6
30990	11.748	6.	0.	2096.3
30991	11.564	6.	0.	1949.
30992	11.38	6.	0.	1763.6
30993	11.196	6.	0.	1537.1
30994	11.011	6.	0.	1267.7
30995	10.827	6.	0.	955.39
30996	10.643	6.	0.	596.51
30997	10.459	6.	0.	209.19
30998	10.367	5.9091	0.	172.98
30999	10.2	1.7273	0.	5771.6
31000	10.2	1.9091	0.	11173
31001	10.2	1.5455	0.	3794.7
31002	10.2	1.3636	0.	2981.3
31003	10.2	1.1818	0.	2358.
31004	10.2	1.	0.	1884.7
31005	10.2	0.81818	0.	1494.
31006	10.2	0.63636	0.	1154.1
31007	10.2	0.45455	0.	843.16
31008	10.2	0.27273	0.	535.18
31009	10.283	2.	0.	15378
31010	10.367	0.27273	0.	479.17
31011	10.367	0.45455	0.	754.27
31012	10.367	0.63636	0.	1029.8
31013	10.367	0.81818	0.	1330.5
31014	10.367	1.	0.	1677.5
31015	10.367	1.1818	0.	2101.3
31016	10.367	1.3636	0.	2665.
31017	10.367	1.5455	0.	3404.1
31018	10.367	1.7273	0.	5205.5
31019	10.367	1.9091	0.	10582
31020	10.2	4.2727	0.	5771.6
31021	10.2	4.0909	0.	11173
31022	10.2	4.4545	0.	3794.7
31023	10.2	4.6364	0.	2981.3
31024	10.2	4.8182	0.	2358.
31025	10.2	5.	0.	1884.7
31026	10.2	5.1818	0.	1494.
31027	10.2	5.3636	0.	1154.1
31028	10.2	5.5455	0.	843.16
31029	10.2	5.7273	0.	535.18
31030	10.283	4.	0.	15378
31031	10.367	5.7273	0.	479.17
31032	10.367	5.5455	0.	754.27
31033	10.367	5.3636	0.	1029.8
31034	10.367	5.1818	0.	1330.5
31035	10.367	5.	0.	1677.5
31036	10.367	4.8182	0.	2101.3
31037	10.367	4.6364	0.	2665.
31038	10.367	4.4545	0.	3404.1
31039	10.367	4.2727	0.	5205.5
31040	10.367	4.0909	0.	10582
