Node Number	X Location (in)	Y Location (in)	Z Location (in)	Middle Principal Stress (psi)
1	11.6	2.1818	0.	130.46
2	11.6	2.3636	0.	-26.936
3	11.6	2.5455	0.	0.62763
4	11.6	2.7273	0.	-3.0029
5	11.6	2.9091	0.	-1.5747
6	11.6	3.0909	0.	-1.5747
7	11.6	3.2727	0.	-3.0029
8	11.6	3.4545	0.	0.62763
9	11.6	3.6364	0.	-26.936
10	11.6	3.8182	0.	130.46
11	11.767	2.1818	0.	49.888
12	11.767	2.3636	0.	-29.27
13	11.767	2.5455	0.	1.0389
14	11.767	2.7273	0.	-3.0949
15	11.767	2.9091	0.	-1.501
16	11.767	3.0909	0.	-1.501
17	11.767	3.2727	0.	-3.0949
18	11.767	3.4545	0.	1.0389
19	11.767	3.6364	0.	-29.27
20	11.767	3.8182	0.	49.888
21	11.416	5.8182	0.	-14.933
22	11.416	5.6364	0.	-6.9013
23	11.416	5.4545	0.	-5.2996
24	11.416	5.2727	0.	-4.7187
25	11.416	5.0909	0.	-4.6445
26	11.416	4.9091	0.	-5.9838
27	11.416	4.7273	0.	-4.2844
28	11.416	4.5455	0.	-17.472
29	11.416	4.3636	0.	14.17
30	11.416	4.1818	0.	-98.951
31	11.416	4.	0.	-421.12
32	11.416	3.8182	0.	17.512
33	11.416	3.6364	0.	-12.283
34	11.416	3.4545	0.	4.0364
35	11.416	3.2727	0.	-2.4958
36	11.416	3.0909	0.	-0.51391
37	11.416	2.9091	0.	-0.51391
38	11.416	2.7273	0.	-2.4958
39	11.416	2.5455	0.	4.0364
40	11.416	2.3636	0.	-12.283
41	11.416	2.1818	0.	17.512
42	11.416	2.	0.	-421.12
43	11.416	1.8182	0.	-98.951
44	11.416	1.6364	0.	14.17
45	11.416	1.4545	0.	-17.472
46	11.416	1.2727	0.	-4.2844
47	11.416	1.0909	0.	-5.9838
48	11.416	0.90909	0.	-4.6445
49	11.416	0.72727	0.	-4.7187
50	11.416	0.54545	0.	-5.2996
51	11.416	0.36364	0.	-6.9013
52	11.416	0.18182	0.	-14.933
53	11.232	5.8182	0.	-2.7318
54	11.232	5.6364	0.	-1.0672
55	11.232	5.4545	0.	-0.19928
56	11.232	5.2727	0.	0.37823
57	11.232	5.0909	0.	0.60825
58	11.232	4.9091	0.	0.90058
59	11.232	4.7273	0.	0.73364
60	11.232	4.5455	0.	0.43273
61	11.232	4.3636	0.	4.1336
62	11.232	4.1818	0.	11.929
63	11.232	4.	0.	52.944
64	11.232	3.8182	0.	26.751
65	11.232	3.6364	0.	-4.1418
66	11.232	3.4545	0.	1.0576
67	11.232	3.2727	0.	-6.8215e-002
68	11.232	3.0909	0.	-0.14608
69	11.232	2.9091	0.	-0.14609
70	11.232	2.7273	0.	-6.8217e-002
71	11.232	2.5455	0.	1.0576
72	11.232	2.3636	0.	-4.1418
73	11.232	2.1818	0.	26.751
74	11.232	2.	0.	52.944
75	11.232	1.8182	0.	11.929
76	11.232	1.6364	0.	4.1337
77	11.232	1.4545	0.	0.43272
78	11.232	1.2727	0.	0.73364
79	11.232	1.0909	0.	0.90058
80	11.232	0.90909	0.	0.60825
81	11.232	0.72727	0.	0.37823
82	11.232	0.54545	0.	-0.19928
83	11.232	0.36364	0.	-1.0672
84	11.232	0.18182	0.	-2.7318
85	11.048	5.8182	0.	-0.80792
86	11.048	5.6364	0.	-0.90133
87	11.048	5.4545	0.	-0.77648
88	11.048	5.2727	0.	-0.7658
89	11.048	5.0909	0.	-0.83057
90	11.048	4.9091	0.	-1.1535
91	11.048	4.7273	0.	-1.3669
92	11.048	4.5455	0.	-1.4077
93	11.048	4.3636	0.	-7.084
94	11.048	4.1818	0.	-3.7668
95	11.048	4.	0.	-9.9101
96	11.048	3.8182	0.	-6.5551
97	11.048	3.6364	0.	4.3203
98	11.048	3.4545	0.	0.63465
99	11.048	3.2727	0.	0.63736
100	11.048	3.0909	0.	0.42153
101	11.048	2.9091	0.	0.42153
102	11.048	2.7273	0.	0.63736
103	11.048	2.5455	0.	0.63465
104	11.048	2.3636	0.	4.3203
105	11.048	2.1818	0.	-6.5551
106	11.048	2.	0.	-9.9101
107	11.048	1.8182	0.	-3.7668
108	11.048	1.6364	0.	-7.084
109	11.048	1.4545	0.	-1.4077
110	11.048	1.2727	0.	-1.3669
111	11.048	1.0909	0.	-1.1535
112	11.048	0.90909	0.	-0.83057
113	11.048	0.72727	0.	-0.7658
114	11.048	0.54545	0.	-0.77648
115	11.048	0.36364	0.	-0.90133
116	11.048	0.18182	0.	-0.80792
117	10.863	5.8182	0.	0.39984
118	10.863	5.6364	0.	-0.1416
119	10.863	5.4545	0.	-0.20105
120	10.863	5.2727	0.	-0.3259
121	10.863	5.0909	0.	-0.44279
122	10.863	4.9091	0.	-0.56764
123	10.863	4.7273	0.	-0.84167
124	10.863	4.5455	0.	-1.1355
125	10.863	4.3636	0.	5.5462e-002
126	10.863	4.1818	0.	-0.70035
127	10.863	4.	0.	1.4009
128	10.863	3.8182	0.	2.5765
129	10.863	3.6364	0.	0.4469
130	10.863	3.4545	0.	0.8314
131	10.863	3.2727	0.	0.71258
132	10.863	3.0909	0.	0.59422
133	10.863	2.9091	0.	0.59422
134	10.863	2.7273	0.	0.71258
135	10.863	2.5455	0.	0.8314
136	10.863	2.3636	0.	0.4469
137	10.863	2.1818	0.	2.5765
138	10.863	2.	0.	1.4009
139	10.863	1.8182	0.	-0.70035
140	10.863	1.6364	0.	5.5461e-002
141	10.863	1.4545	0.	-1.1355
142	10.863	1.2727	0.	-0.84167
143	10.863	1.0909	0.	-0.56764
144	10.863	0.90909	0.	-0.44279
145	10.863	0.72727	0.	-0.3259
146	10.863	0.54545	0.	-0.20105
147	10.863	0.36364	0.	-0.1416
148	10.863	0.18182	0.	0.39984
149	10.679	5.8182	0.	0.52362
150	10.679	5.6364	0.	-7.7413e-002
151	10.679	5.4545	0.	-0.10804
152	10.679	5.2727	0.	-0.27712
153	10.679	5.0909	0.	-0.40572
154	10.679	4.9091	0.	-0.54065
155	10.679	4.7273	0.	-0.645
156	10.679	4.5455	0.	-0.79012
157	10.679	4.3636	0.	-1.1026
158	10.679	4.1818	0.	-0.92559
159	10.679	4.	0.	-1.0995
160	10.679	3.8182	0.	-0.86119
161	10.679	3.6364	0.	0.14124
162	10.679	3.4545	0.	0.48308
163	10.679	3.2727	0.	0.53937
164	10.679	3.0909	0.	0.56647
165	10.679	2.9091	0.	0.56647
166	10.679	2.7273	0.	0.53937
167	10.679	2.5455	0.	0.48308
168	10.679	2.3636	0.	0.14124
169	10.679	2.1818	0.	-0.86119
170	10.679	2.	0.	-1.0995
171	10.679	1.8182	0.	-0.92559
172	10.679	1.6364	0.	-1.1026
173	10.679	1.4545	0.	-0.79012
174	10.679	1.2727	0.	-0.645
175	10.679	1.0909	0.	-0.54065
176	10.679	0.90909	0.	-0.40572
177	10.679	0.72727	0.	-0.27712
178	10.679	0.54545	0.	-0.10804
179	10.679	0.36364	0.	-7.7412e-002
180	10.679	0.18182	0.	0.52362
181	10.495	5.8182	0.	0.44732
182	10.495	5.6364	0.	-6.8624e-002
183	10.495	5.4545	0.	-2.7048e-002
184	10.495	5.2727	0.	-0.18148
185	10.495	5.0909	0.	-0.28253
186	10.495	4.9091	0.	-0.38247
187	10.495	4.7273	0.	-0.47461
188	10.495	4.5455	0.	-0.54039
189	10.495	4.3636	0.	-0.57086
190	10.495	4.1818	0.	-0.64631
191	10.495	4.	0.	-0.55801
192	10.495	3.8182	0.	-0.38429
193	10.495	3.6364	0.	-0.20362
194	10.495	3.4545	0.	0.10025
195	10.495	3.2727	0.	0.34546
196	10.495	3.0909	0.	0.44394
197	10.495	2.9091	0.	0.44394
198	10.495	2.7273	0.	0.34546
199	10.495	2.5455	0.	0.10025
200	10.495	2.3636	0.	-0.20362
201	10.495	2.1818	0.	-0.38429
202	10.495	2.	0.	-0.55801
203	10.495	1.8182	0.	-0.64631
204	10.495	1.6364	0.	-0.57086
205	10.495	1.4545	0.	-0.54039
206	10.495	1.2727	0.	-0.47461
207	10.495	1.0909	0.	-0.38247
208	10.495	0.90909	0.	-0.28253
209	10.495	0.72727	0.	-0.18148
210	10.495	0.54545	0.	-2.7049e-002
211	10.495	0.36364	0.	-6.8623e-002
212	10.495	0.18182	0.	0.44732
213	10.311	5.8182	0.	0.28824
214	10.311	5.6364	0.	-0.10119
215	10.311	5.4545	0.	-4.7452e-004
216	10.311	5.2727	0.	-0.12549
217	10.311	5.0909	0.	-0.204
218	10.311	4.9091	0.	-0.28414
219	10.311	4.7273	0.	-0.35815
220	10.311	4.5455	0.	-0.43781
221	10.311	4.3636	0.	-0.52748
222	10.311	4.1818	0.	-0.60399
223	10.311	4.	0.	-0.66158
224	10.311	3.8182	0.	-0.62042
225	10.311	3.6364	0.	-0.43395
226	10.311	3.4545	0.	-0.16224
227	10.311	3.2727	0.	0.12256
228	10.311	3.0909	0.	0.31237
229	10.311	2.9091	0.	0.31237
230	10.311	2.7273	0.	0.12256
231	10.311	2.5455	0.	-0.16224
232	10.311	2.3636	0.	-0.43395
233	10.311	2.1818	0.	-0.62042
234	10.311	2.	0.	-0.66157
235	10.311	1.8182	0.	-0.60399
236	10.311	1.6364	0.	-0.52749
237	10.311	1.4545	0.	-0.43781
238	10.311	1.2727	0.	-0.35816
239	10.311	1.0909	0.	-0.28414
240	10.311	0.90909	0.	-0.204
241	10.311	0.72727	0.	-0.12549
242	10.311	0.54545	0.	-4.74e-004
243	10.311	0.36364	0.	-0.10119
244	10.311	0.18182	0.	0.28824
245	10.127	5.8182	0.	0.14555
246	10.127	5.6364	0.	-0.12317
247	10.127	5.4545	0.	1.5416e-002
248	10.127	5.2727	0.	-8.0864e-002
249	10.127	5.0909	0.	-0.13947
250	10.127	4.9091	0.	-0.20655
251	10.127	4.7273	0.	-0.27279
252	10.127	4.5455	0.	-0.3459
253	10.127	4.3636	0.	-0.42769
254	10.127	4.1818	0.	-0.51516
255	10.127	4.	0.	-0.58597
256	10.127	3.8182	0.	-0.62033
257	10.127	3.6364	0.	-0.59243
258	10.127	3.4545	0.	-0.46456
259	10.127	3.2727	0.	-0.19966
260	10.127	3.0909	0.	0.1623
261	10.127	2.9091	0.	0.1623
262	10.127	2.7273	0.	-0.19965
263	10.127	2.5455	0.	-0.46456
264	10.127	2.3636	0.	-0.59243
265	10.127	2.1818	0.	-0.62033
266	10.127	2.	0.	-0.58597
267	10.127	1.8182	0.	-0.51516
268	10.127	1.6364	0.	-0.42769
269	10.127	1.4545	0.	-0.3459
270	10.127	1.2727	0.	-0.27279
271	10.127	1.0909	0.	-0.20655
272	10.127	0.90909	0.	-0.13947
273	10.127	0.72727	0.	-8.0863e-002
274	10.127	0.54545	0.	1.5417e-002
275	10.127	0.36364	0.	-0.12317
276	10.127	0.18182	0.	0.14555
277	9.9429	5.8182	0.	3.8446e-002
278	9.9429	5.6364	0.	-0.13345
279	9.9429	5.4545	0.	2.2658e-002
280	9.9429	5.2727	0.	-5.0097e-002
281	9.9429	5.0909	0.	-9.3969e-002
282	9.9429	4.9091	0.	-0.15087
283	9.9429	4.7273	0.	-0.21159
284	9.9429	4.5455	0.	-0.28224
285	9.9429	4.3636	0.	-0.3648
286	9.9429	4.1818	0.	-0.45784
287	9.9429	4.	0.	-0.55752
288	9.9429	3.8182	0.	-0.66127
289	9.9429	3.6364	0.	-0.79298
290	9.9429	3.4545	0.	-1.1171
291	9.9429	3.2727	0.	-3.7166
292	9.9429	3.0909	0.	-9.7508
293	9.9429	2.9091	0.	-9.7508
294	9.9429	2.7273	0.	-3.7166
295	9.9429	2.5455	0.	-1.1171
296	9.9429	2.3636	0.	-0.79298
297	9.9429	2.1818	0.	-0.66127
298	9.9429	2.	0.	-0.55752
299	9.9429	1.8182	0.	-0.45784
300	9.9429	1.6364	0.	-0.3648
301	9.9429	1.4545	0.	-0.28224
302	9.9429	1.2727	0.	-0.21159
303	9.9429	1.0909	0.	-0.15087
304	9.9429	0.90909	0.	-9.3967e-002
305	9.9429	0.72727	0.	-5.0096e-002
306	9.9429	0.54545	0.	2.266e-002
307	9.9429	0.36364	0.	-0.13345
308	9.9429	0.18182	0.	3.8447e-002
309	9.7587	5.8182	0.	-3.0223e-002
310	9.7587	5.6364	0.	-0.13237
311	9.7587	5.4545	0.	2.6024e-002
312	9.7587	5.2727	0.	-2.8525e-002
313	9.7587	5.0909	0.	-6.1682e-002
314	9.7587	4.9091	0.	-0.11037
315	9.7587	4.7273	0.	-0.16531
316	9.7587	4.5455	0.	-0.23147
317	9.7587	4.3636	0.	-0.31111
318	9.7587	4.1818	0.	-0.40784
319	9.7587	4.	0.	-0.53094
320	9.7587	3.8182	0.	-0.72146
321	9.7587	3.6364	0.	-1.2277
322	9.7587	3.4545	0.	-5.9227
323	9.7587	3.2727	0.	-18.109
324	9.7587	3.0909	0.	-25.009
325	9.7587	2.9091	0.	-25.009
326	9.7587	2.7273	0.	-18.109
327	9.7587	2.5455	0.	-5.9227
328	9.7587	2.3636	0.	-1.2277
329	9.7587	2.1818	0.	-0.72146
330	9.7587	2.	0.	-0.53094
331	9.7587	1.8182	0.	-0.40784
332	9.7587	1.6364	0.	-0.31111
333	9.7587	1.4545	0.	-0.23147
334	9.7587	1.2727	0.	-0.16531
335	9.7587	1.0909	0.	-0.11037
336	9.7587	0.90909	0.	-6.1681e-002
337	9.7587	0.72727	0.	-2.8524e-002
338	9.7587	0.54545	0.	2.6024e-002
339	9.7587	0.36364	0.	-0.13237
340	9.7587	0.18182	0.	-3.0222e-002
341	9.5746	5.8182	0.	-6.7631e-002
342	9.5746	5.6364	0.	-0.12365
343	9.5746	5.4545	0.	2.6822e-002
344	9.5746	5.2727	0.	-1.4085e-002
345	9.5746	5.0909	0.	-3.9588e-002
346	9.5746	4.9091	0.	-8.1476e-002
347	9.5746	4.7273	0.	-0.1312
348	9.5746	4.5455	0.	-0.19314
349	9.5746	4.3636	0.	-0.27102
350	9.5746	4.1818	0.	-0.37419
351	9.5746	4.	0.	-0.53224
352	9.5746	3.8182	0.	-0.88939
353	9.5746	3.6364	0.	-3.3926
354	9.5746	3.4545	0.	-17.248
355	9.5746	3.2727	0.	-29.419
356	9.5746	3.0909	0.	-35.761
357	9.5746	2.9091	0.	-35.761
358	9.5746	2.7273	0.	-29.419
359	9.5746	2.5455	0.	-17.248
360	9.5746	2.3636	0.	-3.3926
361	9.5746	2.1818	0.	-0.88939
362	9.5746	2.	0.	-0.53224
363	9.5746	1.8182	0.	-0.37419
364	9.5746	1.6364	0.	-0.27102
365	9.5746	1.4545	0.	-0.19314
366	9.5746	1.2727	0.	-0.13119
367	9.5746	1.0909	0.	-8.1475e-002
368	9.5746	0.90909	0.	-3.9586e-002
369	9.5746	0.72727	0.	-1.4084e-002
370	9.5746	0.54545	0.	2.6822e-002
371	9.5746	0.36364	0.	-0.12365
372	9.5746	0.18182	0.	-6.763e-002
373	9.3905	5.8182	0.	-8.2368e-002
374	9.3905	5.6364	0.	-0.11029
375	9.3905	5.4545	0.	2.6131e-002
376	9.3905	5.2727	0.	-4.7289e-003
377	9.3905	5.0909	0.	-2.4909e-002
378	9.3905	4.9091	0.	-6.1327e-002
379	9.3905	4.7273	0.	-0.10662
380	9.3905	4.5455	0.	-0.16533
381	9.3905	4.3636	0.	-0.24365
382	9.3905	4.1818	0.	-0.36016
383	9.3905	4.	0.	-0.58755
384	9.3905	3.8182	0.	-1.5438
385	9.3905	3.6364	0.	-12.017
386	9.3905	3.4545	0.	-27.113
387	9.3905	3.2727	0.	-38.056
388	9.3905	3.0909	0.	-43.725
389	9.3905	2.9091	0.	-43.725
390	9.3905	2.7273	0.	-38.056
391	9.3905	2.5455	0.	-27.113
392	9.3905	2.3636	0.	-12.017
393	9.3905	2.1818	0.	-1.5438
394	9.3905	2.	0.	-0.58755
395	9.3905	1.8182	0.	-0.36016
396	9.3905	1.6364	0.	-0.24365
397	9.3905	1.4545	0.	-0.16533
398	9.3905	1.2727	0.	-0.10662
399	9.3905	1.0909	0.	-6.1326e-002
400	9.3905	0.90909	0.	-2.4908e-002
401	9.3905	0.72727	0.	-4.7277e-003
402	9.3905	0.54545	0.	2.6132e-002
403	9.3905	0.36364	0.	-0.11028
404	9.3905	0.18182	0.	-8.2366e-002
405	9.2063	5.8182	0.	-8.2193e-002
406	9.2063	5.6364	0.	-9.4565e-002
407	9.2063	5.4545	0.	2.461e-002
408	9.2063	5.2727	0.	1.0101e-003
409	9.2063	5.0909	0.	-1.5675e-002
410	9.2063	4.9091	0.	-4.7986e-002
411	9.2063	4.7273	0.	-9.0199e-002
412	9.2063	4.5455	0.	-0.14783
413	9.2063	4.3636	0.	-0.2318
414	9.2063	4.1818	0.	-0.38065
415	9.2063	4.	0.	-0.82204
416	9.2063	3.8182	0.	-6.2592
417	9.2063	3.6364	0.	-21.82
418	9.2063	3.4545	0.	-35.411
419	9.2063	3.2727	0.	-45.083
420	9.2063	3.0909	0.	-50.091
421	9.2063	2.9091	0.	-50.091
422	9.2063	2.7273	0.	-45.083
423	9.2063	2.5455	0.	-35.411
424	9.2063	2.3636	0.	-21.82
425	9.2063	2.1818	0.	-6.2593
426	9.2063	2.	0.	-0.82204
427	9.2063	1.8182	0.	-0.38065
428	9.2063	1.6364	0.	-0.2318
429	9.2063	1.4545	0.	-0.14783
430	9.2063	1.2727	0.	-9.0198e-002
431	9.2063	1.0909	0.	-4.7986e-002
432	9.2063	0.90909	0.	-1.5673e-002
433	9.2063	0.72727	0.	1.0114e-003
434	9.2063	0.54545	0.	2.461e-002
435	9.2063	0.36364	0.	-9.4564e-002
436	9.2063	0.18182	0.	-8.2191e-002
437	9.0222	5.8182	0.	-7.3145e-002
438	9.0222	5.6364	0.	-7.8029e-002
439	9.0222	5.4545	0.	2.2682e-002
440	9.0222	5.2727	0.	4.1718e-003
441	9.0222	5.0909	0.	-1.0537e-002
442	9.0222	4.9091	0.	-4.025e-002
443	9.0222	4.7273	0.	-8.1396e-002
444	9.0222	4.5455	0.	-0.14207
445	9.0222	4.3636	0.	-0.24425
446	9.0222	4.1818	0.	-0.49447
447	9.0222	4.	0.	-2.6261
448	9.0222	3.8182	0.	-16.241
449	9.0222	3.6364	0.	-30.766
450	9.0222	3.4545	0.	-42.765
451	9.0222	3.2727	0.	-51.266
452	9.0222	3.0909	0.	-55.666
453	9.0222	2.9091	0.	-55.666
454	9.0222	2.7273	0.	-51.266
455	9.0222	2.5455	0.	-42.765
456	9.0222	2.3636	0.	-30.766
457	9.0222	2.1818	0.	-16.241
458	9.0222	2.	0.	-2.6261
459	9.0222	1.8182	0.	-0.49447
460	9.0222	1.6364	0.	-0.24425
461	9.0222	1.4545	0.	-0.14207
462	9.0222	1.2727	0.	-8.1395e-002
463	9.0222	1.0909	0.	-4.0249e-002
464	9.0222	0.90909	0.	-1.0535e-002
465	9.0222	0.72727	0.	4.1728e-003
466	9.0222	0.54545	0.	2.2682e-002
467	9.0222	0.36364	0.	-7.8028e-002
468	9.0222	0.18182	0.	-7.3144e-002
469	8.8381	5.8182	0.	-5.9533e-002
470	8.8381	5.6364	0.	-6.1639e-002
471	8.8381	5.4545	0.	2.0587e-002
472	8.8381	5.2727	0.	5.4135e-003
473	8.8381	5.0909	0.	-8.7492e-003
474	8.8381	4.9091	0.	-3.78e-002
475	8.8381	4.7273	0.	-8.143e-002
476	8.8381	4.5455	0.	-0.15487
477	8.8381	4.3636	0.	-0.31964
478	8.8381	4.1818	0.	-1.3003
479	8.8381	4.	0.	-11.963
480	8.8381	3.8182	0.	-26.179
481	8.8381	3.6364	0.	-39.102
482	8.8381	3.4545	0.	-49.671
483	8.8381	3.2727	0.	-57.141
484	8.8381	3.0909	0.	-61.004
485	8.8381	2.9091	0.	-61.004
486	8.8381	2.7273	0.	-57.141
487	8.8381	2.5455	0.	-49.671
488	8.8381	2.3636	0.	-39.102
489	8.8381	2.1818	0.	-26.179
490	8.8381	2.	0.	-11.963
491	8.8381	1.8182	0.	-1.3003
492	8.8381	1.6364	0.	-0.31964
493	8.8381	1.4545	0.	-0.15487
494	8.8381	1.2727	0.	-8.1429e-002
495	8.8381	1.0909	0.	-3.78e-002
496	8.8381	0.90909	0.	-8.7477e-003
497	8.8381	0.72727	0.	5.4144e-003
498	8.8381	0.54545	0.	2.0588e-002
499	8.8381	0.36364	0.	-6.1638e-002
500	8.8381	0.18182	0.	-5.9531e-002
501	8.654	5.8182	0.	-4.4241e-002
502	8.654	5.6364	0.	-4.5967e-002
503	8.654	5.4545	0.	1.8398e-002
504	8.654	5.2727	0.	4.9857e-003
505	8.654	5.0909	0.	-1.0354e-002
506	8.654	4.9091	0.	-4.2048e-002
507	8.654	4.7273	0.	-9.685e-002
508	8.654	4.5455	0.	-0.21991
509	8.654	4.3636	0.	-0.88467
510	8.654	4.1818	0.	-9.6502
511	8.654	4.	0.	-22.841
512	8.654	3.8182	0.	-35.68
513	8.654	3.6364	0.	-47.158
514	8.654	3.4545	0.	-56.497
515	8.654	3.2727	0.	-63.081
516	8.654	3.0909	0.	-66.482
517	8.654	2.9091	0.	-66.482
518	8.654	2.7273	0.	-63.081
519	8.654	2.5455	0.	-56.497
520	8.654	2.3636	0.	-47.158
521	8.654	2.1818	0.	-35.68
522	8.654	2.	0.	-22.841
523	8.654	1.8182	0.	-9.6502
524	8.654	1.6364	0.	-0.88468
525	8.654	1.4545	0.	-0.21991
526	8.654	1.2727	0.	-9.6849e-002
527	8.654	1.0909	0.	-4.2048e-002
528	8.654	0.90909	0.	-1.0352e-002
529	8.654	0.72727	0.	4.9865e-003
530	8.654	0.54545	0.	1.8399e-002
531	8.654	0.36364	0.	-4.5966e-002
532	8.654	0.18182	0.	-4.4239e-002
533	8.4698	5.8182	0.	-2.9116e-002
534	8.4698	5.6364	0.	-3.1334e-002
535	8.4698	5.4545	0.	1.5964e-002
536	8.4698	5.2727	0.	2.4833e-003
537	8.4698	5.0909	0.	-1.7217e-002
538	8.4698	4.9091	0.	-6.0623e-002
539	8.4698	4.7273	0.	-0.1667
540	8.4698	4.5455	0.	-0.89463
541	8.4698	4.3636	0.	-9.36
542	8.4698	4.1818	0.	-21.233
543	8.4698	4.	0.	-33.378
544	8.4698	3.8182	0.	-44.946
545	8.4698	3.6364	0.	-55.203
546	8.4698	3.4545	0.	-63.509
547	8.4698	3.2727	0.	-69.348
548	8.4698	3.0909	0.	-72.36
549	8.4698	2.9091	0.	-72.36
550	8.4698	2.7273	0.	-69.348
551	8.4698	2.5455	0.	-63.509
552	8.4698	2.3636	0.	-55.203
553	8.4698	2.1818	0.	-44.946
554	8.4698	2.	0.	-33.378
555	8.4698	1.8182	0.	-21.233
556	8.4698	1.6364	0.	-9.36
557	8.4698	1.4545	0.	-0.89464
558	8.4698	1.2727	0.	-0.1667
559	8.4698	1.0909	0.	-6.0623e-002
560	8.4698	0.90909	0.	-1.7215e-002
561	8.4698	0.72727	0.	2.484e-003
562	8.4698	0.54545	0.	1.5965e-002
563	8.4698	0.36364	0.	-3.1333e-002
564	8.4698	0.18182	0.	-2.9115e-002
565	8.2857	5.8182	0.	-1.5384e-002
566	8.2857	5.6364	0.	-1.8004e-002
567	8.2857	5.4545	0.	1.2584e-002
568	8.2857	5.2727	0.	-4.6411e-003
569	8.2857	5.0909	0.	-4.0191e-002
570	8.2857	4.9091	0.	-0.16005
571	8.2857	4.7273	0.	-2.0295
572	8.2857	4.5455	0.	-10.804
573	8.2857	4.3636	0.	-21.321
574	8.2857	4.1818	0.	-32.5
575	8.2857	4.	0.	-43.671
576	8.2857	3.8182	0.	-54.189
577	8.2857	3.6364	0.	-63.445
578	8.2857	3.4545	0.	-70.902
579	8.2857	3.2727	0.	-76.128
580	8.2857	3.0909	0.	-78.82
581	8.2857	2.9091	0.	-78.82
582	8.2857	2.7273	0.	-76.128
583	8.2857	2.5455	0.	-70.902
584	8.2857	2.3636	0.	-63.445
585	8.2857	2.1818	0.	-54.189
586	8.2857	2.	0.	-43.671
587	8.2857	1.8182	0.	-32.5
588	8.2857	1.6364	0.	-21.321
589	8.2857	1.4545	0.	-10.804
590	8.2857	1.2727	0.	-2.0295
591	8.2857	1.0909	0.	-0.16005
592	8.2857	0.90909	0.	-4.019e-002
593	8.2857	0.72727	0.	-4.6404e-003
594	8.2857	0.54545	0.	1.2585e-002
595	8.2857	0.36364	0.	-1.8003e-002
596	8.2857	0.18182	0.	-1.5382e-002
597	8.1016	5.8182	0.	-4.1664e-003
598	8.1016	5.6364	0.	-6.608e-003
599	8.1016	5.4545	0.	4.687e-003
600	8.1016	5.2727	0.	-3.7613e-002
601	8.1016	5.0909	0.	-0.39538
602	8.1016	4.9091	0.	-5.4582
603	8.1016	4.7273	0.	-13.398
604	8.1016	4.5455	0.	-22.714
605	8.1016	4.3636	0.	-32.919
606	8.1016	4.1818	0.	-43.495
607	8.1016	4.	0.	-53.898
608	8.1016	3.8182	0.	-63.586
609	8.1016	3.6364	0.	-72.044
610	8.1016	3.4545	0.	-78.823
611	8.1016	3.2727	0.	-83.556
612	8.1016	3.0909	0.	-85.989
613	8.1016	2.9091	0.	-85.989
614	8.1016	2.7273	0.	-83.556
615	8.1016	2.5455	0.	-78.823
616	8.1016	2.3636	0.	-72.045
617	8.1016	2.1818	0.	-63.586
618	8.1016	2.	0.	-53.898
619	8.1016	1.8182	0.	-43.495
620	8.1016	1.6364	0.	-32.919
621	8.1016	1.4545	0.	-22.714
622	8.1016	1.2727	0.	-13.398
623	8.1016	1.0909	0.	-5.4582
624	8.1016	0.90909	0.	-0.39539
625	8.1016	0.72727	0.	-3.7612e-002
626	8.1016	0.54545	0.	4.6876e-003
627	8.1016	0.36364	0.	-6.6066e-003
628	8.1016	0.18182	0.	-4.1651e-003
629	7.9175	5.8182	0.	2.0802e-003
630	7.9175	5.6364	0.	-2.3765e-003
631	7.9175	5.4545	0.	-0.16252
632	7.9175	5.2727	0.	-3.5825
633	7.9175	5.0909	0.	-9.1871
634	7.9175	4.9091	0.	-16.336
635	7.9175	4.7273	0.	-24.785
636	7.9175	4.5455	0.	-34.211
637	7.9175	4.3636	0.	-44.222
638	7.9175	4.1818	0.	-54.379
639	7.9175	4.	0.	-64.22
640	7.9175	3.8182	0.	-73.282
641	7.9175	3.6364	0.	-81.13
642	7.9175	3.4545	0.	-87.383
643	7.9175	3.2727	0.	-91.733
644	7.9175	3.0909	0.	-93.964
645	7.9175	2.9091	0.	-93.964
646	7.9175	2.7273	0.	-91.733
647	7.9175	2.5455	0.	-87.384
648	7.9175	2.3636	0.	-81.13
649	7.9175	2.1818	0.	-73.282
650	7.9175	2.	0.	-64.22
651	7.9175	1.8182	0.	-54.379
652	7.9175	1.6364	0.	-44.222
653	7.9175	1.4545	0.	-34.211
654	7.9175	1.2727	0.	-24.785
655	7.9175	1.0909	0.	-16.336
656	7.9175	0.90909	0.	-9.1872
657	7.9175	0.72727	0.	-3.5825
658	7.9175	0.54545	0.	-0.16253
659	7.9175	0.36364	0.	-2.3751e-003
660	7.9175	0.18182	0.	2.0802e-003
661	7.7333	5.8182	0.	-1.2317e-002
662	7.7333	5.6364	0.	-1.9291
663	7.7333	5.4545	0.	-6.2537
664	7.7333	5.2727	0.	-11.86
665	7.7333	5.0909	0.	-18.74
666	7.7333	4.9091	0.	-26.777
667	7.7333	4.7273	0.	-35.761
668	7.7333	4.5455	0.	-45.411
669	7.7333	4.3636	0.	-55.386
670	7.7333	4.1818	0.	-65.308
671	7.7333	4.	0.	-74.778
672	7.7333	3.8182	0.	-83.402
673	7.7333	3.6364	0.	-90.809
674	7.7333	3.4545	0.	-96.676
675	7.7333	3.2727	0.	-100.74
676	7.7333	3.0909	0.	-102.82
677	7.7333	2.9091	0.	-102.82
678	7.7333	2.7273	0.	-100.74
679	7.7333	2.5455	0.	-96.676
680	7.7333	2.3636	0.	-90.809
681	7.7333	2.1818	0.	-83.402
682	7.7333	2.	0.	-74.778
683	7.7333	1.8182	0.	-65.308
684	7.7333	1.6364	0.	-55.386
685	7.7333	1.4545	0.	-45.411
686	7.7333	1.2727	0.	-35.761
687	7.7333	1.0909	0.	-26.777
688	7.7333	0.90909	0.	-18.74
689	7.7333	0.72727	0.	-11.86
690	7.7333	0.54545	0.	-6.2537
691	7.7333	0.36364	0.	-1.9291
692	7.7333	0.18182	0.	-1.2315e-002
693	7.5492	5.8182	0.	-0.7667
694	7.5492	5.6364	0.	-6.3289
695	7.5492	5.4545	0.	-12.566
696	7.5492	5.2727	0.	-19.756
697	7.5492	5.0909	0.	-27.891
698	7.5492	4.9091	0.	-36.858
699	7.5492	4.7273	0.	-46.467
700	7.5492	4.5455	0.	-56.468
701	7.5492	4.3636	0.	-66.563
702	7.5492	4.1818	0.	-76.421
703	7.5492	4.	0.	-85.698
704	7.5492	3.8182	0.	-94.055
705	7.5492	3.6364	0.	-101.17
706	7.5492	3.4545	0.	-106.78
707	7.5492	3.2727	0.	-110.64
708	7.5492	3.0909	0.	-112.62
709	7.5492	2.9091	0.	-112.62
710	7.5492	2.7273	0.	-110.64
711	7.5492	2.5455	0.	-106.78
712	7.5492	2.3636	0.	-101.17
713	7.5492	2.1818	0.	-94.055
714	7.5492	2.	0.	-85.698
715	7.5492	1.8182	0.	-76.421
716	7.5492	1.6364	0.	-66.563
717	7.5492	1.4545	0.	-56.468
718	7.5492	1.2727	0.	-46.467
719	7.5492	1.0909	0.	-36.858
720	7.5492	0.90909	0.	-27.891
721	7.5492	0.72727	0.	-19.756
722	7.5492	0.54545	0.	-12.566
723	7.5492	0.36364	0.	-6.3289
724	7.5492	0.18182	0.	-0.76671
725	7.3651	5.8182	0.	-2.8462
726	7.3651	5.6364	0.	-10.54
727	7.3651	5.4545	0.	-18.611
728	7.3651	5.2727	0.	-27.356
729	7.3651	5.0909	0.	-36.764
730	7.3651	4.9091	0.	-46.72
731	7.3651	4.7273	0.	-57.051
732	7.3651	4.5455	0.	-67.53
733	7.3651	4.3636	0.	-77.892
734	7.3651	4.1818	0.	-87.847
735	7.3651	4.	0.	-97.095
736	7.3651	3.8182	0.	-105.34
737	7.3651	3.6364	0.	-112.31
738	7.3651	3.4545	0.	-117.76
739	7.3651	3.2727	0.	-121.51
740	7.3651	3.0909	0.	-123.42
741	7.3651	2.9091	0.	-123.42
742	7.3651	2.7273	0.	-121.51
743	7.3651	2.5455	0.	-117.76
744	7.3651	2.3636	0.	-112.31
745	7.3651	2.1818	0.	-105.34
746	7.3651	2.	0.	-97.095
747	7.3651	1.8182	0.	-87.847
748	7.3651	1.6364	0.	-77.892
749	7.3651	1.4545	0.	-67.53
750	7.3651	1.2727	0.	-57.051
751	7.3651	1.0909	0.	-46.72
752	7.3651	0.90909	0.	-36.764
753	7.3651	0.72727	0.	-27.356
754	7.3651	0.54545	0.	-18.611
755	7.3651	0.36364	0.	-10.54
756	7.3651	0.18182	0.	-2.8462
757	7.181	5.8182	0.	-4.9319
758	7.181	5.6364	0.	-14.617
759	7.181	5.4545	0.	-24.475
760	7.181	5.2727	0.	-34.771
761	7.181	5.0909	0.	-45.483
762	7.181	4.9091	0.	-56.498
763	7.181	4.7273	0.	-67.649
764	7.181	4.5455	0.	-78.73
765	7.181	4.3636	0.	-89.501
766	7.181	4.1818	0.	-99.704
767	7.181	4.	0.	-109.07
768	7.181	3.8182	0.	-117.35
769	7.181	3.6364	0.	-124.29
770	7.181	3.4545	0.	-129.7
771	7.181	3.2727	0.	-133.4
772	7.181	3.0909	0.	-135.28
773	7.181	2.9091	0.	-135.28
774	7.181	2.7273	0.	-133.4
775	7.181	2.5455	0.	-129.7
776	7.181	2.3636	0.	-124.29
777	7.181	2.1818	0.	-117.35
778	7.181	2.	0.	-109.07
779	7.181	1.8182	0.	-99.704
780	7.181	1.6364	0.	-89.501
781	7.181	1.4545	0.	-78.73
782	7.181	1.2727	0.	-67.649
783	7.181	1.0909	0.	-56.498
784	7.181	0.90909	0.	-45.483
785	7.181	0.72727	0.	-34.771
786	7.181	0.54545	0.	-24.475
787	7.181	0.36364	0.	-14.617
788	7.181	0.18182	0.	-4.9319
789	6.9968	5.8182	0.	-7.0012
790	6.9968	5.6364	0.	-18.615
791	6.9968	5.4545	0.	-30.242
792	6.9968	5.2727	0.	-42.102
793	6.9968	5.0909	0.	-54.167
794	6.9968	4.9091	0.	-66.316
795	6.9968	4.7273	0.	-78.39
796	6.9968	4.5455	0.	-90.195
797	6.9968	4.3636	0.	-101.51
798	6.9968	4.1818	0.	-112.1
799	6.9968	4.	0.	-121.73
800	6.9968	3.8182	0.	-130.17
801	6.9968	3.6364	0.	-137.21
802	6.9968	3.4545	0.	-142.66
803	6.9968	3.2727	0.	-146.38
804	6.9968	3.0909	0.	-148.27
805	6.9968	2.9091	0.	-148.27
806	6.9968	2.7273	0.	-146.38
807	6.9968	2.5455	0.	-142.66
808	6.9968	2.3636	0.	-137.21
809	6.9968	2.1818	0.	-130.17
810	6.9968	2.	0.	-121.73
811	6.9968	1.8182	0.	-112.1
812	6.9968	1.6364	0.	-101.51
813	6.9968	1.4545	0.	-90.195
814	6.9968	1.2727	0.	-78.39
815	6.9968	1.0909	0.	-66.316
816	6.9968	0.90909	0.	-54.167
817	6.9968	0.72727	0.	-42.102
818	6.9968	0.54545	0.	-30.242
819	6.9968	0.36364	0.	-18.615
820	6.9968	0.18182	0.	-7.0012
821	6.8127	5.8182	0.	-9.0687
822	6.8127	5.6364	0.	-22.586
823	6.8127	5.4545	0.	-35.985
824	6.8127	5.2727	0.	-49.444
825	6.8127	5.0909	0.	-62.921
826	6.8127	4.9091	0.	-76.29
827	6.8127	4.7273	0.	-89.392
828	6.8127	4.5455	0.	-102.04
829	6.8127	4.3636	0.	-114.03
830	6.8127	4.1818	0.	-125.15
831	6.8127	4.	0.	-135.18
832	6.8127	3.8182	0.	-143.91
833	6.8127	3.6364	0.	-151.14
834	6.8127	3.4545	0.	-156.72
835	6.8127	3.2727	0.	-160.52
836	6.8127	3.0909	0.	-162.44
837	6.8127	2.9091	0.	-162.44
838	6.8127	2.7273	0.	-160.52
839	6.8127	2.5455	0.	-156.72
840	6.8127	2.3636	0.	-151.14
841	6.8127	2.1818	0.	-143.91
842	6.8127	2.	0.	-135.18
843	6.8127	1.8182	0.	-125.15
844	6.8127	1.6364	0.	-114.03
845	6.8127	1.4545	0.	-102.04
846	6.8127	1.2727	0.	-89.392
847	6.8127	1.0909	0.	-76.29
848	6.8127	0.90909	0.	-62.921
849	6.8127	0.72727	0.	-49.444
850	6.8127	0.54545	0.	-35.985
851	6.8127	0.36364	0.	-22.586
852	6.8127	0.18182	0.	-9.0687
853	6.6286	5.8182	0.	-11.149
854	6.6286	5.6364	0.	-26.572
855	6.6286	5.4545	0.	-41.773
856	6.6286	5.2727	0.	-56.881
857	6.6286	5.0909	0.	-71.844
858	6.6286	4.9091	0.	-86.525
859	6.6286	4.7273	0.	-100.77
860	6.6286	4.5455	0.	-114.38
861	6.6286	4.3636	0.	-127.18
862	6.6286	4.1818	0.	-138.96
863	6.6286	4.	0.	-149.51
864	6.6286	3.8182	0.	-158.64
865	6.6286	3.6364	0.	-166.17
866	6.6286	3.4545	0.	-171.97
867	6.6286	3.2727	0.	-175.9
868	6.6286	3.0909	0.	-177.88
869	6.6286	2.9091	0.	-177.88
870	6.6286	2.7273	0.	-175.9
871	6.6286	2.5455	0.	-171.97
872	6.6286	2.3636	0.	-166.17
873	6.6286	2.1818	0.	-158.64
874	6.6286	2.	0.	-149.51
875	6.6286	1.8182	0.	-138.96
876	6.6286	1.6364	0.	-127.18
877	6.6286	1.4545	0.	-114.38
878	6.6286	1.2727	0.	-100.77
879	6.6286	1.0909	0.	-86.525
880	6.6286	0.90909	0.	-71.844
881	6.6286	0.72727	0.	-56.881
882	6.6286	0.54545	0.	-41.773
883	6.6286	0.36364	0.	-26.572
884	6.6286	0.18182	0.	-11.149
885	6.4444	5.8182	0.	-13.254
886	6.4444	5.6364	0.	-30.613
887	6.4444	5.4545	0.	-47.665
888	6.4444	5.2727	0.	-64.491
889	6.4444	5.0909	0.	-81.026
890	6.4444	4.9091	0.	-97.123
891	6.4444	4.7273	0.	-112.62
892	6.4444	4.5455	0.	-127.33
893	6.4444	4.3636	0.	-141.06
894	6.4444	4.1818	0.	-153.63
895	6.4444	4.	0.	-164.82
896	6.4444	3.8182	0.	-174.47
897	6.4444	3.6364	0.	-182.4
898	6.4444	3.4545	0.	-188.48
899	6.4444	3.2727	0.	-192.6
900	6.4444	3.0909	0.	-194.67
901	6.4444	2.9091	0.	-194.67
902	6.4444	2.7273	0.	-192.6
903	6.4444	2.5455	0.	-188.48
904	6.4444	2.3636	0.	-182.4
905	6.4444	2.1818	0.	-174.47
906	6.4444	2.	0.	-164.82
907	6.4444	1.8182	0.	-153.63
908	6.4444	1.6364	0.	-141.06
909	6.4444	1.4545	0.	-127.33
910	6.4444	1.2727	0.	-112.62
911	6.4444	1.0909	0.	-97.123
912	6.4444	0.90909	0.	-81.026
913	6.4444	0.72727	0.	-64.491
914	6.4444	0.54545	0.	-47.665
915	6.4444	0.36364	0.	-30.613
916	6.4444	0.18182	0.	-13.254
917	6.2603	5.8182	0.	-15.394
918	6.2603	5.6364	0.	-34.744
919	6.2603	5.4545	0.	-53.716
920	6.2603	5.2727	0.	-72.345
921	6.2603	5.0909	0.	-90.551
922	6.2603	4.9091	0.	-108.18
923	6.2603	4.7273	0.	-125.05
924	6.2603	4.5455	0.	-140.98
925	6.2603	4.3636	0.	-155.78
926	6.2603	4.1818	0.	-169.26
927	6.2603	4.	0.	-181.22
928	6.2603	3.8182	0.	-191.49
929	6.2603	3.6364	0.	-199.92
930	6.2603	3.4545	0.	-206.36
931	6.2603	3.2727	0.	-210.71
932	6.2603	3.0909	0.	-212.91
933	6.2603	2.9091	0.	-212.91
934	6.2603	2.7273	0.	-210.71
935	6.2603	2.5455	0.	-206.36
936	6.2603	2.3636	0.	-199.92
937	6.2603	2.1818	0.	-191.49
938	6.2603	2.	0.	-181.22
939	6.2603	1.8182	0.	-169.26
940	6.2603	1.6364	0.	-155.78
941	6.2603	1.4545	0.	-140.98
942	6.2603	1.2727	0.	-125.05
943	6.2603	1.0909	0.	-108.18
944	6.2603	0.90909	0.	-90.551
945	6.2603	0.72727	0.	-72.345
946	6.2603	0.54545	0.	-53.716
947	6.2603	0.36364	0.	-34.744
948	6.2603	0.18182	0.	-15.394
949	6.0762	5.8182	0.	-17.575
950	6.0762	5.6364	0.	-38.995
951	6.0762	5.4545	0.	-59.976
952	6.0762	5.2727	0.	-80.509
953	6.0762	5.0909	0.	-100.5
954	6.0762	4.9091	0.	-119.78
955	6.0762	4.7273	0.	-138.16
956	6.0762	4.5455	0.	-155.45
957	6.0762	4.3636	0.	-171.45
958	6.0762	4.1818	0.	-185.97
959	6.0762	4.	0.	-198.82
960	6.0762	3.8182	0.	-209.82
961	6.0762	3.6364	0.	-218.83
962	6.0762	3.4545	0.	-225.7
963	6.0762	3.2727	0.	-230.35
964	6.0762	3.0909	0.	-232.69
965	6.0762	2.9091	0.	-232.69
966	6.0762	2.7273	0.	-230.35
967	6.0762	2.5455	0.	-225.7
968	6.0762	2.3636	0.	-218.83
969	6.0762	2.1818	0.	-209.82
970	6.0762	2.	0.	-198.82
971	6.0762	1.8182	0.	-185.97
972	6.0762	1.6364	0.	-171.45
973	6.0762	1.4545	0.	-155.45
974	6.0762	1.2727	0.	-138.16
975	6.0762	1.0909	0.	-119.78
976	6.0762	0.90909	0.	-100.5
977	6.0762	0.72727	0.	-80.509
978	6.0762	0.54545	0.	-59.976
979	6.0762	0.36364	0.	-38.995
980	6.0762	0.18182	0.	-17.575
981	5.8921	5.8182	0.	-19.801
982	5.8921	5.6364	0.	-43.391
983	5.8921	5.4545	0.	-66.49
984	5.8921	5.2727	0.	-89.045
985	5.8921	5.0909	0.	-110.95
986	5.8921	4.9091	0.	-132.01
987	5.8921	4.7273	0.	-152.04
988	5.8921	4.5455	0.	-170.82
989	5.8921	4.3636	0.	-188.17
990	5.8921	4.1818	0.	-203.87
991	5.8921	4.	0.	-217.73
992	5.8921	3.8182	0.	-229.58
993	5.8921	3.6364	0.	-239.26
994	5.8921	3.4545	0.	-246.64
995	5.8921	3.2727	0.	-251.62
996	5.8921	3.0909	0.	-254.12
997	5.8921	2.9091	0.	-254.12
998	5.8921	2.7273	0.	-251.62
999	5.8921	2.5455	0.	-246.64
1000	5.8921	2.3636	0.	-239.26
1001	5.8921	2.1818	0.	-229.58
1002	5.8921	2.	0.	-217.73
1003	5.8921	1.8182	0.	-203.87
1004	5.8921	1.6364	0.	-188.17
1005	5.8921	1.4545	0.	-170.82
1006	5.8921	1.2727	0.	-152.04
1007	5.8921	1.0909	0.	-132.01
1008	5.8921	0.90909	0.	-110.95
1009	5.8921	0.72727	0.	-89.045
1010	5.8921	0.54545	0.	-66.49
1011	5.8921	0.36364	0.	-43.391
1012	5.8921	0.18182	0.	-19.801
1013	5.7079	5.8182	0.	-22.073
1014	5.7079	5.6364	0.	-47.956
1015	5.7079	5.4545	0.	-73.299
1016	5.7079	5.2727	0.	-98.01
1017	5.7079	5.0909	0.	-121.97
1018	5.7079	4.9091	0.	-144.96
1019	5.7079	4.7273	0.	-166.79
1020	5.7079	4.5455	0.	-187.22
1021	5.7079	4.3636	0.	-206.05
1022	5.7079	4.1818	0.	-223.07
1023	5.7079	4.	0.	-238.07
1024	5.7079	3.8182	0.	-250.87
1025	5.7079	3.6364	0.	-261.32
1026	5.7079	3.4545	0.	-269.28
1027	5.7079	3.2727	0.	-274.65
1028	5.7079	3.0909	0.	-277.35
1029	5.7079	2.9091	0.	-277.35
1030	5.7079	2.7273	0.	-274.65
1031	5.7079	2.5455	0.	-269.28
1032	5.7079	2.3636	0.	-261.32
1033	5.7079	2.1818	0.	-250.87
1034	5.7079	2.	0.	-238.07
1035	5.7079	1.8182	0.	-223.07
1036	5.7079	1.6364	0.	-206.05
1037	5.7079	1.4545	0.	-187.22
1038	5.7079	1.2727	0.	-166.79
1039	5.7079	1.0909	0.	-144.96
1040	5.7079	0.90909	0.	-121.97
1041	5.7079	0.72727	0.	-98.01
1042	5.7079	0.54545	0.	-73.299
1043	5.7079	0.36364	0.	-47.956
1044	5.7079	0.18182	0.	-22.073
1045	5.5238	5.8182	0.	-24.391
1046	5.5238	5.6364	0.	-52.709
1047	5.5238	5.4545	0.	-80.44
1048	5.5238	5.2727	0.	-107.46
1049	5.5238	5.0909	0.	-133.63
1050	5.5238	4.9091	0.	-158.72
1051	5.5238	4.7273	0.	-182.5
1052	5.5238	4.5455	0.	-204.74
1053	5.5238	4.3636	0.	-225.22
1054	5.5238	4.1818	0.	-243.69
1055	5.5238	4.	0.	-259.96
1056	5.5238	3.8182	0.	-273.84
1057	5.5238	3.6364	0.	-285.16
1058	5.5238	3.4545	0.	-293.77
1059	5.5238	3.2727	0.	-299.58
1060	5.5238	3.0909	0.	-302.5
1061	5.5238	2.9091	0.	-302.5
1062	5.5238	2.7273	0.	-299.58
1063	5.5238	2.5455	0.	-293.77
1064	5.5238	2.3636	0.	-285.16
1065	5.5238	2.1818	0.	-273.84
1066	5.5238	2.	0.	-259.96
1067	5.5238	1.8182	0.	-243.69
1068	5.5238	1.6364	0.	-225.22
1069	5.5238	1.4545	0.	-204.74
1070	5.5238	1.2727	0.	-182.5
1071	5.5238	1.0909	0.	-158.72
1072	5.5238	0.90909	0.	-133.63
1073	5.5238	0.72727	0.	-107.46
1074	5.5238	0.54545	0.	-80.44
1075	5.5238	0.36364	0.	-52.709
1076	5.5238	0.18182	0.	-24.391
1077	5.3397	5.8182	0.	-26.747
1078	5.3397	5.6364	0.	-57.666
1079	5.3397	5.4545	0.	-87.949
1080	5.3397	5.2727	0.	-117.44
1081	5.3397	5.0909	0.	-146.
1082	5.3397	4.9091	0.	-173.36
1083	5.3397	4.7273	0.	-199.28
1084	5.3397	4.5455	0.	-223.5
1085	5.3397	4.3636	0.	-245.78
1086	5.3397	4.1818	0.	-265.87
1087	5.3397	4.	0.	-283.56
1088	5.3397	3.8182	0.	-298.63
1089	5.3397	3.6364	0.	-310.91
1090	5.3397	3.4545	0.	-320.26
1091	5.3397	3.2727	0.	-326.56
1092	5.3397	3.0909	0.	-329.73
1093	5.3397	2.9091	0.	-329.73
1094	5.3397	2.7273	0.	-326.56
1095	5.3397	2.5455	0.	-320.26
1096	5.3397	2.3636	0.	-310.91
1097	5.3397	2.1818	0.	-298.63
1098	5.3397	2.	0.	-283.56
1099	5.3397	1.8182	0.	-265.87
1100	5.3397	1.6364	0.	-245.78
1101	5.3397	1.4545	0.	-223.5
1102	5.3397	1.2727	0.	-199.28
1103	5.3397	1.0909	0.	-173.36
1104	5.3397	0.90909	0.	-146.
1105	5.3397	0.72727	0.	-117.44
1106	5.3397	0.54545	0.	-87.949
1107	5.3397	0.36364	0.	-57.666
1108	5.3397	0.18182	0.	-26.747
1109	5.1556	5.8182	0.	-29.135
1110	5.1556	5.6364	0.	-62.841
1111	5.1556	5.4545	0.	-95.857
1112	5.1556	5.2727	0.	-128.02
1113	5.1556	5.0909	0.	-159.15
1114	5.1556	4.9091	0.	-188.98
1115	5.1556	4.7273	0.	-217.22
1116	5.1556	4.5455	0.	-243.61
1117	5.1556	4.3636	0.	-267.87
1118	5.1556	4.1818	0.	-289.74
1119	5.1556	4.	0.	-308.98
1120	5.1556	3.8182	0.	-325.38
1121	5.1556	3.6364	0.	-338.74
1122	5.1556	3.4545	0.	-348.9
1123	5.1556	3.2727	0.	-355.75
1124	5.1556	3.0909	0.	-359.19
1125	5.1556	2.9091	0.	-359.19
1126	5.1556	2.7273	0.	-355.75
1127	5.1556	2.5455	0.	-348.9
1128	5.1556	2.3636	0.	-338.74
1129	5.1556	2.1818	0.	-325.38
1130	5.1556	2.	0.	-308.98
1131	5.1556	1.8182	0.	-289.74
1132	5.1556	1.6364	0.	-267.87
1133	5.1556	1.4545	0.	-243.61
1134	5.1556	1.2727	0.	-217.22
1135	5.1556	1.0909	0.	-188.98
1136	5.1556	0.90909	0.	-159.15
1137	5.1556	0.72727	0.	-128.02
1138	5.1556	0.54545	0.	-95.857
1139	5.1556	0.36364	0.	-62.841
1140	5.1556	0.18182	0.	-29.135
1141	4.9714	5.8182	0.	-31.542
1142	4.9714	5.6364	0.	-68.243
1143	4.9714	5.4545	0.	-104.19
1144	4.9714	5.2727	0.	-139.23
1145	4.9714	5.0909	0.	-173.15
1146	4.9714	4.9091	0.	-205.65
1147	4.9714	4.7273	0.	-236.43
1148	4.9714	4.5455	0.	-265.18
1149	4.9714	4.3636	0.	-291.61
1150	4.9714	4.1818	0.	-315.44
1151	4.9714	4.	0.	-336.4
1152	4.9714	3.8182	0.	-354.26
1153	4.9714	3.6364	0.	-368.81
1154	4.9714	3.4545	0.	-379.87
1155	4.9714	3.2727	0.	-387.32
1156	4.9714	3.0909	0.	-391.07
1157	4.9714	2.9091	0.	-391.07
1158	4.9714	2.7273	0.	-387.32
1159	4.9714	2.5455	0.	-379.87
1160	4.9714	2.3636	0.	-368.81
1161	4.9714	2.1818	0.	-354.26
1162	4.9714	2.	0.	-336.4
1163	4.9714	1.8182	0.	-315.44
1164	4.9714	1.6364	0.	-291.61
1165	4.9714	1.4545	0.	-265.18
1166	4.9714	1.2727	0.	-236.43
1167	4.9714	1.0909	0.	-205.65
1168	4.9714	0.90909	0.	-173.15
1169	4.9714	0.72727	0.	-139.23
1170	4.9714	0.54545	0.	-104.19
1171	4.9714	0.36364	0.	-68.243
1172	4.9714	0.18182	0.	-31.542
1173	4.7873	5.8182	0.	-33.951
1174	4.7873	5.6364	0.	-73.879
1175	4.7873	5.4545	0.	-112.99
1176	4.7873	5.2727	0.	-151.12
1177	4.7873	5.0909	0.	-188.06
1178	4.7873	4.9091	0.	-223.47
1179	4.7873	4.7273	0.	-257.01
1180	4.7873	4.5455	0.	-288.35
1181	4.7873	4.3636	0.	-317.16
1182	4.7873	4.1818	0.	-343.13
1183	4.7873	4.	0.	-365.98
1184	4.7873	3.8182	0.	-385.44
1185	4.7873	3.6364	0.	-401.3
1186	4.7873	3.4545	0.	-413.35
1187	4.7873	3.2727	0.	-421.47
1188	4.7873	3.0909	0.	-425.56
1189	4.7873	2.9091	0.	-425.56
1190	4.7873	2.7273	0.	-421.47
1191	4.7873	2.5455	0.	-413.35
1192	4.7873	2.3636	0.	-401.3
1193	4.7873	2.1818	0.	-385.44
1194	4.7873	2.	0.	-365.98
1195	4.7873	1.8182	0.	-343.13
1196	4.7873	1.6364	0.	-317.16
1197	4.7873	1.4545	0.	-288.35
1198	4.7873	1.2727	0.	-257.01
1199	4.7873	1.0909	0.	-223.47
1200	4.7873	0.90909	0.	-188.06
1201	4.7873	0.72727	0.	-151.12
1202	4.7873	0.54545	0.	-112.99
1203	4.7873	0.36364	0.	-73.879
1204	4.7873	0.18182	0.	-33.951
1205	4.6032	5.8182	0.	-36.341
1206	4.6032	5.6364	0.	-79.753
1207	4.6032	5.4545	0.	-122.27
1208	4.6032	5.2727	0.	-163.75
1209	4.6032	5.0909	0.	-203.96
1210	4.6032	4.9091	0.	-242.53
1211	4.6032	4.7273	0.	-279.08
1212	4.6032	4.5455	0.	-313.24
1213	4.6032	4.3636	0.	-344.65
1214	4.6032	4.1818	0.	-372.97
1215	4.6032	4.	0.	-397.89
1216	4.6032	3.8182	0.	-419.11
1217	4.6032	3.6364	0.	-436.4
1218	4.6032	3.4545	0.	-449.54
1219	4.6032	3.2727	0.	-458.4
1220	4.6032	3.0909	0.	-462.85
1221	4.6032	2.9091	0.	-462.85
1222	4.6032	2.7273	0.	-458.4
1223	4.6032	2.5455	0.	-449.54
1224	4.6032	2.3636	0.	-436.4
1225	4.6032	2.1818	0.	-419.11
1226	4.6032	2.	0.	-397.89
1227	4.6032	1.8182	0.	-372.97
1228	4.6032	1.6364	0.	-344.65
1229	4.6032	1.4545	0.	-313.24
1230	4.6032	1.2727	0.	-279.08
1231	4.6032	1.0909	0.	-242.53
1232	4.6032	0.90909	0.	-203.96
1233	4.6032	0.72727	0.	-163.75
1234	4.6032	0.54545	0.	-122.27
1235	4.6032	0.36364	0.	-79.753
1236	4.6032	0.18182	0.	-36.341
1237	4.419	5.8182	0.	-38.685
1238	4.419	5.6364	0.	-85.864
1239	4.419	5.4545	0.	-132.05
1240	4.419	5.2727	0.	-177.16
1241	4.419	5.0909	0.	-220.92
1242	4.419	4.9091	0.	-262.92
1243	4.419	4.7273	0.	-302.75
1244	4.419	4.5455	0.	-339.99
1245	4.419	4.3636	0.	-374.25
1246	4.419	4.1818	0.	-405.13
1247	4.419	4.	0.	-432.31
1248	4.419	3.8182	0.	-455.46
1249	4.419	3.6364	0.	-474.31
1250	4.419	3.4545	0.	-488.65
1251	4.419	3.2727	0.	-498.31
1252	4.419	3.0909	0.	-503.16
1253	4.419	2.9091	0.	-503.16
1254	4.419	2.7273	0.	-498.31
1255	4.419	2.5455	0.	-488.65
1256	4.419	2.3636	0.	-474.31
1257	4.419	2.1818	0.	-455.46
1258	4.419	2.	0.	-432.31
1259	4.419	1.8182	0.	-405.13
1260	4.419	1.6364	0.	-374.25
1261	4.419	1.4545	0.	-339.99
1262	4.419	1.2727	0.	-302.75
1263	4.419	1.0909	0.	-262.92
1264	4.419	0.90909	0.	-220.92
1265	4.419	0.72727	0.	-177.16
1266	4.419	0.54545	0.	-132.05
1267	4.419	0.36364	0.	-85.864
1268	4.419	0.18182	0.	-38.685
1269	4.2349	5.8182	0.	-40.952
1270	4.2349	5.6364	0.	-92.211
1271	4.2349	5.4545	0.	-142.37
1272	4.2349	5.2727	0.	-191.41
1273	4.2349	5.0909	0.	-239.03
1274	4.2349	4.9091	0.	-284.77
1275	4.2349	4.7273	0.	-328.17
1276	4.2349	4.5455	0.	-368.77
1277	4.2349	4.3636	0.	-406.12
1278	4.2349	4.1818	0.	-439.81
1279	4.2349	4.	0.	-469.45
1280	4.2349	3.8182	0.	-494.7
1281	4.2349	3.6364	0.	-515.27
1282	4.2349	3.4545	0.	-530.9
1283	4.2349	3.2727	0.	-541.43
1284	4.2349	3.0909	0.	-546.73
1285	4.2349	2.9091	0.	-546.73
1286	4.2349	2.7273	0.	-541.43
1287	4.2349	2.5455	0.	-530.9
1288	4.2349	2.3636	0.	-515.27
1289	4.2349	2.1818	0.	-494.7
1290	4.2349	2.	0.	-469.45
1291	4.2349	1.8182	0.	-439.81
1292	4.2349	1.6364	0.	-406.12
1293	4.2349	1.4545	0.	-368.77
1294	4.2349	1.2727	0.	-328.17
1295	4.2349	1.0909	0.	-284.77
1296	4.2349	0.90909	0.	-239.03
1297	4.2349	0.72727	0.	-191.41
1298	4.2349	0.54545	0.	-142.37
1299	4.2349	0.36364	0.	-92.211
1300	4.2349	0.18182	0.	-40.952
1301	4.0508	5.8182	0.	-43.103
1302	4.0508	5.6364	0.	-98.785
1303	4.0508	5.4545	0.	-153.24
1304	4.0508	5.2727	0.	-206.54
1305	4.0508	5.0909	0.	-258.36
1306	4.0508	4.9091	0.	-308.18
1307	4.0508	4.7273	0.	-355.47
1308	4.0508	4.5455	0.	-399.73
1309	4.0508	4.3636	0.	-440.47
1310	4.0508	4.1818	0.	-477.21
1311	4.0508	4.	0.	-509.53
1312	4.0508	3.8182	0.	-537.06
1313	4.0508	3.6364	0.	-559.48
1314	4.0508	3.4545	0.	-576.53
1315	4.0508	3.2727	0.	-588.
1316	4.0508	3.0909	0.	-593.77
1317	4.0508	2.9091	0.	-593.77
1318	4.0508	2.7273	0.	-588.
1319	4.0508	2.5455	0.	-576.53
1320	4.0508	2.3636	0.	-559.48
1321	4.0508	2.1818	0.	-537.06
1322	4.0508	2.	0.	-509.53
1323	4.0508	1.8182	0.	-477.21
1324	4.0508	1.6364	0.	-440.47
1325	4.0508	1.4545	0.	-399.73
1326	4.0508	1.2727	0.	-355.47
1327	4.0508	1.0909	0.	-308.18
1328	4.0508	0.90909	0.	-258.36
1329	4.0508	0.72727	0.	-206.54
1330	4.0508	0.54545	0.	-153.24
1331	4.0508	0.36364	0.	-98.785
1332	4.0508	0.18182	0.	-43.103
1333	3.8667	5.8182	0.	-45.092
1334	3.8667	5.6364	0.	-105.58
1335	3.8667	5.4545	0.	-164.7
1336	3.8667	5.2727	0.	-222.63
1337	3.8667	5.0909	0.	-279.01
1338	3.8667	4.9091	0.	-333.27
1339	3.8667	4.7273	0.	-384.81
1340	3.8667	4.5455	0.	-433.07
1341	3.8667	4.3636	0.	-477.48
1342	3.8667	4.1818	0.	-517.54
1343	3.8667	4.	0.	-552.77
1344	3.8667	3.8182	0.	-582.77
1345	3.8667	3.6364	0.	-607.2
1346	3.8667	3.4545	0.	-625.76
1347	3.8667	3.2727	0.	-638.26
1348	3.8667	3.0909	0.	-644.54
1349	3.8667	2.9091	0.	-644.54
1350	3.8667	2.7273	0.	-638.26
1351	3.8667	2.5455	0.	-625.76
1352	3.8667	2.3636	0.	-607.2
1353	3.8667	2.1818	0.	-582.77
1354	3.8667	2.	0.	-552.77
1355	3.8667	1.8182	0.	-517.54
1356	3.8667	1.6364	0.	-477.48
1357	3.8667	1.4545	0.	-433.07
1358	3.8667	1.2727	0.	-384.81
1359	3.8667	1.0909	0.	-333.27
1360	3.8667	0.90909	0.	-279.01
1361	3.8667	0.72727	0.	-222.63
1362	3.8667	0.54545	0.	-164.7
1363	3.8667	0.36364	0.	-105.58
1364	3.8667	0.18182	0.	-45.092
1365	3.6825	5.8182	0.	-46.866
1366	3.6825	5.6364	0.	-112.58
1367	3.6825	5.4545	0.	-176.76
1368	3.6825	5.2727	0.	-239.73
1369	3.6825	5.0909	0.	-301.1
1370	3.6825	4.9091	0.	-360.2
1371	3.6825	4.7273	0.	-416.38
1372	3.6825	4.5455	0.	-468.98
1373	3.6825	4.3636	0.	-517.39
1374	3.6825	4.1818	0.	-561.04
1375	3.6825	4.	0.	-599.42
1376	3.6825	3.8182	0.	-632.09
1377	3.6825	3.6364	0.	-658.67
1378	3.6825	3.4545	0.	-678.86
1379	3.6825	3.2727	0.	-692.45
1380	3.6825	3.0909	0.	-699.28
1381	3.6825	2.9091	0.	-699.28
1382	3.6825	2.7273	0.	-692.45
1383	3.6825	2.5455	0.	-678.86
1384	3.6825	2.3636	0.	-658.67
1385	3.6825	2.1818	0.	-632.09
1386	3.6825	2.	0.	-599.42
1387	3.6825	1.8182	0.	-561.04
1388	3.6825	1.6364	0.	-517.39
1389	3.6825	1.4545	0.	-468.98
1390	3.6825	1.2727	0.	-416.38
1391	3.6825	1.0909	0.	-360.2
1392	3.6825	0.90909	0.	-301.1
1393	3.6825	0.72727	0.	-239.73
1394	3.6825	0.54545	0.	-176.76
1395	3.6825	0.36364	0.	-112.58
1396	3.6825	0.18182	0.	-46.866
1397	3.4984	5.8182	0.	-48.366
1398	3.4984	5.6364	0.	-119.77
1399	3.4984	5.4545	0.	-189.46
1400	3.4984	5.2727	0.	-257.93
1401	3.4984	5.0909	0.	-324.75
1402	3.4984	4.9091	0.	-389.14
1403	3.4984	4.7273	0.	-450.37
1404	3.4984	4.5455	0.	-507.7
1405	3.4984	4.3636	0.	-560.45
1406	3.4984	4.1818	0.	-607.98
1407	3.4984	4.	0.	-649.75
1408	3.4984	3.8182	0.	-685.27
1409	3.4984	3.6364	0.	-714.14
1410	3.4984	3.4545	0.	-736.07
1411	3.4984	3.2727	0.	-750.81
1412	3.4984	3.0909	0.	-758.22
1413	3.4984	2.9091	0.	-758.22
1414	3.4984	2.7273	0.	-750.81
1415	3.4984	2.5455	0.	-736.07
1416	3.4984	2.3636	0.	-714.14
1417	3.4984	2.1818	0.	-685.27
1418	3.4984	2.	0.	-649.75
1419	3.4984	1.8182	0.	-607.98
1420	3.4984	1.6364	0.	-560.45
1421	3.4984	1.4545	0.	-507.7
1422	3.4984	1.2727	0.	-450.37
1423	3.4984	1.0909	0.	-389.14
1424	3.4984	0.90909	0.	-324.75
1425	3.4984	0.72727	0.	-257.93
1426	3.4984	0.54545	0.	-189.46
1427	3.4984	0.36364	0.	-119.77
1428	3.4984	0.18182	0.	-48.366
1429	3.3143	5.8182	0.	-49.52
1430	3.3143	5.6364	0.	-127.14
1431	3.3143	5.4545	0.	-202.83
1432	3.3143	5.2727	0.	-277.33
1433	3.3143	5.0909	0.	-350.1
1434	3.3143	4.9091	0.	-420.29
1435	3.3143	4.7273	0.	-487.03
1436	3.3143	4.5455	0.	-549.5
1437	3.3143	4.3636	0.	-606.94
1438	3.3143	4.1818	0.	-658.65
1439	3.3143	4.	0.	-704.03
1440	3.3143	3.8182	0.	-742.58
1441	3.3143	3.6364	0.	-773.89
1442	3.3143	3.4545	0.	-797.64
1443	3.3143	3.2727	0.	-813.6
1444	3.3143	3.0909	0.	-821.61
1445	3.3143	2.9091	0.	-821.61
1446	3.3143	2.7273	0.	-813.6
1447	3.3143	2.5455	0.	-797.64
1448	3.3143	2.3636	0.	-773.89
1449	3.3143	2.1818	0.	-742.58
1450	3.3143	2.	0.	-704.03
1451	3.3143	1.8182	0.	-658.65
1452	3.3143	1.6364	0.	-606.94
1453	3.3143	1.4545	0.	-549.5
1454	3.3143	1.2727	0.	-487.03
1455	3.3143	1.0909	0.	-420.29
1456	3.3143	0.90909	0.	-350.1
1457	3.3143	0.72727	0.	-277.33
1458	3.3143	0.54545	0.	-202.83
1459	3.3143	0.36364	0.	-127.14
1460	3.3143	0.18182	0.	-49.52
1461	3.1302	5.8182	0.	-50.252
1462	3.1302	5.6364	0.	-134.68
1463	3.1302	5.4545	0.	-216.95
1464	3.1302	5.2727	0.	-298.05
1465	3.1302	5.0909	0.	-377.36
1466	3.1302	4.9091	0.	-453.89
1467	3.1302	4.7273	0.	-526.65
1468	3.1302	4.5455	0.	-594.7
1469	3.1302	4.3636	0.	-657.19
1470	3.1302	4.1818	0.	-713.36
1471	3.1302	4.	0.	-762.58
1472	3.1302	3.8182	0.	-804.32
1473	3.1302	3.6364	0.	-838.17
1474	3.1302	3.4545	0.	-863.81
1475	3.1302	3.2727	0.	-881.02
1476	3.1302	3.0909	0.	-889.66
1477	3.1302	2.9091	0.	-889.66
1478	3.1302	2.7273	0.	-881.02
1479	3.1302	2.5455	0.	-863.81
1480	3.1302	2.3636	0.	-838.17
1481	3.1302	2.1818	0.	-804.32
1482	3.1302	2.	0.	-762.58
1483	3.1302	1.8182	0.	-713.36
1484	3.1302	1.6364	0.	-657.19
1485	3.1302	1.4545	0.	-594.7
1486	3.1302	1.2727	0.	-526.65
1487	3.1302	1.0909	0.	-453.89
1488	3.1302	0.90909	0.	-377.36
1489	3.1302	0.72727	0.	-298.05
1490	3.1302	0.54545	0.	-216.95
1491	3.1302	0.36364	0.	-134.68
1492	3.1302	0.18182	0.	-50.252
1493	2.946	5.8182	0.	-50.474
1494	2.946	5.6364	0.	-142.36
1495	2.946	5.4545	0.	-231.87
1496	2.946	5.2727	0.	-320.25
1497	2.946	5.0909	0.	-406.77
1498	2.946	4.9091	0.	-490.25
1499	2.946	4.7273	0.	-569.57
1500	2.946	4.5455	0.	-643.66
1501	2.946	4.3636	0.	-711.57
1502	2.946	4.1818	0.	-772.48
1503	2.946	4.	0.	-825.72
1504	2.946	3.8182	0.	-870.77
1505	2.946	3.6364	0.	-907.23
1506	2.946	3.4545	0.	-934.8
1507	2.946	3.2727	0.	-953.27
1508	2.946	3.0909	0.	-962.54
1509	2.946	2.9091	0.	-962.54
1510	2.946	2.7273	0.	-953.27
1511	2.946	2.5455	0.	-934.8
1512	2.946	2.3636	0.	-907.23
1513	2.946	2.1818	0.	-870.77
1514	2.946	2.	0.	-825.72
1515	2.946	1.8182	0.	-772.48
1516	2.946	1.6364	0.	-711.57
1517	2.946	1.4545	0.	-643.66
1518	2.946	1.2727	0.	-569.57
1519	2.946	1.0909	0.	-490.25
1520	2.946	0.90909	0.	-406.77
1521	2.946	0.72727	0.	-320.25
1522	2.946	0.54545	0.	-231.87
1523	2.946	0.36364	0.	-142.36
1524	2.946	0.18182	0.	-50.474
1525	2.7619	5.8182	0.	-50.092
1526	2.7619	5.6364	0.	-150.21
1527	2.7619	5.4545	0.	-247.71
1528	2.7619	5.2727	0.	-344.15
1529	2.7619	5.0909	0.	-438.63
1530	2.7619	4.9091	0.	-529.77
1531	2.7619	4.7273	0.	-616.24
1532	2.7619	4.5455	0.	-696.84
1533	2.7619	4.3636	0.	-770.51
1534	2.7619	4.1818	0.	-836.39
1535	2.7619	4.	0.	-893.8
1536	2.7619	3.8182	0.	-942.23
1537	2.7619	3.6364	0.	-981.31
1538	2.7619	3.4545	0.	-1010.8
1539	2.7619	3.2727	0.	-1030.5
1540	2.7619	3.0909	0.	-1040.4
1541	2.7619	2.9091	0.	-1040.4
1542	2.7619	2.7273	0.	-1030.5
1543	2.7619	2.5455	0.	-1010.8
1544	2.7619	2.3636	0.	-981.31
1545	2.7619	2.1818	0.	-942.23
1546	2.7619	2.	0.	-893.8
1547	2.7619	1.8182	0.	-836.39
1548	2.7619	1.6364	0.	-770.51
1549	2.7619	1.4545	0.	-696.84
1550	2.7619	1.2727	0.	-616.24
1551	2.7619	1.0909	0.	-529.77
1552	2.7619	0.90909	0.	-438.63
1553	2.7619	0.72727	0.	-344.15
1554	2.7619	0.54545	0.	-247.71
1555	2.7619	0.36364	0.	-150.21
1556	2.7619	0.18182	0.	-50.092
1557	2.5778	5.8182	0.	-49.008
1558	2.5778	5.6364	0.	-158.22
1559	2.5778	5.4545	0.	-264.63
1560	2.5778	5.2727	0.	-370.05
1561	2.5778	5.0909	0.	-473.37
1562	2.5778	4.9091	0.	-572.94
1563	2.5778	4.7273	0.	-667.2
1564	2.5778	4.5455	0.	-754.78
1565	2.5778	4.3636	0.	-834.54
1566	2.5778	4.1818	0.	-905.56
1567	2.5778	4.	0.	-967.19
1568	2.5778	3.8182	0.	-1019.
1569	2.5778	3.6364	0.	-1060.6
1570	2.5778	3.4545	0.	-1091.9
1571	2.5778	3.2727	0.	-1112.8
1572	2.5778	3.0909	0.	-1123.3
1573	2.5778	2.9091	0.	-1123.3
1574	2.5778	2.7273	0.	-1112.8
1575	2.5778	2.5455	0.	-1091.9
1576	2.5778	2.3636	0.	-1060.6
1577	2.5778	2.1818	0.	-1019.
1578	2.5778	2.	0.	-967.19
1579	2.5778	1.8182	0.	-905.56
1580	2.5778	1.6364	0.	-834.54
1581	2.5778	1.4545	0.	-754.78
1582	2.5778	1.2727	0.	-667.2
1583	2.5778	1.0909	0.	-572.94
1584	2.5778	0.90909	0.	-473.37
1585	2.5778	0.72727	0.	-370.05
1586	2.5778	0.54545	0.	-264.63
1587	2.5778	0.36364	0.	-158.22
1588	2.5778	0.18182	0.	-49.008
1589	2.3937	5.8182	0.	-47.123
1590	2.3937	5.6364	0.	-166.44
1591	2.3937	5.4545	0.	-282.84
1592	2.3937	5.2727	0.	-398.34
1593	2.3937	5.0909	0.	-511.53
1594	2.3937	4.9091	0.	-620.41
1595	2.3937	4.7273	0.	-723.13
1596	2.3937	4.5455	0.	-818.16
1597	2.3937	4.3636	0.	-904.24
1598	2.3937	4.1818	0.	-980.48
1599	2.3937	4.	0.	-1046.3
1600	2.3937	3.8182	0.	-1101.3
1601	2.3937	3.6364	0.	-1145.3
1602	2.3937	3.4545	0.	-1178.3
1603	2.3937	3.2727	0.	-1200.3
1604	2.3937	3.0909	0.	-1211.2
1605	2.3937	2.9091	0.	-1211.2
1606	2.3937	2.7273	0.	-1200.3
1607	2.3937	2.5455	0.	-1178.3
1608	2.3937	2.3636	0.	-1145.3
1609	2.3937	2.1818	0.	-1101.3
1610	2.3937	2.	0.	-1046.3
1611	2.3937	1.8182	0.	-980.48
1612	2.3937	1.6364	0.	-904.24
1613	2.3937	1.4545	0.	-818.16
1614	2.3937	1.2727	0.	-723.13
1615	2.3937	1.0909	0.	-620.41
1616	2.3937	0.90909	0.	-511.53
1617	2.3937	0.72727	0.	-398.34
1618	2.3937	0.54545	0.	-282.84
1619	2.3937	0.36364	0.	-166.44
1620	2.3937	0.18182	0.	-47.123
1621	2.2095	5.8182	0.	-44.351
1622	2.2095	5.6364	0.	-174.95
1623	2.2095	5.4545	0.	-302.69
1624	2.2095	5.2727	0.	-429.61
1625	2.2095	5.0909	0.	-553.88
1626	2.2095	4.9091	0.	-673.04
1627	2.2095	4.7273	0.	-784.93
1628	2.2095	4.5455	0.	-887.79
1629	2.2095	4.3636	0.	-980.32
1630	2.2095	4.1818	0.	-1061.7
1631	2.2095	4.	0.	-1131.4
1632	2.2095	3.8182	0.	-1189.4
1633	2.2095	3.6364	0.	-1235.5
1634	2.2095	3.4545	0.	-1269.9
1635	2.2095	3.2727	0.	-1292.7
1636	2.2095	3.0909	0.	-1304.1
1637	2.2095	2.9091	0.	-1304.1
1638	2.2095	2.7273	0.	-1292.7
1639	2.2095	2.5455	0.	-1269.9
1640	2.2095	2.3636	0.	-1235.5
1641	2.2095	2.1818	0.	-1189.4
1642	2.2095	2.	0.	-1131.4
1643	2.2095	1.8182	0.	-1061.7
1644	2.2095	1.6364	0.	-980.32
1645	2.2095	1.4545	0.	-887.79
1646	2.2095	1.2727	0.	-784.93
1647	2.2095	1.0909	0.	-673.04
1648	2.2095	0.90909	0.	-553.88
1649	2.2095	0.72727	0.	-429.61
1650	2.2095	0.54545	0.	-302.69
1651	2.2095	0.36364	0.	-174.95
1652	2.2095	0.18182	0.	-44.351
1653	2.0254	5.8182	0.	-40.642
1654	2.0254	5.6364	0.	-183.9
1655	2.0254	5.4545	0.	-324.65
1656	2.0254	5.2727	0.	-464.65
1657	2.0254	5.0909	0.	-601.45
1658	2.0254	4.9091	0.	-731.99
1659	2.0254	4.7273	0.	-853.7
1660	2.0254	4.5455	0.	-964.67
1661	2.0254	4.3636	0.	-1063.6
1662	2.0254	4.1818	0.	-1149.8
1663	2.0254	4.	0.	-1223.
1664	2.0254	3.8182	0.	-1283.4
1665	2.0254	3.6364	0.	-1331.1
1666	2.0254	3.4545	0.	-1366.5
1667	2.0254	3.2727	0.	-1389.9
1668	2.0254	3.0909	0.	-1401.6
1669	2.0254	2.9091	0.	-1401.6
1670	2.0254	2.7273	0.	-1389.9
1671	2.0254	2.5455	0.	-1366.5
1672	2.0254	2.3636	0.	-1331.1
1673	2.0254	2.1818	0.	-1283.4
1674	2.0254	2.	0.	-1223.
1675	2.0254	1.8182	0.	-1149.8
1676	2.0254	1.6364	0.	-1063.6
1677	2.0254	1.4545	0.	-964.67
1678	2.0254	1.2727	0.	-853.7
1679	2.0254	1.0909	0.	-731.99
1680	2.0254	0.90909	0.	-601.45
1681	2.0254	0.72727	0.	-464.65
1682	2.0254	0.54545	0.	-324.65
1683	2.0254	0.36364	0.	-183.9
1684	2.0254	0.18182	0.	-40.642
1685	1.8413	5.8182	0.	-36.041
1686	1.8413	5.6364	0.	-193.54
1687	1.8413	5.4545	0.	-349.48
1688	1.8413	5.2727	0.	-504.64
1689	1.8413	5.0909	0.	-655.67
1690	1.8413	4.9091	0.	-798.75
1691	1.8413	4.7273	0.	-930.88
1692	1.8413	4.5455	0.	-1050.
1693	1.8413	4.3636	0.	-1155.
1694	1.8413	4.1818	0.	-1245.4
1695	1.8413	4.	0.	-1321.4
1696	1.8413	3.8182	0.	-1383.4
1697	1.8413	3.6364	0.	-1432.1
1698	1.8413	3.4545	0.	-1468.
1699	1.8413	3.2727	0.	-1491.6
1700	1.8413	3.0909	0.	-1503.3
1701	1.8413	2.9091	0.	-1503.3
1702	1.8413	2.7273	0.	-1491.6
1703	1.8413	2.5455	0.	-1468.
1704	1.8413	2.3636	0.	-1432.1
1705	1.8413	2.1818	0.	-1383.4
1706	1.8413	2.	0.	-1321.4
1707	1.8413	1.8182	0.	-1245.4
1708	1.8413	1.6364	0.	-1155.
1709	1.8413	1.4545	0.	-1050.
1710	1.8413	1.2727	0.	-930.88
1711	1.8413	1.0909	0.	-798.75
1712	1.8413	0.90909	0.	-655.67
1713	1.8413	0.72727	0.	-504.64
1714	1.8413	0.54545	0.	-349.48
1715	1.8413	0.36364	0.	-193.54
1716	1.8413	0.18182	0.	-36.041
1717	1.6571	5.8182	0.	-30.77
1718	1.6571	5.6364	0.	-204.29
1719	1.6571	5.4545	0.	-378.28
1720	1.6571	5.2727	0.	-551.24
1721	1.6571	5.0909	0.	-718.53
1722	1.6571	4.9091	0.	-875.35
1723	1.6571	4.7273	0.	-1018.2
1724	1.6571	4.5455	0.	-1145.1
1725	1.6571	4.3636	0.	-1255.3
1726	1.6571	4.1818	0.	-1348.9
1727	1.6571	4.	0.	-1426.6
1728	1.6571	3.8182	0.	-1489.3
1729	1.6571	3.6364	0.	-1538.
1730	1.6571	3.4545	0.	-1573.7
1731	1.6571	3.2727	0.	-1597.1
1732	1.6571	3.0909	0.	-1608.6
1733	1.6571	2.9091	0.	-1608.6
1734	1.6571	2.7273	0.	-1597.1
1735	1.6571	2.5455	0.	-1573.7
1736	1.6571	2.3636	0.	-1538.
1737	1.6571	2.1818	0.	-1489.3
1738	1.6571	2.	0.	-1426.6
1739	1.6571	1.8182	0.	-1348.9
1740	1.6571	1.6364	0.	-1255.3
1741	1.6571	1.4545	0.	-1145.1
1742	1.6571	1.2727	0.	-1018.2
1743	1.6571	1.0909	0.	-875.35
1744	1.6571	0.90909	0.	-718.53
1745	1.6571	0.72727	0.	-551.24
1746	1.6571	0.54545	0.	-378.28
1747	1.6571	0.36364	0.	-204.29
1748	1.6571	0.18182	0.	-30.77
1749	1.473	5.8182	0.	-25.383
1750	1.473	5.6364	0.	-216.91
1751	1.473	5.4545	0.	-412.84
1752	1.473	5.2727	0.	-607.01
1753	1.473	5.0909	0.	-792.88
1754	1.473	4.9091	0.	-964.43
1755	1.473	4.7273	0.	-1117.9
1756	1.473	4.5455	0.	-1251.6
1757	1.473	4.3636	0.	-1365.6
1758	1.473	4.1818	0.	-1460.8
1759	1.473	4.	0.	-1538.6
1760	1.473	3.8182	0.	-1600.7
1761	1.473	3.6364	0.	-1648.4
1762	1.473	3.4545	0.	-1683.1
1763	1.473	3.2727	0.	-1705.7
1764	1.473	3.0909	0.	-1716.9
1765	1.473	2.9091	0.	-1716.9
1766	1.473	2.7273	0.	-1705.7
1767	1.473	2.5455	0.	-1683.1
1768	1.473	2.3636	0.	-1648.4
1769	1.473	2.1818	0.	-1600.7
1770	1.473	2.	0.	-1538.6
1771	1.473	1.8182	0.	-1460.8
1772	1.473	1.6364	0.	-1365.6
1773	1.473	1.4545	0.	-1251.6
1774	1.473	1.2727	0.	-1117.9
1775	1.473	1.0909	0.	-964.43
1776	1.473	0.90909	0.	-792.88
1777	1.473	0.72727	0.	-607.01
1778	1.473	0.54545	0.	-412.84
1779	1.473	0.36364	0.	-216.91
1780	1.473	0.18182	0.	-25.383
1781	1.2889	5.8182	0.	-20.586
1782	1.2889	5.6364	0.	-232.54
1783	1.2889	5.4545	0.	-455.82
1784	1.2889	5.2727	0.	-675.56
1785	1.2889	5.0909	0.	-882.45
1786	1.2889	4.9091	0.	-1069.2
1787	1.2889	4.7273	0.	-1232.1
1788	1.2889	4.5455	0.	-1370.7
1789	1.2889	4.3636	0.	-1486.2
1790	1.2889	4.1818	0.	-1580.8
1791	1.2889	4.	0.	-1656.8
1792	1.2889	3.8182	0.	-1716.7
1793	1.2889	3.6364	0.	-1762.3
1794	1.2889	3.4545	0.	-1795.1
1795	1.2889	3.2727	0.	-1816.4
1796	1.2889	3.0909	0.	-1826.9
1797	1.2889	2.9091	0.	-1826.9
1798	1.2889	2.7273	0.	-1816.4
1799	1.2889	2.5455	0.	-1795.1
1800	1.2889	2.3636	0.	-1762.3
1801	1.2889	2.1818	0.	-1716.7
1802	1.2889	2.	0.	-1656.8
1803	1.2889	1.8182	0.	-1580.8
1804	1.2889	1.6364	0.	-1486.2
1805	1.2889	1.4545	0.	-1370.7
1806	1.2889	1.2727	0.	-1232.1
1807	1.2889	1.0909	0.	-1069.2
1808	1.2889	0.90909	0.	-882.45
1809	1.2889	0.72727	0.	-675.56
1810	1.2889	0.54545	0.	-455.82
1811	1.2889	0.36364	0.	-232.54
1812	1.2889	0.18182	0.	-20.586
1813	1.1048	5.8182	0.	-17.413
1814	1.1048	5.6364	0.	-253.87
1815	1.1048	5.4545	0.	-512.4
1816	1.1048	5.2727	0.	-763.24
1817	1.1048	5.0909	0.	-993.22
1818	1.1048	4.9091	0.	-1194.2
1819	1.1048	4.7273	0.	-1363.9
1820	1.1048	4.5455	0.	-1504.
1821	1.1048	4.3636	0.	-1617.7
1822	1.1048	4.1818	0.	-1708.9
1823	1.1048	4.	0.	-1781.
1824	1.1048	3.8182	0.	-1836.9
1825	1.1048	3.6364	0.	-1879.1
1826	1.1048	3.4545	0.	-1909.3
1827	1.1048	3.2727	0.	-1928.8
1828	1.1048	3.0909	0.	-1938.3
1829	1.1048	2.9091	0.	-1938.3
1830	1.1048	2.7273	0.	-1928.8
1831	1.1048	2.5455	0.	-1909.3
1832	1.1048	2.3636	0.	-1879.1
1833	1.1048	2.1818	0.	-1836.9
1834	1.1048	2.	0.	-1781.
1835	1.1048	1.8182	0.	-1708.9
1836	1.1048	1.6364	0.	-1617.7
1837	1.1048	1.4545	0.	-1504.
1838	1.1048	1.2727	0.	-1363.9
1839	1.1048	1.0909	0.	-1194.2
1840	1.1048	0.90909	0.	-993.22
1841	1.1048	0.72727	0.	-763.24
1842	1.1048	0.54545	0.	-512.4
1843	1.1048	0.36364	0.	-253.87
1844	1.1048	0.18182	0.	-17.413
1845	0.92063	5.8182	0.	-14.265
1846	0.92063	5.6364	0.	-283.75
1847	0.92063	5.4545	0.	-588.54
1848	0.92063	5.2727	0.	-876.39
1849	0.92063	5.0909	0.	-1129.4
1850	0.92063	4.9091	0.	-1340.8
1851	0.92063	4.7273	0.	-1512.
1852	0.92063	4.5455	0.	-1648.4
1853	0.92063	4.3636	0.	-1756.1
1854	0.92063	4.1818	0.	-1840.5
1855	0.92063	4.	0.	-1906.2
1856	0.92063	3.8182	0.	-1956.7
1857	0.92063	3.6364	0.	-1994.4
1858	0.92063	3.4545	0.	-2021.2
1859	0.92063	3.2727	0.	-2038.4
1860	0.92063	3.0909	0.	-2046.9
1861	0.92063	2.9091	0.	-2046.9
1862	0.92063	2.7273	0.	-2038.4
1863	0.92063	2.5455	0.	-2021.2
1864	0.92063	2.3636	0.	-1994.4
1865	0.92063	2.1818	0.	-1956.7
1866	0.92063	2.	0.	-1906.2
1867	0.92063	1.8182	0.	-1840.5
1868	0.92063	1.6364	0.	-1756.1
1869	0.92063	1.4545	0.	-1648.4
1870	0.92063	1.2727	0.	-1512.
1871	0.92063	1.0909	0.	-1340.8
1872	0.92063	0.90909	0.	-1129.4
1873	0.92063	0.72727	0.	-876.39
1874	0.92063	0.54545	0.	-588.54
1875	0.92063	0.36364	0.	-283.75
1876	0.92063	0.18182	0.	-14.265
1877	0.73651	5.8182	0.	-18.355
1878	0.73651	5.6364	0.	-337.39
1879	0.73651	5.4545	0.	-706.89
1880	0.73651	5.2727	0.	-1037.2
1881	0.73651	5.0909	0.	-1308.9
1882	0.73651	4.9091	0.	-1522.2
1883	0.73651	4.7273	0.	-1686.7
1884	0.73651	4.5455	0.	-1813.
1885	0.73651	4.3636	0.	-1910.1
1886	0.73651	4.1818	0.	-1984.9
1887	0.73651	4.	0.	-2042.3
1888	0.73651	3.8182	0.	-2086.1
1889	0.73651	3.6364	0.	-2118.7
1890	0.73651	3.4545	0.	-2141.8
1891	0.73651	3.2727	0.	-2156.6
1892	0.73651	3.0909	0.	-2163.8
1893	0.73651	2.9091	0.	-2163.8
1894	0.73651	2.7273	0.	-2156.6
1895	0.73651	2.5455	0.	-2141.8
1896	0.73651	2.3636	0.	-2118.7
1897	0.73651	2.1818	0.	-2086.1
1898	0.73651	2.	0.	-2042.3
1899	0.73651	1.8182	0.	-1984.9
1900	0.73651	1.6364	0.	-1910.1
1901	0.73651	1.4545	0.	-1813.
1902	0.73651	1.2727	0.	-1686.7
1903	0.73651	1.0909	0.	-1522.2
1904	0.73651	0.90909	0.	-1308.9
1905	0.73651	0.72727	0.	-1037.2
1906	0.73651	0.54545	0.	-706.89
1907	0.73651	0.36364	0.	-337.39
1908	0.73651	0.18182	0.	-18.355
1909	0.55238	5.8182	0.	-0.67717
1910	0.55238	5.6364	0.	-411.82
1911	0.55238	5.4545	0.	-860.13
1912	0.55238	5.2727	0.	-1223.4
1913	0.55238	5.0909	0.	-1494.7
1914	0.55238	4.9091	0.	-1692.8
1915	0.55238	4.7273	0.	-1838.2
1916	0.55238	4.5455	0.	-1946.5
1917	0.55238	4.3636	0.	-2028.3
1918	0.55238	4.1818	0.	-2090.8
1919	0.55238	4.	0.	-2138.5
1920	0.55238	3.8182	0.	-2174.8
1921	0.55238	3.6364	0.	-2201.7
1922	0.55238	3.4545	0.	-2220.8
1923	0.55238	3.2727	0.	-2233.1
1924	0.55238	3.0909	0.	-2239.
1925	0.55238	2.9091	0.	-2239.
1926	0.55238	2.7273	0.	-2233.1
1927	0.55238	2.5455	0.	-2220.8
1928	0.55238	2.3636	0.	-2201.7
1929	0.55238	2.1818	0.	-2174.8
1930	0.55238	2.	0.	-2138.5
1931	0.55238	1.8182	0.	-2090.8
1932	0.55238	1.6364	0.	-2028.3
1933	0.55238	1.4545	0.	-1946.5
1934	0.55238	1.2727	0.	-1838.2
1935	0.55238	1.0909	0.	-1692.8
1936	0.55238	0.90909	0.	-1494.7
1937	0.55238	0.72727	0.	-1223.4
1938	0.55238	0.54545	0.	-860.13
1939	0.55238	0.36364	0.	-411.82
1940	0.55238	0.18182	0.	-0.67716
1941	0.36825	5.8182	0.	-81.595
1942	0.36825	5.6364	0.	-659.49
1943	0.36825	5.4545	0.	-1218.8
1944	0.36825	5.2727	0.	-1592.3
1945	0.36825	5.0909	0.	-1840.4
1946	0.36825	4.9091	0.	-2010.6
1947	0.36825	4.7273	0.	-2132.2
1948	0.36825	4.5455	0.	-2221.9
1949	0.36825	4.3636	0.	-2289.7
1950	0.36825	4.1818	0.	-2341.5
1951	0.36825	4.	0.	-2381.3
1952	0.36825	3.8182	0.	-2411.6
1953	0.36825	3.6364	0.	-2434.2
1954	0.36825	3.4545	0.	-2450.2
1955	0.36825	3.2727	0.	-2460.5
1956	0.36825	3.0909	0.	-2465.6
1957	0.36825	2.9091	0.	-2465.6
1958	0.36825	2.7273	0.	-2460.5
1959	0.36825	2.5455	0.	-2450.2
1960	0.36825	2.3636	0.	-2434.2
1961	0.36825	2.1818	0.	-2411.6
1962	0.36825	2.	0.	-2381.3
1963	0.36825	1.8182	0.	-2341.5
1964	0.36825	1.6364	0.	-2289.7
1965	0.36825	1.4545	0.	-2221.9
1966	0.36825	1.2727	0.	-2132.2
1967	0.36825	1.0909	0.	-2010.6
1968	0.36825	0.90909	0.	-1840.4
1969	0.36825	0.72727	0.	-1592.3
1970	0.36825	0.54545	0.	-1218.8
1971	0.36825	0.36364	0.	-659.49
1972	0.36825	0.18182	0.	-81.595
1973	0.18413	5.8182	0.	1.1758
1974	0.18413	5.6364	0.	-820.8
1975	0.18413	5.4545	0.	-1257.3
1976	0.18413	5.2727	0.	-1507.3
1977	0.18413	5.0909	0.	-1664.8
1978	0.18413	4.9091	0.	-1773.4
1979	0.18413	4.7273	0.	-1852.3
1980	0.18413	4.5455	0.	-1911.5
1981	0.18413	4.3636	0.	-1956.8
1982	0.18413	4.1818	0.	-1991.7
1983	0.18413	4.	0.	-2018.8
1984	0.18413	3.8182	0.	-2039.5
1985	0.18413	3.6364	0.	-2055.1
1986	0.18413	3.4545	0.	-2066.1
1987	0.18413	3.2727	0.	-2073.3
1988	0.18413	3.0909	0.	-2076.7
1989	0.18413	2.9091	0.	-2076.7
1990	0.18413	2.7273	0.	-2073.3
1991	0.18413	2.5455	0.	-2066.1
1992	0.18413	2.3636	0.	-2055.1
1993	0.18413	2.1818	0.	-2039.5
1994	0.18413	2.	0.	-2018.8
1995	0.18413	1.8182	0.	-1991.7
1996	0.18413	1.6364	0.	-1956.8
1997	0.18413	1.4545	0.	-1911.5
1998	0.18413	1.2727	0.	-1852.3
1999	0.18413	1.0909	0.	-1773.4
2000	0.18413	0.90909	0.	-1664.8
2001	0.18413	0.72727	0.	-1507.3
2002	0.18413	0.54545	0.	-1257.3
2003	0.18413	0.36364	0.	-820.8
2004	0.18413	0.18182	0.	1.1759
2005	11.949	5.8182	0.	-16.253
2006	12.132	5.8182	0.	-5.6638
2007	12.314	5.8182	0.	-2.784
2008	12.497	5.8182	0.	-0.9825
2009	12.68	5.8182	0.	-0.35439
2010	12.862	5.8182	0.	-7.202e-002
2011	13.045	5.8182	0.	2.2977e-002
2012	13.227	5.8182	0.	4.8234e-002
2013	13.41	5.8182	0.	4.5098e-002
2014	13.593	5.8182	0.	3.4226e-002
2015	13.775	5.8182	0.	2.3011e-002
2016	13.958	5.8182	0.	1.3798e-002
2017	14.14	5.8182	0.	6.6377e-003
2018	14.323	5.8182	0.	8.4614e-004
2019	14.505	5.8182	0.	-4.3311e-003
2020	14.688	5.8182	0.	-9.4606e-003
2021	14.871	5.8182	0.	-1.4745e-002
2022	15.053	5.8182	0.	-1.99e-002
2023	15.236	5.8182	0.	-2.4339e-002
2024	15.418	5.8182	0.	-2.7372e-002
2025	15.601	5.8182	0.	-2.8544e-002
2026	15.784	5.8182	0.	-2.7898e-002
2027	15.966	5.8182	0.	-2.5881e-002
2028	16.149	5.8182	0.	-2.3088e-002
2029	16.331	5.8182	0.	-2.0039e-002
2030	16.514	5.8182	0.	-1.7076e-002
2031	16.697	5.8182	0.	-1.4386e-002
2032	16.879	5.8182	0.	-1.2036e-002
2033	17.062	5.8182	0.	-1.0029e-002
2034	17.244	5.8182	0.	-8.3389e-003
2035	17.427	5.8182	0.	-6.9246e-003
2036	17.609	5.8182	0.	-5.7448e-003
2037	17.792	5.8182	0.	-4.7587e-003
2038	17.975	5.8182	0.	-3.9382e-003
2039	18.157	5.8182	0.	-3.2524e-003
2040	18.34	5.8182	0.	-2.6837e-003
2041	18.522	5.8182	0.	-2.2129e-003
2042	18.705	5.8182	0.	-1.8319e-003
2043	18.888	5.8182	0.	-1.5274e-003
2044	19.07	5.8182	0.	-1.2982e-003
2045	19.253	5.8182	0.	-1.1414e-003
2046	19.435	5.8182	0.	-1.0553e-003
2047	19.618	5.8182	0.	-1.048e-003
2048	19.8	5.8182	0.	-1.1155e-003
2049	19.983	5.8182	0.	-1.2758e-003
2050	20.166	5.8182	0.	-1.5341e-003
2051	20.348	5.8182	0.	-1.909e-003
2052	20.531	5.8182	0.	-2.4175e-003
2053	20.713	5.8182	0.	-3.0868e-003
2054	20.896	5.8182	0.	-3.9419e-003
2055	21.079	5.8182	0.	-5.0164e-003
2056	21.261	5.8182	0.	-6.3694e-003
2057	21.444	5.8182	0.	-8.0594e-003
2058	21.626	5.8182	0.	-1.0152e-002
2059	21.809	5.8182	0.	-1.2756e-002
2060	21.992	5.8182	0.	-1.5998e-002
2061	22.174	5.8182	0.	-2.0048e-002
2062	22.357	5.8182	0.	-2.5145e-002
2063	22.539	5.8182	0.	-3.1586e-002
2064	22.722	5.8182	0.	-3.9915e-002
2065	22.904	5.8182	0.	-5.0388e-002
2066	23.087	5.8182	0.	-6.5456e-002
2067	23.27	5.8182	0.	-8.0686e-002
2068	23.452	5.8182	0.	-0.11992
2069	23.635	5.8182	0.	-0.10793
2070	23.817	5.8182	0.	-0.49756
2071	11.949	5.6364	0.	-8.0604
2072	12.132	5.6364	0.	-4.1378
2073	12.314	5.6364	0.	-3.0339
2074	12.497	5.6364	0.	-1.4935
2075	12.68	5.6364	0.	-0.8815
2076	12.862	5.6364	0.	-0.55502
2077	13.045	5.6364	0.	-0.39295
2078	13.227	5.6364	0.	-0.29552
2079	13.41	5.6364	0.	-0.2314
2080	13.593	5.6364	0.	-0.18454
2081	13.775	5.6364	0.	-0.14861
2082	13.958	5.6364	0.	-0.12057
2083	14.14	5.6364	0.	-9.8995e-002
2084	14.323	5.6364	0.	-8.3325e-002
2085	14.505	5.6364	0.	-7.3668e-002
2086	14.688	5.6364	0.	-7.1323e-002
2087	14.871	5.6364	0.	-8.0686e-002
2088	15.053	5.6364	0.	-0.11832
2089	15.236	5.6364	0.	-0.27167
2090	15.418	5.6364	0.	-0.71847
2091	15.601	5.6364	0.	-1.0909
2092	15.784	5.6364	0.	-1.1796
2093	15.966	5.6364	0.	-1.0025
2094	16.149	5.6364	0.	-0.60821
2095	16.331	5.6364	0.	-0.11254
2096	16.514	5.6364	0.	5.5604e-003
2097	16.697	5.6364	0.	1.4424e-002
2098	16.879	5.6364	0.	1.5233e-002
2099	17.062	5.6364	0.	1.4175e-002
2100	17.244	5.6364	0.	1.2461e-002
2101	17.427	5.6364	0.	1.0481e-002
2102	17.609	5.6364	0.	8.3837e-003
2103	17.792	5.6364	0.	6.2385e-003
2104	17.975	5.6364	0.	4.0827e-003
2105	18.157	5.6364	0.	1.9308e-003
2106	18.34	5.6364	0.	-2.0994e-004
2107	18.522	5.6364	0.	-2.3379e-003
2108	18.705	5.6364	0.	-4.4585e-003
2109	18.888	5.6364	0.	-6.5751e-003
2110	19.07	5.6364	0.	-8.6953e-003
2111	19.253	5.6364	0.	-1.0828e-002
2112	19.435	5.6364	0.	-1.2985e-002
2113	19.618	5.6364	0.	-1.5178e-002
2114	19.8	5.6364	0.	-1.7419e-002
2115	19.983	5.6364	0.	-1.9722e-002
2116	20.166	5.6364	0.	-2.21e-002
2117	20.348	5.6364	0.	-2.4572e-002
2118	20.531	5.6364	0.	-2.7152e-002
2119	20.713	5.6364	0.	-2.9862e-002
2120	20.896	5.6364	0.	-3.2717e-002
2121	21.079	5.6364	0.	-3.5732e-002
2122	21.261	5.6364	0.	-3.8945e-002
2123	21.444	5.6364	0.	-4.2366e-002
2124	21.626	5.6364	0.	-4.6021e-002
2125	21.809	5.6364	0.	-4.9932e-002
2126	21.992	5.6364	0.	-5.4112e-002
2127	22.174	5.6364	0.	-5.8568e-002
2128	22.357	5.6364	0.	-6.329e-002
2129	22.539	5.6364	0.	-6.8182e-002
2130	22.722	5.6364	0.	-7.3214e-002
2131	22.904	5.6364	0.	-7.7519e-002
2132	23.087	5.6364	0.	-8.2294e-002
2133	23.27	5.6364	0.	-7.8043e-002
2134	23.452	5.6364	0.	-9.0292e-002
2135	23.635	5.6364	0.	1.0068e-002
2136	23.817	5.6364	0.	-0.26945
2137	11.949	5.4545	0.	-6.1111
2138	12.132	5.4545	0.	-2.4178
2139	12.314	5.4545	0.	-2.672
2140	12.497	5.4545	0.	-1.7146
2141	12.68	5.4545	0.	-1.1949
2142	12.862	5.4545	0.	-0.81757
2143	13.045	5.4545	0.	-0.5887
2144	13.227	5.4545	0.	-0.43772
2145	13.41	5.4545	0.	-0.33844
2146	13.593	5.4545	0.	-0.27236
2147	13.775	5.4545	0.	-0.23007
2148	13.958	5.4545	0.	-0.20678
2149	14.14	5.4545	0.	-0.20265
2150	14.323	5.4545	0.	-0.22717
2151	14.505	5.4545	0.	-0.32876
2152	14.688	5.4545	0.	-0.89903
2153	14.871	5.4545	0.	-2.9514
2154	15.053	5.4545	0.	-4.9791
2155	15.236	5.4545	0.	-6.4179
2156	15.418	5.4545	0.	-7.293
2157	15.601	5.4545	0.	-7.6807
2158	15.784	5.4545	0.	-7.6592
2159	15.966	5.4545	0.	-7.3006
2160	16.149	5.4545	0.	-6.6692
2161	16.331	5.4545	0.	-5.8205
2162	16.514	5.4545	0.	-4.8019
2163	16.697	5.4545	0.	-3.6533
2164	16.879	5.4545	0.	-2.4081
2165	17.062	5.4545	0.	-1.094
2166	17.244	5.4545	0.	-5.8988e-003
2167	17.427	5.4545	0.	2.3469e-003
2168	17.609	5.4545	0.	2.1739e-003
2169	17.792	5.4545	0.	1.549e-003
2170	17.975	5.4545	0.	8.4572e-004
2171	18.157	5.4545	0.	1.4044e-004
2172	18.34	5.4545	0.	-5.454e-004
2173	18.522	5.4545	0.	-1.2081e-003
2174	18.705	5.4545	0.	-1.8472e-003
2175	18.888	5.4545	0.	-2.4657e-003
2176	19.07	5.4545	0.	-3.0664e-003
2177	19.253	5.4545	0.	-3.6516e-003
2178	19.435	5.4545	0.	-4.2236e-003
2179	19.618	5.4545	0.	-4.7869e-003
2180	19.8	5.4545	0.	-5.3439e-003
2181	19.983	5.4545	0.	-5.8927e-003
2182	20.166	5.4545	0.	-6.4327e-003
2183	20.348	5.4545	0.	-6.9706e-003
2184	20.531	5.4545	0.	-7.4994e-003
2185	20.713	5.4545	0.	-8.015e-003
2186	20.896	5.4545	0.	-8.5073e-003
2187	21.079	5.4545	0.	-8.9648e-003
2188	21.261	5.4545	0.	-9.3832e-003
2189	21.444	5.4545	0.	-9.7308e-003
2190	21.626	5.4545	0.	-9.9647e-003
2191	21.809	5.4545	0.	-1.0045e-002
2192	21.992	5.4545	0.	-9.8855e-003
2193	22.174	5.4545	0.	-9.3693e-003
2194	22.357	5.4545	0.	-8.3221e-003
2195	22.539	5.4545	0.	-6.4127e-003
2196	22.722	5.4545	0.	-3.3038e-003
2197	22.904	5.4545	0.	2.3642e-003
2198	23.087	5.4545	0.	9.8509e-003
2199	23.27	5.4545	0.	3.0989e-002
2200	23.452	5.4545	0.	3.5318e-002
2201	23.635	5.4545	0.	0.18624
2202	23.817	5.4545	0.	-1.9998e-002
2203	11.949	5.2727	0.	-5.4229
2204	12.132	5.2727	0.	-1.4261
2205	12.314	5.2727	0.	-2.3303
2206	12.497	5.2727	0.	-1.7704
2207	12.68	5.2727	0.	-1.4753
2208	12.862	5.2727	0.	-1.1715
2209	13.045	5.2727	0.	-0.95005
2210	13.227	5.2727	0.	-0.78608
2211	13.41	5.2727	0.	-0.67503
2212	13.593	5.2727	0.	-0.61042
2213	13.775	5.2727	0.	-0.59708
2214	13.958	5.2727	0.	-0.66603
2215	14.14	5.2727	0.	-0.96919
2216	14.323	5.2727	0.	-2.4475
2217	14.505	5.2727	0.	-5.9843
2218	14.688	5.2727	0.	-9.3911
2219	14.871	5.2727	0.	-12.014
2220	15.053	5.2727	0.	-13.849
2221	15.236	5.2727	0.	-14.978
2222	15.418	5.2727	0.	-15.498
2223	15.601	5.2727	0.	-15.504
2224	15.784	5.2727	0.	-15.084
2225	15.966	5.2727	0.	-14.316
2226	16.149	5.2727	0.	-13.272
2227	16.331	5.2727	0.	-12.01
2228	16.514	5.2727	0.	-10.581
2229	16.697	5.2727	0.	-9.0288
2230	16.879	5.2727	0.	-7.3879
2231	17.062	5.2727	0.	-5.687
2232	17.244	5.2727	0.	-3.9492
2233	17.427	5.2727	0.	-2.1936
2234	17.609	5.2727	0.	-0.45809
2235	17.792	5.2727	0.	-9.1443e-003
2236	17.975	5.2727	0.	-2.5314e-003
2237	18.157	5.2727	0.	-1.1655e-003
2238	18.34	5.2727	0.	-8.2987e-004
2239	18.522	5.2727	0.	-8.4826e-004
2240	18.705	5.2727	0.	-1.0163e-003
2241	18.888	5.2727	0.	-1.2526e-003
2242	19.07	5.2727	0.	-1.5197e-003
2243	19.253	5.2727	0.	-1.7997e-003
2244	19.435	5.2727	0.	-2.0786e-003
2245	19.618	5.2727	0.	-2.3526e-003
2246	19.8	5.2727	0.	-2.6087e-003
2247	19.983	5.2727	0.	-2.8506e-003
2248	20.166	5.2727	0.	-3.0656e-003
2249	20.348	5.2727	0.	-3.2514e-003
2250	20.531	5.2727	0.	-3.3949e-003
2251	20.713	5.2727	0.	-3.4917e-003
2252	20.896	5.2727	0.	-3.5189e-003
2253	21.079	5.2727	0.	-3.4537e-003
2254	21.261	5.2727	0.	-3.28e-003
2255	21.444	5.2727	0.	-2.9523e-003
2256	21.626	5.2727	0.	-2.4211e-003
2257	21.809	5.2727	0.	-1.6065e-003
2258	21.992	5.2727	0.	-4.1078e-004
2259	22.174	5.2727	0.	1.3214e-003
2260	22.357	5.2727	0.	3.8048e-003
2261	22.539	5.2727	0.	7.4137e-003
2262	22.722	5.2727	0.	1.2531e-002
2263	22.904	5.2727	0.	2.0627e-002
2264	23.087	5.2727	0.	3.0889e-002
2265	23.27	5.2727	0.	5.5545e-002
2266	23.452	5.2727	0.	6.5243e-002
2267	23.635	5.2727	0.	0.22269
2268	23.817	5.2727	0.	3.3967e-002
2269	11.949	5.0909	0.	-5.4346
2270	12.132	5.0909	0.	-1.0838
2271	12.314	5.0909	0.	-2.255
2272	12.497	5.0909	0.	-1.8621
2273	12.68	5.0909	0.	-1.7417
2274	12.862	5.0909	0.	-1.5632
2275	13.045	5.0909	0.	-1.4495
2276	13.227	5.0909	0.	-1.3945
2277	13.41	5.0909	0.	-1.4416
2278	13.593	5.0909	0.	-1.6995
2279	13.775	5.0909	0.	-2.6166
2280	13.958	5.0909	0.	-5.74
2281	14.14	5.0909	0.	-10.813
2282	14.323	5.0909	0.	-15.518
2283	14.505	5.0909	0.	-19.262
2284	14.688	5.0909	0.	-22.022
2285	14.871	5.0909	0.	-23.884
2286	15.053	5.0909	0.	-24.952
2287	15.236	5.0909	0.	-25.336
2288	15.418	5.0909	0.	-25.141
2289	15.601	5.0909	0.	-24.465
2290	15.784	5.0909	0.	-23.397
2291	15.966	5.0909	0.	-22.016
2292	16.149	5.0909	0.	-20.389
2293	16.331	5.0909	0.	-18.576
2294	16.514	5.0909	0.	-16.626
2295	16.697	5.0909	0.	-14.58
2296	16.879	5.0909	0.	-12.472
2297	17.062	5.0909	0.	-10.328
2298	17.244	5.0909	0.	-8.1699
2299	17.427	5.0909	0.	-6.0133
2300	17.609	5.0909	0.	-3.8706
2301	17.792	5.0909	0.	-1.7544
2302	17.975	5.0909	0.	-6.2302e-002
2303	18.157	5.0909	0.	-7.2712e-003
2304	18.34	5.0909	0.	-2.3287e-003
2305	18.522	5.0909	0.	-6.6379e-004
2306	18.705	5.0909	0.	1.1033e-004
2307	18.888	5.0909	0.	5.3431e-004
2308	19.07	5.0909	0.	8.0176e-004
2309	19.253	5.0909	0.	9.9292e-004
2310	19.435	5.0909	0.	1.1503e-003
2311	19.618	5.0909	0.	1.3016e-003
2312	19.8	5.0909	0.	1.4636e-003
2313	19.983	5.0909	0.	1.6512e-003
2314	20.166	5.0909	0.	1.8789e-003
2315	20.348	5.0909	0.	2.1562e-003
2316	20.531	5.0909	0.	2.497e-003
2317	20.713	5.0909	0.	2.9186e-003
2318	20.896	5.0909	0.	3.4481e-003
2319	21.079	5.0909	0.	4.1176e-003
2320	21.261	5.0909	0.	4.9476e-003
2321	21.444	5.0909	0.	5.9912e-003
2322	21.626	5.0909	0.	7.3195e-003
2323	21.809	5.0909	0.	9.0121e-003
2324	21.992	5.0909	0.	1.1188e-002
2325	22.174	5.0909	0.	1.402e-002
2326	22.357	5.0909	0.	1.7736e-002
2327	22.539	5.0909	0.	2.2733e-002
2328	22.722	5.0909	0.	2.9412e-002
2329	22.904	5.0909	0.	3.9274e-002
2330	23.087	5.0909	0.	5.1554e-002
2331	23.27	5.0909	0.	7.8672e-002
2332	23.452	5.0909	0.	9.1223e-002
2333	23.635	5.0909	0.	0.25667
2334	23.817	5.0909	0.	8.5395e-002
2335	11.949	4.9091	0.	-6.8271
2336	12.132	4.9091	0.	-0.87838
2337	12.314	4.9091	0.	-2.5495
2338	12.497	4.9091	0.	-2.0415
2339	12.68	4.9091	0.	-2.0848
2340	12.862	4.9091	0.	-2.13
2341	13.045	4.9091	0.	-2.4121
2342	13.227	4.9091	0.	-3.171
2343	13.41	4.9091	0.	-5.5144
2344	13.593	4.9091	0.	-11.592
2345	13.775	4.9091	0.	-19.057
2346	13.958	4.9091	0.	-25.355
2347	14.14	4.9091	0.	-30.193
2348	14.323	4.9091	0.	-33.718
2349	14.505	4.9091	0.	-36.106
2350	14.688	4.9091	0.	-37.517
2351	14.871	4.9091	0.	-38.092
2352	15.053	4.9091	0.	-37.957
2353	15.236	4.9091	0.	-37.227
2354	15.418	4.9091	0.	-36.006
2355	15.601	4.9091	0.	-34.387
2356	15.784	4.9091	0.	-32.454
2357	15.966	4.9091	0.	-30.277
2358	16.149	4.9091	0.	-27.92
2359	16.331	4.9091	0.	-25.436
2360	16.514	4.9091	0.	-22.867
2361	16.697	4.9091	0.	-20.25
2362	16.879	4.9091	0.	-17.614
2363	17.062	4.9091	0.	-14.98
2364	17.244	4.9091	0.	-12.365
2365	17.427	4.9091	0.	-9.7819
2366	17.609	4.9091	0.	-7.238
2367	17.792	4.9091	0.	-4.7387
2368	17.975	4.9091	0.	-2.2896
2369	18.157	4.9091	0.	-0.12194
2370	18.34	4.9091	0.	-7.2306e-003
2371	18.522	4.9091	0.	-1.0275e-003
2372	18.705	4.9091	0.	1.0971e-003
2373	18.888	4.9091	0.	2.1887e-003
2374	19.07	4.9091	0.	2.8887e-003
2375	19.253	4.9091	0.	3.4165e-003
2376	19.435	4.9091	0.	3.8682e-003
2377	19.618	4.9091	0.	4.2908e-003
2378	19.8	4.9091	0.	4.7174e-003
2379	19.983	4.9091	0.	5.1714e-003
2380	20.166	4.9091	0.	5.6681e-003
2381	20.348	4.9091	0.	6.2249e-003
2382	20.531	4.9091	0.	6.8641e-003
2383	20.713	4.9091	0.	7.6007e-003
2384	20.896	4.9091	0.	8.4642e-003
2385	21.079	4.9091	0.	9.4919e-003
2386	21.261	4.9091	0.	1.0711e-002
2387	21.444	4.9091	0.	1.2177e-002
2388	21.626	4.9091	0.	1.3964e-002
2389	21.809	4.9091	0.	1.6158e-002
2390	21.992	4.9091	0.	1.8881e-002
2391	22.174	4.9091	0.	2.231e-002
2392	22.357	4.9091	0.	2.6677e-002
2393	22.539	4.9091	0.	3.2378e-002
2394	22.722	4.9091	0.	3.9818e-002
2395	22.904	4.9091	0.	5.0514e-002
2396	23.087	4.9091	0.	6.3715e-002
2397	23.27	4.9091	0.	9.2093e-002
2398	23.452	4.9091	0.	0.10607
2399	23.635	4.9091	0.	0.27628
2400	23.817	4.9091	0.	0.11739
2401	11.949	4.7273	0.	-5.9954
2402	12.132	4.7273	0.	-1.1932
2403	12.314	4.7273	0.	-2.9364
2404	12.497	4.7273	0.	-2.4803
2405	12.68	4.7273	0.	-2.6057
2406	12.862	4.7273	0.	-3.2446
2407	13.045	4.7273	0.	-5.5966
2408	13.227	4.7273	0.	-14.764
2409	13.41	4.7273	0.	-28.477
2410	13.593	4.7273	0.	-38.985
2411	13.775	4.7273	0.	-46.151
2412	13.958	4.7273	0.	-50.848
2413	14.14	4.7273	0.	-53.733
2414	14.323	4.7273	0.	-55.245
2415	14.505	4.7273	0.	-55.682
2416	14.688	4.7273	0.	-55.256
2417	14.871	4.7273	0.	-54.132
2418	15.053	4.7273	0.	-52.443
2419	15.236	4.7273	0.	-50.299
2420	15.418	4.7273	0.	-47.798
2421	15.601	4.7273	0.	-45.023
2422	15.784	4.7273	0.	-42.046
2423	15.966	4.7273	0.	-38.929
2424	16.149	4.7273	0.	-35.722
2425	16.331	4.7273	0.	-32.47
2426	16.514	4.7273	0.	-29.206
2427	16.697	4.7273	0.	-25.957
2428	16.879	4.7273	0.	-22.746
2429	17.062	4.7273	0.	-19.586
2430	17.244	4.7273	0.	-16.489
2431	17.427	4.7273	0.	-13.46
2432	17.609	4.7273	0.	-10.504
2433	17.792	4.7273	0.	-7.6191
2434	17.975	4.7273	0.	-4.8049
2435	18.157	4.7273	0.	-2.0619
2436	18.34	4.7273	0.	-4.065e-002
2437	18.522	4.7273	0.	-2.4882e-003
2438	18.705	4.7273	0.	2.0223e-003
2439	18.888	4.7273	0.	3.8538e-003
2440	19.07	4.7273	0.	4.9383e-003
2441	19.253	4.7273	0.	5.7324e-003
2442	19.435	4.7273	0.	6.4041e-003
2443	19.618	4.7273	0.	7.0294e-003
2444	19.8	4.7273	0.	7.6532e-003
2445	19.983	4.7273	0.	8.3042e-003
2446	20.166	4.7273	0.	9.0039e-003
2447	20.348	4.7273	0.	9.7746e-003
2448	20.531	4.7273	0.	1.0634e-002
2449	20.713	4.7273	0.	1.1603e-002
2450	20.896	4.7273	0.	1.2715e-002
2451	21.079	4.7273	0.	1.4006e-002
2452	21.261	4.7273	0.	1.5509e-002
2453	21.444	4.7273	0.	1.7278e-002
2454	21.626	4.7273	0.	1.9386e-002
2455	21.809	4.7273	0.	2.1926e-002
2456	21.992	4.7273	0.	2.5019e-002
2457	22.174	4.7273	0.	2.884e-002
2458	22.357	4.7273	0.	3.362e-002
2459	22.539	4.7273	0.	3.9762e-002
2460	22.722	4.7273	0.	4.7676e-002
2461	22.904	4.7273	0.	5.8888e-002
2462	23.087	4.7273	0.	7.2694e-002
2463	23.27	4.7273	0.	0.10194
2464	23.452	4.7273	0.	0.11707
2465	23.635	4.7273	0.	0.29093
2466	23.817	4.7273	0.	0.14229
2467	11.949	4.5455	0.	-18.191
2468	12.132	4.5455	0.	-2.1245
2469	12.314	4.5455	0.	-3.3626
2470	12.497	4.5455	0.	-3.1696
2471	12.68	4.5455	0.	-3.688
2472	12.862	4.5455	0.	-7.0032
2473	13.045	4.5455	0.	-25.45
2474	13.227	4.5455	0.	-48.987
2475	13.41	4.5455	0.	-64.165
2476	13.593	4.5455	0.	-73.028
2477	13.775	4.5455	0.	-77.785
2478	13.958	4.5455	0.	-79.851
2479	14.14	4.5455	0.	-80.102
2480	14.323	4.5455	0.	-79.083
2481	14.505	4.5455	0.	-77.145
2482	14.688	4.5455	0.	-74.527
2483	14.871	4.5455	0.	-71.401
2484	15.053	4.5455	0.	-67.898
2485	15.236	4.5455	0.	-64.121
2486	15.418	4.5455	0.	-60.155
2487	15.601	4.5455	0.	-56.069
2488	15.784	4.5455	0.	-51.921
2489	15.966	4.5455	0.	-47.758
2490	16.149	4.5455	0.	-43.617
2491	16.331	4.5455	0.	-39.53
2492	16.514	4.5455	0.	-35.518
2493	16.697	4.5455	0.	-31.599
2494	16.879	4.5455	0.	-27.782
2495	17.062	4.5455	0.	-24.076
2496	17.244	4.5455	0.	-20.483
2497	17.427	4.5455	0.	-17.002
2498	17.609	4.5455	0.	-13.63
2499	17.792	4.5455	0.	-10.361
2500	17.975	4.5455	0.	-7.1891
2501	18.157	4.5455	0.	-4.1063
2502	18.34	4.5455	0.	-1.117
2503	18.522	4.5455	0.	-7.2084e-003
2504	18.705	4.5455	0.	2.8409e-003
2505	18.888	4.5455	0.	5.4752e-003
2506	19.07	4.5455	0.	6.8527e-003
2507	19.253	4.5455	0.	7.8248e-003
2508	19.435	4.5455	0.	8.6381e-003
2509	19.618	4.5455	0.	9.3964e-003
2510	19.8	4.5455	0.	1.0153e-002
2511	19.983	4.5455	0.	1.0938e-002
2512	20.166	4.5455	0.	1.1776e-002
2513	20.348	4.5455	0.	1.2691e-002
2514	20.531	4.5455	0.	1.3704e-002
2515	20.713	4.5455	0.	1.4834e-002
2516	20.896	4.5455	0.	1.6117e-002
2517	21.079	4.5455	0.	1.759e-002
2518	21.261	4.5455	0.	1.9279e-002
2519	21.444	4.5455	0.	2.1253e-002
2520	21.626	4.5455	0.	2.3572e-002
2521	21.809	4.5455	0.	2.6332e-002
2522	21.992	4.5455	0.	2.9656e-002
2523	22.174	4.5455	0.	3.3714e-002
2524	22.357	4.5455	0.	3.8746e-002
2525	22.539	4.5455	0.	4.5152e-002
2526	22.722	4.5455	0.	5.3344e-002
2527	22.904	4.5455	0.	6.4882e-002
2528	23.087	4.5455	0.	7.9087e-002
2529	23.27	4.5455	0.	0.10896
2530	23.452	4.5455	0.	0.12492
2531	23.635	4.5455	0.	0.30159
2532	23.817	4.5455	0.	0.16127
2533	11.949	4.3636	0.	6.2086
2534	12.132	4.3636	0.	-0.19178
2535	12.314	4.3636	0.	-8.5977
2536	12.497	4.3636	0.	-3.1578
2537	12.68	4.3636	0.	-7.1428
2538	12.862	4.3636	0.	-32.472
2539	13.045	4.3636	0.	-70.11
2540	13.227	4.3636	0.	-92.839
2541	13.41	4.3636	0.	-104.97
2542	13.593	4.3636	0.	-110.5
2543	13.775	4.3636	0.	-111.93
2544	13.958	4.3636	0.	-110.79
2545	14.14	4.3636	0.	-107.99
2546	14.323	4.3636	0.	-104.13
2547	14.505	4.3636	0.	-99.556
2548	14.688	4.3636	0.	-94.531
2549	14.871	4.3636	0.	-89.22
2550	15.053	4.3636	0.	-83.749
2551	15.236	4.3636	0.	-78.208
2552	15.418	4.3636	0.	-72.667
2553	15.601	4.3636	0.	-67.18
2554	15.784	4.3636	0.	-61.788
2555	15.966	4.3636	0.	-56.521
2556	16.149	4.3636	0.	-51.403
2557	16.331	4.3636	0.	-46.447
2558	16.514	4.3636	0.	-41.664
2559	16.697	4.3636	0.	-37.057
2560	16.879	4.3636	0.	-32.627
2561	17.062	4.3636	0.	-28.371
2562	17.244	4.3636	0.	-24.282
2563	17.427	4.3636	0.	-20.353
2564	17.609	4.3636	0.	-16.573
2565	17.792	4.3636	0.	-12.93
2566	17.975	4.3636	0.	-9.4124
2567	18.157	4.3636	0.	-6.0069
2568	18.34	4.3636	0.	-2.7022
2569	18.522	4.3636	0.	-3.4666e-002
2570	18.705	4.3636	0.	3.5349e-003
2571	18.888	4.3636	0.	7.0444e-003
2572	19.07	4.3636	0.	8.6164e-003
2573	19.253	4.3636	0.	9.6889e-003
2574	19.435	4.3636	0.	1.0585e-002
2575	19.618	4.3636	0.	1.1427e-002
2576	19.8	4.3636	0.	1.2267e-002
2577	19.983	4.3636	0.	1.3143e-002
2578	20.166	4.3636	0.	1.4079e-002
2579	20.348	4.3636	0.	1.5098e-002
2580	20.531	4.3636	0.	1.6218e-002
2581	20.713	4.3636	0.	1.7464e-002
2582	20.896	4.3636	0.	1.8867e-002
2583	21.079	4.3636	0.	2.0466e-002
2584	21.261	4.3636	0.	2.2288e-002
2585	21.444	4.3636	0.	2.4396e-002
2586	21.626	4.3636	0.	2.6855e-002
2587	21.809	4.3636	0.	2.9764e-002
2588	21.992	4.3636	0.	3.3236e-002
2589	22.174	4.3636	0.	3.745e-002
2590	22.357	4.3636	0.	4.2637e-002
2591	22.539	4.3636	0.	4.9209e-002
2592	22.722	4.3636	0.	5.7583e-002
2593	22.904	4.3636	0.	6.9351e-002
2594	23.087	4.3636	0.	8.3857e-002
2595	23.27	4.3636	0.	0.11422
2596	23.452	4.3636	0.	0.13084
2597	23.635	4.3636	0.	0.3097
2598	23.817	4.3636	0.	0.17629
2599	11.949	4.1818	0.	-111.87
2600	12.132	4.1818	0.	5.2096
2601	12.314	4.1818	0.	-6.6353
2602	12.497	4.1818	0.	-5.7571
2603	12.68	4.1818	0.	-33.593
2604	12.862	4.1818	0.	-88.767
2605	13.045	4.1818	0.	-122.17
2606	13.227	4.1818	0.	-139.63
2607	13.41	4.1818	0.	-147.24
2608	13.593	4.1818	0.	-148.76
2609	13.775	4.1818	0.	-146.53
2610	13.958	4.1818	0.	-141.98
2611	14.14	4.1818	0.	-136.01
2612	14.323	4.1818	0.	-129.2
2613	14.505	4.1818	0.	-121.92
2614	14.688	4.1818	0.	-114.42
2615	14.871	4.1818	0.	-106.87
2616	15.053	4.1818	0.	-99.384
2617	15.236	4.1818	0.	-92.042
2618	15.418	4.1818	0.	-84.897
2619	15.601	4.1818	0.	-77.988
2620	15.784	4.1818	0.	-71.338
2621	15.966	4.1818	0.	-64.96
2622	16.149	4.1818	0.	-58.861
2623	16.331	4.1818	0.	-53.039
2624	16.514	4.1818	0.	-47.491
2625	16.697	4.1818	0.	-42.207
2626	16.879	4.1818	0.	-37.176
2627	17.062	4.1818	0.	-32.385
2628	17.244	4.1818	0.	-27.817
2629	17.427	4.1818	0.	-23.456
2630	17.609	4.1818	0.	-19.286
2631	17.792	4.1818	0.	-15.289
2632	17.975	4.1818	0.	-11.445
2633	18.157	4.1818	0.	-7.7383
2634	18.34	4.1818	0.	-4.1496
2635	18.522	4.1818	0.	-0.68167
2636	18.705	4.1818	0.	4.0796e-003
2637	18.888	4.1818	0.	8.5451e-003
2638	19.07	4.1818	0.	1.0202e-002
2639	19.253	4.1818	0.	1.1305e-002
2640	19.435	4.1818	0.	1.2237e-002
2641	19.618	4.1818	0.	1.3122e-002
2642	19.8	4.1818	0.	1.4017e-002
2643	19.983	4.1818	0.	1.4957e-002
2644	20.166	4.1818	0.	1.5958e-002
2645	20.348	4.1818	0.	1.7049e-002
2646	20.531	4.1818	0.	1.8247e-002
2647	20.713	4.1818	0.	1.9574e-002
2648	20.896	4.1818	0.	2.1061e-002
2649	21.079	4.1818	0.	2.2749e-002
2650	21.261	4.1818	0.	2.4662e-002
2651	21.444	4.1818	0.	2.6858e-002
2652	21.626	4.1818	0.	2.9417e-002
2653	21.809	4.1818	0.	3.242e-002
2654	21.992	4.1818	0.	3.5986e-002
2655	22.174	4.1818	0.	4.0297e-002
2656	22.357	4.1818	0.	4.5587e-002
2657	22.539	4.1818	0.	5.2266e-002
2658	22.722	4.1818	0.	6.0771e-002
2659	22.904	4.1818	0.	7.2706e-002
2660	23.087	4.1818	0.	8.7447e-002
2661	23.27	4.1818	0.	0.11819
2662	23.452	4.1818	0.	0.13534
2663	23.635	4.1818	0.	0.31593
2664	23.817	4.1818	0.	0.18822
2665	11.949	4.	0.	-403.39
2666	12.132	4.	0.	56.936
2667	12.314	4.	0.	-12.457
2668	12.497	4.	0.	-22.329
2669	12.68	4.	0.	-98.339
2670	12.862	4.	0.	-145.76
2671	13.045	4.	0.	-171.74
2672	13.227	4.	0.	-183.86
2673	13.41	4.	0.	-187.24
2674	13.593	4.	0.	-185.07
2675	13.775	4.	0.	-179.44
2676	13.958	4.	0.	-171.69
2677	14.14	4.	0.	-162.72
2678	14.323	4.	0.	-153.1
2679	14.505	4.	0.	-143.22
2680	14.688	4.	0.	-133.34
2681	14.871	4.	0.	-123.62
2682	15.053	4.	0.	-114.19
2683	15.236	4.	0.	-105.1
2684	15.418	4.	0.	-96.403
2685	15.601	4.	0.	-88.119
2686	15.784	4.	0.	-80.256
2687	15.966	4.	0.	-72.809
2688	16.149	4.	0.	-65.77
2689	16.331	4.	0.	-59.122
2690	16.514	4.	0.	-52.846
2691	16.697	4.	0.	-46.921
2692	16.879	4.	0.	-41.323
2693	17.062	4.	0.	-36.029
2694	17.244	4.	0.	-31.014
2695	17.427	4.	0.	-26.254
2696	17.609	4.	0.	-21.724
2697	17.792	4.	0.	-17.4
2698	17.975	4.	0.	-13.259
2699	18.157	4.	0.	-9.277
2700	18.34	4.	0.	-5.4325
2701	18.522	4.	0.	-1.7073
2702	18.705	4.	0.	4.4247e-003
2703	18.888	4.	0.	9.961e-003
2704	19.07	4.	0.	1.159e-002
2705	19.253	4.	0.	1.2672e-002
2706	19.435	4.	0.	1.3608e-002
2707	19.618	4.	0.	1.4515e-002
2708	19.8	4.	0.	1.5442e-002
2709	19.983	4.	0.	1.6423e-002
2710	20.166	4.	0.	1.747e-002
2711	20.348	4.	0.	1.8612e-002
2712	20.531	4.	0.	1.9863e-002
2713	20.713	4.	0.	2.125e-002
2714	20.896	4.	0.	2.2796e-002
2715	21.079	4.	0.	2.4544e-002
2716	21.261	4.	0.	2.6519e-002
2717	21.444	4.	0.	2.8781e-002
2718	21.626	4.	0.	3.1399e-002
2719	21.809	4.	0.	3.4463e-002
2720	21.992	4.	0.	3.8093e-002
2721	22.174	4.	0.	4.2468e-002
2722	22.357	4.	0.	4.7826e-002
2723	22.539	4.	0.	5.4579e-002
2724	22.722	4.	0.	6.3182e-002
2725	22.904	4.	0.	7.5247e-002
2726	23.087	4.	0.	9.0169e-002
2727	23.27	4.	0.	0.12121
2728	23.452	4.	0.	0.13878
2729	23.635	4.	0.	0.32073
2730	23.817	4.	0.	0.1977
2731	11.949	3.8182	0.	-16.73
2732	12.132	3.8182	0.	25.445
2733	12.314	3.8182	0.	-5.2863
2734	12.497	3.8182	0.	-71.512
2735	12.68	3.8182	0.	-145.84
2736	12.862	3.8182	0.	-188.48
2737	13.045	3.8182	0.	-211.28
2738	13.227	3.8182	0.	-220.81
2739	13.41	3.8182	0.	-221.7
2740	13.593	3.8182	0.	-216.99
2741	13.775	3.8182	0.	-208.75
2742	13.958	3.8182	0.	-198.38
2743	14.14	3.8182	0.	-186.82
2744	14.323	3.8182	0.	-174.73
2745	14.505	3.8182	0.	-162.51
2746	14.688	3.8182	0.	-150.47
2747	14.871	3.8182	0.	-138.78
2748	15.053	3.8182	0.	-127.56
2749	15.236	3.8182	0.	-116.87
2750	15.418	3.8182	0.	-106.75
2751	15.601	3.8182	0.	-97.21
2752	15.784	3.8182	0.	-88.235
2753	15.966	3.8182	0.	-79.812
2754	16.149	3.8182	0.	-71.915
2755	16.331	3.8182	0.	-64.515
2756	16.514	3.8182	0.	-57.579
2757	16.697	3.8182	0.	-51.073
2758	16.879	3.8182	0.	-44.965
2759	17.062	3.8182	0.	-39.22
2760	17.244	3.8182	0.	-33.805
2761	17.427	3.8182	0.	-28.688
2762	17.609	3.8182	0.	-23.838
2763	17.792	3.8182	0.	-19.226
2764	17.975	3.8182	0.	-14.823
2765	18.157	3.8182	0.	-10.6
2766	18.34	3.8182	0.	-6.533
2767	18.522	3.8182	0.	-2.5961
2768	18.705	3.8182	0.	4.4543e-003
2769	18.888	3.8182	0.	1.1266e-002
2770	19.07	3.8182	0.	1.2766e-002
2771	19.253	3.8182	0.	1.3794e-002
2772	19.435	3.8182	0.	1.4714e-002
2773	19.618	3.8182	0.	1.5628e-002
2774	19.8	3.8182	0.	1.6576e-002
2775	19.983	3.8182	0.	1.7578e-002
2776	20.166	3.8182	0.	1.8663e-002
2777	20.348	3.8182	0.	1.9839e-002
2778	20.531	3.8182	0.	2.113e-002
2779	20.713	3.8182	0.	2.2552e-002
2780	20.896	3.8182	0.	2.4143e-002
2781	21.079	3.8182	0.	2.5933e-002
2782	21.261	3.8182	0.	2.7949e-002
2783	21.444	3.8182	0.	3.0256e-002
2784	21.626	3.8182	0.	3.2914e-002
2785	21.809	3.8182	0.	3.602e-002
2786	21.992	3.8182	0.	3.9692e-002
2787	22.174	3.8182	0.	4.4106e-002
2788	22.357	3.8182	0.	4.951e-002
2789	22.539	3.8182	0.	5.6321e-002
2790	22.722	3.8182	0.	6.4993e-002
2791	22.904	3.8182	0.	7.7158e-002
2792	23.087	3.8182	0.	9.2225e-002
2793	23.27	3.8182	0.	0.1235
2794	23.452	3.8182	0.	0.14139
2795	23.635	3.8182	0.	0.32441
2796	23.817	3.8182	0.	0.20514
2797	11.949	3.6364	0.	-13.252
2798	12.132	3.6364	0.	-7.6131
2799	12.314	3.6364	0.	2.4147
2800	12.497	3.6364	0.	-79.354
2801	12.68	3.6364	0.	-162.65
2802	12.862	3.6364	0.	-211.33
2803	13.045	3.6364	0.	-237.17
2804	13.227	3.6364	0.	-247.87
2805	13.41	3.6364	0.	-248.59
2806	13.593	3.6364	0.	-242.84
2807	13.775	3.6364	0.	-233.02
2808	13.958	3.6364	0.	-220.78
2809	14.14	3.6364	0.	-207.22
2810	14.323	3.6364	0.	-193.12
2811	14.505	3.6364	0.	-178.96
2812	14.688	3.6364	0.	-165.09
2813	14.871	3.6364	0.	-151.72
2814	15.053	3.6364	0.	-138.97
2815	15.236	3.6364	0.	-126.91
2816	15.418	3.6364	0.	-115.56
2817	15.601	3.6364	0.	-104.93
2818	15.784	3.6364	0.	-94.997
2819	15.966	3.6364	0.	-85.732
2820	16.149	3.6364	0.	-77.098
2821	16.331	3.6364	0.	-69.052
2822	16.514	3.6364	0.	-61.551
2823	16.697	3.6364	0.	-54.55
2824	16.879	3.6364	0.	-48.006
2825	17.062	3.6364	0.	-41.878
2826	17.244	3.6364	0.	-36.124
2827	17.427	3.6364	0.	-30.706
2828	17.609	3.6364	0.	-25.588
2829	17.792	3.6364	0.	-20.734
2830	17.975	3.6364	0.	-16.111
2831	18.157	3.6364	0.	-11.688
2832	18.34	3.6364	0.	-7.435
2833	18.522	3.6364	0.	-3.3242
2834	18.705	3.6364	0.	3.7855e-003
2835	18.888	3.6364	0.	1.2419e-002
2836	19.07	3.6364	0.	1.3721e-002
2837	19.253	3.6364	0.	1.4676e-002
2838	19.435	3.6364	0.	1.5573e-002
2839	19.618	3.6364	0.	1.6487e-002
2840	19.8	3.6364	0.	1.7439e-002
2841	19.983	3.6364	0.	1.8465e-002
2842	20.166	3.6364	0.	1.9568e-002
2843	20.348	3.6364	0.	2.0769e-002
2844	20.531	3.6364	0.	2.2087e-002
2845	20.713	3.6364	0.	2.3541e-002
2846	20.896	3.6364	0.	2.5155e-002
2847	21.079	3.6364	0.	2.6977e-002
2848	21.261	3.6364	0.	2.9023e-002
2849	21.444	3.6364	0.	3.1355e-002
2850	21.626	3.6364	0.	3.4043e-002
2851	21.809	3.6364	0.	3.7171e-002
2852	21.992	3.6364	0.	4.0872e-002
2853	22.174	3.6364	0.	4.5314e-002
2854	22.357	3.6364	0.	5.0748e-002
2855	22.539	3.6364	0.	5.76e-002
2856	22.722	3.6364	0.	6.6327e-002
2857	22.904	3.6364	0.	7.857e-002
2858	23.087	3.6364	0.	9.3746e-002
2859	23.27	3.6364	0.	0.12521
2860	23.452	3.6364	0.	0.14334
2861	23.635	3.6364	0.	0.32716
2862	23.817	3.6364	0.	0.21081
2863	11.949	3.4545	0.	3.3145
2864	12.132	3.4545	0.	0.13087
2865	12.314	3.4545	0.	-0.48439
2866	12.497	3.4545	0.	-56.473
2867	12.68	3.4545	0.	-157.03
2868	12.862	3.4545	0.	-217.57
2869	13.045	3.4545	0.	-250.56
2870	13.227	3.4545	0.	-265.09
2871	13.41	3.4545	0.	-267.42
2872	13.593	3.4545	0.	-261.89
2873	13.775	3.4545	0.	-251.43
2874	13.958	3.4545	0.	-238.05
2875	14.14	3.4545	0.	-223.11
2876	14.323	3.4545	0.	-207.52
2877	14.505	3.4545	0.	-191.89
2878	14.688	3.4545	0.	-176.6
2879	14.871	3.4545	0.	-161.91
2880	15.053	3.4545	0.	-147.95
2881	15.236	3.4545	0.	-134.8
2882	15.418	3.4545	0.	-122.48
2883	15.601	3.4545	0.	-110.99
2884	15.784	3.4545	0.	-100.3
2885	15.966	3.4545	0.	-90.365
2886	16.149	3.4545	0.	-81.147
2887	16.331	3.4545	0.	-72.591
2888	16.514	3.4545	0.	-64.643
2889	16.697	3.4545	0.	-57.251
2890	16.879	3.4545	0.	-50.365
2891	17.062	3.4545	0.	-43.936
2892	17.244	3.4545	0.	-37.917
2893	17.427	3.4545	0.	-32.263
2894	17.609	3.4545	0.	-26.935
2895	17.792	3.4545	0.	-21.892
2896	17.975	3.4545	0.	-17.099
2897	18.157	3.4545	0.	-12.521
2898	18.34	3.4545	0.	-8.1247
2899	18.522	3.4545	0.	-3.8803
2900	18.705	3.4545	0.	1.3933e-004
2901	18.888	3.4545	0.	1.3372e-002
2902	19.07	3.4545	0.	1.4446e-002
2903	19.253	3.4545	0.	1.5326e-002
2904	19.435	3.4545	0.	1.6199e-002
2905	19.618	3.4545	0.	1.7106e-002
2906	19.8	3.4545	0.	1.8069e-002
2907	19.983	3.4545	0.	1.9101e-002
2908	20.166	3.4545	0.	2.0221e-002
2909	20.348	3.4545	0.	2.1439e-002
2910	20.531	3.4545	0.	2.2776e-002
2911	20.713	3.4545	0.	2.4246e-002
2912	20.896	3.4545	0.	2.5886e-002
2913	21.079	3.4545	0.	2.7722e-002
2914	21.261	3.4545	0.	2.9787e-002
2915	21.444	3.4545	0.	3.2137e-002
2916	21.626	3.4545	0.	3.4842e-002
2917	21.809	3.4545	0.	3.7989e-002
2918	21.992	3.4545	0.	4.1704e-002
2919	22.174	3.4545	0.	4.6167e-002
2920	22.357	3.4545	0.	5.1622e-002
2921	22.539	3.4545	0.	5.8505e-002
2922	22.722	3.4545	0.	6.7268e-002
2923	22.904	3.4545	0.	7.9566e-002
2924	23.087	3.4545	0.	9.4823e-002
2925	23.27	3.4545	0.	0.12641
2926	23.452	3.4545	0.	0.14472
2927	23.635	3.4545	0.	0.32913
2928	23.817	3.4545	0.	0.21492
2929	11.949	3.2727	0.	-2.3091
2930	12.132	3.2727	0.	-8.7918e-002
2931	12.314	3.2727	0.	0.55094
2932	12.497	3.2727	0.	-29.826
2933	12.68	3.2727	0.	-143.77
2934	12.862	3.2727	0.	-215.28
2935	13.045	3.2727	0.	-255.6
2936	13.227	3.2727	0.	-274.42
2937	13.41	3.2727	0.	-278.93
2938	13.593	3.2727	0.	-274.18
2939	13.775	3.2727	0.	-263.65
2940	13.958	3.2727	0.	-249.71
2941	14.14	3.2727	0.	-233.94
2942	14.323	3.2727	0.	-217.39
2943	14.505	3.2727	0.	-200.78
2944	14.688	3.2727	0.	-184.53
2945	14.871	3.2727	0.	-168.93
2946	15.053	3.2727	0.	-154.14
2947	15.236	3.2727	0.	-140.24
2948	15.418	3.2727	0.	-127.25
2949	15.601	3.2727	0.	-115.16
2950	15.784	3.2727	0.	-103.94
2951	15.966	3.2727	0.	-93.549
2952	16.149	3.2727	0.	-83.926
2953	16.331	3.2727	0.	-75.016
2954	16.514	3.2727	0.	-66.76
2955	16.697	3.2727	0.	-59.099
2956	16.879	3.2727	0.	-51.976
2957	17.062	3.2727	0.	-45.34
2958	17.244	3.2727	0.	-39.137
2959	17.427	3.2727	0.	-33.322
2960	17.609	3.2727	0.	-27.85
2961	17.792	3.2727	0.	-22.679
2962	17.975	3.2727	0.	-17.769
2963	18.157	3.2727	0.	-13.085
2964	18.34	3.2727	0.	-8.5911
2965	18.522	3.2727	0.	-4.2559
2966	18.705	3.2727	0.	-6.2933e-002
2967	18.888	3.2727	0.	1.4056e-002
2968	19.07	3.2727	0.	1.493e-002
2969	19.253	3.2727	0.	1.5755e-002
2970	19.435	3.2727	0.	1.6608e-002
2971	19.618	3.2727	0.	1.7512e-002
2972	19.8	3.2727	0.	1.8477e-002
2973	19.983	3.2727	0.	1.9516e-002
2974	20.166	3.2727	0.	2.0645e-002
2975	20.348	3.2727	0.	2.1874e-002
2976	20.531	3.2727	0.	2.322e-002
2977	20.713	3.2727	0.	2.4704e-002
2978	20.896	3.2727	0.	2.6353e-002
2979	21.079	3.2727	0.	2.8201e-002
2980	21.261	3.2727	0.	3.0279e-002
2981	21.444	3.2727	0.	3.2639e-002
2982	21.626	3.2727	0.	3.5354e-002
2983	21.809	3.2727	0.	3.8509e-002
2984	21.992	3.2727	0.	4.2235e-002
2985	22.174	3.2727	0.	4.6709e-002
2986	22.357	3.2727	0.	5.2179e-002
2987	22.539	3.2727	0.	5.9077e-002
2988	22.722	3.2727	0.	6.7869e-002
2989	22.904	3.2727	0.	8.0204e-002
2990	23.087	3.2727	0.	9.5511e-002
2991	23.27	3.2727	0.	0.12718
2992	23.452	3.2727	0.	0.14561
2993	23.635	3.2727	0.	0.33039
2994	23.817	3.2727	0.	0.2176
2995	11.949	3.0909	0.	-0.28003
2996	12.132	3.0909	0.	1.5751e-002
2997	12.314	3.0909	0.	0.71175
2998	12.497	3.0909	0.	-13.796
2999	12.68	3.0909	0.	-134.44
3000	12.862	3.0909	0.	-212.05
3001	13.045	3.0909	0.	-256.76
3002	13.227	3.0909	0.	-278.3
3003	13.41	3.0909	0.	-284.28
3004	13.593	3.0909	0.	-280.15
3005	13.775	3.0909	0.	-269.73
3006	13.958	3.0909	0.	-255.57
3007	14.14	3.0909	0.	-239.41
3008	14.323	3.0909	0.	-222.41
3009	14.505	3.0909	0.	-205.3
3010	14.688	3.0909	0.	-188.57
3011	14.871	3.0909	0.	-172.52
3012	15.053	3.0909	0.	-157.3
3013	15.236	3.0909	0.	-143.02
3014	15.418	3.0909	0.	-129.68
3015	15.601	3.0909	0.	-117.29
3016	15.784	3.0909	0.	-105.8
3017	15.966	3.0909	0.	-95.169
3018	16.149	3.0909	0.	-85.34
3019	16.331	3.0909	0.	-76.249
3020	16.514	3.0909	0.	-67.835
3021	16.697	3.0909	0.	-60.036
3022	16.879	3.0909	0.	-52.793
3023	17.062	3.0909	0.	-46.051
3024	17.244	3.0909	0.	-39.756
3025	17.427	3.0909	0.	-33.859
3026	17.609	3.0909	0.	-28.313
3027	17.792	3.0909	0.	-23.076
3028	17.975	3.0909	0.	-18.107
3029	18.157	3.0909	0.	-13.369
3030	18.34	3.0909	0.	-8.8262
3031	18.522	3.0909	0.	-4.4451
3032	18.705	3.0909	0.	-0.19478
3033	18.888	3.0909	0.	1.4416e-002
3034	19.07	3.0909	0.	1.5176e-002
3035	19.253	3.0909	0.	1.5969e-002
3036	19.435	3.0909	0.	1.681e-002
3037	19.618	3.0909	0.	1.771e-002
3038	19.8	3.0909	0.	1.8675e-002
3039	19.983	3.0909	0.	1.9722e-002
3040	20.166	3.0909	0.	2.0852e-002
3041	20.348	3.0909	0.	2.2087e-002
3042	20.531	3.0909	0.	2.3438e-002
3043	20.713	3.0909	0.	2.4929e-002
3044	20.896	3.0909	0.	2.6583e-002
3045	21.079	3.0909	0.	2.8437e-002
3046	21.261	3.0909	0.	3.0518e-002
3047	21.444	3.0909	0.	3.2882e-002
3048	21.626	3.0909	0.	3.5603e-002
3049	21.809	3.0909	0.	3.8765e-002
3050	21.992	3.0909	0.	4.2497e-002
3051	22.174	3.0909	0.	4.6973e-002
3052	22.357	3.0909	0.	5.2451e-002
3053	22.539	3.0909	0.	5.9354e-002
3054	22.722	3.0909	0.	6.8162e-002
3055	22.904	3.0909	0.	8.0514e-002
3056	23.087	3.0909	0.	9.5848e-002
3057	23.27	3.0909	0.	0.12756
3058	23.452	3.0909	0.	0.14604
3059	23.635	3.0909	0.	0.33101
3060	23.817	3.0909	0.	0.21892
3061	11.949	2.9091	0.	-0.28003
3062	12.132	2.9091	0.	1.5751e-002
3063	12.314	2.9091	0.	0.71175
3064	12.497	2.9091	0.	-13.796
3065	12.68	2.9091	0.	-134.44
3066	12.862	2.9091	0.	-212.05
3067	13.045	2.9091	0.	-256.76
3068	13.227	2.9091	0.	-278.3
3069	13.41	2.9091	0.	-284.28
3070	13.593	2.9091	0.	-280.15
3071	13.775	2.9091	0.	-269.73
3072	13.958	2.9091	0.	-255.57
3073	14.14	2.9091	0.	-239.41
3074	14.323	2.9091	0.	-222.41
3075	14.505	2.9091	0.	-205.3
3076	14.688	2.9091	0.	-188.57
3077	14.871	2.9091	0.	-172.52
3078	15.053	2.9091	0.	-157.3
3079	15.236	2.9091	0.	-143.02
3080	15.418	2.9091	0.	-129.68
3081	15.601	2.9091	0.	-117.29
3082	15.784	2.9091	0.	-105.8
3083	15.966	2.9091	0.	-95.169
3084	16.149	2.9091	0.	-85.34
3085	16.331	2.9091	0.	-76.249
3086	16.514	2.9091	0.	-67.835
3087	16.697	2.9091	0.	-60.036
3088	16.879	2.9091	0.	-52.793
3089	17.062	2.9091	0.	-46.051
3090	17.244	2.9091	0.	-39.756
3091	17.427	2.9091	0.	-33.859
3092	17.609	2.9091	0.	-28.313
3093	17.792	2.9091	0.	-23.076
3094	17.975	2.9091	0.	-18.107
3095	18.157	2.9091	0.	-13.369
3096	18.34	2.9091	0.	-8.8262
3097	18.522	2.9091	0.	-4.4451
3098	18.705	2.9091	0.	-0.19479
3099	18.888	2.9091	0.	1.4415e-002
3100	19.07	2.9091	0.	1.5175e-002
3101	19.253	2.9091	0.	1.5969e-002
3102	19.435	2.9091	0.	1.681e-002
3103	19.618	2.9091	0.	1.771e-002
3104	19.8	2.9091	0.	1.8676e-002
3105	19.983	2.9091	0.	1.9721e-002
3106	20.166	2.9091	0.	2.0852e-002
3107	20.348	2.9091	0.	2.2086e-002
3108	20.531	2.9091	0.	2.344e-002
3109	20.713	2.9091	0.	2.4927e-002
3110	20.896	2.9091	0.	2.6582e-002
3111	21.079	2.9091	0.	2.8437e-002
3112	21.261	2.9091	0.	3.0518e-002
3113	21.444	2.9091	0.	3.2884e-002
3114	21.626	2.9091	0.	3.5603e-002
3115	21.809	2.9091	0.	3.8764e-002
3116	21.992	2.9091	0.	4.2496e-002
3117	22.174	2.9091	0.	4.6973e-002
3118	22.357	2.9091	0.	5.245e-002
3119	22.539	2.9091	0.	5.9354e-002
3120	22.722	2.9091	0.	6.8161e-002
3121	22.904	2.9091	0.	8.0514e-002
3122	23.087	2.9091	0.	9.5848e-002
3123	23.27	2.9091	0.	0.12756
3124	23.452	2.9091	0.	0.14604
3125	23.635	2.9091	0.	0.33101
3126	23.817	2.9091	0.	0.21892
3127	11.949	2.7273	0.	-2.3091
3128	12.132	2.7273	0.	-8.7918e-002
3129	12.314	2.7273	0.	0.55094
3130	12.497	2.7273	0.	-29.826
3131	12.68	2.7273	0.	-143.77
3132	12.862	2.7273	0.	-215.28
3133	13.045	2.7273	0.	-255.6
3134	13.227	2.7273	0.	-274.42
3135	13.41	2.7273	0.	-278.93
3136	13.593	2.7273	0.	-274.18
3137	13.775	2.7273	0.	-263.65
3138	13.958	2.7273	0.	-249.71
3139	14.14	2.7273	0.	-233.94
3140	14.323	2.7273	0.	-217.39
3141	14.505	2.7273	0.	-200.78
3142	14.688	2.7273	0.	-184.53
3143	14.871	2.7273	0.	-168.93
3144	15.053	2.7273	0.	-154.14
3145	15.236	2.7273	0.	-140.24
3146	15.418	2.7273	0.	-127.25
3147	15.601	2.7273	0.	-115.16
3148	15.784	2.7273	0.	-103.94
3149	15.966	2.7273	0.	-93.549
3150	16.149	2.7273	0.	-83.926
3151	16.331	2.7273	0.	-75.016
3152	16.514	2.7273	0.	-66.76
3153	16.697	2.7273	0.	-59.099
3154	16.879	2.7273	0.	-51.976
3155	17.062	2.7273	0.	-45.34
3156	17.244	2.7273	0.	-39.137
3157	17.427	2.7273	0.	-33.322
3158	17.609	2.7273	0.	-27.85
3159	17.792	2.7273	0.	-22.679
3160	17.975	2.7273	0.	-17.769
3161	18.157	2.7273	0.	-13.085
3162	18.34	2.7273	0.	-8.5911
3163	18.522	2.7273	0.	-4.2559
3164	18.705	2.7273	0.	-6.2958e-002
3165	18.888	2.7273	0.	1.4056e-002
3166	19.07	2.7273	0.	1.4931e-002
3167	19.253	2.7273	0.	1.5757e-002
3168	19.435	2.7273	0.	1.6609e-002
3169	19.618	2.7273	0.	1.751e-002
3170	19.8	2.7273	0.	1.8477e-002
3171	19.983	2.7273	0.	1.9516e-002
3172	20.166	2.7273	0.	2.0646e-002
3173	20.348	2.7273	0.	2.1872e-002
3174	20.531	2.7273	0.	2.3222e-002
3175	20.713	2.7273	0.	2.4704e-002
3176	20.896	2.7273	0.	2.6352e-002
3177	21.079	2.7273	0.	2.8202e-002
3178	21.261	2.7273	0.	3.0279e-002
3179	21.444	2.7273	0.	3.2638e-002
3180	21.626	2.7273	0.	3.5351e-002
3181	21.809	2.7273	0.	3.851e-002
3182	21.992	2.7273	0.	4.2235e-002
3183	22.174	2.7273	0.	4.6709e-002
3184	22.357	2.7273	0.	5.218e-002
3185	22.539	2.7273	0.	5.9076e-002
3186	22.722	2.7273	0.	6.7869e-002
3187	22.904	2.7273	0.	8.0204e-002
3188	23.087	2.7273	0.	9.5511e-002
3189	23.27	2.7273	0.	0.12718
3190	23.452	2.7273	0.	0.14561
3191	23.635	2.7273	0.	0.33039
3192	23.817	2.7273	0.	0.2176
3193	11.949	2.5455	0.	3.3145
3194	12.132	2.5455	0.	0.13088
3195	12.314	2.5455	0.	-0.48439
3196	12.497	2.5455	0.	-56.473
3197	12.68	2.5455	0.	-157.03
3198	12.862	2.5455	0.	-217.57
3199	13.045	2.5455	0.	-250.56
3200	13.227	2.5455	0.	-265.09
3201	13.41	2.5455	0.	-267.42
3202	13.593	2.5455	0.	-261.89
3203	13.775	2.5455	0.	-251.43
3204	13.958	2.5455	0.	-238.05
3205	14.14	2.5455	0.	-223.11
3206	14.323	2.5455	0.	-207.52
3207	14.505	2.5455	0.	-191.89
3208	14.688	2.5455	0.	-176.6
3209	14.871	2.5455	0.	-161.91
3210	15.053	2.5455	0.	-147.95
3211	15.236	2.5455	0.	-134.8
3212	15.418	2.5455	0.	-122.48
3213	15.601	2.5455	0.	-110.99
3214	15.784	2.5455	0.	-100.3
3215	15.966	2.5455	0.	-90.365
3216	16.149	2.5455	0.	-81.147
3217	16.331	2.5455	0.	-72.591
3218	16.514	2.5455	0.	-64.643
3219	16.697	2.5455	0.	-57.251
3220	16.879	2.5455	0.	-50.365
3221	17.062	2.5455	0.	-43.936
3222	17.244	2.5455	0.	-37.917
3223	17.427	2.5455	0.	-32.263
3224	17.609	2.5455	0.	-26.935
3225	17.792	2.5455	0.	-21.892
3226	17.975	2.5455	0.	-17.099
3227	18.157	2.5455	0.	-12.521
3228	18.34	2.5455	0.	-8.1247
3229	18.522	2.5455	0.	-3.8804
3230	18.705	2.5455	0.	1.3764e-004
3231	18.888	2.5455	0.	1.3372e-002
3232	19.07	2.5455	0.	1.4444e-002
3233	19.253	2.5455	0.	1.5328e-002
3234	19.435	2.5455	0.	1.6198e-002
3235	19.618	2.5455	0.	1.7105e-002
3236	19.8	2.5455	0.	1.8068e-002
3237	19.983	2.5455	0.	1.9103e-002
3238	20.166	2.5455	0.	2.0221e-002
3239	20.348	2.5455	0.	2.1439e-002
3240	20.531	2.5455	0.	2.2777e-002
3241	20.713	2.5455	0.	2.4248e-002
3242	20.896	2.5455	0.	2.5883e-002
3243	21.079	2.5455	0.	2.7723e-002
3244	21.261	2.5455	0.	2.9787e-002
3245	21.444	2.5455	0.	3.2138e-002
3246	21.626	2.5455	0.	3.4845e-002
3247	21.809	2.5455	0.	3.7988e-002
3248	21.992	2.5455	0.	4.1705e-002
3249	22.174	2.5455	0.	4.6166e-002
3250	22.357	2.5455	0.	5.1621e-002
3251	22.539	2.5455	0.	5.8503e-002
3252	22.722	2.5455	0.	6.7268e-002
3253	22.904	2.5455	0.	7.9567e-002
3254	23.087	2.5455	0.	9.4823e-002
3255	23.27	2.5455	0.	0.12641
3256	23.452	2.5455	0.	0.14472
3257	23.635	2.5455	0.	0.32913
3258	23.817	2.5455	0.	0.21493
3259	11.949	2.3636	0.	-13.252
3260	12.132	2.3636	0.	-7.6131
3261	12.314	2.3636	0.	2.4147
3262	12.497	2.3636	0.	-79.354
3263	12.68	2.3636	0.	-162.65
3264	12.862	2.3636	0.	-211.33
3265	13.045	2.3636	0.	-237.17
3266	13.227	2.3636	0.	-247.87
3267	13.41	2.3636	0.	-248.59
3268	13.593	2.3636	0.	-242.84
3269	13.775	2.3636	0.	-233.02
3270	13.958	2.3636	0.	-220.78
3271	14.14	2.3636	0.	-207.22
3272	14.323	2.3636	0.	-193.12
3273	14.505	2.3636	0.	-178.96
3274	14.688	2.3636	0.	-165.09
3275	14.871	2.3636	0.	-151.72
3276	15.053	2.3636	0.	-138.97
3277	15.236	2.3636	0.	-126.91
3278	15.418	2.3636	0.	-115.56
3279	15.601	2.3636	0.	-104.93
3280	15.784	2.3636	0.	-94.997
3281	15.966	2.3636	0.	-85.732
3282	16.149	2.3636	0.	-77.098
3283	16.331	2.3636	0.	-69.052
3284	16.514	2.3636	0.	-61.551
3285	16.697	2.3636	0.	-54.55
3286	16.879	2.3636	0.	-48.007
3287	17.062	2.3636	0.	-41.878
3288	17.244	2.3636	0.	-36.124
3289	17.427	2.3636	0.	-30.706
3290	17.609	2.3636	0.	-25.588
3291	17.792	2.3636	0.	-20.734
3292	17.975	2.3636	0.	-16.111
3293	18.157	2.3636	0.	-11.688
3294	18.34	2.3636	0.	-7.435
3295	18.522	2.3636	0.	-3.3243
3296	18.705	2.3636	0.	3.7856e-003
3297	18.888	2.3636	0.	1.2419e-002
3298	19.07	2.3636	0.	1.3721e-002
3299	19.253	2.3636	0.	1.4674e-002
3300	19.435	2.3636	0.	1.5572e-002
3301	19.618	2.3636	0.	1.6484e-002
3302	19.8	2.3636	0.	1.7442e-002
3303	19.983	2.3636	0.	1.8464e-002
3304	20.166	2.3636	0.	1.9568e-002
3305	20.348	2.3636	0.	2.0772e-002
3306	20.531	2.3636	0.	2.2086e-002
3307	20.713	2.3636	0.	2.3541e-002
3308	20.896	2.3636	0.	2.5158e-002
3309	21.079	2.3636	0.	2.6977e-002
3310	21.261	2.3636	0.	2.9024e-002
3311	21.444	2.3636	0.	3.1355e-002
3312	21.626	2.3636	0.	3.4041e-002
3313	21.809	2.3636	0.	3.7173e-002
3314	21.992	2.3636	0.	4.0872e-002
3315	22.174	2.3636	0.	4.5314e-002
3316	22.357	2.3636	0.	5.075e-002
3317	22.539	2.3636	0.	5.7602e-002
3318	22.722	2.3636	0.	6.6328e-002
3319	22.904	2.3636	0.	7.857e-002
3320	23.087	2.3636	0.	9.3746e-002
3321	23.27	2.3636	0.	0.1252
3322	23.452	2.3636	0.	0.14334
3323	23.635	2.3636	0.	0.32716
3324	23.817	2.3636	0.	0.21081
3325	11.949	2.1818	0.	-16.73
3326	12.132	2.1818	0.	25.445
3327	12.314	2.1818	0.	-5.2863
3328	12.497	2.1818	0.	-71.511
3329	12.68	2.1818	0.	-145.84
3330	12.862	2.1818	0.	-188.48
3331	13.045	2.1818	0.	-211.28
3332	13.227	2.1818	0.	-220.81
3333	13.41	2.1818	0.	-221.7
3334	13.593	2.1818	0.	-216.99
3335	13.775	2.1818	0.	-208.75
3336	13.958	2.1818	0.	-198.38
3337	14.14	2.1818	0.	-186.82
3338	14.323	2.1818	0.	-174.73
3339	14.505	2.1818	0.	-162.51
3340	14.688	2.1818	0.	-150.47
3341	14.871	2.1818	0.	-138.78
3342	15.053	2.1818	0.	-127.56
3343	15.236	2.1818	0.	-116.87
3344	15.418	2.1818	0.	-106.75
3345	15.601	2.1818	0.	-97.21
3346	15.784	2.1818	0.	-88.235
3347	15.966	2.1818	0.	-79.812
3348	16.149	2.1818	0.	-71.915
3349	16.331	2.1818	0.	-64.515
3350	16.514	2.1818	0.	-57.579
3351	16.697	2.1818	0.	-51.073
3352	16.879	2.1818	0.	-44.965
3353	17.062	2.1818	0.	-39.22
3354	17.244	2.1818	0.	-33.805
3355	17.427	2.1818	0.	-28.688
3356	17.609	2.1818	0.	-23.839
3357	17.792	2.1818	0.	-19.226
3358	17.975	2.1818	0.	-14.823
3359	18.157	2.1818	0.	-10.601
3360	18.34	2.1818	0.	-6.533
3361	18.522	2.1818	0.	-2.5961
3362	18.705	2.1818	0.	4.4532e-003
3363	18.888	2.1818	0.	1.1266e-002
3364	19.07	2.1818	0.	1.2767e-002
3365	19.253	2.1818	0.	1.3793e-002
3366	19.435	2.1818	0.	1.4714e-002
3367	19.618	2.1818	0.	1.563e-002
3368	19.8	2.1818	0.	1.6576e-002
3369	19.983	2.1818	0.	1.758e-002
3370	20.166	2.1818	0.	1.8662e-002
3371	20.348	2.1818	0.	1.9838e-002
3372	20.531	2.1818	0.	2.1128e-002
3373	20.713	2.1818	0.	2.2554e-002
3374	20.896	2.1818	0.	2.4142e-002
3375	21.079	2.1818	0.	2.5932e-002
3376	21.261	2.1818	0.	2.795e-002
3377	21.444	2.1818	0.	3.0254e-002
3378	21.626	2.1818	0.	3.2916e-002
3379	21.809	2.1818	0.	3.602e-002
3380	21.992	2.1818	0.	3.9691e-002
3381	22.174	2.1818	0.	4.4104e-002
3382	22.357	2.1818	0.	4.9508e-002
3383	22.539	2.1818	0.	5.632e-002
3384	22.722	2.1818	0.	6.4993e-002
3385	22.904	2.1818	0.	7.7159e-002
3386	23.087	2.1818	0.	9.2224e-002
3387	23.27	2.1818	0.	0.1235
3388	23.452	2.1818	0.	0.14139
3389	23.635	2.1818	0.	0.32441
3390	23.817	2.1818	0.	0.20514
3391	11.949	2.	0.	-403.39
3392	12.132	2.	0.	56.936
3393	12.314	2.	0.	-12.457
3394	12.497	2.	0.	-22.329
3395	12.68	2.	0.	-98.339
3396	12.862	2.	0.	-145.76
3397	13.045	2.	0.	-171.74
3398	13.227	2.	0.	-183.86
3399	13.41	2.	0.	-187.24
3400	13.593	2.	0.	-185.07
3401	13.775	2.	0.	-179.44
3402	13.958	2.	0.	-171.69
3403	14.14	2.	0.	-162.72
3404	14.323	2.	0.	-153.1
3405	14.505	2.	0.	-143.22
3406	14.688	2.	0.	-133.34
3407	14.871	2.	0.	-123.62
3408	15.053	2.	0.	-114.19
3409	15.236	2.	0.	-105.1
3410	15.418	2.	0.	-96.403
3411	15.601	2.	0.	-88.119
3412	15.784	2.	0.	-80.256
3413	15.966	2.	0.	-72.809
3414	16.149	2.	0.	-65.77
3415	16.331	2.	0.	-59.122
3416	16.514	2.	0.	-52.846
3417	16.697	2.	0.	-46.921
3418	16.879	2.	0.	-41.323
3419	17.062	2.	0.	-36.029
3420	17.244	2.	0.	-31.014
3421	17.427	2.	0.	-26.254
3422	17.609	2.	0.	-21.724
3423	17.792	2.	0.	-17.4
3424	17.975	2.	0.	-13.259
3425	18.157	2.	0.	-9.277
3426	18.34	2.	0.	-5.4326
3427	18.522	2.	0.	-1.7073
3428	18.705	2.	0.	4.4236e-003
3429	18.888	2.	0.	9.9619e-003
3430	19.07	2.	0.	1.1589e-002
3431	19.253	2.	0.	1.2673e-002
3432	19.435	2.	0.	1.3608e-002
3433	19.618	2.	0.	1.4516e-002
3434	19.8	2.	0.	1.5444e-002
3435	19.983	2.	0.	1.6424e-002
3436	20.166	2.	0.	1.7472e-002
3437	20.348	2.	0.	1.8615e-002
3438	20.531	2.	0.	1.9865e-002
3439	20.713	2.	0.	2.1248e-002
3440	20.896	2.	0.	2.2796e-002
3441	21.079	2.	0.	2.4543e-002
3442	21.261	2.	0.	2.6518e-002
3443	21.444	2.	0.	2.8782e-002
3444	21.626	2.	0.	3.14e-002
3445	21.809	2.	0.	3.4463e-002
3446	21.992	2.	0.	3.8093e-002
3447	22.174	2.	0.	4.2471e-002
3448	22.357	2.	0.	4.7825e-002
3449	22.539	2.	0.	5.4582e-002
3450	22.722	2.	0.	6.3182e-002
3451	22.904	2.	0.	7.5247e-002
3452	23.087	2.	0.	9.017e-002
3453	23.27	2.	0.	0.12121
3454	23.452	2.	0.	0.13877
3455	23.635	2.	0.	0.32073
3456	23.817	2.	0.	0.1977
3457	11.949	1.8182	0.	-111.87
3458	12.132	1.8182	0.	5.2096
3459	12.314	1.8182	0.	-6.6353
3460	12.497	1.8182	0.	-5.757
3461	12.68	1.8182	0.	-33.593
3462	12.862	1.8182	0.	-88.766
3463	13.045	1.8182	0.	-122.17
3464	13.227	1.8182	0.	-139.63
3465	13.41	1.8182	0.	-147.24
3466	13.593	1.8182	0.	-148.76
3467	13.775	1.8182	0.	-146.53
3468	13.958	1.8182	0.	-141.98
3469	14.14	1.8182	0.	-136.01
3470	14.323	1.8182	0.	-129.19
3471	14.505	1.8182	0.	-121.92
3472	14.688	1.8182	0.	-114.42
3473	14.871	1.8182	0.	-106.87
3474	15.053	1.8182	0.	-99.384
3475	15.236	1.8182	0.	-92.042
3476	15.418	1.8182	0.	-84.897
3477	15.601	1.8182	0.	-77.988
3478	15.784	1.8182	0.	-71.338
3479	15.966	1.8182	0.	-64.96
3480	16.149	1.8182	0.	-58.861
3481	16.331	1.8182	0.	-53.039
3482	16.514	1.8182	0.	-47.491
3483	16.697	1.8182	0.	-42.207
3484	16.879	1.8182	0.	-37.176
3485	17.062	1.8182	0.	-32.385
3486	17.244	1.8182	0.	-27.817
3487	17.427	1.8182	0.	-23.457
3488	17.609	1.8182	0.	-19.287
3489	17.792	1.8182	0.	-15.289
3490	17.975	1.8182	0.	-11.446
3491	18.157	1.8182	0.	-7.7384
3492	18.34	1.8182	0.	-4.1497
3493	18.522	1.8182	0.	-0.68176
3494	18.705	1.8182	0.	4.0797e-003
3495	18.888	1.8182	0.	8.545e-003
3496	19.07	1.8182	0.	1.0202e-002
3497	19.253	1.8182	0.	1.1305e-002
3498	19.435	1.8182	0.	1.2237e-002
3499	19.618	1.8182	0.	1.3123e-002
3500	19.8	1.8182	0.	1.4019e-002
3501	19.983	1.8182	0.	1.4956e-002
3502	20.166	1.8182	0.	1.596e-002
3503	20.348	1.8182	0.	1.7049e-002
3504	20.531	1.8182	0.	1.8246e-002
3505	20.713	1.8182	0.	1.9575e-002
3506	20.896	1.8182	0.	2.1062e-002
3507	21.079	1.8182	0.	2.2749e-002
3508	21.261	1.8182	0.	2.4661e-002
3509	21.444	1.8182	0.	2.6861e-002
3510	21.626	1.8182	0.	2.9416e-002
3511	21.809	1.8182	0.	3.2417e-002
3512	21.992	1.8182	0.	3.5987e-002
3513	22.174	1.8182	0.	4.0299e-002
3514	22.357	1.8182	0.	4.5585e-002
3515	22.539	1.8182	0.	5.2265e-002
3516	22.722	1.8182	0.	6.0773e-002
3517	22.904	1.8182	0.	7.2707e-002
3518	23.087	1.8182	0.	8.7446e-002
3519	23.27	1.8182	0.	0.11819
3520	23.452	1.8182	0.	0.13534
3521	23.635	1.8182	0.	0.31593
3522	23.817	1.8182	0.	0.18822
3523	11.949	1.6364	0.	6.2087
3524	12.132	1.6364	0.	-0.19177
3525	12.314	1.6364	0.	-8.5977
3526	12.497	1.6364	0.	-3.1578
3527	12.68	1.6364	0.	-7.1428
3528	12.862	1.6364	0.	-32.471
3529	13.045	1.6364	0.	-70.109
3530	13.227	1.6364	0.	-92.839
3531	13.41	1.6364	0.	-104.97
3532	13.593	1.6364	0.	-110.5
3533	13.775	1.6364	0.	-111.93
3534	13.958	1.6364	0.	-110.79
3535	14.14	1.6364	0.	-107.99
3536	14.323	1.6364	0.	-104.13
3537	14.505	1.6364	0.	-99.556
3538	14.688	1.6364	0.	-94.531
3539	14.871	1.6364	0.	-89.22
3540	15.053	1.6364	0.	-83.749
3541	15.236	1.6364	0.	-78.208
3542	15.418	1.6364	0.	-72.667
3543	15.601	1.6364	0.	-67.18
3544	15.784	1.6364	0.	-61.788
3545	15.966	1.6364	0.	-56.521
3546	16.149	1.6364	0.	-51.403
3547	16.331	1.6364	0.	-46.447
3548	16.514	1.6364	0.	-41.664
3549	16.697	1.6364	0.	-37.057
3550	16.879	1.6364	0.	-32.627
3551	17.062	1.6364	0.	-28.371
3552	17.244	1.6364	0.	-24.282
3553	17.427	1.6364	0.	-20.353
3554	17.609	1.6364	0.	-16.573
3555	17.792	1.6364	0.	-12.93
3556	17.975	1.6364	0.	-9.4125
3557	18.157	1.6364	0.	-6.007
3558	18.34	1.6364	0.	-2.7023
3559	18.522	1.6364	0.	-3.4672e-002
3560	18.705	1.6364	0.	3.5353e-003
3561	18.888	1.6364	0.	7.0434e-003
3562	19.07	1.6364	0.	8.617e-003
3563	19.253	1.6364	0.	9.6882e-003
3564	19.435	1.6364	0.	1.0585e-002
3565	19.618	1.6364	0.	1.1425e-002
3566	19.8	1.6364	0.	1.2267e-002
3567	19.983	1.6364	0.	1.3142e-002
3568	20.166	1.6364	0.	1.4079e-002
3569	20.348	1.6364	0.	1.5097e-002
3570	20.531	1.6364	0.	1.6218e-002
3571	20.713	1.6364	0.	1.7464e-002
3572	20.896	1.6364	0.	1.8866e-002
3573	21.079	1.6364	0.	2.0466e-002
3574	21.261	1.6364	0.	2.2289e-002
3575	21.444	1.6364	0.	2.4396e-002
3576	21.626	1.6364	0.	2.6857e-002
3577	21.809	1.6364	0.	2.9764e-002
3578	21.992	1.6364	0.	3.324e-002
3579	22.174	1.6364	0.	3.745e-002
3580	22.357	1.6364	0.	4.2639e-002
3581	22.539	1.6364	0.	4.9208e-002
3582	22.722	1.6364	0.	5.7584e-002
3583	22.904	1.6364	0.	6.9351e-002
3584	23.087	1.6364	0.	8.3858e-002
3585	23.27	1.6364	0.	0.11422
3586	23.452	1.6364	0.	0.13084
3587	23.635	1.6364	0.	0.3097
3588	23.817	1.6364	0.	0.17629
3589	11.949	1.4545	0.	-18.191
3590	12.132	1.4545	0.	-2.1245
3591	12.314	1.4545	0.	-3.3626
3592	12.497	1.4545	0.	-3.1696
3593	12.68	1.4545	0.	-3.688
3594	12.862	1.4545	0.	-7.0032
3595	13.045	1.4545	0.	-25.45
3596	13.227	1.4545	0.	-48.987
3597	13.41	1.4545	0.	-64.165
3598	13.593	1.4545	0.	-73.028
3599	13.775	1.4545	0.	-77.784
3600	13.958	1.4545	0.	-79.851
3601	14.14	1.4545	0.	-80.102
3602	14.323	1.4545	0.	-79.083
3603	14.505	1.4545	0.	-77.145
3604	14.688	1.4545	0.	-74.527
3605	14.871	1.4545	0.	-71.401
3606	15.053	1.4545	0.	-67.898
3607	15.236	1.4545	0.	-64.121
3608	15.418	1.4545	0.	-60.155
3609	15.601	1.4545	0.	-56.069
3610	15.784	1.4545	0.	-51.921
3611	15.966	1.4545	0.	-47.758
3612	16.149	1.4545	0.	-43.617
3613	16.331	1.4545	0.	-39.53
3614	16.514	1.4545	0.	-35.518
3615	16.697	1.4545	0.	-31.599
3616	16.879	1.4545	0.	-27.782
3617	17.062	1.4545	0.	-24.076
3618	17.244	1.4545	0.	-20.483
3619	17.427	1.4545	0.	-17.002
3620	17.609	1.4545	0.	-13.63
3621	17.792	1.4545	0.	-10.361
3622	17.975	1.4545	0.	-7.1892
3623	18.157	1.4545	0.	-4.1064
3624	18.34	1.4545	0.	-1.1171
3625	18.522	1.4545	0.	-7.2094e-003
3626	18.705	1.4545	0.	2.8403e-003
3627	18.888	1.4545	0.	5.4748e-003
3628	19.07	1.4545	0.	6.8527e-003
3629	19.253	1.4545	0.	7.8249e-003
3630	19.435	1.4545	0.	8.6382e-003
3631	19.618	1.4545	0.	9.4006e-003
3632	19.8	1.4545	0.	1.0152e-002
3633	19.983	1.4545	0.	1.0938e-002
3634	20.166	1.4545	0.	1.1779e-002
3635	20.348	1.4545	0.	1.2691e-002
3636	20.531	1.4545	0.	1.3704e-002
3637	20.713	1.4545	0.	1.4834e-002
3638	20.896	1.4545	0.	1.6116e-002
3639	21.079	1.4545	0.	1.759e-002
3640	21.261	1.4545	0.	1.9283e-002
3641	21.444	1.4545	0.	2.1252e-002
3642	21.626	1.4545	0.	2.357e-002
3643	21.809	1.4545	0.	2.6332e-002
3644	21.992	1.4545	0.	2.9654e-002
3645	22.174	1.4545	0.	3.3713e-002
3646	22.357	1.4545	0.	3.8746e-002
3647	22.539	1.4545	0.	4.5151e-002
3648	22.722	1.4545	0.	5.334e-002
3649	22.904	1.4545	0.	6.488e-002
3650	23.087	1.4545	0.	7.9087e-002
3651	23.27	1.4545	0.	0.10896
3652	23.452	1.4545	0.	0.12492
3653	23.635	1.4545	0.	0.30159
3654	23.817	1.4545	0.	0.16127
3655	11.949	1.2727	0.	-5.9954
3656	12.132	1.2727	0.	-1.1932
3657	12.314	1.2727	0.	-2.9364
3658	12.497	1.2727	0.	-2.4803
3659	12.68	1.2727	0.	-2.6057
3660	12.862	1.2727	0.	-3.2445
3661	13.045	1.2727	0.	-5.5966
3662	13.227	1.2727	0.	-14.764
3663	13.41	1.2727	0.	-28.477
3664	13.593	1.2727	0.	-38.985
3665	13.775	1.2727	0.	-46.151
3666	13.958	1.2727	0.	-50.848
3667	14.14	1.2727	0.	-53.733
3668	14.323	1.2727	0.	-55.245
3669	14.505	1.2727	0.	-55.682
3670	14.688	1.2727	0.	-55.256
3671	14.871	1.2727	0.	-54.132
3672	15.053	1.2727	0.	-52.443
3673	15.236	1.2727	0.	-50.299
3674	15.418	1.2727	0.	-47.798
3675	15.601	1.2727	0.	-45.023
3676	15.784	1.2727	0.	-42.046
3677	15.966	1.2727	0.	-38.929
3678	16.149	1.2727	0.	-35.722
3679	16.331	1.2727	0.	-32.47
3680	16.514	1.2727	0.	-29.206
3681	16.697	1.2727	0.	-25.957
3682	16.879	1.2727	0.	-22.746
3683	17.062	1.2727	0.	-19.586
3684	17.244	1.2727	0.	-16.489
3685	17.427	1.2727	0.	-13.46
3686	17.609	1.2727	0.	-10.504
3687	17.792	1.2727	0.	-7.6192
3688	17.975	1.2727	0.	-4.805
3689	18.157	1.2727	0.	-2.062
3690	18.34	1.2727	0.	-4.0657e-002
3691	18.522	1.2727	0.	-2.4904e-003
3692	18.705	1.2727	0.	2.0227e-003
3693	18.888	1.2727	0.	3.8534e-003
3694	19.07	1.2727	0.	4.9401e-003
3695	19.253	1.2727	0.	5.7325e-003
3696	19.435	1.2727	0.	6.4024e-003
3697	19.618	1.2727	0.	7.0306e-003
3698	19.8	1.2727	0.	7.6544e-003
3699	19.983	1.2727	0.	8.3061e-003
3700	20.166	1.2727	0.	9.0048e-003
3701	20.348	1.2727	0.	9.7744e-003
3702	20.531	1.2727	0.	1.0634e-002
3703	20.713	1.2727	0.	1.1605e-002
3704	20.896	1.2727	0.	1.2715e-002
3705	21.079	1.2727	0.	1.4008e-002
3706	21.261	1.2727	0.	1.5507e-002
3707	21.444	1.2727	0.	1.7279e-002
3708	21.626	1.2727	0.	1.9387e-002
3709	21.809	1.2727	0.	2.1927e-002
3710	21.992	1.2727	0.	2.5018e-002
3711	22.174	1.2727	0.	2.884e-002
3712	22.357	1.2727	0.	3.362e-002
3713	22.539	1.2727	0.	3.9763e-002
3714	22.722	1.2727	0.	4.7677e-002
3715	22.904	1.2727	0.	5.8889e-002
3716	23.087	1.2727	0.	7.2695e-002
3717	23.27	1.2727	0.	0.10195
3718	23.452	1.2727	0.	0.11707
3719	23.635	1.2727	0.	0.29094
3720	23.817	1.2727	0.	0.14229
3721	11.949	1.0909	0.	-6.8271
3722	12.132	1.0909	0.	-0.87838
3723	12.314	1.0909	0.	-2.5495
3724	12.497	1.0909	0.	-2.0415
3725	12.68	1.0909	0.	-2.0848
3726	12.862	1.0909	0.	-2.13
3727	13.045	1.0909	0.	-2.4121
3728	13.227	1.0909	0.	-3.171
3729	13.41	1.0909	0.	-5.5144
3730	13.593	1.0909	0.	-11.592
3731	13.775	1.0909	0.	-19.057
3732	13.958	1.0909	0.	-25.355
3733	14.14	1.0909	0.	-30.193
3734	14.323	1.0909	0.	-33.718
3735	14.505	1.0909	0.	-36.106
3736	14.688	1.0909	0.	-37.517
3737	14.871	1.0909	0.	-38.092
3738	15.053	1.0909	0.	-37.957
3739	15.236	1.0909	0.	-37.227
3740	15.418	1.0909	0.	-36.006
3741	15.601	1.0909	0.	-34.387
3742	15.784	1.0909	0.	-32.454
3743	15.966	1.0909	0.	-30.277
3744	16.149	1.0909	0.	-27.92
3745	16.331	1.0909	0.	-25.436
3746	16.514	1.0909	0.	-22.867
3747	16.697	1.0909	0.	-20.25
3748	16.879	1.0909	0.	-17.614
3749	17.062	1.0909	0.	-14.98
3750	17.244	1.0909	0.	-12.365
3751	17.427	1.0909	0.	-9.782
3752	17.609	1.0909	0.	-7.2381
3753	17.792	1.0909	0.	-4.7388
3754	17.975	1.0909	0.	-2.2897
3755	18.157	1.0909	0.	-0.12199
3756	18.34	1.0909	0.	-7.231e-003
3757	18.522	1.0909	0.	-1.0258e-003
3758	18.705	1.0909	0.	1.0964e-003
3759	18.888	1.0909	0.	2.1886e-003
3760	19.07	1.0909	0.	2.8892e-003
3761	19.253	1.0909	0.	3.4168e-003
3762	19.435	1.0909	0.	3.8676e-003
3763	19.618	1.0909	0.	4.2917e-003
3764	19.8	1.0909	0.	4.7182e-003
3765	19.983	1.0909	0.	5.1691e-003
3766	20.166	1.0909	0.	5.6659e-003
3767	20.348	1.0909	0.	6.2248e-003
3768	20.531	1.0909	0.	6.8642e-003
3769	20.713	1.0909	0.	7.5986e-003
3770	20.896	1.0909	0.	8.4644e-003
3771	21.079	1.0909	0.	9.4928e-003
3772	21.261	1.0909	0.	1.0711e-002
3773	21.444	1.0909	0.	1.2179e-002
3774	21.626	1.0909	0.	1.3965e-002
3775	21.809	1.0909	0.	1.6158e-002
3776	21.992	1.0909	0.	1.8881e-002
3777	22.174	1.0909	0.	2.2311e-002
3778	22.357	1.0909	0.	2.6676e-002
3779	22.539	1.0909	0.	3.2377e-002
3780	22.722	1.0909	0.	3.9821e-002
3781	22.904	1.0909	0.	5.0513e-002
3782	23.087	1.0909	0.	6.3717e-002
3783	23.27	1.0909	0.	9.2095e-002
3784	23.452	1.0909	0.	0.10607
3785	23.635	1.0909	0.	0.27628
3786	23.817	1.0909	0.	0.1174
3787	11.949	0.90909	0.	-5.4346
3788	12.132	0.90909	0.	-1.0838
3789	12.314	0.90909	0.	-2.255
3790	12.497	0.90909	0.	-1.8621
3791	12.68	0.90909	0.	-1.7417
3792	12.862	0.90909	0.	-1.5632
3793	13.045	0.90909	0.	-1.4495
3794	13.227	0.90909	0.	-1.3945
3795	13.41	0.90909	0.	-1.4416
3796	13.593	0.90909	0.	-1.6995
3797	13.775	0.90909	0.	-2.6166
3798	13.958	0.90909	0.	-5.74
3799	14.14	0.90909	0.	-10.813
3800	14.323	0.90909	0.	-15.518
3801	14.505	0.90909	0.	-19.262
3802	14.688	0.90909	0.	-22.022
3803	14.871	0.90909	0.	-23.884
3804	15.053	0.90909	0.	-24.952
3805	15.236	0.90909	0.	-25.336
3806	15.418	0.90909	0.	-25.141
3807	15.601	0.90909	0.	-24.465
3808	15.784	0.90909	0.	-23.397
3809	15.966	0.90909	0.	-22.016
3810	16.149	0.90909	0.	-20.389
3811	16.331	0.90909	0.	-18.576
3812	16.514	0.90909	0.	-16.626
3813	16.697	0.90909	0.	-14.58
3814	16.879	0.90909	0.	-12.472
3815	17.062	0.90909	0.	-10.328
3816	17.244	0.90909	0.	-8.17
3817	17.427	0.90909	0.	-6.0134
3818	17.609	0.90909	0.	-3.8707
3819	17.792	0.90909	0.	-1.7546
3820	17.975	0.90909	0.	-6.2316e-002
3821	18.157	0.90909	0.	-7.2722e-003
3822	18.34	0.90909	0.	-2.3278e-003
3823	18.522	0.90909	0.	-6.6147e-004
3824	18.705	0.90909	0.	1.1246e-004
3825	18.888	0.90909	0.	5.3624e-004
3826	19.07	0.90909	0.	8.0341e-004
3827	19.253	0.90909	0.	9.9356e-004
3828	19.435	0.90909	0.	1.1529e-003
3829	19.618	0.90909	0.	1.3034e-003
3830	19.8	0.90909	0.	1.4671e-003
3831	19.983	0.90909	0.	1.6554e-003
3832	20.166	0.90909	0.	1.8795e-003
3833	20.348	0.90909	0.	2.156e-003
3834	20.531	0.90909	0.	2.4981e-003
3835	20.713	0.90909	0.	2.9206e-003
3836	20.896	0.90909	0.	3.4501e-003
3837	21.079	0.90909	0.	4.1191e-003
3838	21.261	0.90909	0.	4.9495e-003
3839	21.444	0.90909	0.	5.9934e-003
3840	21.626	0.90909	0.	7.3215e-003
3841	21.809	0.90909	0.	9.0146e-003
3842	21.992	0.90909	0.	1.1188e-002
3843	22.174	0.90909	0.	1.402e-002
3844	22.357	0.90909	0.	1.7738e-002
3845	22.539	0.90909	0.	2.2731e-002
3846	22.722	0.90909	0.	2.9414e-002
3847	22.904	0.90909	0.	3.9275e-002
3848	23.087	0.90909	0.	5.1556e-002
3849	23.27	0.90909	0.	7.8671e-002
3850	23.452	0.90909	0.	9.1223e-002
3851	23.635	0.90909	0.	0.25667
3852	23.817	0.90909	0.	8.5395e-002
3853	11.949	0.72727	0.	-5.4229
3854	12.132	0.72727	0.	-1.4261
3855	12.314	0.72727	0.	-2.3303
3856	12.497	0.72727	0.	-1.7704
3857	12.68	0.72727	0.	-1.4753
3858	12.862	0.72727	0.	-1.1715
3859	13.045	0.72727	0.	-0.95005
3860	13.227	0.72727	0.	-0.78607
3861	13.41	0.72727	0.	-0.67503
3862	13.593	0.72727	0.	-0.61041
3863	13.775	0.72727	0.	-0.59708
3864	13.958	0.72727	0.	-0.66603
3865	14.14	0.72727	0.	-0.96919
3866	14.323	0.72727	0.	-2.4475
3867	14.505	0.72727	0.	-5.9843
3868	14.688	0.72727	0.	-9.3912
3869	14.871	0.72727	0.	-12.014
3870	15.053	0.72727	0.	-13.849
3871	15.236	0.72727	0.	-14.978
3872	15.418	0.72727	0.	-15.498
3873	15.601	0.72727	0.	-15.504
3874	15.784	0.72727	0.	-15.084
3875	15.966	0.72727	0.	-14.317
3876	16.149	0.72727	0.	-13.272
3877	16.331	0.72727	0.	-12.01
3878	16.514	0.72727	0.	-10.581
3879	16.697	0.72727	0.	-9.0289
3880	16.879	0.72727	0.	-7.388
3881	17.062	0.72727	0.	-5.6871
3882	17.244	0.72727	0.	-3.9493
3883	17.427	0.72727	0.	-2.1937
3884	17.609	0.72727	0.	-0.45819
3885	17.792	0.72727	0.	-9.1443e-003
3886	17.975	0.72727	0.	-2.5306e-003
3887	18.157	0.72727	0.	-1.1649e-003
3888	18.34	0.72727	0.	-8.2737e-004
3889	18.522	0.72727	0.	-8.4715e-004
3890	18.705	0.72727	0.	-1.0139e-003
3891	18.888	0.72727	0.	-1.2498e-003
3892	19.07	0.72727	0.	-1.5175e-003
3893	19.253	0.72727	0.	-1.7966e-003
3894	19.435	0.72727	0.	-2.0761e-003
3895	19.618	0.72727	0.	-2.3476e-003
3896	19.8	0.72727	0.	-2.6085e-003
3897	19.983	0.72727	0.	-2.8475e-003
3898	20.166	0.72727	0.	-3.062e-003
3899	20.348	0.72727	0.	-3.2477e-003
3900	20.531	0.72727	0.	-3.392e-003
3901	20.713	0.72727	0.	-3.49e-003
3902	20.896	0.72727	0.	-3.5176e-003
3903	21.079	0.72727	0.	-3.4517e-003
3904	21.261	0.72727	0.	-3.2776e-003
3905	21.444	0.72727	0.	-2.9523e-003
3906	21.626	0.72727	0.	-2.418e-003
3907	21.809	0.72727	0.	-1.6049e-003
3908	21.992	0.72727	0.	-4.1131e-004
3909	22.174	0.72727	0.	1.3219e-003
3910	22.357	0.72727	0.	3.804e-003
3911	22.539	0.72727	0.	7.4135e-003
3912	22.722	0.72727	0.	1.2534e-002
3913	22.904	0.72727	0.	2.0627e-002
3914	23.087	0.72727	0.	3.0892e-002
3915	23.27	0.72727	0.	5.5548e-002
3916	23.452	0.72727	0.	6.5245e-002
3917	23.635	0.72727	0.	0.2227
3918	23.817	0.72727	0.	3.3969e-002
3919	11.949	0.54545	0.	-6.1111
3920	12.132	0.54545	0.	-2.4178
3921	12.314	0.54545	0.	-2.672
3922	12.497	0.54545	0.	-1.7146
3923	12.68	0.54545	0.	-1.1949
3924	12.862	0.54545	0.	-0.81757
3925	13.045	0.54545	0.	-0.5887
3926	13.227	0.54545	0.	-0.43772
3927	13.41	0.54545	0.	-0.33844
3928	13.593	0.54545	0.	-0.27236
3929	13.775	0.54545	0.	-0.23007
3930	13.958	0.54545	0.	-0.20678
3931	14.14	0.54545	0.	-0.20265
3932	14.323	0.54545	0.	-0.22717
3933	14.505	0.54545	0.	-0.32876
3934	14.688	0.54545	0.	-0.89904
3935	14.871	0.54545	0.	-2.9515
3936	15.053	0.54545	0.	-4.9792
3937	15.236	0.54545	0.	-6.4179
3938	15.418	0.54545	0.	-7.2931
3939	15.601	0.54545	0.	-7.6807
3940	15.784	0.54545	0.	-7.6592
3941	15.966	0.54545	0.	-7.3007
3942	16.149	0.54545	0.	-6.6693
3943	16.331	0.54545	0.	-5.8206
3944	16.514	0.54545	0.	-4.802
3945	16.697	0.54545	0.	-3.6534
3946	16.879	0.54545	0.	-2.4081
3947	17.062	0.54545	0.	-1.0941
3948	17.244	0.54545	0.	-5.9012e-003
3949	17.427	0.54545	0.	2.348e-003
3950	17.609	0.54545	0.	2.1727e-003
3951	17.792	0.54545	0.	1.5489e-003
3952	17.975	0.54545	0.	8.4482e-004
3953	18.157	0.54545	0.	1.4178e-004
3954	18.34	0.54545	0.	-5.4543e-004
3955	18.522	0.54545	0.	-1.209e-003
3956	18.705	0.54545	0.	-1.8475e-003
3957	18.888	0.54545	0.	-2.4669e-003
3958	19.07	0.54545	0.	-3.069e-003
3959	19.253	0.54545	0.	-3.651e-003
3960	19.435	0.54545	0.	-4.2255e-003
3961	19.618	0.54545	0.	-4.7893e-003
3962	19.8	0.54545	0.	-5.3473e-003
3963	19.983	0.54545	0.	-5.8937e-003
3964	20.166	0.54545	0.	-6.4337e-003
3965	20.348	0.54545	0.	-6.9698e-003
3966	20.531	0.54545	0.	-7.4994e-003
3967	20.713	0.54545	0.	-8.0132e-003
3968	20.896	0.54545	0.	-8.5063e-003
3969	21.079	0.54545	0.	-8.9658e-003
3970	21.261	0.54545	0.	-9.3822e-003
3971	21.444	0.54545	0.	-9.7277e-003
3972	21.626	0.54545	0.	-9.9671e-003
3973	21.809	0.54545	0.	-1.0045e-002
3974	21.992	0.54545	0.	-9.8842e-003
3975	22.174	0.54545	0.	-9.3712e-003
3976	22.357	0.54545	0.	-8.324e-003
3977	22.539	0.54545	0.	-6.4146e-003
3978	22.722	0.54545	0.	-3.3041e-003
3979	22.904	0.54545	0.	2.3638e-003
3980	23.087	0.54545	0.	9.8494e-003
3981	23.27	0.54545	0.	3.0991e-002
3982	23.452	0.54545	0.	3.5322e-002
3983	23.635	0.54545	0.	0.18625
3984	23.817	0.54545	0.	-2.e-002
3985	11.949	0.36364	0.	-8.0603
3986	12.132	0.36364	0.	-4.1378
3987	12.314	0.36364	0.	-3.0339
3988	12.497	0.36364	0.	-1.4935
3989	12.68	0.36364	0.	-0.8815
3990	12.862	0.36364	0.	-0.55502
3991	13.045	0.36364	0.	-0.39295
3992	13.227	0.36364	0.	-0.29552
3993	13.41	0.36364	0.	-0.2314
3994	13.593	0.36364	0.	-0.18454
3995	13.775	0.36364	0.	-0.14861
3996	13.958	0.36364	0.	-0.12057
3997	14.14	0.36364	0.	-9.8995e-002
3998	14.323	0.36364	0.	-8.3325e-002
3999	14.505	0.36364	0.	-7.3669e-002
4000	14.688	0.36364	0.	-7.1323e-002
4001	14.871	0.36364	0.	-8.0687e-002
4002	15.053	0.36364	0.	-0.11832
4003	15.236	0.36364	0.	-0.27168
4004	15.418	0.36364	0.	-0.71849
4005	15.601	0.36364	0.	-1.0909
4006	15.784	0.36364	0.	-1.1796
4007	15.966	0.36364	0.	-1.0026
4008	16.149	0.36364	0.	-0.60825
4009	16.331	0.36364	0.	-0.11257
4010	16.514	0.36364	0.	5.5592e-003
4011	16.697	0.36364	0.	1.4424e-002
4012	16.879	0.36364	0.	1.5233e-002
4013	17.062	0.36364	0.	1.4174e-002
4014	17.244	0.36364	0.	1.2462e-002
4015	17.427	0.36364	0.	1.048e-002
4016	17.609	0.36364	0.	8.3821e-003
4017	17.792	0.36364	0.	6.2385e-003
4018	17.975	0.36364	0.	4.0836e-003
4019	18.157	0.36364	0.	1.9296e-003
4020	18.34	0.36364	0.	-2.0988e-004
4021	18.522	0.36364	0.	-2.3387e-003
4022	18.705	0.36364	0.	-4.4599e-003
4023	18.888	0.36364	0.	-6.5758e-003
4024	19.07	0.36364	0.	-8.696e-003
4025	19.253	0.36364	0.	-1.0828e-002
4026	19.435	0.36364	0.	-1.2986e-002
4027	19.618	0.36364	0.	-1.5179e-002
4028	19.8	0.36364	0.	-1.7423e-002
4029	19.983	0.36364	0.	-1.9723e-002
4030	20.166	0.36364	0.	-2.2101e-002
4031	20.348	0.36364	0.	-2.4574e-002
4032	20.531	0.36364	0.	-2.7155e-002
4033	20.713	0.36364	0.	-2.9862e-002
4034	20.896	0.36364	0.	-3.2717e-002
4035	21.079	0.36364	0.	-3.5732e-002
4036	21.261	0.36364	0.	-3.8947e-002
4037	21.444	0.36364	0.	-4.2369e-002
4038	21.626	0.36364	0.	-4.6025e-002
4039	21.809	0.36364	0.	-4.9931e-002
4040	21.992	0.36364	0.	-5.4114e-002
4041	22.174	0.36364	0.	-5.8571e-002
4042	22.357	0.36364	0.	-6.3293e-002
4043	22.539	0.36364	0.	-6.8185e-002
4044	22.722	0.36364	0.	-7.322e-002
4045	22.904	0.36364	0.	-7.7523e-002
4046	23.087	0.36364	0.	-8.2297e-002
4047	23.27	0.36364	0.	-7.8045e-002
4048	23.452	0.36364	0.	-9.0295e-002
4049	23.635	0.36364	0.	1.0066e-002
4050	23.817	0.36364	0.	-0.26946
4051	11.949	0.18182	0.	-16.253
4052	12.132	0.18182	0.	-5.6638
4053	12.314	0.18182	0.	-2.784
4054	12.497	0.18182	0.	-0.9825
4055	12.68	0.18182	0.	-0.35439
4056	12.862	0.18182	0.	-7.202e-002
4057	13.045	0.18182	0.	2.2978e-002
4058	13.227	0.18182	0.	4.8235e-002
4059	13.41	0.18182	0.	4.5098e-002
4060	13.593	0.18182	0.	3.4226e-002
4061	13.775	0.18182	0.	2.301e-002
4062	13.958	0.18182	0.	1.3799e-002
4063	14.14	0.18182	0.	6.6362e-003
4064	14.323	0.18182	0.	8.46e-004
4065	14.505	0.18182	0.	-4.3318e-003
4066	14.688	0.18182	0.	-9.461e-003
4067	14.871	0.18182	0.	-1.4746e-002
4068	15.053	0.18182	0.	-1.99e-002
4069	15.236	0.18182	0.	-2.4338e-002
4070	15.418	0.18182	0.	-2.7373e-002
4071	15.601	0.18182	0.	-2.8545e-002
4072	15.784	0.18182	0.	-2.7898e-002
4073	15.966	0.18182	0.	-2.5881e-002
4074	16.149	0.18182	0.	-2.309e-002
4075	16.331	0.18182	0.	-2.0039e-002
4076	16.514	0.18182	0.	-1.7079e-002
4077	16.697	0.18182	0.	-1.4386e-002
4078	16.879	0.18182	0.	-1.2037e-002
4079	17.062	0.18182	0.	-1.003e-002
4080	17.244	0.18182	0.	-8.3406e-003
4081	17.427	0.18182	0.	-6.9255e-003
4082	17.609	0.18182	0.	-5.7436e-003
4083	17.792	0.18182	0.	-4.7593e-003
4084	17.975	0.18182	0.	-3.9366e-003
4085	18.157	0.18182	0.	-3.2542e-003
4086	18.34	0.18182	0.	-2.6852e-003
4087	18.522	0.18182	0.	-2.2141e-003
4088	18.705	0.18182	0.	-1.8338e-003
4089	18.888	0.18182	0.	-1.5306e-003
4090	19.07	0.18182	0.	-1.2969e-003
4091	19.253	0.18182	0.	-1.1409e-003
4092	19.435	0.18182	0.	-1.0542e-003
4093	19.618	0.18182	0.	-1.0437e-003
4094	19.8	0.18182	0.	-1.1141e-003
4095	19.983	0.18182	0.	-1.2765e-003
4096	20.166	0.18182	0.	-1.5366e-003
4097	20.348	0.18182	0.	-1.9113e-003
4098	20.531	0.18182	0.	-2.4176e-003
4099	20.713	0.18182	0.	-3.0882e-003
4100	20.896	0.18182	0.	-3.9423e-003
4101	21.079	0.18182	0.	-5.0166e-003
4102	21.261	0.18182	0.	-6.3701e-003
4103	21.444	0.18182	0.	-8.0577e-003
4104	21.626	0.18182	0.	-1.0152e-002
4105	21.809	0.18182	0.	-1.2756e-002
4106	21.992	0.18182	0.	-1.5998e-002
4107	22.174	0.18182	0.	-2.0049e-002
4108	22.357	0.18182	0.	-2.5142e-002
4109	22.539	0.18182	0.	-3.1584e-002
4110	22.722	0.18182	0.	-3.9917e-002
4111	22.904	0.18182	0.	-5.0388e-002
4112	23.087	0.18182	0.	-6.5457e-002
4113	23.27	0.18182	0.	-8.0691e-002
4114	23.452	0.18182	0.	-0.11993
4115	23.635	0.18182	0.	-0.10793
4116	23.817	0.18182	0.	-0.49756
4117	23.817	0.18182	0.1	0.49756
4118	23.635	0.18182	0.1	0.10794
4119	23.452	0.18182	0.1	0.11993
4120	23.27	0.18182	0.1	8.0689e-002
4121	23.087	0.18182	0.1	6.5457e-002
4122	22.904	0.18182	0.1	5.039e-002
4123	22.722	0.18182	0.1	3.9917e-002
4124	22.539	0.18182	0.1	3.1585e-002
4125	22.357	0.18182	0.1	2.5143e-002
4126	22.174	0.18182	0.1	2.0048e-002
4127	21.992	0.18182	0.1	1.5998e-002
4128	21.809	0.18182	0.1	1.2758e-002
4129	21.626	0.18182	0.1	1.0151e-002
4130	21.444	0.18182	0.1	8.0584e-003
4131	21.261	0.18182	0.1	6.369e-003
4132	21.079	0.18182	0.1	5.0189e-003
4133	20.896	0.18182	0.1	3.9425e-003
4134	20.713	0.18182	0.1	3.0895e-003
4135	20.531	0.18182	0.1	2.4179e-003
4136	20.348	0.18182	0.1	1.9115e-003
4137	20.166	0.18182	0.1	1.5371e-003
4138	19.983	0.18182	0.1	1.275e-003
4139	19.8	0.18182	0.1	1.1145e-003
4140	19.618	0.18182	0.1	1.0439e-003
4141	19.435	0.18182	0.1	1.054e-003
4142	19.253	0.18182	0.1	1.1408e-003
4143	19.07	0.18182	0.1	1.2971e-003
4144	18.888	0.18182	0.1	1.5293e-003
4145	18.705	0.18182	0.1	1.8324e-003
4146	18.522	0.18182	0.1	2.2143e-003
4147	18.34	0.18182	0.1	2.685e-003
4148	18.157	0.18182	0.1	3.2532e-003
4149	17.975	0.18182	0.1	3.937e-003
4150	17.792	0.18182	0.1	4.7592e-003
4151	17.609	0.18182	0.1	5.7452e-003
4152	17.427	0.18182	0.1	6.9261e-003
4153	17.244	0.18182	0.1	8.3407e-003
4154	17.062	0.18182	0.1	1.003e-002
4155	16.879	0.18182	0.1	1.2036e-002
4156	16.697	0.18182	0.1	1.4385e-002
4157	16.514	0.18182	0.1	1.7078e-002
4158	16.331	0.18182	0.1	2.0039e-002
4159	16.149	0.18182	0.1	2.3089e-002
4160	15.966	0.18182	0.1	2.588e-002
4161	15.784	0.18182	0.1	2.7898e-002
4162	15.601	0.18182	0.1	2.8545e-002
4163	15.418	0.18182	0.1	2.7373e-002
4164	15.236	0.18182	0.1	2.4338e-002
4165	15.053	0.18182	0.1	1.99e-002
4166	14.871	0.18182	0.1	1.4745e-002
4167	14.688	0.18182	0.1	9.4608e-003
4168	14.505	0.18182	0.1	4.3312e-003
4169	14.323	0.18182	0.1	-8.4641e-004
4170	14.14	0.18182	0.1	-6.6372e-003
4171	13.958	0.18182	0.1	-1.3798e-002
4172	13.775	0.18182	0.1	-2.3011e-002
4173	13.593	0.18182	0.1	-3.4227e-002
4174	13.41	0.18182	0.1	-4.5098e-002
4175	13.227	0.18182	0.1	-4.8235e-002
4176	13.045	0.18182	0.1	-2.2977e-002
4177	12.862	0.18182	0.1	7.202e-002
4178	12.68	0.18182	0.1	0.35439
4179	12.497	0.18182	0.1	0.9825
4180	12.314	0.18182	0.1	2.784
4181	12.132	0.18182	0.1	5.6638
4182	11.949	0.18182	0.1	16.253
4183	23.817	0.36364	0.1	0.26946
4184	23.635	0.36364	0.1	-1.0064e-002
4185	23.452	0.36364	0.1	9.0296e-002
4186	23.27	0.36364	0.1	7.8046e-002
4187	23.087	0.36364	0.1	8.2296e-002
4188	22.904	0.36364	0.1	7.7523e-002
4189	22.722	0.36364	0.1	7.3219e-002
4190	22.539	0.36364	0.1	6.8187e-002
4191	22.357	0.36364	0.1	6.3291e-002
4192	22.174	0.36364	0.1	5.8571e-002
4193	21.992	0.36364	0.1	5.4115e-002
4194	21.809	0.36364	0.1	4.9931e-002
4195	21.626	0.36364	0.1	4.6024e-002
4196	21.444	0.36364	0.1	4.237e-002
4197	21.261	0.36364	0.1	3.8946e-002
4198	21.079	0.36364	0.1	3.5733e-002
4199	20.896	0.36364	0.1	3.2718e-002
4200	20.713	0.36364	0.1	2.9864e-002
4201	20.531	0.36364	0.1	2.7155e-002
4202	20.348	0.36364	0.1	2.4575e-002
4203	20.166	0.36364	0.1	2.2103e-002
4204	19.983	0.36364	0.1	1.9722e-002
4205	19.8	0.36364	0.1	1.7421e-002
4206	19.618	0.36364	0.1	1.518e-002
4207	19.435	0.36364	0.1	1.2986e-002
4208	19.253	0.36364	0.1	1.083e-002
4209	19.07	0.36364	0.1	8.6976e-003
4210	18.888	0.36364	0.1	6.5754e-003
4211	18.705	0.36364	0.1	4.4601e-003
4212	18.522	0.36364	0.1	2.3399e-003
4213	18.34	0.36364	0.1	2.1082e-004
4214	18.157	0.36364	0.1	-1.929e-003
4215	17.975	0.36364	0.1	-4.0817e-003
4216	17.792	0.36364	0.1	-6.2392e-003
4217	17.609	0.36364	0.1	-8.3822e-003
4218	17.427	0.36364	0.1	-1.0481e-002
4219	17.244	0.36364	0.1	-1.2461e-002
4220	17.062	0.36364	0.1	-1.4173e-002
4221	16.879	0.36364	0.1	-1.5232e-002
4222	16.697	0.36364	0.1	-1.4424e-002
4223	16.514	0.36364	0.1	-5.5584e-003
4224	16.331	0.36364	0.1	0.11257
4225	16.149	0.36364	0.1	0.60826
4226	15.966	0.36364	0.1	1.0026
4227	15.784	0.36364	0.1	1.1796
4228	15.601	0.36364	0.1	1.0909
4229	15.418	0.36364	0.1	0.7185
4230	15.236	0.36364	0.1	0.27168
4231	15.053	0.36364	0.1	0.11832
4232	14.871	0.36364	0.1	8.0687e-002
4233	14.688	0.36364	0.1	7.1323e-002
4234	14.505	0.36364	0.1	7.3669e-002
4235	14.323	0.36364	0.1	8.3325e-002
4236	14.14	0.36364	0.1	9.8995e-002
4237	13.958	0.36364	0.1	0.12057
4238	13.775	0.36364	0.1	0.14861
4239	13.593	0.36364	0.1	0.18454
4240	13.41	0.36364	0.1	0.2314
4241	13.227	0.36364	0.1	0.29552
4242	13.045	0.36364	0.1	0.39295
4243	12.862	0.36364	0.1	0.55502
4244	12.68	0.36364	0.1	0.8815
4245	12.497	0.36364	0.1	1.4935
4246	12.314	0.36364	0.1	3.0339
4247	12.132	0.36364	0.1	4.1378
4248	11.949	0.36364	0.1	8.0603
4249	23.817	0.54545	0.1	1.9998e-002
4250	23.635	0.54545	0.1	-0.18624
4251	23.452	0.54545	0.1	-3.5323e-002
4252	23.27	0.54545	0.1	-3.0991e-002
4253	23.087	0.54545	0.1	-9.8505e-003
4254	22.904	0.54545	0.1	-2.3624e-003
4255	22.722	0.54545	0.1	3.3044e-003
4256	22.539	0.54545	0.1	6.4145e-003
4257	22.357	0.54545	0.1	8.3239e-003
4258	22.174	0.54545	0.1	9.3705e-003
4259	21.992	0.54545	0.1	9.884e-003
4260	21.809	0.54545	0.1	1.0045e-002
4261	21.626	0.54545	0.1	9.9675e-003
4262	21.444	0.54545	0.1	9.7274e-003
4263	21.261	0.54545	0.1	9.3813e-003
4264	21.079	0.54545	0.1	8.9655e-003
4265	20.896	0.54545	0.1	8.5075e-003
4266	20.713	0.54545	0.1	8.0135e-003
4267	20.531	0.54545	0.1	7.4995e-003
4268	20.348	0.54545	0.1	6.9694e-003
4269	20.166	0.54545	0.1	6.4326e-003
4270	19.983	0.54545	0.1	5.8931e-003
4271	19.8	0.54545	0.1	5.3458e-003
4272	19.618	0.54545	0.1	4.7902e-003
4273	19.435	0.54545	0.1	4.2257e-003
4274	19.253	0.54545	0.1	3.6531e-003
4275	19.07	0.54545	0.1	3.0691e-003
4276	18.888	0.54545	0.1	2.4659e-003
4277	18.705	0.54545	0.1	1.8484e-003
4278	18.522	0.54545	0.1	1.2088e-003
4279	18.34	0.54545	0.1	5.4664e-004
4280	18.157	0.54545	0.1	-1.4184e-004
4281	17.975	0.54545	0.1	-8.4559e-004
4282	17.792	0.54545	0.1	-1.5485e-003
4283	17.609	0.54545	0.1	-2.1723e-003
4284	17.427	0.54545	0.1	-2.3482e-003
4285	17.244	0.54545	0.1	5.902e-003
4286	17.062	0.54545	0.1	1.0941
4287	16.879	0.54545	0.1	2.4081
4288	16.697	0.54545	0.1	3.6534
4289	16.514	0.54545	0.1	4.802
4290	16.331	0.54545	0.1	5.8206
4291	16.149	0.54545	0.1	6.6693
4292	15.966	0.54545	0.1	7.3007
4293	15.784	0.54545	0.1	7.6592
4294	15.601	0.54545	0.1	7.6808
4295	15.418	0.54545	0.1	7.2931
4296	15.236	0.54545	0.1	6.4179
4297	15.053	0.54545	0.1	4.9792
4298	14.871	0.54545	0.1	2.9515
4299	14.688	0.54545	0.1	0.89904
4300	14.505	0.54545	0.1	0.32876
4301	14.323	0.54545	0.1	0.22717
4302	14.14	0.54545	0.1	0.20265
4303	13.958	0.54545	0.1	0.20678
4304	13.775	0.54545	0.1	0.23007
4305	13.593	0.54545	0.1	0.27236
4306	13.41	0.54545	0.1	0.33844
4307	13.227	0.54545	0.1	0.43772
4308	13.045	0.54545	0.1	0.5887
4309	12.862	0.54545	0.1	0.81757
4310	12.68	0.54545	0.1	1.1949
4311	12.497	0.54545	0.1	1.7146
4312	12.314	0.54545	0.1	2.672
4313	12.132	0.54545	0.1	2.4178
4314	11.949	0.54545	0.1	6.1111
4315	23.817	0.72727	0.1	-3.3967e-002
4316	23.635	0.72727	0.1	-0.2227
4317	23.452	0.72727	0.1	-6.5246e-002
4318	23.27	0.72727	0.1	-5.5548e-002
4319	23.087	0.72727	0.1	-3.0892e-002
4320	22.904	0.72727	0.1	-2.0629e-002
4321	22.722	0.72727	0.1	-1.2533e-002
4322	22.539	0.72727	0.1	-7.4138e-003
4323	22.357	0.72727	0.1	-3.8038e-003
4324	22.174	0.72727	0.1	-1.3227e-003
4325	21.992	0.72727	0.1	4.0972e-004
4326	21.809	0.72727	0.1	1.6047e-003
4327	21.626	0.72727	0.1	2.4173e-003
4328	21.444	0.72727	0.1	2.9521e-003
4329	21.261	0.72727	0.1	3.2773e-003
4330	21.079	0.72727	0.1	3.4522e-003
4331	20.896	0.72727	0.1	3.5157e-003
4332	20.713	0.72727	0.1	3.4886e-003
4333	20.531	0.72727	0.1	3.3931e-003
4334	20.348	0.72727	0.1	3.2479e-003
4335	20.166	0.72727	0.1	3.0641e-003
4336	19.983	0.72727	0.1	2.847e-003
4337	19.8	0.72727	0.1	2.6084e-003
4338	19.618	0.72727	0.1	2.3499e-003
4339	19.435	0.72727	0.1	2.076e-003
4340	19.253	0.72727	0.1	1.797e-003
4341	19.07	0.72727	0.1	1.5175e-003
4342	18.888	0.72727	0.1	1.2496e-003
4343	18.705	0.72727	0.1	1.0138e-003
4344	18.522	0.72727	0.1	8.4732e-004
4345	18.34	0.72727	0.1	8.2809e-004
4346	18.157	0.72727	0.1	1.1643e-003
4347	17.975	0.72727	0.1	2.5298e-003
4348	17.792	0.72727	0.1	9.1449e-003
4349	17.609	0.72727	0.1	0.4582
4350	17.427	0.72727	0.1	2.1937
4351	17.244	0.72727	0.1	3.9493
4352	17.062	0.72727	0.1	5.6871
4353	16.879	0.72727	0.1	7.388
4354	16.697	0.72727	0.1	9.0289
4355	16.514	0.72727	0.1	10.581
4356	16.331	0.72727	0.1	12.01
4357	16.149	0.72727	0.1	13.272
4358	15.966	0.72727	0.1	14.317
4359	15.784	0.72727	0.1	15.084
4360	15.601	0.72727	0.1	15.504
4361	15.418	0.72727	0.1	15.498
4362	15.236	0.72727	0.1	14.978
4363	15.053	0.72727	0.1	13.849
4364	14.871	0.72727	0.1	12.014
4365	14.688	0.72727	0.1	9.3912
4366	14.505	0.72727	0.1	5.9843
4367	14.323	0.72727	0.1	2.4475
4368	14.14	0.72727	0.1	0.96919
4369	13.958	0.72727	0.1	0.66603
4370	13.775	0.72727	0.1	0.59708
4371	13.593	0.72727	0.1	0.61042
4372	13.41	0.72727	0.1	0.67503
4373	13.227	0.72727	0.1	0.78607
4374	13.045	0.72727	0.1	0.95005
4375	12.862	0.72727	0.1	1.1715
4376	12.68	0.72727	0.1	1.4753
4377	12.497	0.72727	0.1	1.7704
4378	12.314	0.72727	0.1	2.3303
4379	12.132	0.72727	0.1	1.4261
4380	11.949	0.72727	0.1	5.4229
4381	23.817	0.90909	0.1	-8.5398e-002
4382	23.635	0.90909	0.1	-0.25667
4383	23.452	0.90909	0.1	-9.1224e-002
4384	23.27	0.90909	0.1	-7.8673e-002
4385	23.087	0.90909	0.1	-5.1556e-002
4386	22.904	0.90909	0.1	-3.9274e-002
4387	22.722	0.90909	0.1	-2.9412e-002
4388	22.539	0.90909	0.1	-2.2732e-002
4389	22.357	0.90909	0.1	-1.7736e-002
4390	22.174	0.90909	0.1	-1.4021e-002
4391	21.992	0.90909	0.1	-1.1191e-002
4392	21.809	0.90909	0.1	-9.0136e-003
4393	21.626	0.90909	0.1	-7.3212e-003
4394	21.444	0.90909	0.1	-5.9934e-003
4395	21.261	0.90909	0.1	-4.9501e-003
4396	21.079	0.90909	0.1	-4.1189e-003
4397	20.896	0.90909	0.1	-3.4497e-003
4398	20.713	0.90909	0.1	-2.9201e-003
4399	20.531	0.90909	0.1	-2.4986e-003
4400	20.348	0.90909	0.1	-2.155e-003
4401	20.166	0.90909	0.1	-1.8795e-003
4402	19.983	0.90909	0.1	-1.6536e-003
4403	19.8	0.90909	0.1	-1.4674e-003
4404	19.618	0.90909	0.1	-1.3042e-003
4405	19.435	0.90909	0.1	-1.1527e-003
4406	19.253	0.90909	0.1	-9.9349e-004
4407	19.07	0.90909	0.1	-8.0305e-004
4408	18.888	0.90909	0.1	-5.3846e-004
4409	18.705	0.90909	0.1	-1.1205e-004
4410	18.522	0.90909	0.1	6.6155e-004
4411	18.34	0.90909	0.1	2.3278e-003
4412	18.157	0.90909	0.1	7.271e-003
4413	17.975	0.90909	0.1	6.2318e-002
4414	17.792	0.90909	0.1	1.7546
4415	17.609	0.90909	0.1	3.8707
4416	17.427	0.90909	0.1	6.0134
4417	17.244	0.90909	0.1	8.17
4418	17.062	0.90909	0.1	10.328
4419	16.879	0.90909	0.1	12.472
4420	16.697	0.90909	0.1	14.58
4421	16.514	0.90909	0.1	16.626
4422	16.331	0.90909	0.1	18.576
4423	16.149	0.90909	0.1	20.389
4424	15.966	0.90909	0.1	22.016
4425	15.784	0.90909	0.1	23.397
4426	15.601	0.90909	0.1	24.465
4427	15.418	0.90909	0.1	25.141
4428	15.236	0.90909	0.1	25.336
4429	15.053	0.90909	0.1	24.952
4430	14.871	0.90909	0.1	23.884
4431	14.688	0.90909	0.1	22.022
4432	14.505	0.90909	0.1	19.262
4433	14.323	0.90909	0.1	15.518
4434	14.14	0.90909	0.1	10.813
4435	13.958	0.90909	0.1	5.7401
4436	13.775	0.90909	0.1	2.6166
4437	13.593	0.90909	0.1	1.6995
4438	13.41	0.90909	0.1	1.4416
4439	13.227	0.90909	0.1	1.3945
4440	13.045	0.90909	0.1	1.4495
4441	12.862	0.90909	0.1	1.5632
4442	12.68	0.90909	0.1	1.7417
4443	12.497	0.90909	0.1	1.8621
4444	12.314	0.90909	0.1	2.255
4445	12.132	0.90909	0.1	1.0838
4446	11.949	0.90909	0.1	5.4346
4447	23.817	1.0909	0.1	-0.1174
4448	23.635	1.0909	0.1	-0.27628
4449	23.452	1.0909	0.1	-0.10607
4450	23.27	1.0909	0.1	-9.2096e-002
4451	23.087	1.0909	0.1	-6.3718e-002
4452	22.904	1.0909	0.1	-5.0514e-002
4453	22.722	1.0909	0.1	-3.9821e-002
4454	22.539	1.0909	0.1	-3.2376e-002
4455	22.357	1.0909	0.1	-2.6676e-002
4456	22.174	1.0909	0.1	-2.2311e-002
4457	21.992	1.0909	0.1	-1.8882e-002
4458	21.809	1.0909	0.1	-1.6158e-002
4459	21.626	1.0909	0.1	-1.3963e-002
4460	21.444	1.0909	0.1	-1.2179e-002
4461	21.261	1.0909	0.1	-1.0712e-002
4462	21.079	1.0909	0.1	-9.4914e-003
4463	20.896	1.0909	0.1	-8.4623e-003
4464	20.713	1.0909	0.1	-7.5993e-003
4465	20.531	1.0909	0.1	-6.8633e-003
4466	20.348	1.0909	0.1	-6.2245e-003
4467	20.166	1.0909	0.1	-5.666e-003
4468	19.983	1.0909	0.1	-5.1702e-003
4469	19.8	1.0909	0.1	-4.7187e-003
4470	19.618	1.0909	0.1	-4.2906e-003
4471	19.435	1.0909	0.1	-3.8678e-003
4472	19.253	1.0909	0.1	-3.4171e-003
4473	19.07	1.0909	0.1	-2.8892e-003
4474	18.888	1.0909	0.1	-2.1878e-003
4475	18.705	1.0909	0.1	-1.0975e-003
4476	18.522	1.0909	0.1	1.0264e-003
4477	18.34	1.0909	0.1	7.2313e-003
4478	18.157	1.0909	0.1	0.12199
4479	17.975	1.0909	0.1	2.2897
4480	17.792	1.0909	0.1	4.7388
4481	17.609	1.0909	0.1	7.2381
4482	17.427	1.0909	0.1	9.782
4483	17.244	1.0909	0.1	12.365
4484	17.062	1.0909	0.1	14.98
4485	16.879	1.0909	0.1	17.614
4486	16.697	1.0909	0.1	20.25
4487	16.514	1.0909	0.1	22.867
4488	16.331	1.0909	0.1	25.436
4489	16.149	1.0909	0.1	27.92
4490	15.966	1.0909	0.1	30.277
4491	15.784	1.0909	0.1	32.454
4492	15.601	1.0909	0.1	34.388
4493	15.418	1.0909	0.1	36.006
4494	15.236	1.0909	0.1	37.227
4495	15.053	1.0909	0.1	37.957
4496	14.871	1.0909	0.1	38.092
4497	14.688	1.0909	0.1	37.517
4498	14.505	1.0909	0.1	36.106
4499	14.323	1.0909	0.1	33.718
4500	14.14	1.0909	0.1	30.194
4501	13.958	1.0909	0.1	25.355
4502	13.775	1.0909	0.1	19.057
4503	13.593	1.0909	0.1	11.592
4504	13.41	1.0909	0.1	5.5144
4505	13.227	1.0909	0.1	3.171
4506	13.045	1.0909	0.1	2.4121
4507	12.862	1.0909	0.1	2.13
4508	12.68	1.0909	0.1	2.0848
4509	12.497	1.0909	0.1	2.0415
4510	12.314	1.0909	0.1	2.5495
4511	12.132	1.0909	0.1	0.87838
4512	11.949	1.0909	0.1	6.8271
4513	23.817	1.2727	0.1	-0.14229
4514	23.635	1.2727	0.1	-0.29094
4515	23.452	1.2727	0.1	-0.11707
4516	23.27	1.2727	0.1	-0.10195
4517	23.087	1.2727	0.1	-7.2696e-002
4518	22.904	1.2727	0.1	-5.889e-002
4519	22.722	1.2727	0.1	-4.7676e-002
4520	22.539	1.2727	0.1	-3.9762e-002
4521	22.357	1.2727	0.1	-3.3622e-002
4522	22.174	1.2727	0.1	-2.884e-002
4523	21.992	1.2727	0.1	-2.5018e-002
4524	21.809	1.2727	0.1	-2.1928e-002
4525	21.626	1.2727	0.1	-1.9386e-002
4526	21.444	1.2727	0.1	-1.7277e-002
4527	21.261	1.2727	0.1	-1.5509e-002
4528	21.079	1.2727	0.1	-1.4008e-002
4529	20.896	1.2727	0.1	-1.2716e-002
4530	20.713	1.2727	0.1	-1.1603e-002
4531	20.531	1.2727	0.1	-1.0635e-002
4532	20.348	1.2727	0.1	-9.774e-003
4533	20.166	1.2727	0.1	-9.0045e-003
4534	19.983	1.2727	0.1	-8.3061e-003
4535	19.8	1.2727	0.1	-7.6547e-003
4536	19.618	1.2727	0.1	-7.0309e-003
4537	19.435	1.2727	0.1	-6.4025e-003
4538	19.253	1.2727	0.1	-5.7328e-003
4539	19.07	1.2727	0.1	-4.9391e-003
4540	18.888	1.2727	0.1	-3.8548e-003
4541	18.705	1.2727	0.1	-2.0217e-003
4542	18.522	1.2727	0.1	2.4897e-003
4543	18.34	1.2727	0.1	4.0658e-002
4544	18.157	1.2727	0.1	2.062
4545	17.975	1.2727	0.1	4.805
4546	17.792	1.2727	0.1	7.6192
4547	17.609	1.2727	0.1	10.504
4548	17.427	1.2727	0.1	13.46
4549	17.244	1.2727	0.1	16.489
4550	17.062	1.2727	0.1	19.586
4551	16.879	1.2727	0.1	22.746
4552	16.697	1.2727	0.1	25.957
4553	16.514	1.2727	0.1	29.206
4554	16.331	1.2727	0.1	32.47
4555	16.149	1.2727	0.1	35.722
4556	15.966	1.2727	0.1	38.929
4557	15.784	1.2727	0.1	42.046
4558	15.601	1.2727	0.1	45.023
4559	15.418	1.2727	0.1	47.798
4560	15.236	1.2727	0.1	50.299
4561	15.053	1.2727	0.1	52.443
4562	14.871	1.2727	0.1	54.132
4563	14.688	1.2727	0.1	55.256
4564	14.505	1.2727	0.1	55.682
4565	14.323	1.2727	0.1	55.245
4566	14.14	1.2727	0.1	53.733
4567	13.958	1.2727	0.1	50.848
4568	13.775	1.2727	0.1	46.151
4569	13.593	1.2727	0.1	38.985
4570	13.41	1.2727	0.1	28.477
4571	13.227	1.2727	0.1	14.764
4572	13.045	1.2727	0.1	5.5966
4573	12.862	1.2727	0.1	3.2445
4574	12.68	1.2727	0.1	2.6057
4575	12.497	1.2727	0.1	2.4803
4576	12.314	1.2727	0.1	2.9364
4577	12.132	1.2727	0.1	1.1932
4578	11.949	1.2727	0.1	5.9954
4579	23.817	1.4545	0.1	-0.16127
4580	23.635	1.4545	0.1	-0.30159
4581	23.452	1.4545	0.1	-0.12492
4582	23.27	1.4545	0.1	-0.10896
4583	23.087	1.4545	0.1	-7.9088e-002
4584	22.904	1.4545	0.1	-6.4879e-002
4585	22.722	1.4545	0.1	-5.3341e-002
4586	22.539	1.4545	0.1	-4.5151e-002
4587	22.357	1.4545	0.1	-3.8746e-002
4588	22.174	1.4545	0.1	-3.3714e-002
4589	21.992	1.4545	0.1	-2.9656e-002
4590	21.809	1.4545	0.1	-2.6332e-002
4591	21.626	1.4545	0.1	-2.3572e-002
4592	21.444	1.4545	0.1	-2.1251e-002
4593	21.261	1.4545	0.1	-1.9282e-002
4594	21.079	1.4545	0.1	-1.7589e-002
4595	20.896	1.4545	0.1	-1.6116e-002
4596	20.713	1.4545	0.1	-1.4834e-002
4597	20.531	1.4545	0.1	-1.3705e-002
4598	20.348	1.4545	0.1	-1.2691e-002
4599	20.166	1.4545	0.1	-1.1778e-002
4600	19.983	1.4545	0.1	-1.0939e-002
4601	19.8	1.4545	0.1	-1.0152e-002
4602	19.618	1.4545	0.1	-9.3989e-003
4603	19.435	1.4545	0.1	-8.6385e-003
4604	19.253	1.4545	0.1	-7.826e-003
4605	19.07	1.4545	0.1	-6.8519e-003
4606	18.888	1.4545	0.1	-5.4754e-003
4607	18.705	1.4545	0.1	-2.8404e-003
4608	18.522	1.4545	0.1	7.2108e-003
4609	18.34	1.4545	0.1	1.1171
4610	18.157	1.4545	0.1	4.1064
4611	17.975	1.4545	0.1	7.1892
4612	17.792	1.4545	0.1	10.361
4613	17.609	1.4545	0.1	13.63
4614	17.427	1.4545	0.1	17.002
4615	17.244	1.4545	0.1	20.483
4616	17.062	1.4545	0.1	24.076
4617	16.879	1.4545	0.1	27.782
4618	16.697	1.4545	0.1	31.599
4619	16.514	1.4545	0.1	35.518
4620	16.331	1.4545	0.1	39.53
4621	16.149	1.4545	0.1	43.617
4622	15.966	1.4545	0.1	47.758
4623	15.784	1.4545	0.1	51.921
4624	15.601	1.4545	0.1	56.069
4625	15.418	1.4545	0.1	60.155
4626	15.236	1.4545	0.1	64.121
4627	15.053	1.4545	0.1	67.898
4628	14.871	1.4545	0.1	71.401
4629	14.688	1.4545	0.1	74.527
4630	14.505	1.4545	0.1	77.145
4631	14.323	1.4545	0.1	79.083
4632	14.14	1.4545	0.1	80.102
4633	13.958	1.4545	0.1	79.851
4634	13.775	1.4545	0.1	77.784
4635	13.593	1.4545	0.1	73.028
4636	13.41	1.4545	0.1	64.165
4637	13.227	1.4545	0.1	48.987
4638	13.045	1.4545	0.1	25.45
4639	12.862	1.4545	0.1	7.0032
4640	12.68	1.4545	0.1	3.688
4641	12.497	1.4545	0.1	3.1696
4642	12.314	1.4545	0.1	3.3626
4643	12.132	1.4545	0.1	2.1245
4644	11.949	1.4545	0.1	18.191
4645	23.817	1.6364	0.1	-0.17629
4646	23.635	1.6364	0.1	-0.3097
4647	23.452	1.6364	0.1	-0.13084
4648	23.27	1.6364	0.1	-0.11422
4649	23.087	1.6364	0.1	-8.3858e-002
4650	22.904	1.6364	0.1	-6.935e-002
4651	22.722	1.6364	0.1	-5.7584e-002
4652	22.539	1.6364	0.1	-4.9208e-002
4653	22.357	1.6364	0.1	-4.2638e-002
4654	22.174	1.6364	0.1	-3.745e-002
4655	21.992	1.6364	0.1	-3.3238e-002
4656	21.809	1.6364	0.1	-2.9763e-002
4657	21.626	1.6364	0.1	-2.6857e-002
4658	21.444	1.6364	0.1	-2.4395e-002
4659	21.261	1.6364	0.1	-2.2289e-002
4660	21.079	1.6364	0.1	-2.0465e-002
4661	20.896	1.6364	0.1	-1.8867e-002
4662	20.713	1.6364	0.1	-1.7464e-002
4663	20.531	1.6364	0.1	-1.6218e-002
4664	20.348	1.6364	0.1	-1.5097e-002
4665	20.166	1.6364	0.1	-1.4079e-002
4666	19.983	1.6364	0.1	-1.3143e-002
4667	19.8	1.6364	0.1	-1.2268e-002
4668	19.618	1.6364	0.1	-1.1425e-002
4669	19.435	1.6364	0.1	-1.0585e-002
4670	19.253	1.6364	0.1	-9.6868e-003
4671	19.07	1.6364	0.1	-8.6153e-003
4672	18.888	1.6364	0.1	-7.0433e-003
4673	18.705	1.6364	0.1	-3.5356e-003
4674	18.522	1.6364	0.1	3.4673e-002
4675	18.34	1.6364	0.1	2.7023
4676	18.157	1.6364	0.1	6.007
4677	17.975	1.6364	0.1	9.4125
4678	17.792	1.6364	0.1	12.93
4679	17.609	1.6364	0.1	16.573
4680	17.427	1.6364	0.1	20.353
4681	17.244	1.6364	0.1	24.282
4682	17.062	1.6364	0.1	28.371
4683	16.879	1.6364	0.1	32.627
4684	16.697	1.6364	0.1	37.057
4685	16.514	1.6364	0.1	41.664
4686	16.331	1.6364	0.1	46.447
4687	16.149	1.6364	0.1	51.403
4688	15.966	1.6364	0.1	56.521
4689	15.784	1.6364	0.1	61.788
4690	15.601	1.6364	0.1	67.18
4691	15.418	1.6364	0.1	72.667
4692	15.236	1.6364	0.1	78.208
4693	15.053	1.6364	0.1	83.749
4694	14.871	1.6364	0.1	89.22
4695	14.688	1.6364	0.1	94.531
4696	14.505	1.6364	0.1	99.556
4697	14.323	1.6364	0.1	104.13
4698	14.14	1.6364	0.1	107.99
4699	13.958	1.6364	0.1	110.79
4700	13.775	1.6364	0.1	111.93
4701	13.593	1.6364	0.1	110.5
4702	13.41	1.6364	0.1	104.97
4703	13.227	1.6364	0.1	92.839
4704	13.045	1.6364	0.1	70.11
4705	12.862	1.6364	0.1	32.471
4706	12.68	1.6364	0.1	7.1428
4707	12.497	1.6364	0.1	3.1578
4708	12.314	1.6364	0.1	8.5977
4709	12.132	1.6364	0.1	0.19178
4710	11.949	1.6364	0.1	-6.2087
4711	23.817	1.8182	0.1	-0.18822
4712	23.635	1.8182	0.1	-0.31593
4713	23.452	1.8182	0.1	-0.13534
4714	23.27	1.8182	0.1	-0.11819
4715	23.087	1.8182	0.1	-8.7447e-002
4716	22.904	1.8182	0.1	-7.2707e-002
4717	22.722	1.8182	0.1	-6.0772e-002
4718	22.539	1.8182	0.1	-5.2266e-002
4719	22.357	1.8182	0.1	-4.5586e-002
4720	22.174	1.8182	0.1	-4.0298e-002
4721	21.992	1.8182	0.1	-3.5988e-002
4722	21.809	1.8182	0.1	-3.2418e-002
4723	21.626	1.8182	0.1	-2.9417e-002
4724	21.444	1.8182	0.1	-2.686e-002
4725	21.261	1.8182	0.1	-2.4661e-002
4726	21.079	1.8182	0.1	-2.2747e-002
4727	20.896	1.8182	0.1	-2.1061e-002
4728	20.713	1.8182	0.1	-1.9574e-002
4729	20.531	1.8182	0.1	-1.8247e-002
4730	20.348	1.8182	0.1	-1.7049e-002
4731	20.166	1.8182	0.1	-1.596e-002
4732	19.983	1.8182	0.1	-1.4957e-002
4733	19.8	1.8182	0.1	-1.4019e-002
4734	19.618	1.8182	0.1	-1.3123e-002
4735	19.435	1.8182	0.1	-1.2238e-002
4736	19.253	1.8182	0.1	-1.1305e-002
4737	19.07	1.8182	0.1	-1.0203e-002
4738	18.888	1.8182	0.1	-8.5458e-003
4739	18.705	1.8182	0.1	-4.0801e-003
4740	18.522	1.8182	0.1	0.68177
4741	18.34	1.8182	0.1	4.1497
4742	18.157	1.8182	0.1	7.7384
4743	17.975	1.8182	0.1	11.446
4744	17.792	1.8182	0.1	15.289
4745	17.609	1.8182	0.1	19.287
4746	17.427	1.8182	0.1	23.457
4747	17.244	1.8182	0.1	27.817
4748	17.062	1.8182	0.1	32.385
4749	16.879	1.8182	0.1	37.176
4750	16.697	1.8182	0.1	42.207
4751	16.514	1.8182	0.1	47.491
4752	16.331	1.8182	0.1	53.039
4753	16.149	1.8182	0.1	58.861
4754	15.966	1.8182	0.1	64.96
4755	15.784	1.8182	0.1	71.338
4756	15.601	1.8182	0.1	77.988
4757	15.418	1.8182	0.1	84.897
4758	15.236	1.8182	0.1	92.042
4759	15.053	1.8182	0.1	99.384
4760	14.871	1.8182	0.1	106.87
4761	14.688	1.8182	0.1	114.42
4762	14.505	1.8182	0.1	121.92
4763	14.323	1.8182	0.1	129.2
4764	14.14	1.8182	0.1	136.01
4765	13.958	1.8182	0.1	141.98
4766	13.775	1.8182	0.1	146.53
4767	13.593	1.8182	0.1	148.76
4768	13.41	1.8182	0.1	147.24
4769	13.227	1.8182	0.1	139.63
4770	13.045	1.8182	0.1	122.17
4771	12.862	1.8182	0.1	88.766
4772	12.68	1.8182	0.1	33.593
4773	12.497	1.8182	0.1	5.7571
4774	12.314	1.8182	0.1	6.6353
4775	12.132	1.8182	0.1	-5.2096
4776	11.949	1.8182	0.1	111.87
4777	23.817	2.	0.1	-0.1977
4778	23.635	2.	0.1	-0.32073
4779	23.452	2.	0.1	-0.13878
4780	23.27	2.	0.1	-0.12121
4781	23.087	2.	0.1	-9.0171e-002
4782	22.904	2.	0.1	-7.5247e-002
4783	22.722	2.	0.1	-6.318e-002
4784	22.539	2.	0.1	-5.4579e-002
4785	22.357	2.	0.1	-4.7823e-002
4786	22.174	2.	0.1	-4.247e-002
4787	21.992	2.	0.1	-3.8096e-002
4788	21.809	2.	0.1	-3.4464e-002
4789	21.626	2.	0.1	-3.14e-002
4790	21.444	2.	0.1	-2.8781e-002
4791	21.261	2.	0.1	-2.652e-002
4792	21.079	2.	0.1	-2.4543e-002
4793	20.896	2.	0.1	-2.2796e-002
4794	20.713	2.	0.1	-2.1249e-002
4795	20.531	2.	0.1	-1.9865e-002
4796	20.348	2.	0.1	-1.8613e-002
4797	20.166	2.	0.1	-1.7471e-002
4798	19.983	2.	0.1	-1.6423e-002
4799	19.8	2.	0.1	-1.5443e-002
4800	19.618	2.	0.1	-1.4515e-002
4801	19.435	2.	0.1	-1.3609e-002
4802	19.253	2.	0.1	-1.2672e-002
4803	19.07	2.	0.1	-1.1589e-002
4804	18.888	2.	0.1	-9.9611e-003
4805	18.705	2.	0.1	-4.4245e-003
4806	18.522	2.	0.1	1.7074
4807	18.34	2.	0.1	5.4326
4808	18.157	2.	0.1	9.277
4809	17.975	2.	0.1	13.259
4810	17.792	2.	0.1	17.4
4811	17.609	2.	0.1	21.724
4812	17.427	2.	0.1	26.254
4813	17.244	2.	0.1	31.014
4814	17.062	2.	0.1	36.029
4815	16.879	2.	0.1	41.323
4816	16.697	2.	0.1	46.921
4817	16.514	2.	0.1	52.846
4818	16.331	2.	0.1	59.122
4819	16.149	2.	0.1	65.77
4820	15.966	2.	0.1	72.809
4821	15.784	2.	0.1	80.256
4822	15.601	2.	0.1	88.119
4823	15.418	2.	0.1	96.403
4824	15.236	2.	0.1	105.1
4825	15.053	2.	0.1	114.19
4826	14.871	2.	0.1	123.62
4827	14.688	2.	0.1	133.34
4828	14.505	2.	0.1	143.22
4829	14.323	2.	0.1	153.1
4830	14.14	2.	0.1	162.72
4831	13.958	2.	0.1	171.69
4832	13.775	2.	0.1	179.44
4833	13.593	2.	0.1	185.07
4834	13.41	2.	0.1	187.24
4835	13.227	2.	0.1	183.86
4836	13.045	2.	0.1	171.74
4837	12.862	2.	0.1	145.76
4838	12.68	2.	0.1	98.339
4839	12.497	2.	0.1	22.329
4840	12.314	2.	0.1	12.457
4841	12.132	2.	0.1	-56.936
4842	11.949	2.	0.1	403.39
4843	23.817	2.1818	0.1	-0.20513
4844	23.635	2.1818	0.1	-0.32441
4845	23.452	2.1818	0.1	-0.14139
4846	23.27	2.1818	0.1	-0.12351
4847	23.087	2.1818	0.1	-9.2224e-002
4848	22.904	2.1818	0.1	-7.716e-002
4849	22.722	2.1818	0.1	-6.4992e-002
4850	22.539	2.1818	0.1	-5.632e-002
4851	22.357	2.1818	0.1	-4.9509e-002
4852	22.174	2.1818	0.1	-4.4105e-002
4853	21.992	2.1818	0.1	-3.9691e-002
4854	21.809	2.1818	0.1	-3.6019e-002
4855	21.626	2.1818	0.1	-3.2914e-002
4856	21.444	2.1818	0.1	-3.0254e-002
4857	21.261	2.1818	0.1	-2.7951e-002
4858	21.079	2.1818	0.1	-2.5933e-002
4859	20.896	2.1818	0.1	-2.4142e-002
4860	20.713	2.1818	0.1	-2.2553e-002
4861	20.531	2.1818	0.1	-2.1129e-002
4862	20.348	2.1818	0.1	-1.9837e-002
4863	20.166	2.1818	0.1	-1.8661e-002
4864	19.983	2.1818	0.1	-1.758e-002
4865	19.8	2.1818	0.1	-1.6576e-002
4866	19.618	2.1818	0.1	-1.5628e-002
4867	19.435	2.1818	0.1	-1.4713e-002
4868	19.253	2.1818	0.1	-1.3793e-002
4869	19.07	2.1818	0.1	-1.2767e-002
4870	18.888	2.1818	0.1	-1.1266e-002
4871	18.705	2.1818	0.1	-4.4539e-003
4872	18.522	2.1818	0.1	2.5961
4873	18.34	2.1818	0.1	6.533
4874	18.157	2.1818	0.1	10.601
4875	17.975	2.1818	0.1	14.823
4876	17.792	2.1818	0.1	19.226
4877	17.609	2.1818	0.1	23.839
4878	17.427	2.1818	0.1	28.688
4879	17.244	2.1818	0.1	33.805
4880	17.062	2.1818	0.1	39.22
4881	16.879	2.1818	0.1	44.965
4882	16.697	2.1818	0.1	51.073
4883	16.514	2.1818	0.1	57.579
4884	16.331	2.1818	0.1	64.515
4885	16.149	2.1818	0.1	71.915
4886	15.966	2.1818	0.1	79.812
4887	15.784	2.1818	0.1	88.236
4888	15.601	2.1818	0.1	97.21
4889	15.418	2.1818	0.1	106.75
4890	15.236	2.1818	0.1	116.87
4891	15.053	2.1818	0.1	127.56
4892	14.871	2.1818	0.1	138.78
4893	14.688	2.1818	0.1	150.47
4894	14.505	2.1818	0.1	162.51
4895	14.323	2.1818	0.1	174.73
4896	14.14	2.1818	0.1	186.82
4897	13.958	2.1818	0.1	198.38
4898	13.775	2.1818	0.1	208.75
4899	13.593	2.1818	0.1	216.99
4900	13.41	2.1818	0.1	221.7
4901	13.227	2.1818	0.1	220.81
4902	13.045	2.1818	0.1	211.28
4903	12.862	2.1818	0.1	188.48
4904	12.68	2.1818	0.1	145.84
4905	12.497	2.1818	0.1	71.511
4906	12.314	2.1818	0.1	5.2863
4907	12.132	2.1818	0.1	-25.445
4908	11.949	2.1818	0.1	16.73
4909	23.817	2.3636	0.1	-0.21081
4910	23.635	2.3636	0.1	-0.32716
4911	23.452	2.3636	0.1	-0.14334
4912	23.27	2.3636	0.1	-0.12521
4913	23.087	2.3636	0.1	-9.3749e-002
4914	22.904	2.3636	0.1	-7.8571e-002
4915	22.722	2.3636	0.1	-6.6328e-002
4916	22.539	2.3636	0.1	-5.76e-002
4917	22.357	2.3636	0.1	-5.0748e-002
4918	22.174	2.3636	0.1	-4.5314e-002
4919	21.992	2.3636	0.1	-4.0871e-002
4920	21.809	2.3636	0.1	-3.7174e-002
4921	21.626	2.3636	0.1	-3.4041e-002
4922	21.444	2.3636	0.1	-3.1354e-002
4923	21.261	2.3636	0.1	-2.9025e-002
4924	21.079	2.3636	0.1	-2.6976e-002
4925	20.896	2.3636	0.1	-2.5157e-002
4926	20.713	2.3636	0.1	-2.354e-002
4927	20.531	2.3636	0.1	-2.2087e-002
4928	20.348	2.3636	0.1	-2.0769e-002
4929	20.166	2.3636	0.1	-1.9567e-002
4930	19.983	2.3636	0.1	-1.8463e-002
4931	19.8	2.3636	0.1	-1.7443e-002
4932	19.618	2.3636	0.1	-1.6485e-002
4933	19.435	2.3636	0.1	-1.5572e-002
4934	19.253	2.3636	0.1	-1.4675e-002
4935	19.07	2.3636	0.1	-1.3721e-002
4936	18.888	2.3636	0.1	-1.2419e-002
4937	18.705	2.3636	0.1	-3.7871e-003
4938	18.522	2.3636	0.1	3.3243
4939	18.34	2.3636	0.1	7.435
4940	18.157	2.3636	0.1	11.688
4941	17.975	2.3636	0.1	16.111
4942	17.792	2.3636	0.1	20.734
4943	17.609	2.3636	0.1	25.588
4944	17.427	2.3636	0.1	30.706
4945	17.244	2.3636	0.1	36.124
4946	17.062	2.3636	0.1	41.878
4947	16.879	2.3636	0.1	48.007
4948	16.697	2.3636	0.1	54.55
4949	16.514	2.3636	0.1	61.551
4950	16.331	2.3636	0.1	69.052
4951	16.149	2.3636	0.1	77.098
4952	15.966	2.3636	0.1	85.732
4953	15.784	2.3636	0.1	94.997
4954	15.601	2.3636	0.1	104.93
4955	15.418	2.3636	0.1	115.56
4956	15.236	2.3636	0.1	126.91
4957	15.053	2.3636	0.1	138.97
4958	14.871	2.3636	0.1	151.72
4959	14.688	2.3636	0.1	165.09
4960	14.505	2.3636	0.1	178.96
4961	14.323	2.3636	0.1	193.12
4962	14.14	2.3636	0.1	207.22
4963	13.958	2.3636	0.1	220.78
4964	13.775	2.3636	0.1	233.02
4965	13.593	2.3636	0.1	242.84
4966	13.41	2.3636	0.1	248.59
4967	13.227	2.3636	0.1	247.87
4968	13.045	2.3636	0.1	237.17
4969	12.862	2.3636	0.1	211.33
4970	12.68	2.3636	0.1	162.65
4971	12.497	2.3636	0.1	79.354
4972	12.314	2.3636	0.1	-2.4147
4973	12.132	2.3636	0.1	7.6131
4974	11.949	2.3636	0.1	13.252
4975	23.817	2.5455	0.1	-0.21493
4976	23.635	2.5455	0.1	-0.32913
4977	23.452	2.5455	0.1	-0.14472
4978	23.27	2.5455	0.1	-0.12641
4979	23.087	2.5455	0.1	-9.4823e-002
4980	22.904	2.5455	0.1	-7.9568e-002
4981	22.722	2.5455	0.1	-6.7267e-002
4982	22.539	2.5455	0.1	-5.8503e-002
4983	22.357	2.5455	0.1	-5.1621e-002
4984	22.174	2.5455	0.1	-4.6166e-002
4985	21.992	2.5455	0.1	-4.1705e-002
4986	21.809	2.5455	0.1	-3.7989e-002
4987	21.626	2.5455	0.1	-3.4843e-002
4988	21.444	2.5455	0.1	-3.2137e-002
4989	21.261	2.5455	0.1	-2.9787e-002
4990	21.079	2.5455	0.1	-2.7722e-002
4991	20.896	2.5455	0.1	-2.5883e-002
4992	20.713	2.5455	0.1	-2.4248e-002
4993	20.531	2.5455	0.1	-2.2776e-002
4994	20.348	2.5455	0.1	-2.1439e-002
4995	20.166	2.5455	0.1	-2.0221e-002
4996	19.983	2.5455	0.1	-1.9105e-002
4997	19.8	2.5455	0.1	-1.8069e-002
4998	19.618	2.5455	0.1	-1.7105e-002
4999	19.435	2.5455	0.1	-1.6199e-002
5000	19.253	2.5455	0.1	-1.5326e-002
5001	19.07	2.5455	0.1	-1.4445e-002
5002	18.888	2.5455	0.1	-1.3371e-002
5003	18.705	2.5455	0.1	-1.3744e-004
5004	18.522	2.5455	0.1	3.8804
5005	18.34	2.5455	0.1	8.1248
5006	18.157	2.5455	0.1	12.521
5007	17.975	2.5455	0.1	17.099
5008	17.792	2.5455	0.1	21.892
5009	17.609	2.5455	0.1	26.935
5010	17.427	2.5455	0.1	32.263
5011	17.244	2.5455	0.1	37.917
5012	17.062	2.5455	0.1	43.936
5013	16.879	2.5455	0.1	50.366
5014	16.697	2.5455	0.1	57.251
5015	16.514	2.5455	0.1	64.643
5016	16.331	2.5455	0.1	72.591
5017	16.149	2.5455	0.1	81.147
5018	15.966	2.5455	0.1	90.365
5019	15.784	2.5455	0.1	100.3
5020	15.601	2.5455	0.1	110.99
5021	15.418	2.5455	0.1	122.48
5022	15.236	2.5455	0.1	134.8
5023	15.053	2.5455	0.1	147.95
5024	14.871	2.5455	0.1	161.91
5025	14.688	2.5455	0.1	176.6
5026	14.505	2.5455	0.1	191.89
5027	14.323	2.5455	0.1	207.52
5028	14.14	2.5455	0.1	223.11
5029	13.958	2.5455	0.1	238.05
5030	13.775	2.5455	0.1	251.43
5031	13.593	2.5455	0.1	261.89
5032	13.41	2.5455	0.1	267.42
5033	13.227	2.5455	0.1	265.09
5034	13.045	2.5455	0.1	250.56
5035	12.862	2.5455	0.1	217.57
5036	12.68	2.5455	0.1	157.03
5037	12.497	2.5455	0.1	56.473
5038	12.314	2.5455	0.1	0.48439
5039	12.132	2.5455	0.1	-0.13088
5040	11.949	2.5455	0.1	-3.3145
5041	23.817	2.7273	0.1	-0.2176
5042	23.635	2.7273	0.1	-0.33039
5043	23.452	2.7273	0.1	-0.14561
5044	23.27	2.7273	0.1	-0.12718
5045	23.087	2.7273	0.1	-9.5513e-002
5046	22.904	2.7273	0.1	-8.0206e-002
5047	22.722	2.7273	0.1	-6.7867e-002
5048	22.539	2.7273	0.1	-5.9076e-002
5049	22.357	2.7273	0.1	-5.2179e-002
5050	22.174	2.7273	0.1	-4.6709e-002
5051	21.992	2.7273	0.1	-4.2236e-002
5052	21.809	2.7273	0.1	-3.851e-002
5053	21.626	2.7273	0.1	-3.5353e-002
5054	21.444	2.7273	0.1	-3.2639e-002
5055	21.261	2.7273	0.1	-3.028e-002
5056	21.079	2.7273	0.1	-2.8202e-002
5057	20.896	2.7273	0.1	-2.6352e-002
5058	20.713	2.7273	0.1	-2.4703e-002
5059	20.531	2.7273	0.1	-2.3222e-002
5060	20.348	2.7273	0.1	-2.1873e-002
5061	20.166	2.7273	0.1	-2.0645e-002
5062	19.983	2.7273	0.1	-1.9516e-002
5063	19.8	2.7273	0.1	-1.8477e-002
5064	19.618	2.7273	0.1	-1.7511e-002
5065	19.435	2.7273	0.1	-1.6608e-002
5066	19.253	2.7273	0.1	-1.5755e-002
5067	19.07	2.7273	0.1	-1.4931e-002
5068	18.888	2.7273	0.1	-1.4055e-002
5069	18.705	2.7273	0.1	6.2963e-002
5070	18.522	2.7273	0.1	4.2559
5071	18.34	2.7273	0.1	8.5911
5072	18.157	2.7273	0.1	13.085
5073	17.975	2.7273	0.1	17.769
5074	17.792	2.7273	0.1	22.679
5075	17.609	2.7273	0.1	27.85
5076	17.427	2.7273	0.1	33.323
5077	17.244	2.7273	0.1	39.137
5078	17.062	2.7273	0.1	45.34
5079	16.879	2.7273	0.1	51.976
5080	16.697	2.7273	0.1	59.099
5081	16.514	2.7273	0.1	66.76
5082	16.331	2.7273	0.1	75.016
5083	16.149	2.7273	0.1	83.926
5084	15.966	2.7273	0.1	93.549
5085	15.784	2.7273	0.1	103.94
5086	15.601	2.7273	0.1	115.16
5087	15.418	2.7273	0.1	127.25
5088	15.236	2.7273	0.1	140.24
5089	15.053	2.7273	0.1	154.14
5090	14.871	2.7273	0.1	168.93
5091	14.688	2.7273	0.1	184.53
5092	14.505	2.7273	0.1	200.78
5093	14.323	2.7273	0.1	217.39
5094	14.14	2.7273	0.1	233.94
5095	13.958	2.7273	0.1	249.71
5096	13.775	2.7273	0.1	263.65
5097	13.593	2.7273	0.1	274.18
5098	13.41	2.7273	0.1	278.93
5099	13.227	2.7273	0.1	274.42
5100	13.045	2.7273	0.1	255.6
5101	12.862	2.7273	0.1	215.28
5102	12.68	2.7273	0.1	143.77
5103	12.497	2.7273	0.1	29.826
5104	12.314	2.7273	0.1	-0.55094
5105	12.132	2.7273	0.1	8.7917e-002
5106	11.949	2.7273	0.1	2.3091
5107	23.817	2.9091	0.1	-0.21892
5108	23.635	2.9091	0.1	-0.33101
5109	23.452	2.9091	0.1	-0.14604
5110	23.27	2.9091	0.1	-0.12756
5111	23.087	2.9091	0.1	-9.5848e-002
5112	22.904	2.9091	0.1	-8.0513e-002
5113	22.722	2.9091	0.1	-6.8162e-002
5114	22.539	2.9091	0.1	-5.9356e-002
5115	22.357	2.9091	0.1	-5.2448e-002
5116	22.174	2.9091	0.1	-4.6973e-002
5117	21.992	2.9091	0.1	-4.2495e-002
5118	21.809	2.9091	0.1	-3.8765e-002
5119	21.626	2.9091	0.1	-3.5602e-002
5120	21.444	2.9091	0.1	-3.2884e-002
5121	21.261	2.9091	0.1	-3.0519e-002
5122	21.079	2.9091	0.1	-2.8436e-002
5123	20.896	2.9091	0.1	-2.6581e-002
5124	20.713	2.9091	0.1	-2.4927e-002
5125	20.531	2.9091	0.1	-2.344e-002
5126	20.348	2.9091	0.1	-2.2087e-002
5127	20.166	2.9091	0.1	-2.0852e-002
5128	19.983	2.9091	0.1	-1.9721e-002
5129	19.8	2.9091	0.1	-1.8677e-002
5130	19.618	2.9091	0.1	-1.771e-002
5131	19.435	2.9091	0.1	-1.681e-002
5132	19.253	2.9091	0.1	-1.5969e-002
5133	19.07	2.9091	0.1	-1.5174e-002
5134	18.888	2.9091	0.1	-1.4416e-002
5135	18.705	2.9091	0.1	0.1948
5136	18.522	2.9091	0.1	4.4451
5137	18.34	2.9091	0.1	8.8262
5138	18.157	2.9091	0.1	13.369
5139	17.975	2.9091	0.1	18.107
5140	17.792	2.9091	0.1	23.076
5141	17.609	2.9091	0.1	28.313
5142	17.427	2.9091	0.1	33.859
5143	17.244	2.9091	0.1	39.756
5144	17.062	2.9091	0.1	46.051
5145	16.879	2.9091	0.1	52.793
5146	16.697	2.9091	0.1	60.036
5147	16.514	2.9091	0.1	67.835
5148	16.331	2.9091	0.1	76.249
5149	16.149	2.9091	0.1	85.34
5150	15.966	2.9091	0.1	95.169
5151	15.784	2.9091	0.1	105.8
5152	15.601	2.9091	0.1	117.29
5153	15.418	2.9091	0.1	129.68
5154	15.236	2.9091	0.1	143.02
5155	15.053	2.9091	0.1	157.3
5156	14.871	2.9091	0.1	172.52
5157	14.688	2.9091	0.1	188.57
5158	14.505	2.9091	0.1	205.3
5159	14.323	2.9091	0.1	222.41
5160	14.14	2.9091	0.1	239.41
5161	13.958	2.9091	0.1	255.57
5162	13.775	2.9091	0.1	269.73
5163	13.593	2.9091	0.1	280.15
5164	13.41	2.9091	0.1	284.28
5165	13.227	2.9091	0.1	278.3
5166	13.045	2.9091	0.1	256.76
5167	12.862	2.9091	0.1	212.05
5168	12.68	2.9091	0.1	134.44
5169	12.497	2.9091	0.1	13.796
5170	12.314	2.9091	0.1	-0.71175
5171	12.132	2.9091	0.1	-1.5751e-002
5172	11.949	2.9091	0.1	0.28003
5173	23.817	3.0909	0.1	-0.21892
5174	23.635	3.0909	0.1	-0.33101
5175	23.452	3.0909	0.1	-0.14604
5176	23.27	3.0909	0.1	-0.12756
5177	23.087	3.0909	0.1	-9.5848e-002
5178	22.904	3.0909	0.1	-8.0515e-002
5179	22.722	3.0909	0.1	-6.8159e-002
5180	22.539	3.0909	0.1	-5.9355e-002
5181	22.357	3.0909	0.1	-5.245e-002
5182	22.174	3.0909	0.1	-4.6972e-002
5183	21.992	3.0909	0.1	-4.2496e-002
5184	21.809	3.0909	0.1	-3.8764e-002
5185	21.626	3.0909	0.1	-3.5603e-002
5186	21.444	3.0909	0.1	-3.2883e-002
5187	21.261	3.0909	0.1	-3.0519e-002
5188	21.079	3.0909	0.1	-2.8436e-002
5189	20.896	3.0909	0.1	-2.6582e-002
5190	20.713	3.0909	0.1	-2.4928e-002
5191	20.531	3.0909	0.1	-2.3438e-002
5192	20.348	3.0909	0.1	-2.2086e-002
5193	20.166	3.0909	0.1	-2.0851e-002
5194	19.983	3.0909	0.1	-1.9721e-002
5195	19.8	3.0909	0.1	-1.8676e-002
5196	19.618	3.0909	0.1	-1.7709e-002
5197	19.435	3.0909	0.1	-1.6811e-002
5198	19.253	3.0909	0.1	-1.5969e-002
5199	19.07	3.0909	0.1	-1.5176e-002
5200	18.888	3.0909	0.1	-1.4415e-002
5201	18.705	3.0909	0.1	0.19479
5202	18.522	3.0909	0.1	4.4451
5203	18.34	3.0909	0.1	8.8262
5204	18.157	3.0909	0.1	13.369
5205	17.975	3.0909	0.1	18.107
5206	17.792	3.0909	0.1	23.076
5207	17.609	3.0909	0.1	28.313
5208	17.427	3.0909	0.1	33.859
5209	17.244	3.0909	0.1	39.756
5210	17.062	3.0909	0.1	46.051
5211	16.879	3.0909	0.1	52.793
5212	16.697	3.0909	0.1	60.036
5213	16.514	3.0909	0.1	67.835
5214	16.331	3.0909	0.1	76.249
5215	16.149	3.0909	0.1	85.34
5216	15.966	3.0909	0.1	95.169
5217	15.784	3.0909	0.1	105.8
5218	15.601	3.0909	0.1	117.29
5219	15.418	3.0909	0.1	129.68
5220	15.236	3.0909	0.1	143.02
5221	15.053	3.0909	0.1	157.3
5222	14.871	3.0909	0.1	172.52
5223	14.688	3.0909	0.1	188.57
5224	14.505	3.0909	0.1	205.3
5225	14.323	3.0909	0.1	222.41
5226	14.14	3.0909	0.1	239.41
5227	13.958	3.0909	0.1	255.57
5228	13.775	3.0909	0.1	269.73
5229	13.593	3.0909	0.1	280.15
5230	13.41	3.0909	0.1	284.28
5231	13.227	3.0909	0.1	278.3
5232	13.045	3.0909	0.1	256.76
5233	12.862	3.0909	0.1	212.05
5234	12.68	3.0909	0.1	134.44
5235	12.497	3.0909	0.1	13.796
5236	12.314	3.0909	0.1	-0.71175
5237	12.132	3.0909	0.1	-1.575e-002
5238	11.949	3.0909	0.1	0.28003
5239	23.817	3.2727	0.1	-0.2176
5240	23.635	3.2727	0.1	-0.33039
5241	23.452	3.2727	0.1	-0.14561
5242	23.27	3.2727	0.1	-0.12718
5243	23.087	3.2727	0.1	-9.5512e-002
5244	22.904	3.2727	0.1	-8.0204e-002
5245	22.722	3.2727	0.1	-6.7868e-002
5246	22.539	3.2727	0.1	-5.9077e-002
5247	22.357	3.2727	0.1	-5.2178e-002
5248	22.174	3.2727	0.1	-4.6709e-002
5249	21.992	3.2727	0.1	-4.2237e-002
5250	21.809	3.2727	0.1	-3.8511e-002
5251	21.626	3.2727	0.1	-3.5352e-002
5252	21.444	3.2727	0.1	-3.2639e-002
5253	21.261	3.2727	0.1	-3.0279e-002
5254	21.079	3.2727	0.1	-2.8202e-002
5255	20.896	3.2727	0.1	-2.6352e-002
5256	20.713	3.2727	0.1	-2.4703e-002
5257	20.531	3.2727	0.1	-2.322e-002
5258	20.348	3.2727	0.1	-2.1873e-002
5259	20.166	3.2727	0.1	-2.0644e-002
5260	19.983	3.2727	0.1	-1.9518e-002
5261	19.8	3.2727	0.1	-1.8477e-002
5262	19.618	3.2727	0.1	-1.7512e-002
5263	19.435	3.2727	0.1	-1.6608e-002
5264	19.253	3.2727	0.1	-1.5755e-002
5265	19.07	3.2727	0.1	-1.493e-002
5266	18.888	3.2727	0.1	-1.4056e-002
5267	18.705	3.2727	0.1	6.2943e-002
5268	18.522	3.2727	0.1	4.2559
5269	18.34	3.2727	0.1	8.5911
5270	18.157	3.2727	0.1	13.085
5271	17.975	3.2727	0.1	17.769
5272	17.792	3.2727	0.1	22.679
5273	17.609	3.2727	0.1	27.85
5274	17.427	3.2727	0.1	33.322
5275	17.244	3.2727	0.1	39.137
5276	17.062	3.2727	0.1	45.34
5277	16.879	3.2727	0.1	51.976
5278	16.697	3.2727	0.1	59.099
5279	16.514	3.2727	0.1	66.76
5280	16.331	3.2727	0.1	75.016
5281	16.149	3.2727	0.1	83.926
5282	15.966	3.2727	0.1	93.549
5283	15.784	3.2727	0.1	103.94
5284	15.601	3.2727	0.1	115.16
5285	15.418	3.2727	0.1	127.25
5286	15.236	3.2727	0.1	140.24
5287	15.053	3.2727	0.1	154.14
5288	14.871	3.2727	0.1	168.93
5289	14.688	3.2727	0.1	184.53
5290	14.505	3.2727	0.1	200.78
5291	14.323	3.2727	0.1	217.39
5292	14.14	3.2727	0.1	233.94
5293	13.958	3.2727	0.1	249.71
5294	13.775	3.2727	0.1	263.65
5295	13.593	3.2727	0.1	274.18
5296	13.41	3.2727	0.1	278.93
5297	13.227	3.2727	0.1	274.42
5298	13.045	3.2727	0.1	255.6
5299	12.862	3.2727	0.1	215.28
5300	12.68	3.2727	0.1	143.77
5301	12.497	3.2727	0.1	29.826
5302	12.314	3.2727	0.1	-0.55094
5303	12.132	3.2727	0.1	8.792e-002
5304	11.949	3.2727	0.1	2.3091
5305	23.817	3.4545	0.1	-0.21493
5306	23.635	3.4545	0.1	-0.32913
5307	23.452	3.4545	0.1	-0.14472
5308	23.27	3.4545	0.1	-0.12641
5309	23.087	3.4545	0.1	-9.4824e-002
5310	22.904	3.4545	0.1	-7.9567e-002
5311	22.722	3.4545	0.1	-6.7267e-002
5312	22.539	3.4545	0.1	-5.8502e-002
5313	22.357	3.4545	0.1	-5.1622e-002
5314	22.174	3.4545	0.1	-4.6167e-002
5315	21.992	3.4545	0.1	-4.1705e-002
5316	21.809	3.4545	0.1	-3.799e-002
5317	21.626	3.4545	0.1	-3.4842e-002
5318	21.444	3.4545	0.1	-3.2137e-002
5319	21.261	3.4545	0.1	-2.9788e-002
5320	21.079	3.4545	0.1	-2.7722e-002
5321	20.896	3.4545	0.1	-2.5884e-002
5322	20.713	3.4545	0.1	-2.4247e-002
5323	20.531	3.4545	0.1	-2.2776e-002
5324	20.348	3.4545	0.1	-2.1439e-002
5325	20.166	3.4545	0.1	-2.0221e-002
5326	19.983	3.4545	0.1	-1.9101e-002
5327	19.8	3.4545	0.1	-1.807e-002
5328	19.618	3.4545	0.1	-1.7107e-002
5329	19.435	3.4545	0.1	-1.6199e-002
5330	19.253	3.4545	0.1	-1.5327e-002
5331	19.07	3.4545	0.1	-1.4445e-002
5332	18.888	3.4545	0.1	-1.3372e-002
5333	18.705	3.4545	0.1	-1.3976e-004
5334	18.522	3.4545	0.1	3.8803
5335	18.34	3.4545	0.1	8.1247
5336	18.157	3.4545	0.1	12.521
5337	17.975	3.4545	0.1	17.099
5338	17.792	3.4545	0.1	21.892
5339	17.609	3.4545	0.1	26.935
5340	17.427	3.4545	0.1	32.263
5341	17.244	3.4545	0.1	37.917
5342	17.062	3.4545	0.1	43.936
5343	16.879	3.4545	0.1	50.365
5344	16.697	3.4545	0.1	57.251
5345	16.514	3.4545	0.1	64.643
5346	16.331	3.4545	0.1	72.591
5347	16.149	3.4545	0.1	81.147
5348	15.966	3.4545	0.1	90.365
5349	15.784	3.4545	0.1	100.3
5350	15.601	3.4545	0.1	110.99
5351	15.418	3.4545	0.1	122.48
5352	15.236	3.4545	0.1	134.8
5353	15.053	3.4545	0.1	147.95
5354	14.871	3.4545	0.1	161.91
5355	14.688	3.4545	0.1	176.6
5356	14.505	3.4545	0.1	191.89
5357	14.323	3.4545	0.1	207.52
5358	14.14	3.4545	0.1	223.11
5359	13.958	3.4545	0.1	238.05
5360	13.775	3.4545	0.1	251.43
5361	13.593	3.4545	0.1	261.89
5362	13.41	3.4545	0.1	267.42
5363	13.227	3.4545	0.1	265.09
5364	13.045	3.4545	0.1	250.56
5365	12.862	3.4545	0.1	217.57
5366	12.68	3.4545	0.1	157.03
5367	12.497	3.4545	0.1	56.473
5368	12.314	3.4545	0.1	0.48439
5369	12.132	3.4545	0.1	-0.13087
5370	11.949	3.4545	0.1	-3.3145
5371	23.817	3.6364	0.1	-0.21081
5372	23.635	3.6364	0.1	-0.32716
5373	23.452	3.6364	0.1	-0.14334
5374	23.27	3.6364	0.1	-0.12521
5375	23.087	3.6364	0.1	-9.3747e-002
5376	22.904	3.6364	0.1	-7.857e-002
5377	22.722	3.6364	0.1	-6.6327e-002
5378	22.539	3.6364	0.1	-5.76e-002
5379	22.357	3.6364	0.1	-5.0748e-002
5380	22.174	3.6364	0.1	-4.5314e-002
5381	21.992	3.6364	0.1	-4.0873e-002
5382	21.809	3.6364	0.1	-3.7172e-002
5383	21.626	3.6364	0.1	-3.4041e-002
5384	21.444	3.6364	0.1	-3.1354e-002
5385	21.261	3.6364	0.1	-2.9023e-002
5386	21.079	3.6364	0.1	-2.6976e-002
5387	20.896	3.6364	0.1	-2.5158e-002
5388	20.713	3.6364	0.1	-2.354e-002
5389	20.531	3.6364	0.1	-2.2088e-002
5390	20.348	3.6364	0.1	-2.0768e-002
5391	20.166	3.6364	0.1	-1.9568e-002
5392	19.983	3.6364	0.1	-1.8465e-002
5393	19.8	3.6364	0.1	-1.744e-002
5394	19.618	3.6364	0.1	-1.6486e-002
5395	19.435	3.6364	0.1	-1.5572e-002
5396	19.253	3.6364	0.1	-1.4675e-002
5397	19.07	3.6364	0.1	-1.3721e-002
5398	18.888	3.6364	0.1	-1.242e-002
5399	18.705	3.6364	0.1	-3.7864e-003
5400	18.522	3.6364	0.1	3.3243
5401	18.34	3.6364	0.1	7.435
5402	18.157	3.6364	0.1	11.688
5403	17.975	3.6364	0.1	16.111
5404	17.792	3.6364	0.1	20.734
5405	17.609	3.6364	0.1	25.588
5406	17.427	3.6364	0.1	30.706
5407	17.244	3.6364	0.1	36.124
5408	17.062	3.6364	0.1	41.878
5409	16.879	3.6364	0.1	48.006
5410	16.697	3.6364	0.1	54.55
5411	16.514	3.6364	0.1	61.551
5412	16.331	3.6364	0.1	69.052
5413	16.149	3.6364	0.1	77.098
5414	15.966	3.6364	0.1	85.732
5415	15.784	3.6364	0.1	94.997
5416	15.601	3.6364	0.1	104.93
5417	15.418	3.6364	0.1	115.56
5418	15.236	3.6364	0.1	126.91
5419	15.053	3.6364	0.1	138.97
5420	14.871	3.6364	0.1	151.72
5421	14.688	3.6364	0.1	165.09
5422	14.505	3.6364	0.1	178.96
5423	14.323	3.6364	0.1	193.12
5424	14.14	3.6364	0.1	207.22
5425	13.958	3.6364	0.1	220.78
5426	13.775	3.6364	0.1	233.02
5427	13.593	3.6364	0.1	242.84
5428	13.41	3.6364	0.1	248.59
5429	13.227	3.6364	0.1	247.87
5430	13.045	3.6364	0.1	237.17
5431	12.862	3.6364	0.1	211.33
5432	12.68	3.6364	0.1	162.65
5433	12.497	3.6364	0.1	79.354
5434	12.314	3.6364	0.1	-2.4147
5435	12.132	3.6364	0.1	7.6131
5436	11.949	3.6364	0.1	13.252
5437	23.817	3.8182	0.1	-0.20513
5438	23.635	3.8182	0.1	-0.32441
5439	23.452	3.8182	0.1	-0.14139
5440	23.27	3.8182	0.1	-0.12351
5441	23.087	3.8182	0.1	-9.2226e-002
5442	22.904	3.8182	0.1	-7.716e-002
5443	22.722	3.8182	0.1	-6.4992e-002
5444	22.539	3.8182	0.1	-5.632e-002
5445	22.357	3.8182	0.1	-4.9509e-002
5446	22.174	3.8182	0.1	-4.4106e-002
5447	21.992	3.8182	0.1	-3.969e-002
5448	21.809	3.8182	0.1	-3.602e-002
5449	21.626	3.8182	0.1	-3.2915e-002
5450	21.444	3.8182	0.1	-3.0255e-002
5451	21.261	3.8182	0.1	-2.7951e-002
5452	21.079	3.8182	0.1	-2.5933e-002
5453	20.896	3.8182	0.1	-2.4142e-002
5454	20.713	3.8182	0.1	-2.2553e-002
5455	20.531	3.8182	0.1	-2.113e-002
5456	20.348	3.8182	0.1	-1.9838e-002
5457	20.166	3.8182	0.1	-1.8661e-002
5458	19.983	3.8182	0.1	-1.758e-002
5459	19.8	3.8182	0.1	-1.6576e-002
5460	19.618	3.8182	0.1	-1.5628e-002
5461	19.435	3.8182	0.1	-1.4714e-002
5462	19.253	3.8182	0.1	-1.3793e-002
5463	19.07	3.8182	0.1	-1.2767e-002
5464	18.888	3.8182	0.1	-1.1266e-002
5465	18.705	3.8182	0.1	-4.4555e-003
5466	18.522	3.8182	0.1	2.5961
5467	18.34	3.8182	0.1	6.533
5468	18.157	3.8182	0.1	10.6
5469	17.975	3.8182	0.1	14.823
5470	17.792	3.8182	0.1	19.226
5471	17.609	3.8182	0.1	23.838
5472	17.427	3.8182	0.1	28.688
5473	17.244	3.8182	0.1	33.805
5474	17.062	3.8182	0.1	39.22
5475	16.879	3.8182	0.1	44.965
5476	16.697	3.8182	0.1	51.073
5477	16.514	3.8182	0.1	57.579
5478	16.331	3.8182	0.1	64.515
5479	16.149	3.8182	0.1	71.915
5480	15.966	3.8182	0.1	79.812
5481	15.784	3.8182	0.1	88.235
5482	15.601	3.8182	0.1	97.21
5483	15.418	3.8182	0.1	106.75
5484	15.236	3.8182	0.1	116.87
5485	15.053	3.8182	0.1	127.56
5486	14.871	3.8182	0.1	138.78
5487	14.688	3.8182	0.1	150.47
5488	14.505	3.8182	0.1	162.51
5489	14.323	3.8182	0.1	174.73
5490	14.14	3.8182	0.1	186.82
5491	13.958	3.8182	0.1	198.38
5492	13.775	3.8182	0.1	208.75
5493	13.593	3.8182	0.1	216.99
5494	13.41	3.8182	0.1	221.7
5495	13.227	3.8182	0.1	220.81
5496	13.045	3.8182	0.1	211.28
5497	12.862	3.8182	0.1	188.48
5498	12.68	3.8182	0.1	145.84
5499	12.497	3.8182	0.1	71.511
5500	12.314	3.8182	0.1	5.2863
5501	12.132	3.8182	0.1	-25.445
5502	11.949	3.8182	0.1	16.73
5503	23.817	4.	0.1	-0.1977
5504	23.635	4.	0.1	-0.32073
5505	23.452	4.	0.1	-0.13878
5506	23.27	4.	0.1	-0.12121
5507	23.087	4.	0.1	-9.0171e-002
5508	22.904	4.	0.1	-7.5246e-002
5509	22.722	4.	0.1	-6.3181e-002
5510	22.539	4.	0.1	-5.4578e-002
5511	22.357	4.	0.1	-4.7824e-002
5512	22.174	4.	0.1	-4.2468e-002
5513	21.992	4.	0.1	-3.8095e-002
5514	21.809	4.	0.1	-3.4462e-002
5515	21.626	4.	0.1	-3.14e-002
5516	21.444	4.	0.1	-2.878e-002
5517	21.261	4.	0.1	-2.6519e-002
5518	21.079	4.	0.1	-2.4544e-002
5519	20.896	4.	0.1	-2.2795e-002
5520	20.713	4.	0.1	-2.1248e-002
5521	20.531	4.	0.1	-1.9864e-002
5522	20.348	4.	0.1	-1.8613e-002
5523	20.166	4.	0.1	-1.7471e-002
5524	19.983	4.	0.1	-1.6422e-002
5525	19.8	4.	0.1	-1.5444e-002
5526	19.618	4.	0.1	-1.4515e-002
5527	19.435	4.	0.1	-1.3608e-002
5528	19.253	4.	0.1	-1.2671e-002
5529	19.07	4.	0.1	-1.159e-002
5530	18.888	4.	0.1	-9.9619e-003
5531	18.705	4.	0.1	-4.4235e-003
5532	18.522	4.	0.1	1.7073
5533	18.34	4.	0.1	5.4325
5534	18.157	4.	0.1	9.277
5535	17.975	4.	0.1	13.259
5536	17.792	4.	0.1	17.4
5537	17.609	4.	0.1	21.724
5538	17.427	4.	0.1	26.254
5539	17.244	4.	0.1	31.014
5540	17.062	4.	0.1	36.029
5541	16.879	4.	0.1	41.323
5542	16.697	4.	0.1	46.921
5543	16.514	4.	0.1	52.846
5544	16.331	4.	0.1	59.122
5545	16.149	4.	0.1	65.77
5546	15.966	4.	0.1	72.809
5547	15.784	4.	0.1	80.256
5548	15.601	4.	0.1	88.119
5549	15.418	4.	0.1	96.403
5550	15.236	4.	0.1	105.1
5551	15.053	4.	0.1	114.19
5552	14.871	4.	0.1	123.62
5553	14.688	4.	0.1	133.34
5554	14.505	4.	0.1	143.22
5555	14.323	4.	0.1	153.1
5556	14.14	4.	0.1	162.72
5557	13.958	4.	0.1	171.69
5558	13.775	4.	0.1	179.44
5559	13.593	4.	0.1	185.07
5560	13.41	4.	0.1	187.24
5561	13.227	4.	0.1	183.86
5562	13.045	4.	0.1	171.74
5563	12.862	4.	0.1	145.76
5564	12.68	4.	0.1	98.339
5565	12.497	4.	0.1	22.329
5566	12.314	4.	0.1	12.457
5567	12.132	4.	0.1	-56.936
5568	11.949	4.	0.1	403.39
5569	23.817	4.1818	0.1	-0.18822
5570	23.635	4.1818	0.1	-0.31593
5571	23.452	4.1818	0.1	-0.13534
5572	23.27	4.1818	0.1	-0.11819
5573	23.087	4.1818	0.1	-8.7446e-002
5574	22.904	4.1818	0.1	-7.2707e-002
5575	22.722	4.1818	0.1	-6.0771e-002
5576	22.539	4.1818	0.1	-5.2267e-002
5577	22.357	4.1818	0.1	-4.5586e-002
5578	22.174	4.1818	0.1	-4.0296e-002
5579	21.992	4.1818	0.1	-3.5988e-002
5580	21.809	4.1818	0.1	-3.2419e-002
5581	21.626	4.1818	0.1	-2.9416e-002
5582	21.444	4.1818	0.1	-2.6859e-002
5583	21.261	4.1818	0.1	-2.4661e-002
5584	21.079	4.1818	0.1	-2.2747e-002
5585	20.896	4.1818	0.1	-2.1061e-002
5586	20.713	4.1818	0.1	-1.9573e-002
5587	20.531	4.1818	0.1	-1.8248e-002
5588	20.348	4.1818	0.1	-1.7049e-002
5589	20.166	4.1818	0.1	-1.5958e-002
5590	19.983	4.1818	0.1	-1.4957e-002
5591	19.8	4.1818	0.1	-1.402e-002
5592	19.618	4.1818	0.1	-1.3123e-002
5593	19.435	4.1818	0.1	-1.2237e-002
5594	19.253	4.1818	0.1	-1.1305e-002
5595	19.07	4.1818	0.1	-1.0201e-002
5596	18.888	4.1818	0.1	-8.5448e-003
5597	18.705	4.1818	0.1	-4.0805e-003
5598	18.522	4.1818	0.1	0.68168
5599	18.34	4.1818	0.1	4.1496
5600	18.157	4.1818	0.1	7.7383
5601	17.975	4.1818	0.1	11.446
5602	17.792	4.1818	0.1	15.289
5603	17.609	4.1818	0.1	19.286
5604	17.427	4.1818	0.1	23.456
5605	17.244	4.1818	0.1	27.817
5606	17.062	4.1818	0.1	32.385
5607	16.879	4.1818	0.1	37.176
5608	16.697	4.1818	0.1	42.207
5609	16.514	4.1818	0.1	47.491
5610	16.331	4.1818	0.1	53.039
5611	16.149	4.1818	0.1	58.861
5612	15.966	4.1818	0.1	64.96
5613	15.784	4.1818	0.1	71.338
5614	15.601	4.1818	0.1	77.988
5615	15.418	4.1818	0.1	84.897
5616	15.236	4.1818	0.1	92.042
5617	15.053	4.1818	0.1	99.384
5618	14.871	4.1818	0.1	106.87
5619	14.688	4.1818	0.1	114.42
5620	14.505	4.1818	0.1	121.92
5621	14.323	4.1818	0.1	129.2
5622	14.14	4.1818	0.1	136.01
5623	13.958	4.1818	0.1	141.98
5624	13.775	4.1818	0.1	146.53
5625	13.593	4.1818	0.1	148.76
5626	13.41	4.1818	0.1	147.24
5627	13.227	4.1818	0.1	139.63
5628	13.045	4.1818	0.1	122.17
5629	12.862	4.1818	0.1	88.766
5630	12.68	4.1818	0.1	33.593
5631	12.497	4.1818	0.1	5.7571
5632	12.314	4.1818	0.1	6.6353
5633	12.132	4.1818	0.1	-5.2096
5634	11.949	4.1818	0.1	111.87
5635	23.817	4.3636	0.1	-0.17629
5636	23.635	4.3636	0.1	-0.3097
5637	23.452	4.3636	0.1	-0.13084
5638	23.27	4.3636	0.1	-0.11422
5639	23.087	4.3636	0.1	-8.3858e-002
5640	22.904	4.3636	0.1	-6.935e-002
5641	22.722	4.3636	0.1	-5.7583e-002
5642	22.539	4.3636	0.1	-4.9208e-002
5643	22.357	4.3636	0.1	-4.2637e-002
5644	22.174	4.3636	0.1	-3.7451e-002
5645	21.992	4.3636	0.1	-3.3237e-002
5646	21.809	4.3636	0.1	-2.9763e-002
5647	21.626	4.3636	0.1	-2.6856e-002
5648	21.444	4.3636	0.1	-2.4396e-002
5649	21.261	4.3636	0.1	-2.2289e-002
5650	21.079	4.3636	0.1	-2.0466e-002
5651	20.896	4.3636	0.1	-1.8866e-002
5652	20.713	4.3636	0.1	-1.7463e-002
5653	20.531	4.3636	0.1	-1.6218e-002
5654	20.348	4.3636	0.1	-1.5097e-002
5655	20.166	4.3636	0.1	-1.4079e-002
5656	19.983	4.3636	0.1	-1.3144e-002
5657	19.8	4.3636	0.1	-1.2267e-002
5658	19.618	4.3636	0.1	-1.1426e-002
5659	19.435	4.3636	0.1	-1.0584e-002
5660	19.253	4.3636	0.1	-9.6879e-003
5661	19.07	4.3636	0.1	-8.6153e-003
5662	18.888	4.3636	0.1	-7.0445e-003
5663	18.705	4.3636	0.1	-3.5358e-003
5664	18.522	4.3636	0.1	3.4665e-002
5665	18.34	4.3636	0.1	2.7022
5666	18.157	4.3636	0.1	6.0069
5667	17.975	4.3636	0.1	9.4124
5668	17.792	4.3636	0.1	12.93
5669	17.609	4.3636	0.1	16.573
5670	17.427	4.3636	0.1	20.353
5671	17.244	4.3636	0.1	24.282
5672	17.062	4.3636	0.1	28.371
5673	16.879	4.3636	0.1	32.627
5674	16.697	4.3636	0.1	37.057
5675	16.514	4.3636	0.1	41.664
5676	16.331	4.3636	0.1	46.447
5677	16.149	4.3636	0.1	51.403
5678	15.966	4.3636	0.1	56.521
5679	15.784	4.3636	0.1	61.788
5680	15.601	4.3636	0.1	67.18
5681	15.418	4.3636	0.1	72.667
5682	15.236	4.3636	0.1	78.208
5683	15.053	4.3636	0.1	83.749
5684	14.871	4.3636	0.1	89.22
5685	14.688	4.3636	0.1	94.531
5686	14.505	4.3636	0.1	99.556
5687	14.323	4.3636	0.1	104.13
5688	14.14	4.3636	0.1	107.99
5689	13.958	4.3636	0.1	110.79
5690	13.775	4.3636	0.1	111.93
5691	13.593	4.3636	0.1	110.5
5692	13.41	4.3636	0.1	104.97
5693	13.227	4.3636	0.1	92.839
5694	13.045	4.3636	0.1	70.11
5695	12.862	4.3636	0.1	32.471
5696	12.68	4.3636	0.1	7.1428
5697	12.497	4.3636	0.1	3.1578
5698	12.314	4.3636	0.1	8.5977
5699	12.132	4.3636	0.1	0.19177
5700	11.949	4.3636	0.1	-6.2087
5701	23.817	4.5455	0.1	-0.16127
5702	23.635	4.5455	0.1	-0.30159
5703	23.452	4.5455	0.1	-0.12492
5704	23.27	4.5455	0.1	-0.10896
5705	23.087	4.5455	0.1	-7.9087e-002
5706	22.904	4.5455	0.1	-6.4881e-002
5707	22.722	4.5455	0.1	-5.3341e-002
5708	22.539	4.5455	0.1	-4.515e-002
5709	22.357	4.5455	0.1	-3.8746e-002
5710	22.174	4.5455	0.1	-3.3715e-002
5711	21.992	4.5455	0.1	-2.9656e-002
5712	21.809	4.5455	0.1	-2.6332e-002
5713	21.626	4.5455	0.1	-2.357e-002
5714	21.444	4.5455	0.1	-2.125e-002
5715	21.261	4.5455	0.1	-1.9281e-002
5716	21.079	4.5455	0.1	-1.7589e-002
5717	20.896	4.5455	0.1	-1.6116e-002
5718	20.713	4.5455	0.1	-1.4836e-002
5719	20.531	4.5455	0.1	-1.3704e-002
5720	20.348	4.5455	0.1	-1.2691e-002
5721	20.166	4.5455	0.1	-1.1777e-002
5722	19.983	4.5455	0.1	-1.0938e-002
5723	19.8	4.5455	0.1	-1.0154e-002
5724	19.618	4.5455	0.1	-9.3967e-003
5725	19.435	4.5455	0.1	-8.6394e-003
5726	19.253	4.5455	0.1	-7.8238e-003
5727	19.07	4.5455	0.1	-6.8528e-003
5728	18.888	4.5455	0.1	-5.4747e-003
5729	18.705	4.5455	0.1	-2.8403e-003
5730	18.522	4.5455	0.1	7.2092e-003
5731	18.34	4.5455	0.1	1.117
5732	18.157	4.5455	0.1	4.1063
5733	17.975	4.5455	0.1	7.1891
5734	17.792	4.5455	0.1	10.361
5735	17.609	4.5455	0.1	13.63
5736	17.427	4.5455	0.1	17.002
5737	17.244	4.5455	0.1	20.483
5738	17.062	4.5455	0.1	24.076
5739	16.879	4.5455	0.1	27.782
5740	16.697	4.5455	0.1	31.599
5741	16.514	4.5455	0.1	35.518
5742	16.331	4.5455	0.1	39.53
5743	16.149	4.5455	0.1	43.617
5744	15.966	4.5455	0.1	47.758
5745	15.784	4.5455	0.1	51.921
5746	15.601	4.5455	0.1	56.069
5747	15.418	4.5455	0.1	60.155
5748	15.236	4.5455	0.1	64.121
5749	15.053	4.5455	0.1	67.898
5750	14.871	4.5455	0.1	71.401
5751	14.688	4.5455	0.1	74.527
5752	14.505	4.5455	0.1	77.145
5753	14.323	4.5455	0.1	79.083
5754	14.14	4.5455	0.1	80.102
5755	13.958	4.5455	0.1	79.851
5756	13.775	4.5455	0.1	77.784
5757	13.593	4.5455	0.1	73.028
5758	13.41	4.5455	0.1	64.165
5759	13.227	4.5455	0.1	48.987
5760	13.045	4.5455	0.1	25.45
5761	12.862	4.5455	0.1	7.0032
5762	12.68	4.5455	0.1	3.688
5763	12.497	4.5455	0.1	3.1696
5764	12.314	4.5455	0.1	3.3626
5765	12.132	4.5455	0.1	2.1245
5766	11.949	4.5455	0.1	18.191
5767	23.817	4.7273	0.1	-0.14229
5768	23.635	4.7273	0.1	-0.29093
5769	23.452	4.7273	0.1	-0.11707
5770	23.27	4.7273	0.1	-0.10195
5771	23.087	4.7273	0.1	-7.2696e-002
5772	22.904	4.7273	0.1	-5.889e-002
5773	22.722	4.7273	0.1	-4.7674e-002
5774	22.539	4.7273	0.1	-3.9762e-002
5775	22.357	4.7273	0.1	-3.3619e-002
5776	22.174	4.7273	0.1	-2.8839e-002
5777	21.992	4.7273	0.1	-2.5019e-002
5778	21.809	4.7273	0.1	-2.1926e-002
5779	21.626	4.7273	0.1	-1.9386e-002
5780	21.444	4.7273	0.1	-1.7277e-002
5781	21.261	4.7273	0.1	-1.5509e-002
5782	21.079	4.7273	0.1	-1.4008e-002
5783	20.896	4.7273	0.1	-1.2714e-002
5784	20.713	4.7273	0.1	-1.1604e-002
5785	20.531	4.7273	0.1	-1.0634e-002
5786	20.348	4.7273	0.1	-9.7745e-003
5787	20.166	4.7273	0.1	-9.0041e-003
5788	19.983	4.7273	0.1	-8.3057e-003
5789	19.8	4.7273	0.1	-7.6541e-003
5790	19.618	4.7273	0.1	-7.0286e-003
5791	19.435	4.7273	0.1	-6.4041e-003
5792	19.253	4.7273	0.1	-5.7327e-003
5793	19.07	4.7273	0.1	-4.9382e-003
5794	18.888	4.7273	0.1	-3.8545e-003
5795	18.705	4.7273	0.1	-2.0227e-003
5796	18.522	4.7273	0.1	2.4891e-003
5797	18.34	4.7273	0.1	4.0652e-002
5798	18.157	4.7273	0.1	2.0619
5799	17.975	4.7273	0.1	4.8049
5800	17.792	4.7273	0.1	7.6191
5801	17.609	4.7273	0.1	10.504
5802	17.427	4.7273	0.1	13.46
5803	17.244	4.7273	0.1	16.489
5804	17.062	4.7273	0.1	19.586
5805	16.879	4.7273	0.1	22.746
5806	16.697	4.7273	0.1	25.957
5807	16.514	4.7273	0.1	29.206
5808	16.331	4.7273	0.1	32.47
5809	16.149	4.7273	0.1	35.722
5810	15.966	4.7273	0.1	38.929
5811	15.784	4.7273	0.1	42.046
5812	15.601	4.7273	0.1	45.023
5813	15.418	4.7273	0.1	47.798
5814	15.236	4.7273	0.1	50.299
5815	15.053	4.7273	0.1	52.443
5816	14.871	4.7273	0.1	54.132
5817	14.688	4.7273	0.1	55.256
5818	14.505	4.7273	0.1	55.682
5819	14.323	4.7273	0.1	55.245
5820	14.14	4.7273	0.1	53.733
5821	13.958	4.7273	0.1	50.848
5822	13.775	4.7273	0.1	46.151
5823	13.593	4.7273	0.1	38.985
5824	13.41	4.7273	0.1	28.477
5825	13.227	4.7273	0.1	14.764
5826	13.045	4.7273	0.1	5.5966
5827	12.862	4.7273	0.1	3.2446
5828	12.68	4.7273	0.1	2.6057
5829	12.497	4.7273	0.1	2.4803
5830	12.314	4.7273	0.1	2.9364
5831	12.132	4.7273	0.1	1.1932
5832	11.949	4.7273	0.1	5.9954
5833	23.817	4.9091	0.1	-0.1174
5834	23.635	4.9091	0.1	-0.27628
5835	23.452	4.9091	0.1	-0.10607
5836	23.27	4.9091	0.1	-9.2095e-002
5837	23.087	4.9091	0.1	-6.3717e-002
5838	22.904	4.9091	0.1	-5.0513e-002
5839	22.722	4.9091	0.1	-3.9819e-002
5840	22.539	4.9091	0.1	-3.2377e-002
5841	22.357	4.9091	0.1	-2.6676e-002
5842	22.174	4.9091	0.1	-2.2309e-002
5843	21.992	4.9091	0.1	-1.8883e-002
5844	21.809	4.9091	0.1	-1.6159e-002
5845	21.626	4.9091	0.1	-1.3964e-002
5846	21.444	4.9091	0.1	-1.2179e-002
5847	21.261	4.9091	0.1	-1.0712e-002
5848	21.079	4.9091	0.1	-9.4911e-003
5849	20.896	4.9091	0.1	-8.4635e-003
5850	20.713	4.9091	0.1	-7.5998e-003
5851	20.531	4.9091	0.1	-6.8634e-003
5852	20.348	4.9091	0.1	-6.2248e-003
5853	20.166	4.9091	0.1	-5.6677e-003
5854	19.983	4.9091	0.1	-5.1709e-003
5855	19.8	4.9091	0.1	-4.7184e-003
5856	19.618	4.9091	0.1	-4.2904e-003
5857	19.435	4.9091	0.1	-3.8673e-003
5858	19.253	4.9091	0.1	-3.4167e-003
5859	19.07	4.9091	0.1	-2.8891e-003
5860	18.888	4.9091	0.1	-2.1883e-003
5861	18.705	4.9091	0.1	-1.0967e-003
5862	18.522	4.9091	0.1	1.0263e-003
5863	18.34	4.9091	0.1	7.2294e-003
5864	18.157	4.9091	0.1	0.12195
5865	17.975	4.9091	0.1	2.2896
5866	17.792	4.9091	0.1	4.7387
5867	17.609	4.9091	0.1	7.238
5868	17.427	4.9091	0.1	9.7819
5869	17.244	4.9091	0.1	12.365
5870	17.062	4.9091	0.1	14.98
5871	16.879	4.9091	0.1	17.614
5872	16.697	4.9091	0.1	20.25
5873	16.514	4.9091	0.1	22.867
5874	16.331	4.9091	0.1	25.436
5875	16.149	4.9091	0.1	27.92
5876	15.966	4.9091	0.1	30.277
5877	15.784	4.9091	0.1	32.454
5878	15.601	4.9091	0.1	34.387
5879	15.418	4.9091	0.1	36.006
5880	15.236	4.9091	0.1	37.227
5881	15.053	4.9091	0.1	37.957
5882	14.871	4.9091	0.1	38.092
5883	14.688	4.9091	0.1	37.517
5884	14.505	4.9091	0.1	36.106
5885	14.323	4.9091	0.1	33.718
5886	14.14	4.9091	0.1	30.193
5887	13.958	4.9091	0.1	25.355
5888	13.775	4.9091	0.1	19.057
5889	13.593	4.9091	0.1	11.592
5890	13.41	4.9091	0.1	5.5144
5891	13.227	4.9091	0.1	3.171
5892	13.045	4.9091	0.1	2.4121
5893	12.862	4.9091	0.1	2.13
5894	12.68	4.9091	0.1	2.0848
5895	12.497	4.9091	0.1	2.0415
5896	12.314	4.9091	0.1	2.5495
5897	12.132	4.9091	0.1	0.87838
5898	11.949	4.9091	0.1	6.8271
5899	23.817	5.0909	0.1	-8.5396e-002
5900	23.635	5.0909	0.1	-0.25667
5901	23.452	5.0909	0.1	-9.1224e-002
5902	23.27	5.0909	0.1	-7.8673e-002
5903	23.087	5.0909	0.1	-5.1554e-002
5904	22.904	5.0909	0.1	-3.9272e-002
5905	22.722	5.0909	0.1	-2.9414e-002
5906	22.539	5.0909	0.1	-2.2732e-002
5907	22.357	5.0909	0.1	-1.7735e-002
5908	22.174	5.0909	0.1	-1.4019e-002
5909	21.992	5.0909	0.1	-1.1189e-002
5910	21.809	5.0909	0.1	-9.0116e-003
5911	21.626	5.0909	0.1	-7.3201e-003
5912	21.444	5.0909	0.1	-5.9919e-003
5913	21.261	5.0909	0.1	-4.9475e-003
5914	21.079	5.0909	0.1	-4.1174e-003
5915	20.896	5.0909	0.1	-3.4482e-003
5916	20.713	5.0909	0.1	-2.9194e-003
5917	20.531	5.0909	0.1	-2.497e-003
5918	20.348	5.0909	0.1	-2.1542e-003
5919	20.166	5.0909	0.1	-1.8777e-003
5920	19.983	5.0909	0.1	-1.6529e-003
5921	19.8	5.0909	0.1	-1.464e-003
5922	19.618	5.0909	0.1	-1.3011e-003
5923	19.435	5.0909	0.1	-1.1497e-003
5924	19.253	5.0909	0.1	-9.9235e-004
5925	19.07	5.0909	0.1	-8.0147e-004
5926	18.888	5.0909	0.1	-5.3598e-004
5927	18.705	5.0909	0.1	-1.1017e-004
5928	18.522	5.0909	0.1	6.6418e-004
5929	18.34	5.0909	0.1	2.3298e-003
5930	18.157	5.0909	0.1	7.2708e-003
5931	17.975	5.0909	0.1	6.2303e-002
5932	17.792	5.0909	0.1	1.7545
5933	17.609	5.0909	0.1	3.8706
5934	17.427	5.0909	0.1	6.0133
5935	17.244	5.0909	0.1	8.1699
5936	17.062	5.0909	0.1	10.328
5937	16.879	5.0909	0.1	12.472
5938	16.697	5.0909	0.1	14.58
5939	16.514	5.0909	0.1	16.626
5940	16.331	5.0909	0.1	18.576
5941	16.149	5.0909	0.1	20.389
5942	15.966	5.0909	0.1	22.016
5943	15.784	5.0909	0.1	23.397
5944	15.601	5.0909	0.1	24.465
5945	15.418	5.0909	0.1	25.141
5946	15.236	5.0909	0.1	25.336
5947	15.053	5.0909	0.1	24.952
5948	14.871	5.0909	0.1	23.884
5949	14.688	5.0909	0.1	22.022
5950	14.505	5.0909	0.1	19.262
5951	14.323	5.0909	0.1	15.518
5952	14.14	5.0909	0.1	10.813
5953	13.958	5.0909	0.1	5.74
5954	13.775	5.0909	0.1	2.6166
5955	13.593	5.0909	0.1	1.6995
5956	13.41	5.0909	0.1	1.4416
5957	13.227	5.0909	0.1	1.3945
5958	13.045	5.0909	0.1	1.4495
5959	12.862	5.0909	0.1	1.5632
5960	12.68	5.0909	0.1	1.7417
5961	12.497	5.0909	0.1	1.8621
5962	12.314	5.0909	0.1	2.255
5963	12.132	5.0909	0.1	1.0838
5964	11.949	5.0909	0.1	5.4346
5965	23.817	5.2727	0.1	-3.3967e-002
5966	23.635	5.2727	0.1	-0.2227
5967	23.452	5.2727	0.1	-6.5244e-002
5968	23.27	5.2727	0.1	-5.5547e-002
5969	23.087	5.2727	0.1	-3.0892e-002
5970	22.904	5.2727	0.1	-2.0627e-002
5971	22.722	5.2727	0.1	-1.2532e-002
5972	22.539	5.2727	0.1	-7.4132e-003
5973	22.357	5.2727	0.1	-3.8028e-003
5974	22.174	5.2727	0.1	-1.3218e-003
5975	21.992	5.2727	0.1	4.1132e-004
5976	21.809	5.2727	0.1	1.6075e-003
5977	21.626	5.2727	0.1	2.4203e-003
5978	21.444	5.2727	0.1	2.9527e-003
5979	21.261	5.2727	0.1	3.2782e-003
5980	21.079	5.2727	0.1	3.4535e-003
5981	20.896	5.2727	0.1	3.519e-003
5982	20.713	5.2727	0.1	3.4902e-003
5983	20.531	5.2727	0.1	3.3951e-003
5984	20.348	5.2727	0.1	3.251e-003
5985	20.166	5.2727	0.1	3.0657e-003
5986	19.983	5.2727	0.1	2.8504e-003
5987	19.8	5.2727	0.1	2.6082e-003
5988	19.618	5.2727	0.1	2.3506e-003
5989	19.435	5.2727	0.1	2.0777e-003
5990	19.253	5.2727	0.1	1.7989e-003
5991	19.07	5.2727	0.1	1.5201e-003
5992	18.888	5.2727	0.1	1.2524e-003
5993	18.705	5.2727	0.1	1.0157e-003
5994	18.522	5.2727	0.1	8.4674e-004
5995	18.34	5.2727	0.1	8.2942e-004
5996	18.157	5.2727	0.1	1.1667e-003
5997	17.975	5.2727	0.1	2.5308e-003
5998	17.792	5.2727	0.1	9.1452e-003
5999	17.609	5.2727	0.1	0.4581
6000	17.427	5.2727	0.1	2.1936
6001	17.244	5.2727	0.1	3.9492
6002	17.062	5.2727	0.1	5.687
6003	16.879	5.2727	0.1	7.3879
6004	16.697	5.2727	0.1	9.0288
6005	16.514	5.2727	0.1	10.581
6006	16.331	5.2727	0.1	12.01
6007	16.149	5.2727	0.1	13.272
6008	15.966	5.2727	0.1	14.316
6009	15.784	5.2727	0.1	15.084
6010	15.601	5.2727	0.1	15.504
6011	15.418	5.2727	0.1	15.498
6012	15.236	5.2727	0.1	14.978
6013	15.053	5.2727	0.1	13.849
6014	14.871	5.2727	0.1	12.014
6015	14.688	5.2727	0.1	9.3911
6016	14.505	5.2727	0.1	5.9843
6017	14.323	5.2727	0.1	2.4475
6018	14.14	5.2727	0.1	0.96919
6019	13.958	5.2727	0.1	0.66603
6020	13.775	5.2727	0.1	0.59708
6021	13.593	5.2727	0.1	0.61042
6022	13.41	5.2727	0.1	0.67503
6023	13.227	5.2727	0.1	0.78607
6024	13.045	5.2727	0.1	0.95005
6025	12.862	5.2727	0.1	1.1715
6026	12.68	5.2727	0.1	1.4753
6027	12.497	5.2727	0.1	1.7704
6028	12.314	5.2727	0.1	2.3303
6029	12.132	5.2727	0.1	1.4261
6030	11.949	5.2727	0.1	5.4229
6031	23.817	5.4545	0.1	2.e-002
6032	23.635	5.4545	0.1	-0.18624
6033	23.452	5.4545	0.1	-3.532e-002
6034	23.27	5.4545	0.1	-3.099e-002
6035	23.087	5.4545	0.1	-9.851e-003
6036	22.904	5.4545	0.1	-2.3636e-003
6037	22.722	5.4545	0.1	3.3057e-003
6038	22.539	5.4545	0.1	6.414e-003
6039	22.357	5.4545	0.1	8.322e-003
6040	22.174	5.4545	0.1	9.3715e-003
6041	21.992	5.4545	0.1	9.8865e-003
6042	21.809	5.4545	0.1	1.0045e-002
6043	21.626	5.4545	0.1	9.9665e-003
6044	21.444	5.4545	0.1	9.7294e-003
6045	21.261	5.4545	0.1	9.3813e-003
6046	21.079	5.4545	0.1	8.9646e-003
6047	20.896	5.4545	0.1	8.5074e-003
6048	20.713	5.4545	0.1	8.0146e-003
6049	20.531	5.4545	0.1	7.4992e-003
6050	20.348	5.4545	0.1	6.9713e-003
6051	20.166	5.4545	0.1	6.4341e-003
6052	19.983	5.4545	0.1	5.8926e-003
6053	19.8	5.4545	0.1	5.3424e-003
6054	19.618	5.4545	0.1	4.7874e-003
6055	19.435	5.4545	0.1	4.2251e-003
6056	19.253	5.4545	0.1	3.6519e-003
6057	19.07	5.4545	0.1	3.0653e-003
6058	18.888	5.4545	0.1	2.467e-003
6059	18.705	5.4545	0.1	1.8473e-003
6060	18.522	5.4545	0.1	1.2087e-003
6061	18.34	5.4545	0.1	5.4686e-004
6062	18.157	5.4545	0.1	-1.4089e-004
6063	17.975	5.4545	0.1	-8.4529e-004
6064	17.792	5.4545	0.1	-1.5479e-003
6065	17.609	5.4545	0.1	-2.1737e-003
6066	17.427	5.4545	0.1	-2.3468e-003
6067	17.244	5.4545	0.1	5.8981e-003
6068	17.062	5.4545	0.1	1.094
6069	16.879	5.4545	0.1	2.4081
6070	16.697	5.4545	0.1	3.6533
6071	16.514	5.4545	0.1	4.8019
6072	16.331	5.4545	0.1	5.8205
6073	16.149	5.4545	0.1	6.6692
6074	15.966	5.4545	0.1	7.3007
6075	15.784	5.4545	0.1	7.6592
6076	15.601	5.4545	0.1	7.6807
6077	15.418	5.4545	0.1	7.293
6078	15.236	5.4545	0.1	6.4179
6079	15.053	5.4545	0.1	4.9791
6080	14.871	5.4545	0.1	2.9514
6081	14.688	5.4545	0.1	0.89903
6082	14.505	5.4545	0.1	0.32876
6083	14.323	5.4545	0.1	0.22717
6084	14.14	5.4545	0.1	0.20265
6085	13.958	5.4545	0.1	0.20678
6086	13.775	5.4545	0.1	0.23007
6087	13.593	5.4545	0.1	0.27236
6088	13.41	5.4545	0.1	0.33844
6089	13.227	5.4545	0.1	0.43772
6090	13.045	5.4545	0.1	0.58871
6091	12.862	5.4545	0.1	0.81757
6092	12.68	5.4545	0.1	1.1949
6093	12.497	5.4545	0.1	1.7146
6094	12.314	5.4545	0.1	2.672
6095	12.132	5.4545	0.1	2.4178
6096	11.949	5.4545	0.1	6.1111
6097	23.817	5.6364	0.1	0.26946
6098	23.635	5.6364	0.1	-1.0067e-002
6099	23.452	5.6364	0.1	9.0293e-002
6100	23.27	5.6364	0.1	7.8042e-002
6101	23.087	5.6364	0.1	8.2293e-002
6102	22.904	5.6364	0.1	7.7521e-002
6103	22.722	5.6364	0.1	7.3214e-002
6104	22.539	5.6364	0.1	6.8184e-002
6105	22.357	5.6364	0.1	6.3291e-002
6106	22.174	5.6364	0.1	5.857e-002
6107	21.992	5.6364	0.1	5.4111e-002
6108	21.809	5.6364	0.1	4.9932e-002
6109	21.626	5.6364	0.1	4.6024e-002
6110	21.444	5.6364	0.1	4.2367e-002
6111	21.261	5.6364	0.1	3.8944e-002
6112	21.079	5.6364	0.1	3.5733e-002
6113	20.896	5.6364	0.1	3.2718e-002
6114	20.713	5.6364	0.1	2.9863e-002
6115	20.531	5.6364	0.1	2.7152e-002
6116	20.348	5.6364	0.1	2.4571e-002
6117	20.166	5.6364	0.1	2.2101e-002
6118	19.983	5.6364	0.1	1.9722e-002
6119	19.8	5.6364	0.1	1.742e-002
6120	19.618	5.6364	0.1	1.5179e-002
6121	19.435	5.6364	0.1	1.2986e-002
6122	19.253	5.6364	0.1	1.0828e-002
6123	19.07	5.6364	0.1	8.6962e-003
6124	18.888	5.6364	0.1	6.5749e-003
6125	18.705	5.6364	0.1	4.459e-003
6126	18.522	5.6364	0.1	2.3388e-003
6127	18.34	5.6364	0.1	2.1005e-004
6128	18.157	5.6364	0.1	-1.9316e-003
6129	17.975	5.6364	0.1	-4.0827e-003
6130	17.792	5.6364	0.1	-6.2393e-003
6131	17.609	5.6364	0.1	-8.3832e-003
6132	17.427	5.6364	0.1	-1.048e-002
6133	17.244	5.6364	0.1	-1.2462e-002
6134	17.062	5.6364	0.1	-1.4174e-002
6135	16.879	5.6364	0.1	-1.5233e-002
6136	16.697	5.6364	0.1	-1.4424e-002
6137	16.514	5.6364	0.1	-5.5601e-003
6138	16.331	5.6364	0.1	0.11255
6139	16.149	5.6364	0.1	0.60822
6140	15.966	5.6364	0.1	1.0026
6141	15.784	5.6364	0.1	1.1796
6142	15.601	5.6364	0.1	1.0909
6143	15.418	5.6364	0.1	0.71848
6144	15.236	5.6364	0.1	0.27167
6145	15.053	5.6364	0.1	0.11832
6146	14.871	5.6364	0.1	8.0686e-002
6147	14.688	5.6364	0.1	7.1323e-002
6148	14.505	5.6364	0.1	7.3669e-002
6149	14.323	5.6364	0.1	8.3325e-002
6150	14.14	5.6364	0.1	9.8996e-002
6151	13.958	5.6364	0.1	0.12057
6152	13.775	5.6364	0.1	0.14861
6153	13.593	5.6364	0.1	0.18454
6154	13.41	5.6364	0.1	0.2314
6155	13.227	5.6364	0.1	0.29552
6156	13.045	5.6364	0.1	0.39295
6157	12.862	5.6364	0.1	0.55502
6158	12.68	5.6364	0.1	0.8815
6159	12.497	5.6364	0.1	1.4935
6160	12.314	5.6364	0.1	3.0339
6161	12.132	5.6364	0.1	4.1378
6162	11.949	5.6364	0.1	8.0604
6163	23.817	5.8182	0.1	0.49756
6164	23.635	5.8182	0.1	0.10793
6165	23.452	5.8182	0.1	0.11993
6166	23.27	5.8182	0.1	8.0687e-002
6167	23.087	5.8182	0.1	6.5455e-002
6168	22.904	5.8182	0.1	5.0387e-002
6169	22.722	5.8182	0.1	3.9914e-002
6170	22.539	5.8182	0.1	3.1588e-002
6171	22.357	5.8182	0.1	2.5146e-002
6172	22.174	5.8182	0.1	2.0047e-002
6173	21.992	5.8182	0.1	1.5998e-002
6174	21.809	5.8182	0.1	1.2755e-002
6175	21.626	5.8182	0.1	1.0151e-002
6176	21.444	5.8182	0.1	8.0573e-003
6177	21.261	5.8182	0.1	6.3695e-003
6178	21.079	5.8182	0.1	5.0166e-003
6179	20.896	5.8182	0.1	3.941e-003
6180	20.713	5.8182	0.1	3.0868e-003
6181	20.531	5.8182	0.1	2.4166e-003
6182	20.348	5.8182	0.1	1.9099e-003
6183	20.166	5.8182	0.1	1.5343e-003
6184	19.983	5.8182	0.1	1.2753e-003
6185	19.8	5.8182	0.1	1.1158e-003
6186	19.618	5.8182	0.1	1.0467e-003
6187	19.435	5.8182	0.1	1.0552e-003
6188	19.253	5.8182	0.1	1.1414e-003
6189	19.07	5.8182	0.1	1.2983e-003
6190	18.888	5.8182	0.1	1.5274e-003
6191	18.705	5.8182	0.1	1.8317e-003
6192	18.522	5.8182	0.1	2.2125e-003
6193	18.34	5.8182	0.1	2.6838e-003
6194	18.157	5.8182	0.1	3.2525e-003
6195	17.975	5.8182	0.1	3.9373e-003
6196	17.792	5.8182	0.1	4.7591e-003
6197	17.609	5.8182	0.1	5.7441e-003
6198	17.427	5.8182	0.1	6.9249e-003
6199	17.244	5.8182	0.1	8.3387e-003
6200	17.062	5.8182	0.1	1.003e-002
6201	16.879	5.8182	0.1	1.2035e-002
6202	16.697	5.8182	0.1	1.4386e-002
6203	16.514	5.8182	0.1	1.7077e-002
6204	16.331	5.8182	0.1	2.0039e-002
6205	16.149	5.8182	0.1	2.3088e-002
6206	15.966	5.8182	0.1	2.588e-002
6207	15.784	5.8182	0.1	2.7897e-002
6208	15.601	5.8182	0.1	2.8544e-002
6209	15.418	5.8182	0.1	2.7372e-002
6210	15.236	5.8182	0.1	2.4338e-002
6211	15.053	5.8182	0.1	1.99e-002
6212	14.871	5.8182	0.1	1.4744e-002
6213	14.688	5.8182	0.1	9.4604e-003
6214	14.505	5.8182	0.1	4.331e-003
6215	14.323	5.8182	0.1	-8.4616e-004
6216	14.14	5.8182	0.1	-6.6373e-003
6217	13.958	5.8182	0.1	-1.3798e-002
6218	13.775	5.8182	0.1	-2.3011e-002
6219	13.593	5.8182	0.1	-3.4226e-002
6220	13.41	5.8182	0.1	-4.5099e-002
6221	13.227	5.8182	0.1	-4.8235e-002
6222	13.045	5.8182	0.1	-2.2978e-002
6223	12.862	5.8182	0.1	7.202e-002
6224	12.68	5.8182	0.1	0.35439
6225	12.497	5.8182	0.1	0.98251
6226	12.314	5.8182	0.1	2.784
6227	12.132	5.8182	0.1	5.6638
6228	11.949	5.8182	0.1	16.253
6229	0.18413	0.18182	0.1	-1.1759
6230	0.18413	0.36364	0.1	820.8
6231	0.18413	0.54545	0.1	1257.3
6232	0.18413	0.72727	0.1	1507.3
6233	0.18413	0.90909	0.1	1664.8
6234	0.18413	1.0909	0.1	1773.4
6235	0.18413	1.2727	0.1	1852.3
6236	0.18413	1.4545	0.1	1911.5
6237	0.18413	1.6364	0.1	1956.8
6238	0.18413	1.8182	0.1	1991.7
6239	0.18413	2.	0.1	2018.8
6240	0.18413	2.1818	0.1	2039.5
6241	0.18413	2.3636	0.1	2055.1
6242	0.18413	2.5455	0.1	2066.1
6243	0.18413	2.7273	0.1	2073.3
6244	0.18413	2.9091	0.1	2076.7
6245	0.18413	3.0909	0.1	2076.7
6246	0.18413	3.2727	0.1	2073.3
6247	0.18413	3.4545	0.1	2066.1
6248	0.18413	3.6364	0.1	2055.1
6249	0.18413	3.8182	0.1	2039.5
6250	0.18413	4.	0.1	2018.8
6251	0.18413	4.1818	0.1	1991.7
6252	0.18413	4.3636	0.1	1956.8
6253	0.18413	4.5455	0.1	1911.5
6254	0.18413	4.7273	0.1	1852.3
6255	0.18413	4.9091	0.1	1773.4
6256	0.18413	5.0909	0.1	1664.8
6257	0.18413	5.2727	0.1	1507.3
6258	0.18413	5.4545	0.1	1257.3
6259	0.18413	5.6364	0.1	820.8
6260	0.18413	5.8182	0.1	-1.1757
6261	0.36825	0.18182	0.1	81.595
6262	0.36825	0.36364	0.1	659.49
6263	0.36825	0.54545	0.1	1218.8
6264	0.36825	0.72727	0.1	1592.3
6265	0.36825	0.90909	0.1	1840.4
6266	0.36825	1.0909	0.1	2010.6
6267	0.36825	1.2727	0.1	2132.2
6268	0.36825	1.4545	0.1	2221.9
6269	0.36825	1.6364	0.1	2289.7
6270	0.36825	1.8182	0.1	2341.5
6271	0.36825	2.	0.1	2381.3
6272	0.36825	2.1818	0.1	2411.6
6273	0.36825	2.3636	0.1	2434.2
6274	0.36825	2.5455	0.1	2450.2
6275	0.36825	2.7273	0.1	2460.5
6276	0.36825	2.9091	0.1	2465.6
6277	0.36825	3.0909	0.1	2465.6
6278	0.36825	3.2727	0.1	2460.5
6279	0.36825	3.4545	0.1	2450.2
6280	0.36825	3.6364	0.1	2434.2
6281	0.36825	3.8182	0.1	2411.6
6282	0.36825	4.	0.1	2381.3
6283	0.36825	4.1818	0.1	2341.5
6284	0.36825	4.3636	0.1	2289.7
6285	0.36825	4.5455	0.1	2221.9
6286	0.36825	4.7273	0.1	2132.2
6287	0.36825	4.9091	0.1	2010.6
6288	0.36825	5.0909	0.1	1840.4
6289	0.36825	5.2727	0.1	1592.3
6290	0.36825	5.4545	0.1	1218.8
6291	0.36825	5.6364	0.1	659.49
6292	0.36825	5.8182	0.1	81.595
6293	0.55238	0.18182	0.1	0.67716
6294	0.55238	0.36364	0.1	411.82
6295	0.55238	0.54545	0.1	860.13
6296	0.55238	0.72727	0.1	1223.4
6297	0.55238	0.90909	0.1	1494.7
6298	0.55238	1.0909	0.1	1692.8
6299	0.55238	1.2727	0.1	1838.2
6300	0.55238	1.4545	0.1	1946.5
6301	0.55238	1.6364	0.1	2028.3
6302	0.55238	1.8182	0.1	2090.8
6303	0.55238	2.	0.1	2138.5
6304	0.55238	2.1818	0.1	2174.8
6305	0.55238	2.3636	0.1	2201.7
6306	0.55238	2.5455	0.1	2220.8
6307	0.55238	2.7273	0.1	2233.1
6308	0.55238	2.9091	0.1	2239.
6309	0.55238	3.0909	0.1	2239.
6310	0.55238	3.2727	0.1	2233.1
6311	0.55238	3.4545	0.1	2220.8
6312	0.55238	3.6364	0.1	2201.7
6313	0.55238	3.8182	0.1	2174.8
6314	0.55238	4.	0.1	2138.5
6315	0.55238	4.1818	0.1	2090.8
6316	0.55238	4.3636	0.1	2028.3
6317	0.55238	4.5455	0.1	1946.5
6318	0.55238	4.7273	0.1	1838.2
6319	0.55238	4.9091	0.1	1692.8
6320	0.55238	5.0909	0.1	1494.7
6321	0.55238	5.2727	0.1	1223.4
6322	0.55238	5.4545	0.1	860.13
6323	0.55238	5.6364	0.1	411.82
6324	0.55238	5.8182	0.1	0.67718
6325	0.73651	0.18182	0.1	18.355
6326	0.73651	0.36364	0.1	337.39
6327	0.73651	0.54545	0.1	706.89
6328	0.73651	0.72727	0.1	1037.2
6329	0.73651	0.90909	0.1	1308.9
6330	0.73651	1.0909	0.1	1522.2
6331	0.73651	1.2727	0.1	1686.7
6332	0.73651	1.4545	0.1	1813.
6333	0.73651	1.6364	0.1	1910.1
6334	0.73651	1.8182	0.1	1984.8
6335	0.73651	2.	0.1	2042.3
6336	0.73651	2.1818	0.1	2086.1
6337	0.73651	2.3636	0.1	2118.7
6338	0.73651	2.5455	0.1	2141.8
6339	0.73651	2.7273	0.1	2156.6
6340	0.73651	2.9091	0.1	2163.8
6341	0.73651	3.0909	0.1	2163.8
6342	0.73651	3.2727	0.1	2156.6
6343	0.73651	3.4545	0.1	2141.8
6344	0.73651	3.6364	0.1	2118.7
6345	0.73651	3.8182	0.1	2086.1
6346	0.73651	4.	0.1	2042.3
6347	0.73651	4.1818	0.1	1984.9
6348	0.73651	4.3636	0.1	1910.1
6349	0.73651	4.5455	0.1	1813.
6350	0.73651	4.7273	0.1	1686.7
6351	0.73651	4.9091	0.1	1522.2
6352	0.73651	5.0909	0.1	1308.9
6353	0.73651	5.2727	0.1	1037.2
6354	0.73651	5.4545	0.1	706.89
6355	0.73651	5.6364	0.1	337.39
6356	0.73651	5.8182	0.1	18.355
6357	0.92063	0.18182	0.1	14.265
6358	0.92063	0.36364	0.1	283.75
6359	0.92063	0.54545	0.1	588.54
6360	0.92063	0.72727	0.1	876.39
6361	0.92063	0.90909	0.1	1129.4
6362	0.92063	1.0909	0.1	1340.8
6363	0.92063	1.2727	0.1	1512.
6364	0.92063	1.4545	0.1	1648.4
6365	0.92063	1.6364	0.1	1756.1
6366	0.92063	1.8182	0.1	1840.5
6367	0.92063	2.	0.1	1906.2
6368	0.92063	2.1818	0.1	1956.7
6369	0.92063	2.3636	0.1	1994.4
6370	0.92063	2.5455	0.1	2021.2
6371	0.92063	2.7273	0.1	2038.4
6372	0.92063	2.9091	0.1	2046.9
6373	0.92063	3.0909	0.1	2046.9
6374	0.92063	3.2727	0.1	2038.4
6375	0.92063	3.4545	0.1	2021.2
6376	0.92063	3.6364	0.1	1994.4
6377	0.92063	3.8182	0.1	1956.7
6378	0.92063	4.	0.1	1906.2
6379	0.92063	4.1818	0.1	1840.5
6380	0.92063	4.3636	0.1	1756.1
6381	0.92063	4.5455	0.1	1648.4
6382	0.92063	4.7273	0.1	1512.
6383	0.92063	4.9091	0.1	1340.8
6384	0.92063	5.0909	0.1	1129.4
6385	0.92063	5.2727	0.1	876.39
6386	0.92063	5.4545	0.1	588.54
6387	0.92063	5.6364	0.1	283.75
6388	0.92063	5.8182	0.1	14.265
6389	1.1048	0.18182	0.1	17.413
6390	1.1048	0.36364	0.1	253.87
6391	1.1048	0.54545	0.1	512.4
6392	1.1048	0.72727	0.1	763.24
6393	1.1048	0.90909	0.1	993.22
6394	1.1048	1.0909	0.1	1194.2
6395	1.1048	1.2727	0.1	1363.9
6396	1.1048	1.4545	0.1	1504.
6397	1.1048	1.6364	0.1	1617.7
6398	1.1048	1.8182	0.1	1708.9
6399	1.1048	2.	0.1	1781.
6400	1.1048	2.1818	0.1	1836.9
6401	1.1048	2.3636	0.1	1879.1
6402	1.1048	2.5455	0.1	1909.3
6403	1.1048	2.7273	0.1	1928.8
6404	1.1048	2.9091	0.1	1938.3
6405	1.1048	3.0909	0.1	1938.3
6406	1.1048	3.2727	0.1	1928.8
6407	1.1048	3.4545	0.1	1909.3
6408	1.1048	3.6364	0.1	1879.1
6409	1.1048	3.8182	0.1	1836.9
6410	1.1048	4.	0.1	1781.
6411	1.1048	4.1818	0.1	1708.9
6412	1.1048	4.3636	0.1	1617.7
6413	1.1048	4.5455	0.1	1504.
6414	1.1048	4.7273	0.1	1363.9
6415	1.1048	4.9091	0.1	1194.2
6416	1.1048	5.0909	0.1	993.22
6417	1.1048	5.2727	0.1	763.24
6418	1.1048	5.4545	0.1	512.4
6419	1.1048	5.6364	0.1	253.87
6420	1.1048	5.8182	0.1	17.413
6421	1.2889	0.18182	0.1	20.586
6422	1.2889	0.36364	0.1	232.54
6423	1.2889	0.54545	0.1	455.82
6424	1.2889	0.72727	0.1	675.56
6425	1.2889	0.90909	0.1	882.45
6426	1.2889	1.0909	0.1	1069.2
6427	1.2889	1.2727	0.1	1232.1
6428	1.2889	1.4545	0.1	1370.7
6429	1.2889	1.6364	0.1	1486.2
6430	1.2889	1.8182	0.1	1580.8
6431	1.2889	2.	0.1	1656.8
6432	1.2889	2.1818	0.1	1716.7
6433	1.2889	2.3636	0.1	1762.3
6434	1.2889	2.5455	0.1	1795.1
6435	1.2889	2.7273	0.1	1816.4
6436	1.2889	2.9091	0.1	1826.9
6437	1.2889	3.0909	0.1	1826.9
6438	1.2889	3.2727	0.1	1816.4
6439	1.2889	3.4545	0.1	1795.1
6440	1.2889	3.6364	0.1	1762.3
6441	1.2889	3.8182	0.1	1716.7
6442	1.2889	4.	0.1	1656.8
6443	1.2889	4.1818	0.1	1580.8
6444	1.2889	4.3636	0.1	1486.2
6445	1.2889	4.5455	0.1	1370.7
6446	1.2889	4.7273	0.1	1232.1
6447	1.2889	4.9091	0.1	1069.2
6448	1.2889	5.0909	0.1	882.45
6449	1.2889	5.2727	0.1	675.56
6450	1.2889	5.4545	0.1	455.82
6451	1.2889	5.6364	0.1	232.54
6452	1.2889	5.8182	0.1	20.586
6453	1.473	0.18182	0.1	25.383
6454	1.473	0.36364	0.1	216.91
6455	1.473	0.54545	0.1	412.84
6456	1.473	0.72727	0.1	607.01
6457	1.473	0.90909	0.1	792.88
6458	1.473	1.0909	0.1	964.43
6459	1.473	1.2727	0.1	1117.9
6460	1.473	1.4545	0.1	1251.6
6461	1.473	1.6364	0.1	1365.6
6462	1.473	1.8182	0.1	1460.8
6463	1.473	2.	0.1	1538.6
6464	1.473	2.1818	0.1	1600.7
6465	1.473	2.3636	0.1	1648.4
6466	1.473	2.5455	0.1	1683.1
6467	1.473	2.7273	0.1	1705.7
6468	1.473	2.9091	0.1	1716.9
6469	1.473	3.0909	0.1	1716.9
6470	1.473	3.2727	0.1	1705.7
6471	1.473	3.4545	0.1	1683.1
6472	1.473	3.6364	0.1	1648.4
6473	1.473	3.8182	0.1	1600.7
6474	1.473	4.	0.1	1538.6
6475	1.473	4.1818	0.1	1460.8
6476	1.473	4.3636	0.1	1365.6
6477	1.473	4.5455	0.1	1251.6
6478	1.473	4.7273	0.1	1117.9
6479	1.473	4.9091	0.1	964.43
6480	1.473	5.0909	0.1	792.88
6481	1.473	5.2727	0.1	607.01
6482	1.473	5.4545	0.1	412.84
6483	1.473	5.6364	0.1	216.91
6484	1.473	5.8182	0.1	25.383
6485	1.6571	0.18182	0.1	30.77
6486	1.6571	0.36364	0.1	204.29
6487	1.6571	0.54545	0.1	378.28
6488	1.6571	0.72727	0.1	551.24
6489	1.6571	0.90909	0.1	718.53
6490	1.6571	1.0909	0.1	875.35
6491	1.6571	1.2727	0.1	1018.2
6492	1.6571	1.4545	0.1	1145.1
6493	1.6571	1.6364	0.1	1255.3
6494	1.6571	1.8182	0.1	1348.9
6495	1.6571	2.	0.1	1426.6
6496	1.6571	2.1818	0.1	1489.3
6497	1.6571	2.3636	0.1	1538.
6498	1.6571	2.5455	0.1	1573.7
6499	1.6571	2.7273	0.1	1597.1
6500	1.6571	2.9091	0.1	1608.6
6501	1.6571	3.0909	0.1	1608.6
6502	1.6571	3.2727	0.1	1597.1
6503	1.6571	3.4545	0.1	1573.7
6504	1.6571	3.6364	0.1	1538.
6505	1.6571	3.8182	0.1	1489.3
6506	1.6571	4.	0.1	1426.6
6507	1.6571	4.1818	0.1	1348.9
6508	1.6571	4.3636	0.1	1255.3
6509	1.6571	4.5455	0.1	1145.1
6510	1.6571	4.7273	0.1	1018.2
6511	1.6571	4.9091	0.1	875.35
6512	1.6571	5.0909	0.1	718.53
6513	1.6571	5.2727	0.1	551.24
6514	1.6571	5.4545	0.1	378.28
6515	1.6571	5.6364	0.1	204.29
6516	1.6571	5.8182	0.1	30.77
6517	1.8413	0.18182	0.1	36.041
6518	1.8413	0.36364	0.1	193.54
6519	1.8413	0.54545	0.1	349.48
6520	1.8413	0.72727	0.1	504.64
6521	1.8413	0.90909	0.1	655.67
6522	1.8413	1.0909	0.1	798.75
6523	1.8413	1.2727	0.1	930.88
6524	1.8413	1.4545	0.1	1050.
6525	1.8413	1.6364	0.1	1155.
6526	1.8413	1.8182	0.1	1245.4
6527	1.8413	2.	0.1	1321.4
6528	1.8413	2.1818	0.1	1383.4
6529	1.8413	2.3636	0.1	1432.1
6530	1.8413	2.5455	0.1	1468.
6531	1.8413	2.7273	0.1	1491.6
6532	1.8413	2.9091	0.1	1503.3
6533	1.8413	3.0909	0.1	1503.3
6534	1.8413	3.2727	0.1	1491.6
6535	1.8413	3.4545	0.1	1468.
6536	1.8413	3.6364	0.1	1432.1
6537	1.8413	3.8182	0.1	1383.4
6538	1.8413	4.	0.1	1321.4
6539	1.8413	4.1818	0.1	1245.4
6540	1.8413	4.3636	0.1	1155.
6541	1.8413	4.5455	0.1	1050.
6542	1.8413	4.7273	0.1	930.88
6543	1.8413	4.9091	0.1	798.75
6544	1.8413	5.0909	0.1	655.67
6545	1.8413	5.2727	0.1	504.64
6546	1.8413	5.4545	0.1	349.48
6547	1.8413	5.6364	0.1	193.54
6548	1.8413	5.8182	0.1	36.041
6549	2.0254	0.18182	0.1	40.642
6550	2.0254	0.36364	0.1	183.9
6551	2.0254	0.54545	0.1	324.65
6552	2.0254	0.72727	0.1	464.65
6553	2.0254	0.90909	0.1	601.45
6554	2.0254	1.0909	0.1	731.99
6555	2.0254	1.2727	0.1	853.7
6556	2.0254	1.4545	0.1	964.67
6557	2.0254	1.6364	0.1	1063.6
6558	2.0254	1.8182	0.1	1149.8
6559	2.0254	2.	0.1	1223.
6560	2.0254	2.1818	0.1	1283.4
6561	2.0254	2.3636	0.1	1331.1
6562	2.0254	2.5455	0.1	1366.5
6563	2.0254	2.7273	0.1	1389.9
6564	2.0254	2.9091	0.1	1401.6
6565	2.0254	3.0909	0.1	1401.6
6566	2.0254	3.2727	0.1	1389.9
6567	2.0254	3.4545	0.1	1366.5
6568	2.0254	3.6364	0.1	1331.1
6569	2.0254	3.8182	0.1	1283.4
6570	2.0254	4.	0.1	1223.
6571	2.0254	4.1818	0.1	1149.8
6572	2.0254	4.3636	0.1	1063.6
6573	2.0254	4.5455	0.1	964.67
6574	2.0254	4.7273	0.1	853.7
6575	2.0254	4.9091	0.1	731.99
6576	2.0254	5.0909	0.1	601.45
6577	2.0254	5.2727	0.1	464.65
6578	2.0254	5.4545	0.1	324.65
6579	2.0254	5.6364	0.1	183.9
6580	2.0254	5.8182	0.1	40.642
6581	2.2095	0.18182	0.1	44.351
6582	2.2095	0.36364	0.1	174.95
6583	2.2095	0.54545	0.1	302.69
6584	2.2095	0.72727	0.1	429.61
6585	2.2095	0.90909	0.1	553.88
6586	2.2095	1.0909	0.1	673.04
6587	2.2095	1.2727	0.1	784.93
6588	2.2095	1.4545	0.1	887.79
6589	2.2095	1.6364	0.1	980.32
6590	2.2095	1.8182	0.1	1061.7
6591	2.2095	2.	0.1	1131.4
6592	2.2095	2.1818	0.1	1189.4
6593	2.2095	2.3636	0.1	1235.5
6594	2.2095	2.5455	0.1	1269.9
6595	2.2095	2.7273	0.1	1292.7
6596	2.2095	2.9091	0.1	1304.1
6597	2.2095	3.0909	0.1	1304.1
6598	2.2095	3.2727	0.1	1292.7
6599	2.2095	3.4545	0.1	1269.9
6600	2.2095	3.6364	0.1	1235.5
6601	2.2095	3.8182	0.1	1189.4
6602	2.2095	4.	0.1	1131.4
6603	2.2095	4.1818	0.1	1061.7
6604	2.2095	4.3636	0.1	980.32
6605	2.2095	4.5455	0.1	887.79
6606	2.2095	4.7273	0.1	784.93
6607	2.2095	4.9091	0.1	673.04
6608	2.2095	5.0909	0.1	553.88
6609	2.2095	5.2727	0.1	429.61
6610	2.2095	5.4545	0.1	302.69
6611	2.2095	5.6364	0.1	174.95
6612	2.2095	5.8182	0.1	44.351
6613	2.3937	0.18182	0.1	47.123
6614	2.3937	0.36364	0.1	166.44
6615	2.3937	0.54545	0.1	282.84
6616	2.3937	0.72727	0.1	398.34
6617	2.3937	0.90909	0.1	511.53
6618	2.3937	1.0909	0.1	620.41
6619	2.3937	1.2727	0.1	723.13
6620	2.3937	1.4545	0.1	818.16
6621	2.3937	1.6364	0.1	904.24
6622	2.3937	1.8182	0.1	980.48
6623	2.3937	2.	0.1	1046.3
6624	2.3937	2.1818	0.1	1101.3
6625	2.3937	2.3636	0.1	1145.3
6626	2.3937	2.5455	0.1	1178.3
6627	2.3937	2.7273	0.1	1200.3
6628	2.3937	2.9091	0.1	1211.2
6629	2.3937	3.0909	0.1	1211.2
6630	2.3937	3.2727	0.1	1200.3
6631	2.3937	3.4545	0.1	1178.3
6632	2.3937	3.6364	0.1	1145.3
6633	2.3937	3.8182	0.1	1101.3
6634	2.3937	4.	0.1	1046.3
6635	2.3937	4.1818	0.1	980.48
6636	2.3937	4.3636	0.1	904.24
6637	2.3937	4.5455	0.1	818.16
6638	2.3937	4.7273	0.1	723.13
6639	2.3937	4.9091	0.1	620.41
6640	2.3937	5.0909	0.1	511.53
6641	2.3937	5.2727	0.1	398.34
6642	2.3937	5.4545	0.1	282.84
6643	2.3937	5.6364	0.1	166.44
6644	2.3937	5.8182	0.1	47.123
6645	2.5778	0.18182	0.1	49.008
6646	2.5778	0.36364	0.1	158.22
6647	2.5778	0.54545	0.1	264.63
6648	2.5778	0.72727	0.1	370.05
6649	2.5778	0.90909	0.1	473.37
6650	2.5778	1.0909	0.1	572.94
6651	2.5778	1.2727	0.1	667.2
6652	2.5778	1.4545	0.1	754.78
6653	2.5778	1.6364	0.1	834.54
6654	2.5778	1.8182	0.1	905.56
6655	2.5778	2.	0.1	967.19
6656	2.5778	2.1818	0.1	1019.
6657	2.5778	2.3636	0.1	1060.6
6658	2.5778	2.5455	0.1	1091.9
6659	2.5778	2.7273	0.1	1112.8
6660	2.5778	2.9091	0.1	1123.3
6661	2.5778	3.0909	0.1	1123.3
6662	2.5778	3.2727	0.1	1112.8
6663	2.5778	3.4545	0.1	1091.9
6664	2.5778	3.6364	0.1	1060.6
6665	2.5778	3.8182	0.1	1019.
6666	2.5778	4.	0.1	967.19
6667	2.5778	4.1818	0.1	905.56
6668	2.5778	4.3636	0.1	834.54
6669	2.5778	4.5455	0.1	754.78
6670	2.5778	4.7273	0.1	667.2
6671	2.5778	4.9091	0.1	572.94
6672	2.5778	5.0909	0.1	473.37
6673	2.5778	5.2727	0.1	370.05
6674	2.5778	5.4545	0.1	264.63
6675	2.5778	5.6364	0.1	158.22
6676	2.5778	5.8182	0.1	49.008
6677	2.7619	0.18182	0.1	50.092
6678	2.7619	0.36364	0.1	150.21
6679	2.7619	0.54545	0.1	247.71
6680	2.7619	0.72727	0.1	344.15
6681	2.7619	0.90909	0.1	438.63
6682	2.7619	1.0909	0.1	529.77
6683	2.7619	1.2727	0.1	616.24
6684	2.7619	1.4545	0.1	696.84
6685	2.7619	1.6364	0.1	770.51
6686	2.7619	1.8182	0.1	836.39
6687	2.7619	2.	0.1	893.8
6688	2.7619	2.1818	0.1	942.23
6689	2.7619	2.3636	0.1	981.31
6690	2.7619	2.5455	0.1	1010.8
6691	2.7619	2.7273	0.1	1030.5
6692	2.7619	2.9091	0.1	1040.4
6693	2.7619	3.0909	0.1	1040.4
6694	2.7619	3.2727	0.1	1030.5
6695	2.7619	3.4545	0.1	1010.8
6696	2.7619	3.6364	0.1	981.31
6697	2.7619	3.8182	0.1	942.23
6698	2.7619	4.	0.1	893.8
6699	2.7619	4.1818	0.1	836.39
6700	2.7619	4.3636	0.1	770.51
6701	2.7619	4.5455	0.1	696.84
6702	2.7619	4.7273	0.1	616.24
6703	2.7619	4.9091	0.1	529.77
6704	2.7619	5.0909	0.1	438.63
6705	2.7619	5.2727	0.1	344.15
6706	2.7619	5.4545	0.1	247.71
6707	2.7619	5.6364	0.1	150.21
6708	2.7619	5.8182	0.1	50.092
6709	2.946	0.18182	0.1	50.474
6710	2.946	0.36364	0.1	142.36
6711	2.946	0.54545	0.1	231.87
6712	2.946	0.72727	0.1	320.25
6713	2.946	0.90909	0.1	406.77
6714	2.946	1.0909	0.1	490.25
6715	2.946	1.2727	0.1	569.57
6716	2.946	1.4545	0.1	643.66
6717	2.946	1.6364	0.1	711.57
6718	2.946	1.8182	0.1	772.48
6719	2.946	2.	0.1	825.72
6720	2.946	2.1818	0.1	870.77
6721	2.946	2.3636	0.1	907.23
6722	2.946	2.5455	0.1	934.8
6723	2.946	2.7273	0.1	953.27
6724	2.946	2.9091	0.1	962.54
6725	2.946	3.0909	0.1	962.54
6726	2.946	3.2727	0.1	953.27
6727	2.946	3.4545	0.1	934.8
6728	2.946	3.6364	0.1	907.23
6729	2.946	3.8182	0.1	870.77
6730	2.946	4.	0.1	825.72
6731	2.946	4.1818	0.1	772.48
6732	2.946	4.3636	0.1	711.57
6733	2.946	4.5455	0.1	643.66
6734	2.946	4.7273	0.1	569.57
6735	2.946	4.9091	0.1	490.25
6736	2.946	5.0909	0.1	406.77
6737	2.946	5.2727	0.1	320.25
6738	2.946	5.4545	0.1	231.87
6739	2.946	5.6364	0.1	142.36
6740	2.946	5.8182	0.1	50.474
6741	3.1302	0.18182	0.1	50.252
6742	3.1302	0.36364	0.1	134.68
6743	3.1302	0.54545	0.1	216.95
6744	3.1302	0.72727	0.1	298.05
6745	3.1302	0.90909	0.1	377.36
6746	3.1302	1.0909	0.1	453.89
6747	3.1302	1.2727	0.1	526.65
6748	3.1302	1.4545	0.1	594.7
6749	3.1302	1.6364	0.1	657.19
6750	3.1302	1.8182	0.1	713.36
6751	3.1302	2.	0.1	762.58
6752	3.1302	2.1818	0.1	804.32
6753	3.1302	2.3636	0.1	838.17
6754	3.1302	2.5455	0.1	863.81
6755	3.1302	2.7273	0.1	881.02
6756	3.1302	2.9091	0.1	889.66
6757	3.1302	3.0909	0.1	889.66
6758	3.1302	3.2727	0.1	881.02
6759	3.1302	3.4545	0.1	863.81
6760	3.1302	3.6364	0.1	838.17
6761	3.1302	3.8182	0.1	804.32
6762	3.1302	4.	0.1	762.58
6763	3.1302	4.1818	0.1	713.36
6764	3.1302	4.3636	0.1	657.19
6765	3.1302	4.5455	0.1	594.7
6766	3.1302	4.7273	0.1	526.65
6767	3.1302	4.9091	0.1	453.89
6768	3.1302	5.0909	0.1	377.36
6769	3.1302	5.2727	0.1	298.05
6770	3.1302	5.4545	0.1	216.95
6771	3.1302	5.6364	0.1	134.68
6772	3.1302	5.8182	0.1	50.252
6773	3.3143	0.18182	0.1	49.52
6774	3.3143	0.36364	0.1	127.14
6775	3.3143	0.54545	0.1	202.83
6776	3.3143	0.72727	0.1	277.33
6777	3.3143	0.90909	0.1	350.1
6778	3.3143	1.0909	0.1	420.29
6779	3.3143	1.2727	0.1	487.03
6780	3.3143	1.4545	0.1	549.5
6781	3.3143	1.6364	0.1	606.94
6782	3.3143	1.8182	0.1	658.65
6783	3.3143	2.	0.1	704.03
6784	3.3143	2.1818	0.1	742.58
6785	3.3143	2.3636	0.1	773.89
6786	3.3143	2.5455	0.1	797.64
6787	3.3143	2.7273	0.1	813.6
6788	3.3143	2.9091	0.1	821.61
6789	3.3143	3.0909	0.1	821.61
6790	3.3143	3.2727	0.1	813.6
6791	3.3143	3.4545	0.1	797.64
6792	3.3143	3.6364	0.1	773.89
6793	3.3143	3.8182	0.1	742.58
6794	3.3143	4.	0.1	704.03
6795	3.3143	4.1818	0.1	658.65
6796	3.3143	4.3636	0.1	606.94
6797	3.3143	4.5455	0.1	549.5
6798	3.3143	4.7273	0.1	487.03
6799	3.3143	4.9091	0.1	420.29
6800	3.3143	5.0909	0.1	350.1
6801	3.3143	5.2727	0.1	277.33
6802	3.3143	5.4545	0.1	202.83
6803	3.3143	5.6364	0.1	127.14
6804	3.3143	5.8182	0.1	49.52
6805	3.4984	0.18182	0.1	48.366
6806	3.4984	0.36364	0.1	119.77
6807	3.4984	0.54545	0.1	189.46
6808	3.4984	0.72727	0.1	257.93
6809	3.4984	0.90909	0.1	324.75
6810	3.4984	1.0909	0.1	389.14
6811	3.4984	1.2727	0.1	450.37
6812	3.4984	1.4545	0.1	507.7
6813	3.4984	1.6364	0.1	560.45
6814	3.4984	1.8182	0.1	607.98
6815	3.4984	2.	0.1	649.75
6816	3.4984	2.1818	0.1	685.27
6817	3.4984	2.3636	0.1	714.14
6818	3.4984	2.5455	0.1	736.07
6819	3.4984	2.7273	0.1	750.81
6820	3.4984	2.9091	0.1	758.22
6821	3.4984	3.0909	0.1	758.22
6822	3.4984	3.2727	0.1	750.81
6823	3.4984	3.4545	0.1	736.07
6824	3.4984	3.6364	0.1	714.14
6825	3.4984	3.8182	0.1	685.27
6826	3.4984	4.	0.1	649.75
6827	3.4984	4.1818	0.1	607.98
6828	3.4984	4.3636	0.1	560.45
6829	3.4984	4.5455	0.1	507.7
6830	3.4984	4.7273	0.1	450.37
6831	3.4984	4.9091	0.1	389.14
6832	3.4984	5.0909	0.1	324.75
6833	3.4984	5.2727	0.1	257.93
6834	3.4984	5.4545	0.1	189.46
6835	3.4984	5.6364	0.1	119.77
6836	3.4984	5.8182	0.1	48.366
6837	3.6825	0.18182	0.1	46.866
6838	3.6825	0.36364	0.1	112.58
6839	3.6825	0.54545	0.1	176.76
6840	3.6825	0.72727	0.1	239.73
6841	3.6825	0.90909	0.1	301.1
6842	3.6825	1.0909	0.1	360.2
6843	3.6825	1.2727	0.1	416.38
6844	3.6825	1.4545	0.1	468.98
6845	3.6825	1.6364	0.1	517.39
6846	3.6825	1.8182	0.1	561.04
6847	3.6825	2.	0.1	599.42
6848	3.6825	2.1818	0.1	632.09
6849	3.6825	2.3636	0.1	658.67
6850	3.6825	2.5455	0.1	678.86
6851	3.6825	2.7273	0.1	692.45
6852	3.6825	2.9091	0.1	699.28
6853	3.6825	3.0909	0.1	699.28
6854	3.6825	3.2727	0.1	692.45
6855	3.6825	3.4545	0.1	678.86
6856	3.6825	3.6364	0.1	658.67
6857	3.6825	3.8182	0.1	632.09
6858	3.6825	4.	0.1	599.42
6859	3.6825	4.1818	0.1	561.04
6860	3.6825	4.3636	0.1	517.39
6861	3.6825	4.5455	0.1	468.98
6862	3.6825	4.7273	0.1	416.38
6863	3.6825	4.9091	0.1	360.2
6864	3.6825	5.0909	0.1	301.1
6865	3.6825	5.2727	0.1	239.73
6866	3.6825	5.4545	0.1	176.76
6867	3.6825	5.6364	0.1	112.58
6868	3.6825	5.8182	0.1	46.866
6869	3.8667	0.18182	0.1	45.092
6870	3.8667	0.36364	0.1	105.58
6871	3.8667	0.54545	0.1	164.7
6872	3.8667	0.72727	0.1	222.63
6873	3.8667	0.90909	0.1	279.01
6874	3.8667	1.0909	0.1	333.27
6875	3.8667	1.2727	0.1	384.81
6876	3.8667	1.4545	0.1	433.07
6877	3.8667	1.6364	0.1	477.48
6878	3.8667	1.8182	0.1	517.54
6879	3.8667	2.	0.1	552.77
6880	3.8667	2.1818	0.1	582.77
6881	3.8667	2.3636	0.1	607.2
6882	3.8667	2.5455	0.1	625.76
6883	3.8667	2.7273	0.1	638.26
6884	3.8667	2.9091	0.1	644.54
6885	3.8667	3.0909	0.1	644.54
6886	3.8667	3.2727	0.1	638.26
6887	3.8667	3.4545	0.1	625.76
6888	3.8667	3.6364	0.1	607.2
6889	3.8667	3.8182	0.1	582.77
6890	3.8667	4.	0.1	552.77
6891	3.8667	4.1818	0.1	517.54
6892	3.8667	4.3636	0.1	477.48
6893	3.8667	4.5455	0.1	433.07
6894	3.8667	4.7273	0.1	384.81
6895	3.8667	4.9091	0.1	333.27
6896	3.8667	5.0909	0.1	279.01
6897	3.8667	5.2727	0.1	222.63
6898	3.8667	5.4545	0.1	164.7
6899	3.8667	5.6364	0.1	105.58
6900	3.8667	5.8182	0.1	45.092
6901	4.0508	0.18182	0.1	43.103
6902	4.0508	0.36364	0.1	98.785
6903	4.0508	0.54545	0.1	153.24
6904	4.0508	0.72727	0.1	206.54
6905	4.0508	0.90909	0.1	258.36
6906	4.0508	1.0909	0.1	308.18
6907	4.0508	1.2727	0.1	355.47
6908	4.0508	1.4545	0.1	399.73
6909	4.0508	1.6364	0.1	440.47
6910	4.0508	1.8182	0.1	477.21
6911	4.0508	2.	0.1	509.53
6912	4.0508	2.1818	0.1	537.06
6913	4.0508	2.3636	0.1	559.48
6914	4.0508	2.5455	0.1	576.53
6915	4.0508	2.7273	0.1	588.
6916	4.0508	2.9091	0.1	593.77
6917	4.0508	3.0909	0.1	593.77
6918	4.0508	3.2727	0.1	588.
6919	4.0508	3.4545	0.1	576.53
6920	4.0508	3.6364	0.1	559.48
6921	4.0508	3.8182	0.1	537.06
6922	4.0508	4.	0.1	509.53
6923	4.0508	4.1818	0.1	477.21
6924	4.0508	4.3636	0.1	440.47
6925	4.0508	4.5455	0.1	399.73
6926	4.0508	4.7273	0.1	355.47
6927	4.0508	4.9091	0.1	308.18
6928	4.0508	5.0909	0.1	258.36
6929	4.0508	5.2727	0.1	206.54
6930	4.0508	5.4545	0.1	153.24
6931	4.0508	5.6364	0.1	98.785
6932	4.0508	5.8182	0.1	43.103
6933	4.2349	0.18182	0.1	40.952
6934	4.2349	0.36364	0.1	92.211
6935	4.2349	0.54545	0.1	142.37
6936	4.2349	0.72727	0.1	191.41
6937	4.2349	0.90909	0.1	239.03
6938	4.2349	1.0909	0.1	284.77
6939	4.2349	1.2727	0.1	328.17
6940	4.2349	1.4545	0.1	368.77
6941	4.2349	1.6364	0.1	406.12
6942	4.2349	1.8182	0.1	439.81
6943	4.2349	2.	0.1	469.45
6944	4.2349	2.1818	0.1	494.7
6945	4.2349	2.3636	0.1	515.27
6946	4.2349	2.5455	0.1	530.9
6947	4.2349	2.7273	0.1	541.43
6948	4.2349	2.9091	0.1	546.73
6949	4.2349	3.0909	0.1	546.73
6950	4.2349	3.2727	0.1	541.43
6951	4.2349	3.4545	0.1	530.9
6952	4.2349	3.6364	0.1	515.27
6953	4.2349	3.8182	0.1	494.7
6954	4.2349	4.	0.1	469.45
6955	4.2349	4.1818	0.1	439.81
6956	4.2349	4.3636	0.1	406.12
6957	4.2349	4.5455	0.1	368.77
6958	4.2349	4.7273	0.1	328.17
6959	4.2349	4.9091	0.1	284.77
6960	4.2349	5.0909	0.1	239.03
6961	4.2349	5.2727	0.1	191.41
6962	4.2349	5.4545	0.1	142.37
6963	4.2349	5.6364	0.1	92.211
6964	4.2349	5.8182	0.1	40.952
6965	4.419	0.18182	0.1	38.685
6966	4.419	0.36364	0.1	85.864
6967	4.419	0.54545	0.1	132.05
6968	4.419	0.72727	0.1	177.16
6969	4.419	0.90909	0.1	220.92
6970	4.419	1.0909	0.1	262.92
6971	4.419	1.2727	0.1	302.75
6972	4.419	1.4545	0.1	339.99
6973	4.419	1.6364	0.1	374.25
6974	4.419	1.8182	0.1	405.13
6975	4.419	2.	0.1	432.31
6976	4.419	2.1818	0.1	455.46
6977	4.419	2.3636	0.1	474.31
6978	4.419	2.5455	0.1	488.65
6979	4.419	2.7273	0.1	498.31
6980	4.419	2.9091	0.1	503.16
6981	4.419	3.0909	0.1	503.16
6982	4.419	3.2727	0.1	498.31
6983	4.419	3.4545	0.1	488.65
6984	4.419	3.6364	0.1	474.31
6985	4.419	3.8182	0.1	455.46
6986	4.419	4.	0.1	432.31
6987	4.419	4.1818	0.1	405.13
6988	4.419	4.3636	0.1	374.25
6989	4.419	4.5455	0.1	339.99
6990	4.419	4.7273	0.1	302.75
6991	4.419	4.9091	0.1	262.92
6992	4.419	5.0909	0.1	220.92
6993	4.419	5.2727	0.1	177.16
6994	4.419	5.4545	0.1	132.05
6995	4.419	5.6364	0.1	85.864
6996	4.419	5.8182	0.1	38.685
6997	4.6032	0.18182	0.1	36.341
6998	4.6032	0.36364	0.1	79.753
6999	4.6032	0.54545	0.1	122.27
7000	4.6032	0.72727	0.1	163.75
7001	4.6032	0.90909	0.1	203.96
7002	4.6032	1.0909	0.1	242.53
7003	4.6032	1.2727	0.1	279.08
7004	4.6032	1.4545	0.1	313.24
7005	4.6032	1.6364	0.1	344.65
7006	4.6032	1.8182	0.1	372.97
7007	4.6032	2.	0.1	397.89
7008	4.6032	2.1818	0.1	419.11
7009	4.6032	2.3636	0.1	436.4
7010	4.6032	2.5455	0.1	449.54
7011	4.6032	2.7273	0.1	458.4
7012	4.6032	2.9091	0.1	462.85
7013	4.6032	3.0909	0.1	462.85
7014	4.6032	3.2727	0.1	458.4
7015	4.6032	3.4545	0.1	449.54
7016	4.6032	3.6364	0.1	436.4
7017	4.6032	3.8182	0.1	419.11
7018	4.6032	4.	0.1	397.89
7019	4.6032	4.1818	0.1	372.97
7020	4.6032	4.3636	0.1	344.65
7021	4.6032	4.5455	0.1	313.24
7022	4.6032	4.7273	0.1	279.08
7023	4.6032	4.9091	0.1	242.53
7024	4.6032	5.0909	0.1	203.96
7025	4.6032	5.2727	0.1	163.75
7026	4.6032	5.4545	0.1	122.27
7027	4.6032	5.6364	0.1	79.753
7028	4.6032	5.8182	0.1	36.341
7029	4.7873	0.18182	0.1	33.951
7030	4.7873	0.36364	0.1	73.879
7031	4.7873	0.54545	0.1	112.99
7032	4.7873	0.72727	0.1	151.12
7033	4.7873	0.90909	0.1	188.06
7034	4.7873	1.0909	0.1	223.47
7035	4.7873	1.2727	0.1	257.01
7036	4.7873	1.4545	0.1	288.35
7037	4.7873	1.6364	0.1	317.16
7038	4.7873	1.8182	0.1	343.13
7039	4.7873	2.	0.1	365.98
7040	4.7873	2.1818	0.1	385.44
7041	4.7873	2.3636	0.1	401.3
7042	4.7873	2.5455	0.1	413.35
7043	4.7873	2.7273	0.1	421.47
7044	4.7873	2.9091	0.1	425.56
7045	4.7873	3.0909	0.1	425.56
7046	4.7873	3.2727	0.1	421.47
7047	4.7873	3.4545	0.1	413.35
7048	4.7873	3.6364	0.1	401.3
7049	4.7873	3.8182	0.1	385.44
7050	4.7873	4.	0.1	365.98
7051	4.7873	4.1818	0.1	343.13
7052	4.7873	4.3636	0.1	317.16
7053	4.7873	4.5455	0.1	288.35
7054	4.7873	4.7273	0.1	257.01
7055	4.7873	4.9091	0.1	223.47
7056	4.7873	5.0909	0.1	188.06
7057	4.7873	5.2727	0.1	151.12
7058	4.7873	5.4545	0.1	112.99
7059	4.7873	5.6364	0.1	73.879
7060	4.7873	5.8182	0.1	33.951
7061	4.9714	0.18182	0.1	31.542
7062	4.9714	0.36364	0.1	68.243
7063	4.9714	0.54545	0.1	104.19
7064	4.9714	0.72727	0.1	139.23
7065	4.9714	0.90909	0.1	173.15
7066	4.9714	1.0909	0.1	205.65
7067	4.9714	1.2727	0.1	236.43
7068	4.9714	1.4545	0.1	265.18
7069	4.9714	1.6364	0.1	291.61
7070	4.9714	1.8182	0.1	315.44
7071	4.9714	2.	0.1	336.4
7072	4.9714	2.1818	0.1	354.26
7073	4.9714	2.3636	0.1	368.81
7074	4.9714	2.5455	0.1	379.87
7075	4.9714	2.7273	0.1	387.32
7076	4.9714	2.9091	0.1	391.07
7077	4.9714	3.0909	0.1	391.07
7078	4.9714	3.2727	0.1	387.32
7079	4.9714	3.4545	0.1	379.87
7080	4.9714	3.6364	0.1	368.81
7081	4.9714	3.8182	0.1	354.26
7082	4.9714	4.	0.1	336.4
7083	4.9714	4.1818	0.1	315.44
7084	4.9714	4.3636	0.1	291.61
7085	4.9714	4.5455	0.1	265.18
7086	4.9714	4.7273	0.1	236.43
7087	4.9714	4.9091	0.1	205.65
7088	4.9714	5.0909	0.1	173.15
7089	4.9714	5.2727	0.1	139.23
7090	4.9714	5.4545	0.1	104.19
7091	4.9714	5.6364	0.1	68.243
7092	4.9714	5.8182	0.1	31.542
7093	5.1556	0.18182	0.1	29.135
7094	5.1556	0.36364	0.1	62.841
7095	5.1556	0.54545	0.1	95.857
7096	5.1556	0.72727	0.1	128.02
7097	5.1556	0.90909	0.1	159.15
7098	5.1556	1.0909	0.1	188.98
7099	5.1556	1.2727	0.1	217.22
7100	5.1556	1.4545	0.1	243.61
7101	5.1556	1.6364	0.1	267.87
7102	5.1556	1.8182	0.1	289.74
7103	5.1556	2.	0.1	308.98
7104	5.1556	2.1818	0.1	325.38
7105	5.1556	2.3636	0.1	338.74
7106	5.1556	2.5455	0.1	348.9
7107	5.1556	2.7273	0.1	355.75
7108	5.1556	2.9091	0.1	359.19
7109	5.1556	3.0909	0.1	359.19
7110	5.1556	3.2727	0.1	355.75
7111	5.1556	3.4545	0.1	348.9
7112	5.1556	3.6364	0.1	338.74
7113	5.1556	3.8182	0.1	325.38
7114	5.1556	4.	0.1	308.98
7115	5.1556	4.1818	0.1	289.74
7116	5.1556	4.3636	0.1	267.87
7117	5.1556	4.5455	0.1	243.61
7118	5.1556	4.7273	0.1	217.22
7119	5.1556	4.9091	0.1	188.98
7120	5.1556	5.0909	0.1	159.15
7121	5.1556	5.2727	0.1	128.02
7122	5.1556	5.4545	0.1	95.857
7123	5.1556	5.6364	0.1	62.841
7124	5.1556	5.8182	0.1	29.135
7125	5.3397	0.18182	0.1	26.747
7126	5.3397	0.36364	0.1	57.666
7127	5.3397	0.54545	0.1	87.949
7128	5.3397	0.72727	0.1	117.44
7129	5.3397	0.90909	0.1	146.
7130	5.3397	1.0909	0.1	173.36
7131	5.3397	1.2727	0.1	199.28
7132	5.3397	1.4545	0.1	223.5
7133	5.3397	1.6364	0.1	245.78
7134	5.3397	1.8182	0.1	265.87
7135	5.3397	2.	0.1	283.56
7136	5.3397	2.1818	0.1	298.63
7137	5.3397	2.3636	0.1	310.91
7138	5.3397	2.5455	0.1	320.26
7139	5.3397	2.7273	0.1	326.56
7140	5.3397	2.9091	0.1	329.73
7141	5.3397	3.0909	0.1	329.73
7142	5.3397	3.2727	0.1	326.56
7143	5.3397	3.4545	0.1	320.26
7144	5.3397	3.6364	0.1	310.91
7145	5.3397	3.8182	0.1	298.63
7146	5.3397	4.	0.1	283.56
7147	5.3397	4.1818	0.1	265.87
7148	5.3397	4.3636	0.1	245.78
7149	5.3397	4.5455	0.1	223.5
7150	5.3397	4.7273	0.1	199.28
7151	5.3397	4.9091	0.1	173.36
7152	5.3397	5.0909	0.1	146.
7153	5.3397	5.2727	0.1	117.44
7154	5.3397	5.4545	0.1	87.949
7155	5.3397	5.6364	0.1	57.666
7156	5.3397	5.8182	0.1	26.747
7157	5.5238	0.18182	0.1	24.391
7158	5.5238	0.36364	0.1	52.709
7159	5.5238	0.54545	0.1	80.44
7160	5.5238	0.72727	0.1	107.46
7161	5.5238	0.90909	0.1	133.63
7162	5.5238	1.0909	0.1	158.72
7163	5.5238	1.2727	0.1	182.5
7164	5.5238	1.4545	0.1	204.74
7165	5.5238	1.6364	0.1	225.22
7166	5.5238	1.8182	0.1	243.69
7167	5.5238	2.	0.1	259.96
7168	5.5238	2.1818	0.1	273.84
7169	5.5238	2.3636	0.1	285.16
7170	5.5238	2.5455	0.1	293.77
7171	5.5238	2.7273	0.1	299.58
7172	5.5238	2.9091	0.1	302.5
7173	5.5238	3.0909	0.1	302.5
7174	5.5238	3.2727	0.1	299.58
7175	5.5238	3.4545	0.1	293.77
7176	5.5238	3.6364	0.1	285.16
7177	5.5238	3.8182	0.1	273.84
7178	5.5238	4.	0.1	259.96
7179	5.5238	4.1818	0.1	243.69
7180	5.5238	4.3636	0.1	225.22
7181	5.5238	4.5455	0.1	204.74
7182	5.5238	4.7273	0.1	182.5
7183	5.5238	4.9091	0.1	158.72
7184	5.5238	5.0909	0.1	133.63
7185	5.5238	5.2727	0.1	107.46
7186	5.5238	5.4545	0.1	80.44
7187	5.5238	5.6364	0.1	52.709
7188	5.5238	5.8182	0.1	24.391
7189	5.7079	0.18182	0.1	22.073
7190	5.7079	0.36364	0.1	47.956
7191	5.7079	0.54545	0.1	73.299
7192	5.7079	0.72727	0.1	98.01
7193	5.7079	0.90909	0.1	121.97
7194	5.7079	1.0909	0.1	144.96
7195	5.7079	1.2727	0.1	166.79
7196	5.7079	1.4545	0.1	187.22
7197	5.7079	1.6364	0.1	206.05
7198	5.7079	1.8182	0.1	223.07
7199	5.7079	2.	0.1	238.07
7200	5.7079	2.1818	0.1	250.87
7201	5.7079	2.3636	0.1	261.32
7202	5.7079	2.5455	0.1	269.28
7203	5.7079	2.7273	0.1	274.65
7204	5.7079	2.9091	0.1	277.35
7205	5.7079	3.0909	0.1	277.35
7206	5.7079	3.2727	0.1	274.65
7207	5.7079	3.4545	0.1	269.28
7208	5.7079	3.6364	0.1	261.32
7209	5.7079	3.8182	0.1	250.87
7210	5.7079	4.	0.1	238.07
7211	5.7079	4.1818	0.1	223.07
7212	5.7079	4.3636	0.1	206.05
7213	5.7079	4.5455	0.1	187.22
7214	5.7079	4.7273	0.1	166.79
7215	5.7079	4.9091	0.1	144.96
7216	5.7079	5.0909	0.1	121.97
7217	5.7079	5.2727	0.1	98.01
7218	5.7079	5.4545	0.1	73.299
7219	5.7079	5.6364	0.1	47.956
7220	5.7079	5.8182	0.1	22.073
7221	5.8921	0.18182	0.1	19.801
7222	5.8921	0.36364	0.1	43.391
7223	5.8921	0.54545	0.1	66.49
7224	5.8921	0.72727	0.1	89.045
7225	5.8921	0.90909	0.1	110.95
7226	5.8921	1.0909	0.1	132.01
7227	5.8921	1.2727	0.1	152.04
7228	5.8921	1.4545	0.1	170.82
7229	5.8921	1.6364	0.1	188.17
7230	5.8921	1.8182	0.1	203.87
7231	5.8921	2.	0.1	217.73
7232	5.8921	2.1818	0.1	229.58
7233	5.8921	2.3636	0.1	239.26
7234	5.8921	2.5455	0.1	246.64
7235	5.8921	2.7273	0.1	251.62
7236	5.8921	2.9091	0.1	254.12
7237	5.8921	3.0909	0.1	254.12
7238	5.8921	3.2727	0.1	251.62
7239	5.8921	3.4545	0.1	246.64
7240	5.8921	3.6364	0.1	239.26
7241	5.8921	3.8182	0.1	229.58
7242	5.8921	4.	0.1	217.73
7243	5.8921	4.1818	0.1	203.87
7244	5.8921	4.3636	0.1	188.17
7245	5.8921	4.5455	0.1	170.82
7246	5.8921	4.7273	0.1	152.04
7247	5.8921	4.9091	0.1	132.01
7248	5.8921	5.0909	0.1	110.95
7249	5.8921	5.2727	0.1	89.045
7250	5.8921	5.4545	0.1	66.49
7251	5.8921	5.6364	0.1	43.391
7252	5.8921	5.8182	0.1	19.801
7253	6.0762	0.18182	0.1	17.575
7254	6.0762	0.36364	0.1	38.995
7255	6.0762	0.54545	0.1	59.976
7256	6.0762	0.72727	0.1	80.509
7257	6.0762	0.90909	0.1	100.5
7258	6.0762	1.0909	0.1	119.78
7259	6.0762	1.2727	0.1	138.16
7260	6.0762	1.4545	0.1	155.45
7261	6.0762	1.6364	0.1	171.45
7262	6.0762	1.8182	0.1	185.97
7263	6.0762	2.	0.1	198.82
7264	6.0762	2.1818	0.1	209.82
7265	6.0762	2.3636	0.1	218.83
7266	6.0762	2.5455	0.1	225.7
7267	6.0762	2.7273	0.1	230.35
7268	6.0762	2.9091	0.1	232.69
7269	6.0762	3.0909	0.1	232.69
7270	6.0762	3.2727	0.1	230.35
7271	6.0762	3.4545	0.1	225.7
7272	6.0762	3.6364	0.1	218.83
7273	6.0762	3.8182	0.1	209.82
7274	6.0762	4.	0.1	198.82
7275	6.0762	4.1818	0.1	185.97
7276	6.0762	4.3636	0.1	171.45
7277	6.0762	4.5455	0.1	155.45
7278	6.0762	4.7273	0.1	138.16
7279	6.0762	4.9091	0.1	119.78
7280	6.0762	5.0909	0.1	100.5
7281	6.0762	5.2727	0.1	80.509
7282	6.0762	5.4545	0.1	59.976
7283	6.0762	5.6364	0.1	38.995
7284	6.0762	5.8182	0.1	17.575
7285	6.2603	0.18182	0.1	15.394
7286	6.2603	0.36364	0.1	34.744
7287	6.2603	0.54545	0.1	53.716
7288	6.2603	0.72727	0.1	72.345
7289	6.2603	0.90909	0.1	90.551
7290	6.2603	1.0909	0.1	108.18
7291	6.2603	1.2727	0.1	125.05
7292	6.2603	1.4545	0.1	140.98
7293	6.2603	1.6364	0.1	155.78
7294	6.2603	1.8182	0.1	169.26
7295	6.2603	2.	0.1	181.22
7296	6.2603	2.1818	0.1	191.49
7297	6.2603	2.3636	0.1	199.92
7298	6.2603	2.5455	0.1	206.36
7299	6.2603	2.7273	0.1	210.71
7300	6.2603	2.9091	0.1	212.91
7301	6.2603	3.0909	0.1	212.91
7302	6.2603	3.2727	0.1	210.71
7303	6.2603	3.4545	0.1	206.36
7304	6.2603	3.6364	0.1	199.92
7305	6.2603	3.8182	0.1	191.49
7306	6.2603	4.	0.1	181.22
7307	6.2603	4.1818	0.1	169.26
7308	6.2603	4.3636	0.1	155.78
7309	6.2603	4.5455	0.1	140.98
7310	6.2603	4.7273	0.1	125.05
7311	6.2603	4.9091	0.1	108.18
7312	6.2603	5.0909	0.1	90.551
7313	6.2603	5.2727	0.1	72.345
7314	6.2603	5.4545	0.1	53.716
7315	6.2603	5.6364	0.1	34.744
7316	6.2603	5.8182	0.1	15.394
7317	6.4444	0.18182	0.1	13.254
7318	6.4444	0.36364	0.1	30.613
7319	6.4444	0.54545	0.1	47.665
7320	6.4444	0.72727	0.1	64.491
7321	6.4444	0.90909	0.1	81.026
7322	6.4444	1.0909	0.1	97.123
7323	6.4444	1.2727	0.1	112.62
7324	6.4444	1.4545	0.1	127.33
7325	6.4444	1.6364	0.1	141.06
7326	6.4444	1.8182	0.1	153.63
7327	6.4444	2.	0.1	164.82
7328	6.4444	2.1818	0.1	174.47
7329	6.4444	2.3636	0.1	182.4
7330	6.4444	2.5455	0.1	188.48
7331	6.4444	2.7273	0.1	192.6
7332	6.4444	2.9091	0.1	194.67
7333	6.4444	3.0909	0.1	194.67
7334	6.4444	3.2727	0.1	192.6
7335	6.4444	3.4545	0.1	188.48
7336	6.4444	3.6364	0.1	182.4
7337	6.4444	3.8182	0.1	174.47
7338	6.4444	4.	0.1	164.82
7339	6.4444	4.1818	0.1	153.63
7340	6.4444	4.3636	0.1	141.06
7341	6.4444	4.5455	0.1	127.33
7342	6.4444	4.7273	0.1	112.62
7343	6.4444	4.9091	0.1	97.123
7344	6.4444	5.0909	0.1	81.026
7345	6.4444	5.2727	0.1	64.491
7346	6.4444	5.4545	0.1	47.665
7347	6.4444	5.6364	0.1	30.613
7348	6.4444	5.8182	0.1	13.254
7349	6.6286	0.18182	0.1	11.149
7350	6.6286	0.36364	0.1	26.572
7351	6.6286	0.54545	0.1	41.773
7352	6.6286	0.72727	0.1	56.881
7353	6.6286	0.90909	0.1	71.844
7354	6.6286	1.0909	0.1	86.525
7355	6.6286	1.2727	0.1	100.77
7356	6.6286	1.4545	0.1	114.38
7357	6.6286	1.6364	0.1	127.18
7358	6.6286	1.8182	0.1	138.96
7359	6.6286	2.	0.1	149.51
7360	6.6286	2.1818	0.1	158.64
7361	6.6286	2.3636	0.1	166.17
7362	6.6286	2.5455	0.1	171.97
7363	6.6286	2.7273	0.1	175.9
7364	6.6286	2.9091	0.1	177.88
7365	6.6286	3.0909	0.1	177.88
7366	6.6286	3.2727	0.1	175.9
7367	6.6286	3.4545	0.1	171.97
7368	6.6286	3.6364	0.1	166.17
7369	6.6286	3.8182	0.1	158.64
7370	6.6286	4.	0.1	149.51
7371	6.6286	4.1818	0.1	138.96
7372	6.6286	4.3636	0.1	127.18
7373	6.6286	4.5455	0.1	114.38
7374	6.6286	4.7273	0.1	100.77
7375	6.6286	4.9091	0.1	86.525
7376	6.6286	5.0909	0.1	71.844
7377	6.6286	5.2727	0.1	56.881
7378	6.6286	5.4545	0.1	41.773
7379	6.6286	5.6364	0.1	26.572
7380	6.6286	5.8182	0.1	11.149
7381	6.8127	0.18182	0.1	9.0687
7382	6.8127	0.36364	0.1	22.586
7383	6.8127	0.54545	0.1	35.985
7384	6.8127	0.72727	0.1	49.444
7385	6.8127	0.90909	0.1	62.921
7386	6.8127	1.0909	0.1	76.29
7387	6.8127	1.2727	0.1	89.392
7388	6.8127	1.4545	0.1	102.04
7389	6.8127	1.6364	0.1	114.03
7390	6.8127	1.8182	0.1	125.15
7391	6.8127	2.	0.1	135.18
7392	6.8127	2.1818	0.1	143.91
7393	6.8127	2.3636	0.1	151.14
7394	6.8127	2.5455	0.1	156.72
7395	6.8127	2.7273	0.1	160.52
7396	6.8127	2.9091	0.1	162.44
7397	6.8127	3.0909	0.1	162.44
7398	6.8127	3.2727	0.1	160.52
7399	6.8127	3.4545	0.1	156.72
7400	6.8127	3.6364	0.1	151.14
7401	6.8127	3.8182	0.1	143.91
7402	6.8127	4.	0.1	135.18
7403	6.8127	4.1818	0.1	125.15
7404	6.8127	4.3636	0.1	114.03
7405	6.8127	4.5455	0.1	102.04
7406	6.8127	4.7273	0.1	89.392
7407	6.8127	4.9091	0.1	76.29
7408	6.8127	5.0909	0.1	62.921
7409	6.8127	5.2727	0.1	49.444
7410	6.8127	5.4545	0.1	35.985
7411	6.8127	5.6364	0.1	22.586
7412	6.8127	5.8182	0.1	9.0687
7413	6.9968	0.18182	0.1	7.0012
7414	6.9968	0.36364	0.1	18.615
7415	6.9968	0.54545	0.1	30.242
7416	6.9968	0.72727	0.1	42.102
7417	6.9968	0.90909	0.1	54.167
7418	6.9968	1.0909	0.1	66.316
7419	6.9968	1.2727	0.1	78.39
7420	6.9968	1.4545	0.1	90.195
7421	6.9968	1.6364	0.1	101.51
7422	6.9968	1.8182	0.1	112.1
7423	6.9968	2.	0.1	121.73
7424	6.9968	2.1818	0.1	130.17
7425	6.9968	2.3636	0.1	137.21
7426	6.9968	2.5455	0.1	142.66
7427	6.9968	2.7273	0.1	146.38
7428	6.9968	2.9091	0.1	148.27
7429	6.9968	3.0909	0.1	148.27
7430	6.9968	3.2727	0.1	146.38
7431	6.9968	3.4545	0.1	142.66
7432	6.9968	3.6364	0.1	137.21
7433	6.9968	3.8182	0.1	130.17
7434	6.9968	4.	0.1	121.73
7435	6.9968	4.1818	0.1	112.1
7436	6.9968	4.3636	0.1	101.51
7437	6.9968	4.5455	0.1	90.195
7438	6.9968	4.7273	0.1	78.39
7439	6.9968	4.9091	0.1	66.316
7440	6.9968	5.0909	0.1	54.167
7441	6.9968	5.2727	0.1	42.102
7442	6.9968	5.4545	0.1	30.242
7443	6.9968	5.6364	0.1	18.615
7444	6.9968	5.8182	0.1	7.0012
7445	7.181	0.18182	0.1	4.9319
7446	7.181	0.36364	0.1	14.617
7447	7.181	0.54545	0.1	24.475
7448	7.181	0.72727	0.1	34.771
7449	7.181	0.90909	0.1	45.483
7450	7.181	1.0909	0.1	56.498
7451	7.181	1.2727	0.1	67.649
7452	7.181	1.4545	0.1	78.73
7453	7.181	1.6364	0.1	89.501
7454	7.181	1.8182	0.1	99.704
7455	7.181	2.	0.1	109.07
7456	7.181	2.1818	0.1	117.35
7457	7.181	2.3636	0.1	124.29
7458	7.181	2.5455	0.1	129.7
7459	7.181	2.7273	0.1	133.4
7460	7.181	2.9091	0.1	135.28
7461	7.181	3.0909	0.1	135.28
7462	7.181	3.2727	0.1	133.4
7463	7.181	3.4545	0.1	129.7
7464	7.181	3.6364	0.1	124.29
7465	7.181	3.8182	0.1	117.35
7466	7.181	4.	0.1	109.07
7467	7.181	4.1818	0.1	99.704
7468	7.181	4.3636	0.1	89.501
7469	7.181	4.5455	0.1	78.73
7470	7.181	4.7273	0.1	67.649
7471	7.181	4.9091	0.1	56.498
7472	7.181	5.0909	0.1	45.483
7473	7.181	5.2727	0.1	34.771
7474	7.181	5.4545	0.1	24.475
7475	7.181	5.6364	0.1	14.617
7476	7.181	5.8182	0.1	4.9319
7477	7.3651	0.18182	0.1	2.8462
7478	7.3651	0.36364	0.1	10.54
7479	7.3651	0.54545	0.1	18.611
7480	7.3651	0.72727	0.1	27.356
7481	7.3651	0.90909	0.1	36.764
7482	7.3651	1.0909	0.1	46.72
7483	7.3651	1.2727	0.1	57.051
7484	7.3651	1.4545	0.1	67.53
7485	7.3651	1.6364	0.1	77.892
7486	7.3651	1.8182	0.1	87.847
7487	7.3651	2.	0.1	97.095
7488	7.3651	2.1818	0.1	105.34
7489	7.3651	2.3636	0.1	112.31
7490	7.3651	2.5455	0.1	117.76
7491	7.3651	2.7273	0.1	121.51
7492	7.3651	2.9091	0.1	123.42
7493	7.3651	3.0909	0.1	123.42
7494	7.3651	3.2727	0.1	121.51
7495	7.3651	3.4545	0.1	117.76
7496	7.3651	3.6364	0.1	112.31
7497	7.3651	3.8182	0.1	105.34
7498	7.3651	4.	0.1	97.095
7499	7.3651	4.1818	0.1	87.847
7500	7.3651	4.3636	0.1	77.892
7501	7.3651	4.5455	0.1	67.53
7502	7.3651	4.7273	0.1	57.051
7503	7.3651	4.9091	0.1	46.72
7504	7.3651	5.0909	0.1	36.764
7505	7.3651	5.2727	0.1	27.356
7506	7.3651	5.4545	0.1	18.611
7507	7.3651	5.6364	0.1	10.54
7508	7.3651	5.8182	0.1	2.8462
7509	7.5492	0.18182	0.1	0.76671
7510	7.5492	0.36364	0.1	6.3289
7511	7.5492	0.54545	0.1	12.566
7512	7.5492	0.72727	0.1	19.756
7513	7.5492	0.90909	0.1	27.891
7514	7.5492	1.0909	0.1	36.858
7515	7.5492	1.2727	0.1	46.467
7516	7.5492	1.4545	0.1	56.469
7517	7.5492	1.6364	0.1	66.563
7518	7.5492	1.8182	0.1	76.421
7519	7.5492	2.	0.1	85.698
7520	7.5492	2.1818	0.1	94.055
7521	7.5492	2.3636	0.1	101.17
7522	7.5492	2.5455	0.1	106.78
7523	7.5492	2.7273	0.1	110.64
7524	7.5492	2.9091	0.1	112.62
7525	7.5492	3.0909	0.1	112.62
7526	7.5492	3.2727	0.1	110.64
7527	7.5492	3.4545	0.1	106.78
7528	7.5492	3.6364	0.1	101.17
7529	7.5492	3.8182	0.1	94.055
7530	7.5492	4.	0.1	85.698
7531	7.5492	4.1818	0.1	76.421
7532	7.5492	4.3636	0.1	66.563
7533	7.5492	4.5455	0.1	56.468
7534	7.5492	4.7273	0.1	46.467
7535	7.5492	4.9091	0.1	36.858
7536	7.5492	5.0909	0.1	27.891
7537	7.5492	5.2727	0.1	19.756
7538	7.5492	5.4545	0.1	12.566
7539	7.5492	5.6364	0.1	6.3289
7540	7.5492	5.8182	0.1	0.7667
7541	7.7333	0.18182	0.1	1.2315e-002
7542	7.7333	0.36364	0.1	1.9292
7543	7.7333	0.54545	0.1	6.2537
7544	7.7333	0.72727	0.1	11.86
7545	7.7333	0.90909	0.1	18.74
7546	7.7333	1.0909	0.1	26.777
7547	7.7333	1.2727	0.1	35.761
7548	7.7333	1.4545	0.1	45.411
7549	7.7333	1.6364	0.1	55.386
7550	7.7333	1.8182	0.1	65.308
7551	7.7333	2.	0.1	74.778
7552	7.7333	2.1818	0.1	83.402
7553	7.7333	2.3636	0.1	90.809
7554	7.7333	2.5455	0.1	96.676
7555	7.7333	2.7273	0.1	100.74
7556	7.7333	2.9091	0.1	102.82
7557	7.7333	3.0909	0.1	102.82
7558	7.7333	3.2727	0.1	100.74
7559	7.7333	3.4545	0.1	96.676
7560	7.7333	3.6364	0.1	90.809
7561	7.7333	3.8182	0.1	83.402
7562	7.7333	4.	0.1	74.778
7563	7.7333	4.1818	0.1	65.308
7564	7.7333	4.3636	0.1	55.386
7565	7.7333	4.5455	0.1	45.411
7566	7.7333	4.7273	0.1	35.761
7567	7.7333	4.9091	0.1	26.777
7568	7.7333	5.0909	0.1	18.74
7569	7.7333	5.2727	0.1	11.86
7570	7.7333	5.4545	0.1	6.2537
7571	7.7333	5.6364	0.1	1.9291
7572	7.7333	5.8182	0.1	1.2317e-002
7573	7.9175	0.18182	0.1	-2.0802e-003
7574	7.9175	0.36364	0.1	2.375e-003
7575	7.9175	0.54545	0.1	0.16253
7576	7.9175	0.72727	0.1	3.5825
7577	7.9175	0.90909	0.1	9.1872
7578	7.9175	1.0909	0.1	16.336
7579	7.9175	1.2727	0.1	24.785
7580	7.9175	1.4545	0.1	34.211
7581	7.9175	1.6364	0.1	44.222
7582	7.9175	1.8182	0.1	54.379
7583	7.9175	2.	0.1	64.22
7584	7.9175	2.1818	0.1	73.282
7585	7.9175	2.3636	0.1	81.13
7586	7.9175	2.5455	0.1	87.384
7587	7.9175	2.7273	0.1	91.733
7588	7.9175	2.9091	0.1	93.964
7589	7.9175	3.0909	0.1	93.964
7590	7.9175	3.2727	0.1	91.733
7591	7.9175	3.4545	0.1	87.384
7592	7.9175	3.6364	0.1	81.13
7593	7.9175	3.8182	0.1	73.282
7594	7.9175	4.	0.1	64.22
7595	7.9175	4.1818	0.1	54.379
7596	7.9175	4.3636	0.1	44.222
7597	7.9175	4.5455	0.1	34.211
7598	7.9175	4.7273	0.1	24.785
7599	7.9175	4.9091	0.1	16.336
7600	7.9175	5.0909	0.1	9.1871
7601	7.9175	5.2727	0.1	3.5825
7602	7.9175	5.4545	0.1	0.16252
7603	7.9175	5.6364	0.1	2.3767e-003
7604	7.9175	5.8182	0.1	-2.0802e-003
7605	8.1016	0.18182	0.1	4.165e-003
7606	8.1016	0.36364	0.1	6.6067e-003
7607	8.1016	0.54545	0.1	-4.6875e-003
7608	8.1016	0.72727	0.1	3.7612e-002
7609	8.1016	0.90909	0.1	0.39539
7610	8.1016	1.0909	0.1	5.4582
7611	8.1016	1.2727	0.1	13.398
7612	8.1016	1.4545	0.1	22.714
7613	8.1016	1.6364	0.1	32.919
7614	8.1016	1.8182	0.1	43.495
7615	8.1016	2.	0.1	53.898
7616	8.1016	2.1818	0.1	63.586
7617	8.1016	2.3636	0.1	72.045
7618	8.1016	2.5455	0.1	78.823
7619	8.1016	2.7273	0.1	83.556
7620	8.1016	2.9091	0.1	85.989
7621	8.1016	3.0909	0.1	85.989
7622	8.1016	3.2727	0.1	83.556
7623	8.1016	3.4545	0.1	78.823
7624	8.1016	3.6364	0.1	72.044
7625	8.1016	3.8182	0.1	63.585
7626	8.1016	4.	0.1	53.898
7627	8.1016	4.1818	0.1	43.495
7628	8.1016	4.3636	0.1	32.919
7629	8.1016	4.5455	0.1	22.714
7630	8.1016	4.7273	0.1	13.398
7631	8.1016	4.9091	0.1	5.4581
7632	8.1016	5.0909	0.1	0.39538
7633	8.1016	5.2727	0.1	3.7613e-002
7634	8.1016	5.4545	0.1	-4.687e-003
7635	8.1016	5.6364	0.1	6.6082e-003
7636	8.1016	5.8182	0.1	4.1664e-003
7637	8.2857	0.18182	0.1	1.5382e-002
7638	8.2857	0.36364	0.1	1.8003e-002
7639	8.2857	0.54545	0.1	-1.2585e-002
7640	8.2857	0.72727	0.1	4.6402e-003
7641	8.2857	0.90909	0.1	4.019e-002
7642	8.2857	1.0909	0.1	0.16006
7643	8.2857	1.2727	0.1	2.0295
7644	8.2857	1.4545	0.1	10.804
7645	8.2857	1.6364	0.1	21.321
7646	8.2857	1.8182	0.1	32.5
7647	8.2857	2.	0.1	43.671
7648	8.2857	2.1818	0.1	54.189
7649	8.2857	2.3636	0.1	63.445
7650	8.2857	2.5455	0.1	70.903
7651	8.2857	2.7273	0.1	76.128
7652	8.2857	2.9091	0.1	78.82
7653	8.2857	3.0909	0.1	78.82
7654	8.2857	3.2727	0.1	76.128
7655	8.2857	3.4545	0.1	70.902
7656	8.2857	3.6364	0.1	63.445
7657	8.2857	3.8182	0.1	54.189
7658	8.2857	4.	0.1	43.671
7659	8.2857	4.1818	0.1	32.5
7660	8.2857	4.3636	0.1	21.321
7661	8.2857	4.5455	0.1	10.804
7662	8.2857	4.7273	0.1	2.0295
7663	8.2857	4.9091	0.1	0.16005
7664	8.2857	5.0909	0.1	4.0191e-002
7665	8.2857	5.2727	0.1	4.6408e-003
7666	8.2857	5.4545	0.1	-1.2584e-002
7667	8.2857	5.6364	0.1	1.8004e-002
7668	8.2857	5.8182	0.1	1.5384e-002
7669	8.4698	0.18182	0.1	2.9115e-002
7670	8.4698	0.36364	0.1	3.1333e-002
7671	8.4698	0.54545	0.1	-1.5965e-002
7672	8.4698	0.72727	0.1	-2.4842e-003
7673	8.4698	0.90909	0.1	1.7215e-002
7674	8.4698	1.0909	0.1	6.0623e-002
7675	8.4698	1.2727	0.1	0.1667
7676	8.4698	1.4545	0.1	0.89465
7677	8.4698	1.6364	0.1	9.3601
7678	8.4698	1.8182	0.1	21.233
7679	8.4698	2.	0.1	33.378
7680	8.4698	2.1818	0.1	44.946
7681	8.4698	2.3636	0.1	55.204
7682	8.4698	2.5455	0.1	63.509
7683	8.4698	2.7273	0.1	69.348
7684	8.4698	2.9091	0.1	72.36
7685	8.4698	3.0909	0.1	72.36
7686	8.4698	3.2727	0.1	69.348
7687	8.4698	3.4545	0.1	63.509
7688	8.4698	3.6364	0.1	55.203
7689	8.4698	3.8182	0.1	44.946
7690	8.4698	4.	0.1	33.378
7691	8.4698	4.1818	0.1	21.233
7692	8.4698	4.3636	0.1	9.36
7693	8.4698	4.5455	0.1	0.89462
7694	8.4698	4.7273	0.1	0.1667
7695	8.4698	4.9091	0.1	6.0623e-002
7696	8.4698	5.0909	0.1	1.7217e-002
7697	8.4698	5.2727	0.1	-2.4832e-003
7698	8.4698	5.4545	0.1	-1.5965e-002
7699	8.4698	5.6364	0.1	3.1335e-002
7700	8.4698	5.8182	0.1	2.9116e-002
7701	8.654	0.18182	0.1	4.4239e-002
7702	8.654	0.36364	0.1	4.5966e-002
7703	8.654	0.54545	0.1	-1.8399e-002
7704	8.654	0.72727	0.1	-4.9865e-003
7705	8.654	0.90909	0.1	1.0352e-002
7706	8.654	1.0909	0.1	4.2048e-002
7707	8.654	1.2727	0.1	9.6849e-002
7708	8.654	1.4545	0.1	0.21991
7709	8.654	1.6364	0.1	0.88468
7710	8.654	1.8182	0.1	9.6503
7711	8.654	2.	0.1	22.841
7712	8.654	2.1818	0.1	35.68
7713	8.654	2.3636	0.1	47.158
7714	8.654	2.5455	0.1	56.497
7715	8.654	2.7273	0.1	63.081
7716	8.654	2.9091	0.1	66.482
7717	8.654	3.0909	0.1	66.482
7718	8.654	3.2727	0.1	63.081
7719	8.654	3.4545	0.1	56.497
7720	8.654	3.6364	0.1	47.158
7721	8.654	3.8182	0.1	35.68
7722	8.654	4.	0.1	22.841
7723	8.654	4.1818	0.1	9.6502
7724	8.654	4.3636	0.1	0.88467
7725	8.654	4.5455	0.1	0.21991
7726	8.654	4.7273	0.1	9.6849e-002
7727	8.654	4.9091	0.1	4.2048e-002
7728	8.654	5.0909	0.1	1.0354e-002
7729	8.654	5.2727	0.1	-4.9854e-003
7730	8.654	5.4545	0.1	-1.8398e-002
7731	8.654	5.6364	0.1	4.5967e-002
7732	8.654	5.8182	0.1	4.4241e-002
7733	8.8381	0.18182	0.1	5.9531e-002
7734	8.8381	0.36364	0.1	6.1638e-002
7735	8.8381	0.54545	0.1	-2.0589e-002
7736	8.8381	0.72727	0.1	-5.4145e-003
7737	8.8381	0.90909	0.1	8.748e-003
7738	8.8381	1.0909	0.1	3.78e-002
7739	8.8381	1.2727	0.1	8.143e-002
7740	8.8381	1.4545	0.1	0.15487
7741	8.8381	1.6364	0.1	0.31964
7742	8.8381	1.8182	0.1	1.3003
7743	8.8381	2.	0.1	11.963
7744	8.8381	2.1818	0.1	26.179
7745	8.8381	2.3636	0.1	39.102
7746	8.8381	2.5455	0.1	49.671
7747	8.8381	2.7273	0.1	57.141
7748	8.8381	2.9091	0.1	61.004
7749	8.8381	3.0909	0.1	61.004
7750	8.8381	3.2727	0.1	57.141
7751	8.8381	3.4545	0.1	49.671
7752	8.8381	3.6364	0.1	39.102
7753	8.8381	3.8182	0.1	26.179
7754	8.8381	4.	0.1	11.963
7755	8.8381	4.1818	0.1	1.3003
7756	8.8381	4.3636	0.1	0.31964
7757	8.8381	4.5455	0.1	0.15487
7758	8.8381	4.7273	0.1	8.143e-002
7759	8.8381	4.9091	0.1	3.78e-002
7760	8.8381	5.0909	0.1	8.7495e-003
7761	8.8381	5.2727	0.1	-5.4134e-003
7762	8.8381	5.4545	0.1	-2.0588e-002
7763	8.8381	5.6364	0.1	6.164e-002
7764	8.8381	5.8182	0.1	5.9533e-002
7765	9.0222	0.18182	0.1	7.3144e-002
7766	9.0222	0.36364	0.1	7.8028e-002
7767	9.0222	0.54545	0.1	-2.2682e-002
7768	9.0222	0.72727	0.1	-4.173e-003
7769	9.0222	0.90909	0.1	1.0536e-002
7770	9.0222	1.0909	0.1	4.0249e-002
7771	9.0222	1.2727	0.1	8.1395e-002
7772	9.0222	1.4545	0.1	0.14207
7773	9.0222	1.6364	0.1	0.24425
7774	9.0222	1.8182	0.1	0.49447
7775	9.0222	2.	0.1	2.6262
7776	9.0222	2.1818	0.1	16.241
7777	9.0222	2.3636	0.1	30.766
7778	9.0222	2.5455	0.1	42.765
7779	9.0222	2.7273	0.1	51.266
7780	9.0222	2.9091	0.1	55.666
7781	9.0222	3.0909	0.1	55.666
7782	9.0222	3.2727	0.1	51.266
7783	9.0222	3.4545	0.1	42.765
7784	9.0222	3.6364	0.1	30.766
7785	9.0222	3.8182	0.1	16.241
7786	9.0222	4.	0.1	2.6261
7787	9.0222	4.1818	0.1	0.49447
7788	9.0222	4.3636	0.1	0.24425
7789	9.0222	4.5455	0.1	0.14207
7790	9.0222	4.7273	0.1	8.1396e-002
7791	9.0222	4.9091	0.1	4.025e-002
7792	9.0222	5.0909	0.1	1.0537e-002
7793	9.0222	5.2727	0.1	-4.172e-003
7794	9.0222	5.4545	0.1	-2.2682e-002
7795	9.0222	5.6364	0.1	7.8029e-002
7796	9.0222	5.8182	0.1	7.3145e-002
7797	9.2063	0.18182	0.1	8.2191e-002
7798	9.2063	0.36364	0.1	9.4564e-002
7799	9.2063	0.54545	0.1	-2.461e-002
7800	9.2063	0.72727	0.1	-1.0113e-003
7801	9.2063	0.90909	0.1	1.5673e-002
7802	9.2063	1.0909	0.1	4.7986e-002
7803	9.2063	1.2727	0.1	9.0198e-002
7804	9.2063	1.4545	0.1	0.14783
7805	9.2063	1.6364	0.1	0.2318
7806	9.2063	1.8182	0.1	0.38066
7807	9.2063	2.	0.1	0.82204
7808	9.2063	2.1818	0.1	6.2593
7809	9.2063	2.3636	0.1	21.82
7810	9.2063	2.5455	0.1	35.412
7811	9.2063	2.7273	0.1	45.083
7812	9.2063	2.9091	0.1	50.091
7813	9.2063	3.0909	0.1	50.091
7814	9.2063	3.2727	0.1	45.083
7815	9.2063	3.4545	0.1	35.411
7816	9.2063	3.6364	0.1	21.82
7817	9.2063	3.8182	0.1	6.2592
7818	9.2063	4.	0.1	0.82204
7819	9.2063	4.1818	0.1	0.38065
7820	9.2063	4.3636	0.1	0.2318
7821	9.2063	4.5455	0.1	0.14783
7822	9.2063	4.7273	0.1	9.0199e-002
7823	9.2063	4.9091	0.1	4.7986e-002
7824	9.2063	5.0909	0.1	1.5675e-002
7825	9.2063	5.2727	0.1	-1.0104e-003
7826	9.2063	5.4545	0.1	-2.461e-002
7827	9.2063	5.6364	0.1	9.4565e-002
7828	9.2063	5.8182	0.1	8.2193e-002
7829	9.3905	0.18182	0.1	8.2366e-002
7830	9.3905	0.36364	0.1	0.11028
7831	9.3905	0.54545	0.1	-2.6132e-002
7832	9.3905	0.72727	0.1	4.7273e-003
7833	9.3905	0.90909	0.1	2.4908e-002
7834	9.3905	1.0909	0.1	6.1327e-002
7835	9.3905	1.2727	0.1	0.10662
7836	9.3905	1.4545	0.1	0.16533
7837	9.3905	1.6364	0.1	0.24365
7838	9.3905	1.8182	0.1	0.36016
7839	9.3905	2.	0.1	0.58755
7840	9.3905	2.1818	0.1	1.5438
7841	9.3905	2.3636	0.1	12.017
7842	9.3905	2.5455	0.1	27.113
7843	9.3905	2.7273	0.1	38.056
7844	9.3905	2.9091	0.1	43.725
7845	9.3905	3.0909	0.1	43.725
7846	9.3905	3.2727	0.1	38.056
7847	9.3905	3.4545	0.1	27.113
7848	9.3905	3.6364	0.1	12.017
7849	9.3905	3.8182	0.1	1.5438
7850	9.3905	4.	0.1	0.58754
7851	9.3905	4.1818	0.1	0.36016
7852	9.3905	4.3636	0.1	0.24365
7853	9.3905	4.5455	0.1	0.16533
7854	9.3905	4.7273	0.1	0.10662
7855	9.3905	4.9091	0.1	6.1327e-002
7856	9.3905	5.0909	0.1	2.4909e-002
7857	9.3905	5.2727	0.1	4.7287e-003
7858	9.3905	5.4545	0.1	-2.6131e-002
7859	9.3905	5.6364	0.1	0.11029
7860	9.3905	5.8182	0.1	8.2367e-002
7861	9.5746	0.18182	0.1	6.7629e-002
7862	9.5746	0.36364	0.1	0.12365
7863	9.5746	0.54545	0.1	-2.6822e-002
7864	9.5746	0.72727	0.1	1.4084e-002
7865	9.5746	0.90909	0.1	3.9586e-002
7866	9.5746	1.0909	0.1	8.1475e-002
7867	9.5746	1.2727	0.1	0.13119
7868	9.5746	1.4545	0.1	0.19314
7869	9.5746	1.6364	0.1	0.27102
7870	9.5746	1.8182	0.1	0.37419
7871	9.5746	2.	0.1	0.53224
7872	9.5746	2.1818	0.1	0.88939
7873	9.5746	2.3636	0.1	3.3926
7874	9.5746	2.5455	0.1	17.248
7875	9.5746	2.7273	0.1	29.419
7876	9.5746	2.9091	0.1	35.761
7877	9.5746	3.0909	0.1	35.761
7878	9.5746	3.2727	0.1	29.419
7879	9.5746	3.4545	0.1	17.248
7880	9.5746	3.6364	0.1	3.3926
7881	9.5746	3.8182	0.1	0.88938
7882	9.5746	4.	0.1	0.53224
7883	9.5746	4.1818	0.1	0.37419
7884	9.5746	4.3636	0.1	0.27102
7885	9.5746	4.5455	0.1	0.19314
7886	9.5746	4.7273	0.1	0.13119
7887	9.5746	4.9091	0.1	8.1476e-002
7888	9.5746	5.0909	0.1	3.9588e-002
7889	9.5746	5.2727	0.1	1.4085e-002
7890	9.5746	5.4545	0.1	-2.6822e-002
7891	9.5746	5.6364	0.1	0.12365
7892	9.5746	5.8182	0.1	6.7631e-002
7893	9.7587	0.18182	0.1	3.0221e-002
7894	9.7587	0.36364	0.1	0.13237
7895	9.7587	0.54545	0.1	-2.6024e-002
7896	9.7587	0.72727	0.1	2.8524e-002
7897	9.7587	0.90909	0.1	6.1681e-002
7898	9.7587	1.0909	0.1	0.11037
7899	9.7587	1.2727	0.1	0.16531
7900	9.7587	1.4545	0.1	0.23147
7901	9.7587	1.6364	0.1	0.31111
7902	9.7587	1.8182	0.1	0.40784
7903	9.7587	2.	0.1	0.53094
7904	9.7587	2.1818	0.1	0.72146
7905	9.7587	2.3636	0.1	1.2277
7906	9.7587	2.5455	0.1	5.9227
7907	9.7587	2.7273	0.1	18.109
7908	9.7587	2.9091	0.1	25.009
7909	9.7587	3.0909	0.1	25.009
7910	9.7587	3.2727	0.1	18.109
7911	9.7587	3.4545	0.1	5.9226
7912	9.7587	3.6364	0.1	1.2277
7913	9.7587	3.8182	0.1	0.72146
7914	9.7587	4.	0.1	0.53094
7915	9.7587	4.1818	0.1	0.40784
7916	9.7587	4.3636	0.1	0.31111
7917	9.7587	4.5455	0.1	0.23147
7918	9.7587	4.7273	0.1	0.16531
7919	9.7587	4.9091	0.1	0.11037
7920	9.7587	5.0909	0.1	6.1683e-002
7921	9.7587	5.2727	0.1	2.8525e-002
7922	9.7587	5.4545	0.1	-2.6024e-002
7923	9.7587	5.6364	0.1	0.13237
7924	9.7587	5.8182	0.1	3.0223e-002
7925	9.9429	0.18182	0.1	-3.8447e-002
7926	9.9429	0.36364	0.1	0.13345
7927	9.9429	0.54545	0.1	-2.2659e-002
7928	9.9429	0.72727	0.1	5.0096e-002
7929	9.9429	0.90909	0.1	9.3967e-002
7930	9.9429	1.0909	0.1	0.15087
7931	9.9429	1.2727	0.1	0.21159
7932	9.9429	1.4545	0.1	0.28224
7933	9.9429	1.6364	0.1	0.3648
7934	9.9429	1.8182	0.1	0.45784
7935	9.9429	2.	0.1	0.55752
7936	9.9429	2.1818	0.1	0.66127
7937	9.9429	2.3636	0.1	0.79298
7938	9.9429	2.5455	0.1	1.1171
7939	9.9429	2.7273	0.1	3.7166
7940	9.9429	2.9091	0.1	9.7508
7941	9.9429	3.0909	0.1	9.7508
7942	9.9429	3.2727	0.1	3.7166
7943	9.9429	3.4545	0.1	1.1171
7944	9.9429	3.6364	0.1	0.79298
7945	9.9429	3.8182	0.1	0.66127
7946	9.9429	4.	0.1	0.55751
7947	9.9429	4.1818	0.1	0.45784
7948	9.9429	4.3636	0.1	0.3648
7949	9.9429	4.5455	0.1	0.28224
7950	9.9429	4.7273	0.1	0.21159
7951	9.9429	4.9091	0.1	0.15087
7952	9.9429	5.0909	0.1	9.3969e-002
7953	9.9429	5.2727	0.1	5.0097e-002
7954	9.9429	5.4545	0.1	-2.2659e-002
7955	9.9429	5.6364	0.1	0.13345
7956	9.9429	5.8182	0.1	-3.8446e-002
7957	10.127	0.18182	0.1	-0.14555
7958	10.127	0.36364	0.1	0.12317
7959	10.127	0.54545	0.1	-1.5417e-002
7960	10.127	0.72727	0.1	8.0863e-002
7961	10.127	0.90909	0.1	0.13947
7962	10.127	1.0909	0.1	0.20655
7963	10.127	1.2727	0.1	0.27279
7964	10.127	1.4545	0.1	0.3459
7965	10.127	1.6364	0.1	0.42769
7966	10.127	1.8182	0.1	0.51516
7967	10.127	2.	0.1	0.58597
7968	10.127	2.1818	0.1	0.62034
7969	10.127	2.3636	0.1	0.59243
7970	10.127	2.5455	0.1	0.46456
7971	10.127	2.7273	0.1	0.19966
7972	10.127	2.9091	0.1	-0.1623
7973	10.127	3.0909	0.1	-0.1623
7974	10.127	3.2727	0.1	0.19965
7975	10.127	3.4545	0.1	0.46456
7976	10.127	3.6364	0.1	0.59243
7977	10.127	3.8182	0.1	0.62033
7978	10.127	4.	0.1	0.58596
7979	10.127	4.1818	0.1	0.51516
7980	10.127	4.3636	0.1	0.42769
7981	10.127	4.5455	0.1	0.3459
7982	10.127	4.7273	0.1	0.27279
7983	10.127	4.9091	0.1	0.20655
7984	10.127	5.0909	0.1	0.13947
7985	10.127	5.2727	0.1	8.0865e-002
7986	10.127	5.4545	0.1	-1.5416e-002
7987	10.127	5.6364	0.1	0.12317
7988	10.127	5.8182	0.1	-0.14555
7989	10.311	0.18182	0.1	-0.28824
7990	10.311	0.36364	0.1	0.10119
7991	10.311	0.54545	0.1	4.7349e-004
7992	10.311	0.72727	0.1	0.12549
7993	10.311	0.90909	0.1	0.204
7994	10.311	1.0909	0.1	0.28414
7995	10.311	1.2727	0.1	0.35815
7996	10.311	1.4545	0.1	0.43781
7997	10.311	1.6364	0.1	0.52749
7998	10.311	1.8182	0.1	0.60399
7999	10.311	2.	0.1	0.66157
8000	10.311	2.1818	0.1	0.62042
8001	10.311	2.3636	0.1	0.43395
8002	10.311	2.5455	0.1	0.16224
8003	10.311	2.7273	0.1	-0.12256
8004	10.311	2.9091	0.1	-0.31237
8005	10.311	3.0909	0.1	-0.31237
8006	10.311	3.2727	0.1	-0.12256
8007	10.311	3.4545	0.1	0.16224
8008	10.311	3.6364	0.1	0.43395
8009	10.311	3.8182	0.1	0.62042
8010	10.311	4.	0.1	0.66157
8011	10.311	4.1818	0.1	0.60399
8012	10.311	4.3636	0.1	0.52749
8013	10.311	4.5455	0.1	0.43781
8014	10.311	4.7273	0.1	0.35816
8015	10.311	4.9091	0.1	0.28414
8016	10.311	5.0909	0.1	0.204
8017	10.311	5.2727	0.1	0.12549
8018	10.311	5.4545	0.1	4.7432e-004
8019	10.311	5.6364	0.1	0.10119
8020	10.311	5.8182	0.1	-0.28824
8021	10.495	0.18182	0.1	-0.44732
8022	10.495	0.36364	0.1	6.8623e-002
8023	10.495	0.54545	0.1	2.7048e-002
8024	10.495	0.72727	0.1	0.18148
8025	10.495	0.90909	0.1	0.28253
8026	10.495	1.0909	0.1	0.38246
8027	10.495	1.2727	0.1	0.47461
8028	10.495	1.4545	0.1	0.54039
8029	10.495	1.6364	0.1	0.57086
8030	10.495	1.8182	0.1	0.64631
8031	10.495	2.	0.1	0.55801
8032	10.495	2.1818	0.1	0.38429
8033	10.495	2.3636	0.1	0.20362
8034	10.495	2.5455	0.1	-0.10025
8035	10.495	2.7273	0.1	-0.34546
8036	10.495	2.9091	0.1	-0.44395
8037	10.495	3.0909	0.1	-0.44394
8038	10.495	3.2727	0.1	-0.34546
8039	10.495	3.4545	0.1	-0.10025
8040	10.495	3.6364	0.1	0.20362
8041	10.495	3.8182	0.1	0.38429
8042	10.495	4.	0.1	0.55801
8043	10.495	4.1818	0.1	0.64631
8044	10.495	4.3636	0.1	0.57086
8045	10.495	4.5455	0.1	0.54039
8046	10.495	4.7273	0.1	0.47461
8047	10.495	4.9091	0.1	0.38247
8048	10.495	5.0909	0.1	0.28253
8049	10.495	5.2727	0.1	0.18148
8050	10.495	5.4545	0.1	2.7049e-002
8051	10.495	5.6364	0.1	6.8624e-002
8052	10.495	5.8182	0.1	-0.44732
8053	10.679	0.18182	0.1	-0.52362
8054	10.679	0.36364	0.1	7.7413e-002
8055	10.679	0.54545	0.1	0.10804
8056	10.679	0.72727	0.1	0.27712
8057	10.679	0.90909	0.1	0.40572
8058	10.679	1.0909	0.1	0.54065
8059	10.679	1.2727	0.1	0.645
8060	10.679	1.4545	0.1	0.79012
8061	10.679	1.6364	0.1	1.1026
8062	10.679	1.8182	0.1	0.92559
8063	10.679	2.	0.1	1.0995
8064	10.679	2.1818	0.1	0.86119
8065	10.679	2.3636	0.1	-0.14124
8066	10.679	2.5455	0.1	-0.48308
8067	10.679	2.7273	0.1	-0.53937
8068	10.679	2.9091	0.1	-0.56647
8069	10.679	3.0909	0.1	-0.56647
8070	10.679	3.2727	0.1	-0.53937
8071	10.679	3.4545	0.1	-0.48308
8072	10.679	3.6364	0.1	-0.14124
8073	10.679	3.8182	0.1	0.86119
8074	10.679	4.	0.1	1.0995
8075	10.679	4.1818	0.1	0.92559
8076	10.679	4.3636	0.1	1.1026
8077	10.679	4.5455	0.1	0.79012
8078	10.679	4.7273	0.1	0.645
8079	10.679	4.9091	0.1	0.54065
8080	10.679	5.0909	0.1	0.40572
8081	10.679	5.2727	0.1	0.27712
8082	10.679	5.4545	0.1	0.10804
8083	10.679	5.6364	0.1	7.7413e-002
8084	10.679	5.8182	0.1	-0.52362
8085	10.863	0.18182	0.1	-0.39984
8086	10.863	0.36364	0.1	0.1416
8087	10.863	0.54545	0.1	0.20105
8088	10.863	0.72727	0.1	0.3259
8089	10.863	0.90909	0.1	0.44279
8090	10.863	1.0909	0.1	0.56764
8091	10.863	1.2727	0.1	0.84167
8092	10.863	1.4545	0.1	1.1355
8093	10.863	1.6364	0.1	-5.5461e-002
8094	10.863	1.8182	0.1	0.70035
8095	10.863	2.	0.1	-1.4009
8096	10.863	2.1818	0.1	-2.5765
8097	10.863	2.3636	0.1	-0.4469
8098	10.863	2.5455	0.1	-0.8314
8099	10.863	2.7273	0.1	-0.71258
8100	10.863	2.9091	0.1	-0.59422
8101	10.863	3.0909	0.1	-0.59422
8102	10.863	3.2727	0.1	-0.71258
8103	10.863	3.4545	0.1	-0.8314
8104	10.863	3.6364	0.1	-0.4469
8105	10.863	3.8182	0.1	-2.5765
8106	10.863	4.	0.1	-1.4009
8107	10.863	4.1818	0.1	0.70035
8108	10.863	4.3636	0.1	-5.5461e-002
8109	10.863	4.5455	0.1	1.1355
8110	10.863	4.7273	0.1	0.84167
8111	10.863	4.9091	0.1	0.56764
8112	10.863	5.0909	0.1	0.44279
8113	10.863	5.2727	0.1	0.3259
8114	10.863	5.4545	0.1	0.20105
8115	10.863	5.6364	0.1	0.14161
8116	10.863	5.8182	0.1	-0.39984
8117	11.048	0.18182	0.1	0.80792
8118	11.048	0.36364	0.1	0.90133
8119	11.048	0.54545	0.1	0.77648
8120	11.048	0.72727	0.1	0.7658
8121	11.048	0.90909	0.1	0.83057
8122	11.048	1.0909	0.1	1.1535
8123	11.048	1.2727	0.1	1.3669
8124	11.048	1.4545	0.1	1.4077
8125	11.048	1.6364	0.1	7.084
8126	11.048	1.8182	0.1	3.7668
8127	11.048	2.	0.1	9.9101
8128	11.048	2.1818	0.1	6.5551
8129	11.048	2.3636	0.1	-4.3203
8130	11.048	2.5455	0.1	-0.63465
8131	11.048	2.7273	0.1	-0.63736
8132	11.048	2.9091	0.1	-0.42153
8133	11.048	3.0909	0.1	-0.42153
8134	11.048	3.2727	0.1	-0.63736
8135	11.048	3.4545	0.1	-0.63465
8136	11.048	3.6364	0.1	-4.3203
8137	11.048	3.8182	0.1	6.5551
8138	11.048	4.	0.1	9.9101
8139	11.048	4.1818	0.1	3.7668
8140	11.048	4.3636	0.1	7.084
8141	11.048	4.5455	0.1	1.4077
8142	11.048	4.7273	0.1	1.3669
8143	11.048	4.9091	0.1	1.1535
8144	11.048	5.0909	0.1	0.83057
8145	11.048	5.2727	0.1	0.7658
8146	11.048	5.4545	0.1	0.77648
8147	11.048	5.6364	0.1	0.90133
8148	11.048	5.8182	0.1	0.80792
8149	11.232	0.18182	0.1	2.7318
8150	11.232	0.36364	0.1	1.0672
8151	11.232	0.54545	0.1	0.19928
8152	11.232	0.72727	0.1	-0.37823
8153	11.232	0.90909	0.1	-0.60825
8154	11.232	1.0909	0.1	-0.90058
8155	11.232	1.2727	0.1	-0.73364
8156	11.232	1.4545	0.1	-0.43273
8157	11.232	1.6364	0.1	-4.1336
8158	11.232	1.8182	0.1	-11.929
8159	11.232	2.	0.1	-52.944
8160	11.232	2.1818	0.1	-26.751
8161	11.232	2.3636	0.1	4.1418
8162	11.232	2.5455	0.1	-1.0576
8163	11.232	2.7273	0.1	6.8216e-002
8164	11.232	2.9091	0.1	0.14609
8165	11.232	3.0909	0.1	0.14609
8166	11.232	3.2727	0.1	6.8217e-002
8167	11.232	3.4545	0.1	-1.0576
8168	11.232	3.6364	0.1	4.1418
8169	11.232	3.8182	0.1	-26.751
8170	11.232	4.	0.1	-52.944
8171	11.232	4.1818	0.1	-11.929
8172	11.232	4.3636	0.1	-4.1337
8173	11.232	4.5455	0.1	-0.43272
8174	11.232	4.7273	0.1	-0.73364
8175	11.232	4.9091	0.1	-0.90058
8176	11.232	5.0909	0.1	-0.60825
8177	11.232	5.2727	0.1	-0.37823
8178	11.232	5.4545	0.1	0.19928
8179	11.232	5.6364	0.1	1.0672
8180	11.232	5.8182	0.1	2.7318
8181	11.416	0.18182	0.1	14.933
8182	11.416	0.36364	0.1	6.9013
8183	11.416	0.54545	0.1	5.2996
8184	11.416	0.72727	0.1	4.7187
8185	11.416	0.90909	0.1	4.6445
8186	11.416	1.0909	0.1	5.9838
8187	11.416	1.2727	0.1	4.2844
8188	11.416	1.4545	0.1	17.472
8189	11.416	1.6364	0.1	-14.17
8190	11.416	1.8182	0.1	98.951
8191	11.416	2.	0.1	421.12
8192	11.416	2.1818	0.1	-17.512
8193	11.416	2.3636	0.1	12.283
8194	11.416	2.5455	0.1	-4.0364
8195	11.416	2.7273	0.1	2.4958
8196	11.416	2.9091	0.1	0.51391
8197	11.416	3.0909	0.1	0.51391
8198	11.416	3.2727	0.1	2.4958
8199	11.416	3.4545	0.1	-4.0364
8200	11.416	3.6364	0.1	12.283
8201	11.416	3.8182	0.1	-17.512
8202	11.416	4.	0.1	421.12
8203	11.416	4.1818	0.1	98.951
8204	11.416	4.3636	0.1	-14.17
8205	11.416	4.5455	0.1	17.472
8206	11.416	4.7273	0.1	4.2844
8207	11.416	4.9091	0.1	5.9838
8208	11.416	5.0909	0.1	4.6445
8209	11.416	5.2727	0.1	4.7187
8210	11.416	5.4545	0.1	5.2996
8211	11.416	5.6364	0.1	6.9013
8212	11.416	5.8182	0.1	14.933
8213	11.767	3.8182	0.1	-49.888
8214	11.767	3.6364	0.1	29.27
8215	11.767	3.4545	0.1	-1.0389
8216	11.767	3.2727	0.1	3.0949
8217	11.767	3.0909	0.1	1.501
8218	11.767	2.9091	0.1	1.501
8219	11.767	2.7273	0.1	3.0949
8220	11.767	2.5455	0.1	-1.0389
8221	11.767	2.3636	0.1	29.27
8222	11.767	2.1818	0.1	-49.888
8223	11.6	3.8182	0.1	-130.46
8224	11.6	3.6364	0.1	26.936
8225	11.6	3.4545	0.1	-0.62763
8226	11.6	3.2727	0.1	3.0029
8227	11.6	3.0909	0.1	1.5747
8228	11.6	2.9091	0.1	1.5747
8229	11.6	2.7273	0.1	3.0029
8230	11.6	2.5455	0.1	-0.62763
8231	11.6	2.3636	0.1	26.936
8232	11.6	2.1818	0.1	-130.46
8233	11.767	5.8182	0.1	-7.1807
8234	11.767	5.6364	0.1	-10.473
8235	11.767	5.4545	0.1	-10.656
8236	11.767	5.2727	0.1	-11.896
8237	11.767	5.0909	0.1	-13.913
8238	11.767	4.9091	0.1	-15.715
8239	11.767	4.7273	0.1	-23.145
8240	11.767	4.5455	0.1	-20.778
8241	11.767	4.3636	0.1	-81.572
8242	11.767	4.1818	0.1	13.773
8243	11.767	4.	0.1	904.1
8244	11.6	4.	0.1	570.36
8245	11.6	4.1818	0.1	12.875
8246	11.6	4.3636	0.1	-87.541
8247	11.6	4.5455	0.1	-22.654
8248	11.6	4.7273	0.1	-26.404
8249	11.6	4.9091	0.1	-18.273
8250	11.6	5.0909	0.1	-16.548
8251	11.6	5.2727	0.1	-14.407
8252	11.6	5.4545	0.1	-13.103
8253	11.6	5.6364	0.1	-12.869
8254	11.6	5.8182	0.1	-9.6467
8255	11.767	0.18182	0.1	-7.1807
8256	11.767	0.36364	0.1	-10.473
8257	11.767	0.54545	0.1	-10.656
8258	11.767	0.72727	0.1	-11.896
8259	11.767	0.90909	0.1	-13.913
8260	11.767	1.0909	0.1	-15.715
8261	11.767	1.2727	0.1	-23.145
8262	11.767	1.4545	0.1	-20.778
8263	11.767	1.6364	0.1	-81.572
8264	11.767	1.8182	0.1	13.773
8265	11.767	2.	0.1	904.1
8266	11.6	2.	0.1	570.36
8267	11.6	1.8182	0.1	12.875
8268	11.6	1.6364	0.1	-87.541
8269	11.6	1.4545	0.1	-22.654
8270	11.6	1.2727	0.1	-26.404
8271	11.6	1.0909	0.1	-18.273
8272	11.6	0.90909	0.1	-16.548
8273	11.6	0.72727	0.1	-14.407
8274	11.6	0.54545	0.1	-13.103
8275	11.6	0.36364	0.1	-12.869
8276	11.6	0.18182	0.1	-9.6467
8277	11.767	6.	0.1	22.714
8278	11.949	6.	0.1	2.3863
8279	12.132	6.	0.1	-2.084
8280	12.314	6.	0.1	-0.58454
8281	12.497	6.	0.1	-0.21652
8282	12.68	6.	0.1	0.25006
8283	12.862	6.	0.1	0.49047
8284	13.045	6.	0.1	0.61381
8285	13.227	6.	0.1	0.63791
8286	13.41	6.	0.1	0.60125
8287	13.593	6.	0.1	0.52914
8288	13.775	6.	0.1	0.44082
8289	13.958	6.	0.1	0.34881
8290	14.14	6.	0.1	0.26091
8291	14.323	6.	0.1	0.18148
8292	14.505	6.	0.1	0.11257
8293	14.688	6.	0.1	5.476e-002
8294	14.871	6.	0.1	7.7265e-003
8295	15.053	6.	0.1	-2.9413e-002
8296	15.236	6.	0.1	-5.774e-002
8297	15.418	6.	0.1	-7.842e-002
8298	15.601	6.	0.1	-9.2625e-002
8299	15.784	6.	0.1	-0.10142
8300	15.966	6.	0.1	-0.10578
8301	16.149	6.	0.1	-0.10654
8302	16.331	6.	0.1	-0.10442
8303	16.514	6.	0.1	-0.10003
8304	16.697	6.	0.1	-9.3877e-002
8305	16.879	6.	0.1	-8.6377e-002
8306	17.062	6.	0.1	-7.7869e-002
8307	17.244	6.	0.1	-6.8619e-002
8308	17.427	6.	0.1	-5.8844e-002
8309	17.609	6.	0.1	-4.8703e-002
8310	17.792	6.	0.1	-3.832e-002
8311	17.975	6.	0.1	-2.7787e-002
8312	18.157	6.	0.1	-1.7163e-002
8313	18.34	6.	0.1	-6.4867e-003
8314	18.522	6.	0.1	4.2254e-003
8315	18.705	6.	0.1	1.4968e-002
8316	18.888	6.	0.1	2.5753e-002
8317	19.07	6.	0.1	3.6604e-002
8318	19.253	6.	0.1	4.755e-002
8319	19.435	6.	0.1	5.8633e-002
8320	19.618	6.	0.1	6.9893e-002
8321	19.8	6.	0.1	8.1391e-002
8322	19.983	6.	0.1	9.3185e-002
8323	20.166	6.	0.1	0.10534
8324	20.348	6.	0.1	0.11793
8325	20.531	6.	0.1	0.13104
8326	20.713	6.	0.1	0.14476
8327	20.896	6.	0.1	0.1592
8328	21.079	6.	0.1	0.17446
8329	21.261	6.	0.1	0.19069
8330	21.444	6.	0.1	0.20804
8331	21.626	6.	0.1	0.2267
8332	21.809	6.	0.1	0.2469
8333	21.992	6.	0.1	0.26892
8334	22.174	6.	0.1	0.29311
8335	22.357	6.	0.1	0.31995
8336	22.539	6.	0.1	0.35004
8337	22.722	6.	0.1	0.3843
8338	22.904	6.	0.1	0.42375
8339	23.087	6.	0.1	0.47116
8340	23.27	6.	0.1	0.52558
8341	23.452	6.	0.1	0.61028
8342	23.635	6.	0.1	0.68491
8343	23.817	6.	0.1	1.0434
8344	24.	6.	0.1	-1.0686
8345	24.	5.8182	0.1	-2.17
8346	24.	5.6364	0.1	-2.2037
8347	24.	5.4545	0.1	-2.4047
8348	24.	5.2727	0.1	-2.4367
8349	24.	5.0909	0.1	-2.473
8350	24.	4.9091	0.1	-2.4939
8351	24.	4.7273	0.1	-2.5104
8352	24.	4.5455	0.1	-2.5225
8353	24.	4.3636	0.1	-2.532
8354	24.	4.1818	0.1	-2.5393
8355	24.	4.	0.1	-2.5449
8356	24.	3.8182	0.1	-2.5493
8357	24.	3.6364	0.1	-2.5525
8358	24.	3.4545	0.1	-2.5549
8359	24.	3.2727	0.1	-2.5564
8360	24.	3.0909	0.1	-2.5571
8361	24.	2.9091	0.1	-2.5571
8362	24.	2.7273	0.1	-2.5564
8363	24.	2.5455	0.1	-2.5549
8364	24.	2.3636	0.1	-2.5525
8365	24.	2.1818	0.1	-2.5493
8366	24.	2.	0.1	-2.5449
8367	24.	1.8182	0.1	-2.5393
8368	24.	1.6364	0.1	-2.532
8369	24.	1.4545	0.1	-2.5225
8370	24.	1.2727	0.1	-2.5104
8371	24.	1.0909	0.1	-2.4939
8372	24.	0.90909	0.1	-2.473
8373	24.	0.72727	0.1	-2.4367
8374	24.	0.54545	0.1	-2.4047
8375	24.	0.36364	0.1	-2.2037
8376	24.	0.18182	0.1	-2.17
8377	1.5894e-015	0.18182	0.1	1193.4
8378	3.1789e-015	0.36364	0.1	2308.3
8379	4.7683e-015	0.54545	0.1	2825.6
8380	6.3578e-015	0.72727	0.1	3135.2
8381	7.9472e-015	0.90909	0.1	3342.8
8382	9.5366e-015	1.0909	0.1	3491.7
8383	1.1126e-014	1.2727	0.1	3602.2
8384	1.2716e-014	1.4545	0.1	3686.2
8385	1.4305e-014	1.6364	0.1	3750.9
8386	1.5894e-014	1.8182	0.1	3801.2
8387	1.7484e-014	2.	0.1	3840.1
8388	1.9073e-014	2.1818	0.1	3870.
8389	2.0663e-014	2.3636	0.1	3892.3
8390	2.2252e-014	2.5455	0.1	3908.2
8391	2.3842e-014	2.7273	0.1	3918.4
8392	2.5431e-014	2.9091	0.1	3923.3
8393	2.702e-014	3.0909	0.1	3923.3
8394	2.861e-014	3.2727	0.1	3918.4
8395	3.0199e-014	3.4545	0.1	3908.2
8396	3.1789e-014	3.6364	0.1	3892.3
8397	3.3378e-014	3.8182	0.1	3870.
8398	3.4968e-014	4.	0.1	3840.1
8399	3.6557e-014	4.1818	0.1	3801.2
8400	3.8147e-014	4.3636	0.1	3750.9
8401	3.9736e-014	4.5455	0.1	3686.2
8402	4.1325e-014	4.7273	0.1	3602.2
8403	4.2915e-014	4.9091	0.1	3491.7
8404	4.4504e-014	5.0909	0.1	3342.8
8405	4.6094e-014	5.2727	0.1	3135.2
8406	4.7683e-014	5.4545	0.1	2825.6
8407	4.9273e-014	5.6364	0.1	2308.3
8408	5.0862e-014	5.8182	0.1	1193.4
8409	24.	0.	0.1	-1.0686
8410	23.817	0.	0.1	1.0434
8411	23.635	0.	0.1	0.68491
8412	23.452	0.	0.1	0.61028
8413	23.27	0.	0.1	0.52558
8414	23.087	0.	0.1	0.47116
8415	22.904	0.	0.1	0.42375
8416	22.722	0.	0.1	0.3843
8417	22.539	0.	0.1	0.35004
8418	22.357	0.	0.1	0.31995
8419	22.174	0.	0.1	0.2931
8420	21.992	0.	0.1	0.26892
8421	21.809	0.	0.1	0.2469
8422	21.626	0.	0.1	0.2267
8423	21.444	0.	0.1	0.20804
8424	21.261	0.	0.1	0.19068
8425	21.079	0.	0.1	0.17446
8426	20.896	0.	0.1	0.1592
8427	20.713	0.	0.1	0.14477
8428	20.531	0.	0.1	0.13104
8429	20.348	0.	0.1	0.11793
8430	20.166	0.	0.1	0.10534
8431	19.983	0.	0.1	9.3187e-002
8432	19.8	0.	0.1	8.1391e-002
8433	19.618	0.	0.1	6.9894e-002
8434	19.435	0.	0.1	5.8635e-002
8435	19.253	0.	0.1	4.7553e-002
8436	19.07	0.	0.1	3.6608e-002
8437	18.888	0.	0.1	2.5755e-002
8438	18.705	0.	0.1	1.4968e-002
8439	18.522	0.	0.1	4.2242e-003
8440	18.34	0.	0.1	-6.4848e-003
8441	18.157	0.	0.1	-1.7164e-002
8442	17.975	0.	0.1	-2.7786e-002
8443	17.792	0.	0.1	-3.8319e-002
8444	17.609	0.	0.1	-4.8701e-002
8445	17.427	0.	0.1	-5.8841e-002
8446	17.244	0.	0.1	-6.862e-002
8447	17.062	0.	0.1	-7.7869e-002
8448	16.879	0.	0.1	-8.6377e-002
8449	16.697	0.	0.1	-9.3875e-002
8450	16.514	0.	0.1	-0.10003
8451	16.331	0.	0.1	-0.10442
8452	16.149	0.	0.1	-0.10654
8453	15.966	0.	0.1	-0.10578
8454	15.784	0.	0.1	-0.10142
8455	15.601	0.	0.1	-9.2625e-002
8456	15.418	0.	0.1	-7.8421e-002
8457	15.236	0.	0.1	-5.774e-002
8458	15.053	0.	0.1	-2.9412e-002
8459	14.871	0.	0.1	7.7265e-003
8460	14.688	0.	0.1	5.4759e-002
8461	14.505	0.	0.1	0.11257
8462	14.323	0.	0.1	0.18148
8463	14.14	0.	0.1	0.26091
8464	13.958	0.	0.1	0.34881
8465	13.775	0.	0.1	0.44082
8466	13.593	0.	0.1	0.52914
8467	13.41	0.	0.1	0.60125
8468	13.227	0.	0.1	0.63791
8469	13.045	0.	0.1	0.61381
8470	12.862	0.	0.1	0.49047
8471	12.68	0.	0.1	0.25006
8472	12.497	0.	0.1	-0.21652
8473	12.314	0.	0.1	-0.58454
8474	12.132	0.	0.1	-2.084
8475	11.949	0.	0.1	2.3863
8476	11.767	0.	0.1	22.714
8477	11.6	0.	0.1	26.02
8478	11.416	9.5514e-031	0.1	3.3943
8479	11.232	9.3974e-031	0.1	-1.4706
8480	11.048	9.2433e-031	0.1	0.27737
8481	10.863	9.0893e-031	0.1	0.68785
8482	10.679	8.9352e-031	0.1	1.222
8483	10.495	8.7811e-031	0.1	1.4825
8484	10.311	8.6271e-031	0.1	1.5987
8485	10.127	8.473e-031	0.1	1.5901
8486	9.9429	8.319e-031	0.1	1.5024
8487	9.7587	8.1649e-031	0.1	1.3663
8488	9.5746	8.0109e-031	0.1	1.2059
8489	9.3905	7.8568e-031	0.1	1.0377
8490	9.2063	7.7028e-031	0.1	0.8723
8491	9.0222	7.5487e-031	0.1	0.71585
8492	8.8381	7.3946e-031	0.1	0.57154
8493	8.654	7.2406e-031	0.1	0.44045
8494	8.4698	7.0865e-031	0.1	0.32236
8495	8.2857	6.9325e-031	0.1	0.21627
8496	8.1016	6.7784e-031	0.1	0.12081
8497	7.9175	6.6244e-031	0.1	3.4406e-002
8498	7.7333	6.4703e-031	0.1	-4.4494e-002
8499	7.5492	6.3163e-031	0.1	-0.11741
8500	7.3651	6.1622e-031	0.1	-0.18575
8501	7.181	6.0082e-031	0.1	-0.25081
8502	6.9968	5.8541e-031	0.1	-0.31374
8503	6.8127	5.7e-031	0.1	-0.11936
8504	6.6286	5.546e-031	0.1	0.21969
8505	6.4444	5.3919e-031	0.1	0.56474
8506	6.2603	5.2379e-031	0.1	0.91278
8507	6.0762	5.0838e-031	0.1	1.2601
8508	5.8921	4.9298e-031	0.1	1.6023
8509	5.7079	4.7757e-031	0.1	1.934
8510	5.5238	4.6217e-031	0.1	2.2489
8511	5.3397	4.4676e-031	0.1	2.5392
8512	5.1556	4.3135e-031	0.1	2.796
8513	4.9714	4.1595e-031	0.1	3.0084
8514	4.7873	4.0054e-031	0.1	3.1637
8515	4.6032	3.8514e-031	0.1	3.2468
8516	4.419	3.6973e-031	0.1	3.2402
8517	4.2349	3.5433e-031	0.1	3.1235
8518	4.0508	3.3892e-031	0.1	2.873
8519	3.8667	3.2352e-031	0.1	2.4619
8520	3.6825	3.0811e-031	0.1	1.8607
8521	3.4984	2.927e-031	0.1	1.0403
8522	3.3143	2.773e-031	0.1	-1.2567e-002
8523	3.1302	2.6189e-031	0.1	-1.2118
8524	2.946	2.4649e-031	0.1	-2.1269
8525	2.7619	2.3108e-031	0.1	-2.5963
8526	2.5778	2.1568e-031	0.1	-2.9275
8527	2.3937	2.0027e-031	0.1	-3.2347
8528	2.2095	1.8487e-031	0.1	-3.5501
8529	2.0254	1.6946e-031	0.1	-3.8886
8530	1.8413	1.5406e-031	0.1	-4.26
8531	1.6571	1.3865e-031	0.1	-4.6788
8532	1.473	1.2324e-031	0.1	-5.1454
8533	1.2889	1.0784e-031	0.1	-5.723
8534	1.1048	9.2433e-032	0.1	-6.2826
8535	0.92063	7.7028e-032	0.1	-7.3528
8536	0.73651	6.1622e-032	0.1	-7.5225
8537	0.55238	4.6217e-032	0.1	-10.268
8538	0.36825	3.0811e-032	0.1	-16.578
8539	0.18413	1.5406e-032	0.1	51.986
8540	0.	0.	0.1	-354.58
8541	3.937e-014	6.	0.1	-354.58
8542	0.18413	6.	0.1	51.986
8543	0.36825	6.	0.1	-16.578
8544	0.55238	6.	0.1	-10.268
8545	0.73651	6.	0.1	-7.5225
8546	0.92063	6.	0.1	-7.3528
8547	1.1048	6.	0.1	-6.2826
8548	1.2889	6.	0.1	-5.723
8549	1.473	6.	0.1	-5.1454
8550	1.6571	6.	0.1	-4.6788
8551	1.8413	6.	0.1	-4.26
8552	2.0254	6.	0.1	-3.8886
8553	2.2095	6.	0.1	-3.5501
8554	2.3937	6.	0.1	-3.2347
8555	2.5778	6.	0.1	-2.9275
8556	2.7619	6.	0.1	-2.5963
8557	2.946	6.	0.1	-2.1269
8558	3.1302	6.	0.1	-1.2118
8559	3.3143	6.	0.1	-1.2553e-002
8560	3.4984	6.	0.1	1.0404
8561	3.6825	6.	0.1	1.8607
8562	3.8667	6.	0.1	2.4619
8563	4.0508	6.	0.1	2.873
8564	4.2349	6.	0.1	3.1235
8565	4.419	6.	0.1	3.2402
8566	4.6032	6.	0.1	3.2468
8567	4.7873	6.	0.1	3.1637
8568	4.9714	6.	0.1	3.0084
8569	5.1556	6.	0.1	2.796
8570	5.3397	6.	0.1	2.5392
8571	5.5238	6.	0.1	2.2489
8572	5.7079	6.	0.1	1.934
8573	5.8921	6.	0.1	1.6023
8574	6.0762	6.	0.1	1.2601
8575	6.2603	6.	0.1	0.91278
8576	6.4444	6.	0.1	0.56474
8577	6.6286	6.	0.1	0.21968
8578	6.8127	6.	0.1	-0.11937
8579	6.9968	6.	0.1	-0.31374
8580	7.181	6.	0.1	-0.25081
8581	7.3651	6.	0.1	-0.18575
8582	7.5492	6.	0.1	-0.11741
8583	7.7333	6.	0.1	-4.4494e-002
8584	7.9175	6.	0.1	3.4407e-002
8585	8.1016	6.	0.1	0.12081
8586	8.2857	6.	0.1	0.21627
8587	8.4698	6.	0.1	0.32236
8588	8.654	6.	0.1	0.44045
8589	8.8381	6.	0.1	0.57155
8590	9.0222	6.	0.1	0.71586
8591	9.2063	6.	0.1	0.8723
8592	9.3905	6.	0.1	1.0377
8593	9.5746	6.	0.1	1.2059
8594	9.7587	6.	0.1	1.3663
8595	9.9429	6.	0.1	1.5024
8596	10.127	6.	0.1	1.5901
8597	10.311	6.	0.1	1.5987
8598	10.495	6.	0.1	1.4825
8599	10.679	6.	0.1	1.222
8600	10.863	6.	0.1	0.68785
8601	11.048	6.	0.1	0.27737
8602	11.232	6.	0.1	-1.4706
8603	11.416	6.	0.1	3.3943
8604	11.6	6.	0.1	26.02
8605	11.416	6.	0.	-3.3943
8606	11.232	6.	0.	1.4706
8607	11.048	6.	0.	-0.27737
8608	10.863	6.	0.	-0.68785
8609	10.679	6.	0.	-1.222
8610	10.495	6.	0.	-1.4825
8611	10.311	6.	0.	-1.5987
8612	10.127	6.	0.	-1.5901
8613	9.9429	6.	0.	-1.5024
8614	9.7587	6.	0.	-1.3663
8615	9.5746	6.	0.	-1.2059
8616	9.3905	6.	0.	-1.0377
8617	9.2063	6.	0.	-0.8723
8618	9.0222	6.	0.	-0.71586
8619	8.8381	6.	0.	-0.57155
8620	8.654	6.	0.	-0.44045
8621	8.4698	6.	0.	-0.32236
8622	8.2857	6.	0.	-0.21627
8623	8.1016	6.	0.	-0.12081
8624	7.9175	6.	0.	-3.4407e-002
8625	7.7333	6.	0.	4.4494e-002
8626	7.5492	6.	0.	0.11741
8627	7.3651	6.	0.	0.18575
8628	7.181	6.	0.	0.25081
8629	6.9968	6.	0.	0.31374
8630	6.8127	6.	0.	0.11937
8631	6.6286	6.	0.	-0.21968
8632	6.4444	6.	0.	-0.56474
8633	6.2603	6.	0.	-0.91277
8634	6.0762	6.	0.	-1.2601
8635	5.8921	6.	0.	-1.6023
8636	5.7079	6.	0.	-1.934
8637	5.5238	6.	0.	-2.2489
8638	5.3397	6.	0.	-2.5392
8639	5.1556	6.	0.	-2.796
8640	4.9714	6.	0.	-3.0084
8641	4.7873	6.	0.	-3.1637
8642	4.6032	6.	0.	-3.2468
8643	4.419	6.	0.	-3.2402
8644	4.2349	6.	0.	-3.1235
8645	4.0508	6.	0.	-2.873
8646	3.8667	6.	0.	-2.4619
8647	3.6825	6.	0.	-1.8607
8648	3.4984	6.	0.	-1.0403
8649	3.3143	6.	0.	1.2553e-002
8650	3.1302	6.	0.	1.2118
8651	2.946	6.	0.	2.1269
8652	2.7619	6.	0.	2.5963
8653	2.5778	6.	0.	2.9275
8654	2.3937	6.	0.	3.2347
8655	2.2095	6.	0.	3.5501
8656	2.0254	6.	0.	3.8886
8657	1.8413	6.	0.	4.26
8658	1.6571	6.	0.	4.6788
8659	1.473	6.	0.	5.1454
8660	1.2889	6.	0.	5.723
8661	1.1048	6.	0.	6.2826
8662	0.92063	6.	0.	7.3528
8663	0.73651	6.	0.	7.5225
8664	0.55238	6.	0.	10.268
8665	0.36825	6.	0.	16.578
8666	0.18413	6.	0.	-51.986
8667	11.6	6.	0.	-26.02
8668	3.937e-014	6.	0.	354.58
8669	0.18413	1.5406e-032	0.	-51.986
8670	0.36825	3.0811e-032	0.	16.578
8671	0.55238	4.6217e-032	0.	10.268
8672	0.73651	6.1622e-032	0.	7.5225
8673	0.92063	7.7028e-032	0.	7.3528
8674	1.1048	9.2433e-032	0.	6.2826
8675	1.2889	1.0784e-031	0.	5.723
8676	1.473	1.2324e-031	0.	5.1454
8677	1.6571	1.3865e-031	0.	4.6788
8678	1.8413	1.5406e-031	0.	4.26
8679	2.0254	1.6946e-031	0.	3.8886
8680	2.2095	1.8487e-031	0.	3.5501
8681	2.3937	2.0027e-031	0.	3.2347
8682	2.5778	2.1568e-031	0.	2.9275
8683	2.7619	2.3108e-031	0.	2.5963
8684	2.946	2.4649e-031	0.	2.1269
8685	3.1302	2.6189e-031	0.	1.2118
8686	3.3143	2.773e-031	0.	1.2566e-002
8687	3.4984	2.927e-031	0.	-1.0403
8688	3.6825	3.0811e-031	0.	-1.8607
8689	3.8667	3.2352e-031	0.	-2.4619
8690	4.0508	3.3892e-031	0.	-2.873
8691	4.2349	3.5433e-031	0.	-3.1235
8692	4.419	3.6973e-031	0.	-3.2402
8693	4.6032	3.8514e-031	0.	-3.2468
8694	4.7873	4.0054e-031	0.	-3.1637
8695	4.9714	4.1595e-031	0.	-3.0084
8696	5.1556	4.3135e-031	0.	-2.796
8697	5.3397	4.4676e-031	0.	-2.5392
8698	5.5238	4.6217e-031	0.	-2.2489
8699	5.7079	4.7757e-031	0.	-1.934
8700	5.8921	4.9298e-031	0.	-1.6023
8701	6.0762	5.0838e-031	0.	-1.2601
8702	6.2603	5.2379e-031	0.	-0.91278
8703	6.4444	5.3919e-031	0.	-0.56474
8704	6.6286	5.546e-031	0.	-0.21969
8705	6.8127	5.7e-031	0.	0.11937
8706	6.9968	5.8541e-031	0.	0.31374
8707	7.181	6.0082e-031	0.	0.25081
8708	7.3651	6.1622e-031	0.	0.18575
8709	7.5492	6.3163e-031	0.	0.11741
8710	7.7333	6.4703e-031	0.	4.4495e-002
8711	7.9175	6.6244e-031	0.	-3.4406e-002
8712	8.1016	6.7784e-031	0.	-0.12081
8713	8.2857	6.9325e-031	0.	-0.21627
8714	8.4698	7.0865e-031	0.	-0.32236
8715	8.654	7.2406e-031	0.	-0.44045
8716	8.8381	7.3946e-031	0.	-0.57154
8717	9.0222	7.5487e-031	0.	-0.71586
8718	9.2063	7.7028e-031	0.	-0.8723
8719	9.3905	7.8568e-031	0.	-1.0377
8720	9.5746	8.0109e-031	0.	-1.2059
8721	9.7587	8.1649e-031	0.	-1.3663
8722	9.9429	8.319e-031	0.	-1.5024
8723	10.127	8.473e-031	0.	-1.5901
8724	10.311	8.6271e-031	0.	-1.5987
8725	10.495	8.7811e-031	0.	-1.4825
8726	10.679	8.9352e-031	0.	-1.222
8727	10.863	9.0893e-031	0.	-0.68784
8728	11.048	9.2433e-031	0.	-0.27737
8729	11.232	9.3974e-031	0.	1.4706
8730	11.416	9.5514e-031	0.	-3.3943
8731	11.6	0.	0.	-26.02
8732	0.	0.	0.	354.58
8733	11.949	0.	0.	-2.3863
8734	12.132	0.	0.	2.084
8735	12.314	0.	0.	0.58454
8736	12.497	0.	0.	0.21652
8737	12.68	0.	0.	-0.25006
8738	12.862	0.	0.	-0.49047
8739	13.045	0.	0.	-0.61381
8740	13.227	0.	0.	-0.63791
8741	13.41	0.	0.	-0.60125
8742	13.593	0.	0.	-0.52914
8743	13.775	0.	0.	-0.44082
8744	13.958	0.	0.	-0.34881
8745	14.14	0.	0.	-0.26091
8746	14.323	0.	0.	-0.18148
8747	14.505	0.	0.	-0.11257
8748	14.688	0.	0.	-5.4759e-002
8749	14.871	0.	0.	-7.7268e-003
8750	15.053	0.	0.	2.9413e-002
8751	15.236	0.	0.	5.7738e-002
8752	15.418	0.	0.	7.8421e-002
8753	15.601	0.	0.	9.2625e-002
8754	15.784	0.	0.	0.10142
8755	15.966	0.	0.	0.10578
8756	16.149	0.	0.	0.10654
8757	16.331	0.	0.	0.10442
8758	16.514	0.	0.	0.10003
8759	16.697	0.	0.	9.3875e-002
8760	16.879	0.	0.	8.6377e-002
8761	17.062	0.	0.	7.7869e-002
8762	17.244	0.	0.	6.862e-002
8763	17.427	0.	0.	5.8843e-002
8764	17.609	0.	0.	4.8703e-002
8765	17.792	0.	0.	3.832e-002
8766	17.975	0.	0.	2.7787e-002
8767	18.157	0.	0.	1.7163e-002
8768	18.34	0.	0.	6.4864e-003
8769	18.522	0.	0.	-4.2244e-003
8770	18.705	0.	0.	-1.4967e-002
8771	18.888	0.	0.	-2.5755e-002
8772	19.07	0.	0.	-3.6604e-002
8773	19.253	0.	0.	-4.7551e-002
8774	19.435	0.	0.	-5.8634e-002
8775	19.618	0.	0.	-6.9894e-002
8776	19.8	0.	0.	-8.1394e-002
8777	19.983	0.	0.	-9.3186e-002
8778	20.166	0.	0.	-0.10534
8779	20.348	0.	0.	-0.11793
8780	20.531	0.	0.	-0.13104
8781	20.713	0.	0.	-0.14477
8782	20.896	0.	0.	-0.1592
8783	21.079	0.	0.	-0.17446
8784	21.261	0.	0.	-0.19069
8785	21.444	0.	0.	-0.20804
8786	21.626	0.	0.	-0.2267
8787	21.809	0.	0.	-0.2469
8788	21.992	0.	0.	-0.26892
8789	22.174	0.	0.	-0.2931
8790	22.357	0.	0.	-0.31995
8791	22.539	0.	0.	-0.35003
8792	22.722	0.	0.	-0.3843
8793	22.904	0.	0.	-0.42375
8794	23.087	0.	0.	-0.47117
8795	23.27	0.	0.	-0.52558
8796	23.452	0.	0.	-0.61029
8797	23.635	0.	0.	-0.68491
8798	23.817	0.	0.	-1.0434
8799	11.767	0.	0.	-22.714
8800	24.	0.	0.	1.0686
8801	5.0862e-014	5.8182	0.	-1193.4
8802	4.9273e-014	5.6364	0.	-2308.3
8803	4.7683e-014	5.4545	0.	-2825.6
8804	4.6094e-014	5.2727	0.	-3135.2
8805	4.4504e-014	5.0909	0.	-3342.8
8806	4.2915e-014	4.9091	0.	-3491.7
8807	4.1325e-014	4.7273	0.	-3602.2
8808	3.9736e-014	4.5455	0.	-3686.2
8809	3.8147e-014	4.3636	0.	-3750.9
8810	3.6557e-014	4.1818	0.	-3801.2
8811	3.4968e-014	4.	0.	-3840.1
8812	3.3378e-014	3.8182	0.	-3870.
8813	3.1789e-014	3.6364	0.	-3892.3
8814	3.0199e-014	3.4545	0.	-3908.2
8815	2.861e-014	3.2727	0.	-3918.4
8816	2.702e-014	3.0909	0.	-3923.3
8817	2.5431e-014	2.9091	0.	-3923.3
8818	2.3842e-014	2.7273	0.	-3918.4
8819	2.2252e-014	2.5455	0.	-3908.2
8820	2.0663e-014	2.3636	0.	-3892.3
8821	1.9073e-014	2.1818	0.	-3870.
8822	1.7484e-014	2.	0.	-3840.1
8823	1.5894e-014	1.8182	0.	-3801.2
8824	1.4305e-014	1.6364	0.	-3750.9
8825	1.2716e-014	1.4545	0.	-3686.2
8826	1.1126e-014	1.2727	0.	-3602.2
8827	9.5366e-015	1.0909	0.	-3491.7
8828	7.9472e-015	0.90909	0.	-3342.8
8829	6.3578e-015	0.72727	0.	-3135.2
8830	4.7683e-015	0.54545	0.	-2825.6
8831	3.1789e-015	0.36364	0.	-2308.3
8832	1.5894e-015	0.18182	0.	-1193.4
8833	24.	0.18182	0.	2.17
8834	24.	0.36364	0.	2.2037
8835	24.	0.54545	0.	2.4047
8836	24.	0.72727	0.	2.4367
8837	24.	0.90909	0.	2.473
8838	24.	1.0909	0.	2.4939
8839	24.	1.2727	0.	2.5104
8840	24.	1.4545	0.	2.5225
8841	24.	1.6364	0.	2.532
8842	24.	1.8182	0.	2.5393
8843	24.	2.	0.	2.5449
8844	24.	2.1818	0.	2.5493
8845	24.	2.3636	0.	2.5525
8846	24.	2.5455	0.	2.5549
8847	24.	2.7273	0.	2.5564
8848	24.	2.9091	0.	2.5571
8849	24.	3.0909	0.	2.5571
8850	24.	3.2727	0.	2.5564
8851	24.	3.4545	0.	2.5549
8852	24.	3.6364	0.	2.5526
8853	24.	3.8182	0.	2.5493
8854	24.	4.	0.	2.5449
8855	24.	4.1818	0.	2.5393
8856	24.	4.3636	0.	2.532
8857	24.	4.5455	0.	2.5225
8858	24.	4.7273	0.	2.5104
8859	24.	4.9091	0.	2.4939
8860	24.	5.0909	0.	2.473
8861	24.	5.2727	0.	2.4367
8862	24.	5.4545	0.	2.4047
8863	24.	5.6364	0.	2.2037
8864	24.	5.8182	0.	2.17
8865	24.	6.	0.	1.0686
8866	23.817	6.	0.	-1.0434
8867	23.635	6.	0.	-0.68491
8868	23.452	6.	0.	-0.61028
8869	23.27	6.	0.	-0.52558
8870	23.087	6.	0.	-0.47116
8871	22.904	6.	0.	-0.42375
8872	22.722	6.	0.	-0.3843
8873	22.539	6.	0.	-0.35004
8874	22.357	6.	0.	-0.31995
8875	22.174	6.	0.	-0.29311
8876	21.992	6.	0.	-0.26891
8877	21.809	6.	0.	-0.2469
8878	21.626	6.	0.	-0.2267
8879	21.444	6.	0.	-0.20804
8880	21.261	6.	0.	-0.19069
8881	21.079	6.	0.	-0.17446
8882	20.896	6.	0.	-0.1592
8883	20.713	6.	0.	-0.14476
8884	20.531	6.	0.	-0.13104
8885	20.348	6.	0.	-0.11793
8886	20.166	6.	0.	-0.10534
8887	19.983	6.	0.	-9.3185e-002
8888	19.8	6.	0.	-8.1392e-002
8889	19.618	6.	0.	-6.9894e-002
8890	19.435	6.	0.	-5.863e-002
8891	19.253	6.	0.	-4.755e-002
8892	19.07	6.	0.	-3.6604e-002
8893	18.888	6.	0.	-2.5754e-002
8894	18.705	6.	0.	-1.4968e-002
8895	18.522	6.	0.	-4.2259e-003
8896	18.34	6.	0.	6.4877e-003
8897	18.157	6.	0.	1.7164e-002
8898	17.975	6.	0.	2.7789e-002
8899	17.792	6.	0.	3.8321e-002
8900	17.609	6.	0.	4.8703e-002
8901	17.427	6.	0.	5.8843e-002
8902	17.244	6.	0.	6.8619e-002
8903	17.062	6.	0.	7.787e-002
8904	16.879	6.	0.	8.6377e-002
8905	16.697	6.	0.	9.3876e-002
8906	16.514	6.	0.	0.10003
8907	16.331	6.	0.	0.10442
8908	16.149	6.	0.	0.10654
8909	15.966	6.	0.	0.10578
8910	15.784	6.	0.	0.10142
8911	15.601	6.	0.	9.2626e-002
8912	15.418	6.	0.	7.8422e-002
8913	15.236	6.	0.	5.7741e-002
8914	15.053	6.	0.	2.9413e-002
8915	14.871	6.	0.	-7.7273e-003
8916	14.688	6.	0.	-5.4759e-002
8917	14.505	6.	0.	-0.11257
8918	14.323	6.	0.	-0.18148
8919	14.14	6.	0.	-0.26091
8920	13.958	6.	0.	-0.34881
8921	13.775	6.	0.	-0.44082
8922	13.593	6.	0.	-0.52914
8923	13.41	6.	0.	-0.60125
8924	13.227	6.	0.	-0.63791
8925	13.045	6.	0.	-0.61381
8926	12.862	6.	0.	-0.49047
8927	12.68	6.	0.	-0.25006
8928	12.497	6.	0.	0.21652
8929	12.314	6.	0.	0.58454
8930	12.132	6.	0.	2.084
8931	11.949	6.	0.	-2.3863
8932	11.767	6.	0.	-22.714
8933	11.6	1.8182	0.	-12.875
8934	11.6	1.6364	0.	87.541
8935	11.6	1.4545	0.	22.654
8936	11.6	1.2727	0.	26.404
8937	11.6	1.0909	0.	18.273
8938	11.6	0.90909	0.	16.548
8939	11.6	0.72727	0.	14.407
8940	11.6	0.54545	0.	13.103
8941	11.6	0.36364	0.	12.869
8942	11.6	0.18182	0.	9.6467
8943	11.6	2.	0.	-570.37
8944	11.767	0.18182	0.	7.1807
8945	11.767	0.36364	0.	10.473
8946	11.767	0.54545	0.	10.656
8947	11.767	0.72727	0.	11.896
8948	11.767	0.90909	0.	13.913
8949	11.767	1.0909	0.	15.715
8950	11.767	1.2727	0.	23.145
8951	11.767	1.4545	0.	20.778
8952	11.767	1.6364	0.	81.572
8953	11.767	1.8182	0.	-13.773
8954	11.767	2.	0.	-904.1
8955	11.6	4.1818	0.	-12.875
8956	11.6	4.3636	0.	87.541
8957	11.6	4.5455	0.	22.654
8958	11.6	4.7273	0.	26.404
8959	11.6	4.9091	0.	18.273
8960	11.6	5.0909	0.	16.548
8961	11.6	5.2727	0.	14.407
8962	11.6	5.4545	0.	13.103
8963	11.6	5.6364	0.	12.869
8964	11.6	5.8182	0.	9.6467
8965	11.6	4.	0.	-570.36
8966	11.767	5.8182	0.	7.1807
8967	11.767	5.6364	0.	10.473
8968	11.767	5.4545	0.	10.656
8969	11.767	5.2727	0.	11.896
8970	11.767	5.0909	0.	13.913
8971	11.767	4.9091	0.	15.715
8972	11.767	4.7273	0.	23.145
8973	11.767	4.5455	0.	20.778
8974	11.767	4.3636	0.	81.572
8975	11.767	4.1818	0.	-13.773
8976	11.767	4.	0.	-904.1
8977	11.6	2.2727	0.	49.58
8978	11.683	2.1818	0.	90.987
8979	11.508	2.1818	0.	73.512
8980	11.6	2.1818	5.e-002	-6.7471e-004
8981	11.6	2.0909	0.	-249.15
8982	11.6	2.4545	0.	-12.955
8983	11.683	2.3636	0.	-28.029
8984	11.508	2.3636	0.	-19.617
8985	11.6	2.3636	5.e-002	-4.0585e-004
8986	11.6	2.6364	0.	-1.1824
8987	11.683	2.5455	0.	0.79109
8988	11.508	2.5455	0.	2.3321
8989	11.6	2.5455	5.e-002	-2.8134e-004
8990	11.6	2.8182	0.	-2.2734
8991	11.683	2.7273	0.	-3.0672
8992	11.508	2.7273	0.	-2.7645
8993	11.6	2.7273	5.e-002	-1.8489e-004
8994	11.6	3.	0.	-1.5637
8995	11.683	2.9091	0.	-1.5529
8996	11.508	2.9091	0.	-1.0571
8997	11.6	2.9091	5.e-002	-7.6707e-005
8998	11.6	3.1818	0.	-2.2734
8999	11.683	3.0909	0.	-1.5529
9000	11.508	3.0909	0.	-1.0571
9001	11.6	3.0909	5.e-002	-1.6999e-005
9002	11.6	3.3636	0.	-1.1824
9003	11.683	3.2727	0.	-3.0672
9004	11.508	3.2727	0.	-2.7645
9005	11.6	3.2727	5.e-002	6.8604e-005
9006	11.6	3.5455	0.	-12.955
9007	11.683	3.4545	0.	0.79108
9008	11.508	3.4545	0.	2.3321
9009	11.6	3.4545	5.e-002	1.983e-004
9010	11.6	3.7273	0.	49.58
9011	11.683	3.6364	0.	-28.029
9012	11.508	3.6364	0.	-19.617
9013	11.6	3.6364	5.e-002	3.7928e-004
9014	11.683	3.8182	0.	90.987
9015	11.508	3.8182	0.	73.512
9016	11.6	3.8182	5.e-002	5.3358e-004
9017	11.6	3.9091	0.	-249.15
9018	11.767	2.2727	0.	14.282
9019	11.858	2.1818	0.	14.73
9020	11.767	2.1818	5.e-002	-5.759e-004
9021	11.767	2.0909	0.	-452.19
9022	11.767	2.4545	0.	-13.793
9023	11.858	2.3636	0.	-21.182
9024	11.767	2.3636	5.e-002	-4.3004e-004
9025	11.767	2.6364	0.	-1.0027
9026	11.858	2.5455	0.	2.3139
9027	11.767	2.5455	5.e-002	-2.3579e-004
9028	11.767	2.8182	0.	-2.2752
9029	11.858	2.7273	0.	-2.7095
9030	11.767	2.7273	5.e-002	-1.0863e-004
9031	11.767	3.	0.	-1.4849
9032	11.858	2.9091	0.	-0.90466
9033	11.767	2.9091	5.e-002	-5.2709e-005
9034	11.767	3.1818	0.	-2.2752
9035	11.858	3.0909	0.	-0.90466
9036	11.767	3.0909	5.e-002	-3.6101e-005
9037	11.767	3.3636	0.	-1.0027
9038	11.858	3.2727	0.	-2.7095
9039	11.767	3.2727	5.e-002	5.9429e-005
9040	11.767	3.5455	0.	-13.793
9041	11.858	3.4545	0.	2.3139
9042	11.767	3.4545	5.e-002	1.4734e-004
9043	11.767	3.7273	0.	14.282
9044	11.858	3.6364	0.	-21.182
9045	11.767	3.6364	5.e-002	3.2216e-004
9046	11.858	3.8182	0.	14.729
9047	11.767	3.8182	5.e-002	4.4867e-004
9048	11.767	3.9091	0.	-452.19
9049	11.416	5.7273	0.	-9.9384
9050	11.324	5.8182	0.	-9.4304
9051	11.416	5.8182	5.e-002	-5.008e-006
9052	11.416	5.9091	0.	-9.6641
9053	11.508	5.8182	0.	1.5364
9054	11.416	5.5455	0.	-5.7874
9055	11.324	5.6364	0.	-4.4576
9056	11.416	5.6364	5.e-002	-6.2857e-006
9057	11.508	5.6364	0.	2.4303
9058	11.416	5.3636	0.	-4.9224
9059	11.324	5.4545	0.	-2.9507
9060	11.416	5.4545	5.e-002	5.3375e-006
9061	11.508	5.4545	0.	1.5653
9062	11.416	5.1818	0.	-4.6502
9063	11.324	5.2727	0.	-2.2726
9064	11.416	5.2727	5.e-002	1.2316e-005
9065	11.508	5.2727	0.	1.5252
9066	11.416	5.	0.	-5.3012
9067	11.324	5.0909	0.	-2.0689
9068	11.416	5.0909	5.e-002	2.4689e-005
9069	11.508	5.0909	0.	1.7938
9070	11.416	4.8182	0.	-5.1324
9071	11.324	4.9091	0.	-2.5542
9072	11.416	4.9091	5.e-002	2.2688e-005
9073	11.508	4.9091	0.	0.57956
9074	11.416	4.6364	0.	-10.881
9075	11.324	4.7273	0.	-1.7208
9076	11.416	4.7273	5.e-002	7.0011e-005
9077	11.508	4.7273	0.	4.9293
9078	11.416	4.4545	0.	-1.6203
9079	11.324	4.5455	0.	-8.4816
9080	11.416	4.5455	5.e-002	9.5854e-005
9081	11.508	4.5455	0.	-13.212
9082	11.416	4.2727	0.	-42.928
9083	11.324	4.3636	0.	9.4443
9084	11.416	4.3636	5.e-002	1.8684e-004
9085	11.508	4.3636	0.	53.972
9086	11.416	4.0909	0.	-265.64
9087	11.324	4.1818	0.	-44.001
9088	11.416	4.1818	5.e-002	4.9179e-004
9089	11.508	4.1818	0.	-240.36
9090	11.416	3.9091	0.	-187.28
9091	11.324	4.	0.	-185.12
9092	11.416	4.	5.e-002	3.8557e-004
9093	11.508	4.	0.	-269.27
9094	11.416	3.7273	0.	3.0176
9095	11.324	3.8182	0.	24.219
9096	11.416	3.8182	5.e-002	1.1889e-004
9097	11.416	3.5455	0.	-4.1561
9098	11.324	3.6364	0.	-8.1675
9099	11.416	3.6364	5.e-002	1.5679e-004
9100	11.416	3.3636	0.	0.81579
9101	11.324	3.4545	0.	2.5621
9102	11.416	3.4545	5.e-002	8.0473e-005
9103	11.416	3.1818	0.	-1.4946
9104	11.324	3.2727	0.	-1.2868
9105	11.416	3.2727	5.e-002	4.0226e-005
9106	11.416	3.	0.	-0.50288
9107	11.324	3.0909	0.	-0.33539
9108	11.416	3.0909	5.e-002	-1.1099e-005
9109	11.416	2.8182	0.	-1.4946
9110	11.324	2.9091	0.	-0.33539
9111	11.416	2.9091	5.e-002	-4.9754e-005
9112	11.416	2.6364	0.	0.81579
9113	11.324	2.7273	0.	-1.2868
9114	11.416	2.7273	5.e-002	-1.0082e-004
9115	11.416	2.4545	0.	-4.1561
9116	11.324	2.5455	0.	2.5621
9117	11.416	2.5455	5.e-002	-1.4079e-004
9118	11.416	2.2727	0.	3.0176
9119	11.324	2.3636	0.	-8.1675
9120	11.416	2.3636	5.e-002	-2.1841e-004
9121	11.416	2.0909	0.	-187.28
9122	11.324	2.1818	0.	24.219
9123	11.416	2.1818	5.e-002	-1.4842e-004
9124	11.416	1.9091	0.	-265.64
9125	11.324	2.	0.	-185.12
9126	11.416	2.	5.e-002	-5.1354e-004
9127	11.508	2.	0.	-269.27
9128	11.416	1.7273	0.	-42.928
9129	11.324	1.8182	0.	-44.001
9130	11.416	1.8182	5.e-002	-6.3416e-004
9131	11.508	1.8182	0.	-240.36
9132	11.416	1.5455	0.	-1.6203
9133	11.324	1.6364	0.	9.4443
9134	11.416	1.6364	5.e-002	-2.6126e-004
9135	11.508	1.6364	0.	53.972
9136	11.416	1.3636	0.	-10.881
9137	11.324	1.4545	0.	-8.4816
9138	11.416	1.4545	5.e-002	-1.3205e-004
9139	11.508	1.4545	0.	-13.212
9140	11.416	1.1818	0.	-5.1324
9141	11.324	1.2727	0.	-1.7208
9142	11.416	1.2727	5.e-002	-6.3998e-005
9143	11.508	1.2727	0.	4.9293
9144	11.416	1.	0.	-5.3012
9145	11.324	1.0909	0.	-2.5542
9146	11.416	1.0909	5.e-002	-3.0744e-005
9147	11.508	1.0909	0.	0.57956
9148	11.416	0.81818	0.	-4.6502
9149	11.324	0.90909	0.	-2.0689
9150	11.416	0.90909	5.e-002	-5.5451e-006
9151	11.508	0.90909	0.	1.7938
9152	11.416	0.63636	0.	-4.9224
9153	11.324	0.72727	0.	-2.2726
9154	11.416	0.72727	5.e-002	-1.07e-014
9155	11.508	0.72727	0.	1.5252
9156	11.416	0.45455	0.	-5.7874
9157	11.324	0.54545	0.	-2.9507
9158	11.416	0.54545	5.e-002	7.6447e-006
9159	11.508	0.54545	0.	1.5653
9160	11.416	0.27273	0.	-9.9384
9161	11.324	0.36364	0.	-4.4576
9162	11.416	0.36364	5.e-002	7.6105e-006
9163	11.508	0.36364	0.	2.4303
9164	11.324	0.18182	0.	-9.4304
9165	11.416	0.18182	5.e-002	7.9932e-006
9166	11.416	9.0909e-002	0.	-9.6641
9167	11.508	0.18182	0.	1.5364
9168	11.232	5.7273	0.	-1.7976
9169	11.14	5.8182	0.	-1.5378
9170	11.232	5.8182	5.e-002	3.5139e-006
9171	11.232	5.9091	0.	-0.26052
9172	11.232	5.5455	0.	-0.48724
9173	11.14	5.6364	0.	-0.92792
9174	11.232	5.6364	5.e-002	6.2189e-006
9175	11.232	5.3636	0.	0.14217
9176	11.14	5.4545	0.	-0.47998
9177	11.232	5.4545	5.e-002	1.4246e-005
9178	11.232	5.1818	0.	0.5136
9179	11.14	5.2727	0.	-0.19003
9180	11.232	5.2727	5.e-002	2.0475e-005
9181	11.232	5.	0.	0.76258
9182	11.14	5.0909	0.	-0.10669
9183	11.232	5.0909	5.e-002	3.3483e-005
9184	11.232	4.8182	0.	0.82132
9185	11.14	4.9091	0.	-0.12121
9186	11.232	4.9091	5.e-002	5.1028e-005
9187	11.232	4.6364	0.	0.58345
9188	11.14	4.7273	0.	-0.3152
9189	11.232	4.7273	5.e-002	7.9194e-005
9190	11.232	4.4545	0.	2.2528
9191	11.14	4.5455	0.	-0.49447
9192	11.232	4.5455	5.e-002	1.267e-004
9193	11.232	4.2727	0.	8.2585
9194	11.14	4.3636	0.	-1.4747
9195	11.232	4.3636	5.e-002	2.3904e-004
9196	11.232	4.0909	0.	32.496
9197	11.14	4.1818	0.	4.1779
9198	11.232	4.1818	5.e-002	3.4498e-004
9199	11.232	3.9091	0.	39.903
9200	11.14	4.	0.	21.466
9201	11.232	4.	5.e-002	1.3232e-004
9202	11.232	3.7273	0.	11.452
9203	11.14	3.8182	0.	10.027
9204	11.232	3.8182	5.e-002	7.2057e-005
9205	11.232	3.5455	0.	-1.5513
9206	11.14	3.6364	0.	0.16276
9207	11.232	3.6364	5.e-002	4.6269e-005
9208	11.232	3.3636	0.	0.49458
9209	11.14	3.4545	0.	0.86902
9210	11.232	3.4545	5.e-002	2.3527e-005
9211	11.232	3.1818	0.	-9.8387e-002
9212	11.14	3.2727	0.	0.28868
9213	11.232	3.2727	5.e-002	-8.558e-006
9214	11.232	3.	0.	-0.13816
9215	11.14	3.0909	0.	0.13712
9216	11.232	3.0909	5.e-002	-2.0118e-005
9217	11.232	2.8182	0.	-9.8388e-002
9218	11.14	2.9091	0.	0.13712
9219	11.232	2.9091	5.e-002	-4.1012e-005
9220	11.232	2.6364	0.	0.49458
9221	11.14	2.7273	0.	0.28868
9222	11.232	2.7273	5.e-002	-4.5382e-005
9223	11.232	2.4545	0.	-1.5513
9224	11.14	2.5455	0.	0.86902
9225	11.232	2.5455	5.e-002	-6.8222e-005
9226	11.232	2.2727	0.	11.452
9227	11.14	2.3636	0.	0.16275
9228	11.232	2.3636	5.e-002	-8.4626e-005
9229	11.232	2.0909	0.	39.903
9230	11.14	2.1818	0.	10.027
9231	11.232	2.1818	5.e-002	-9.7589e-005
9232	11.232	1.9091	0.	32.496
9233	11.14	2.	0.	21.466
9234	11.232	2.	5.e-002	-2.4452e-004
9235	11.232	1.7273	0.	8.2585
9236	11.14	1.8182	0.	4.1779
9237	11.232	1.8182	5.e-002	-5.1433e-004
9238	11.232	1.5455	0.	2.2528
9239	11.14	1.6364	0.	-1.4747
9240	11.232	1.6364	5.e-002	-3.2308e-004
9241	11.232	1.3636	0.	0.58344
9242	11.14	1.4545	0.	-0.49447
9243	11.232	1.4545	5.e-002	-1.6387e-004
9244	11.232	1.1818	0.	0.82132
9245	11.14	1.2727	0.	-0.3152
9246	11.232	1.2727	5.e-002	-9.5145e-005
9247	11.232	1.	0.	0.76258
9248	11.14	1.0909	0.	-0.12121
9249	11.232	1.0909	5.e-002	-6.0961e-005
9250	11.232	0.81818	0.	0.5136
9251	11.14	0.90909	0.	-0.10669
9252	11.232	0.90909	5.e-002	-3.6999e-005
9253	11.232	0.63636	0.	0.14217
9254	11.14	0.72727	0.	-0.19003
9255	11.232	0.72727	5.e-002	-2.0929e-005
9256	11.232	0.45455	0.	-0.48724
9257	11.14	0.54545	0.	-0.47999
9258	11.232	0.54545	5.e-002	-7.5619e-006
9259	11.232	0.27273	0.	-1.7976
9260	11.14	0.36364	0.	-0.92792
9261	11.232	0.36364	5.e-002	-4.3533e-008
9262	11.14	0.18182	0.	-1.5378
9263	11.232	0.18182	5.e-002	2.8693e-006
9264	11.232	9.0909e-002	0.	-0.26052
9265	11.048	5.7273	0.	-0.8569
9266	10.956	5.8182	0.	-0.10224
9267	11.048	5.8182	5.e-002	4.0658e-006
9268	11.048	5.9091	0.	-0.3197
9269	11.048	5.5455	0.	-0.81586
9270	10.956	5.6364	0.	-0.46805
9271	11.048	5.6364	5.e-002	9.9875e-006
9272	11.048	5.3636	0.	-0.75627
9273	10.956	5.4545	0.	-0.46886
9274	11.048	5.4545	5.e-002	1.8603e-005
9275	11.048	5.1818	0.	-0.79105
9276	10.956	5.2727	0.	-0.53845
9277	11.048	5.2727	5.e-002	2.7289e-005
9278	11.048	5.	0.	-0.98924
9279	10.956	5.0909	0.	-0.63384
9280	11.048	5.0909	5.e-002	3.7625e-005
9281	11.048	4.8182	0.	-1.2615
9282	10.956	4.9091	0.	-0.86021
9283	11.048	4.9091	5.e-002	6.0289e-005
9284	11.048	4.6364	0.	-1.3919
9285	10.956	4.7273	0.	-1.1051
9286	11.048	4.7273	5.e-002	8.6006e-005
9287	11.048	4.4545	0.	-4.2466
9288	10.956	4.5455	0.	-1.2717
9289	11.048	4.5455	5.e-002	1.4686e-004
9290	11.048	4.2727	0.	-5.4515
9291	10.956	4.3636	0.	-3.5134
9292	11.048	4.3636	5.e-002	2.3422e-004
9293	11.048	4.0909	0.	-6.8489
9294	10.956	4.1818	0.	-2.2441
9295	11.048	4.1818	5.e-002	2.681e-004
9296	11.048	3.9091	0.	-8.2276
9297	10.956	4.	0.	-4.2902
9298	11.048	4.	5.e-002	2.3494e-004
9299	11.048	3.7273	0.	-0.99994
9300	10.956	3.8182	0.	-2.015
9301	11.048	3.8182	5.e-002	1.1023e-004
9302	11.048	3.5455	0.	2.4908
9303	10.956	3.6364	0.	2.4095
9304	11.048	3.6364	5.e-002	3.0753e-005
9305	11.048	3.3636	0.	0.63448
9306	10.956	3.4545	0.	0.75232
9307	11.048	3.4545	5.e-002	1.01e-005
9308	11.048	3.1818	0.	0.53027
9309	10.956	3.2727	0.	0.68071
9310	11.048	3.2727	5.e-002	-7.0063e-006
9311	11.048	3.	0.	0.42409
9312	10.956	3.0909	0.	0.50841
9313	11.048	3.0909	5.e-002	-1.7794e-005
9314	11.048	2.8182	0.	0.53027
9315	10.956	2.9091	0.	0.50841
9316	11.048	2.9091	5.e-002	-2.4171e-005
9317	11.048	2.6364	0.	0.63448
9318	10.956	2.7273	0.	0.68071
9319	11.048	2.7273	5.e-002	-2.3498e-005
9320	11.048	2.4545	0.	2.4908
9321	10.956	2.5455	0.	0.75232
9322	11.048	2.5455	5.e-002	-3.3433e-005
9323	11.048	2.2727	0.	-0.99994
9324	10.956	2.3636	0.	2.4095
9325	11.048	2.3636	5.e-002	-5.8381e-005
9326	11.048	2.0909	0.	-8.2276
9327	10.956	2.1818	0.	-2.015
9328	11.048	2.1818	5.e-002	-1.5613e-004
9329	11.048	1.9091	0.	-6.8489
9330	10.956	2.	0.	-4.2902
9331	11.048	2.	5.e-002	-2.2668e-004
9332	11.048	1.7273	0.	-5.4515
9333	10.956	1.8182	0.	-2.2441
9334	11.048	1.8182	5.e-002	-4.0085e-004
9335	11.048	1.5455	0.	-4.2466
9336	10.956	1.6364	0.	-3.5134
9337	11.048	1.6364	5.e-002	-3.1893e-004
9338	11.048	1.3636	0.	-1.3919
9339	10.956	1.4545	0.	-1.2717
9340	11.048	1.4545	5.e-002	-1.8012e-004
9341	11.048	1.1818	0.	-1.2615
9342	10.956	1.2727	0.	-1.1051
9343	11.048	1.2727	5.e-002	-1.1053e-004
9344	11.048	1.	0.	-0.98924
9345	10.956	1.0909	0.	-0.86021
9346	11.048	1.0909	5.e-002	-6.9748e-005
9347	11.048	0.81818	0.	-0.79105
9348	10.956	0.90909	0.	-0.63384
9349	11.048	0.90909	5.e-002	-4.4749e-005
9350	11.048	0.63636	0.	-0.75627
9351	10.956	0.72727	0.	-0.53845
9352	11.048	0.72727	5.e-002	-2.9013e-005
9353	11.048	0.45455	0.	-0.81586
9354	10.956	0.54545	0.	-0.46886
9355	11.048	0.54545	5.e-002	-1.5305e-005
9356	11.048	0.27273	0.	-0.8569
9357	10.956	0.36364	0.	-0.46805
9358	11.048	0.36364	5.e-002	-5.7513e-006
9359	10.956	0.18182	0.	-0.10224
9360	11.048	0.18182	5.e-002	-4.4513e-015
9361	11.048	9.0909e-002	0.	-0.3197
9362	10.863	5.7273	0.	0.11634
9363	10.771	5.8182	0.	0.50215
9364	10.863	5.8182	5.e-002	2.8573e-006
9365	10.863	5.9091	0.	9.5879e-002
9366	10.863	5.5455	0.	-0.17335
9367	10.771	5.6364	0.	-8.7382e-002
9368	10.863	5.6364	5.e-002	8.3874e-006
9369	10.863	5.3636	0.	-0.26333
9370	10.771	5.4545	0.	-0.14333
9371	10.863	5.4545	5.e-002	1.6588e-005
9372	10.863	5.1818	0.	-0.38447
9373	10.771	5.2727	0.	-0.29689
9374	10.863	5.2727	5.e-002	2.6162e-005
9375	10.863	5.	0.	-0.50656
9376	10.771	5.0909	0.	-0.42291
9377	10.863	5.0909	5.e-002	4.0013e-005
9378	10.863	4.8182	0.	-0.7073
9379	10.771	4.9091	0.	-0.55411
9380	10.863	4.9091	5.e-002	5.9591e-005
9381	10.863	4.6364	0.	-0.99195
9382	10.771	4.7273	0.	-0.74332
9383	10.863	4.7273	5.e-002	8.3682e-005
9384	10.863	4.4545	0.	-0.54236
9385	10.771	4.5455	0.	-0.96226
9386	10.863	4.5455	5.e-002	1.6378e-004
9387	10.863	4.2727	0.	-0.32082
9388	10.771	4.3636	0.	-0.52503
9389	10.863	4.3636	5.e-002	2.0955e-004
9390	10.863	4.0909	0.	0.35281
9391	10.771	4.1818	0.	-0.81925
9392	10.863	4.1818	5.e-002	2.5437e-004
9393	10.863	3.9091	0.	1.9908
9394	10.771	4.	0.	0.13712
9395	10.863	4.	5.e-002	1.3943e-004
9396	10.863	3.7273	0.	1.5296
9397	10.771	3.8182	0.	0.84933
9398	10.863	3.8182	5.e-002	9.8896e-005
9399	10.863	3.5455	0.	0.66211
9400	10.771	3.6364	0.	0.3003
9401	10.863	3.6364	5.e-002	5.1717e-005
9402	10.863	3.3636	0.	0.77716
9403	10.771	3.4545	0.	0.67083
9404	10.863	3.4545	5.e-002	1.8296e-005
9405	10.863	3.1818	0.	0.65365
9406	10.771	3.2727	0.	0.63198
9407	10.863	3.2727	5.e-002	-8.5159e-007
9408	10.863	3.	0.	0.59423
9409	10.771	3.0909	0.	0.58047
9410	10.863	3.0909	5.e-002	-8.2822e-006
9411	10.863	2.8182	0.	0.65365
9412	10.771	2.9091	0.	0.58047
9413	10.863	2.9091	5.e-002	-1.2677e-005
9414	10.863	2.6364	0.	0.77716
9415	10.771	2.7273	0.	0.63198
9416	10.863	2.7273	5.e-002	-1.7434e-005
9417	10.863	2.4545	0.	0.66211
9418	10.771	2.5455	0.	0.67083
9419	10.863	2.5455	5.e-002	-2.9847e-005
9420	10.863	2.2727	0.	1.5296
9421	10.771	2.3636	0.	0.30031
9422	10.863	2.3636	5.e-002	-7.6655e-005
9423	10.863	2.0909	0.	1.9909
9424	10.771	2.1818	0.	0.84934
9425	10.863	2.1818	5.e-002	-1.1927e-004
9426	10.863	1.9091	0.	0.35281
9427	10.771	2.	0.	0.13712
9428	10.863	2.	5.e-002	-2.0505e-004
9429	10.863	1.7273	0.	-0.32082
9430	10.771	1.8182	0.	-0.81925
9431	10.863	1.8182	5.e-002	-3.5163e-004
9432	10.863	1.5455	0.	-0.54236
9433	10.771	1.6364	0.	-0.52503
9434	10.863	1.6364	5.e-002	-3.0133e-004
9435	10.863	1.3636	0.	-0.99195
9436	10.771	1.4545	0.	-0.96226
9437	10.863	1.4545	5.e-002	-1.9131e-004
9438	10.863	1.1818	0.	-0.7073
9439	10.771	1.2727	0.	-0.74332
9440	10.863	1.2727	5.e-002	-1.2253e-004
9441	10.863	1.	0.	-0.50655
9442	10.771	1.0909	0.	-0.55411
9443	10.863	1.0909	5.e-002	-7.5262e-005
9444	10.863	0.81818	0.	-0.38447
9445	10.771	0.90909	0.	-0.42291
9446	10.863	0.90909	5.e-002	-5.1005e-005
9447	10.863	0.63636	0.	-0.26333
9448	10.771	0.72727	0.	-0.29689
9449	10.863	0.72727	5.e-002	-2.9959e-005
9450	10.863	0.45455	0.	-0.17335
9451	10.771	0.54545	0.	-0.14333
9452	10.863	0.54545	5.e-002	-1.7613e-005
9453	10.863	0.27273	0.	0.11634
9454	10.771	0.36364	0.	-8.7381e-002
9455	10.863	0.36364	5.e-002	-7.9513e-006
9456	10.771	0.18182	0.	0.50215
9457	10.863	0.18182	5.e-002	3.1523e-007
9458	10.863	9.0909e-002	0.	9.5879e-002
9459	10.679	5.7273	0.	0.21576
9460	10.587	5.8182	0.	0.49911
9461	10.679	5.8182	5.e-002	2.0541e-006
9462	10.679	5.9091	0.	3.4056e-002
9463	10.679	5.5455	0.	-9.538e-002
9464	10.587	5.6364	0.	-6.569e-002
9465	10.679	5.6364	5.e-002	7.1556e-006
9466	10.679	5.3636	0.	-0.19473
9467	10.587	5.4545	0.	-6.3133e-002
9468	10.679	5.4545	5.e-002	1.6495e-005
9469	10.679	5.1818	0.	-0.34337
9470	10.587	5.2727	0.	-0.22728
9471	10.679	5.2727	5.e-002	2.4964e-005
9472	10.679	5.	0.	-0.47533
9473	10.587	5.0909	0.	-0.34357
9474	10.679	5.0909	5.e-002	3.4253e-005
9475	10.679	4.8182	0.	-0.59515
9476	10.587	4.9091	0.	-0.46154
9477	10.679	4.9091	5.e-002	5.4039e-005
9478	10.679	4.6364	0.	-0.7193
9479	10.587	4.7273	0.	-0.55974
9480	10.679	4.7273	5.e-002	7.8503e-005
9481	10.679	4.4545	0.	-0.94572
9482	10.587	4.5455	0.	-0.66525
9483	10.679	4.5455	5.e-002	1.3995e-004
9484	10.679	4.2727	0.	-1.0101
9485	10.587	4.3636	0.	-0.83814
9486	10.679	4.3636	5.e-002	1.6857e-004
9487	10.679	4.0909	0.	-1.0091
9488	10.587	4.1818	0.	-0.79076
9489	10.679	4.1818	5.e-002	2.1889e-004
9490	10.679	3.9091	0.	-0.98021
9491	10.587	4.	0.	-0.8362
9492	10.679	4.	5.e-002	1.7171e-004
9493	10.679	3.7273	0.	-0.35548
9494	10.587	3.8182	0.	-0.62812
9495	10.679	3.8182	5.e-002	1.1691e-004
9496	10.679	3.5455	0.	0.32489
9497	10.587	3.6364	0.	-2.7307e-002
9498	10.679	3.6364	5.e-002	5.5663e-005
9499	10.679	3.3636	0.	0.52104
9500	10.587	3.4545	0.	0.30295
9501	10.679	3.4545	5.e-002	3.1592e-005
9502	10.679	3.1818	0.	0.55744
9503	10.587	3.2727	0.	0.44936
9504	10.679	3.2727	5.e-002	9.284e-006
9505	10.679	3.	0.	0.56939
9506	10.587	3.0909	0.	0.5052
9507	10.679	3.0909	5.e-002	-2.2595e-006
9508	10.679	2.8182	0.	0.55744
9509	10.587	2.9091	0.	0.5052
9510	10.679	2.9091	5.e-002	-5.4575e-006
9511	10.679	2.6364	0.	0.52104
9512	10.587	2.7273	0.	0.44936
9513	10.679	2.7273	5.e-002	-1.5609e-005
9514	10.679	2.4545	0.	0.32489
9515	10.587	2.5455	0.	0.30295
9516	10.679	2.5455	5.e-002	-3.8173e-005
9517	10.679	2.2727	0.	-0.35548
9518	10.587	2.3636	0.	-2.7305e-002
9519	10.679	2.3636	5.e-002	-6.3277e-005
9520	10.679	2.0909	0.	-0.98021
9521	10.587	2.1818	0.	-0.62812
9522	10.679	2.1818	5.e-002	-1.4882e-004
9523	10.679	1.9091	0.	-1.0091
9524	10.587	2.	0.	-0.8362
9525	10.679	2.	5.e-002	-2.2618e-004
9526	10.679	1.7273	0.	-1.0101
9527	10.587	1.8182	0.	-0.79076
9528	10.679	1.8182	5.e-002	-2.5162e-004
9529	10.679	1.5455	0.	-0.94572
9530	10.587	1.6364	0.	-0.83814
9531	10.679	1.6364	5.e-002	-2.894e-004
9532	10.679	1.3636	0.	-0.7193
9533	10.587	1.4545	0.	-0.66525
9534	10.679	1.4545	5.e-002	-2.0033e-004
9535	10.679	1.1818	0.	-0.59515
9536	10.587	1.2727	0.	-0.55974
9537	10.679	1.2727	5.e-002	-1.255e-004
9538	10.679	1.	0.	-0.47533
9539	10.587	1.0909	0.	-0.46154
9540	10.679	1.0909	5.e-002	-7.3127e-005
9541	10.679	0.81818	0.	-0.34337
9542	10.587	0.90909	0.	-0.34357
9543	10.679	0.90909	5.e-002	-4.7604e-005
9544	10.679	0.63636	0.	-0.19473
9545	10.587	0.72727	0.	-0.22728
9546	10.679	0.72727	5.e-002	-2.9056e-005
9547	10.679	0.45455	0.	-9.5379e-002
9548	10.587	0.54545	0.	-6.3133e-002
9549	10.679	0.54545	5.e-002	-1.7037e-005
9550	10.679	0.27273	0.	0.21576
9551	10.587	0.36364	0.	-6.5688e-002
9552	10.679	0.36364	5.e-002	-4.2949e-006
9553	10.587	0.18182	0.	0.49911
9554	10.679	0.18182	5.e-002	7.5268e-007
9555	10.679	9.0909e-002	0.	3.4057e-002
9556	10.495	5.7273	0.	0.19546
9557	10.403	5.8182	0.	0.37043
9558	10.495	5.8182	5.e-002	-3.2937e-008
9559	10.495	5.9091	0.	1.8082e-002
9560	10.495	5.5455	0.	-4.736e-002
9561	10.403	5.6364	0.	-8.3159e-002
9562	10.495	5.6364	5.e-002	2.3361e-006
9563	10.495	5.3636	0.	-0.10519
9564	10.403	5.4545	0.	-1.2454e-002
9565	10.495	5.4545	5.e-002	1.032e-005
9566	10.495	5.1818	0.	-0.23332
9567	10.403	5.2727	0.	-0.15278
9568	10.495	5.2727	5.e-002	1.6652e-005
9569	10.495	5.	0.	-0.33389
9570	10.403	5.0909	0.	-0.24304
9571	10.495	5.0909	5.e-002	2.9803e-005
9572	10.495	4.8182	0.	-0.42965
9573	10.403	4.9091	0.	-0.33328
9574	10.495	4.9091	5.e-002	5.1327e-005
9575	10.495	4.6364	0.	-0.50756
9576	10.403	4.7273	0.	-0.41645
9577	10.495	4.7273	5.e-002	7.128e-005
9578	10.495	4.4545	0.	-0.55369
9579	10.403	4.5455	0.	-0.48957
9580	10.495	4.5455	5.e-002	1.3122e-004
9581	10.495	4.2727	0.	-0.60444
9582	10.403	4.3636	0.	-0.55074
9583	10.495	4.3636	5.e-002	1.6919e-004
9584	10.495	4.0909	0.	-0.59774
9585	10.403	4.1818	0.	-0.62837
9586	10.495	4.1818	5.e-002	2.1884e-004
9587	10.495	3.9091	0.	-0.46945
9588	10.403	4.	0.	-0.61413
9589	10.495	4.	5.e-002	1.7374e-004
9590	10.495	3.7273	0.	-0.29395
9591	10.403	3.8182	0.	-0.50494
9592	10.495	3.8182	5.e-002	1.0322e-004
9593	10.495	3.5455	0.	-4.7514e-002
9594	10.403	3.6364	0.	-0.31392
9595	10.495	3.6364	5.e-002	3.7173e-005
9596	10.495	3.3636	0.	0.23251
9597	10.403	3.4545	0.	-1.6818e-002
9598	10.495	3.4545	5.e-002	4.5352e-005
9599	10.495	3.1818	0.	0.40542
9600	10.403	3.2727	0.	0.2465
9601	10.495	3.2727	5.e-002	1.6929e-005
9602	10.495	3.	0.	0.45421
9603	10.403	3.0909	0.	0.37933
9604	10.495	3.0909	5.e-002	4.8401e-006
9605	10.495	2.8182	0.	0.40542
9606	10.403	2.9091	0.	0.37933
9607	10.495	2.9091	5.e-002	-4.7689e-006
9608	10.495	2.6364	0.	0.23251
9609	10.403	2.7273	0.	0.2465
9610	10.495	2.7273	5.e-002	-1.7431e-005
9611	10.495	2.4545	0.	-4.7513e-002
9612	10.403	2.5455	0.	-1.6816e-002
9613	10.495	2.5455	5.e-002	-4.1888e-005
9614	10.495	2.2727	0.	-0.29395
9615	10.403	2.3636	0.	-0.31392
9616	10.495	2.3636	5.e-002	-7.1118e-005
9617	10.495	2.0909	0.	-0.46945
9618	10.403	2.1818	0.	-0.50494
9619	10.495	2.1818	5.e-002	-1.5075e-004
9620	10.495	1.9091	0.	-0.59774
9621	10.403	2.	0.	-0.61413
9622	10.495	2.	5.e-002	-2.3583e-004
9623	10.495	1.7273	0.	-0.60443
9624	10.403	1.8182	0.	-0.62836
9625	10.495	1.8182	5.e-002	-2.5578e-004
9626	10.495	1.5455	0.	-0.55369
9627	10.403	1.6364	0.	-0.55074
9628	10.495	1.6364	5.e-002	-2.7444e-004
9629	10.495	1.3636	0.	-0.50756
9630	10.403	1.4545	0.	-0.48957
9631	10.495	1.4545	5.e-002	-1.67e-004
9632	10.495	1.1818	0.	-0.42965
9633	10.403	1.2727	0.	-0.41645
9634	10.495	1.2727	5.e-002	-1.1789e-004
9635	10.495	1.	0.	-0.33389
9636	10.403	1.0909	0.	-0.33328
9637	10.495	1.0909	5.e-002	-6.8339e-005
9638	10.495	0.81818	0.	-0.23332
9639	10.403	0.90909	0.	-0.24303
9640	10.495	0.90909	5.e-002	-4.4607e-005
9641	10.495	0.63636	0.	-0.10519
9642	10.403	0.72727	0.	-0.15278
9643	10.495	0.72727	5.e-002	-2.564e-005
9644	10.495	0.45455	0.	-4.736e-002
9645	10.403	0.54545	0.	-1.2454e-002
9646	10.495	0.54545	5.e-002	-1.1491e-005
9647	10.495	0.27273	0.	0.19546
9648	10.403	0.36364	0.	-8.3157e-002
9649	10.495	0.36364	5.e-002	-1.8216e-006
9650	10.403	0.18182	0.	0.37043
9651	10.495	0.18182	5.e-002	3.4777e-006
9652	10.495	9.0909e-002	0.	1.8083e-002
9653	10.311	5.7273	0.	0.11428
9654	10.219	5.8182	0.	0.21539
9655	10.311	5.8182	5.e-002	-7.4606e-007
9656	10.311	5.9091	0.	-1.2148e-002
9657	10.311	5.5455	0.	-4.7511e-002
9658	10.219	5.6364	0.	-0.11232
9659	10.311	5.6364	5.e-002	1.2677e-006
9660	10.311	5.3636	0.	-6.2334e-002
9661	10.219	5.4545	0.	7.6193e-003
9662	10.311	5.4545	5.e-002	9.166e-006
9663	10.311	5.1818	0.	-0.16491
9664	10.219	5.2727	0.	-0.10301
9665	10.311	5.2727	5.e-002	1.6134e-005
9666	10.311	5.	0.	-0.24438
9667	10.219	5.0909	0.	-0.17164
9668	10.311	5.0909	5.e-002	2.933e-005
9669	10.311	4.8182	0.	-0.32111
9670	10.219	4.9091	0.	-0.24532
9671	10.311	4.9091	5.e-002	4.6176e-005
9672	10.311	4.6364	0.	-0.397
9673	10.219	4.7273	0.	-0.3156
9674	10.311	4.7273	5.e-002	7.0778e-005
9675	10.311	4.4545	0.	-0.48008
9676	10.219	4.5455	0.	-0.39236
9677	10.311	4.5455	5.e-002	1.0535e-004
9678	10.311	4.2727	0.	-0.56138
9679	10.219	4.3636	0.	-0.47881
9680	10.311	4.3636	5.e-002	1.2745e-004
9681	10.311	4.0909	0.	-0.62748
9682	10.219	4.1818	0.	-0.56168
9683	10.311	4.1818	5.e-002	1.5812e-004
9684	10.311	3.9091	0.	-0.63676
9685	10.219	4.	0.	-0.6262
9686	10.311	4.	5.e-002	1.973e-004
9687	10.311	3.7273	0.	-0.52589
9688	10.219	3.8182	0.	-0.62063
9689	10.311	3.8182	5.e-002	1.3405e-004
9690	10.311	3.5455	0.	-0.29849
9691	10.219	3.6364	0.	-0.50447
9692	10.311	3.6364	5.e-002	7.177e-005
9693	10.311	3.3636	0.	-1.4953e-002
9694	10.219	3.4545	0.	-0.28388
9695	10.311	3.4545	5.e-002	4.0647e-005
9696	10.311	3.1818	0.	0.23448
9697	10.219	3.2727	0.	9.1076e-003
9698	10.311	3.2727	5.e-002	2.3705e-005
9699	10.311	3.	0.	0.33635
9700	10.219	3.0909	0.	0.25131
9701	10.311	3.0909	5.e-002	9.8454e-006
9702	10.311	2.8182	0.	0.23448
9703	10.219	2.9091	0.	0.25131
9704	10.311	2.9091	5.e-002	-3.1177e-006
9705	10.311	2.6364	0.	-1.4952e-002
9706	10.219	2.7273	0.	9.1085e-003
9707	10.311	2.7273	5.e-002	-2.5265e-005
9708	10.311	2.4545	0.	-0.29849
9709	10.219	2.5455	0.	-0.28387
9710	10.311	2.5455	5.e-002	-4.4202e-005
9711	10.311	2.2727	0.	-0.52589
9712	10.219	2.3636	0.	-0.50447
9713	10.311	2.3636	5.e-002	-8.3319e-005
9714	10.311	2.0909	0.	-0.63675
9715	10.219	2.1818	0.	-0.62063
9716	10.311	2.1818	5.e-002	-1.4611e-004
9717	10.311	1.9091	0.	-0.62748
9718	10.219	2.	0.	-0.6262
9719	10.311	2.	5.e-002	-2.0376e-004
9720	10.311	1.7273	0.	-0.56138
9721	10.219	1.8182	0.	-0.56168
9722	10.311	1.8182	5.e-002	-2.5808e-004
9723	10.311	1.5455	0.	-0.48008
9724	10.219	1.6364	0.	-0.47881
9725	10.311	1.6364	5.e-002	-2.2407e-004
9726	10.311	1.3636	0.	-0.397
9727	10.219	1.4545	0.	-0.39236
9728	10.311	1.4545	5.e-002	-1.7912e-004
9729	10.311	1.1818	0.	-0.32111
9730	10.219	1.2727	0.	-0.3156
9731	10.311	1.2727	5.e-002	-1.043e-004
9732	10.311	1.	0.	-0.24438
9733	10.219	1.0909	0.	-0.24532
9734	10.311	1.0909	5.e-002	-6.1548e-005
9735	10.311	0.81818	0.	-0.1649
9736	10.219	0.90909	0.	-0.17163
9737	10.311	0.90909	5.e-002	-3.5529e-005
9738	10.311	0.63636	0.	-6.2333e-002
9739	10.219	0.72727	0.	-0.10301
9740	10.311	0.72727	5.e-002	-1.8022e-005
9741	10.311	0.45455	0.	-4.751e-002
9742	10.219	0.54545	0.	7.6199e-003
9743	10.311	0.54545	5.e-002	-4.8989e-006
9744	10.311	0.27273	0.	0.11428
9745	10.219	0.36364	0.	-0.11232
9746	10.311	0.36364	5.e-002	1.2393e-006
9747	10.219	0.18182	0.	0.21539
9748	10.311	0.18182	5.e-002	6.2129e-006
9749	10.311	9.0909e-002	0.	-1.2147e-002
9750	10.127	5.7273	0.	4.3358e-002
9751	10.035	5.8182	0.	8.9329e-002
9752	10.127	5.8182	5.e-002	-3.7557e-007
9753	10.127	5.9091	0.	-2.7189e-002
9754	10.127	5.5455	0.	-4.8678e-002
9755	10.035	5.6364	0.	-0.12894
9756	10.127	5.6364	5.e-002	-1.2018e-006
9757	10.127	5.3636	0.	-3.095e-002
9758	10.035	5.4545	0.	1.883e-002
9759	10.127	5.4545	5.e-002	2.0054e-006
9760	10.127	5.1818	0.	-0.1094
9761	10.035	5.2727	0.	-6.5507e-002
9762	10.127	5.2727	5.e-002	9.4278e-006
9763	10.127	5.	0.	-0.17245
9764	10.035	5.0909	0.	-0.11668
9765	10.127	5.0909	5.e-002	1.8713e-005
9766	10.127	4.8182	0.	-0.23882
9767	10.035	4.9091	0.	-0.17869
9768	10.127	4.9091	5.e-002	3.5816e-005
9769	10.127	4.6364	0.	-0.30772
9770	10.035	4.7273	0.	-0.2423
9771	10.127	4.7273	5.e-002	6.4571e-005
9772	10.127	4.4545	0.	-0.38385
9773	10.035	4.5455	0.	-0.31447
9774	10.127	4.5455	5.e-002	9.0068e-005
9775	10.127	4.2727	0.	-0.46675
9776	10.035	4.3636	0.	-0.39708
9777	10.127	4.3636	5.e-002	1.1188e-004
9778	10.127	4.0909	0.	-0.54404
9779	10.035	4.1818	0.	-0.48775
9780	10.127	4.1818	5.e-002	1.2373e-004
9781	10.127	3.9091	0.	-0.59518
9782	10.035	4.	0.	-0.5727
9783	10.127	4.	5.e-002	1.489e-004
9784	10.127	3.7273	0.	-0.59822
9785	10.035	3.8182	0.	-0.63828
9786	10.127	3.8182	5.e-002	1.0328e-004
9787	10.127	3.5455	0.	-0.52305
9788	10.035	3.6364	0.	-0.67234
9789	10.127	3.6364	5.e-002	7.3578e-005
9790	10.127	3.3636	0.	-0.33322
9791	10.035	3.4545	0.	-0.66485
9792	10.127	3.4545	5.e-002	4.8739e-005
9793	10.127	3.1818	0.	-4.4813e-003
9794	10.035	3.2727	0.	-0.59701
9795	10.127	3.2727	5.e-002	3.0231e-005
9796	10.127	3.	0.	0.23936
9797	10.035	3.0909	0.	-0.27434
9798	10.127	3.0909	5.e-002	1.3568e-005
9799	10.127	2.8182	0.	-4.4802e-003
9800	10.035	2.9091	0.	-0.27434
9801	10.127	2.9091	5.e-002	-2.9008e-006
9802	10.127	2.6364	0.	-0.33322
9803	10.035	2.7273	0.	-0.59701
9804	10.127	2.7273	5.e-002	-2.2427e-005
9805	10.127	2.4545	0.	-0.52305
9806	10.035	2.5455	0.	-0.66485
9807	10.127	2.5455	5.e-002	-5.0766e-005
9808	10.127	2.2727	0.	-0.59822
9809	10.035	2.3636	0.	-0.67234
9810	10.127	2.3636	5.e-002	-1.0789e-004
9811	10.127	2.0909	0.	-0.59518
9812	10.035	2.1818	0.	-0.63828
9813	10.127	2.1818	5.e-002	-1.8372e-004
9814	10.127	1.9091	0.	-0.54404
9815	10.035	2.	0.	-0.5727
9816	10.127	2.	5.e-002	-2.3215e-004
9817	10.127	1.7273	0.	-0.46675
9818	10.035	1.8182	0.	-0.48775
9819	10.127	1.8182	5.e-002	-2.529e-004
9820	10.127	1.5455	0.	-0.38385
9821	10.035	1.6364	0.	-0.39708
9822	10.127	1.6364	5.e-002	-1.5443e-004
9823	10.127	1.3636	0.	-0.30771
9824	10.035	1.4545	0.	-0.31447
9825	10.127	1.4545	5.e-002	-1.5854e-004
9826	10.127	1.1818	0.	-0.23882
9827	10.035	1.2727	0.	-0.2423
9828	10.127	1.2727	5.e-002	-9.201e-005
9829	10.127	1.	0.	-0.17245
9830	10.035	1.0909	0.	-0.17869
9831	10.127	1.0909	5.e-002	-5.52e-005
9832	10.127	0.81818	0.	-0.1094
9833	10.035	0.90909	0.	-0.11668
9834	10.127	0.90909	5.e-002	-2.7949e-005
9835	10.127	0.63636	0.	-3.0949e-002
9836	10.035	0.72727	0.	-6.5506e-002
9837	10.127	0.72727	5.e-002	-1.2656e-005
9838	10.127	0.45455	0.	-4.8678e-002
9839	10.035	0.54545	0.	1.8831e-002
9840	10.127	0.54545	5.e-002	-3.8493e-007
9841	10.127	0.27273	0.	4.3359e-002
9842	10.035	0.36364	0.	-0.12894
9843	10.127	0.36364	5.e-002	3.8817e-006
9844	10.035	0.18182	0.	8.933e-002
9845	10.127	0.18182	5.e-002	4.8013e-006
9846	10.127	9.0909e-002	0.	-2.7188e-002
9847	9.9429	5.7273	0.	-8.8135e-003
9848	9.8508	5.8182	0.	1.5138e-003
9849	9.9429	5.8182	5.e-002	-1.756e-006
9850	9.9429	5.9091	0.	-3.3858e-002
9851	9.9429	5.5455	0.	-4.9233e-002
9852	9.8508	5.6364	0.	-0.13356
9853	9.9429	5.6364	5.e-002	-3.3785e-006
9854	9.9429	5.3636	0.	-1.1318e-002
9855	9.8508	5.4545	0.	2.4071e-002
9856	9.9429	5.4545	5.e-002	5.555e-007
9857	9.9429	5.1818	0.	-7.0705e-002
9858	9.8508	5.2727	0.	-3.9393e-002
9859	9.9429	5.2727	5.e-002	5.4461e-006
9860	9.9429	5.	0.	-0.12133
9861	9.8508	5.0909	0.	-7.7819e-002
9862	9.9429	5.0909	5.e-002	1.469e-005
9863	9.9429	4.8182	0.	-0.1799
9864	9.8508	4.9091	0.	-0.13061
9865	9.9429	4.9091	5.e-002	2.2017e-005
9866	9.9429	4.6364	0.	-0.2449
9867	9.8508	4.7273	0.	-0.18852
9868	9.9429	4.7273	5.e-002	5.2035e-005
9869	9.9429	4.4545	0.	-0.32029
9870	9.8508	4.5455	0.	-0.25711
9871	9.9429	4.5455	5.e-002	7.384e-005
9872	9.9429	4.2727	0.	-0.40616
9873	9.8508	4.3636	0.	-0.33844
9874	9.9429	4.3636	5.e-002	9.8608e-005
9875	9.9429	4.0909	0.	-0.4994
9876	9.8508	4.1818	0.	-0.43337
9877	9.9429	4.1818	5.e-002	1.1411e-004
9878	9.9429	3.9091	0.	-0.59533
9879	9.8508	4.	0.	-0.54366
9880	9.9429	4.	5.e-002	1.2203e-004
9881	9.9429	3.7273	0.	-0.69862
9882	9.8508	3.8182	0.	-0.68345
9883	9.9429	3.8182	5.e-002	9.1206e-005
9884	9.9429	3.5455	0.	-0.86189
9885	9.8508	3.6364	0.	-0.93897
9886	9.9429	3.6364	5.e-002	6.455e-005
9887	9.9429	3.3636	0.	-1.4993
9888	9.8508	3.4545	0.	-2.127
9889	9.9429	3.4545	5.e-002	4.9461e-005
9890	9.9429	3.1818	0.	-6.359
9891	9.8508	3.2727	0.	-10.469
9892	9.9429	3.2727	5.e-002	3.1791e-005
9893	9.9429	3.	0.	-9.7539
9894	9.8508	3.0909	0.	-17.37
9895	9.9429	3.0909	5.e-002	1.5883e-005
9896	9.9429	2.8182	0.	-6.359
9897	9.8508	2.9091	0.	-17.37
9898	9.9429	2.9091	5.e-002	-2.4104e-006
9899	9.9429	2.6364	0.	-1.4993
9900	9.8508	2.7273	0.	-10.469
9901	9.9429	2.7273	5.e-002	-2.9066e-005
9902	9.9429	2.4545	0.	-0.86189
9903	9.8508	2.5455	0.	-2.127
9904	9.9429	2.5455	5.e-002	-6.755e-005
9905	9.9429	2.2727	0.	-0.69862
9906	9.8508	2.3636	0.	-0.93897
9907	9.9429	2.3636	5.e-002	-1.2089e-004
9908	9.9429	2.0909	0.	-0.59533
9909	9.8508	2.1818	0.	-0.68345
9910	9.9429	2.1818	5.e-002	-2.1419e-004
9911	9.9429	1.9091	0.	-0.4994
9912	9.8508	2.	0.	-0.54366
9913	9.9429	2.	5.e-002	-1.5295e-004
9914	9.9429	1.7273	0.	-0.40616
9915	9.8508	1.8182	0.	-0.43337
9916	9.9429	1.8182	5.e-002	-1.8675e-004
9917	9.9429	1.5455	0.	-0.32029
9918	9.8508	1.6364	0.	-0.33844
9919	9.9429	1.6364	5.e-002	-1.4163e-004
9920	9.9429	1.3636	0.	-0.2449
9921	9.8508	1.4545	0.	-0.25711
9922	9.9429	1.4545	5.e-002	-9.9068e-005
9923	9.9429	1.1818	0.	-0.1799
9924	9.8508	1.2727	0.	-0.18852
9925	9.9429	1.2727	5.e-002	-7.7025e-005
9926	9.9429	1.	0.	-0.12133
9927	9.8508	1.0909	0.	-0.13061
9928	9.9429	1.0909	5.e-002	-4.3201e-005
9929	9.9429	0.81818	0.	-7.0703e-002
9930	9.8508	0.90909	0.	-7.7817e-002
9931	9.9429	0.90909	5.e-002	-2.3842e-005
9932	9.9429	0.63636	0.	-1.1317e-002
9933	9.8508	0.72727	0.	-3.9392e-002
9934	9.9429	0.72727	5.e-002	-8.5854e-006
9935	9.9429	0.45455	0.	-4.9232e-002
9936	9.8508	0.54545	0.	2.4072e-002
9937	9.9429	0.54545	5.e-002	2.0762e-006
9938	9.9429	0.27273	0.	-8.8125e-003
9939	9.8508	0.36364	0.	-0.13356
9940	9.9429	0.36364	5.e-002	5.6998e-006
9941	9.8508	0.18182	0.	1.5152e-003
9942	9.9429	0.18182	5.e-002	6.7449e-006
9943	9.9429	9.0909e-002	0.	-3.3857e-002
9944	9.7587	5.7273	0.	-4.0813e-002
9945	9.6667	5.8182	0.	-5.103e-002
9946	9.7587	5.8182	5.e-002	-2.9063e-006
9947	9.7587	5.9091	0.	-3.3255e-002
9948	9.7587	5.5455	0.	-4.6754e-002
9949	9.6667	5.6364	0.	-0.12855
9950	9.7587	5.6364	5.e-002	-2.9067e-006
9951	9.7587	5.3636	0.	1.3979e-003
9952	9.6667	5.4545	0.	2.6184e-002
9953	9.7587	5.4545	5.e-002	-7.8953e-007
9954	9.7587	5.1818	0.	-4.3505e-002
9955	9.6667	5.2727	0.	-2.1395e-002
9956	9.7587	5.2727	5.e-002	1.9892e-006
9957	9.7587	5.	0.	-8.4654e-002
9958	9.6667	5.0909	0.	-5.0648e-002
9959	9.7587	5.0909	5.e-002	4.6448e-006
9960	9.7587	4.8182	0.	-0.13625
9961	9.6667	4.9091	0.	-9.5919e-002
9962	9.7587	4.9091	5.e-002	2.5144e-005
9963	9.7587	4.6364	0.	-0.19616
9964	9.6667	4.7273	0.	-0.14829
9965	9.7587	4.7273	5.e-002	3.2721e-005
9966	9.7587	4.4545	0.	-0.26779
9967	9.6667	4.5455	0.	-0.21243
9968	9.7587	4.5455	5.e-002	4.8784e-005
9969	9.7587	4.2727	0.	-0.35357
9970	9.6667	4.3636	0.	-0.29122
9971	9.7587	4.3636	5.e-002	6.2587e-005
9972	9.7587	4.0909	0.	-0.45827
9973	9.6667	4.1818	0.	-0.39078
9974	9.7587	4.1818	5.e-002	1.0056e-004
9975	9.7587	3.9091	0.	-0.5998
9976	9.6667	4.	0.	-0.52856
9977	9.7587	4.	5.e-002	8.5935e-005
9978	9.7587	3.7273	0.	-0.86394
9979	9.6667	3.8182	0.	-0.78036
9980	9.7587	3.8182	5.e-002	4.6952e-006
9981	9.7587	3.5455	0.	-2.0253
9982	9.6667	3.6364	0.	-1.7648
9983	9.7587	3.6364	5.e-002	9.7053e-005
9984	9.7587	3.3636	0.	-11.559
9985	9.6667	3.4545	0.	-11.237
9986	9.7587	3.4545	5.e-002	6.7371e-005
9987	9.7587	3.1818	0.	-21.549
9988	9.6667	3.2727	0.	-23.755
9989	9.7587	3.2727	5.e-002	4.1585e-005
9990	9.7587	3.	0.	-25.023
9991	9.6667	3.0909	0.	-30.385
9992	9.7587	3.0909	5.e-002	1.814e-005
9993	9.7587	2.8182	0.	-21.549
9994	9.6667	2.9091	0.	-30.385
9995	9.7587	2.9091	5.e-002	-4.4368e-006
9996	9.7587	2.6364	0.	-11.559
9997	9.6667	2.7273	0.	-23.755
9998	9.7587	2.7273	5.e-002	-4.0902e-005
9999	9.7587	2.4545	0.	-2.0253
10000	9.6667	2.5455	0.	-11.237
10001	9.7587	2.5455	5.e-002	-7.7185e-005
10002	9.7587	2.2727	0.	-0.86394
10003	9.6667	2.3636	0.	-1.7648
10004	9.7587	2.3636	5.e-002	-1.5408e-004
10005	9.7587	2.0909	0.	-0.5998
10006	9.6667	2.1818	0.	-0.78036
10007	9.7587	2.1818	5.e-002	-2.097e-004
10008	9.7587	1.9091	0.	-0.45827
10009	9.6667	2.	0.	-0.52856
10010	9.7587	2.	5.e-002	-1.8234e-004
10011	9.7587	1.7273	0.	-0.35357
10012	9.6667	1.8182	0.	-0.39078
10013	9.7587	1.8182	5.e-002	-1.4215e-004
10014	9.7587	1.5455	0.	-0.26779
10015	9.6667	1.6364	0.	-0.29122
10016	9.7587	1.6364	5.e-002	-1.1829e-004
10017	9.7587	1.3636	0.	-0.19616
10018	9.6667	1.4545	0.	-0.21243
10019	9.7587	1.4545	5.e-002	-8.2412e-005
10020	9.7587	1.1818	0.	-0.13625
10021	9.6667	1.2727	0.	-0.14829
10022	9.7587	1.2727	5.e-002	-5.496e-005
10023	9.7587	1.	0.	-8.4653e-002
10024	9.6667	1.0909	0.	-9.5918e-002
10025	9.7587	1.0909	5.e-002	-3.3479e-005
10026	9.7587	0.81818	0.	-4.3504e-002
10027	9.6667	0.90909	0.	-5.0646e-002
10028	9.7587	0.90909	5.e-002	-1.8035e-005
10029	9.7587	0.63636	0.	1.3983e-003
10030	9.6667	0.72727	0.	-2.1394e-002
10031	9.7587	0.72727	5.e-002	-4.0743e-006
10032	9.7587	0.45455	0.	-4.6754e-002
10033	9.6667	0.54545	0.	2.6184e-002
10034	9.7587	0.54545	5.e-002	5.4831e-006
10035	9.7587	0.27273	0.	-4.0812e-002
10036	9.6667	0.36364	0.	-0.12854
10037	9.7587	0.36364	5.e-002	7.2552e-006
10038	9.6667	0.18182	0.	-5.1029e-002
10039	9.7587	0.18182	5.e-002	5.8314e-006
10040	9.7587	9.0909e-002	0.	-3.3254e-002
10041	9.5746	5.7273	0.	-5.7016e-002
10042	9.4825	5.8182	0.	-7.6541e-002
10043	9.5746	5.8182	5.e-002	-9.0629e-007
10044	9.5746	5.9091	0.	-2.82e-002
10045	9.5746	5.5455	0.	-4.2209e-002
10046	9.4825	5.6364	0.	-0.11737
10047	9.5746	5.6364	5.e-002	-3.8452e-006
10048	9.5746	5.3636	0.	9.0145e-003
10049	9.4825	5.4545	0.	2.6288e-002
10050	9.5746	5.4545	5.e-002	-3.9003e-006
10051	9.5746	5.1818	0.	-2.5161e-002
10052	9.4825	5.2727	0.	-9.4881e-003
10053	9.5746	5.2727	5.e-002	-1.2809e-006
10054	9.5746	5.	0.	-5.905e-002
10055	9.4825	5.0909	0.	-3.2271e-002
10056	9.5746	5.0909	5.e-002	6.7692e-006
10057	9.5746	4.8182	0.	-0.10462
10058	9.4825	4.9091	0.	-7.1401e-002
10059	9.5746	4.9091	5.e-002	1.4087e-005
10060	9.5746	4.6364	0.	-0.15977
10061	9.4825	4.7273	0.	-0.11891
10062	9.5746	4.7273	5.e-002	2.3906e-005
10063	9.5746	4.4545	0.	-0.22822
10064	9.4825	4.5455	0.	-0.17922
10065	9.5746	4.5455	5.e-002	4.5999e-005
10066	9.5746	4.2727	0.	-0.31545
10067	9.4825	4.3636	0.	-0.2571
10068	9.5746	4.3636	5.e-002	1.7478e-005
10069	9.5746	4.0909	0.	-0.43668
10070	9.4825	4.1818	0.	-0.36568
10071	9.5746	4.1818	5.e-002	5.9648e-005
10072	9.5746	3.9091	0.	-0.64985
10073	9.4825	4.	0.	-0.55026
10074	9.5746	4.	5.e-002	7.1873e-005
10075	9.5746	3.7273	0.	-1.3555
10076	9.4825	3.8182	0.	-1.0817
10077	9.5746	3.8182	5.e-002	1.1584e-004
10078	9.5746	3.5455	0.	-9.0946
10079	9.4825	3.6364	0.	-6.8858
10080	9.5746	3.6364	5.e-002	6.8776e-005
10081	9.5746	3.3636	0.	-23.281
10082	9.4825	3.4545	0.	-22.16
10083	9.5746	3.4545	5.e-002	5.2811e-005
10084	9.5746	3.1818	0.	-32.587
10085	9.4825	3.2727	0.	-33.739
10086	9.5746	3.2727	5.e-002	3.8721e-005
10087	9.5746	3.	0.	-35.764
10088	9.4825	3.0909	0.	-39.744
10089	9.5746	3.0909	5.e-002	1.8311e-005
10090	9.5746	2.8182	0.	-32.587
10091	9.4825	2.9091	0.	-39.744
10092	9.5746	2.9091	5.e-002	-1.1977e-005
10093	9.5746	2.6364	0.	-23.281
10094	9.4825	2.7273	0.	-33.739
10095	9.5746	2.7273	5.e-002	-6.6828e-005
10096	9.5746	2.4545	0.	-9.0946
10097	9.4825	2.5455	0.	-22.16
10098	9.5746	2.5455	5.e-002	-8.5189e-005
10099	9.5746	2.2727	0.	-1.3555
10100	9.4825	2.3636	0.	-6.8858
10101	9.5746	2.3636	5.e-002	-1.2195e-004
10102	9.5746	2.0909	0.	-0.64985
10103	9.4825	2.1818	0.	-1.0817
10104	9.5746	2.1818	5.e-002	-1.501e-004
10105	9.5746	1.9091	0.	-0.43668
10106	9.4825	2.	0.	-0.55026
10107	9.5746	2.	5.e-002	-1.6422e-004
10108	9.5746	1.7273	0.	-0.31545
10109	9.4825	1.8182	0.	-0.36568
10110	9.5746	1.8182	5.e-002	-1.6195e-004
10111	9.5746	1.5455	0.	-0.22822
10112	9.4825	1.6364	0.	-0.2571
10113	9.5746	1.6364	5.e-002	-1.4209e-004
10114	9.5746	1.3636	0.	-0.15977
10115	9.4825	1.4545	0.	-0.17922
10116	9.5746	1.4545	5.e-002	-7.256e-005
10117	9.5746	1.1818	0.	-0.10462
10118	9.4825	1.2727	0.	-0.11891
10119	9.5746	1.2727	5.e-002	-4.5223e-005
10120	9.5746	1.	0.	-5.9049e-002
10121	9.4825	1.0909	0.	-7.14e-002
10122	9.5746	1.0909	5.e-002	-2.5379e-005
10123	9.5746	0.81818	0.	-2.516e-002
10124	9.4825	0.90909	0.	-3.2269e-002
10125	9.5746	0.90909	5.e-002	-1.3777e-005
10126	9.5746	0.63636	0.	9.0152e-003
10127	9.4825	0.72727	0.	-9.487e-003
10128	9.5746	0.72727	5.e-002	-5.9954e-007
10129	9.5746	0.45455	0.	-4.2208e-002
10130	9.4825	0.54545	0.	2.6289e-002
10131	9.5746	0.54545	5.e-002	6.7962e-006
10132	9.5746	0.27273	0.	-5.7015e-002
10133	9.4825	0.36364	0.	-0.11736
10134	9.5746	0.36364	5.e-002	8.4715e-006
10135	9.4825	0.18182	0.	-7.654e-002
10136	9.5746	0.18182	5.e-002	4.4054e-006
10137	9.5746	9.0909e-002	0.	-2.8199e-002
10138	9.3905	5.7273	0.	-6.1942e-002
10139	9.2984	5.8182	0.	-8.3332e-002
10140	9.3905	5.8182	5.e-002	1.7756e-006
10141	9.3905	5.9091	0.	-2.0543e-002
10142	9.3905	5.5455	0.	-3.6373e-002
10143	9.2984	5.6364	0.	-0.10271
10144	9.3905	5.6364	5.e-002	-3.7243e-006
10145	9.3905	5.3636	0.	1.3202e-002
10146	9.2984	5.4545	0.	2.523e-002
10147	9.3905	5.4545	5.e-002	-3.0428e-006
10148	9.3905	5.1818	0.	-1.3175e-002
10149	9.2984	5.2727	0.	-1.9266e-003
10150	9.3905	5.2727	5.e-002	-2.7529e-006
10151	9.3905	5.	0.	-4.1615e-002
10152	9.2984	5.0909	0.	-2.0313e-002
10153	9.3905	5.0909	5.e-002	3.0852e-006
10154	9.3905	4.8182	0.	-8.2194e-002
10155	9.2984	4.9091	0.	-5.4643e-002
10156	9.3905	4.9091	5.e-002	1.1413e-005
10157	9.3905	4.6364	0.	-0.13339
10158	9.2984	4.7273	0.	-9.8345e-002
10159	9.3905	4.7273	5.e-002	1.8364e-005
10160	9.3905	4.4545	0.	-0.20002
10161	9.2984	4.5455	0.	-0.15634
10162	9.3905	4.5455	5.e-002	1.8438e-005
10163	9.3905	4.2727	0.	-0.2923
10164	9.2984	4.3636	0.	-0.23675
10165	9.3905	4.3636	5.e-002	3.3574e-005
10166	9.3905	4.0909	0.	-0.44388
10167	9.2984	4.1818	0.	-0.36562
10168	9.3905	4.1818	5.e-002	6.0058e-005
10169	9.3905	3.9091	0.	-0.82852
10170	9.2984	4.	0.	-0.6625
10171	9.3905	4.	5.e-002	7.4788e-005
10172	9.3905	3.7273	0.	-4.4029
10173	9.2984	3.8182	0.	-2.7796
10174	9.3905	3.8182	5.e-002	1.2512e-005
10175	9.3905	3.5455	0.	-19.434
10176	9.2984	3.6364	0.	-16.85
10177	9.3905	3.6364	5.e-002	-9.1003e-006
10178	9.3905	3.3636	0.	-32.568
10179	9.2984	3.4545	0.	-31.261
10180	9.3905	3.4545	5.e-002	3.5377e-005
10181	9.3905	3.1818	0.	-40.887
10182	9.2984	3.2727	0.	-41.571
10183	9.3905	3.2727	5.e-002	3.2468e-006
10184	9.3905	3.	0.	-43.724
10185	9.2984	3.0909	0.	-46.908
10186	9.3905	3.0909	5.e-002	2.0932e-005
10187	9.3905	2.8182	0.	-40.887
10188	9.2984	2.9091	0.	-46.908
10189	9.3905	2.9091	5.e-002	-3.6121e-005
10190	9.3905	2.6364	0.	-32.568
10191	9.2984	2.7273	0.	-41.571
10192	9.3905	2.7273	5.e-002	-9.3405e-005
10193	9.3905	2.4545	0.	-19.434
10194	9.2984	2.5455	0.	-31.261
10195	9.3905	2.5455	5.e-002	-1.2461e-004
10196	9.3905	2.2727	0.	-4.4029
10197	9.2984	2.3636	0.	-16.85
10198	9.3905	2.3636	5.e-002	-1.1327e-004
10199	9.3905	2.0909	0.	-0.82852
10200	9.2984	2.1818	0.	-2.7796
10201	9.3905	2.1818	5.e-002	-1.2613e-004
10202	9.3905	1.9091	0.	-0.44388
10203	9.2984	2.	0.	-0.6625
10204	9.3905	2.	5.e-002	-8.7711e-005
10205	9.3905	1.7273	0.	-0.2923
10206	9.2984	1.8182	0.	-0.36562
10207	9.3905	1.8182	5.e-002	-9.3264e-005
10208	9.3905	1.5455	0.	-0.20002
10209	9.2984	1.6364	0.	-0.23675
10210	9.3905	1.6364	5.e-002	-9.7825e-005
10211	9.3905	1.3636	0.	-0.13339
10212	9.2984	1.4545	0.	-0.15634
10213	9.3905	1.4545	5.e-002	-6.3794e-005
10214	9.3905	1.1818	0.	-8.2194e-002
10215	9.2984	1.2727	0.	-9.8344e-002
10216	9.3905	1.2727	5.e-002	-4.2015e-005
10217	9.3905	1.	0.	-4.1614e-002
10218	9.2984	1.0909	0.	-5.4643e-002
10219	9.3905	1.0909	5.e-002	-1.9361e-005
10220	9.3905	0.81818	0.	-1.3174e-002
10221	9.2984	0.90909	0.	-2.0312e-002
10222	9.3905	0.90909	5.e-002	-6.9001e-006
10223	9.3905	0.63636	0.	1.3203e-002
10224	9.2984	0.72727	0.	-1.9253e-003
10225	9.3905	0.72727	5.e-002	1.7993e-006
10226	9.3905	0.45455	0.	-3.6372e-002
10227	9.2984	0.54545	0.	2.5231e-002
10228	9.3905	0.54545	5.e-002	7.9013e-006
10229	9.3905	0.27273	0.	-6.194e-002
10230	9.2984	0.36364	0.	-0.10271
10231	9.3905	0.36364	5.e-002	8.3906e-006
10232	9.2984	0.18182	0.	-8.333e-002
10233	9.3905	0.18182	5.e-002	2.6328e-006
10234	9.3905	9.0909e-002	0.	-2.0542e-002
10235	9.2063	5.7273	0.	-5.9476e-002
10236	9.1143	5.8182	0.	-7.8339e-002
10237	9.2063	5.8182	5.e-002	1.0502e-006
10238	9.2063	5.9091	0.	-1.1654e-002
10239	9.2063	5.5455	0.	-2.9919e-002
10240	9.1143	5.6364	0.	-8.649e-002
10241	9.2063	5.6364	5.e-002	-3.7193e-006
10242	9.2063	5.3636	0.	1.5096e-002
10243	9.1143	5.4545	0.	2.3545e-002
10244	9.2063	5.4545	5.e-002	-3.0116e-006
10245	9.2063	5.1818	0.	-5.7678e-003
10246	9.1143	5.2727	0.	2.542e-003
10247	9.2063	5.2727	5.e-002	-3.0865e-006
10248	9.2063	5.	0.	-3.0334e-002
10249	9.1143	5.0909	0.	-1.3109e-002
10250	9.2063	5.0909	5.e-002	6.6068e-007
10251	9.2063	4.8182	0.	-6.7223e-002
10252	9.1143	4.9091	0.	-4.4055e-002
10253	9.2063	4.9091	5.e-002	7.831e-006
10254	9.2063	4.6364	0.	-0.11609
10255	9.1143	4.7273	0.	-8.5572e-002
10256	9.2063	4.7273	5.e-002	6.7218e-006
10257	9.2063	4.4545	0.	-0.18408
10258	9.1143	4.5455	0.	-0.14419
10259	9.2063	4.5455	5.e-002	4.3217e-006
10260	9.2063	4.2727	0.	-0.29065
10261	9.1143	4.3636	0.	-0.23495
10262	9.2063	4.3636	5.e-002	3.2271e-005
10263	9.2063	4.0909	0.	-0.51804
10264	9.1143	4.1818	0.	-0.41787
10265	9.2063	4.1818	5.e-002	4.1233e-005
10266	9.2063	3.9091	0.	-1.7472
10267	9.1143	4.	0.	-1.2091
10268	9.2063	4.	5.e-002	3.3646e-005
10269	9.2063	3.7273	0.	-13.688
10270	9.1143	3.8182	0.	-11.003
10271	9.2063	3.8182	5.e-002	6.4296e-007
10272	9.2063	3.5455	0.	-28.588
10273	9.1143	3.6364	0.	-26.284
10274	9.2063	3.6364	5.e-002	-2.0954e-005
10275	9.2063	3.3636	0.	-40.24
10276	9.1143	3.4545	0.	-39.089
10277	9.2063	3.4545	5.e-002	-2.1859e-005
10278	9.2063	3.1818	0.	-47.583
10279	9.1143	3.2727	0.	-48.175
10280	9.2063	3.2727	5.e-002	-2.2453e-005
10281	9.2063	3.	0.	-50.088
10282	9.1143	3.0909	0.	-52.879
10283	9.2063	3.0909	5.e-002	-4.4405e-005
10284	9.2063	2.8182	0.	-47.583
10285	9.1143	2.9091	0.	-52.879
10286	9.2063	2.9091	5.e-002	-1.9112e-006
10287	9.2063	2.6364	0.	-40.24
10288	9.1143	2.7273	0.	-48.175
10289	9.2063	2.7273	5.e-002	-2.8731e-005
10290	9.2063	2.4545	0.	-28.588
10291	9.1143	2.5455	0.	-39.089
10292	9.2063	2.5455	5.e-002	-5.5165e-005
10293	9.2063	2.2727	0.	-13.688
10294	9.1143	2.3636	0.	-26.284
10295	9.2063	2.3636	5.e-002	-7.4309e-005
10296	9.2063	2.0909	0.	-1.7472
10297	9.1143	2.1818	0.	-11.003
10298	9.2063	2.1818	5.e-002	-8.7315e-005
10299	9.2063	1.9091	0.	-0.51804
10300	9.1143	2.	0.	-1.2091
10301	9.2063	2.	5.e-002	-6.1259e-005
10302	9.2063	1.7273	0.	-0.29065
10303	9.1143	1.8182	0.	-0.41787
10304	9.2063	1.8182	5.e-002	-5.3779e-005
10305	9.2063	1.5455	0.	-0.18408
10306	9.1143	1.6364	0.	-0.23495
10307	9.2063	1.6364	5.e-002	-4.4689e-005
10308	9.2063	1.3636	0.	-0.11609
10309	9.1143	1.4545	0.	-0.14419
10310	9.2063	1.4545	5.e-002	-4.7176e-005
10311	9.2063	1.1818	0.	-6.7222e-002
10312	9.1143	1.2727	0.	-8.5571e-002
10313	9.2063	1.2727	5.e-002	-3.1331e-005
10314	9.2063	1.	0.	-3.0333e-002
10315	9.1143	1.0909	0.	-4.4054e-002
10316	9.2063	1.0909	5.e-002	-1.3469e-005
10317	9.2063	0.81818	0.	-5.7665e-003
10318	9.1143	0.90909	0.	-1.3108e-002
10319	9.2063	0.90909	5.e-002	-4.314e-006
10320	9.2063	0.63636	0.	1.5097e-002
10321	9.1143	0.72727	0.	2.5432e-003
10322	9.2063	0.72727	5.e-002	2.9647e-006
10323	9.2063	0.45455	0.	-2.9919e-002
10324	9.1143	0.54545	0.	2.3545e-002
10325	9.2063	0.54545	5.e-002	6.908e-006
10326	9.2063	0.27273	0.	-5.9474e-002
10327	9.1143	0.36364	0.	-8.6489e-002
10328	9.2063	0.36364	5.e-002	6.5475e-006
10329	9.1143	0.18182	0.	-7.8338e-002
10330	9.2063	0.18182	5.e-002	2.1576e-006
10331	9.2063	9.0909e-002	0.	-1.1652e-002
10332	9.0222	5.7273	0.	-5.254e-002
10333	8.9302	5.8182	0.	-6.673e-002
10334	9.0222	5.8182	5.e-002	2.6723e-006
10335	9.0222	5.9091	0.	-2.4523e-003
10336	9.0222	5.5455	0.	-2.331e-002
10337	8.9302	5.6364	0.	-6.9962e-002
10338	9.0222	5.6364	5.e-002	-2.9825e-006
10339	9.0222	5.3636	0.	1.548e-002
10340	8.9302	5.4545	0.	2.1567e-002
10341	9.0222	5.4545	5.e-002	-2.4086e-006
10342	9.0222	5.1818	0.	-1.701e-003
10343	8.9302	5.2727	0.	4.7718e-003
10344	9.0222	5.2727	5.e-002	-1.1164e-006
10345	9.0222	5.	0.	-2.3889e-002
10346	8.9302	5.0909	0.	-9.5945e-003
10347	9.0222	5.0909	5.e-002	-7.3059e-007
10348	9.0222	4.8182	0.	-5.8752e-002
10349	8.9302	4.9091	0.	-3.8819e-002
10350	9.0222	4.9091	5.e-002	4.6916e-006
10351	9.0222	4.6364	0.	-0.10805
10352	8.9302	4.7273	0.	-8.0743e-002
10353	9.0222	4.7273	5.e-002	3.3656e-006
10354	9.0222	4.4545	0.	-0.18421
10355	8.9302	4.5455	0.	-0.14604
10356	9.0222	4.5455	5.e-002	6.7405e-006
10357	9.0222	4.2727	0.	-0.33169
10358	8.9302	4.3636	0.	-0.26908
10359	9.0222	4.3636	5.e-002	1.4885e-005
10360	9.0222	4.0909	0.	-0.87861
10361	8.9302	4.1818	0.	-0.67506
10362	9.0222	4.1818	5.e-002	8.5186e-006
10363	9.0222	3.9091	0.	-8.5081
10364	8.9302	4.	0.	-6.5299
10365	9.0222	4.	5.e-002	8.5439e-006
10366	9.0222	3.7273	0.	-23.46
10367	8.9302	3.8182	0.	-21.185
10368	9.0222	3.8182	5.e-002	-4.9186e-006
10369	9.0222	3.5455	0.	-36.756
10370	8.9302	3.6364	0.	-34.932
10371	9.0222	3.6364	5.e-002	1.9377e-005
10372	9.0222	3.3636	0.	-47.011
10373	8.9302	3.4545	0.	-46.218
10374	9.0222	3.4545	5.e-002	-2.2494e-005
10375	9.0222	3.1818	0.	-53.464
10376	8.9302	3.2727	0.	-54.204
10377	9.0222	3.2727	5.e-002	-1.9908e-005
10378	9.0222	3.	0.	-55.664
10379	8.9302	3.0909	0.	-58.335
10380	9.0222	3.0909	5.e-002	-8.1215e-006
10381	9.0222	2.8182	0.	-53.464
10382	8.9302	2.9091	0.	-58.335
10383	9.0222	2.9091	5.e-002	1.716e-005
10384	9.0222	2.6364	0.	-47.011
10385	8.9302	2.7273	0.	-54.204
10386	9.0222	2.7273	5.e-002	2.746e-005
10387	9.0222	2.4545	0.	-36.756
10388	8.9302	2.5455	0.	-46.218
10389	9.0222	2.5455	5.e-002	-2.5948e-005
10390	9.0222	2.2727	0.	-23.46
10391	8.9302	2.3636	0.	-34.932
10392	9.0222	2.3636	5.e-002	-3.5583e-005
10393	9.0222	2.0909	0.	-8.5081
10394	8.9302	2.1818	0.	-21.185
10395	9.0222	2.1818	5.e-002	-2.6055e-005
10396	9.0222	1.9091	0.	-0.87861
10397	8.9302	2.	0.	-6.53
10398	9.0222	2.	5.e-002	-4.9622e-005
10399	9.0222	1.7273	0.	-0.33169
10400	8.9302	1.8182	0.	-0.67506
10401	9.0222	1.8182	5.e-002	-3.5059e-005
10402	9.0222	1.5455	0.	-0.18421
10403	8.9302	1.6364	0.	-0.26908
10404	9.0222	1.6364	5.e-002	-3.0689e-005
10405	9.0222	1.3636	0.	-0.10805
10406	8.9302	1.4545	0.	-0.14604
10407	9.0222	1.4545	5.e-002	-2.8592e-005
10408	9.0222	1.1818	0.	-5.8752e-002
10409	8.9302	1.2727	0.	-8.0742e-002
10410	9.0222	1.2727	5.e-002	-2.2294e-005
10411	9.0222	1.	0.	-2.3889e-002
10412	8.9302	1.0909	0.	-3.8818e-002
10413	9.0222	1.0909	5.e-002	-8.489e-006
10414	9.0222	0.81818	0.	-1.6998e-003
10415	8.9302	0.90909	0.	-9.593e-003
10416	9.0222	0.90909	5.e-002	-9.4408e-007
10417	9.0222	0.63636	0.	1.5481e-002
10418	8.9302	0.72727	0.	4.7727e-003
10419	9.0222	0.72727	5.e-002	3.7889e-006
10420	9.0222	0.45455	0.	-2.3309e-002
10421	8.9302	0.54545	0.	2.1568e-002
10422	9.0222	0.54545	5.e-002	7.1918e-006
10423	9.0222	0.27273	0.	-5.2539e-002
10424	8.9302	0.36364	0.	-6.9961e-002
10425	9.0222	0.36364	5.e-002	6.3936e-006
10426	8.9302	0.18182	0.	-6.6729e-002
10427	9.0222	0.18182	5.e-002	1.4637e-006
10428	9.0222	9.0909e-002	0.	-2.4512e-003
10429	8.8381	5.7273	0.	-4.3183e-002
10430	8.746	5.8182	0.	-5.2079e-002
10431	8.8381	5.8182	5.e-002	2.6447e-006
10432	8.8381	5.9091	0.	6.462e-003
10433	8.8381	5.5455	0.	-1.684e-002
10434	8.746	5.6364	0.	-5.3883e-002
10435	8.8381	5.6364	5.e-002	-1.5786e-006
10436	8.8381	5.3636	0.	1.484e-002
10437	8.746	5.4545	0.	1.9461e-002
10438	8.8381	5.4545	5.e-002	-2.222e-006
10439	8.8381	5.1818	0.	-2.312e-004
10440	8.746	5.2727	0.	5.2358e-003
10441	8.8381	5.2727	5.e-002	-2.8838e-006
10442	8.8381	5.	0.	-2.1636e-002
10443	8.746	5.0909	0.	-9.3563e-003
10444	8.8381	5.0909	5.e-002	7.6884e-008
10445	8.8381	4.8182	0.	-5.7023e-002
10446	8.746	4.9091	0.	-3.9273e-002
10447	8.8381	4.9091	5.e-002	2.8592e-006
10448	8.8381	4.6364	0.	-0.11239
10449	8.746	4.7273	0.	-8.6849e-002
10450	8.8381	4.7273	5.e-002	1.3958e-006
10451	8.8381	4.4545	0.	-0.21601
10452	8.746	4.5455	0.	-0.17614
10453	8.8381	4.5455	5.e-002	-9.1246e-007
10454	8.8381	4.2727	0.	-0.538
10455	8.746	4.3636	0.	-0.44143
10456	8.8381	4.3636	5.e-002	9.0347e-006
10457	8.8381	4.0909	0.	-5.1525
10458	8.746	4.1818	0.	-4.1272
10459	8.8381	4.1818	5.e-002	-2.8112e-006
10460	8.8381	3.9091	0.	-19.014
10461	8.746	4.	0.	-17.356
10462	8.8381	4.	5.e-002	3.1905e-006
10463	8.8381	3.7273	0.	-32.63
10464	8.746	3.8182	0.	-30.924
10465	8.8381	3.8182	5.e-002	-6.4378e-006
10466	8.8381	3.5455	0.	-44.382
10467	8.746	3.6364	0.	-43.129
10468	8.8381	3.6364	5.e-002	-7.3776e-006
10469	8.8381	3.3636	0.	-53.404
10470	8.746	3.4545	0.	-53.084
10471	8.8381	3.4545	5.e-002	-1.4786e-005
10472	8.8381	3.1818	0.	-59.071
10473	8.746	3.2727	0.	-60.111
10474	8.8381	3.2727	5.e-002	-1.2127e-005
10475	8.8381	3.	0.	-61.003
10476	8.746	3.0909	0.	-63.743
10477	8.8381	3.0909	5.e-002	8.143e-007
10478	8.8381	2.8182	0.	-59.071
10479	8.746	2.9091	0.	-63.743
10480	8.8381	2.9091	5.e-002	1.3925e-005
10481	8.8381	2.6364	0.	-53.404
10482	8.746	2.7273	0.	-60.111
10483	8.8381	2.7273	5.e-002	1.1561e-005
10484	8.8381	2.4545	0.	-44.382
10485	8.746	2.5455	0.	-53.084
10486	8.8381	2.5455	5.e-002	3.8418e-006
10487	8.8381	2.2727	0.	-32.63
10488	8.746	2.3636	0.	-43.129
10489	8.8381	2.3636	5.e-002	-4.6712e-006
10490	8.8381	2.0909	0.	-19.014
10491	8.746	2.1818	0.	-30.924
10492	8.8381	2.1818	5.e-002	-1.8749e-005
10493	8.8381	1.9091	0.	-5.1525
10494	8.746	2.	0.	-17.356
10495	8.8381	2.	5.e-002	-2.1365e-005
10496	8.8381	1.7273	0.	-0.538
10497	8.746	1.8182	0.	-4.1272
10498	8.8381	1.8182	5.e-002	-3.4264e-005
10499	8.8381	1.5455	0.	-0.21601
10500	8.746	1.6364	0.	-0.44143
10501	8.8381	1.6364	5.e-002	-1.9046e-005
10502	8.8381	1.3636	0.	-0.11238
10503	8.746	1.4545	0.	-0.17614
10504	8.8381	1.4545	5.e-002	-2.2931e-005
10505	8.8381	1.1818	0.	-5.7022e-002
10506	8.746	1.2727	0.	-8.6848e-002
10507	8.8381	1.2727	5.e-002	-1.2493e-005
10508	8.8381	1.	0.	-2.1635e-002
10509	8.746	1.0909	0.	-3.9272e-002
10510	8.8381	1.0909	5.e-002	-4.5383e-006
10511	8.8381	0.81818	0.	-2.3005e-004
10512	8.746	0.90909	0.	-9.3548e-003
10513	8.8381	0.90909	5.e-002	9.7765e-007
10514	8.8381	0.63636	0.	1.484e-002
10515	8.746	0.72727	0.	5.2366e-003
10516	8.8381	0.72727	5.e-002	4.0503e-006
10517	8.8381	0.45455	0.	-1.6839e-002
10518	8.746	0.54545	0.	1.9461e-002
10519	8.8381	0.54545	5.e-002	5.9403e-006
10520	8.8381	0.27273	0.	-4.3181e-002
10521	8.746	0.36364	0.	-5.3881e-002
10522	8.8381	0.36364	5.e-002	5.2695e-006
10523	8.746	0.18182	0.	-5.2077e-002
10524	8.8381	0.18182	5.e-002	-1.0302e-006
10525	8.8381	9.0909e-002	0.	6.4632e-003
10526	8.654	5.7273	0.	-3.2776e-002
10527	8.5619	5.8182	0.	-3.6723e-002
10528	8.654	5.8182	5.e-002	2.5174e-006
10529	8.654	5.9091	0.	1.4695e-002
10530	8.654	5.5455	0.	-1.0714e-002
10531	8.5619	5.6364	0.	-3.8689e-002
10532	8.654	5.6364	5.e-002	-1.3567e-006
10533	8.654	5.3636	0.	1.3373e-002
10534	8.5619	5.4545	0.	1.7207e-002
10535	8.654	5.4545	5.e-002	-1.544e-006
10536	8.654	5.1818	0.	-1.1884e-003
10537	8.5619	5.2727	0.	3.9276e-003
10538	8.654	5.2727	5.e-002	-2.8119e-006
10539	8.654	5.	0.	-2.4152e-002
10540	8.5619	5.0909	0.	-1.3084e-002
10541	8.654	5.0909	5.e-002	-1.1445e-006
10542	8.654	4.8182	0.	-6.5222e-002
10543	8.5619	4.9091	0.	-4.8755e-002
10544	8.654	4.9091	5.e-002	5.1303e-007
10545	8.654	4.6364	0.	-0.14353
10546	8.5619	4.7273	0.	-0.11851
10547	8.654	4.7273	5.e-002	3.8849e-006
10548	8.654	4.4545	0.	-0.37968
10549	8.5619	4.5455	0.	-0.33375
10550	8.654	4.5455	5.e-002	1.4316e-006
10551	8.654	4.2727	0.	-3.7841
10552	8.5619	4.3636	0.	-3.5793
10553	8.654	4.3636	5.e-002	5.5619e-006
10554	8.654	4.0909	0.	-16.19
10555	8.5619	4.1818	0.	-15.385
10556	8.654	4.1818	5.e-002	5.8315e-006
10557	8.654	3.9091	0.	-29.251
10558	8.5619	4.	0.	-28.102
10559	8.654	4.	5.e-002	-9.7969e-006
10560	8.654	3.7273	0.	-41.416
10561	8.5619	3.8182	0.	-40.311
10562	8.654	3.8182	5.e-002	-5.9873e-006
10563	8.654	3.5455	0.	-51.826
10564	8.5619	3.6364	0.	-51.18
10565	8.654	3.6364	5.e-002	-5.6093e-006
10566	8.654	3.3636	0.	-59.788
10567	8.5619	3.4545	0.	-60.003
10568	8.654	3.4545	5.e-002	-8.5467e-006
10569	8.654	3.1818	0.	-64.781
10570	8.5619	3.2727	0.	-66.215
10571	8.654	3.2727	5.e-002	-5.0876e-006
10572	8.654	3.	0.	-66.482
10573	8.5619	3.0909	0.	-69.421
10574	8.654	3.0909	5.e-002	3.0166e-006
10575	8.654	2.8182	0.	-64.781
10576	8.5619	2.9091	0.	-69.421
10577	8.654	2.9091	5.e-002	1.213e-005
10578	8.654	2.6364	0.	-59.788
10579	8.5619	2.7273	0.	-66.215
10580	8.654	2.7273	5.e-002	1.1499e-005
10581	8.654	2.4545	0.	-51.826
10582	8.5619	2.5455	0.	-60.003
10583	8.654	2.5455	5.e-002	1.2004e-005
10584	8.654	2.2727	0.	-41.416
10585	8.5619	2.3636	0.	-51.181
10586	8.654	2.3636	5.e-002	3.1776e-006
10587	8.654	2.0909	0.	-29.251
10588	8.5619	2.1818	0.	-40.311
10589	8.654	2.1818	5.e-002	-6.9321e-006
10590	8.654	1.9091	0.	-16.19
10591	8.5619	2.	0.	-28.102
10592	8.654	2.	5.e-002	-1.0472e-005
10593	8.654	1.7273	0.	-3.7842
10594	8.5619	1.8182	0.	-15.385
10595	8.654	1.8182	5.e-002	-1.1745e-005
10596	8.654	1.5455	0.	-0.37968
10597	8.5619	1.6364	0.	-3.5793
10598	8.654	1.6364	5.e-002	-1.128e-005
10599	8.654	1.3636	0.	-0.14353
10600	8.5619	1.4545	0.	-0.33375
10601	8.654	1.4545	5.e-002	-8.7369e-006
10602	8.654	1.1818	0.	-6.5221e-002
10603	8.5619	1.2727	0.	-0.11851
10604	8.654	1.2727	5.e-002	-5.7217e-006
10605	8.654	1.	0.	-2.4151e-002
10606	8.5619	1.0909	0.	-4.8755e-002
10607	8.654	1.0909	5.e-002	-3.5686e-006
10608	8.654	0.81818	0.	-1.1872e-003
10609	8.5619	0.90909	0.	-1.3082e-002
10610	8.654	0.90909	5.e-002	9.3226e-007
10611	8.654	0.63636	0.	1.3374e-002
10612	8.5619	0.72727	0.	3.9284e-003
10613	8.654	0.72727	5.e-002	3.7256e-006
10614	8.654	0.45455	0.	-1.0713e-002
10615	8.5619	0.54545	0.	1.7207e-002
10616	8.654	0.54545	5.e-002	5.0848e-006
10617	8.654	0.27273	0.	-3.2775e-002
10618	8.5619	0.36364	0.	-3.8687e-002
10619	8.654	0.36364	5.e-002	4.9636e-006
10620	8.5619	0.18182	0.	-3.6722e-002
10621	8.654	0.18182	5.e-002	1.0651e-006
10622	8.654	9.0909e-002	0.	1.4696e-002
10623	8.4698	5.7273	0.	-2.2209e-002
10624	8.3778	5.8182	0.	-2.2161e-002
10625	8.4698	5.8182	5.e-002	2.1421e-006
10626	8.4698	5.9091	0.	2.1955e-002
10627	8.4698	5.5455	0.	-5.124e-003
10628	8.3778	5.6364	0.	-2.4652e-002
10629	8.4698	5.6364	5.e-002	-3.5129e-007
10630	8.4698	5.3636	0.	1.0874e-002
10631	8.3778	5.4545	0.	1.4465e-002
10632	8.4698	5.4545	5.e-002	-5.5895e-007
10633	8.4698	5.1818	0.	-5.5027e-003
10634	8.3778	5.2727	0.	-2.3826e-004
10635	8.4698	5.2727	5.e-002	-1.2324e-006
10636	8.4698	5.	0.	-3.5293e-002
10637	8.3778	5.0909	0.	-2.5076e-002
10638	8.4698	5.0909	5.e-002	-1.633e-007
10639	8.4698	4.8182	0.	-0.10018
10640	8.3778	4.9091	0.	-8.634e-002
10641	8.4698	4.9091	5.e-002	8.0396e-007
10642	8.4698	4.6364	0.	-0.32298
10643	8.3778	4.7273	0.	-0.32635
10644	8.4698	4.7273	5.e-002	1.4221e-006
10645	8.4698	4.4545	0.	-4.1519
10646	8.3778	4.5455	0.	-4.7456
10647	8.4698	4.5455	5.e-002	-1.4886e-006
10648	8.4698	4.2727	0.	-15.262
10649	8.3778	4.3636	0.	-15.298
10650	8.4698	4.3636	5.e-002	-2.2409e-006
10651	8.4698	4.0909	0.	-27.299
10652	8.3778	4.1818	0.	-26.859
10653	8.4698	4.1818	5.e-002	-3.0781e-006
10654	8.4698	3.9091	0.	-39.16
10655	8.3778	4.	0.	-38.522
10656	8.4698	4.	5.e-002	-7.4426e-006
10657	8.4698	3.7273	0.	-50.074
10658	8.3778	3.8182	0.	-49.567
10659	8.4698	3.8182	5.e-002	-6.787e-006
10660	8.4698	3.5455	0.	-59.356
10661	8.3778	3.6364	0.	-59.324
10662	8.4698	3.6364	5.e-002	-6.1959e-006
10663	8.4698	3.3636	0.	-66.429
10664	8.3778	3.4545	0.	-67.206
10665	8.4698	3.4545	5.e-002	-4.5337e-006
10666	8.4698	3.1818	0.	-70.855
10667	8.3778	3.2727	0.	-72.738
10668	8.4698	3.2727	5.e-002	-3.3566e-007
10669	8.4698	3.	0.	-72.361
10670	8.3778	3.0909	0.	-75.59
10671	8.4698	3.0909	5.e-002	3.1798e-006
10672	8.4698	2.8182	0.	-70.855
10673	8.3778	2.9091	0.	-75.59
10674	8.4698	2.9091	5.e-002	9.6184e-006
10675	8.4698	2.6364	0.	-66.429
10676	8.3778	2.7273	0.	-72.738
10677	8.4698	2.7273	5.e-002	1.3463e-005
10678	8.4698	2.4545	0.	-59.356
10679	8.3778	2.5455	0.	-67.206
10680	8.4698	2.5455	5.e-002	8.6262e-006
10681	8.4698	2.2727	0.	-50.074
10682	8.3778	2.3636	0.	-59.324
10683	8.4698	2.3636	5.e-002	1.0769e-005
10684	8.4698	2.0909	0.	-39.16
10685	8.3778	2.1818	0.	-49.567
10686	8.4698	2.1818	5.e-002	2.1627e-006
10687	8.4698	1.9091	0.	-27.299
10688	8.3778	2.	0.	-38.522
10689	8.4698	2.	5.e-002	-4.9047e-009
10690	8.4698	1.7273	0.	-15.262
10691	8.3778	1.8182	0.	-26.859
10692	8.4698	1.8182	5.e-002	-2.1934e-006
10693	8.4698	1.5455	0.	-4.1519
10694	8.3778	1.6364	0.	-15.298
10695	8.4698	1.6364	5.e-002	-5.9473e-006
10696	8.4698	1.3636	0.	-0.32298
10697	8.3778	1.4545	0.	-4.7456
10698	8.4698	1.4545	5.e-002	-4.9626e-006
10699	8.4698	1.1818	0.	-0.10018
10700	8.3778	1.2727	0.	-0.32635
10701	8.4698	1.2727	5.e-002	-4.7236e-006
10702	8.4698	1.	0.	-3.5292e-002
10703	8.3778	1.0909	0.	-8.6339e-002
10704	8.4698	1.0909	5.e-002	-1.6661e-006
10705	8.4698	0.81818	0.	-5.5014e-003
10706	8.3778	0.90909	0.	-2.5075e-002
10707	8.4698	0.90909	5.e-002	1.1123e-006
10708	8.4698	0.63636	0.	1.0875e-002
10709	8.3778	0.72727	0.	-2.3754e-004
10710	8.4698	0.72727	5.e-002	2.981e-006
10711	8.4698	0.45455	0.	-5.1231e-003
10712	8.3778	0.54545	0.	1.4465e-002
10713	8.4698	0.54545	5.e-002	3.9883e-006
10714	8.4698	0.27273	0.	-2.2207e-002
10715	8.3778	0.36364	0.	-2.465e-002
10716	8.4698	0.36364	5.e-002	3.6459e-006
10717	8.3778	0.18182	0.	-2.216e-002
10718	8.4698	0.18182	5.e-002	1.5717e-006
10719	8.4698	9.0909e-002	0.	2.1956e-002
10720	8.2857	5.7273	0.	-1.2108e-002
10721	8.1937	5.8182	0.	-9.4884e-003
10722	8.2857	5.8182	5.e-002	1.1436e-006
10723	8.2857	5.9091	0.	2.7903e-002
10724	8.2857	5.5455	0.	-4.5725e-004
10725	8.1937	5.6364	0.	-1.212e-002
10726	8.2857	5.6364	5.e-002	-1.3265e-007
10727	8.2857	5.3636	0.	6.0039e-003
10728	8.1937	5.4545	0.	9.7738e-003
10729	8.2857	5.4545	5.e-002	-4.6988e-009
10730	8.2857	5.1818	0.	-1.8527e-002
10731	8.1937	5.2727	0.	-1.3576e-002
10732	8.2857	5.2727	5.e-002	-7.4519e-007
10733	8.2857	5.	0.	-8.1015e-002
10734	8.1937	5.0909	0.	-8.0525e-002
10735	8.2857	5.0909	5.e-002	1.2743e-007
10736	8.2857	4.8182	0.	-0.44122
10737	8.1937	4.9091	0.	-0.76805
10738	8.2857	4.9091	5.e-002	1.6117e-006
10739	8.2857	4.6364	0.	-6.2157
10740	8.1937	4.7273	0.	-7.4596
10741	8.2857	4.7273	5.e-002	-1.3049e-007
10742	8.2857	4.4545	0.	-16.05
10743	8.1937	4.5455	0.	-16.738
10744	8.2857	4.5455	5.e-002	2.6403e-006
10745	8.2857	4.2727	0.	-26.908
10746	8.1937	4.3636	0.	-27.115
10747	8.2857	4.3636	5.e-002	2.7768e-006
10748	8.2857	4.0909	0.	-38.085
10749	8.1937	4.1818	0.	-37.995
10750	8.2857	4.1818	5.e-002	-2.5802e-006
10751	8.2857	3.9091	0.	-48.93
10752	8.1937	4.	0.	-48.784
10753	8.2857	4.	5.e-002	-2.9043e-006
10754	8.2857	3.7273	0.	-58.817
10755	8.1937	3.8182	0.	-58.887
10756	8.2857	3.8182	5.e-002	-1.7777e-006
10757	8.2857	3.5455	0.	-67.174
10758	8.1937	3.6364	0.	-67.745
10759	8.2857	3.6364	5.e-002	-2.8418e-006
10760	8.2857	3.3636	0.	-73.516
10761	8.1937	3.4545	0.	-74.863
10762	8.2857	3.4545	5.e-002	1.3084e-007
10763	8.2857	3.1818	0.	-77.475
10764	8.1937	3.2727	0.	-79.842
10765	8.2857	3.2727	5.e-002	3.2753e-006
10766	8.2857	3.	0.	-78.82
10767	8.1937	3.0909	0.	-82.404
10768	8.2857	3.0909	5.e-002	5.7121e-006
10769	8.2857	2.8182	0.	-77.475
10770	8.1937	2.9091	0.	-82.404
10771	8.2857	2.9091	5.e-002	8.4283e-006
10772	8.2857	2.6364	0.	-73.516
10773	8.1937	2.7273	0.	-79.842
10774	8.2857	2.7273	5.e-002	9.7262e-006
10775	8.2857	2.4545	0.	-67.174
10776	8.1937	2.5455	0.	-74.863
10777	8.2857	2.5455	5.e-002	1.0477e-005
10778	8.2857	2.2727	0.	-58.817
10779	8.1937	2.3636	0.	-67.745
10780	8.2857	2.3636	5.e-002	8.4869e-006
10781	8.2857	2.0909	0.	-48.93
10782	8.1937	2.1818	0.	-58.887
10783	8.2857	2.1818	5.e-002	2.204e-006
10784	8.2857	1.9091	0.	-38.085
10785	8.1937	2.	0.	-48.784
10786	8.2857	2.	5.e-002	-1.9015e-007
10787	8.2857	1.7273	0.	-26.908
10788	8.1937	1.8182	0.	-37.995
10789	8.2857	1.8182	5.e-002	-1.601e-006
10790	8.2857	1.5455	0.	-16.05
10791	8.1937	1.6364	0.	-27.115
10792	8.2857	1.6364	5.e-002	-3.0174e-006
10793	8.2857	1.3636	0.	-6.2157
10794	8.1937	1.4545	0.	-16.738
10795	8.2857	1.4545	5.e-002	-2.801e-006
10796	8.2857	1.1818	0.	-0.44122
10797	8.1937	1.2727	0.	-7.4596
10798	8.2857	1.2727	5.e-002	-2.8508e-006
10799	8.2857	1.	0.	-8.1014e-002
10800	8.1937	1.0909	0.	-0.76807
10801	8.2857	1.0909	5.e-002	-2.5585e-007
10802	8.2857	0.81818	0.	-1.8527e-002
10803	8.1937	0.90909	0.	-8.0525e-002
10804	8.2857	0.90909	5.e-002	8.5796e-007
10805	8.2857	0.63636	0.	6.0046e-003
10806	8.1937	0.72727	0.	-1.3575e-002
10807	8.2857	0.72727	5.e-002	1.9369e-006
10808	8.2857	0.45455	0.	-4.5606e-004
10809	8.1937	0.54545	0.	9.7745e-003
10810	8.2857	0.54545	5.e-002	2.7713e-006
10811	8.2857	0.27273	0.	-1.2106e-002
10812	8.1937	0.36364	0.	-1.2119e-002
10813	8.2857	0.36364	5.e-002	2.3235e-006
10814	8.1937	0.18182	0.	-9.4871e-003
10815	8.2857	0.18182	5.e-002	7.4622e-007
10816	8.2857	9.0909e-002	0.	2.7905e-002
10817	8.1016	5.7273	0.	-3.1816e-003
10818	8.0095	5.8182	0.	-1.6564e-004
10819	8.1016	5.8182	5.e-002	7.2125e-007
10820	8.1016	5.9091	0.	3.1881e-002
10821	8.1016	5.5455	0.	1.7228e-003
10822	8.0095	5.6364	0.	-2.6101e-003
10823	8.1016	5.6364	5.e-002	4.3462e-007
10824	8.1016	5.3636	0.	-1.0085e-002
10825	8.0095	5.4545	0.	-8.7341e-003
10826	8.1016	5.4545	5.e-002	8.2762e-007
10827	8.1016	5.1818	0.	-0.11114
10828	8.0095	5.2727	0.	-0.23015
10829	8.1016	5.2727	5.e-002	7.312e-007
10830	8.1016	5.	0.	-2.4357
10831	8.0095	5.0909	0.	-4.1815
10832	8.1016	5.0909	5.e-002	1.3215e-006
10833	8.1016	4.8182	0.	-9.413
10834	8.0095	4.9091	0.	-10.867
10835	8.1016	4.9091	5.e-002	1.8809e-006
10836	8.1016	4.6364	0.	-18.054
10837	8.0095	4.7273	0.	-19.083
10838	8.1016	4.7273	5.e-002	1.7336e-006
10839	8.1016	4.4545	0.	-27.816
10840	8.0095	4.5455	0.	-28.459
10841	8.1016	4.5455	5.e-002	2.7568e-006
10842	8.1016	4.2727	0.	-38.207
10843	8.0095	4.3636	0.	-38.569
10844	8.1016	4.3636	5.e-002	-2.7994e-006
10845	8.1016	4.0909	0.	-48.697
10846	8.0095	4.1818	0.	-48.936
10847	8.1016	4.1818	5.e-002	-2.7484e-006
10848	8.1016	3.9091	0.	-58.742
10849	8.0095	4.	0.	-59.058
10850	8.1016	4.	5.e-002	-2.6803e-006
10851	8.1016	3.7273	0.	-67.816
10852	8.0095	3.8182	0.	-68.433
10853	8.1016	3.8182	5.e-002	-1.0663e-006
10854	8.1016	3.5455	0.	-75.435
10855	8.0095	3.6364	0.	-76.587
10856	8.1016	3.6364	5.e-002	8.4981e-007
10857	8.1016	3.3636	0.	-81.191
10858	8.0095	3.4545	0.	-83.103
10859	8.1016	3.4545	5.e-002	2.3513e-007
10860	8.1016	3.1818	0.	-84.774
10861	8.0095	3.2727	0.	-87.645
10862	8.1016	3.2727	5.e-002	9.3458e-007
10863	8.1016	3.	0.	-85.99
10864	8.0095	3.0909	0.	-89.976
10865	8.1016	3.0909	5.e-002	6.8752e-006
10866	8.1016	2.8182	0.	-84.774
10867	8.0095	2.9091	0.	-89.976
10868	8.1016	2.9091	5.e-002	9.2537e-006
10869	8.1016	2.6364	0.	-81.191
10870	8.0095	2.7273	0.	-87.645
10871	8.1016	2.7273	5.e-002	9.6707e-006
10872	8.1016	2.4545	0.	-75.435
10873	8.0095	2.5455	0.	-83.103
10874	8.1016	2.5455	5.e-002	9.5912e-006
10875	8.1016	2.2727	0.	-67.816
10876	8.0095	2.3636	0.	-76.587
10877	8.1016	2.3636	5.e-002	8.5183e-006
10878	8.1016	2.0909	0.	-58.742
10879	8.0095	2.1818	0.	-68.433
10880	8.1016	2.1818	5.e-002	3.2984e-006
10881	8.1016	1.9091	0.	-48.697
10882	8.0095	2.	0.	-59.058
10883	8.1016	2.	5.e-002	2.0717e-006
10884	8.1016	1.7273	0.	-38.207
10885	8.0095	1.8182	0.	-48.936
10886	8.1016	1.8182	5.e-002	-4.1184e-008
10887	8.1016	1.5455	0.	-27.816
10888	8.0095	1.6364	0.	-38.569
10889	8.1016	1.6364	5.e-002	-1.7668e-007
10890	8.1016	1.3636	0.	-18.054
10891	8.0095	1.4545	0.	-28.459
10892	8.1016	1.4545	5.e-002	-1.3037e-006
10893	8.1016	1.1818	0.	-9.413
10894	8.0095	1.2727	0.	-19.083
10895	8.1016	1.2727	5.e-002	-6.1262e-007
10896	8.1016	1.	0.	-2.4357
10897	8.0095	1.0909	0.	-10.867
10898	8.1016	1.0909	5.e-002	2.8316e-008
10899	8.1016	0.81818	0.	-0.11114
10900	8.0095	0.90909	0.	-4.1815
10901	8.1016	0.90909	5.e-002	1.1848e-006
10902	8.1016	0.63636	0.	-1.0084e-002
10903	8.0095	0.72727	0.	-0.23016
10904	8.1016	0.72727	5.e-002	1.7026e-006
10905	8.1016	0.45455	0.	1.7239e-003
10906	8.0095	0.54545	0.	-8.7336e-003
10907	8.1016	0.54545	5.e-002	1.7593e-006
10908	8.1016	0.27273	0.	-3.1803e-003
10909	8.0095	0.36364	0.	-2.6087e-003
10910	8.1016	0.36364	5.e-002	1.6698e-006
10911	8.0095	0.18182	0.	-1.6437e-004
10912	8.1016	0.18182	5.e-002	1.2116e-006
10913	8.1016	9.0909e-002	0.	3.1882e-002
10914	7.9175	5.7273	0.	1.9387e-003
10915	7.8254	5.8182	0.	5.5173e-004
10916	7.9175	5.8182	5.e-002	1.0327e-006
10917	7.9175	5.9091	0.	3.1932e-002
10918	7.9175	5.5455	0.	-2.2802e-002
10919	7.8254	5.6364	0.	-5.7272e-002
10920	7.9175	5.6364	5.e-002	1.0572e-006
10921	7.9175	5.3636	0.	-1.6368
10922	7.8254	5.4545	0.	-2.9255
10923	7.9175	5.4545	5.e-002	1.5896e-006
10924	7.9175	5.1818	0.	-6.3821
10925	7.8254	5.2727	0.	-7.7066
10926	7.9175	5.2727	5.e-002	1.4824e-006
10927	7.9175	5.	0.	-12.763
10928	7.8254	5.0909	0.	-13.959
10929	7.9175	5.0909	5.e-002	-6.6821e-008
10930	7.9175	4.8182	0.	-20.562
10931	7.8254	4.9091	0.	-21.554
10932	7.9175	4.9091	5.e-002	1.5476e-006
10933	7.9175	4.6364	0.	-29.499
10934	7.8254	4.7273	0.	-30.271
10935	7.9175	4.7273	5.e-002	2.9608e-006
10936	7.9175	4.4545	0.	-39.217
10937	7.8254	4.5455	0.	-39.81
10938	7.9175	4.5455	5.e-002	2.6967e-006
10939	7.9175	4.2727	0.	-49.301
10940	7.8254	4.3636	0.	-49.803
10941	7.9175	4.3636	5.e-002	-1.2167e-006
10942	7.9175	4.0909	0.	-59.3
10943	7.8254	4.1818	0.	-59.843
10944	7.9175	4.1818	5.e-002	1.9562e-006
10945	7.9175	3.9091	0.	-68.752
10946	7.8254	4.	0.	-69.499
10947	7.9175	4.	5.e-002	5.7174e-007
10948	7.9175	3.7273	0.	-77.207
10949	7.8254	3.8182	0.	-78.342
10950	7.9175	3.8182	5.e-002	1.7076e-006
10951	7.9175	3.5455	0.	-84.258
10952	7.8254	3.6364	0.	-85.97
10953	7.9175	3.6364	5.e-002	1.3821e-007
10954	7.9175	3.3636	0.	-89.559
10955	7.8254	3.4545	0.	-92.029
10956	7.9175	3.4545	5.e-002	2.3089e-006
10957	7.9175	3.1818	0.	-92.85
10958	7.8254	3.2727	0.	-96.236
10959	7.9175	3.2727	5.e-002	2.7555e-006
10960	7.9175	3.	0.	-93.965
10961	7.8254	3.0909	0.	-98.391
10962	7.9175	3.0909	5.e-002	6.0256e-006
10963	7.9175	2.8182	0.	-92.85
10964	7.8254	2.9091	0.	-98.391
10965	7.9175	2.9091	5.e-002	8.2202e-006
10966	7.9175	2.6364	0.	-89.559
10967	7.8254	2.7273	0.	-96.236
10968	7.9175	2.7273	5.e-002	8.9944e-006
10969	7.9175	2.4545	0.	-84.258
10970	7.8254	2.5455	0.	-92.029
10971	7.9175	2.5455	5.e-002	8.8649e-006
10972	7.9175	2.2727	0.	-77.207
10973	7.8254	2.3636	0.	-85.97
10974	7.9175	2.3636	5.e-002	7.5307e-006
10975	7.9175	2.0909	0.	-68.752
10976	7.8254	2.1818	0.	-78.342
10977	7.9175	2.1818	5.e-002	5.5818e-006
10978	7.9175	1.9091	0.	-59.3
10979	7.8254	2.	0.	-69.499
10980	7.9175	2.	5.e-002	3.1069e-006
10981	7.9175	1.7273	0.	-49.301
10982	7.8254	1.8182	0.	-59.843
10983	7.9175	1.8182	5.e-002	1.2972e-006
10984	7.9175	1.5455	0.	-39.217
10985	7.8254	1.6364	0.	-49.803
10986	7.9175	1.6364	5.e-002	-4.1684e-007
10987	7.9175	1.3636	0.	-29.499
10988	7.8254	1.4545	0.	-39.81
10989	7.9175	1.4545	5.e-002	-9.6085e-007
10990	7.9175	1.1818	0.	-20.562
10991	7.8254	1.2727	0.	-30.271
10992	7.9175	1.2727	5.e-002	-2.6738e-007
10993	7.9175	1.	0.	-12.763
10994	7.8254	1.0909	0.	-21.554
10995	7.9175	1.0909	5.e-002	-9.2769e-007
10996	7.9175	0.81818	0.	-6.3821
10997	7.8254	0.90909	0.	-13.959
10998	7.9175	0.90909	5.e-002	-1.2132e-006
10999	7.9175	0.63636	0.	-1.6369
11000	7.8254	0.72727	0.	-7.7067
11001	7.9175	0.72727	5.e-002	5.3498e-007
11002	7.9175	0.45455	0.	-2.2801e-002
11003	7.8254	0.54545	0.	-2.9255
11004	7.9175	0.54545	5.e-002	4.2292e-007
11005	7.9175	0.27273	0.	1.94e-003
11006	7.8254	0.36364	0.	-5.7273e-002
11007	7.9175	0.36364	5.e-002	6.8564e-007
11008	7.8254	0.18182	0.	5.5312e-004
11009	7.9175	0.18182	5.e-002	1.0081e-006
11010	7.9175	9.0909e-002	0.	3.1933e-002
11011	7.7333	5.7273	0.	-0.30481
11012	7.6413	5.8182	0.	-9.3698e-002
11013	7.7333	5.8182	5.e-002	1.7586e-006
11014	7.7333	5.9091	0.	1.9015e-002
11015	7.7333	5.5455	0.	-4.0971
11016	7.6413	5.6364	0.	-4.1259
11017	7.7333	5.6364	5.e-002	1.5267e-006
11018	7.7333	5.3636	0.	-9.0617
11019	7.6413	5.4545	0.	-9.4087
11020	7.7333	5.4545	5.e-002	2.3989e-006
11021	7.7333	5.1818	0.	-15.304
11022	7.6413	5.2727	0.	-15.807
11023	7.7333	5.2727	5.e-002	1.8167e-006
11024	7.7333	5.	0.	-22.761
11025	7.6413	5.0909	0.	-23.315
11026	7.7333	5.0909	5.e-002	2.4756e-006
11027	7.7333	4.8182	0.	-31.271
11028	7.6413	4.9091	0.	-31.817
11029	7.7333	4.9091	5.e-002	2.5892e-006
11030	7.7333	4.6364	0.	-40.587
11031	7.6413	4.7273	0.	-41.114
11032	7.7333	4.7273	5.e-002	3.5816e-006
11033	7.7333	4.4545	0.	-50.4
11034	7.6413	4.5455	0.	-50.939
11035	7.7333	4.5455	5.e-002	2.142e-006
11036	7.7333	4.2727	0.	-60.348
11037	7.6413	4.3636	0.	-60.975
11038	7.7333	4.3636	5.e-002	6.7343e-007
11039	7.7333	4.0909	0.	-70.044
11040	7.6413	4.1818	0.	-70.865
11041	7.7333	4.1818	5.e-002	1.0122e-006
11042	7.7333	3.9091	0.	-79.091
11043	7.6413	4.	0.	-80.238
11044	7.7333	4.	5.e-002	4.287e-007
11045	7.7333	3.7273	0.	-87.107
11046	7.6413	3.8182	0.	-88.728
11047	7.7333	3.8182	5.e-002	1.6244e-006
11048	7.7333	3.5455	0.	-93.743
11049	7.6413	3.6364	0.	-95.992
11050	7.7333	3.6364	5.e-002	2.1412e-006
11051	7.7333	3.3636	0.	-98.709
11052	7.6413	3.4545	0.	-101.73
11053	7.7333	3.4545	5.e-002	3.4494e-006
11054	7.7333	3.1818	0.	-101.78
11055	7.6413	3.2727	0.	-105.69
11056	7.7333	3.2727	5.e-002	3.7082e-006
11057	7.7333	3.	0.	-102.82
11058	7.6413	3.0909	0.	-107.72
11059	7.7333	3.0909	5.e-002	7.0128e-006
11060	7.7333	2.8182	0.	-101.78
11061	7.6413	2.9091	0.	-107.72
11062	7.7333	2.9091	5.e-002	6.2642e-006
11063	7.7333	2.6364	0.	-98.709
11064	7.6413	2.7273	0.	-105.69
11065	7.7333	2.7273	5.e-002	7.946e-006
11066	7.7333	2.4545	0.	-93.743
11067	7.6413	2.5455	0.	-101.73
11068	7.7333	2.5455	5.e-002	6.9917e-006
11069	7.7333	2.2727	0.	-87.107
11070	7.6413	2.3636	0.	-95.992
11071	7.7333	2.3636	5.e-002	5.9642e-006
11072	7.7333	2.0909	0.	-79.091
11073	7.6413	2.1818	0.	-88.728
11074	7.7333	2.1818	5.e-002	6.6478e-006
11075	7.7333	1.9091	0.	-70.044
11076	7.6413	2.	0.	-80.238
11077	7.7333	2.	5.e-002	2.4077e-006
11078	7.7333	1.7273	0.	-60.348
11079	7.6413	1.8182	0.	-70.865
11080	7.7333	1.8182	5.e-002	1.4921e-006
11081	7.7333	1.5455	0.	-50.4
11082	7.6413	1.6364	0.	-60.975
11083	7.7333	1.6364	5.e-002	-6.3243e-008
11084	7.7333	1.3636	0.	-40.587
11085	7.6413	1.4545	0.	-50.939
11086	7.7333	1.4545	5.e-002	-8.2028e-008
11087	7.7333	1.1818	0.	-31.271
11088	7.6413	1.2727	0.	-41.114
11089	7.7333	1.2727	5.e-002	-9.2466e-007
11090	7.7333	1.	0.	-22.761
11091	7.6413	1.0909	0.	-31.817
11092	7.7333	1.0909	5.e-002	-8.1461e-007
11093	7.7333	0.81818	0.	-15.304
11094	7.6413	0.90909	0.	-23.315
11095	7.7333	0.90909	5.e-002	-6.4005e-007
11096	7.7333	0.63636	0.	-9.0617
11097	7.6413	0.72727	0.	-15.807
11098	7.7333	0.72727	5.e-002	-6.8507e-007
11099	7.7333	0.45455	0.	-4.0971
11100	7.6413	0.54545	0.	-9.4087
11101	7.7333	0.54545	5.e-002	-3.7457e-007
11102	7.7333	0.27273	0.	-0.30482
11103	7.6413	0.36364	0.	-4.126
11104	7.7333	0.36364	5.e-002	-1.216e-007
11105	7.6413	0.18182	0.	-9.3699e-002
11106	7.7333	0.18182	5.e-002	-5.0344e-007
11107	7.7333	9.0909e-002	0.	1.9016e-002
11108	7.5492	5.7273	0.	-3.5279
11109	7.4571	5.8182	0.	-1.7905
11110	7.5492	5.8182	5.e-002	3.955e-006
11111	7.5492	5.9091	0.	-0.12967
11112	7.5492	5.5455	0.	-9.4548
11113	7.4571	5.6364	0.	-8.4348
11114	7.5492	5.6364	5.e-002	2.6598e-006
11115	7.5492	5.3636	0.	-16.166
11116	7.4571	5.4545	0.	-15.589
11117	7.5492	5.4545	5.e-002	3.0372e-006
11118	7.5492	5.1818	0.	-23.827
11119	7.4571	5.2727	0.	-23.556
11120	7.5492	5.2727	5.e-002	2.9549e-006
11121	7.5492	5.	0.	-32.377
11122	7.4571	5.0909	0.	-32.328
11123	7.5492	5.0909	5.e-002	2.6646e-006
11124	7.5492	4.8182	0.	-41.664
11125	7.4571	4.9091	0.	-41.789
11126	7.5492	4.9091	5.e-002	2.4853e-006
11127	7.5492	4.6364	0.	-51.469
11128	7.4571	4.7273	0.	-51.759
11129	7.5492	4.7273	5.e-002	3.227e-006
11130	7.5492	4.4545	0.	-61.517
11131	7.4571	4.5455	0.	-61.999
11132	7.5492	4.5455	5.e-002	3.6083e-006
11133	7.5492	4.2727	0.	-71.493
11134	7.4571	4.3636	0.	-72.228
11135	7.5492	4.3636	5.e-002	3.7398e-006
11136	7.5492	4.0909	0.	-81.061
11137	7.4571	4.1818	0.	-82.134
11138	7.5492	4.1818	5.e-002	2.537e-006
11139	7.5492	3.9091	0.	-89.878
11140	7.4571	4.	0.	-91.397
11141	7.5492	4.	5.e-002	2.791e-006
11142	7.5492	3.7273	0.	-97.615
11143	7.4571	3.8182	0.	-99.698
11144	7.5492	3.8182	5.e-002	1.9357e-006
11145	7.5492	3.5455	0.	-103.98
11146	7.4571	3.6364	0.	-106.74
11147	7.5492	3.6364	5.e-002	3.1752e-006
11148	7.5492	3.3636	0.	-108.71
11149	7.4571	3.4545	0.	-112.27
11150	7.5492	3.4545	5.e-002	2.6391e-006
11151	7.5492	3.1818	0.	-111.63
11152	7.4571	3.2727	0.	-116.08
11153	7.5492	3.2727	5.e-002	4.761e-006
11154	7.5492	3.	0.	-112.62
11155	7.4571	3.0909	0.	-118.02
11156	7.5492	3.0909	5.e-002	4.179e-006
11157	7.5492	2.8182	0.	-111.63
11158	7.4571	2.9091	0.	-118.02
11159	7.5492	2.9091	5.e-002	6.2478e-006
11160	7.5492	2.6364	0.	-108.71
11161	7.4571	2.7273	0.	-116.08
11162	7.5492	2.7273	5.e-002	8.0058e-006
11163	7.5492	2.4545	0.	-103.98
11164	7.4571	2.5455	0.	-112.27
11165	7.5492	2.5455	5.e-002	7.6344e-006
11166	7.5492	2.2727	0.	-97.615
11167	7.4571	2.3636	0.	-106.74
11168	7.5492	2.3636	5.e-002	7.5041e-006
11169	7.5492	2.0909	0.	-89.878
11170	7.4571	2.1818	0.	-99.698
11171	7.5492	2.1818	5.e-002	4.6183e-006
11172	7.5492	1.9091	0.	-81.061
11173	7.4571	2.	0.	-91.397
11174	7.5492	2.	5.e-002	3.4858e-006
11175	7.5492	1.7273	0.	-71.493
11176	7.4571	1.8182	0.	-82.134
11177	7.5492	1.8182	5.e-002	1.5492e-006
11178	7.5492	1.5455	0.	-61.517
11179	7.4571	1.6364	0.	-72.228
11180	7.5492	1.6364	5.e-002	-3.8175e-007
11181	7.5492	1.3636	0.	-51.469
11182	7.4571	1.4545	0.	-61.999
11183	7.5492	1.4545	5.e-002	-1.6061e-006
11184	7.5492	1.1818	0.	-41.665
11185	7.4571	1.2727	0.	-51.759
11186	7.5492	1.2727	5.e-002	-1.6487e-006
11187	7.5492	1.	0.	-32.377
11188	7.4571	1.0909	0.	-41.789
11189	7.5492	1.0909	5.e-002	-3.504e-006
11190	7.5492	0.81818	0.	-23.827
11191	7.4571	0.90909	0.	-32.328
11192	7.5492	0.90909	5.e-002	-1.9679e-006
11193	7.5492	0.63636	0.	-16.166
11194	7.4571	0.72727	0.	-23.556
11195	7.5492	0.72727	5.e-002	-1.3973e-006
11196	7.5492	0.45455	0.	-9.4549
11197	7.4571	0.54545	0.	-15.589
11198	7.5492	0.54545	5.e-002	-1.2625e-006
11199	7.5492	0.27273	0.	-3.528
11200	7.4571	0.36364	0.	-8.4348
11201	7.5492	0.36364	5.e-002	-8.7033e-007
11202	7.4571	0.18182	0.	-1.7905
11203	7.5492	0.18182	5.e-002	-2.5597e-006
11204	7.5492	9.0909e-002	0.	-0.12968
11205	7.3651	5.7273	0.	-6.6978
11206	7.273	5.8182	0.	-3.8892
11207	7.3651	5.8182	5.e-002	3.6188e-006
11208	7.3651	5.9091	0.	-1.0698
11209	7.3651	5.5455	0.	-14.582
11210	7.273	5.6364	0.	-12.579
11211	7.3651	5.6364	5.e-002	3.4378e-006
11212	7.3651	5.3636	0.	-22.989
11213	7.273	5.4545	0.	-21.544
11214	7.3651	5.4545	5.e-002	2.8581e-006
11215	7.3651	5.1818	0.	-32.064
11216	7.273	5.2727	0.	-31.064
11217	7.3651	5.2727	5.e-002	5.2663e-006
11218	7.3651	5.	0.	-41.745
11219	7.273	5.0909	0.	-41.124
11220	7.3651	5.0909	5.e-002	5.4696e-006
11221	7.3651	4.8182	0.	-51.887
11222	7.273	4.9091	0.	-51.61
11223	7.3651	4.9091	5.e-002	4.0617e-006
11224	7.3651	4.6364	0.	-62.292
11225	7.273	4.7273	0.	-62.351
11226	7.3651	4.7273	5.e-002	1.5827e-006
11227	7.3651	4.4545	0.	-72.712
11228	7.273	4.5455	0.	-73.131
11229	7.3651	4.5455	5.e-002	5.4612e-006
11230	7.3651	4.2727	0.	-82.871
11231	7.273	4.3636	0.	-83.697
11232	7.3651	4.3636	5.e-002	4.3567e-006
11233	7.3651	4.0909	0.	-92.472
11234	7.273	4.1818	0.	-93.776
11235	7.3651	4.1818	5.e-002	4.7614e-006
11236	7.3651	3.9091	0.	-101.22
11237	7.273	4.	0.	-103.08
11238	7.3651	4.	5.e-002	4.5506e-006
11239	7.3651	3.7273	0.	-108.83
11240	7.273	3.8182	0.	-111.34
11241	7.3651	3.8182	5.e-002	2.8883e-006
11242	7.3651	3.5455	0.	-115.04
11243	7.273	3.6364	0.	-118.3
11244	7.3651	3.6364	5.e-002	4.1982e-006
11245	7.3651	3.3636	0.	-119.64
11246	7.273	3.4545	0.	-123.73
11247	7.3651	3.4545	5.e-002	2.6663e-006
11248	7.3651	3.1818	0.	-122.47
11249	7.273	3.2727	0.	-127.46
11250	7.3651	3.2727	5.e-002	4.915e-006
11251	7.3651	3.	0.	-123.42
11252	7.273	3.0909	0.	-129.35
11253	7.3651	3.0909	5.e-002	4.1823e-006
11254	7.3651	2.8182	0.	-122.47
11255	7.273	2.9091	0.	-129.35
11256	7.3651	2.9091	5.e-002	7.1822e-006
11257	7.3651	2.6364	0.	-119.64
11258	7.273	2.7273	0.	-127.46
11259	7.3651	2.7273	5.e-002	5.2138e-006
11260	7.3651	2.4545	0.	-115.04
11261	7.273	2.5455	0.	-123.73
11262	7.3651	2.5455	5.e-002	7.2453e-006
11263	7.3651	2.2727	0.	-108.83
11264	7.273	2.3636	0.	-118.3
11265	7.3651	2.3636	5.e-002	5.4896e-006
11266	7.3651	2.0909	0.	-101.22
11267	7.273	2.1818	0.	-111.34
11268	7.3651	2.1818	5.e-002	1.0171e-006
11269	7.3651	1.9091	0.	-92.472
11270	7.273	2.	0.	-103.08
11271	7.3651	2.	5.e-002	7.7287e-007
11272	7.3651	1.7273	0.	-82.871
11273	7.273	1.8182	0.	-93.776
11274	7.3651	1.8182	5.e-002	6.8944e-007
11275	7.3651	1.5455	0.	-72.712
11276	7.273	1.6364	0.	-83.697
11277	7.3651	1.6364	5.e-002	-2.6878e-006
11278	7.3651	1.3636	0.	-62.292
11279	7.273	1.4545	0.	-73.131
11280	7.3651	1.4545	5.e-002	-3.7417e-006
11281	7.3651	1.1818	0.	-51.887
11282	7.273	1.2727	0.	-62.351
11283	7.3651	1.2727	5.e-002	-3.544e-007
11284	7.3651	1.	0.	-41.745
11285	7.273	1.0909	0.	-51.61
11286	7.3651	1.0909	5.e-002	-2.5865e-006
11287	7.3651	0.81818	0.	-32.064
11288	7.273	0.90909	0.	-41.124
11289	7.3651	0.90909	5.e-002	-4.0229e-006
11290	7.3651	0.63636	0.	-22.989
11291	7.273	0.72727	0.	-31.064
11292	7.3651	0.72727	5.e-002	-4.6396e-006
11293	7.3651	0.45455	0.	-14.582
11294	7.273	0.54545	0.	-21.544
11295	7.3651	0.54545	5.e-002	-3.7343e-006
11296	7.3651	0.27273	0.	-6.6978
11297	7.273	0.36364	0.	-12.58
11298	7.3651	0.36364	5.e-002	-2.1685e-006
11299	7.273	0.18182	0.	-3.8892
11300	7.3651	0.18182	5.e-002	-5.5387e-006
11301	7.3651	9.0909e-002	0.	-1.0698
11302	7.181	5.7273	0.	-9.7806
11303	7.0889	5.8182	0.	-5.9684
11304	7.181	5.8182	5.e-002	4.7125e-006
11305	7.181	5.9091	0.	-2.2003
11306	7.181	5.5455	0.	-19.552
11307	7.0889	5.6364	0.	-16.618
11308	7.181	5.6364	5.e-002	3.3559e-006
11309	7.181	5.3636	0.	-29.628
11310	7.0889	5.4545	0.	-27.36
11311	7.181	5.4545	5.e-002	4.905e-006
11312	7.181	5.1818	0.	-40.131
11313	7.0889	5.2727	0.	-38.438
11314	7.181	5.2727	5.e-002	3.7836e-006
11315	7.181	5.	0.	-50.993
11316	7.0889	5.0909	0.	-49.827
11317	7.181	5.0909	5.e-002	3.1397e-006
11318	7.181	4.8182	0.	-62.076
11319	7.0889	4.9091	0.	-61.408
11320	7.181	4.9091	5.e-002	5.3364e-006
11321	7.181	4.6364	0.	-73.191
11322	7.0889	4.7273	0.	-73.021
11323	7.181	4.7273	5.e-002	3.8194e-006
11324	7.181	4.4545	0.	-84.117
11325	7.0889	4.5455	0.	-84.464
11326	7.181	4.5455	5.e-002	4.3568e-006
11327	7.181	4.2727	0.	-94.603
11328	7.0889	4.3636	0.	-95.507
11329	7.181	4.3636	5.e-002	1.6926e-006
11330	7.181	4.0909	0.	-104.39
11331	7.0889	4.1818	0.	-105.9
11332	7.181	4.1818	5.e-002	2.5832e-006
11333	7.181	3.9091	0.	-113.21
11334	7.0889	4.	0.	-115.4
11335	7.181	4.	5.e-002	3.5208e-006
11336	7.181	3.7273	0.	-120.82
11337	7.0889	3.8182	0.	-123.76
11338	7.181	3.8182	5.e-002	2.8529e-006
11339	7.181	3.5455	0.	-127.
11340	7.0889	3.6364	0.	-130.75
11341	7.181	3.6364	5.e-002	4.2844e-006
11342	7.181	3.3636	0.	-131.55
11343	7.0889	3.4545	0.	-136.18
11344	7.181	3.4545	5.e-002	4.633e-006
11345	7.181	3.1818	0.	-134.34
11346	7.0889	3.2727	0.	-139.89
11347	7.181	3.2727	5.e-002	1.1223e-006
11348	7.181	3.	0.	-135.28
11349	7.0889	3.0909	0.	-141.77
11350	7.181	3.0909	5.e-002	6.1145e-006
11351	7.181	2.8182	0.	-134.34
11352	7.0889	2.9091	0.	-141.77
11353	7.181	2.9091	5.e-002	7.2161e-006
11354	7.181	2.6364	0.	-131.55
11355	7.0889	2.7273	0.	-139.89
11356	7.181	2.7273	5.e-002	6.2054e-006
11357	7.181	2.4545	0.	-127.
11358	7.0889	2.5455	0.	-136.18
11359	7.181	2.5455	5.e-002	4.7215e-006
11360	7.181	2.2727	0.	-120.82
11361	7.0889	2.3636	0.	-130.75
11362	7.181	2.3636	5.e-002	3.8148e-006
11363	7.181	2.0909	0.	-113.21
11364	7.0889	2.1818	0.	-123.76
11365	7.181	2.1818	5.e-002	1.7424e-006
11366	7.181	1.9091	0.	-104.39
11367	7.0889	2.	0.	-115.4
11368	7.181	2.	5.e-002	-8.5715e-007
11369	7.181	1.7273	0.	-94.603
11370	7.0889	1.8182	0.	-105.9
11371	7.181	1.8182	5.e-002	2.3208e-006
11372	7.181	1.5455	0.	-84.117
11373	7.0889	1.6364	0.	-95.507
11374	7.181	1.6364	5.e-002	3.8237e-007
11375	7.181	1.3636	0.	-73.191
11376	7.0889	1.4545	0.	-84.464
11377	7.181	1.4545	5.e-002	-1.6205e-006
11378	7.181	1.1818	0.	-62.076
11379	7.0889	1.2727	0.	-73.021
11380	7.181	1.2727	5.e-002	-3.8982e-006
11381	7.181	1.	0.	-50.993
11382	7.0889	1.0909	0.	-61.408
11383	7.181	1.0909	5.e-002	-4.8364e-006
11384	7.181	0.81818	0.	-40.131
11385	7.0889	0.90909	0.	-49.827
11386	7.181	0.90909	5.e-002	-3.6738e-006
11387	7.181	0.63636	0.	-29.628
11388	7.0889	0.72727	0.	-38.438
11389	7.181	0.72727	5.e-002	-5.3081e-006
11390	7.181	0.45455	0.	-19.553
11391	7.0889	0.54545	0.	-27.36
11392	7.181	0.54545	5.e-002	-3.1561e-006
11393	7.181	0.27273	0.	-9.7806
11394	7.0889	0.36364	0.	-16.618
11395	7.181	0.36364	5.e-002	-2.2148e-006
11396	7.0889	0.18182	0.	-5.9684
11397	7.181	0.18182	5.e-002	-9.1269e-006
11398	7.181	9.0909e-002	0.	-2.2003
11399	6.9968	5.7273	0.	-12.814
11400	6.9048	5.8182	0.	-8.0378
11401	6.9968	5.8182	5.e-002	9.1667e-006
11402	6.9968	5.9091	0.	-3.3396
11403	6.9968	5.5455	0.	-24.435
11404	6.9048	5.6364	0.	-20.603
11405	6.9968	5.6364	5.e-002	4.6378e-006
11406	6.9968	5.3636	0.	-36.177
11407	6.9048	5.4545	0.	-33.116
11408	6.9968	5.4545	5.e-002	5.2076e-006
11409	6.9968	5.1818	0.	-48.138
11410	6.9048	5.2727	0.	-45.775
11411	6.9968	5.2727	5.e-002	5.8272e-006
11412	6.9968	5.	0.	-60.244
11413	6.9048	5.0909	0.	-58.546
11414	6.9968	5.0909	5.e-002	6.2606e-006
11415	6.9968	4.8182	0.	-72.355
11416	6.9048	4.9091	0.	-71.305
11417	6.9968	4.9091	5.e-002	8.5716e-006
11418	6.9968	4.6364	0.	-84.294
11419	6.9048	4.7273	0.	-83.893
11420	6.9968	4.7273	5.e-002	7.9534e-006
11421	6.9968	4.4545	0.	-95.854
11422	6.9048	4.5455	0.	-96.12
11423	6.9968	4.5455	5.e-002	5.3561e-006
11424	6.9968	4.2727	0.	-106.81
11425	6.9048	4.3636	0.	-107.77
11426	6.9968	4.3636	5.e-002	3.4547e-006
11427	6.9968	4.0909	0.	-116.92
11428	6.9048	4.1818	0.	-118.63
11429	6.9968	4.1818	5.e-002	3.5243e-006
11430	6.9968	3.9091	0.	-125.96
11431	6.9048	4.	0.	-128.46
11432	6.9968	4.	5.e-002	4.4564e-006
11433	6.9968	3.7273	0.	-133.69
11434	6.9048	3.8182	0.	-137.04
11435	6.9968	3.8182	5.e-002	2.9156e-006
11436	6.9968	3.5455	0.	-139.94
11437	6.9048	3.6364	0.	-144.18
11438	6.9968	3.6364	5.e-002	4.2938e-006
11439	6.9968	3.3636	0.	-144.52
11440	6.9048	3.4545	0.	-149.69
11441	6.9968	3.4545	5.e-002	3.7152e-006
11442	6.9968	3.1818	0.	-147.32
11443	6.9048	3.2727	0.	-153.45
11444	6.9968	3.2727	5.e-002	8.5226e-006
11445	6.9968	3.	0.	-148.27
11446	6.9048	3.0909	0.	-155.35
11447	6.9968	3.0909	5.e-002	4.214e-006
11448	6.9968	2.8182	0.	-147.32
11449	6.9048	2.9091	0.	-155.35
11450	6.9968	2.9091	5.e-002	3.3999e-006
11451	6.9968	2.6364	0.	-144.52
11452	6.9048	2.7273	0.	-153.45
11453	6.9968	2.7273	5.e-002	2.2928e-006
11454	6.9968	2.4545	0.	-139.94
11455	6.9048	2.5455	0.	-149.69
11456	6.9968	2.5455	5.e-002	3.2399e-006
11457	6.9968	2.2727	0.	-133.69
11458	6.9048	2.3636	0.	-144.18
11459	6.9968	2.3636	5.e-002	4.5975e-006
11460	6.9968	2.0909	0.	-125.96
11461	6.9048	2.1818	0.	-137.04
11462	6.9968	2.1818	5.e-002	1.0414e-006
11463	6.9968	1.9091	0.	-116.92
11464	6.9048	2.	0.	-128.46
11465	6.9968	2.	5.e-002	6.9038e-007
11466	6.9968	1.7273	0.	-106.81
11467	6.9048	1.8182	0.	-118.63
11468	6.9968	1.8182	5.e-002	2.5608e-006
11469	6.9968	1.5455	0.	-95.854
11470	6.9048	1.6364	0.	-107.77
11471	6.9968	1.6364	5.e-002	5.0257e-007
11472	6.9968	1.3636	0.	-84.294
11473	6.9048	1.4545	0.	-96.12
11474	6.9968	1.4545	5.e-002	-3.3986e-006
11475	6.9968	1.1818	0.	-72.355
11476	6.9048	1.2727	0.	-83.893
11477	6.9968	1.2727	5.e-002	-7.8916e-006
11478	6.9968	1.	0.	-60.244
11479	6.9048	1.0909	0.	-71.305
11480	6.9968	1.0909	5.e-002	-6.8216e-006
11481	6.9968	0.81818	0.	-48.138
11482	6.9048	0.90909	0.	-58.546
11483	6.9968	0.90909	5.e-002	-8.1599e-006
11484	6.9968	0.63636	0.	-36.177
11485	6.9048	0.72727	0.	-45.775
11486	6.9968	0.72727	5.e-002	-5.958e-006
11487	6.9968	0.45455	0.	-24.435
11488	6.9048	0.54545	0.	-33.116
11489	6.9968	0.54545	5.e-002	-5.6299e-006
11490	6.9968	0.27273	0.	-12.814
11491	6.9048	0.36364	0.	-20.603
11492	6.9968	0.36364	5.e-002	-5.4199e-006
11493	6.9048	0.18182	0.	-8.0378
11494	6.9968	0.18182	5.e-002	-1.5523e-005
11495	6.9968	9.0909e-002	0.	-3.3396
11496	6.8127	5.7273	0.	-15.831
11497	6.7206	5.8182	0.	-10.113
11498	6.8127	5.8182	5.e-002	1.6575e-005
11499	6.8127	5.9091	0.	-4.4848
11500	6.8127	5.5455	0.	-29.291
11501	6.7206	5.6364	0.	-24.582
11502	6.8127	5.6364	5.e-002	5.5896e-006
11503	6.8127	5.3636	0.	-42.719
11504	6.7206	5.4545	0.	-38.882
11505	6.8127	5.4545	5.e-002	6.2231e-006
11506	6.8127	5.1818	0.	-56.186
11507	6.7206	5.2727	0.	-53.165
11508	6.8127	5.2727	5.e-002	4.2383e-006
11509	6.8127	5.	0.	-69.608
11510	6.7206	5.0909	0.	-67.385
11511	6.8127	5.0909	5.e-002	7.0398e-006
11512	6.8127	4.8182	0.	-82.843
11513	6.7206	4.9091	0.	-81.41
11514	6.8127	4.9091	5.e-002	9.2331e-006
11515	6.8127	4.6364	0.	-95.719
11516	6.7206	4.7273	0.	-95.082
11517	6.8127	4.7273	5.e-002	3.3808e-006
11518	6.8127	4.4545	0.	-108.04
11519	6.7206	4.5455	0.	-108.22
11520	6.8127	4.5455	5.e-002	5.539e-006
11521	6.8127	4.2727	0.	-119.59
11522	6.7206	4.3636	0.	-120.61
11523	6.8127	4.3636	5.e-002	7.0659e-006
11524	6.8127	4.0909	0.	-130.17
11525	6.7206	4.1818	0.	-132.06
11526	6.8127	4.1818	5.e-002	5.0985e-006
11527	6.8127	3.9091	0.	-139.54
11528	6.7206	4.	0.	-142.34
11529	6.8127	4.	5.e-002	3.3951e-006
11530	6.8127	3.7273	0.	-147.53
11531	6.7206	3.8182	0.	-151.27
11532	6.8127	3.8182	5.e-002	5.7048e-006
11533	6.8127	3.5455	0.	-153.93
11534	6.7206	3.6364	0.	-158.66
11535	6.8127	3.6364	5.e-002	4.3866e-006
11536	6.8127	3.3636	0.	-158.62
11537	6.7206	3.4545	0.	-164.35
11538	6.8127	3.4545	5.e-002	5.6798e-006
11539	6.8127	3.1818	0.	-161.48
11540	6.7206	3.2727	0.	-168.21
11541	6.8127	3.2727	5.e-002	3.0875e-006
11542	6.8127	3.	0.	-162.44
11543	6.7206	3.0909	0.	-170.16
11544	6.8127	3.0909	5.e-002	2.3027e-006
11545	6.8127	2.8182	0.	-161.48
11546	6.7206	2.9091	0.	-170.16
11547	6.8127	2.9091	5.e-002	5.2873e-006
11548	6.8127	2.6364	0.	-158.62
11549	6.7206	2.7273	0.	-168.21
11550	6.8127	2.7273	5.e-002	2.5243e-006
11551	6.8127	2.4545	0.	-153.93
11552	6.7206	2.5455	0.	-164.35
11553	6.8127	2.5455	5.e-002	2.9351e-006
11554	6.8127	2.2727	0.	-147.53
11555	6.7206	2.3636	0.	-158.66
11556	6.8127	2.3636	5.e-002	2.1347e-006
11557	6.8127	2.0909	0.	-139.54
11558	6.7206	2.1818	0.	-151.27
11559	6.8127	2.1818	5.e-002	2.976e-006
11560	6.8127	1.9091	0.	-130.17
11561	6.7206	2.	0.	-142.34
11562	6.8127	2.	5.e-002	1.2173e-006
11563	6.8127	1.7273	0.	-119.59
11564	6.7206	1.8182	0.	-132.06
11565	6.8127	1.8182	5.e-002	-1.1926e-006
11566	6.8127	1.5455	0.	-108.04
11567	6.7206	1.6364	0.	-120.61
11568	6.8127	1.6364	5.e-002	-5.6499e-006
11569	6.8127	1.3636	0.	-95.719
11570	6.7206	1.4545	0.	-108.22
11571	6.8127	1.4545	5.e-002	-6.1814e-006
11572	6.8127	1.1818	0.	-82.843
11573	6.7206	1.2727	0.	-95.082
11574	6.8127	1.2727	5.e-002	-5.3443e-006
11575	6.8127	1.	0.	-69.608
11576	6.7206	1.0909	0.	-81.41
11577	6.8127	1.0909	5.e-002	-8.1852e-006
11578	6.8127	0.81818	0.	-56.186
11579	6.7206	0.90909	0.	-67.385
11580	6.8127	0.90909	5.e-002	-8.8026e-006
11581	6.8127	0.63636	0.	-42.719
11582	6.7206	0.72727	0.	-53.165
11583	6.8127	0.72727	5.e-002	-8.8978e-006
11584	6.8127	0.45455	0.	-29.291
11585	6.7206	0.54545	0.	-38.882
11586	6.8127	0.54545	5.e-002	-6.3079e-006
11587	6.8127	0.27273	0.	-15.831
11588	6.7206	0.36364	0.	-24.582
11589	6.8127	0.36364	5.e-002	-6.2549e-006
11590	6.7206	0.18182	0.	-10.113
11591	6.8127	0.18182	5.e-002	-2.0907e-005
11592	6.8127	9.0909e-002	0.	-4.4848
11593	6.6286	5.7273	0.	-18.863
11594	6.5365	5.8182	0.	-12.206
11595	6.6286	5.8182	5.e-002	1.3023e-005
11596	6.6286	5.9091	0.	-5.6406
11597	6.6286	5.5455	0.	-34.178
11598	6.5365	5.6364	0.	-28.597
11599	6.6286	5.6364	5.e-002	9.6373e-006
11600	6.6286	5.3636	0.	-49.331
11601	6.5365	5.4545	0.	-44.723
11602	6.6286	5.4545	5.e-002	5.6624e-006
11603	6.6286	5.1818	0.	-64.366
11604	6.5365	5.2727	0.	-60.689
11605	6.6286	5.2727	5.e-002	7.7344e-006
11606	6.6286	5.	0.	-79.187
11607	6.5365	5.0909	0.	-76.438
11608	6.6286	5.0909	5.e-002	8.676e-006
11609	6.6286	4.8182	0.	-93.648
11610	6.5365	4.9091	0.	-91.827
11611	6.6286	4.9091	5.e-002	1.0426e-005
11612	6.6286	4.6364	0.	-107.58
11613	6.5365	4.7273	0.	-106.7
11614	6.6286	4.7273	5.e-002	5.9121e-006
11615	6.6286	4.4545	0.	-120.78
11616	6.5365	4.5455	0.	-120.86
11617	6.6286	4.5455	5.e-002	5.9489e-006
11618	6.6286	4.2727	0.	-133.07
11619	6.5365	4.3636	0.	-134.13
11620	6.6286	4.3636	5.e-002	5.7109e-006
11621	6.6286	4.0909	0.	-144.23
11622	6.5365	4.1818	0.	-146.29
11623	6.6286	4.1818	5.e-002	5.7083e-006
11624	6.6286	3.9091	0.	-154.07
11625	6.5365	4.	0.	-157.17
11626	6.6286	4.	5.e-002	3.5415e-006
11627	6.6286	3.7273	0.	-162.41
11628	6.5365	3.8182	0.	-166.55
11629	6.6286	3.8182	5.e-002	3.9899e-006
11630	6.6286	3.5455	0.	-169.07
11631	6.5365	3.6364	0.	-174.29
11632	6.6286	3.6364	5.e-002	2.5964e-006
11633	6.6286	3.3636	0.	-173.93
11634	6.5365	3.4545	0.	-180.22
11635	6.6286	3.4545	5.e-002	7.3561e-006
11636	6.6286	3.1818	0.	-176.89
11637	6.5365	3.2727	0.	-184.25
11638	6.6286	3.2727	5.e-002	1.116e-006
11639	6.6286	3.	0.	-177.88
11640	6.5365	3.0909	0.	-186.28
11641	6.6286	3.0909	5.e-002	4.2234e-006
11642	6.6286	2.8182	0.	-176.89
11643	6.5365	2.9091	0.	-186.28
11644	6.6286	2.9091	5.e-002	5.2637e-006
11645	6.6286	2.6364	0.	-173.93
11646	6.5365	2.7273	0.	-184.25
11647	6.6286	2.7273	5.e-002	6.0827e-006
11648	6.6286	2.4545	0.	-169.07
11649	6.5365	2.5455	0.	-180.22
11650	6.6286	2.5455	5.e-002	-1.1655e-006
11651	6.6286	2.2727	0.	-162.41
11652	6.5365	2.3636	0.	-174.29
11653	6.6286	2.3636	5.e-002	4.5419e-006
11654	6.6286	2.0909	0.	-154.07
11655	6.5365	2.1818	0.	-166.55
11656	6.6286	2.1818	5.e-002	1.2075e-006
11657	6.6286	1.9091	0.	-144.23
11658	6.5365	2.	0.	-157.17
11659	6.6286	2.	5.e-002	-6.6463e-007
11660	6.6286	1.7273	0.	-133.07
11661	6.5365	1.8182	0.	-146.29
11662	6.6286	1.8182	5.e-002	7.4726e-007
11663	6.6286	1.5455	0.	-120.78
11664	6.5365	1.6364	0.	-134.13
11665	6.6286	1.6364	5.e-002	-3.1514e-006
11666	6.6286	1.3636	0.	-107.58
11667	6.5365	1.4545	0.	-120.86
11668	6.6286	1.4545	5.e-002	-4.6536e-006
11669	6.6286	1.1818	0.	-93.648
11670	6.5365	1.2727	0.	-106.7
11671	6.6286	1.2727	5.e-002	-3.7414e-006
11672	6.6286	1.	0.	-79.187
11673	6.5365	1.0909	0.	-91.828
11674	6.6286	1.0909	5.e-002	-8.1238e-006
11675	6.6286	0.81818	0.	-64.366
11676	6.5365	0.90909	0.	-76.438
11677	6.6286	0.90909	5.e-002	-8.1405e-006
11678	6.6286	0.63636	0.	-49.331
11679	6.5365	0.72727	0.	-60.69
11680	6.6286	0.72727	5.e-002	-1.1603e-005
11681	6.6286	0.45455	0.	-34.178
11682	6.5365	0.54545	0.	-44.723
11683	6.6286	0.54545	5.e-002	-1.131e-005
11684	6.6286	0.27273	0.	-18.863
11685	6.5365	0.36364	0.	-28.597
11686	6.6286	0.36364	5.e-002	-8.83e-006
11687	6.5365	0.18182	0.	-12.207
11688	6.6286	0.18182	5.e-002	-1.3488e-005
11689	6.6286	9.0909e-002	0.	-5.6406
11690	6.4444	5.7273	0.	-21.934
11691	6.3524	5.8182	0.	-14.33
11692	6.4444	5.8182	5.e-002	2.131e-005
11693	6.4444	5.9091	0.	-6.8117
11694	6.4444	5.5455	0.	-39.144
11695	6.3524	5.6364	0.	-32.684
11696	6.4444	5.6364	5.e-002	1.535e-005
11697	6.4444	5.3636	0.	-56.082
11698	6.3524	5.4545	0.	-50.695
11699	6.4444	5.4545	5.e-002	1.1624e-005
11700	6.4444	5.1818	0.	-72.761
11701	6.3524	5.2727	0.	-68.422
11702	6.4444	5.2727	5.e-002	3.0403e-006
11703	6.4444	5.	0.	-89.076
11704	6.3524	5.0909	0.	-85.793
11705	6.4444	5.0909	5.e-002	6.0869e-006
11706	6.4444	4.8182	0.	-104.87
11707	6.3524	4.9091	0.	-102.65
11708	6.4444	4.9091	5.e-002	3.6923e-006
11709	6.4444	4.6364	0.	-119.98
11710	6.3524	4.7273	0.	-118.84
11711	6.4444	4.7273	5.e-002	1.1279e-005
11712	6.4444	4.4545	0.	-134.2
11713	6.3524	4.5455	0.	-134.16
11714	6.4444	4.5455	5.e-002	6.3744e-006
11715	6.4444	4.2727	0.	-147.35
11716	6.3524	4.3636	0.	-148.43
11717	6.4444	4.3636	5.e-002	6.0447e-006
11718	6.4444	4.0909	0.	-159.22
11719	6.3524	4.1818	0.	-161.44
11720	6.4444	4.1818	5.e-002	5.5941e-006
11721	6.4444	3.9091	0.	-169.64
11722	6.3524	4.	0.	-173.02
11723	6.4444	4.	5.e-002	3.7153e-006
11724	6.4444	3.7273	0.	-178.43
11725	6.3524	3.8182	0.	-182.98
11726	6.4444	3.8182	5.e-002	5.1616e-006
11727	6.4444	3.5455	0.	-185.44
11728	6.3524	3.6364	0.	-191.16
11729	6.4444	3.6364	5.e-002	8.3844e-006
11730	6.4444	3.3636	0.	-190.54
11731	6.3524	3.4545	0.	-197.42
11732	6.4444	3.4545	5.e-002	3.9381e-006
11733	6.4444	3.1818	0.	-193.64
11734	6.3524	3.2727	0.	-201.65
11735	6.4444	3.2727	5.e-002	3.18e-006
11736	6.4444	3.	0.	-194.67
11737	6.3524	3.0909	0.	-203.79
11738	6.4444	3.0909	5.e-002	4.2516e-006
11739	6.4444	2.8182	0.	-193.64
11740	6.3524	2.9091	0.	-203.79
11741	6.4444	2.9091	5.e-002	5.2743e-006
11742	6.4444	2.6364	0.	-190.54
11743	6.3524	2.7273	0.	-201.65
11744	6.4444	2.7273	5.e-002	2.4569e-006
11745	6.4444	2.4545	0.	-185.44
11746	6.3524	2.5455	0.	-197.42
11747	6.4444	2.5455	5.e-002	1.256e-006
11748	6.4444	2.2727	0.	-178.43
11749	6.3524	2.3636	0.	-191.16
11750	6.4444	2.3636	5.e-002	-1.1878e-006
11751	6.4444	2.0909	0.	-169.64
11752	6.3524	2.1818	0.	-182.98
11753	6.4444	2.1818	5.e-002	-7.1497e-008
11754	6.4444	1.9091	0.	-159.22
11755	6.3524	2.	0.	-173.02
11756	6.4444	2.	5.e-002	-1.95e-006
11757	6.4444	1.7273	0.	-147.35
11758	6.3524	1.8182	0.	-161.44
11759	6.4444	1.8182	5.e-002	9.1353e-007
11760	6.4444	1.5455	0.	-134.2
11761	6.3524	1.6364	0.	-148.43
11762	6.4444	1.6364	5.e-002	-3.4674e-006
11763	6.4444	1.3636	0.	-119.98
11764	6.3524	1.4545	0.	-134.16
11765	6.4444	1.4545	5.e-002	-5.6908e-006
11766	6.4444	1.1818	0.	-104.87
11767	6.3524	1.2727	0.	-118.84
11768	6.4444	1.2727	5.e-002	-8.9281e-006
11769	6.4444	1.	0.	-89.076
11770	6.3524	1.0909	0.	-102.65
11771	6.4444	1.0909	5.e-002	-4.9652e-006
11772	6.4444	0.81818	0.	-72.761
11773	6.3524	0.90909	0.	-85.793
11774	6.4444	0.90909	5.e-002	-5.3637e-006
11775	6.4444	0.63636	0.	-56.082
11776	6.3524	0.72727	0.	-68.422
11777	6.4444	0.72727	5.e-002	-1.0716e-005
11778	6.4444	0.45455	0.	-39.144
11779	6.3524	0.54545	0.	-50.695
11780	6.4444	0.54545	5.e-002	-1.1243e-005
11781	6.4444	0.27273	0.	-21.934
11782	6.3524	0.36364	0.	-32.684
11783	6.4444	0.36364	5.e-002	-1.3974e-005
11784	6.3524	0.18182	0.	-14.33
11785	6.4444	0.18182	5.e-002	-2.216e-005
11786	6.4444	9.0909e-002	0.	-6.8117
11787	6.2603	5.7273	0.	-25.067
11788	6.1683	5.8182	0.	-16.491
11789	6.2603	5.8182	5.e-002	3.2004e-005
11790	6.2603	5.9091	0.	-8.0018
11791	6.2603	5.5455	0.	-44.235
11792	6.1683	5.6364	0.	-36.876
11793	6.2603	5.6364	5.e-002	4.8889e-006
11794	6.2603	5.3636	0.	-63.034
11795	6.1683	5.4545	0.	-56.852
11796	6.2603	5.4545	5.e-002	1.0922e-005
11797	6.2603	5.1818	0.	-81.451
11798	6.1683	5.2727	0.	-76.432
11799	6.2603	5.2727	5.e-002	9.8177e-006
11800	6.2603	5.	0.	-99.366
11801	6.1683	5.0909	0.	-95.531
11802	6.2603	5.0909	5.e-002	1.4324e-005
11803	6.2603	4.8182	0.	-116.61
11804	6.1683	4.9091	0.	-113.98
11805	6.2603	4.9091	5.e-002	7.084e-006
11806	6.2603	4.6364	0.	-133.02
11807	6.1683	4.7273	0.	-131.61
11808	6.2603	4.7273	5.e-002	1.2619e-005
11809	6.2603	4.4545	0.	-148.38
11810	6.1683	4.5455	0.	-148.22
11811	6.2603	4.5455	5.e-002	9.3608e-006
11812	6.2603	4.2727	0.	-162.52
11813	6.1683	4.3636	0.	-163.62
11814	6.2603	4.3636	5.e-002	6.5479e-006
11815	6.2603	4.0909	0.	-175.24
11816	6.1683	4.1818	0.	-177.62
11817	6.2603	4.1818	5.e-002	6.0044e-006
11818	6.2603	3.9091	0.	-186.36
11819	6.1683	4.	0.	-190.02
11820	6.2603	4.	5.e-002	3.9581e-006
11821	6.2603	3.7273	0.	-195.7
11822	6.1683	3.8182	0.	-200.66
11823	6.2603	3.8182	5.e-002	5.3709e-006
11824	6.2603	3.5455	0.	-203.14
11825	6.1683	3.6364	0.	-209.37
11826	6.2603	3.6364	5.e-002	2.8901e-006
11827	6.2603	3.3636	0.	-208.53
11828	6.1683	3.4545	0.	-216.03
11829	6.2603	3.4545	5.e-002	4.0639e-006
11830	6.2603	3.1818	0.	-211.81
11831	6.1683	3.2727	0.	-220.53
11832	6.2603	3.2727	5.e-002	3.1358e-006
11833	6.2603	3.	0.	-212.91
11834	6.1683	3.0909	0.	-222.8
11835	6.2603	3.0909	5.e-002	4.2749e-006
11836	6.2603	2.8182	0.	-211.81
11837	6.1683	2.9091	0.	-222.8
11838	6.2603	2.9091	5.e-002	3.3315e-006
11839	6.2603	2.6364	0.	-208.53
11840	6.1683	2.7273	0.	-220.53
11841	6.2603	2.7273	5.e-002	-1.5312e-006
11842	6.2603	2.4545	0.	-203.14
11843	6.1683	2.5455	0.	-216.03
11844	6.2603	2.5455	5.e-002	1.139e-006
11845	6.2603	2.2727	0.	-195.7
11846	6.1683	2.3636	0.	-209.37
11847	6.2603	2.3636	5.e-002	-6.0979e-007
11848	6.2603	2.0909	0.	-186.36
11849	6.1683	2.1818	0.	-200.66
11850	6.2603	2.1818	5.e-002	7.246e-007
11851	6.2603	1.9091	0.	-175.24
11852	6.1683	2.	0.	-190.02
11853	6.2603	2.	5.e-002	-2.2011e-006
11854	6.2603	1.7273	0.	-162.52
11855	6.1683	1.8182	0.	-177.62
11856	6.2603	1.8182	5.e-002	-8.3731e-006
11857	6.2603	1.5455	0.	-148.38
11858	6.1683	1.6364	0.	-163.62
11859	6.2603	1.6364	5.e-002	-8.0064e-006
11860	6.2603	1.3636	0.	-133.02
11861	6.1683	1.4545	0.	-148.22
11862	6.2603	1.4545	5.e-002	-8.5945e-006
11863	6.2603	1.1818	0.	-116.61
11864	6.1683	1.2727	0.	-131.61
11865	6.2603	1.2727	5.e-002	-1.1004e-005
11866	6.2603	1.	0.	-99.366
11867	6.1683	1.0909	0.	-113.98
11868	6.2603	1.0909	5.e-002	-7.6392e-006
11869	6.2603	0.81818	0.	-81.451
11870	6.1683	0.90909	0.	-95.531
11871	6.2603	0.90909	5.e-002	-1.5839e-005
11872	6.2603	0.63636	0.	-63.034
11873	6.1683	0.72727	0.	-76.432
11874	6.2603	0.72727	5.e-002	-1.5969e-005
11875	6.2603	0.45455	0.	-44.235
11876	6.1683	0.54545	0.	-56.852
11877	6.2603	0.54545	5.e-002	-1.3128e-005
11878	6.2603	0.27273	0.	-25.067
11879	6.1683	0.36364	0.	-36.876
11880	6.2603	0.36364	5.e-002	-9.7778e-006
11881	6.1683	0.18182	0.	-16.492
11882	6.2603	0.18182	5.e-002	-3.1795e-005
11883	6.2603	9.0909e-002	0.	-8.0018
11884	6.0762	5.7273	0.	-28.28
11885	5.9841	5.8182	0.	-18.696
11886	6.0762	5.8182	5.e-002	2.5827e-005
11887	6.0762	5.9091	0.	-9.2131
11888	6.0762	5.5455	0.	-49.489
11889	5.9841	5.6364	0.	-41.2
11890	6.0762	5.6364	5.e-002	1.1385e-005
11891	6.0762	5.3636	0.	-70.246
11892	5.9841	5.4545	0.	-63.24
11893	6.0762	5.4545	5.e-002	1.1694e-005
11894	6.0762	5.1818	0.	-90.507
11895	5.9841	5.2727	0.	-84.783
11896	6.0762	5.2727	5.e-002	1.636e-005
11897	6.0762	5.	0.	-110.14
11898	5.9841	5.0909	0.	-105.73
11899	6.0762	5.0909	5.e-002	1.2386e-005
11900	6.0762	4.8182	0.	-128.97
11901	5.9841	4.9091	0.	-125.9
11902	6.0762	4.9091	5.e-002	8.7198e-006
11903	6.0762	4.6364	0.	-146.8
11904	5.9841	4.7273	0.	-145.1
11905	6.0762	4.7273	5.e-002	1.092e-005
11906	6.0762	4.4545	0.	-163.45
11907	5.9841	4.5455	0.	-163.14
11908	6.0762	4.5455	5.e-002	7.5566e-006
11909	6.0762	4.2727	0.	-178.71
11910	5.9841	4.3636	0.	-179.81
11911	6.0762	4.3636	5.e-002	7.1723e-006
11912	6.0762	4.0909	0.	-192.39
11913	5.9841	4.1818	0.	-194.92
11914	6.0762	4.1818	5.e-002	6.4654e-006
11915	6.0762	3.9091	0.	-204.32
11916	5.9841	4.	0.	-208.27
11917	6.0762	4.	5.e-002	4.2375e-006
11918	6.0762	3.7273	0.	-214.33
11919	5.9841	3.8182	0.	-219.7
11920	6.0762	3.8182	5.e-002	3.7321e-006
11921	6.0762	3.5455	0.	-222.27
11922	5.9841	3.6364	0.	-229.04
11923	6.0762	3.6364	5.e-002	4.9527e-006
11924	6.0762	3.3636	0.	-228.03
11925	5.9841	3.4545	0.	-236.17
11926	6.0762	3.4545	5.e-002	4.2023e-006
11927	6.0762	3.1818	0.	-231.52
11928	5.9841	3.2727	0.	-240.98
11929	6.0762	3.2727	5.e-002	3.3357e-006
11930	6.0762	3.	0.	-232.69
11931	5.9841	3.0909	0.	-243.4
11932	6.0762	3.0909	5.e-002	2.3807e-006
11933	6.0762	2.8182	0.	-231.52
11934	5.9841	2.9091	0.	-243.4
11935	6.0762	2.9091	5.e-002	1.3974e-006
11936	6.0762	2.6364	0.	-228.03
11937	5.9841	2.7273	0.	-240.98
11938	6.0762	2.7273	5.e-002	2.1915e-006
11939	6.0762	2.4545	0.	-222.27
11940	5.9841	2.5455	0.	-236.17
11941	6.0762	2.5455	5.e-002	5.1296e-006
11942	6.0762	2.2727	0.	-214.33
11943	5.9841	2.3636	0.	-229.04
11944	6.0762	2.3636	5.e-002	-3.3465e-006
11945	6.0762	2.0909	0.	-204.32
11946	5.9841	2.1818	0.	-219.7
11947	6.0762	2.1818	5.e-002	-4.2983e-006
11948	6.0762	1.9091	0.	-192.39
11949	5.9841	2.	0.	-208.27
11950	6.0762	2.	5.e-002	1.2257e-006
11951	6.0762	1.7273	0.	-178.71
11952	5.9841	1.8182	0.	-194.92
11953	6.0762	1.8182	5.e-002	-7.2043e-006
11954	6.0762	1.5455	0.	-163.45
11955	5.9841	1.6364	0.	-179.81
11956	6.0762	1.6364	5.e-002	-6.5183e-006
11957	6.0762	1.3636	0.	-146.8
11958	5.9841	1.4545	0.	-163.14
11959	6.0762	1.4545	5.e-002	-7.585e-006
11960	6.0762	1.1818	0.	-128.97
11961	5.9841	1.2727	0.	-145.1
11962	6.0762	1.2727	5.e-002	-1.5068e-005
11963	6.0762	1.	0.	-110.14
11964	5.9841	1.0909	0.	-125.9
11965	6.0762	1.0909	5.e-002	-9.621e-006
11966	6.0762	0.81818	0.	-90.507
11967	5.9841	0.90909	0.	-105.73
11968	6.0762	0.90909	5.e-002	-1.146e-005
11969	6.0762	0.63636	0.	-70.246
11970	5.9841	0.72727	0.	-84.783
11971	6.0762	0.72727	5.e-002	-1.5289e-005
11972	6.0762	0.45455	0.	-49.489
11973	5.9841	0.54545	0.	-63.24
11974	6.0762	0.54545	5.e-002	-1.4635e-005
11975	6.0762	0.27273	0.	-28.28
11976	5.9841	0.36364	0.	-41.2
11977	6.0762	0.36364	5.e-002	-1.9263e-005
11978	5.9841	0.18182	0.	-18.696
11979	6.0762	0.18182	5.e-002	-3.3535e-005
11980	6.0762	9.0909e-002	0.	-9.2131
11981	5.8921	5.7273	0.	-31.588
11982	5.8	5.8182	0.	-20.947
11983	5.8921	5.8182	5.e-002	2.8106e-005
11984	5.8921	5.9091	0.	-10.446
11985	5.8921	5.5455	0.	-54.944
11986	5.8	5.6364	0.	-45.682
11987	5.8921	5.6364	5.e-002	1.8862e-005
11988	5.8921	5.3636	0.	-77.771
11989	5.8	5.4545	0.	-69.903
11990	5.8921	5.4545	5.e-002	1.8266e-005
11991	5.8921	5.1818	0.	-99.999
11992	5.8	5.2727	0.	-93.535
11993	5.8921	5.2727	5.e-002	1.7735e-005
11994	5.8921	5.	0.	-121.48
11995	5.8	5.0909	0.	-116.47
11996	5.8921	5.0909	5.e-002	8.6007e-006
11997	5.8921	4.8182	0.	-142.03
11998	5.8	4.9091	0.	-138.49
11999	5.8921	4.9091	5.e-002	1.449e-005
12000	5.8921	4.6364	0.	-161.43
12001	5.8	4.7273	0.	-159.42
12002	5.8921	4.7273	5.e-002	1.2174e-005
12003	5.8921	4.4545	0.	-179.5
12004	5.8	4.5455	0.	-179.03
12005	5.8921	4.5455	5.e-002	1.1438e-005
12006	5.8921	4.2727	0.	-196.02
12007	5.8	4.3636	0.	-197.11
12008	5.8921	4.3636	5.e-002	5.1218e-006
12009	5.8921	4.0909	0.	-210.8
12010	5.8	4.1818	0.	-213.47
12011	5.8921	4.1818	5.e-002	8.9089e-006
12012	5.8921	3.9091	0.	-223.65
12013	5.8	4.	0.	-227.9
12014	5.8921	4.	5.e-002	7.7383e-006
12015	5.8921	3.7273	0.	-234.42
12016	5.8	3.8182	0.	-240.23
12017	5.8921	3.8182	5.e-002	8.856e-006
12018	5.8921	3.5455	0.	-242.95
12019	5.8	3.6364	0.	-250.29
12020	5.8921	3.6364	5.e-002	6.5868e-006
12021	5.8921	3.3636	0.	-249.13
12022	5.8	3.4545	0.	-257.96
12023	5.8921	3.4545	5.e-002	6.2326e-006
12024	5.8921	3.1818	0.	-252.87
12025	5.8	3.2727	0.	-263.13
12026	5.8921	3.2727	5.e-002	1.3796e-006
12027	5.8921	3.	0.	-254.12
12028	5.8	3.0909	0.	-265.74
12029	5.8921	3.0909	5.e-002	2.426e-006
12030	5.8921	2.8182	0.	-252.87
12031	5.8	2.9091	0.	-265.74
12032	5.8921	2.9091	5.e-002	1.3825e-006
12033	5.8921	2.6364	0.	-249.13
12034	5.8	2.7273	0.	-263.13
12035	5.8921	2.7273	5.e-002	-1.7067e-006
12036	5.8921	2.4545	0.	-242.95
12037	5.8	2.5455	0.	-257.96
12038	5.8921	2.5455	5.e-002	8.0686e-007
12039	5.8921	2.2727	0.	-234.42
12040	5.8	2.3636	0.	-250.29
12041	5.8921	2.3636	5.e-002	-1.8486e-006
12042	5.8921	2.0909	0.	-223.65
12043	5.8	2.1818	0.	-240.23
12044	5.8921	2.1818	5.e-002	-2.882e-006
12045	5.8921	1.9091	0.	-210.8
12046	5.8	2.	0.	-227.9
12047	5.8921	2.	5.e-002	-8.1956e-006
12048	5.8921	1.7273	0.	-196.02
12049	5.8	1.8182	0.	-213.47
12050	5.8921	1.8182	5.e-002	-7.8542e-006
12051	5.8921	1.5455	0.	-179.5
12052	5.8	1.6364	0.	-197.11
12053	5.8921	1.6364	5.e-002	-6.5921e-006
12054	5.8921	1.3636	0.	-161.43
12055	5.8	1.4545	0.	-179.03
12056	5.8921	1.4545	5.e-002	-1.8413e-005
12057	5.8921	1.1818	0.	-142.03
12058	5.8	1.2727	0.	-159.42
12059	5.8921	1.2727	5.e-002	-7.7426e-006
12060	5.8921	1.	0.	-121.48
12061	5.8	1.0909	0.	-138.49
12062	5.8921	1.0909	5.e-002	-1.6664e-005
12063	5.8921	0.81818	0.	-99.999
12064	5.8	0.90909	0.	-116.47
12065	5.8921	0.90909	5.e-002	-1.5536e-005
12066	5.8921	0.63636	0.	-77.771
12067	5.8	0.72727	0.	-93.535
12068	5.8921	0.72727	5.e-002	-2.1356e-005
12069	5.8921	0.45455	0.	-54.944
12070	5.8	0.54545	0.	-69.903
12071	5.8921	0.54545	5.e-002	-1.7847e-005
12072	5.8921	0.27273	0.	-31.588
12073	5.8	0.36364	0.	-45.682
12074	5.8921	0.36364	5.e-002	-2.2535e-005
12075	5.8	0.18182	0.	-20.947
12076	5.8921	0.18182	5.e-002	-3.4814e-005
12077	5.8921	9.0909e-002	0.	-10.446
12078	5.7079	5.7273	0.	-35.004
12079	5.6159	5.8182	0.	-23.244
12080	5.7079	5.8182	5.e-002	1.9904e-005
12081	5.7079	5.9091	0.	-11.7
12082	5.7079	5.5455	0.	-60.63
12083	5.6159	5.6364	0.	-50.343
12084	5.7079	5.6364	5.e-002	8.3891e-006
12085	5.7079	5.3636	0.	-85.657
12086	5.6159	5.4545	0.	-76.879
12087	5.7079	5.4545	5.e-002	1.4768e-005
12088	5.7079	5.1818	0.	-109.99
12089	5.6159	5.2727	0.	-102.74
12090	5.7079	5.2727	5.e-002	2.0389e-005
12091	5.7079	5.	0.	-133.47
12092	5.6159	5.0909	0.	-127.81
12093	5.7079	5.0909	5.e-002	1.9785e-005
12094	5.7079	4.8182	0.	-155.88
12095	5.6159	4.9091	0.	-151.85
12096	5.7079	4.9091	5.e-002	1.4158e-005
12097	5.7079	4.6364	0.	-177.
12098	5.6159	4.7273	0.	-174.65
12099	5.7079	4.7273	5.e-002	1.3704e-005
12100	5.7079	4.4545	0.	-196.64
12101	5.6159	4.5455	0.	-195.99
12102	5.7079	4.5455	5.e-002	1.2673e-005
12103	5.7079	4.2727	0.	-214.56
12104	5.6159	4.3636	0.	-215.64
12105	5.7079	4.3636	5.e-002	8.4969e-006
12106	5.7079	4.0909	0.	-230.57
12107	5.6159	4.1818	0.	-233.38
12108	5.7079	4.1818	5.e-002	1.0087e-005
12109	5.7079	3.9091	0.	-244.47
12110	5.6159	4.	0.	-249.02
12111	5.7079	4.	5.e-002	4.915e-006
12112	5.7079	3.7273	0.	-256.1
12113	5.6159	3.8182	0.	-262.36
12114	5.7079	3.8182	5.e-002	5.4658e-006
12115	5.7079	3.5455	0.	-265.3
12116	5.6159	3.6364	0.	-273.24
12117	5.7079	3.6364	5.e-002	4.2492e-006
12118	5.7079	3.3636	0.	-271.97
12119	5.6159	3.4545	0.	-281.53
12120	5.7079	3.4545	5.e-002	6.4396e-006
12121	5.7079	3.1818	0.	-276.
12122	5.6159	3.2727	0.	-287.11
12123	5.7079	3.2727	5.e-002	5.28e-006
12124	5.7079	3.	0.	-277.35
12125	5.6159	3.0909	0.	-289.92
12126	5.7079	3.0909	5.e-002	4.3505e-006
12127	5.7079	2.8182	0.	-276.
12128	5.6159	2.9091	0.	-289.92
12129	5.7079	2.9091	5.e-002	3.2374e-006
12130	5.7079	2.6364	0.	-271.97
12131	5.6159	2.7273	0.	-287.11
12132	5.7079	2.7273	5.e-002	1.9763e-006
12133	5.7079	2.4545	0.	-265.3
12134	5.6159	2.5455	0.	-281.53
12135	5.7079	2.5455	5.e-002	4.8282e-006
12136	5.7079	2.2727	0.	-256.1
12137	5.6159	2.3636	0.	-273.24
12138	5.7079	2.3636	5.e-002	-6.0514e-006
12139	5.7079	2.0909	0.	-244.47
12140	5.6159	2.1818	0.	-262.36
12141	5.7079	2.1818	5.e-002	-4.0513e-006
12142	5.7079	1.9091	0.	-230.57
12143	5.6159	2.	0.	-249.02
12144	5.7079	2.	5.e-002	-5.1816e-006
12145	5.7079	1.7273	0.	-214.56
12146	5.6159	1.8182	0.	-233.38
12147	5.7079	1.8182	5.e-002	-9.2527e-006
12148	5.7079	1.5455	0.	-196.64
12149	5.6159	1.6364	0.	-215.64
12150	5.7079	1.6364	5.e-002	-8.4453e-006
12151	5.7079	1.3636	0.	-177.
12152	5.6159	1.4545	0.	-195.99
12153	5.7079	1.4545	5.e-002	-1.689e-005
12154	5.7079	1.1818	0.	-155.88
12155	5.6159	1.2727	0.	-174.65
12156	5.7079	1.2727	5.e-002	-2.0851e-005
12157	5.7079	1.	0.	-133.47
12158	5.6159	1.0909	0.	-151.85
12159	5.7079	1.0909	5.e-002	-1.3404e-005
12160	5.7079	0.81818	0.	-109.99
12161	5.6159	0.90909	0.	-127.81
12162	5.7079	0.90909	5.e-002	-1.9701e-005
12163	5.7079	0.63636	0.	-85.657
12164	5.6159	0.72727	0.	-102.74
12165	5.7079	0.72727	5.e-002	-2.0202e-005
12166	5.7079	0.45455	0.	-60.63
12167	5.6159	0.54545	0.	-76.879
12168	5.7079	0.54545	5.e-002	-1.8509e-005
12169	5.7079	0.27273	0.	-35.004
12170	5.6159	0.36364	0.	-50.343
12171	5.7079	0.36364	5.e-002	-1.4338e-005
12172	5.6159	0.18182	0.	-23.244
12173	5.7079	0.18182	5.e-002	-3.7032e-005
12174	5.7079	9.0909e-002	0.	-11.7
12175	5.5238	5.7273	0.	-38.535
12176	5.4317	5.8182	0.	-25.582
12177	5.5238	5.8182	5.e-002	3.8927e-005
12178	5.5238	5.9091	0.	-12.972
12179	5.5238	5.5455	0.	-66.577
12180	5.4317	5.6364	0.	-55.199
12181	5.5238	5.6364	5.e-002	2.4546e-005
12182	5.5238	5.3636	0.	-93.952
12183	5.4317	5.4545	0.	-84.206
12184	5.5238	5.4545	5.e-002	1.1816e-005
12185	5.5238	5.1818	0.	-120.55
12186	5.4317	5.2727	0.	-112.46
12187	5.5238	5.2727	5.e-002	1.7742e-005
12188	5.5238	5.	0.	-146.17
12189	5.4317	5.0909	0.	-139.82
12190	5.5238	5.0909	5.e-002	1.6621e-005
12191	5.5238	4.8182	0.	-170.61
12192	5.4317	4.9091	0.	-166.05
12193	5.5238	4.9091	5.e-002	1.6247e-005
12194	5.5238	4.6364	0.	-193.62
12195	5.4317	4.7273	0.	-190.9
12196	5.5238	4.7273	5.e-002	2.1435e-005
12197	5.5238	4.4545	0.	-214.98
12198	5.4317	4.5455	0.	-214.13
12199	5.5238	4.5455	5.e-002	1.0209e-005
12200	5.5238	4.2727	0.	-234.45
12201	5.4317	4.3636	0.	-235.5
12202	5.5238	4.3636	5.e-002	1.4408e-005
12203	5.5238	4.0909	0.	-251.83
12204	5.4317	4.1818	0.	-254.79
12205	5.5238	4.1818	5.e-002	1.1039e-005
12206	5.5238	3.9091	0.	-266.9
12207	5.4317	4.	0.	-271.76
12208	5.5238	4.	5.e-002	9.3498e-006
12209	5.5238	3.7273	0.	-279.5
12210	5.4317	3.8182	0.	-286.24
12211	5.5238	3.8182	5.e-002	6.0188e-006
12212	5.5238	3.5455	0.	-289.47
12213	5.4317	3.6364	0.	-298.04
12214	5.5238	3.6364	5.e-002	1.135e-005
12215	5.5238	3.3636	0.	-296.68
12216	5.4317	3.4545	0.	-307.02
12217	5.5238	3.4545	5.e-002	2.8063e-006
12218	5.5238	3.1818	0.	-301.04
12219	5.4317	3.2727	0.	-313.07
12220	5.5238	3.2727	5.e-002	5.5585e-006
12221	5.5238	3.	0.	-302.5
12222	5.4317	3.0909	0.	-316.11
12223	5.5238	3.0909	5.e-002	4.4061e-006
12224	5.5238	2.8182	0.	-301.04
12225	5.4317	2.9091	0.	-316.11
12226	5.5238	2.9091	5.e-002	3.2167e-006
12227	5.5238	2.6364	0.	-296.68
12228	5.4317	2.7273	0.	-313.07
12229	5.5238	2.7273	5.e-002	2.0242e-006
12230	5.5238	2.4545	0.	-289.47
12231	5.4317	2.5455	0.	-307.02
12232	5.5238	2.5455	5.e-002	-3.3778e-006
12233	5.5238	2.2727	0.	-279.5
12234	5.4317	2.3636	0.	-298.04
12235	5.5238	2.3636	5.e-002	-4.8943e-006
12236	5.5238	2.0909	0.	-266.9
12237	5.4317	2.1818	0.	-286.24
12238	5.5238	2.1818	5.e-002	-5.4192e-006
12239	5.5238	1.9091	0.	-251.83
12240	5.4317	2.	0.	-271.76
12241	5.5238	2.	5.e-002	-1.3659e-005
12242	5.5238	1.7273	0.	-234.45
12243	5.4317	1.8182	0.	-254.79
12244	5.5238	1.8182	5.e-002	-1.0468e-005
12245	5.5238	1.5455	0.	-214.98
12246	5.4317	1.6364	0.	-235.5
12247	5.5238	1.6364	5.e-002	-7.4172e-006
12248	5.5238	1.3636	0.	-193.62
12249	5.4317	1.4545	0.	-214.13
12250	5.5238	1.4545	5.e-002	-1.2944e-005
12251	5.5238	1.1818	0.	-170.61
12252	5.4317	1.2727	0.	-190.9
12253	5.5238	1.2727	5.e-002	-1.8676e-005
12254	5.5238	1.	0.	-146.17
12255	5.4317	1.0909	0.	-166.05
12256	5.5238	1.0909	5.e-002	-2.2087e-005
12257	5.5238	0.81818	0.	-120.55
12258	5.4317	0.90909	0.	-139.82
12259	5.5238	0.90909	5.e-002	-2.2314e-005
12260	5.5238	0.63636	0.	-93.952
12261	5.4317	0.72727	0.	-112.46
12262	5.5238	0.72727	5.e-002	-1.7324e-005
12263	5.5238	0.45455	0.	-66.577
12264	5.4317	0.54545	0.	-84.206
12265	5.5238	0.54545	5.e-002	-1.7398e-005
12266	5.5238	0.27273	0.	-38.535
12267	5.4317	0.36364	0.	-55.199
12268	5.5238	0.36364	5.e-002	-2.3646e-005
12269	5.4317	0.18182	0.	-25.582
12270	5.5238	0.18182	5.e-002	-3.8172e-005
12271	5.5238	9.0909e-002	0.	-12.972
12272	5.3397	5.7273	0.	-42.188
12273	5.2476	5.8182	0.	-27.957
12274	5.3397	5.8182	5.e-002	3.0261e-005
12275	5.3397	5.9091	0.	-14.256
12276	5.3397	5.5455	0.	-72.809
12277	5.2476	5.6364	0.	-60.267
12278	5.3397	5.6364	5.e-002	1.9759e-005
12279	5.3397	5.3636	0.	-102.7
12280	5.2476	5.4545	0.	-91.916
12281	5.3397	5.4545	5.e-002	2.0057e-005
12282	5.3397	5.1818	0.	-131.72
12283	5.2476	5.2727	0.	-122.74
12284	5.3397	5.2727	5.e-002	1.2768e-005
12285	5.3397	5.	0.	-159.68
12286	5.2476	5.0909	0.	-152.59
12287	5.3397	5.0909	5.e-002	2.4937e-005
12288	5.3397	4.8182	0.	-186.32
12289	5.2476	4.9091	0.	-181.18
12290	5.3397	4.9091	5.e-002	1.1785e-005
12291	5.3397	4.6364	0.	-211.39
12292	5.2476	4.7273	0.	-208.26
12293	5.3397	4.7273	5.e-002	1.1847e-005
12294	5.3397	4.4545	0.	-234.64
12295	5.2476	4.5455	0.	-233.56
12296	5.3397	4.5455	5.e-002	1.1162e-005
12297	5.3397	4.2727	0.	-255.83
12298	5.2476	4.3636	0.	-256.83
12299	5.3397	4.3636	5.e-002	1.3901e-005
12300	5.3397	4.0909	0.	-274.71
12301	5.2476	4.1818	0.	-277.81
12302	5.3397	4.1818	5.e-002	9.0725e-006
12303	5.3397	3.9091	0.	-291.09
12304	5.2476	4.	0.	-296.27
12305	5.3397	4.	5.e-002	5.6264e-006
12306	5.3397	3.7273	0.	-304.77
12307	5.2476	3.8182	0.	-312.01
12308	5.3397	3.8182	5.e-002	1.0359e-005
12309	5.3397	3.5455	0.	-315.59
12310	5.2476	3.6364	0.	-324.83
12311	5.3397	3.6364	5.e-002	4.1303e-006
12312	5.3397	3.3636	0.	-323.41
12313	5.2476	3.4545	0.	-334.58
12314	5.3397	3.4545	5.e-002	3.0465e-006
12315	5.3397	3.1818	0.	-328.14
12316	5.2476	3.2727	0.	-341.15
12317	5.3397	3.2727	5.e-002	1.8766e-006
12318	5.3397	3.	0.	-329.73
12319	5.2476	3.0909	0.	-344.46
12320	5.3397	3.0909	5.e-002	4.4483e-006
12321	5.3397	2.8182	0.	-328.14
12322	5.2476	2.9091	0.	-344.46
12323	5.3397	2.9091	5.e-002	3.1294e-006
12324	5.3397	2.6364	0.	-323.41
12325	5.2476	2.7273	0.	-341.15
12326	5.3397	2.7273	5.e-002	-2.3039e-006
12327	5.3397	2.4545	0.	-315.59
12328	5.2476	2.5455	0.	-334.58
12329	5.3397	2.5455	5.e-002	-3.5744e-006
12330	5.3397	2.2727	0.	-304.77
12331	5.2476	2.3636	0.	-324.83
12332	5.3397	2.3636	5.e-002	-4.1303e-006
12333	5.3397	2.0909	0.	-291.09
12334	5.2476	2.1818	0.	-312.01
12335	5.3397	2.1818	5.e-002	-9.7457e-007
12336	5.3397	1.9091	0.	-274.71
12337	5.2476	2.	0.	-296.27
12338	5.3397	2.	5.e-002	-1.2699e-005
12339	5.3397	1.7273	0.	-255.83
12340	5.2476	1.8182	0.	-277.81
12341	5.3397	1.8182	5.e-002	-8.9119e-006
12342	5.3397	1.5455	0.	-234.64
12343	5.2476	1.6364	0.	-256.83
12344	5.3397	1.6364	5.e-002	-1.8192e-005
12345	5.3397	1.3636	0.	-211.39
12346	5.2476	1.4545	0.	-233.56
12347	5.3397	1.4545	5.e-002	-9.6504e-006
12348	5.3397	1.1818	0.	-186.32
12349	5.2476	1.2727	0.	-208.26
12350	5.3397	1.2727	5.e-002	-8.6373e-006
12351	5.3397	1.	0.	-159.68
12352	5.2476	1.0909	0.	-181.18
12353	5.3397	1.0909	5.e-002	-2.4791e-005
12354	5.3397	0.81818	0.	-131.72
12355	5.2476	0.90909	0.	-152.59
12356	5.3397	0.90909	5.e-002	-2.6131e-005
12357	5.3397	0.63636	0.	-102.7
12358	5.2476	0.72727	0.	-122.74
12359	5.3397	0.72727	5.e-002	-2.6815e-005
12360	5.3397	0.45455	0.	-72.809
12361	5.2476	0.54545	0.	-91.916
12362	5.3397	0.54545	5.e-002	-2.6336e-005
12363	5.3397	0.27273	0.	-42.188
12364	5.2476	0.36364	0.	-60.267
12365	5.3397	0.36364	5.e-002	-2.7013e-005
12366	5.2476	0.18182	0.	-27.957
12367	5.3397	0.18182	5.e-002	-2.9715e-005
12368	5.3397	9.0909e-002	0.	-14.256
12369	5.1556	5.7273	0.	-45.965
12370	5.0635	5.8182	0.	-30.356
12371	5.1556	5.8182	5.e-002	3.0922e-005
12372	5.1556	5.9091	0.	-15.547
12373	5.1556	5.5455	0.	-79.35
12374	5.0635	5.6364	0.	-65.558
12375	5.1556	5.6364	5.e-002	4.001e-005
12376	5.1556	5.3636	0.	-111.94
12377	5.0635	5.4545	0.	-100.04
12378	5.1556	5.4545	5.e-002	1.3775e-005
12379	5.1556	5.1818	0.	-143.58
12380	5.0635	5.2727	0.	-133.64
12381	5.1556	5.2727	5.e-002	2.1611e-005
12382	5.1556	5.	0.	-174.06
12383	5.0635	5.0909	0.	-166.16
12384	5.1556	5.0909	5.e-002	1.3068e-005
12385	5.1556	4.8182	0.	-203.1
12386	5.0635	4.9091	0.	-197.32
12387	5.1556	4.9091	5.e-002	1.2997e-005
12388	5.1556	4.6364	0.	-230.41
12389	5.0635	4.7273	0.	-226.83
12390	5.1556	4.7273	5.e-002	1.8839e-005
12391	5.1556	4.4545	0.	-255.74
12392	5.0635	4.5455	0.	-254.4
12393	5.1556	4.5455	5.e-002	6.9555e-006
12394	5.1556	4.2727	0.	-278.8
12395	5.0635	4.3636	0.	-279.75
12396	5.1556	4.3636	5.e-002	1.1237e-005
12397	5.1556	4.0909	0.	-299.36
12398	5.0635	4.1818	0.	-302.6
12399	5.1556	4.1818	5.e-002	9.8688e-006
12400	5.1556	3.9091	0.	-317.18
12401	5.0635	4.	0.	-322.7
12402	5.1556	4.	5.e-002	8.3986e-006
12403	5.1556	3.7273	0.	-332.06
12404	5.0635	3.8182	0.	-339.82
12405	5.1556	3.8182	5.e-002	5.3579e-006
12406	5.1556	3.5455	0.	-343.83
12407	5.0635	3.6364	0.	-353.78
12408	5.1556	3.6364	5.e-002	5.2778e-006
12409	5.1556	3.3636	0.	-352.33
12410	5.0635	3.4545	0.	-364.39
12411	5.1556	3.4545	5.e-002	3.2419e-006
12412	5.1556	3.1818	0.	-357.47
12413	5.0635	3.2727	0.	-371.53
12414	5.1556	3.2727	5.e-002	1.9973e-006
12415	5.1556	3.	0.	-359.2
12416	5.0635	3.0909	0.	-375.13
12417	5.1556	3.0909	5.e-002	6.572e-007
12418	5.1556	2.8182	0.	-357.47
12419	5.0635	2.9091	0.	-375.13
12420	5.1556	2.9091	5.e-002	-7.0638e-007
12421	5.1556	2.6364	0.	-352.33
12422	5.0635	2.7273	0.	-371.53
12423	5.1556	2.7273	5.e-002	-2.0401e-006
12424	5.1556	2.4545	0.	-343.83
12425	5.0635	2.5455	0.	-364.39
12426	5.1556	2.5455	5.e-002	-4.4857e-006
12427	5.1556	2.2727	0.	-332.06
12428	5.0635	2.3636	0.	-353.78
12429	5.1556	2.3636	5.e-002	-5.7947e-006
12430	5.1556	2.0909	0.	-317.18
12431	5.0635	2.1818	0.	-339.82
12432	5.1556	2.1818	5.e-002	-8.8426e-006
12433	5.1556	1.9091	0.	-299.36
12434	5.0635	2.	0.	-322.7
12435	5.1556	2.	5.e-002	-7.743e-006
12436	5.1556	1.7273	0.	-278.8
12437	5.0635	1.8182	0.	-302.6
12438	5.1556	1.8182	5.e-002	-1.7244e-005
12439	5.1556	1.5455	0.	-255.74
12440	5.0635	1.6364	0.	-279.75
12441	5.1556	1.6364	5.e-002	-1.5842e-005
12442	5.1556	1.3636	0.	-230.41
12443	5.0635	1.4545	0.	-254.4
12444	5.1556	1.4545	5.e-002	-1.5723e-005
12445	5.1556	1.1818	0.	-203.1
12446	5.0635	1.2727	0.	-226.83
12447	5.1556	1.2727	5.e-002	-2.5249e-005
12448	5.1556	1.	0.	-174.06
12449	5.0635	1.0909	0.	-197.32
12450	5.1556	1.0909	5.e-002	-2.5493e-005
12451	5.1556	0.81818	0.	-143.58
12452	5.0635	0.90909	0.	-166.16
12453	5.1556	0.90909	5.e-002	-2.9077e-005
12454	5.1556	0.63636	0.	-111.94
12455	5.0635	0.72727	0.	-133.64
12456	5.1556	0.72727	5.e-002	-3.8634e-005
12457	5.1556	0.45455	0.	-79.35
12458	5.0635	0.54545	0.	-100.04
12459	5.1556	0.54545	5.e-002	-3.0798e-005
12460	5.1556	0.27273	0.	-45.965
12461	5.0635	0.36364	0.	-65.558
12462	5.1556	0.36364	5.e-002	-3.9949e-005
12463	5.0635	0.18182	0.	-30.356
12464	5.1556	0.18182	5.e-002	-3.0321e-005
12465	5.1556	9.0909e-002	0.	-15.547
12466	4.9714	5.7273	0.	-49.864
12467	4.8794	5.8182	0.	-32.767
12468	4.9714	5.8182	5.e-002	2.1362e-005
12469	4.9714	5.9091	0.	-16.833
12470	4.9714	5.5455	0.	-86.219
12471	4.8794	5.6364	0.	-71.079
12472	4.9714	5.6364	5.e-002	1.3051e-005
12473	4.9714	5.3636	0.	-121.71
12474	4.8794	5.4545	0.	-108.61
12475	4.9714	5.4545	5.e-002	3.5556e-005
12476	4.9714	5.1818	0.	-156.19
12477	4.8794	5.2727	0.	-145.19
12478	4.9714	5.2727	5.e-002	2.4572e-005
12479	4.9714	5.	0.	-189.4
12480	4.8794	5.0909	0.	-180.62
12481	4.9714	5.0909	5.e-002	1.4116e-005
12482	4.9714	4.8182	0.	-221.04
12483	4.8794	4.9091	0.	-214.57
12484	4.9714	4.9091	5.e-002	2.2229e-005
12485	4.9714	4.6364	0.	-250.8
12486	4.8794	4.7273	0.	-246.73
12487	4.9714	4.7273	5.e-002	1.426e-005
12488	4.9714	4.4545	0.	-278.4
12489	4.8794	4.5455	0.	-276.77
12490	4.9714	4.5455	5.e-002	3.1312e-005
12491	4.9714	4.2727	0.	-303.53
12492	4.8794	4.3636	0.	-304.4
12493	4.9714	4.3636	5.e-002	8.3407e-006
12494	4.9714	4.0909	0.	-325.93
12495	4.8794	4.1818	0.	-329.29
12496	4.9714	4.1818	5.e-002	1.098e-005
12497	4.9714	3.9091	0.	-345.34
12498	4.8794	4.	0.	-351.2
12499	4.9714	4.	5.e-002	1.3162e-005
12500	4.9714	3.7273	0.	-361.54
12501	4.8794	3.8182	0.	-369.86
12502	4.9714	3.8182	5.e-002	5.5281e-006
12503	4.9714	3.5455	0.	-374.35
12504	4.8794	3.6364	0.	-385.05
12505	4.9714	3.6364	5.e-002	5.8389e-006
12506	4.9714	3.3636	0.	-383.6
12507	4.8794	3.4545	0.	-396.61
12508	4.9714	3.4545	5.e-002	7.3256e-006
12509	4.9714	3.1818	0.	-389.2
12510	4.8794	3.2727	0.	-404.4
12511	4.9714	3.2727	5.e-002	5.9578e-006
12512	4.9714	3.	0.	-391.08
12513	4.8794	3.0909	0.	-408.31
12514	4.9714	3.0909	5.e-002	7.2408e-007
12515	4.9714	2.8182	0.	-389.2
12516	4.8794	2.9091	0.	-408.31
12517	4.9714	2.9091	5.e-002	-7.2918e-007
12518	4.9714	2.6364	0.	-383.6
12519	4.8794	2.7273	0.	-404.4
12520	4.9714	2.7273	5.e-002	1.3609e-006
12521	4.9714	2.4545	0.	-374.35
12522	4.8794	2.5455	0.	-396.61
12523	4.9714	2.5455	5.e-002	-4.1833e-006
12524	4.9714	2.2727	0.	-361.54
12525	4.8794	2.3636	0.	-385.05
12526	4.9714	2.3636	5.e-002	-6.1141e-006
12527	4.9714	2.0909	0.	-345.34
12528	4.8794	2.1818	0.	-369.86
12529	4.9714	2.1818	5.e-002	-3.9162e-006
12530	4.9714	1.9091	0.	-325.93
12531	4.8794	2.	0.	-351.2
12532	4.9714	2.	5.e-002	-8.8725e-006
12533	4.9714	1.7273	0.	-303.53
12534	4.8794	1.8182	0.	-329.29
12535	4.9714	1.8182	5.e-002	-1.5159e-005
12536	4.9714	1.5455	0.	-278.4
12537	4.8794	1.6364	0.	-304.4
12538	4.9714	1.6364	5.e-002	-3.7936e-006
12539	4.9714	1.3636	0.	-250.8
12540	4.8794	1.4545	0.	-276.77
12541	4.9714	1.4545	5.e-002	-3.1312e-005
12542	4.9714	1.1818	0.	-221.04
12543	4.8794	1.2727	0.	-246.73
12544	4.9714	1.2727	5.e-002	-1.9547e-005
12545	4.9714	1.	0.	-189.4
12546	4.8794	1.0909	0.	-214.57
12547	4.9714	1.0909	5.e-002	-2.0569e-005
12548	4.9714	0.81818	0.	-156.19
12549	4.8794	0.90909	0.	-180.62
12550	4.9714	0.90909	5.e-002	-3.2314e-005
12551	4.9714	0.63636	0.	-121.71
12552	4.8794	0.72727	0.	-145.19
12553	4.9714	0.72727	5.e-002	-3.4091e-005
12554	4.9714	0.45455	0.	-86.219
12555	4.8794	0.54545	0.	-108.61
12556	4.9714	0.54545	5.e-002	-4.4927e-005
12557	4.9714	0.27273	0.	-49.864
12558	4.8794	0.36364	0.	-71.079
12559	4.9714	0.36364	5.e-002	-2.2755e-005
12560	4.8794	0.18182	0.	-32.767
12561	4.9714	0.18182	5.e-002	-4.052e-005
12562	4.9714	9.0909e-002	0.	-16.833
12563	4.7873	5.7273	0.	-53.881
12564	4.6952	5.8182	0.	-35.169
12565	4.7873	5.8182	5.e-002	1.1728e-005
12566	4.7873	5.9091	0.	-18.103
12567	4.7873	5.5455	0.	-93.433
12568	4.6952	5.6364	0.	-76.837
12569	4.7873	5.6364	5.e-002	3.8576e-005
12570	4.7873	5.3636	0.	-132.06
12571	4.6952	5.4545	0.	-117.65
12572	4.7873	5.4545	5.e-002	3.9851e-005
12573	4.7873	5.1818	0.	-169.59
12574	4.6952	5.2727	0.	-157.45
12575	4.7873	5.2727	5.e-002	2.5985e-005
12576	4.7873	5.	0.	-205.76
12577	4.6952	5.0909	0.	-196.03
12578	4.7873	5.0909	5.e-002	2.6256e-005
12579	4.7873	4.8182	0.	-240.24
12580	4.6952	4.9091	0.	-233.01
12581	4.7873	4.9091	5.e-002	4.2043e-005
12582	4.7873	4.6364	0.	-272.68
12583	4.6952	4.7273	0.	-268.06
12584	4.7873	4.7273	5.e-002	3.1486e-005
12585	4.7873	4.4545	0.	-302.75
12586	4.6952	4.5455	0.	-300.8
12587	4.7873	4.5455	5.e-002	8.4037e-006
12588	4.7873	4.2727	0.	-330.15
12589	4.6952	4.3636	0.	-330.91
12590	4.7873	4.3636	5.e-002	8.2871e-006
12591	4.7873	4.0909	0.	-354.56
12592	4.6952	4.1818	0.	-358.06
12593	4.7873	4.1818	5.e-002	1.1951e-005
12594	4.7873	3.9091	0.	-375.72
12595	4.6952	4.	0.	-381.94
12596	4.7873	4.	5.e-002	1.3747e-005
12597	4.7873	3.7273	0.	-393.38
12598	4.6952	3.8182	0.	-402.28
12599	4.7873	3.8182	5.e-002	5.8806e-006
12600	4.7873	3.5455	0.	-407.33
12601	4.6952	3.6364	0.	-418.85
12602	4.7873	3.6364	5.e-002	6.4573e-006
12603	4.7873	3.3636	0.	-417.42
12604	4.6952	3.4545	0.	-431.45
12605	4.7873	3.4545	5.e-002	3.7328e-006
12606	4.7873	3.1818	0.	-423.52
12607	4.6952	3.2727	0.	-439.93
12608	4.7873	3.2727	5.e-002	1.953e-006
12609	4.7873	3.	0.	-425.57
12610	4.6952	3.0909	0.	-444.2
12611	4.7873	3.0909	5.e-002	7.8021e-007
12612	4.7873	2.8182	0.	-423.52
12613	4.6952	2.9091	0.	-444.2
12614	4.7873	2.9091	5.e-002	-7.8293e-007
12615	4.7873	2.6364	0.	-417.42
12616	4.6952	2.7273	0.	-439.93
12617	4.7873	2.7273	5.e-002	-2.552e-006
12618	4.7873	2.4545	0.	-407.33
12619	4.6952	2.5455	0.	-431.45
12620	4.7873	2.5455	5.e-002	-3.7328e-006
12621	4.7873	2.2727	0.	-393.38
12622	4.6952	2.3636	0.	-418.85
12623	4.7873	2.3636	5.e-002	-3.0279e-006
12624	4.7873	2.0909	0.	-375.72
12625	4.6952	2.1818	0.	-402.28
12626	4.7873	2.1818	5.e-002	-9.4693e-006
12627	4.7873	1.9091	0.	-354.56
12628	4.6952	2.	0.	-381.94
12629	4.7873	2.	5.e-002	-1.0351e-005
12630	4.7873	1.7273	0.	-330.15
12631	4.6952	1.8182	0.	-358.06
12632	4.7873	1.8182	5.e-002	-1.2449e-005
12633	4.7873	1.5455	0.	-302.75
12634	4.6952	1.6364	0.	-330.91
12635	4.7873	1.6364	5.e-002	-1.4482e-005
12636	4.7873	1.3636	0.	-272.68
12637	4.6952	1.4545	0.	-300.8
12638	4.7873	1.4545	5.e-002	-2.2011e-005
12639	4.7873	1.1818	0.	-240.24
12640	4.6952	1.2727	0.	-268.06
12641	4.7873	1.2727	5.e-002	-3.1486e-005
12642	4.7873	1.	0.	-205.76
12643	4.6952	1.0909	0.	-233.01
12644	4.7873	1.0909	5.e-002	-4.2043e-005
12645	4.7873	0.81818	0.	-169.59
12646	4.6952	0.90909	0.	-196.03
12647	4.7873	0.90909	5.e-002	-3.6917e-005
12648	4.7873	0.63636	0.	-132.06
12649	4.6952	0.72727	0.	-157.45
12650	4.7873	0.72727	5.e-002	-3.668e-005
12651	4.7873	0.45455	0.	-93.433
12652	4.6952	0.54545	0.	-117.65
12653	4.7873	0.54545	5.e-002	-5.0583e-005
12654	4.7873	0.27273	0.	-53.881
12655	4.6952	0.36364	0.	-76.836
12656	4.7873	0.36364	5.e-002	-5.0428e-005
12657	4.6952	0.18182	0.	-35.169
12658	4.7873	0.18182	5.e-002	-2.1463e-005
12659	4.7873	9.0909e-002	0.	-18.103
12660	4.6032	5.7273	0.	-58.006
12661	4.5111	5.8182	0.	-37.54
12662	4.6032	5.8182	5.e-002	2.2841e-005
12663	4.6032	5.9091	0.	-19.342
12664	4.6032	5.5455	0.	-101.01
12665	4.5111	5.6364	0.	-82.832
12666	4.6032	5.6364	5.e-002	1.7173e-005
12667	4.6032	5.3636	0.	-143.01
12668	4.5111	5.4545	0.	-127.18
12669	4.6032	5.4545	5.e-002	4.5265e-005
12670	4.6032	5.1818	0.	-183.85
12671	4.5111	5.2727	0.	-170.48
12672	4.6032	5.2727	5.e-002	3.0557e-005
12673	4.6032	5.	0.	-223.24
12674	4.5111	5.0909	0.	-212.46
12675	4.6032	5.0909	5.e-002	2.8464e-005
12676	4.6032	4.8182	0.	-260.8
12677	4.5111	4.9091	0.	-252.74
12678	4.6032	4.9091	5.e-002	6.4006e-006
12679	4.6032	4.6364	0.	-296.16
12680	4.5111	4.7273	0.	-290.93
12681	4.6032	4.7273	5.e-002	2.6093e-005
12682	4.6032	4.4545	0.	-328.94
12683	4.5111	4.5455	0.	-326.63
12684	4.6032	4.5455	5.e-002	2.431e-005
12685	4.6032	4.2727	0.	-358.81
12686	4.5111	4.3636	0.	-359.46
12687	4.6032	4.3636	5.e-002	2.7395e-005
12688	4.6032	4.0909	0.	-385.43
12689	4.5111	4.1818	0.	-389.06
12690	4.6032	4.1818	5.e-002	2.3719e-005
12691	4.6032	3.9091	0.	-408.5
12692	4.5111	4.	0.	-415.1
12693	4.6032	4.	5.e-002	7.4044e-006
12694	4.6032	3.7273	0.	-427.76
12695	4.5111	3.8182	0.	-437.29
12696	4.6032	3.8182	5.e-002	8.9289e-006
12697	4.6032	3.5455	0.	-442.98
12698	4.5111	3.6364	0.	-455.36
12699	4.6032	3.6364	5.e-002	7.2898e-006
12700	4.6032	3.3636	0.	-453.98
12701	4.5111	3.4545	0.	-469.1
12702	4.6032	3.4545	5.e-002	1.1609e-005
12703	4.6032	3.1818	0.	-460.64
12704	4.5111	3.2727	0.	-478.35
12705	4.6032	3.2727	5.e-002	2.4869e-006
12706	4.6032	3.	0.	-462.86
12707	4.5111	3.0909	0.	-483.01
12708	4.6032	3.0909	5.e-002	8.3753e-007
12709	4.6032	2.8182	0.	-460.64
12710	4.5111	2.9091	0.	-483.01
12711	4.6032	2.9091	5.e-002	-8.7362e-007
12712	4.6032	2.6364	0.	-453.98
12713	4.5111	2.7273	0.	-478.35
12714	4.6032	2.7273	5.e-002	5.1022e-006
12715	4.6032	2.4545	0.	-442.98
12716	4.5111	2.5455	0.	-469.1
12717	4.6032	2.5455	5.e-002	-4.7408e-006
12718	4.6032	2.2727	0.	-427.76
12719	4.5111	2.3636	0.	-455.36
12720	4.6032	2.3636	5.e-002	-4.9454e-006
12721	4.6032	2.0909	0.	-408.5
12722	4.5111	2.1818	0.	-437.29
12723	4.6032	2.1818	5.e-002	-1.4676e-005
12724	4.6032	1.9091	0.	-385.43
12725	4.5111	2.	0.	-415.1
12726	4.6032	2.	5.e-002	-1.1238e-005
12727	4.6032	1.7273	0.	-358.81
12728	4.5111	1.8182	0.	-389.06
12729	4.6032	1.8182	5.e-002	-2.3719e-005
12730	4.6032	1.5455	0.	-328.94
12731	4.5111	1.6364	0.	-359.46
12732	4.6032	1.6364	5.e-002	-3.3799e-005
12733	4.6032	1.3636	0.	-296.16
12734	4.5111	1.4545	0.	-326.63
12735	4.6032	1.4545	5.e-002	-2.431e-005
12736	4.6032	1.1818	0.	-260.8
12737	4.5111	1.2727	0.	-290.93
12738	4.6032	1.2727	5.e-002	-3.5083e-005
12739	4.6032	1.	0.	-223.24
12740	4.5111	1.0909	0.	-252.74
12741	4.6032	1.0909	5.e-002	-1.8008e-005
12742	4.6032	0.81818	0.	-183.85
12743	4.5111	0.90909	0.	-212.46
12744	4.6032	0.90909	5.e-002	-3.0684e-005
12745	4.6032	0.63636	0.	-143.01
12746	4.5111	0.72727	0.	-170.47
12747	4.6032	0.72727	5.e-002	-4.1255e-005
12748	4.6032	0.45455	0.	-101.01
12749	4.5111	0.54545	0.	-127.18
12750	4.6032	0.54545	5.e-002	-5.5259e-005
12751	4.6032	0.27273	0.	-58.006
12752	4.5111	0.36364	0.	-82.832
12753	4.6032	0.36364	5.e-002	-2.9706e-005
12754	4.5111	0.18182	0.	-37.54
12755	4.6032	0.18182	5.e-002	-4.1847e-005
12756	4.6032	9.0909e-002	0.	-19.342
12757	4.419	5.7273	0.	-62.226
12758	4.327	5.8182	0.	-39.849
12759	4.419	5.8182	5.e-002	3.3692e-005
12760	4.419	5.9091	0.	-20.529
12761	4.419	5.5455	0.	-108.96
12762	4.327	5.6364	0.	-89.065
12763	4.419	5.6364	5.e-002	4.771e-005
12764	4.419	5.3636	0.	-154.61
12765	4.327	5.4545	0.	-137.24
12766	4.419	5.4545	5.e-002	1.954e-005
12767	4.419	5.1818	0.	-199.04
12768	4.327	5.2727	0.	-184.31
12769	4.419	5.2727	5.e-002	2.0155e-005
12770	4.419	5.	0.	-241.92
12771	4.327	5.0909	0.	-230.
12772	4.419	5.0909	5.e-002	4.4348e-005
12773	4.419	4.8182	0.	-282.84
12774	4.327	4.9091	0.	-273.87
12775	4.419	4.9091	5.e-002	3.1959e-005
12776	4.419	4.6364	0.	-321.37
12777	4.327	4.7273	0.	-315.48
12778	4.419	4.7273	5.e-002	4.2199e-005
12779	4.419	4.4545	0.	-357.12
12780	4.327	4.5455	0.	-354.4
12781	4.419	4.5455	5.e-002	1.7415e-005
12782	4.419	4.2727	0.	-389.7
12783	4.327	4.3636	0.	-390.2
12784	4.419	4.3636	5.e-002	1.5891e-005
12785	4.419	4.0909	0.	-418.73
12786	4.327	4.1818	0.	-422.48
12787	4.419	4.1818	5.e-002	1.9911e-005
12788	4.419	3.9091	0.	-443.89
12789	4.327	4.	0.	-450.89
12790	4.419	4.	5.e-002	7.8479e-006
12791	4.419	3.7273	0.	-464.9
12792	4.327	3.8182	0.	-475.09
12793	4.419	3.8182	5.e-002	7.0505e-006
12794	4.419	3.5455	0.	-481.5
12795	4.327	3.6364	0.	-494.79
12796	4.419	3.6364	5.e-002	5.8003e-006
12797	4.419	3.3636	0.	-493.5
12798	4.327	3.4545	0.	-509.78
12799	4.419	3.4545	5.e-002	4.3513e-006
12800	4.419	3.1818	0.	-500.75
12801	4.327	3.2727	0.	-519.87
12802	4.419	3.2727	5.e-002	2.648e-006
12803	4.419	3.	0.	-503.18
12804	4.327	3.0909	0.	-524.94
12805	4.419	3.0909	5.e-002	8.5423e-007
12806	4.419	2.8182	0.	-500.75
12807	4.327	2.9091	0.	-524.94
12808	4.419	2.9091	5.e-002	-9.2996e-007
12809	4.419	2.6364	0.	-493.5
12810	4.327	2.7273	0.	-519.87
12811	4.419	2.7273	5.e-002	4.133e-007
12812	4.419	2.4545	0.	-481.5
12813	4.327	2.5455	0.	-509.78
12814	4.419	2.5455	5.e-002	-6.3447e-006
12815	4.419	2.2727	0.	-464.9
12816	4.327	2.3636	0.	-494.79
12817	4.419	2.3636	5.e-002	-1.1673e-005
12818	4.419	2.0909	0.	-443.89
12819	4.327	2.1818	0.	-475.09
12820	4.419	2.1818	5.e-002	-2.4228e-006
12821	4.419	1.9091	0.	-418.73
12822	4.327	2.	0.	-450.89
12823	4.419	2.	5.e-002	-1.6539e-005
12824	4.419	1.7273	0.	-389.7
12825	4.327	1.8182	0.	-422.48
12826	4.419	1.8182	5.e-002	-2.047e-005
12827	4.419	1.5455	0.	-357.12
12828	4.327	1.6364	0.	-390.2
12829	4.419	1.6364	5.e-002	-1.5891e-005
12830	4.419	1.3636	0.	-321.37
12831	4.327	1.4545	0.	-354.4
12832	4.419	1.4545	5.e-002	-3.488e-005
12833	4.419	1.1818	0.	-282.84
12834	4.327	1.2727	0.	-315.48
12835	4.419	1.2727	5.e-002	-3.902e-005
12836	4.419	1.	0.	-241.92
12837	4.327	1.0909	0.	-273.87
12838	4.419	1.0909	5.e-002	-5.4966e-005
12839	4.419	0.81818	0.	-199.04
12840	4.327	0.90909	0.	-230.
12841	4.419	0.90909	5.e-002	-4.4348e-005
12842	4.419	0.63636	0.	-154.61
12843	4.327	0.72727	0.	-184.31
12844	4.419	0.72727	5.e-002	-3.2454e-005
12845	4.419	0.45455	0.	-108.96
12846	4.327	0.54545	0.	-137.24
12847	4.419	0.54545	5.e-002	-3.4193e-005
12848	4.419	0.27273	0.	-62.226
12849	4.327	0.36364	0.	-89.065
12850	4.419	0.36364	5.e-002	-6.2523e-005
12851	4.327	0.18182	0.	-39.849
12852	4.419	0.18182	5.e-002	-4.2147e-005
12853	4.419	9.0909e-002	0.	-20.529
12854	4.2349	5.7273	0.	-66.522
12855	4.1429	5.8182	0.	-42.062
12856	4.2349	5.8182	5.e-002	4.6299e-005
12857	4.2349	5.9091	0.	-21.643
12858	4.2349	5.5455	0.	-117.29
12859	4.1429	5.6364	0.	-95.529
12860	4.2349	5.6364	5.e-002	5.4462e-005
12861	4.2349	5.3636	0.	-166.89
12862	4.1429	5.4545	0.	-147.84
12863	4.2349	5.4545	5.e-002	5.6029e-005
12864	4.2349	5.1818	0.	-215.22
12865	4.1429	5.2727	0.	-199.
12866	4.2349	5.2727	5.e-002	5.3047e-005
12867	4.2349	5.	0.	-261.9
12868	4.1429	5.0909	0.	-248.72
12869	4.2349	5.0909	5.e-002	4.9365e-005
12870	4.2349	4.8182	0.	-306.47
12871	4.1429	4.9091	0.	-296.5
12872	4.2349	4.9091	5.e-002	2.2311e-005
12873	4.2349	4.6364	0.	-348.47
12874	4.1429	4.7273	0.	-341.84
12875	4.2349	4.7273	5.e-002	2.0395e-005
12876	4.2349	4.4545	0.	-387.45
12877	4.1429	4.5455	0.	-384.27
12878	4.2349	4.5455	5.e-002	2.8127e-005
12879	4.2349	4.2727	0.	-422.97
12880	4.1429	4.3636	0.	-423.31
12881	4.2349	4.3636	5.e-002	1.7289e-005
12882	4.2349	4.0909	0.	-454.64
12883	4.1429	4.1818	0.	-458.52
12884	4.2349	4.1818	5.e-002	1.4768e-005
12885	4.2349	3.9091	0.	-482.09
12886	4.1429	4.	0.	-489.5
12887	4.2349	4.	5.e-002	1.3215e-005
12888	4.2349	3.7273	0.	-505.
12889	4.1429	3.8182	0.	-515.89
12890	4.2349	3.8182	5.e-002	7.0324e-006
12891	4.2349	3.5455	0.	-523.1
12892	4.1429	3.6364	0.	-537.38
12893	4.2349	3.6364	5.e-002	6.3318e-006
12894	4.2349	3.3636	0.	-536.19
12895	4.1429	3.4545	0.	-553.72
12896	4.2349	3.4545	5.e-002	4.4948e-006
12897	4.2349	3.1818	0.	-544.1
12898	4.1429	3.2727	0.	-564.72
12899	4.2349	3.2727	5.e-002	2.8547e-006
12900	4.2349	3.	0.	-546.75
12901	4.1429	3.0909	0.	-570.25
12902	4.2349	3.0909	5.e-002	8.5692e-006
12903	4.2349	2.8182	0.	-544.1
12904	4.1429	2.9091	0.	-570.25
12905	4.2349	2.9091	5.e-002	6.6583e-006
12906	4.2349	2.6364	0.	-536.19
12907	4.1429	2.7273	0.	-564.72
12908	4.2349	2.7273	5.e-002	-4.0554e-006
12909	4.2349	2.4545	0.	-523.1
12910	4.1429	2.5455	0.	-553.72
12911	4.2349	2.5455	5.e-002	-4.6232e-006
12912	4.2349	2.2727	0.	-505.
12913	4.1429	2.3636	0.	-537.38
12914	4.2349	2.3636	5.e-002	-5.9801e-006
12915	4.2349	2.0909	0.	-482.09
12916	4.1429	2.1818	0.	-515.89
12917	4.2349	2.1818	5.e-002	-1.1785e-005
12918	4.2349	1.9091	0.	-454.64
12919	4.1429	2.	0.	-489.5
12920	4.2349	2.	5.e-002	-1.3215e-005
12921	4.2349	1.7273	0.	-422.97
12922	4.1429	1.8182	0.	-458.52
12923	4.2349	1.8182	5.e-002	-2.2466e-005
12924	4.2349	1.5455	0.	-387.45
12925	4.1429	1.6364	0.	-423.31
12926	4.2349	1.6364	5.e-002	-2.4177e-005
12927	4.2349	1.3636	0.	-348.47
12928	4.1429	1.4545	0.	-384.27
12929	4.2349	1.4545	5.e-002	-4.6037e-005
12930	4.2349	1.1818	0.	-306.47
12931	4.1429	1.2727	0.	-341.84
12932	4.2349	1.2727	5.e-002	-3.3341e-005
12933	4.2349	1.	0.	-261.9
12934	4.1429	1.0909	0.	-296.5
12935	4.2349	1.0909	5.e-002	-4.3651e-005
12936	4.2349	0.81818	0.	-215.22
12937	4.1429	0.90909	0.	-248.72
12938	4.2349	0.90909	5.e-002	-4.952e-005
12939	4.2349	0.63636	0.	-166.89
12940	4.1429	0.72727	0.	-199.
12941	4.2349	0.72727	5.e-002	-6.8516e-005
12942	4.2349	0.45455	0.	-117.29
12943	4.1429	0.54545	0.	-147.84
12944	4.2349	0.54545	5.e-002	-6.7673e-005
12945	4.2349	0.27273	0.	-66.522
12946	4.1429	0.36364	0.	-95.529
12947	4.2349	0.36364	5.e-002	-6.5147e-005
12948	4.1429	0.18182	0.	-42.062
12949	4.2349	0.18182	5.e-002	-4.264e-005
12950	4.2349	9.0909e-002	0.	-21.643
12951	4.0508	5.7273	0.	-70.873
12952	3.9587	5.8182	0.	-44.137
12953	4.0508	5.8182	5.e-002	4.3543e-005
12954	4.0508	5.9091	0.	-22.655
12955	4.0508	5.5455	0.	-126.01
12956	3.9587	5.6364	0.	-102.22
12957	4.0508	5.6364	5.e-002	5.6437e-005
12958	4.0508	5.3636	0.	-179.89
12959	3.9587	5.4545	0.	-159.01
12960	4.0508	5.4545	5.e-002	8.0355e-005
12961	4.0508	5.1818	0.	-232.45
12962	3.9587	5.2727	0.	-214.62
12963	4.0508	5.2727	5.e-002	4.1507e-005
12964	4.0508	5.	0.	-283.27
12965	3.9587	5.0909	0.	-268.72
12966	4.0508	5.0909	5.e-002	7.0835e-005
12967	4.0508	4.8182	0.	-331.82
12968	3.9587	4.9091	0.	-320.75
12969	4.0508	4.9091	5.e-002	3.7201e-005
12970	4.0508	4.6364	0.	-377.6
12971	3.9587	4.7273	0.	-370.17
12972	4.0508	4.7273	5.e-002	3.353e-005
12973	4.0508	4.4545	0.	-420.1
12974	3.9587	4.5455	0.	-416.42
12975	4.0508	4.5455	5.e-002	3.0987e-005
12976	4.0508	4.2727	0.	-458.85
12977	3.9587	4.3636	0.	-458.99
12978	4.0508	4.3636	5.e-002	2.7993e-005
12979	4.0508	4.0909	0.	-493.38
12980	3.9587	4.1818	0.	-497.39
12981	4.0508	4.1818	5.e-002	1.7271e-005
12982	4.0508	3.9091	0.	-523.31
12983	3.9587	4.	0.	-531.16
12984	4.0508	4.	5.e-002	2.0381e-005
12985	4.0508	3.7273	0.	-548.29
12986	3.9587	3.8182	0.	-559.92
12987	4.0508	3.8182	5.e-002	7.9017e-006
12988	4.0508	3.5455	0.	-568.03
12989	3.9587	3.6364	0.	-583.34
12990	4.0508	3.6364	5.e-002	6.7064e-006
12991	4.0508	3.3636	0.	-582.29
12992	3.9587	3.4545	0.	-601.15
12993	4.0508	3.4545	5.e-002	4.9023e-006
12994	4.0508	3.1818	0.	-590.91
12995	3.9587	3.2727	0.	-613.13
12996	4.0508	3.2727	5.e-002	2.9878e-006
12997	4.0508	3.	0.	-593.8
12998	3.9587	3.0909	0.	-619.16
12999	4.0508	3.0909	5.e-002	9.586e-007
13000	4.0508	2.8182	0.	-590.91
13001	3.9587	2.9091	0.	-619.16
13002	4.0508	2.9091	5.e-002	-1.0631e-006
13003	4.0508	2.6364	0.	-582.29
13004	3.9587	2.7273	0.	-613.13
13005	4.0508	2.7273	5.e-002	-3.4536e-006
13006	4.0508	2.4545	0.	-568.03
13007	3.9587	2.5455	0.	-601.15
13008	4.0508	2.5455	5.e-002	-4.9023e-006
13009	4.0508	2.2727	0.	-548.29
13010	3.9587	2.3636	0.	-583.34
13011	4.0508	2.3636	5.e-002	-5.9612e-006
13012	4.0508	2.0909	0.	-523.31
13013	3.9587	2.1818	0.	-559.92
13014	4.0508	2.1818	5.e-002	-1.5177e-005
13015	4.0508	1.9091	0.	-493.38
13016	3.9587	2.	0.	-531.16
13017	4.0508	2.	5.e-002	-1.9833e-005
13018	4.0508	1.7273	0.	-458.85
13019	3.9587	1.8182	0.	-497.39
13020	4.0508	1.8182	5.e-002	-2.0016e-005
13021	4.0508	1.5455	0.	-420.1
13022	3.9587	1.6364	0.	-458.99
13023	4.0508	1.6364	5.e-002	-3.5844e-005
13024	4.0508	1.3636	0.	-377.6
13025	3.9587	1.4545	0.	-416.42
13026	4.0508	1.4545	5.e-002	-5.1499e-005
13027	4.0508	1.1818	0.	-331.82
13028	3.9587	1.2727	0.	-370.17
13029	4.0508	1.2727	5.e-002	-4.6506e-005
13030	4.0508	1.	0.	-283.27
13031	3.9587	1.0909	0.	-320.75
13032	4.0508	1.0909	5.e-002	-5.3364e-005
13033	4.0508	0.81818	0.	-232.45
13034	3.9587	0.90909	0.	-268.72
13035	4.0508	0.90909	5.e-002	-7.0835e-005
13036	4.0508	0.63636	0.	-179.89
13037	3.9587	0.72727	0.	-214.62
13038	4.0508	0.72727	5.e-002	-5.7455e-005
13039	4.0508	0.45455	0.	-126.01
13040	3.9587	0.54545	0.	-159.01
13041	4.0508	0.54545	5.e-002	-7.6857e-005
13042	4.0508	0.27273	0.	-70.873
13043	3.9587	0.36364	0.	-102.22
13044	4.0508	0.36364	5.e-002	-7.7491e-005
13045	3.9587	0.18182	0.	-44.137
13046	4.0508	0.18182	5.e-002	-4.3149e-005
13047	4.0508	9.0909e-002	0.	-22.655
13048	3.8667	5.7273	0.	-75.249
13049	3.7746	5.8182	0.	-46.024
13050	3.8667	5.8182	5.e-002	3.3432e-005
13051	3.8667	5.9091	0.	-23.533
13052	3.8667	5.5455	0.	-135.13
13053	3.7746	5.6364	0.	-109.12
13054	3.8667	5.6364	5.e-002	4.385e-005
13055	3.8667	5.3636	0.	-193.66
13056	3.7746	5.4545	0.	-170.77
13057	3.8667	5.4545	5.e-002	8.6543e-005
13058	3.8667	5.1818	0.	-250.82
13059	3.7746	5.2727	0.	-231.22
13060	3.8667	5.2727	5.e-002	4.5734e-005
13061	3.8667	5.	0.	-306.14
13062	3.7746	5.0909	0.	-290.09
13063	3.8667	5.0909	5.e-002	6.0686e-005
13064	3.8667	4.8182	0.	-359.04
13065	3.7746	4.9091	0.	-346.77
13066	3.8667	4.9091	5.e-002	2.6386e-005
13067	3.8667	4.6364	0.	-408.94
13068	3.7746	4.7273	0.	-400.62
13069	3.8667	4.7273	5.e-002	8.102e-006
13070	3.8667	4.4545	0.	-455.28
13071	3.7746	4.5455	0.	-451.05
13072	3.8667	4.5455	5.e-002	3.5595e-005
13073	3.8667	4.2727	0.	-497.52
13074	3.7746	4.3636	0.	-497.46
13075	3.8667	4.3636	5.e-002	2.1782e-005
13076	3.8667	4.0909	0.	-535.17
13077	3.7746	4.1818	0.	-539.3
13078	3.8667	4.1818	5.e-002	1.0427e-005
13079	3.8667	3.9091	0.	-567.79
13080	3.7746	4.	0.	-576.11
13081	3.8667	4.	5.e-002	1.5436e-005
13082	3.8667	3.7273	0.	-595.01
13083	3.7746	3.8182	0.	-607.44
13084	3.8667	3.8182	5.e-002	8.3352e-006
13085	3.8667	3.5455	0.	-616.51
13086	3.7746	3.6364	0.	-632.94
13087	3.8667	3.6364	5.e-002	7.0853e-006
13088	3.8667	3.3636	0.	-632.04
13089	3.7746	3.4545	0.	-652.31
13090	3.8667	3.4545	5.e-002	5.1853e-006
13091	3.8667	3.1818	0.	-641.43
13092	3.7746	3.2727	0.	-665.35
13093	3.8667	3.2727	5.e-002	3.2505e-006
13094	3.8667	3.	0.	-644.58
13095	3.7746	3.0909	0.	-671.91
13096	3.8667	3.0909	5.e-002	1.0192e-006
13097	3.8667	2.8182	0.	-641.43
13098	3.7746	2.9091	0.	-671.91
13099	3.8667	2.9091	5.e-002	-1.1363e-006
13100	3.8667	2.6364	0.	-632.04
13101	3.7746	2.7273	0.	-665.35
13102	3.8667	2.7273	5.e-002	-4.2075e-006
13103	3.8667	2.4545	0.	-616.51
13104	3.7746	2.5455	0.	-652.31
13105	3.8667	2.5455	5.e-002	-6.6108e-006
13106	3.8667	2.2727	0.	-595.01
13107	3.7746	2.3636	0.	-632.94
13108	3.8667	2.3636	5.e-002	-7.0853e-006
13109	3.8667	2.0909	0.	-567.79
13110	3.7746	2.1818	0.	-607.44
13111	3.8667	2.1818	5.e-002	-1.751e-005
13112	3.8667	1.9091	0.	-535.17
13113	3.7746	2.	0.	-576.11
13114	3.8667	2.	5.e-002	-2.7856e-005
13115	3.8667	1.7273	0.	-497.52
13116	3.7746	1.8182	0.	-539.3
13117	3.8667	1.8182	5.e-002	-1.8665e-005
13118	3.8667	1.5455	0.	-455.28
13119	3.7746	1.6364	0.	-497.45
13120	3.8667	1.6364	5.e-002	-3.2118e-005
13121	3.8667	1.3636	0.	-408.94
13122	3.7746	1.4545	0.	-451.05
13123	3.8667	1.4545	5.e-002	-4.9552e-005
13124	3.8667	1.1818	0.	-359.04
13125	3.7746	1.2727	0.	-400.62
13126	3.8667	1.2727	5.e-002	-3.8561e-005
13127	3.8667	1.	0.	-306.14
13128	3.7746	1.0909	0.	-346.77
13129	3.8667	1.0909	5.e-002	-4.2652e-005
13130	3.8667	0.81818	0.	-250.82
13131	3.7746	0.90909	0.	-290.09
13132	3.8667	0.90909	5.e-002	-6.0686e-005
13133	3.8667	0.63636	0.	-193.66
13134	3.7746	0.72727	0.	-231.22
13135	3.8667	0.72727	5.e-002	-6.5052e-005
13136	3.8667	0.45455	0.	-135.13
13137	3.7746	0.54545	0.	-170.77
13138	3.8667	0.54545	5.e-002	-8.5804e-005
13139	3.8667	0.27273	0.	-75.249
13140	3.7746	0.36364	0.	-109.12
13141	3.8667	0.36364	5.e-002	-8.5907e-005
13142	3.7746	0.18182	0.	-46.024
13143	3.8667	0.18182	5.e-002	-3.159e-005
13144	3.8667	9.0909e-002	0.	-23.533
13145	3.6825	5.7273	0.	-79.618
13146	3.5905	5.8182	0.	-47.667
13147	3.6825	5.8182	5.e-002	4.5105e-005
13148	3.6825	5.9091	0.	-24.239
13149	3.6825	5.5455	0.	-144.66
13150	3.5905	5.6364	0.	-116.22
13151	3.6825	5.6364	5.e-002	7.0201e-005
13152	3.6825	5.3636	0.	-208.24
13153	3.5905	5.4545	0.	-183.15
13154	3.6825	5.4545	5.e-002	4.9022e-005
13155	3.6825	5.1818	0.	-270.41
13156	3.5905	5.2727	0.	-248.87
13157	3.6825	5.2727	5.e-002	7.1763e-005
13158	3.6825	5.	0.	-330.65
13159	3.5905	5.0909	0.	-312.96
13160	3.6825	5.0909	5.e-002	4.886e-005
13161	3.6825	4.8182	0.	-388.29
13162	3.5905	4.9091	0.	-374.71
13163	3.6825	4.9091	5.e-002	4.3257e-005
13164	3.6825	4.6364	0.	-442.68
13165	3.5905	4.7273	0.	-433.41
13166	3.6825	4.7273	5.e-002	2.6181e-005
13167	3.6825	4.4545	0.	-493.19
13168	3.5905	4.5455	0.	-488.37
13169	3.6825	4.5455	5.e-002	5.2808e-005
13170	3.6825	4.2727	0.	-539.23
13171	3.5905	4.3636	0.	-538.94
13172	3.6825	4.3636	5.e-002	1.1952e-005
13173	3.6825	4.0909	0.	-580.25
13174	3.5905	4.1818	0.	-584.53
13175	3.6825	4.1818	5.e-002	2.0121e-005
13176	3.6825	3.9091	0.	-615.78
13177	3.5905	4.	0.	-624.6
13178	3.6825	4.	5.e-002	9.6846e-006
13179	3.6825	3.7273	0.	-645.41
13180	3.5905	3.8182	0.	-658.69
13181	3.6825	3.8182	5.e-002	1.3613e-005
13182	3.6825	3.5455	0.	-668.8
13183	3.5905	3.6364	0.	-686.41
13184	3.6825	3.6364	5.e-002	7.4634e-006
13185	3.6825	3.3636	0.	-685.7
13186	3.5905	3.4545	0.	-707.47
13187	3.6825	3.4545	5.e-002	4.8604e-006
13188	3.6825	3.1818	0.	-695.91
13189	3.5905	3.2727	0.	-721.63
13190	3.6825	3.2727	5.e-002	3.4301e-006
13191	3.6825	3.	0.	-699.32
13192	3.5905	3.0909	0.	-728.75
13193	3.6825	3.0909	5.e-002	1.1533e-006
13194	3.6825	2.8182	0.	-695.91
13195	3.5905	2.9091	0.	-728.75
13196	3.6825	2.9091	5.e-002	-1.203e-006
13197	3.6825	2.6364	0.	-685.7
13198	3.5905	2.7273	0.	-721.63
13199	3.6825	2.7273	5.e-002	-4.0124e-006
13200	3.6825	2.4545	0.	-668.8
13201	3.5905	2.5455	0.	-707.47
13202	3.6825	2.5455	5.e-002	-7.3613e-006
13203	3.6825	2.2727	0.	-645.41
13204	3.5905	2.3636	0.	-686.41
13205	3.6825	2.3636	5.e-002	-1.0499e-005
13206	3.6825	2.0909	0.	-615.78
13207	3.5905	2.1818	0.	-658.69
13208	3.6825	2.1818	5.e-002	-1.3613e-005
13209	3.6825	1.9091	0.	-580.25
13210	3.5905	2.	0.	-624.6
13211	3.6825	2.	5.e-002	-2.3554e-005
13212	3.6825	1.7273	0.	-539.23
13213	3.5905	1.8182	0.	-584.53
13214	3.6825	1.8182	5.e-002	-2.9322e-005
13215	3.6825	1.5455	0.	-493.19
13216	3.5905	1.6364	0.	-538.94
13217	3.6825	1.6364	5.e-002	-2.2004e-005
13218	3.6825	1.3636	0.	-442.68
13219	3.5905	1.4545	0.	-488.37
13220	3.6825	1.4545	5.e-002	-5.2808e-005
13221	3.6825	1.1818	0.	-388.29
13222	3.5905	1.2727	0.	-433.41
13223	3.6825	1.2727	5.e-002	-2.6181e-005
13224	3.6825	1.	0.	-330.65
13225	3.5905	1.0909	0.	-374.71
13226	3.6825	1.0909	5.e-002	-7.9541e-005
13227	3.6825	0.81818	0.	-270.41
13228	3.5905	0.90909	0.	-312.96
13229	3.6825	0.90909	5.e-002	-8.6982e-005
13230	3.6825	0.63636	0.	-208.24
13231	3.5905	0.72727	0.	-248.87
13232	3.6825	0.72727	5.e-002	-9.3255e-005
13233	3.6825	0.45455	0.	-144.66
13234	3.5905	0.54545	0.	-183.15
13235	3.6825	0.54545	5.e-002	-9.4358e-005
13236	3.6825	0.27273	0.	-79.618
13237	3.5905	0.36364	0.	-116.22
13238	3.6825	0.36364	5.e-002	-9.2378e-005
13239	3.5905	0.18182	0.	-47.667
13240	3.6825	0.18182	5.e-002	-4.4712e-005
13241	3.6825	9.0909e-002	0.	-24.239
13242	3.4984	5.7273	0.	-83.939
13243	3.4063	5.8182	0.	-49.
13244	3.4984	5.8182	5.e-002	4.5821e-005
13245	3.4984	5.9091	0.	-24.727
13246	3.4984	5.5455	0.	-154.6
13247	3.4063	5.6364	0.	-123.51
13248	3.4984	5.6364	5.e-002	8.4359e-005
13249	3.4984	5.3636	0.	-223.69
13250	3.4063	5.4545	0.	-196.2
13251	3.4984	5.4545	5.e-002	2.8854e-005
13252	3.4984	5.1818	0.	-291.34
13253	3.4063	5.2727	0.	-267.68
13254	3.4984	5.2727	5.e-002	2.7566e-005
13255	3.4984	5.	0.	-356.94
13256	3.4063	5.0909	0.	-337.47
13257	3.4984	5.0909	5.e-002	5.5341e-005
13258	3.4984	4.8182	0.	-419.76
13259	3.4063	4.9091	0.	-404.76
13260	3.4984	4.9091	5.e-002	6.9478e-005
13261	3.4984	4.6364	0.	-479.04
13262	3.4063	4.7273	0.	-468.74
13263	3.4984	4.7273	5.e-002	2.6586e-005
13264	3.4984	4.4545	0.	-534.09
13265	3.4063	4.5455	0.	-528.63
13266	3.4984	4.5455	5.e-002	4.081e-005
13267	3.4984	4.2727	0.	-584.24
13268	3.4063	4.3636	0.	-583.72
13269	3.4984	4.3636	5.e-002	2.5277e-005
13270	3.4984	4.0909	0.	-628.89
13271	3.4063	4.1818	0.	-633.34
13272	3.4984	4.1818	5.e-002	2.1623e-005
13273	3.4984	3.9091	0.	-667.54
13274	3.4063	4.	0.	-676.9
13275	3.4984	4.	5.e-002	1.0133e-005
13276	3.4984	3.7273	0.	-699.75
13277	3.4063	3.8182	0.	-713.94
13278	3.4984	3.8182	5.e-002	1.4025e-005
13279	3.4984	3.5455	0.	-725.15
13280	3.4063	3.6364	0.	-744.02
13281	3.4984	3.6364	5.e-002	7.3991e-006
13282	3.4984	3.3636	0.	-743.49
13283	3.4063	3.4545	0.	-766.86
13284	3.4984	3.4545	5.e-002	5.426e-006
13285	3.4984	3.1818	0.	-754.57
13286	3.4063	3.2727	0.	-782.21
13287	3.4984	3.2727	5.e-002	3.6061e-006
13288	3.4984	3.	0.	-758.28
13289	3.4063	3.0909	0.	-789.92
13290	3.4984	3.0909	5.e-002	1.2128e-006
13291	3.4984	2.8182	0.	-754.57
13292	3.4063	2.9091	0.	-789.92
13293	3.4984	2.9091	5.e-002	-1.1964e-006
13294	3.4984	2.6364	0.	-743.49
13295	3.4063	2.7273	0.	-782.21
13296	3.4984	2.7273	5.e-002	-3.6061e-006
13297	3.4984	2.4545	0.	-725.15
13298	3.4063	2.5455	0.	-766.86
13299	3.4984	2.5455	5.e-002	-9.2649e-006
13300	3.4984	2.2727	0.	-699.75
13301	3.4063	2.3636	0.	-744.02
13302	3.4984	2.3636	5.e-002	-1.4126e-005
13303	3.4984	2.0909	0.	-667.54
13304	3.4063	2.1818	0.	-713.94
13305	3.4984	2.1818	5.e-002	-1.9402e-005
13306	3.4984	1.9091	0.	-628.89
13307	3.4063	2.	0.	-676.9
13308	3.4984	2.	5.e-002	-4.0933e-005
13309	3.4984	1.7273	0.	-584.24
13310	3.4063	1.8182	0.	-633.34
13311	3.4984	1.8182	5.e-002	-4.2074e-005
13312	3.4984	1.5455	0.	-534.09
13313	3.4063	1.6364	0.	-583.72
13314	3.4984	1.6364	5.e-002	-3.6562e-005
13315	3.4984	1.3636	0.	-479.04
13316	3.4063	1.4545	0.	-528.63
13317	3.4984	1.4545	5.e-002	-5.9557e-005
13318	3.4984	1.1818	0.	-419.76
13319	3.4063	1.2727	0.	-468.74
13320	3.4984	1.2727	5.e-002	-6.0653e-005
13321	3.4984	1.	0.	-356.94
13322	3.4063	1.0909	0.	-404.76
13323	3.4984	1.0909	5.e-002	-8.9646e-005
13324	3.4984	0.81818	0.	-291.34
13325	3.4063	0.90909	0.	-337.47
13326	3.4984	0.90909	5.e-002	-9.9675e-005
13327	3.4984	0.63636	0.	-223.69
13328	3.4063	0.72727	0.	-267.68
13329	3.4984	0.72727	5.e-002	-9.9098e-005
13330	3.4984	0.45455	0.	-154.6
13331	3.4063	0.54545	0.	-196.2
13332	3.4984	0.54545	5.e-002	-8.6563e-005
13333	3.4984	0.27273	0.	-83.939
13334	3.4063	0.36364	0.	-123.51
13335	3.4984	0.36364	5.e-002	-1.0127e-004
13336	3.4063	0.18182	0.	-49.
13337	3.4984	0.18182	5.e-002	-4.3573e-005
13338	3.4984	9.0909e-002	0.	-24.727
13339	3.3143	5.7273	0.	-88.17
13340	3.2222	5.8182	0.	-49.951
13341	3.3143	5.8182	5.e-002	4.4804e-005
13342	3.3143	5.9091	0.	-24.946
13343	3.3143	5.5455	0.	-164.98
13344	3.2222	5.6364	0.	-130.97
13345	3.3143	5.6364	5.e-002	8.0304e-005
13346	3.3143	5.3636	0.	-240.08
13347	3.2222	5.4545	0.	-209.95
13348	3.3143	5.4545	5.e-002	8.3185e-005
13349	3.3143	5.1818	0.	-313.71
13350	3.2222	5.2727	0.	-287.74
13351	3.3143	5.2727	5.e-002	6.4107e-005
13352	3.3143	5.	0.	-385.2
13353	3.2222	5.0909	0.	-363.78
13354	3.3143	5.0909	5.e-002	3.5775e-005
13355	3.3143	4.8182	0.	-453.66
13356	3.2222	4.9091	0.	-437.14
13357	3.3143	4.9091	5.e-002	7.8072e-005
13358	3.3143	4.6364	0.	-518.28
13359	3.2222	4.7273	0.	-506.88
13360	3.3143	4.7273	5.e-002	5.0394e-005
13361	3.3143	4.4545	0.	-578.24
13362	3.2222	4.5455	0.	-572.13
13363	3.3143	4.5455	5.e-002	2.9081e-005
13364	3.3143	4.2727	0.	-632.82
13365	3.2222	4.3636	0.	-632.09
13366	3.3143	4.3636	5.e-002	1.1285e-005
13367	3.3143	4.0909	0.	-681.38
13368	3.2222	4.1818	0.	-686.03
13369	3.3143	4.1818	5.e-002	5.6365e-006
13370	3.3143	3.9091	0.	-723.35
13371	3.2222	4.	0.	-733.32
13372	3.3143	4.	5.e-002	1.9059e-005
13373	3.3143	3.7273	0.	-758.29
13374	3.2222	3.8182	0.	-773.46
13375	3.3143	3.8182	5.e-002	9.0323e-006
13376	3.3143	3.5455	0.	-785.82
13377	3.2222	3.6364	0.	-806.04
13378	3.3143	3.6364	5.e-002	8.1909e-006
13379	3.3143	3.3636	0.	-805.68
13380	3.2222	3.4545	0.	-830.73
13381	3.3143	3.4545	5.e-002	6.6787e-006
13382	3.3143	3.1818	0.	-817.67
13383	3.2222	3.2727	0.	-847.31
13384	3.3143	3.2727	5.e-002	3.7743e-006
13385	3.3143	3.	0.	-821.68
13386	3.2222	3.0909	0.	-855.64
13387	3.3143	3.0909	5.e-002	1.2353e-006
13388	3.3143	2.8182	0.	-817.67
13389	3.2222	2.9091	0.	-855.64
13390	3.3143	2.9091	5.e-002	-1.2867e-006
13391	3.3143	2.6364	0.	-805.68
13392	3.2222	2.7273	0.	-847.31
13393	3.3143	2.7273	5.e-002	-3.6723e-006
13394	3.3143	2.4545	0.	-785.82
13395	3.2222	2.5455	0.	-830.73
13396	3.3143	2.5455	5.e-002	-9.541e-006
13397	3.3143	2.2727	0.	-758.29
13398	3.2222	2.3636	0.	-806.04
13399	3.3143	2.3636	5.e-002	-1.5587e-005
13400	3.3143	2.0909	0.	-723.35
13401	3.2222	2.1818	0.	-773.46
13402	3.3143	2.1818	5.e-002	-1.6082e-005
13403	3.3143	1.9091	0.	-681.38
13404	3.2222	2.	0.	-733.32
13405	3.3143	2.	5.e-002	-2.7554e-005
13406	3.3143	1.7273	0.	-632.82
13407	3.2222	1.8182	0.	-686.03
13408	3.3143	1.8182	5.e-002	-3.4453e-005
13409	3.3143	1.5455	0.	-578.24
13410	3.2222	1.6364	0.	-632.09
13411	3.3143	1.6364	5.e-002	-2.388e-005
13412	3.3143	1.3636	0.	-518.28
13413	3.2222	1.4545	0.	-572.13
13414	3.3143	1.4545	5.e-002	-5.9837e-005
13415	3.3143	1.1818	0.	-453.66
13416	3.2222	1.2727	0.	-506.88
13417	3.3143	1.2727	5.e-002	-8.6494e-005
13418	3.3143	1.	0.	-385.2
13419	3.2222	1.0909	0.	-437.14
13420	3.3143	1.0909	5.e-002	-9.6745e-005
13421	3.3143	0.81818	0.	-313.71
13422	3.2222	0.90909	0.	-363.78
13423	3.3143	0.90909	5.e-002	-1.0195e-004
13424	3.3143	0.63636	0.	-240.08
13425	3.2222	0.72727	0.	-287.74
13426	3.3143	0.72727	5.e-002	-5.6548e-005
13427	3.3143	0.45455	0.	-164.98
13428	3.2222	0.54545	0.	-209.95
13429	3.3143	0.54545	5.e-002	-8.8701e-005
13430	3.3143	0.27273	0.	-88.17
13431	3.2222	0.36364	0.	-130.97
13432	3.3143	0.36364	5.e-002	-1.0707e-004
13433	3.2222	0.18182	0.	-49.951
13434	3.3143	0.18182	5.e-002	-4.4804e-005
13435	3.3143	9.0909e-002	0.	-24.946
13436	3.1302	5.7273	0.	-92.26
13437	3.0381	5.8182	0.	-50.436
13438	3.1302	5.8182	5.e-002	4.8798e-005
13439	3.1302	5.9091	0.	-24.835
13440	3.1302	5.5455	0.	-175.8
13441	3.0381	5.6364	0.	-138.59
13442	3.1302	5.6364	5.e-002	9.9506e-005
13443	3.1302	5.3636	0.	-257.49
13444	3.0381	5.4545	0.	-224.47
13445	3.1302	5.4545	5.e-002	1.2989e-004
13446	3.1302	5.1818	0.	-337.7
13447	3.0381	5.2727	0.	-309.21
13448	3.1302	5.2727	5.e-002	1.203e-004
13449	3.1302	5.	0.	-415.63
13450	3.0381	5.0909	0.	-392.12
13451	3.1302	5.0909	5.e-002	8.5128e-005
13452	3.1302	4.8182	0.	-490.27
13453	3.0381	4.9091	0.	-472.12
13454	3.1302	4.9091	5.e-002	7.7782e-005
13455	3.1302	4.6364	0.	-560.69
13456	3.0381	4.7273	0.	-548.15
13457	3.1302	4.7273	5.e-002	5.353e-005
13458	3.1302	4.4545	0.	-625.96
13459	3.0381	4.5455	0.	-619.22
13460	3.1302	4.5455	5.e-002	2.9413e-005
13461	3.1302	4.2727	0.	-685.31
13462	3.0381	4.3636	0.	-684.41
13463	3.1302	4.3636	5.e-002	4.2923e-005
13464	3.1302	4.0909	0.	-738.01
13465	3.0381	4.1818	0.	-742.94
13466	3.1302	4.1818	5.e-002	1.2281e-005
13467	3.1302	3.9091	0.	-783.5
13468	3.0381	4.	0.	-794.17
13469	3.1302	4.	5.e-002	1.0969e-005
13470	3.1302	3.7273	0.	-821.31
13471	3.0381	3.8182	0.	-837.56
13472	3.1302	3.8182	5.e-002	9.3925e-006
13473	3.1302	3.5455	0.	-851.06
13474	3.0381	3.6364	0.	-872.71
13475	3.1302	3.6364	5.e-002	1.2553e-005
13476	3.1302	3.3636	0.	-872.49
13477	3.0381	3.4545	0.	-899.31
13478	3.1302	3.4545	5.e-002	6.6055e-006
13479	3.1302	3.1818	0.	-885.42
13480	3.0381	3.2727	0.	-917.15
13481	3.1302	3.2727	5.e-002	3.8238e-006
13482	3.1302	3.	0.	-889.74
13483	3.0381	3.0909	0.	-926.1
13484	3.1302	3.0909	5.e-002	1.322e-006
13485	3.1302	2.8182	0.	-885.42
13486	3.0381	2.9091	0.	-926.1
13487	3.1302	2.9091	5.e-002	-1.4077e-006
13488	3.1302	2.6364	0.	-872.49
13489	3.0381	2.7273	0.	-917.15
13490	3.1302	2.7273	5.e-002	-4.6967e-006
13491	3.1302	2.4545	0.	-851.06
13492	3.0381	2.5455	0.	-899.31
13493	3.1302	2.5455	5.e-002	-6.6056e-006
13494	3.1302	2.2727	0.	-821.31
13495	3.0381	2.3636	0.	-872.71
13496	3.1302	2.3636	5.e-002	-1.9663e-005
13497	3.1302	2.0909	0.	-783.5
13498	3.0381	2.1818	0.	-837.56
13499	3.1302	2.1818	5.e-002	-2.2326e-005
13500	3.1302	1.9091	0.	-738.01
13501	3.0381	2.	0.	-794.17
13502	3.1302	2.	5.e-002	-2.9575e-005
13503	3.1302	1.7273	0.	-685.31
13504	3.0381	1.8182	0.	-742.94
13505	3.1302	1.8182	5.e-002	-2.3153e-005
13506	3.1302	1.5455	0.	-625.96
13507	3.0381	1.6364	0.	-684.41
13508	3.1302	1.6364	5.e-002	-4.2923e-005
13509	3.1302	1.3636	0.	-560.69
13510	3.0381	1.4545	0.	-619.22
13511	3.1302	1.4545	5.e-002	-5.1777e-005
13512	3.1302	1.1818	0.	-490.27
13513	3.0381	1.2727	0.	-548.15
13514	3.1302	1.2727	5.e-002	-7.2997e-005
13515	3.1302	1.	0.	-415.63
13516	3.0381	1.0909	0.	-472.12
13517	3.1302	1.0909	5.e-002	-8.5271e-005
13518	3.1302	0.81818	0.	-337.7
13519	3.0381	0.90909	0.	-392.12
13520	3.1302	0.90909	5.e-002	-6.5597e-005
13521	3.1302	0.63636	0.	-257.49
13522	3.0381	0.72727	0.	-309.21
13523	3.1302	0.72727	5.e-002	-9.6801e-005
13524	3.1302	0.45455	0.	-175.8
13525	3.0381	0.54545	0.	-224.47
13526	3.1302	0.54545	5.e-002	-1.2608e-004
13527	3.1302	0.27273	0.	-92.26
13528	3.0381	0.36364	0.	-138.59
13529	3.1302	0.36364	5.e-002	-1.2124e-004
13530	3.0381	0.18182	0.	-50.436
13531	3.1302	0.18182	5.e-002	-4.5819e-005
13532	3.1302	9.0909e-002	0.	-24.835
13533	2.946	5.7273	0.	-96.158
13534	2.854	5.8182	0.	-50.365
13535	2.946	5.8182	5.e-002	3.5298e-005
13536	2.946	5.9091	0.	-24.326
13537	2.946	5.5455	0.	-187.1
13538	2.854	5.6364	0.	-146.36
13539	2.946	5.6364	5.e-002	3.6886e-005
13540	2.946	5.3636	0.	-276.05
13541	2.854	5.4545	0.	-239.87
13542	2.946	5.4545	5.e-002	1.0466e-004
13543	2.946	5.1818	0.	-363.51
13544	2.854	5.2727	0.	-332.27
13545	2.946	5.2727	5.e-002	1.038e-004
13546	2.946	5.	0.	-448.51
13547	2.854	5.0909	0.	-422.76
13548	2.946	5.0909	5.e-002	6.3512e-005
13549	2.946	4.8182	0.	-529.92
13550	2.854	4.9091	0.	-510.07
13551	2.946	4.9091	5.e-002	8.9047e-005
13552	2.946	4.6364	0.	-606.63
13553	2.854	4.7273	0.	-592.96
13554	2.946	4.7273	5.e-002	3.5242e-005
13555	2.946	4.4545	0.	-677.64
13556	2.854	4.5455	0.	-670.29
13557	2.946	4.5455	5.e-002	3.1491e-005
13558	2.946	4.2727	0.	-742.06
13559	2.854	4.3636	0.	-741.07
13560	2.946	4.3636	5.e-002	3.08e-005
13561	2.946	4.0909	0.	-799.15
13562	2.854	4.1818	0.	-804.46
13563	2.946	4.1818	5.e-002	3.9717e-005
13564	2.946	3.9091	0.	-848.31
13565	2.854	4.	0.	-859.78
13566	2.946	4.	5.e-002	2.1443e-005
13567	2.946	3.7273	0.	-889.07
13568	2.854	3.8182	0.	-906.51
13569	2.946	3.8182	5.e-002	1.6716e-005
13570	2.946	3.5455	0.	-921.09
13571	2.854	3.6364	0.	-944.27
13572	2.946	3.6364	5.e-002	7.5795e-007
13573	2.946	3.3636	0.	-944.12
13574	2.854	3.4545	0.	-972.79
13575	2.946	3.4545	5.e-002	6.4782e-006
13576	2.946	3.1818	0.	-958.
13577	2.854	3.2727	0.	-991.9
13578	2.946	3.2727	5.e-002	4.1773e-006
13579	2.946	3.	0.	-962.63
13580	2.854	3.0909	0.	-1001.5
13581	2.946	3.0909	5.e-002	1.3864e-006
13582	2.946	2.8182	0.	-958.
13583	2.854	2.9091	0.	-1001.5
13584	2.946	2.9091	5.e-002	-9.0228e-006
13585	2.946	2.6364	0.	-944.12
13586	2.854	2.7273	0.	-991.9
13587	2.946	2.7273	5.e-002	-3.9575e-006
13588	2.946	2.4545	0.	-921.09
13589	2.854	2.5455	0.	-972.79
13590	2.946	2.5455	5.e-002	-6.4782e-006
13591	2.946	2.2727	0.	-889.07
13592	2.854	2.3636	0.	-944.27
13593	2.946	2.3636	5.e-002	-1.6528e-005
13594	2.946	2.0909	0.	-848.31
13595	2.854	2.1818	0.	-906.51
13596	2.946	2.1818	5.e-002	-1.6716e-005
13597	2.946	1.9091	0.	-799.15
13598	2.854	2.	0.	-859.78
13599	2.946	2.	5.e-002	-2.286e-005
13600	2.946	1.7273	0.	-742.06
13601	2.854	1.8182	0.	-804.46
13602	2.946	1.8182	5.e-002	-3.9717e-005
13603	2.946	1.5455	0.	-677.64
13604	2.854	1.6364	0.	-741.07
13605	2.946	1.6364	5.e-002	-4.7896e-005
13606	2.946	1.3636	0.	-606.63
13607	2.854	1.4545	0.	-670.29
13608	2.946	1.4545	5.e-002	-7.281e-005
13609	2.946	1.1818	0.	-529.92
13610	2.854	1.2727	0.	-592.96
13611	2.946	1.2727	5.e-002	-5.5571e-005
13612	2.946	1.	0.	-448.51
13613	2.854	1.0909	0.	-510.07
13614	2.946	1.0909	5.e-002	-8.9047e-005
13615	2.946	0.81818	0.	-363.51
13616	2.854	0.90909	0.	-422.76
13617	2.946	0.90909	5.e-002	-9.904e-005
13618	2.946	0.63636	0.	-276.05
13619	2.854	0.72727	0.	-332.27
13620	2.946	0.72727	5.e-002	-1.3205e-004
13621	2.946	0.45455	0.	-187.1
13622	2.854	0.54545	0.	-239.87
13623	2.946	0.54545	5.e-002	-1.0845e-004
13624	2.946	0.27273	0.	-96.158
13625	2.854	0.36364	0.	-146.36
13626	2.946	0.36364	5.e-002	-1.287e-004
13627	2.854	0.18182	0.	-50.365
13628	2.946	0.18182	5.e-002	-4.668e-005
13629	2.946	9.0909e-002	0.	-24.325
13630	2.7619	5.7273	0.	-99.808
13631	2.6698	5.8182	0.	-49.642
13632	2.7619	5.8182	5.e-002	4.2553e-005
13633	2.7619	5.9091	0.	-23.336
13634	2.7619	5.5455	0.	-198.94
13635	2.6698	5.6364	0.	-154.3
13636	2.7619	5.6364	5.e-002	3.9826e-005
13637	2.7619	5.3636	0.	-295.92
13638	2.6698	5.4545	0.	-256.25
13639	2.7619	5.4545	5.e-002	3.69e-005
13640	2.7619	5.1818	0.	-391.39
13641	2.6698	5.2727	0.	-357.18
13642	2.7619	5.2727	5.e-002	7.4161e-005
13643	2.7619	5.	0.	-484.2
13644	2.6698	5.0909	0.	-456.07
13645	2.7619	5.0909	5.e-002	1.4243e-004
13646	2.7619	4.8182	0.	-573.02
13647	2.6698	4.9091	0.	-551.41
13648	2.7619	4.9091	5.e-002	1.0072e-004
13649	2.7619	4.6364	0.	-656.56
13650	2.6698	4.7273	0.	-641.77
13651	2.7619	4.7273	5.e-002	8.6485e-005
13652	2.7619	4.4545	0.	-733.71
13653	2.6698	4.5455	0.	-725.85
13654	2.7619	4.5455	5.e-002	5.9775e-005
13655	2.7619	4.2727	0.	-803.5
13656	2.6698	4.3636	0.	-802.56
13657	2.7619	4.3636	5.e-002	3.2604e-005
13658	2.7619	4.0909	0.	-865.16
13659	2.6698	4.1818	0.	-871.
13660	2.7619	4.1818	5.e-002	5.6863e-005
13661	2.7619	3.9091	0.	-918.09
13662	2.6698	4.	0.	-930.52
13663	2.7619	4.	5.e-002	1.1672e-005
13664	2.7619	3.7273	0.	-961.85
13665	2.6698	3.8182	0.	-980.61
13666	2.7619	3.8182	5.e-002	1.749e-005
13667	2.7619	3.5455	0.	-996.14
13668	2.6698	3.6364	0.	-1021.
13669	2.7619	3.6364	5.e-002	8.0737e-006
13670	2.7619	3.3636	0.	-1020.8
13671	2.6698	3.4545	0.	-1051.4
13672	2.7619	3.4545	5.e-002	-1.0376e-006
13673	2.7619	3.1818	0.	-1035.6
13674	2.6698	3.2727	0.	-1071.7
13675	2.7619	3.2727	5.e-002	4.2936e-006
13676	2.7619	3.	0.	-1040.5
13677	2.6698	3.0909	0.	-1081.9
13678	2.7619	3.0909	5.e-002	1.3275e-006
13679	2.7619	2.8182	0.	-1035.6
13680	2.6698	2.9091	0.	-1081.9
13681	2.7619	2.9091	5.e-002	-1.5025e-006
13682	2.7619	2.6364	0.	-1020.8
13683	2.6698	2.7273	0.	-1071.7
13684	2.7619	2.7273	5.e-002	-4.2936e-006
13685	2.7619	2.4545	0.	-996.14
13686	2.6698	2.5455	0.	-1051.4
13687	2.7619	2.5455	5.e-002	-9.4256e-006
13688	2.7619	2.2727	0.	-961.85
13689	2.6698	2.3636	0.	-1021.
13690	2.7619	2.3636	5.e-002	-1.0092e-005
13691	2.7619	2.0909	0.	-918.09
13692	2.6698	2.1818	0.	-980.61
13693	2.7619	2.1818	5.e-002	-2.4971e-005
13694	2.7619	1.9091	0.	-865.16
13695	2.6698	2.	0.	-930.52
13696	2.7619	2.	5.e-002	-3.3394e-005
13697	2.7619	1.7273	0.	-803.5
13698	2.6698	1.8182	0.	-871.
13699	2.7619	1.8182	5.e-002	-7.1476e-005
13700	2.7619	1.5455	0.	-733.71
13701	2.6698	1.6364	0.	-802.56
13702	2.7619	1.6364	5.e-002	-4.7658e-005
13703	2.7619	1.3636	0.	-656.56
13704	2.6698	1.4545	0.	-725.85
13705	2.7619	1.4545	5.e-002	-7.8617e-005
13706	2.7619	1.1818	0.	-573.02
13707	2.6698	1.2727	0.	-641.77
13708	2.7619	1.2727	5.e-002	-9.4042e-005
13709	2.7619	1.	0.	-484.2
13710	2.6698	1.0909	0.	-551.41
13711	2.7619	1.0909	5.e-002	-1.343e-004
13712	2.7619	0.81818	0.	-391.39
13713	2.6698	0.90909	0.	-456.07
13714	2.7619	0.90909	5.e-002	-1.0587e-004
13715	2.7619	0.63636	0.	-295.92
13716	2.6698	0.72727	0.	-357.18
13717	2.7619	0.72727	5.e-002	-8.0085e-005
13718	2.7619	0.45455	0.	-198.94
13719	2.6698	0.54545	0.	-256.25
13720	2.7619	0.54545	5.e-002	-1.107e-004
13721	2.7619	0.27273	0.	-99.808
13722	2.6698	0.36364	0.	-154.3
13723	2.7619	0.36364	5.e-002	-1.4101e-004
13724	2.6698	0.18182	0.	-49.642
13725	2.7619	0.18182	5.e-002	-5.166e-005
13726	2.7619	9.0909e-002	0.	-23.336
13727	2.5778	5.7273	0.	-103.16
13728	2.4857	5.8182	0.	-48.166
13729	2.5778	5.8182	5.e-002	3.7922e-005
13730	2.5778	5.9091	0.	-21.776
13731	2.5778	5.5455	0.	-211.4
13732	2.4857	5.6364	0.	-162.43
13733	2.5778	5.6364	5.e-002	1.5811e-004
13734	2.5778	5.3636	0.	-317.33
13735	2.4857	5.4545	0.	-273.83
13736	2.5778	5.4545	5.e-002	1.284e-004
13737	2.5778	5.1818	0.	-421.7
13738	2.4857	5.2727	0.	-384.28
13739	2.5778	5.2727	5.e-002	7.7029e-005
13740	2.5778	5.	0.	-523.16
13741	2.4857	5.0909	0.	-492.53
13742	2.5778	5.0909	5.e-002	7.537e-005
13743	2.5778	4.8182	0.	-620.08
13744	2.4857	4.9091	0.	-596.74
13745	2.5778	4.9091	5.e-002	7.6364e-005
13746	2.5778	4.6364	0.	-711.02
13747	2.4857	4.7273	0.	-695.22
13748	2.5778	4.7273	5.e-002	4.004e-005
13749	2.5778	4.4545	0.	-794.7
13750	2.4857	4.5455	0.	-786.51
13751	2.5778	4.5455	5.e-002	6.0003e-005
13752	2.5778	4.2727	0.	-870.11
13753	2.4857	4.3636	0.	-869.42
13754	2.5778	4.3636	5.e-002	3.432e-005
13755	2.5778	4.0909	0.	-936.45
13756	2.4857	4.1818	0.	-943.04
13757	2.5778	4.1818	5.e-002	1.3323e-005
13758	2.5778	3.9091	0.	-993.17
13759	2.4857	4.	0.	-1006.8
13760	2.5778	4.	5.e-002	1.7312e-005
13761	2.5778	3.7273	0.	-1039.9
13762	2.4857	3.8182	0.	-1060.1
13763	2.5778	3.8182	5.e-002	1.0244e-005
13764	2.5778	3.5455	0.	-1076.4
13765	2.4857	3.6364	0.	-1103.
13766	2.5778	3.6364	5.e-002	9.2861e-006
13767	2.5778	3.3636	0.	-1102.5
13768	2.4857	3.4545	0.	-1135.1
13769	2.5778	3.4545	5.e-002	7.1803e-006
13770	2.5778	3.1818	0.	-1118.2
13771	2.4857	3.2727	0.	-1156.6
13772	2.5778	3.2727	5.e-002	4.1479e-006
13773	2.5778	3.	0.	-1123.4
13774	2.4857	3.0909	0.	-1167.3
13775	2.5778	3.0909	5.e-002	1.3509e-006
13776	2.5778	2.8182	0.	-1118.2
13777	2.4857	2.9091	0.	-1167.3
13778	2.5778	2.9091	5.e-002	-1.5523e-006
13779	2.5778	2.6364	0.	-1102.5
13780	2.4857	2.7273	0.	-1156.6
13781	2.5778	2.7273	5.e-002	-5.9565e-006
13782	2.5778	2.4545	0.	-1076.4
13783	2.4857	2.5455	0.	-1135.1
13784	2.5778	2.5455	5.e-002	-1.4675e-005
13785	2.5778	2.2727	0.	-1039.9
13786	2.4857	2.3636	0.	-1103.
13787	2.5778	2.3636	5.e-002	-1.4137e-005
13788	2.5778	2.0909	0.	-993.17
13789	2.4857	2.1818	0.	-1060.1
13790	2.5778	2.1818	5.e-002	-2.6045e-005
13791	2.5778	1.9091	0.	-936.45
13792	2.4857	2.	0.	-1006.8
13793	2.5778	2.	5.e-002	-2.3498e-005
13794	2.5778	1.7273	0.	-870.11
13795	2.4857	1.8182	0.	-943.04
13796	2.5778	1.8182	5.e-002	-2.5634e-005
13797	2.5778	1.5455	0.	-794.7
13798	2.4857	1.6364	0.	-869.42
13799	2.5778	1.6364	5.e-002	-5.4317e-005
13800	2.5778	1.3636	0.	-711.02
13801	2.4857	1.4545	0.	-786.51
13802	2.5778	1.4545	5.e-002	-6.0003e-005
13803	2.5778	1.1818	0.	-620.08
13804	2.4857	1.2727	0.	-695.22
13805	2.5778	1.2727	5.e-002	-1.259e-004
13806	2.5778	1.	0.	-523.16
13807	2.4857	1.0909	0.	-596.74
13808	2.5778	1.0909	5.e-002	-1.4131e-004
13809	2.5778	0.81818	0.	-421.7
13810	2.4857	0.90909	0.	-492.53
13811	2.5778	0.90909	5.e-002	-1.4698e-004
13812	2.5778	0.63636	0.	-317.33
13813	2.4857	0.72727	0.	-384.28
13814	2.5778	0.72727	5.e-002	-1.5406e-004
13815	2.5778	0.45455	0.	-211.4
13816	2.4857	0.54545	0.	-273.83
13817	2.5778	0.54545	5.e-002	-1.6879e-004
13818	2.5778	0.27273	0.	-103.16
13819	2.4857	0.36364	0.	-162.43
13820	2.5778	0.36364	5.e-002	-7.7214e-005
13821	2.4857	0.18182	0.	-48.166
13822	2.5778	0.18182	5.e-002	-5.0563e-005
13823	2.5778	9.0909e-002	0.	-21.776
13824	2.3937	5.7273	0.	-106.15
13825	2.3016	5.8182	0.	-45.845
13826	2.3937	5.8182	5.e-002	6.2491e-005
13827	2.3937	5.9091	0.	-19.541
13828	2.3937	5.5455	0.	-224.61
13829	2.3016	5.6364	0.	-170.81
13830	2.3937	5.6364	5.e-002	1.69e-004
13831	2.3937	5.3636	0.	-340.58
13832	2.3016	5.4545	0.	-292.87
13833	2.3937	5.4545	5.e-002	1.018e-004
13834	2.3937	5.1818	0.	-454.94
13835	2.3016	5.2727	0.	-414.08
13836	2.3937	5.2727	5.e-002	8.7495e-005
13837	2.3937	5.	0.	-565.98
13838	2.3016	5.0909	0.	-532.79
13839	2.3937	5.0909	5.e-002	4.2637e-005
13840	2.3937	4.8182	0.	-671.79
13841	2.3016	4.9091	0.	-646.79
13842	2.3937	4.9091	5.e-002	8.5574e-005
13843	2.3937	4.6364	0.	-770.68
13844	2.3016	4.7273	0.	-754.09
13845	2.3937	4.7273	5.e-002	7.3322e-005
13846	2.3937	4.4545	0.	-861.25
13847	2.3016	4.5455	0.	-853.01
13848	2.3937	4.5455	5.e-002	6.3776e-005
13849	2.3937	4.2727	0.	-942.43
13850	2.3016	4.3636	0.	-942.31
13851	2.3937	4.3636	5.e-002	2.8617e-005
13852	2.3937	4.0909	0.	-1013.5
13853	2.3016	4.1818	0.	-1021.1
13854	2.3937	4.1818	5.e-002	4.6679e-005
13855	2.3937	3.9091	0.	-1073.9
13856	2.3016	4.	0.	-1088.9
13857	2.3937	4.	5.e-002	2.4287e-005
13858	2.3937	3.7273	0.	-1123.4
13859	2.3016	3.8182	0.	-1145.3
13860	2.3937	3.8182	5.e-002	1.8637e-005
13861	2.3937	3.5455	0.	-1161.9
13862	2.3016	3.6364	0.	-1190.4
13863	2.3937	3.6364	5.e-002	9.4229e-006
13864	2.3937	3.3636	0.	-1189.4
13865	2.3016	3.4545	0.	-1224.1
13866	2.3937	3.4545	5.e-002	6.8873e-006
13867	2.3937	3.1818	0.	-1205.9
13868	2.3016	3.2727	0.	-1246.5
13869	2.3937	3.2727	5.e-002	3.2682e-006
13870	2.3937	3.	0.	-1211.4
13871	2.3016	3.0909	0.	-1257.7
13872	2.3937	3.0909	5.e-002	1.4853e-006
13873	2.3937	2.8182	0.	-1205.9
13874	2.3016	2.9091	0.	-1257.7
13875	2.3937	2.9091	5.e-002	-1.4462e-006
13876	2.3937	2.6364	0.	-1189.4
13877	2.3016	2.7273	0.	-1246.5
13878	2.3937	2.7273	5.e-002	-6.0405e-006
13879	2.3937	2.4545	0.	-1161.9
13880	2.3016	2.5455	0.	-1224.1
13881	2.3937	2.5455	5.e-002	-6.8873e-006
13882	2.3937	2.2727	0.	-1123.4
13883	2.3016	2.3636	0.	-1190.4
13884	2.3937	2.3636	5.e-002	-1.944e-005
13885	2.3937	2.0909	0.	-1073.9
13886	2.3016	2.1818	0.	-1145.3
13887	2.3937	2.1818	5.e-002	-4.0061e-005
13888	2.3937	1.9091	0.	-1013.5
13889	2.3016	2.	0.	-1088.9
13890	2.3937	2.	5.e-002	-3.6402e-005
13891	2.3937	1.7273	0.	-942.43
13892	2.3016	1.8182	0.	-1021.1
13893	2.3937	1.8182	5.e-002	-5.2239e-005
13894	2.3937	1.5455	0.	-861.25
13895	2.3016	1.6364	0.	-942.31
13896	2.3937	1.6364	5.e-002	-9.9914e-005
13897	2.3937	1.3636	0.	-770.68
13898	2.3016	1.4545	0.	-853.01
13899	2.3937	1.4545	5.e-002	-4.133e-005
13900	2.3937	1.1818	0.	-671.79
13901	2.3016	1.2727	0.	-754.09
13902	2.3937	1.2727	5.e-002	-9.6632e-005
13903	2.3937	1.	0.	-565.98
13904	2.3016	1.0909	0.	-646.79
13905	2.3937	1.0909	5.e-002	-1.2082e-004
13906	2.3937	0.81818	0.	-454.94
13907	2.3016	0.90909	0.	-532.79
13908	2.3937	0.90909	5.e-002	-1.2425e-004
13909	2.3937	0.63636	0.	-340.58
13910	2.3016	0.72727	0.	-414.08
13911	2.3937	0.72727	5.e-002	-1.7146e-004
13912	2.3937	0.45455	0.	-224.61
13913	2.3016	0.54545	0.	-292.87
13914	2.3937	0.54545	5.e-002	-1.8992e-004
13915	2.3937	0.27273	0.	-106.15
13916	2.3016	0.36364	0.	-170.81
13917	2.3937	0.36364	5.e-002	-1.2675e-004
13918	2.3016	0.18182	0.	-45.844
13919	2.3937	0.18182	5.e-002	-5.3051e-005
13920	2.3937	9.0909e-002	0.	-19.541
13921	2.2095	5.7273	0.	-108.76
13922	2.1175	5.8182	0.	-42.606
13923	2.2095	5.8182	5.e-002	4.2209e-005
13924	2.2095	5.9091	0.	-16.519
13925	2.2095	5.5455	0.	-238.78
13926	2.1175	5.6364	0.	-179.56
13927	2.2095	5.6364	5.e-002	9.2297e-005
13928	2.2095	5.3636	0.	-366.14
13929	2.1175	5.4545	0.	-313.79
13930	2.2095	5.4545	5.e-002	1.976e-004
13931	2.2095	5.1818	0.	-491.75
13932	2.1175	5.2727	0.	-447.24
13933	2.2095	5.2727	5.e-002	9.7691e-005
13934	2.2095	5.	0.	-613.48
13935	2.1175	5.0909	0.	-577.76
13936	2.2095	5.0909	5.e-002	4.219e-005
13937	2.2095	4.8182	0.	-729.02
13938	2.1175	4.9091	0.	-702.59
13939	2.2095	4.9091	5.e-002	1.252e-004
13940	2.2095	4.6364	0.	-836.41
13941	2.1175	4.7273	0.	-819.37
13942	2.2095	4.7273	5.e-002	8.1618e-005
13943	2.2095	4.4545	0.	-934.13
13944	2.1175	4.5455	0.	-926.26
13945	2.2095	4.5455	5.e-002	6.3479e-005
13946	2.2095	4.2727	0.	-1021.1
13947	2.1175	4.3636	0.	-1022.
13948	2.2095	4.3636	5.e-002	3.7254e-005
13949	2.2095	4.0909	0.	-1096.7
13950	2.1175	4.1818	0.	-1105.8
13951	2.2095	4.1818	5.e-002	4.8341e-005
13952	2.2095	3.9091	0.	-1160.5
13953	2.1175	4.	0.	-1177.3
13954	2.2095	4.	5.e-002	1.2323e-005
13955	2.2095	3.7273	0.	-1212.5
13956	2.1175	3.8182	0.	-1236.4
13957	2.2095	3.8182	5.e-002	1.1832e-005
13958	2.2095	3.5455	0.	-1252.8
13959	2.1175	3.6364	0.	-1283.3
13960	2.2095	3.6364	5.e-002	8.4279e-006
13961	2.2095	3.3636	0.	-1281.4
13962	2.1175	3.4545	0.	-1318.2
13963	2.2095	3.4545	5.e-002	9.1051e-006
13964	2.2095	3.1818	0.	-1298.5
13965	2.1175	3.2727	0.	-1341.3
13966	2.2095	3.2727	5.e-002	3.0368e-006
13967	2.2095	3.	0.	-1304.2
13968	2.1175	3.0909	0.	-1352.8
13969	2.2095	3.0909	5.e-002	1.3233e-006
13970	2.2095	2.8182	0.	-1298.5
13971	2.1175	2.9091	0.	-1352.8
13972	2.2095	2.9091	5.e-002	-1.548e-006
13973	2.2095	2.6364	0.	-1281.4
13974	2.1175	2.7273	0.	-1341.3
13975	2.2095	2.7273	5.e-002	-5.1207e-006
13976	2.2095	2.4545	0.	-1252.8
13977	2.1175	2.5455	0.	-1318.2
13978	2.2095	2.5455	5.e-002	-1.2069e-005
13979	2.2095	2.2727	0.	-1212.5
13980	2.1175	2.3636	0.	-1283.3
13981	2.2095	2.3636	5.e-002	-2.069e-005
13982	2.2095	2.0909	0.	-1160.5
13983	2.1175	2.1818	0.	-1236.4
13984	2.2095	2.1818	5.e-002	-2.024e-005
13985	2.2095	1.9091	0.	-1096.7
13986	2.1175	2.	0.	-1177.3
13987	2.2095	2.	5.e-002	-2.4843e-005
13988	2.2095	1.7273	0.	-1021.1
13989	2.1175	1.8182	0.	-1105.8
13990	2.2095	1.8182	5.e-002	-6.5635e-005
13991	2.2095	1.5455	0.	-934.13
13992	2.1175	1.6364	0.	-1022.
13993	2.2095	1.6364	5.e-002	-7.8627e-005
13994	2.2095	1.3636	0.	-836.41
13995	2.1175	1.4545	0.	-926.26
13996	2.2095	1.4545	5.e-002	-7.1082e-005
13997	2.2095	1.1818	0.	-729.02
13998	2.1175	1.2727	0.	-819.37
13999	2.2095	1.2727	5.e-002	-1.0723e-004
14000	2.2095	1.	0.	-613.48
14001	2.1175	1.0909	0.	-702.59
14002	2.2095	1.0909	5.e-002	-1.215e-004
14003	2.2095	0.81818	0.	-491.75
14004	2.1175	0.90909	0.	-577.76
14005	2.2095	0.90909	5.e-002	-1.6876e-004
14006	2.2095	0.63636	0.	-366.14
14007	2.1175	0.72727	0.	-447.24
14008	2.2095	0.72727	5.e-002	-1.3657e-004
14009	2.2095	0.45455	0.	-238.78
14010	2.1175	0.54545	0.	-313.79
14011	2.2095	0.54545	5.e-002	-1.976e-004
14012	2.2095	0.27273	0.	-108.76
14013	2.1175	0.36364	0.	-179.56
14014	2.2095	0.36364	5.e-002	-1.8459e-004
14015	2.1175	0.18182	0.	-42.606
14016	2.2095	0.18182	5.e-002	-6.2705e-005
14017	2.2095	9.0909e-002	0.	-16.519
14018	2.0254	5.7273	0.	-110.96
14019	1.9333	5.8182	0.	-38.44
14020	2.0254	5.8182	5.e-002	4.5406e-005
14021	2.0254	5.9091	0.	-12.61
14022	2.0254	5.5455	0.	-254.23
14023	1.9333	5.6364	0.	-188.88
14024	2.0254	5.6364	5.e-002	1.5644e-004
14025	2.0254	5.3636	0.	-394.64
14026	1.9333	5.4545	0.	-337.21
14027	2.0254	5.4545	5.e-002	1.5467e-004
14028	2.0254	5.1818	0.	-533.05
14029	1.9333	5.2727	0.	-484.76
14030	2.0254	5.2727	5.e-002	1.9615e-004
14031	2.0254	5.	0.	-666.74
14032	1.9333	5.0909	0.	-628.65
14033	2.0254	5.0909	5.e-002	-2.9775e-015
14034	2.0254	4.8182	0.	-792.89
14035	1.9333	4.9091	0.	-765.44
14036	2.0254	4.9091	5.e-002	1.3663e-004
14037	2.0254	4.6364	0.	-909.25
14038	1.9333	4.7273	0.	-892.34
14039	2.0254	4.7273	5.e-002	8.5753e-005
14040	2.0254	4.4545	0.	-1014.2
14041	1.9333	4.5455	0.	-1007.4
14042	2.0254	4.5455	5.e-002	4.0891e-005
14043	2.0254	4.2727	0.	-1106.8
14044	1.9333	4.3636	0.	-1109.3
14045	2.0254	4.3636	5.e-002	6.1793e-005
14046	2.0254	4.0909	0.	-1186.5
14047	1.9333	4.1818	0.	-1197.6
14048	2.0254	4.1818	5.e-002	1.3868e-005
14049	2.0254	3.9091	0.	-1253.4
14050	1.9333	4.	0.	-1272.2
14051	2.0254	4.	5.e-002	3.7814e-005
14052	2.0254	3.7273	0.	-1307.4
14053	1.9333	3.8182	0.	-1333.4
14054	2.0254	3.8182	5.e-002	1.0531e-005
14055	2.0254	3.5455	0.	-1349.
14056	1.9333	3.6364	0.	-1381.6
14057	2.0254	3.6364	5.e-002	1.554e-005
14058	2.0254	3.3636	0.	-1378.4
14059	1.9333	3.4545	0.	-1417.2
14060	2.0254	3.4545	5.e-002	9.3987e-006
14061	2.0254	3.1818	0.	-1395.9
14062	1.9333	3.2727	0.	-1440.7
14063	2.0254	3.2727	5.e-002	3.9216e-006
14064	2.0254	3.	0.	-1401.7
14065	1.9333	3.0909	0.	-1452.4
14066	2.0254	3.0909	5.e-002	1.3898e-006
14067	2.0254	2.8182	0.	-1395.9
14068	1.9333	2.9091	0.	-1452.4
14069	2.0254	2.9091	5.e-002	-1.4091e-006
14070	2.0254	2.6364	0.	-1378.4
14071	1.9333	2.7273	0.	-1440.7
14072	2.0254	2.7273	5.e-002	-5.2892e-006
14073	2.0254	2.4545	0.	-1349.
14074	1.9333	2.5455	0.	-1417.2
14075	2.0254	2.5455	5.e-002	-1.4481e-005
14076	2.0254	2.2727	0.	-1307.4
14077	1.9333	2.3636	0.	-1381.6
14078	2.0254	2.3636	5.e-002	-1.344e-005
14079	2.0254	2.0909	0.	-1253.4
14080	1.9333	2.1818	0.	-1333.4
14081	2.0254	2.1818	5.e-002	-4.1864e-005
14082	2.0254	1.9091	0.	-1186.5
14083	1.9333	2.	0.	-1272.2
14084	2.0254	2.	5.e-002	-3.7814e-005
14085	2.0254	1.7273	0.	-1106.8
14086	1.9333	1.8182	0.	-1197.6
14087	2.0254	1.8182	5.e-002	-3.1657e-005
14088	2.0254	1.5455	0.	-1014.2
14089	1.9333	1.6364	0.	-1109.3
14090	2.0254	1.6364	5.e-002	-3.832e-005
14091	2.0254	1.3636	0.	-909.25
14092	1.9333	1.4545	0.	-1007.4
14093	2.0254	1.4545	5.e-002	-1.0756e-004
14094	2.0254	1.1818	0.	-792.89
14095	1.9333	1.2727	0.	-892.34
14096	2.0254	1.2727	5.e-002	-1.211e-004
14097	2.0254	1.	0.	-666.74
14098	1.9333	1.0909	0.	-765.44
14099	2.0254	1.0909	5.e-002	-1.2944e-004
14100	2.0254	0.81818	0.	-533.05
14101	1.9333	0.90909	0.	-628.65
14102	2.0254	0.90909	5.e-002	-2.0345e-004
14103	2.0254	0.63636	0.	-394.64
14104	1.9333	0.72727	0.	-484.76
14105	2.0254	0.72727	5.e-002	-1.5318e-004
14106	2.0254	0.45455	0.	-254.23
14107	1.9333	0.54545	0.	-337.21
14108	2.0254	0.54545	5.e-002	-1.602e-004
14109	2.0254	0.27273	0.	-110.96
14110	1.9333	0.36364	0.	-188.88
14111	2.0254	0.36364	5.e-002	-2.0081e-004
14112	1.9333	0.18182	0.	-38.44
14113	2.0254	0.18182	5.e-002	-6.0542e-005
14114	2.0254	9.0909e-002	0.	-12.61
14115	1.8413	5.7273	0.	-112.78
14116	1.7492	5.8182	0.	-33.467
14117	1.8413	5.8182	5.e-002	6.6304e-005
14118	1.8413	5.9091	0.	-7.85
14119	1.8413	5.5455	0.	-271.45
14120	1.7492	5.6364	0.	-199.1
14121	1.8413	5.6364	5.e-002	1.6258e-004
14122	1.8413	5.3636	0.	-427.04
14123	1.7492	5.4545	0.	-364.04
14124	1.8413	5.4545	5.e-002	5.9575e-005
14125	1.8413	5.1818	0.	-580.16
14126	1.7492	5.2727	0.	-528.07
14127	1.8413	5.2727	5.e-002	5.2367e-005
14128	1.8413	5.	0.	-727.25
14129	1.7492	5.0909	0.	-687.19
14130	1.8413	5.0909	5.e-002	4.8405e-005
14131	1.8413	4.8182	0.	-864.88
14132	1.7492	4.9091	0.	-837.11
14133	1.8413	4.9091	5.e-002	1.9392e-004
14134	1.8413	4.6364	0.	-990.53
14135	1.7492	4.7273	0.	-974.59
14136	1.8413	4.7273	5.e-002	7.4456e-005
14137	1.8413	4.4545	0.	-1102.6
14138	1.7492	4.5455	0.	-1097.6
14139	1.8413	4.5455	5.e-002	4.5913e-005
14140	1.8413	4.2727	0.	-1200.3
14141	1.7492	4.3636	0.	-1205.2
14142	1.8413	4.3636	5.e-002	6.3064e-005
14143	1.8413	4.0909	0.	-1283.5
14144	1.7492	4.1818	0.	-1297.1
14145	1.8413	4.1818	5.e-002	3.1867e-005
14146	1.8413	3.9091	0.	-1352.6
14147	1.7492	4.	0.	-1374.
14148	1.8413	4.	5.e-002	2.5004e-005
14149	1.8413	3.7273	0.	-1407.9
14150	1.7492	3.8182	0.	-1436.4
14151	1.8413	3.8182	5.e-002	2.8292e-005
14152	1.8413	3.5455	0.	-1450.2
14153	1.7492	3.6364	0.	-1485.1
14154	1.8413	3.6364	5.e-002	1.0353e-005
14155	1.8413	3.3636	0.	-1479.9
14156	1.7492	3.4545	0.	-1520.8
14157	1.8413	3.4545	5.e-002	5.9813e-006
14158	1.8413	3.1818	0.	-1497.6
14159	1.7492	3.2727	0.	-1544.3
14160	1.8413	3.2727	5.e-002	4.0604e-006
14161	1.8413	3.	0.	-1503.4
14162	1.7492	3.0909	0.	-1556.
14163	1.8413	3.0909	5.e-002	1.2235e-006
14164	1.8413	2.8182	0.	-1497.6
14165	1.7492	2.9091	0.	-1556.
14166	1.8413	2.9091	5.e-002	-1.4333e-006
14167	1.8413	2.6364	0.	-1479.9
14168	1.7492	2.7273	0.	-1544.3
14169	1.8413	2.7273	5.e-002	-1.8877e-005
14170	1.8413	2.4545	0.	-1450.2
14171	1.7492	2.5455	0.	-1520.8
14172	1.8413	2.5455	5.e-002	-1.0667e-005
14173	1.8413	2.2727	0.	-1407.9
14174	1.7492	2.3636	0.	-1485.1
14175	1.8413	2.3636	5.e-002	-1.4205e-005
14176	1.8413	2.0909	0.	-1352.6
14177	1.7492	2.1818	0.	-1436.4
14178	1.8413	2.1818	5.e-002	-3.1907e-005
14179	1.8413	1.9091	0.	-1283.5
14180	1.7492	2.	0.	-1374.
14181	1.8413	2.	5.e-002	-4.0734e-005
14182	1.8413	1.7273	0.	-1200.3
14183	1.7492	1.8182	0.	-1297.1
14184	1.8413	1.8182	5.e-002	-4.9828e-005
14185	1.8413	1.5455	0.	-1102.6
14186	1.7492	1.6364	0.	-1205.2
14187	1.8413	1.6364	5.e-002	-8.7139e-005
14188	1.8413	1.3636	0.	-990.53
14189	1.7492	1.4545	0.	-1097.6
14190	1.8413	1.4545	5.e-002	-1.0722e-004
14191	1.8413	1.1818	0.	-864.88
14192	1.7492	1.2727	0.	-974.59
14193	1.8413	1.2727	5.e-002	-1.7868e-004
14194	1.8413	1.	0.	-727.25
14195	1.7492	1.0909	0.	-837.11
14196	1.8413	1.0909	5.e-002	-9.3497e-005
14197	1.8413	0.81818	0.	-580.16
14198	1.7492	0.90909	0.	-687.19
14199	1.8413	0.90909	5.e-002	-2.0756e-004
14200	1.8413	0.63636	0.	-427.04
14201	1.7492	0.72727	0.	-528.07
14202	1.8413	0.72727	5.e-002	-1.571e-004
14203	1.8413	0.45455	0.	-271.45
14204	1.7492	0.54545	0.	-364.04
14205	1.8413	0.54545	5.e-002	-2.205e-004
14206	1.8413	0.27273	0.	-112.78
14207	1.7492	0.36364	0.	-199.1
14208	1.8413	0.36364	5.e-002	-2.1677e-004
14209	1.7492	0.18182	0.	-33.467
14210	1.8413	0.18182	5.e-002	-6.6304e-005
14211	1.8413	9.0909e-002	0.	-7.85
14212	1.6571	5.7273	0.	-114.31
14213	1.5651	5.8182	0.	-28.067
14214	1.6571	5.8182	5.e-002	7.4315e-005
14215	1.6571	5.9091	0.	-3.1701
14216	1.6571	5.5455	0.	-291.21
14217	1.5651	5.6364	0.	-210.82
14218	1.6571	5.6364	5.e-002	1.1545e-004
14219	1.6571	5.3636	0.	-464.75
14220	1.5651	5.4545	0.	-395.74
14221	1.6571	5.4545	5.e-002	1.7387e-004
14222	1.6571	5.1818	0.	-634.91
14223	1.5651	5.2727	0.	-579.26
14224	1.6571	5.2727	5.e-002	1.7041e-004
14225	1.6571	5.	0.	-797.
14226	1.5651	5.0909	0.	-755.79
14227	1.6571	5.0909	5.e-002	2.1018e-004
14228	1.6571	4.8182	0.	-946.88
14229	1.5651	4.9091	0.	-919.94
14230	1.6571	4.9091	5.e-002	1.3649e-004
14231	1.6571	4.6364	0.	-1081.8
14232	1.5651	4.7273	0.	-1068.1
14233	1.6571	4.7273	5.e-002	1.235e-004
14234	1.6571	4.4545	0.	-1200.4
14235	1.5651	4.5455	0.	-1198.4
14236	1.6571	4.5455	5.e-002	7.8041e-005
14237	1.6571	4.2727	0.	-1302.3
14238	1.5651	4.3636	0.	-1310.5
14239	1.6571	4.3636	5.e-002	8.384e-005
14240	1.6571	4.0909	0.	-1387.9
14241	1.5651	4.1818	0.	-1404.9
14242	1.6571	4.1818	5.e-002	6.7046e-005
14243	1.6571	3.9091	0.	-1458.1
14244	1.5651	4.	0.	-1482.6
14245	1.6571	4.	5.e-002	2.4489e-005
14246	1.6571	3.7273	0.	-1513.8
14247	1.5651	3.8182	0.	-1545.
14248	1.6571	3.8182	5.e-002	2.6056e-005
14249	1.6571	3.5455	0.	-1556.
14250	1.5651	3.6364	0.	-1593.2
14251	1.6571	3.6364	5.e-002	1.2684e-005
14252	1.6571	3.3636	0.	-1585.5
14253	1.5651	3.4545	0.	-1628.4
14254	1.6571	3.4545	5.e-002	6.5191e-006
14255	1.6571	3.1818	0.	-1603.
14256	1.5651	3.2727	0.	-1651.4
14257	1.6571	3.2727	5.e-002	3.7014e-006
14258	1.6571	3.	0.	-1608.8
14259	1.5651	3.0909	0.	-1662.7
14260	1.6571	3.0909	5.e-002	1.2344e-006
14261	1.6571	2.8182	0.	-1603.
14262	1.5651	2.9091	0.	-1662.7
14263	1.6571	2.9091	5.e-002	-1.2344e-006
14264	1.6571	2.6364	0.	-1585.5
14265	1.5651	2.7273	0.	-1651.4
14266	1.6571	2.7273	5.e-002	-6.3371e-006
14267	1.6571	2.4545	0.	-1556.
14268	1.5651	2.5455	0.	-1628.4
14269	1.6571	2.5455	5.e-002	-6.5191e-006
14270	1.6571	2.2727	0.	-1513.8
14271	1.5651	2.3636	0.	-1593.2
14272	1.6571	2.3636	5.e-002	-3.6019e-005
14273	1.6571	2.0909	0.	-1458.1
14274	1.5651	2.1818	0.	-1545.
14275	1.6571	2.1818	5.e-002	-1.0247e-005
14276	1.6571	1.9091	0.	-1387.9
14277	1.5651	2.	0.	-1482.6
14278	1.6571	2.	5.e-002	-4.9012e-005
14279	1.6571	1.7273	0.	-1302.3
14280	1.5651	1.8182	0.	-1404.9
14281	1.6571	1.8182	5.e-002	-4.9315e-005
14282	1.6571	1.5455	0.	-1200.4
14283	1.5651	1.6364	0.	-1310.5
14284	1.6571	1.6364	5.e-002	-3.9144e-005
14285	1.6571	1.3636	0.	-1081.8
14286	1.5651	1.4545	0.	-1198.4
14287	1.6571	1.4545	5.e-002	-1.1685e-004
14288	1.6571	1.1818	0.	-946.88
14289	1.5651	1.2727	0.	-1068.1
14290	1.6571	1.2727	5.e-002	-1.382e-004
14291	1.6571	1.	0.	-797.
14292	1.5651	1.0909	0.	-919.94
14293	1.6571	1.0909	5.e-002	-5.2144e-005
14294	1.6571	0.81818	0.	-634.91
14295	1.5651	0.90909	0.	-755.79
14296	1.6571	0.90909	5.e-002	-1.0352e-004
14297	1.6571	0.63636	0.	-464.75
14298	1.5651	0.72727	0.	-579.26
14299	1.6571	0.72727	5.e-002	-2.2573e-004
14300	1.6571	0.45455	0.	-291.21
14301	1.5651	0.54545	0.	-395.74
14302	1.6571	0.54545	5.e-002	-2.3517e-004
14303	1.6571	0.27273	0.	-114.31
14304	1.5651	0.36364	0.	-210.82
14305	1.6571	0.36364	5.e-002	-2.309e-004
14306	1.5651	0.18182	0.	-28.067
14307	1.6571	0.18182	5.e-002	-7.4315e-005
14308	1.6571	9.0909e-002	0.	-3.17
14309	1.473	5.7273	0.	-115.81
14310	1.381	5.8182	0.	-22.903
14311	1.473	5.8182	5.e-002	8.5844e-005
14312	1.473	5.9091	0.	-0.92766
14313	1.473	5.5455	0.	-314.78
14314	1.381	5.6364	0.	-224.98
14315	1.473	5.6364	5.e-002	1.8416e-004
14316	1.473	5.3636	0.	-509.92
14317	1.381	5.4545	0.	-434.53
14318	1.473	5.4545	5.e-002	1.8201e-004
14319	1.473	5.1818	0.	-699.99
14320	1.381	5.2727	0.	-641.41
14321	1.473	5.2727	5.e-002	1.7657e-004
14322	1.473	5.	0.	-878.75
14323	1.381	5.0909	0.	-837.74
14324	1.473	5.0909	5.e-002	1.7539e-004
14325	1.473	4.8182	0.	-1041.3
14326	1.381	4.9091	0.	-1016.8
14327	1.473	4.9091	5.e-002	1.0721e-004
14328	1.473	4.6364	0.	-1184.9
14329	1.381	4.7273	0.	-1175.
14330	1.473	4.7273	5.e-002	5.9533e-005
14331	1.473	4.4545	0.	-1308.8
14332	1.381	4.5455	0.	-1311.2
14333	1.473	4.5455	5.e-002	7.6255e-006
14334	1.473	4.2727	0.	-1413.4
14335	1.381	4.3636	0.	-1425.9
14336	1.473	4.3636	5.e-002	3.8639e-005
14337	1.473	4.0909	0.	-1499.9
14338	1.381	4.1818	0.	-1520.8
14339	1.473	4.1818	5.e-002	2.0449e-005
14340	1.473	3.9091	0.	-1569.8
14341	1.381	4.	0.	-1597.7
14342	1.473	4.	5.e-002	2.4326e-005
14343	1.473	3.7273	0.	-1624.7
14344	1.381	3.8182	0.	-1658.7
14345	1.473	3.8182	5.e-002	8.6832e-006
14346	1.473	3.5455	0.	-1665.9
14347	1.381	3.6364	0.	-1705.4
14348	1.473	3.6364	5.e-002	7.7529e-006
14349	1.473	3.3636	0.	-1694.6
14350	1.381	3.4545	0.	-1739.1
14351	1.473	3.4545	5.e-002	5.5358e-006
14352	1.473	3.1818	0.	-1711.4
14353	1.381	3.2727	0.	-1761.1
14354	1.473	3.2727	5.e-002	3.3154e-006
14355	1.473	3.	0.	-1717.
14356	1.381	3.0909	0.	-1771.9
14357	1.473	3.0909	5.e-002	1.1036e-006
14358	1.473	2.8182	0.	-1711.4
14359	1.381	2.9091	0.	-1771.9
14360	1.473	2.9091	5.e-002	-1.1381e-006
14361	1.473	2.6364	0.	-1694.6
14362	1.381	2.7273	0.	-1761.1
14363	1.473	2.7273	5.e-002	-4.7735e-006
14364	1.473	2.4545	0.	-1665.9
14365	1.381	2.5455	0.	-1739.1
14366	1.473	2.5455	5.e-002	-5.5358e-006
14367	1.473	2.2727	0.	-1624.7
14368	1.381	2.3636	0.	-1705.4
14369	1.473	2.3636	5.e-002	-1.1986e-005
14370	1.473	2.0909	0.	-1569.8
14371	1.381	2.1818	0.	-1658.7
14372	1.473	2.1818	5.e-002	-1.7259e-005
14373	1.473	1.9091	0.	-1499.9
14374	1.381	2.	0.	-1597.7
14375	1.473	2.	5.e-002	-4.6622e-005
14376	1.473	1.7273	0.	-1413.4
14377	1.381	1.8182	0.	-1520.8
14378	1.473	1.8182	5.e-002	-6.477e-005
14379	1.473	1.5455	0.	-1308.8
14380	1.381	1.6364	0.	-1425.9
14381	1.473	1.6364	5.e-002	-6.2397e-005
14382	1.473	1.3636	0.	-1184.9
14383	1.381	1.4545	0.	-1311.2
14384	1.473	1.4545	5.e-002	-1.0973e-004
14385	1.473	1.1818	0.	-1041.3
14386	1.381	1.2727	0.	-1175.
14387	1.473	1.2727	5.e-002	-1.4068e-004
14388	1.473	1.	0.	-878.75
14389	1.381	1.0909	0.	-1016.8
14390	1.473	1.0909	5.e-002	-1.5442e-004
14391	1.473	0.81818	0.	-699.99
14392	1.381	0.90909	0.	-837.74
14393	1.473	0.90909	5.e-002	-1.7034e-004
14394	1.473	0.63636	0.	-509.92
14395	1.381	0.72727	0.	-641.41
14396	1.473	0.72727	5.e-002	-1.8004e-004
14397	1.473	0.45455	0.	-314.78
14398	1.381	0.54545	0.	-434.53
14399	1.473	0.54545	5.e-002	-2.4404e-004
14400	1.473	0.27273	0.	-115.81
14401	1.381	0.36364	0.	-224.98
14402	1.473	0.36364	5.e-002	-2.4263e-004
14403	1.381	0.18182	0.	-22.903
14404	1.473	0.18182	5.e-002	-9.313e-005
14405	1.473	9.0909e-002	0.	-0.92765
14406	1.2889	5.7273	0.	-117.69
14407	1.1968	5.8182	0.	-18.898
14408	1.2889	5.8182	5.e-002	1.031e-004
14409	1.2889	5.9091	0.	-0.15233
14410	1.2889	5.5455	0.	-344.07
14411	1.1968	5.6364	0.	-243.52
14412	1.2889	5.6364	5.e-002	1.2205e-004
14413	1.2889	5.3636	0.	-565.7
14414	1.1968	5.4545	0.	-484.33
14415	1.2889	5.4545	5.e-002	1.2195e-004
14416	1.2889	5.1818	0.	-779.1
14417	1.1968	5.2727	0.	-719.52
14418	1.2889	5.2727	5.e-002	2.4246e-004
14419	1.2889	5.	0.	-975.97
14420	1.1968	5.0909	0.	-937.88
14421	1.2889	5.0909	5.e-002	1.1472e-004
14422	1.2889	4.8182	0.	-1150.9
14423	1.1968	4.9091	0.	-1131.7
14424	1.2889	4.9091	5.e-002	1.6333e-004
14425	1.2889	4.6364	0.	-1301.6
14426	1.1968	4.7273	0.	-1298.
14427	1.2889	4.7273	5.e-002	1.2628e-004
14428	1.2889	4.4545	0.	-1428.7
14429	1.1968	4.5455	0.	-1437.4
14430	1.2889	4.5455	5.e-002	1.0749e-004
14431	1.2889	4.2727	0.	-1533.7
14432	1.1968	4.3636	0.	-1552.
14433	1.2889	4.3636	5.e-002	5.6241e-005
14434	1.2889	4.0909	0.	-1619.
14435	1.1968	4.1818	0.	-1644.9
14436	1.2889	4.1818	5.e-002	4.1664e-005
14437	1.2889	3.9091	0.	-1686.9
14438	1.1968	4.	0.	-1718.9
14439	1.2889	4.	5.e-002	2.9708e-005
14440	1.2889	3.7273	0.	-1739.6
14441	1.1968	3.8182	0.	-1776.8
14442	1.2889	3.8182	5.e-002	1.6056e-005
14443	1.2889	3.5455	0.	-1778.8
14444	1.1968	3.6364	0.	-1820.7
14445	1.2889	3.6364	5.e-002	7.338e-006
14446	1.2889	3.3636	0.	-1805.9
14447	1.1968	3.4545	0.	-1852.2
14448	1.2889	3.4545	5.e-002	4.8842e-006
14449	1.2889	3.1818	0.	-1821.8
14450	1.1968	3.2727	0.	-1872.6
14451	1.2889	3.2727	5.e-002	2.9146e-006
14452	1.2889	3.	0.	-1827.
14453	1.1968	3.0909	0.	-1882.6
14454	1.2889	3.0909	5.e-002	8.6622e-007
14455	1.2889	2.8182	0.	-1821.8
14456	1.1968	2.9091	0.	-1882.6
14457	1.2889	2.9091	5.e-002	-1.1086e-006
14458	1.2889	2.6364	0.	-1805.9
14459	1.1968	2.7273	0.	-1872.6
14460	1.2889	2.7273	5.e-002	-1.9488e-005
14461	1.2889	2.4545	0.	-1778.8
14462	1.1968	2.5455	0.	-1852.2
14463	1.2889	2.5455	5.e-002	-7.0437e-006
14464	1.2889	2.2727	0.	-1739.6
14465	1.1968	2.3636	0.	-1820.7
14466	1.2889	2.3636	5.e-002	-3.2939e-005
14467	1.2889	2.0909	0.	-1686.9
14468	1.1968	2.1818	0.	-1776.8
14469	1.2889	2.1818	5.e-002	-1.6056e-005
14470	1.2889	1.9091	0.	-1619.
14471	1.1968	2.	0.	-1718.9
14472	1.2889	2.	5.e-002	-5.0196e-005
14473	1.2889	1.7273	0.	-1533.7
14474	1.1968	1.8182	0.	-1644.9
14475	1.2889	1.8182	5.e-002	-8.3433e-005
14476	1.2889	1.5455	0.	-1428.7
14477	1.1968	1.6364	0.	-1552.
14478	1.2889	1.6364	5.e-002	-8.252e-005
14479	1.2889	1.3636	0.	-1301.6
14480	1.1968	1.4545	0.	-1437.4
14481	1.2889	1.4545	5.e-002	-4.6002e-005
14482	1.2889	1.1818	0.	-1150.9
14483	1.1968	1.2727	0.	-1298.
14484	1.2889	1.2727	5.e-002	-9.1954e-005
14485	1.2889	1.	0.	-975.97
14486	1.1968	1.0909	0.	-1131.7
14487	1.2889	1.0909	5.e-002	-1.0888e-004
14488	1.2889	0.81818	0.	-779.09
14489	1.1968	0.90909	0.	-937.88
14490	1.2889	0.90909	5.e-002	-1.7508e-004
14491	1.2889	0.63636	0.	-565.7
14492	1.1968	0.72727	0.	-719.52
14493	1.2889	0.72727	5.e-002	-2.4267e-004
14494	1.2889	0.45455	0.	-344.07
14495	1.1968	0.54545	0.	-484.33
14496	1.2889	0.54545	5.e-002	-2.4487e-004
14497	1.2889	0.27273	0.	-117.69
14498	1.1968	0.36364	0.	-243.52
14499	1.2889	0.36364	5.e-002	-2.441e-004
14500	1.1968	0.18182	0.	-18.898
14501	1.2889	0.18182	5.e-002	-1.3642e-004
14502	1.2889	9.0909e-002	0.	-0.15233
14503	1.1048	5.7273	0.	-121.24
14504	1.0127	5.8182	0.	-15.826
14505	1.1048	5.8182	5.e-002	1.3753e-004
14506	1.1048	5.9091	0.	1.121e-002
14507	1.1048	5.5455	0.	-383.03
14508	1.0127	5.6364	0.	-269.19
14509	1.1048	5.6364	5.e-002	1.7915e-004
14510	1.1048	5.3636	0.	-637.89
14511	1.0127	5.4545	0.	-550.69
14512	1.1048	5.4545	5.e-002	1.8247e-004
14513	1.1048	5.1818	0.	-878.42
14514	1.0127	5.2727	0.	-819.89
14515	1.1048	5.2727	5.e-002	1.826e-004
14516	1.1048	5.	0.	-1094.
14517	1.0127	5.0909	0.	-1061.3
14518	1.1048	5.0909	5.e-002	6.4395e-005
14519	1.1048	4.8182	0.	-1279.4
14520	1.0127	4.9091	0.	-1267.5
14521	1.1048	4.9091	5.e-002	1.1503e-004
14522	1.1048	4.6364	0.	-1434.3
14523	1.0127	4.7273	0.	-1438.
14524	1.1048	4.7273	5.e-002	9.0011e-005
14525	1.1048	4.4545	0.	-1561.2
14526	1.0127	4.5455	0.	-1576.2
14527	1.1048	4.5455	5.e-002	1.0193e-004
14528	1.1048	4.2727	0.	-1663.6
14529	1.0127	4.3636	0.	-1687.
14530	1.1048	4.3636	5.e-002	3.5051e-005
14531	1.1048	4.0909	0.	-1745.1
14532	1.0127	4.1818	0.	-1774.8
14533	1.1048	4.1818	5.e-002	1.286e-005
14534	1.1048	3.9091	0.	-1809.1
14535	1.0127	4.	0.	-1843.6
14536	1.1048	4.	5.e-002	1.468e-005
14537	1.1048	3.7273	0.	-1858.1
14538	1.0127	3.8182	0.	-1896.8
14539	1.1048	3.8182	5.e-002	1.346e-005
14540	1.1048	3.5455	0.	-1894.3
14541	1.0127	3.6364	0.	-1936.8
14542	1.1048	3.6364	5.e-002	5.9719e-006
14543	1.1048	3.3636	0.	-1919.1
14544	1.0127	3.4545	0.	-1965.3
14545	1.1048	3.4545	5.e-002	3.9168e-006
14546	1.1048	3.1818	0.	-1933.6
14547	1.0127	3.2727	0.	-1983.6
14548	1.1048	3.2727	5.e-002	2.3301e-006
14549	1.1048	3.	0.	-1938.4
14550	1.0127	3.0909	0.	-1992.6
14551	1.1048	3.0909	5.e-002	7.7321e-007
14552	1.1048	2.8182	0.	-1933.6
14553	1.0127	2.9091	0.	-1992.6
14554	1.1048	2.9091	5.e-002	-8.9202e-007
14555	1.1048	2.6364	0.	-1919.1
14556	1.0127	2.7273	0.	-1983.6
14557	1.1048	2.7273	5.e-002	-3.0531e-006
14558	1.1048	2.4545	0.	-1894.3
14559	1.0127	2.5455	0.	-1965.3
14560	1.1048	2.5455	5.e-002	-7.9467e-006
14561	1.1048	2.2727	0.	-1858.1
14562	1.0127	2.3636	0.	-1936.8
14563	1.1048	2.3636	5.e-002	-1.2418e-005
14564	1.1048	2.0909	0.	-1809.1
14565	1.0127	2.1818	0.	-1896.8
14566	1.1048	2.1818	5.e-002	-3.4098e-005
14567	1.1048	1.9091	0.	-1745.1
14568	1.0127	2.	0.	-1843.6
14569	1.1048	2.	5.e-002	-6.4486e-005
14570	1.1048	1.7273	0.	-1663.6
14571	1.0127	1.8182	0.	-1774.8
14572	1.1048	1.8182	5.e-002	-6.4517e-005
14573	1.1048	1.5455	0.	-1561.2
14574	1.0127	1.6364	0.	-1687.
14575	1.1048	1.6364	5.e-002	-5.5669e-005
14576	1.1048	1.3636	0.	-1434.3
14577	1.0127	1.4545	0.	-1576.2
14578	1.1048	1.4545	5.e-002	-4.7943e-005
14579	1.1048	1.1818	0.	-1279.4
14580	1.0127	1.2727	0.	-1438.
14581	1.1048	1.2727	5.e-002	-9.1743e-005
14582	1.1048	1.	0.	-1094.
14583	1.0127	1.0909	0.	-1267.5
14584	1.1048	1.0909	5.e-002	-1.5399e-004
14585	1.1048	0.81818	0.	-878.42
14586	1.0127	0.90909	0.	-1061.3
14587	1.1048	0.90909	5.e-002	-2.3238e-004
14588	1.1048	0.63636	0.	-637.89
14589	1.0127	0.72727	0.	-819.89
14590	1.1048	0.72727	5.e-002	-1.8433e-004
14591	1.1048	0.45455	0.	-383.03
14592	1.0127	0.54545	0.	-550.68
14593	1.1048	0.54545	5.e-002	-2.4245e-004
14594	1.1048	0.27273	0.	-121.24
14595	1.0127	0.36364	0.	-269.19
14596	1.1048	0.36364	5.e-002	-2.3443e-004
14597	1.0127	0.18182	0.	-15.826
14598	1.1048	0.18182	5.e-002	-1.2991e-004
14599	1.1048	9.0909e-002	0.	1.1213e-002
14600	0.92063	5.7273	0.	-127.34
14601	0.82857	5.8182	0.	-16.328
14602	0.92063	5.8182	5.e-002	1.2854e-004
14603	0.92063	5.9091	0.	1.0355
14604	0.92063	5.5455	0.	-436.06
14605	0.82857	5.6364	0.	-311.03
14606	0.92063	5.6364	5.e-002	1.6948e-004
14607	0.92063	5.3636	0.	-732.66
14608	0.82857	5.4545	0.	-647.89
14609	0.92063	5.4545	5.e-002	1.1783e-004
14610	0.92063	5.1818	0.	-1003.3
14611	0.82857	5.2727	0.	-956.83
14612	0.92063	5.2727	5.e-002	1.2253e-004
14613	0.92063	5.	0.	-1235.6
14614	0.82857	5.0909	0.	-1219.2
14615	0.92063	5.0909	5.e-002	1.2452e-004
14616	0.92063	4.8182	0.	-1426.8
14617	0.82857	4.9091	0.	-1431.6
14618	0.92063	4.9091	5.e-002	1.5301e-004
14619	0.92063	4.6364	0.	-1580.6
14620	0.82857	4.7273	0.	-1599.5
14621	0.92063	4.7273	5.e-002	1.0757e-004
14622	0.92063	4.4545	0.	-1702.5
14623	0.82857	4.5455	0.	-1730.8
14624	0.92063	4.5455	5.e-002	3.7223e-005
14625	0.92063	4.2727	0.	-1798.5
14626	0.82857	4.3636	0.	-1833.2
14627	0.92063	4.3636	5.e-002	1.0428e-005
14628	0.92063	4.0909	0.	-1873.6
14629	0.82857	4.1818	0.	-1912.8
14630	0.92063	4.1818	5.e-002	2.7063e-005
14631	0.92063	3.9091	0.	-1931.6
14632	0.82857	4.	0.	-1974.4
14633	0.92063	4.	5.e-002	1.2831e-005
14634	0.92063	3.7273	0.	-1975.6
14635	0.82857	3.8182	0.	-2021.4
14636	0.92063	3.8182	5.e-002	2.597e-005
14637	0.92063	3.5455	0.	-2007.9
14638	0.82857	3.6364	0.	-2056.6
14639	0.92063	3.6364	5.e-002	3.1223e-006
14640	0.92063	3.3636	0.	-2029.9
14641	0.82857	3.4545	0.	-2081.5
14642	0.92063	3.4545	5.e-002	2.7457e-006
14643	0.92063	3.1818	0.	-2042.7
14644	0.82857	3.2727	0.	-2097.5
14645	0.92063	3.2727	5.e-002	1.874e-006
14646	0.92063	3.	0.	-2046.9
14647	0.82857	3.0909	0.	-2105.3
14648	0.92063	3.0909	5.e-002	6.0764e-007
14649	0.92063	2.8182	0.	-2042.7
14650	0.82857	2.9091	0.	-2105.3
14651	0.92063	2.9091	5.e-002	-6.4815e-007
14652	0.92063	2.6364	0.	-2029.9
14653	0.82857	2.7273	0.	-2097.5
14654	0.92063	2.7273	5.e-002	-2.9346e-006
14655	0.92063	2.4545	0.	-2007.9
14656	0.82857	2.5455	0.	-2081.5
14657	0.92063	2.5455	5.e-002	-2.0815e-005
14658	0.92063	2.2727	0.	-1975.6
14659	0.82857	2.3636	0.	-2056.6
14660	0.92063	2.3636	5.e-002	-1.0029e-005
14661	0.92063	2.0909	0.	-1931.6
14662	0.82857	2.1818	0.	-2021.4
14663	0.92063	2.1818	5.e-002	-2.597e-005
14664	0.92063	1.9091	0.	-1873.6
14665	0.82857	2.	0.	-1974.4
14666	0.92063	2.	5.e-002	-2.8692e-005
14667	0.92063	1.7273	0.	-1798.5
14668	0.82857	1.8182	0.	-1912.8
14669	0.92063	1.8182	5.e-002	-2.4149e-005
14670	0.92063	1.5455	0.	-1702.5
14671	0.82857	1.6364	0.	-1833.2
14672	0.92063	1.6364	5.e-002	-7.8519e-005
14673	0.92063	1.3636	0.	-1580.6
14674	0.82857	1.4545	0.	-1730.8
14675	0.92063	1.4545	5.e-002	-9.6586e-005
14676	0.92063	1.1818	0.	-1426.8
14677	0.82857	1.2727	0.	-1599.5
14678	0.92063	1.2727	5.e-002	-4.9662e-005
14679	0.92063	1.	0.	-1235.6
14680	0.82857	1.0909	0.	-1431.6
14681	0.92063	1.0909	5.e-002	-1.566e-004
14682	0.92063	0.81818	0.	-1003.3
14683	0.82857	0.90909	0.	-1219.2
14684	0.92063	0.90909	5.e-002	-2.2918e-004
14685	0.92063	0.63636	0.	-732.66
14686	0.82857	0.72727	0.	-956.83
14687	0.92063	0.72727	5.e-002	-2.451e-004
14688	0.92063	0.45455	0.	-436.06
14689	0.82857	0.54545	0.	-647.89
14690	0.92063	0.54545	5.e-002	-2.377e-004
14691	0.92063	0.27273	0.	-127.34
14692	0.82857	0.36364	0.	-311.03
14693	0.92063	0.36364	5.e-002	-2.2626e-004
14694	0.82857	0.18182	0.	-16.328
14695	0.92063	0.18182	5.e-002	-1.7195e-004
14696	0.92063	9.0909e-002	0.	1.0355
14697	0.73651	5.7273	0.	-145.46
14698	0.64444	5.8182	0.	-9.777
14699	0.73651	5.8182	5.e-002	2.2394e-004
14700	0.73651	5.9091	0.	-1.4123
14701	0.73651	5.5455	0.	-522.19
14702	0.64444	5.6364	0.	-375.04
14703	0.73651	5.6364	5.e-002	9.4762e-005
14704	0.73651	5.3636	0.	-872.58
14705	0.64444	5.4545	0.	-783.54
14706	0.73651	5.4545	5.e-002	1.7265e-004
14707	0.73651	5.1818	0.	-1173.7
14708	0.64444	5.2727	0.	-1130.4
14709	0.73651	5.2727	5.e-002	2.4515e-004
14710	0.73651	5.	0.	-1416.2
14711	0.64444	5.0909	0.	-1402.1
14712	0.73651	5.0909	5.e-002	1.7823e-004
14713	0.73651	4.8182	0.	-1605.
14714	0.64444	4.9091	0.	-1607.9
14715	0.73651	4.9091	5.e-002	1.4634e-004
14716	0.73651	4.6364	0.	-1750.2
14717	0.64444	4.7273	0.	-1762.8
14718	0.73651	4.7273	5.e-002	1.1184e-004
14719	0.73651	4.4545	0.	-1861.8
14720	0.64444	4.5455	0.	-1880.1
14721	0.73651	4.5455	5.e-002	8.8913e-005
14722	0.73651	4.2727	0.	-1947.7
14723	0.64444	4.3636	0.	-1969.5
14724	0.73651	4.3636	5.e-002	3.5492e-005
14725	0.73651	4.0909	0.	-2013.7
14726	0.64444	4.1818	0.	-2038.
14727	0.73651	4.1818	5.e-002	1.9801e-005
14728	0.73651	3.9091	0.	-2064.3
14729	0.64444	4.	0.	-2090.6
14730	0.73651	4.	5.e-002	2.522e-005
14731	0.73651	3.7273	0.	-2102.5
14732	0.64444	3.8182	0.	-2130.5
14733	0.73651	3.8182	5.e-002	8.2986e-006
14734	0.73651	3.5455	0.	-2130.3
14735	0.64444	3.6364	0.	-2160.2
14736	0.73651	3.6364	5.e-002	4.8748e-006
14737	0.73651	3.3636	0.	-2149.2
14738	0.64444	3.4545	0.	-2181.3
14739	0.73651	3.4545	5.e-002	2.4363e-006
14740	0.73651	3.1818	0.	-2160.2
14741	0.64444	3.2727	0.	-2194.8
14742	0.73651	3.2727	5.e-002	1.227e-006
14743	0.73651	3.	0.	-2163.8
14744	0.64444	3.0909	0.	-2201.4
14745	0.73651	3.0909	5.e-002	3.5355e-007
14746	0.73651	2.8182	0.	-2160.2
14747	0.64444	2.9091	0.	-2201.4
14748	0.73651	2.9091	5.e-002	-5.1901e-007
14749	0.73651	2.6364	0.	-2149.2
14750	0.64444	2.7273	0.	-2194.8
14751	0.73651	2.7273	5.e-002	-1.4435e-006
14752	0.73651	2.4545	0.	-2130.3
14753	0.64444	2.5455	0.	-2181.3
14754	0.73651	2.5455	5.e-002	-4.4615e-006
14755	0.73651	2.2727	0.	-2102.5
14756	0.64444	2.3636	0.	-2160.2
14757	0.73651	2.3636	5.e-002	-3.5734e-005
14758	0.73651	2.0909	0.	-2064.3
14759	0.64444	2.1818	0.	-2130.5
14760	0.73651	2.1818	5.e-002	-1.2942e-005
14761	0.73651	1.9091	0.	-2013.7
14762	0.64444	2.	0.	-2090.6
14763	0.73651	2.	5.e-002	-2.7864e-005
14764	0.73651	1.7273	0.	-1947.7
14765	0.64444	1.8182	0.	-2038.
14766	0.73651	1.8182	5.e-002	-5.1254e-005
14767	0.73651	1.5455	0.	-1861.8
14768	0.64444	1.6364	0.	-1969.5
14769	0.73651	1.6364	5.e-002	-5.362e-005
14770	0.73651	1.3636	0.	-1750.2
14771	0.64444	1.4545	0.	-1880.1
14772	0.73651	1.4545	5.e-002	-3.6058e-005
14773	0.73651	1.1818	0.	-1605.
14774	0.64444	1.2727	0.	-1762.8
14775	0.73651	1.2727	5.e-002	-1.5795e-004
14776	0.73651	1.	0.	-1416.2
14777	0.64444	1.0909	0.	-1607.9
14778	0.73651	1.0909	5.e-002	-1.9352e-004
14779	0.73651	0.81818	0.	-1173.7
14780	0.64444	0.90909	0.	-1402.1
14781	0.73651	0.90909	5.e-002	-2.3215e-004
14782	0.73651	0.63636	0.	-872.58
14783	0.64444	0.72727	0.	-1130.4
14784	0.73651	0.72727	5.e-002	-2.4651e-004
14785	0.73651	0.45455	0.	-522.19
14786	0.64444	0.54545	0.	-783.54
14787	0.73651	0.54545	5.e-002	-2.3213e-004
14788	0.73651	0.27273	0.	-145.46
14789	0.64444	0.36364	0.	-375.04
14790	0.73651	0.36364	5.e-002	-2.0109e-004
14791	0.64444	0.18182	0.	-9.777
14792	0.73651	0.18182	5.e-002	-2.2394e-004
14793	0.73651	9.0909e-002	0.	-1.4123
14794	0.55238	5.7273	0.	-168.72
14795	0.46032	5.8182	0.	-41.359
14796	0.55238	5.8182	5.e-002	2.405e-004
14797	0.55238	5.9091	0.	9.0529
14798	0.55238	5.5455	0.	-636.67
14799	0.46032	5.6364	0.	-535.9
14800	0.55238	5.6364	5.e-002	1.9139e-004
14801	0.55238	5.3636	0.	-1043.
14802	0.46032	5.4545	0.	-1039.5
14803	0.55238	5.4545	5.e-002	2.3146e-004
14804	0.55238	5.1818	0.	-1360.3
14805	0.46032	5.2727	0.	-1408.5
14806	0.55238	5.2727	5.e-002	6.7086e-005
14807	0.55238	5.	0.	-1594.6
14808	0.46032	5.0909	0.	-1668.5
14809	0.55238	5.0909	5.e-002	1.7212e-004
14810	0.55238	4.8182	0.	-1766.
14811	0.46032	4.9091	0.	-1852.5
14812	0.55238	4.9091	5.e-002	5.7554e-005
14813	0.55238	4.6364	0.	-1892.7
14814	0.46032	4.7273	0.	-1985.9
14815	0.55238	4.7273	5.e-002	4.6926e-005
14816	0.55238	4.4545	0.	-1987.6
14817	0.46032	4.5455	0.	-2084.7
14818	0.55238	4.5455	5.e-002	4.4577e-005
14819	0.55238	4.2727	0.	-2059.7
14820	0.46032	4.3636	0.	-2159.4
14821	0.55238	4.3636	5.e-002	2.9818e-005
14822	0.55238	4.0909	0.	-2114.7
14823	0.46032	4.1818	0.	-2216.4
14824	0.55238	4.1818	5.e-002	2.0121e-005
14825	0.55238	3.9091	0.	-2156.7
14826	0.46032	4.	0.	-2260.
14827	0.55238	4.	5.e-002	7.9315e-006
14828	0.55238	3.7273	0.	-2188.3
14829	0.46032	3.8182	0.	-2293.3
14830	0.55238	3.8182	5.e-002	2.8686e-006
14831	0.55238	3.5455	0.	-2211.3
14832	0.46032	3.6364	0.	-2318.
14833	0.55238	3.6364	5.e-002	1.8667e-006
14834	0.55238	3.3636	0.	-2227.
14835	0.46032	3.4545	0.	-2335.5
14836	0.55238	3.4545	5.e-002	2.0085e-006
14837	0.55238	3.1818	0.	-2236.1
14838	0.46032	3.2727	0.	-2346.8
14839	0.55238	3.2727	5.e-002	7.7531e-007
14840	0.55238	3.	0.	-2239.1
14841	0.46032	3.0909	0.	-2352.3
14842	0.55238	3.0909	5.e-002	2.5679e-007
14843	0.55238	2.8182	0.	-2236.1
14844	0.46032	2.9091	0.	-2352.3
14845	0.55238	2.9091	5.e-002	-2.7284e-007
14846	0.55238	2.6364	0.	-2227.
14847	0.46032	2.7273	0.	-2346.8
14848	0.55238	2.7273	5.e-002	-3.1909e-005
14849	0.55238	2.4545	0.	-2211.3
14850	0.46032	2.5455	0.	-2335.5
14851	0.55238	2.5455	5.e-002	-3.2667e-005
14852	0.55238	2.2727	0.	-2188.3
14853	0.46032	2.3636	0.	-2318.
14854	0.55238	2.3636	5.e-002	-4.4698e-006
14855	0.55238	2.0909	0.	-2156.7
14856	0.46032	2.1818	0.	-2293.3
14857	0.55238	2.1818	5.e-002	-3.2315e-005
14858	0.55238	1.9091	0.	-2114.7
14859	0.46032	2.	0.	-2260.
14860	0.55238	2.	5.e-002	-1.1024e-005
14861	0.55238	1.7273	0.	-2059.7
14862	0.46032	1.8182	0.	-2216.4
14863	0.55238	1.8182	5.e-002	-4.812e-005
14864	0.55238	1.5455	0.	-1987.6
14865	0.46032	1.6364	0.	-2159.4
14866	0.55238	1.6364	5.e-002	-6.9611e-005
14867	0.55238	1.3636	0.	-1892.7
14868	0.46032	1.4545	0.	-2084.7
14869	0.55238	1.4545	5.e-002	-4.8006e-005
14870	0.55238	1.1818	0.	-1766.
14871	0.46032	1.2727	0.	-1985.9
14872	0.55238	1.2727	5.e-002	-1.341e-004
14873	0.55238	1.	0.	-1594.6
14874	0.46032	1.0909	0.	-1852.5
14875	0.55238	1.0909	5.e-002	-1.478e-004
14876	0.55238	0.81818	0.	-1360.3
14877	0.46032	0.90909	0.	-1668.5
14878	0.55238	0.90909	5.e-002	-1.7193e-004
14879	0.55238	0.63636	0.	-1043.
14880	0.46032	0.72727	0.	-1408.5
14881	0.55238	0.72727	5.e-002	-1.8884e-004
14882	0.55238	0.45455	0.	-636.67
14883	0.46032	0.54545	0.	-1039.5
14884	0.55238	0.54545	5.e-002	-2.3686e-004
14885	0.55238	0.27273	0.	-168.72
14886	0.46032	0.36364	0.	-535.9
14887	0.55238	0.36364	5.e-002	-2.1534e-004
14888	0.46032	0.18182	0.	-41.359
14889	0.55238	0.18182	5.e-002	-2.9696e-004
14890	0.55238	9.0909e-002	0.	9.0529
14891	0.36825	5.7273	0.	-305.82
14892	0.27619	5.8182	0.	-2.4421
14893	0.36825	5.8182	5.e-002	1.8699e-004
14894	0.36825	5.9091	0.	-23.567
14895	0.36825	5.5455	0.	-941.61
14896	0.27619	5.6364	0.	-742.45
14897	0.36825	5.6364	5.e-002	2.062e-004
14898	0.36825	5.3636	0.	-1407.9
14899	0.27619	5.4545	0.	-1244.2
14900	0.36825	5.4545	5.e-002	1.2289e-004
14901	0.36825	5.1818	0.	-1717.8
14902	0.27619	5.2727	0.	-1554.9
14903	0.36825	5.2727	5.e-002	1.7866e-004
14904	0.36825	5.	0.	-1926.2
14905	0.27619	5.0909	0.	-1756.1
14906	0.36825	5.0909	5.e-002	6.3784e-005
14907	0.36825	4.8182	0.	-2071.8
14908	0.27619	4.9091	0.	-1894.2
14909	0.36825	4.9091	5.e-002	1.184e-004
14910	0.36825	4.6364	0.	-2177.3
14911	0.27619	4.7273	0.	-1993.6
14912	0.36825	4.7273	5.e-002	8.122e-005
14913	0.36825	4.4545	0.	-2255.9
14914	0.27619	4.5455	0.	-2067.5
14915	0.36825	4.5455	5.e-002	6.831e-005
14916	0.36825	4.2727	0.	-2315.7
14917	0.27619	4.3636	0.	-2123.7
14918	0.36825	4.3636	5.e-002	1.554e-005
14919	0.36825	4.0909	0.	-2361.4
14920	0.27619	4.1818	0.	-2166.9
14921	0.36825	4.1818	5.e-002	2.0341e-006
14922	0.36825	3.9091	0.	-2396.5
14923	0.27619	4.	0.	-2200.2
14924	0.36825	4.	5.e-002	3.3676e-005
14925	0.36825	3.7273	0.	-2422.9
14926	0.27619	3.8182	0.	-2225.7
14927	0.36825	3.8182	5.e-002	3.0575e-005
14928	0.36825	3.5455	0.	-2442.2
14929	0.27619	3.6364	0.	-2244.7
14930	0.36825	3.6364	5.e-002	7.4038e-007
14931	0.36825	3.3636	0.	-2455.4
14932	0.27619	3.4545	0.	-2258.2
14933	0.36825	3.4545	5.e-002	3.451e-007
14934	0.36825	3.1818	0.	-2463.1
14935	0.27619	3.2727	0.	-2266.9
14936	0.36825	3.2727	5.e-002	2.2964e-007
14937	0.36825	3.	0.	-2465.6
14938	0.27619	3.0909	0.	-2271.2
14939	0.36825	3.0909	5.e-002	4.4038e-008
14940	0.36825	2.8182	0.	-2463.1
14941	0.27619	2.9091	0.	-2271.2
14942	0.36825	2.9091	5.e-002	-1.3118e-007
14943	0.36825	2.6364	0.	-2455.4
14944	0.27619	2.7273	0.	-2266.9
14945	0.36825	2.7273	5.e-002	-3.0937e-005
14946	0.36825	2.4545	0.	-2442.2
14947	0.27619	2.5455	0.	-2258.2
14948	0.36825	2.5455	5.e-002	-6.9021e-007
14949	0.36825	2.2727	0.	-2422.9
14950	0.27619	2.3636	0.	-2244.7
14951	0.36825	2.3636	5.e-002	-6.3185e-005
14952	0.36825	2.0909	0.	-2396.5
14953	0.27619	2.1818	0.	-2225.7
14954	0.36825	2.1818	5.e-002	-3.3398e-005
14955	0.36825	1.9091	0.	-2361.4
14956	0.27619	2.	0.	-2200.2
14957	0.36825	2.	5.e-002	-6.7352e-005
14958	0.36825	1.7273	0.	-2315.7
14959	0.27619	1.8182	0.	-2166.9
14960	0.36825	1.8182	5.e-002	-1.8678e-005
14961	0.36825	1.5455	0.	-2255.9
14962	0.27619	1.6364	0.	-2123.7
14963	0.36825	1.6364	5.e-002	-4.0232e-005
14964	0.36825	1.3636	0.	-2177.3
14965	0.27619	1.4545	0.	-2067.5
14966	0.36825	1.4545	5.e-002	-2.0968e-005
14967	0.36825	1.1818	0.	-2071.8
14968	0.27619	1.2727	0.	-1993.6
14969	0.36825	1.2727	5.e-002	-1.0699e-004
14970	0.36825	1.	0.	-1926.2
14971	0.27619	1.0909	0.	-1894.2
14972	0.36825	1.0909	5.e-002	-1.5328e-004
14973	0.36825	0.81818	0.	-1717.8
14974	0.27619	0.90909	0.	-1756.1
14975	0.36825	0.90909	5.e-002	-1.7742e-004
14976	0.36825	0.63636	0.	-1407.9
14977	0.27619	0.72727	0.	-1554.9
14978	0.36825	0.72727	5.e-002	-2.3126e-004
14979	0.36825	0.45455	0.	-941.61
14980	0.27619	0.54545	0.	-1244.2
14981	0.36825	0.54545	5.e-002	-2.4571e-004
14982	0.36825	0.27273	0.	-305.82
14983	0.27619	0.36364	0.	-742.45
14984	0.36825	0.36364	5.e-002	-2.5072e-004
14985	0.27619	0.18182	0.	-2.4421
14986	0.36825	0.18182	5.e-002	-2.6794e-004
14987	0.36825	9.0909e-002	0.	-23.567
14988	0.18413	5.7273	0.	-411.24
14989	0.18413	5.8182	5.e-002	1.599e-004
14990	0.18413	5.9091	0.	88.441
14991	9.2063e-002	5.8182	0.	-571.04
14992	0.18413	5.5455	0.	-1044.6
14993	0.18413	5.6364	5.e-002	2.3451e-004
14994	9.2063e-002	5.6364	0.	-1564.2
14995	0.18413	5.3636	0.	-1383.9
14996	0.18413	5.4545	5.e-002	2.3983e-004
14997	9.2063e-002	5.4545	0.	-2041.
14998	0.18413	5.1818	0.	-1586.6
14999	0.18413	5.2727	5.e-002	1.9371e-004
15000	9.2063e-002	5.2727	0.	-2319.7
15001	0.18413	5.	0.	-1719.3
15002	0.18413	5.0909	5.e-002	1.0318e-004
15003	9.2063e-002	5.0909	0.	-2502.2
15004	0.18413	4.8182	0.	-1813.
15005	0.18413	4.9091	5.e-002	1.1577e-004
15006	9.2063e-002	4.9091	0.	-2631.1
15007	0.18413	4.6364	0.	-1881.9
15008	0.18413	4.7273	5.e-002	6.6089e-005
15009	9.2063e-002	4.7273	0.	-2726.
15010	0.18413	4.4545	0.	-1934.1
15011	0.18413	4.5455	5.e-002	5.1725e-005
15012	9.2063e-002	4.5455	0.	-2797.8
15013	0.18413	4.2727	0.	-1974.3
15014	0.18413	4.3636	5.e-002	2.356e-005
15015	9.2063e-002	4.3636	0.	-2853.
15016	0.18413	4.0909	0.	-2005.3
15017	0.18413	4.1818	5.e-002	3.4326e-005
15018	9.2063e-002	4.1818	0.	-2895.7
15019	0.18413	3.9091	0.	-2029.2
15020	0.18413	4.	5.e-002	1.8742e-005
15021	9.2063e-002	4.	0.	-2928.9
15022	0.18413	3.7273	0.	-2047.3
15023	0.18413	3.8182	5.e-002	1.4137e-005
15024	9.2063e-002	3.8182	0.	-2954.3
15025	0.18413	3.5455	0.	-2060.6
15026	0.18413	3.6364	5.e-002	1.4439e-005
15027	9.2063e-002	3.6364	0.	-2973.4
15028	0.18413	3.3636	0.	-2069.7
15029	0.18413	3.4545	5.e-002	-3.9367e-007
15030	9.2063e-002	3.4545	0.	-2987.
15031	0.18413	3.1818	0.	-2075.
15032	0.18413	3.2727	5.e-002	-2.1956e-007
15033	9.2063e-002	3.2727	0.	-2995.7
15034	0.18413	3.	0.	-2076.7
15035	0.18413	3.0909	5.e-002	-6.7818e-008
15036	9.2063e-002	3.0909	0.	-3000.
15037	0.18413	2.8182	0.	-2075.
15038	0.18413	2.9091	5.e-002	5.7385e-008
15039	9.2063e-002	2.9091	0.	-3000.
15040	0.18413	2.6364	0.	-2069.7
15041	0.18413	2.7273	5.e-002	-1.5348e-005
15042	9.2063e-002	2.7273	0.	-2995.7
15043	0.18413	2.4545	0.	-2060.6
15044	0.18413	2.5455	5.e-002	-6.1784e-005
15045	9.2063e-002	2.5455	0.	-2987.
15046	0.18413	2.2727	0.	-2047.3
15047	0.18413	2.3636	5.e-002	-4.8085e-006
15048	9.2063e-002	2.3636	0.	-2973.4
15049	0.18413	2.0909	0.	-2029.2
15050	0.18413	2.1818	5.e-002	-8.483e-006
15051	9.2063e-002	2.1818	0.	-2954.3
15052	0.18413	1.9091	0.	-2005.3
15053	0.18413	2.	5.e-002	-3.843e-005
15054	9.2063e-002	2.	0.	-2928.9
15055	0.18413	1.7273	0.	-1974.3
15056	0.18413	1.8182	5.e-002	-4.2789e-005
15057	9.2063e-002	1.8182	0.	-2895.7
15058	0.18413	1.5455	0.	-1934.1
15059	0.18413	1.6364	5.e-002	-4.8436e-005
15060	9.2063e-002	1.6364	0.	-2853.
15061	0.18413	1.3636	0.	-1881.9
15062	0.18413	1.4545	5.e-002	-8.1068e-005
15063	9.2063e-002	1.4545	0.	-2797.8
15064	0.18413	1.1818	0.	-1813.
15065	0.18413	1.2727	5.e-002	-8.8194e-005
15066	9.2063e-002	1.2727	0.	-2726.
15067	0.18413	1.	0.	-1719.3
15068	0.18413	1.0909	5.e-002	-1.3281e-004
15069	9.2063e-002	1.0909	0.	-2631.1
15070	0.18413	0.81818	0.	-1586.6
15071	0.18413	0.90909	5.e-002	-1.4533e-004
15072	9.2063e-002	0.90909	0.	-2502.2
15073	0.18413	0.63636	0.	-1383.9
15074	0.18413	0.72727	5.e-002	-1.6842e-004
15075	9.2063e-002	0.72727	0.	-2319.7
15076	0.18413	0.45455	0.	-1044.6
15077	0.18413	0.54545	5.e-002	-2.4513e-004
15078	9.2063e-002	0.54545	0.	-2041.
15079	0.18413	0.27273	0.	-411.24
15080	0.18413	0.36364	5.e-002	-2.3134e-004
15081	9.2063e-002	0.36364	0.	-1564.2
15082	0.18413	0.18182	5.e-002	-2.1212e-004
15083	0.18413	9.0909e-002	0.	88.441
15084	9.2063e-002	0.18182	0.	-571.04
15085	12.041	5.8182	0.	-11.939
15086	11.949	5.7273	0.	-11.496
15087	11.949	5.8182	5.e-002	-8.6111e-015
15088	11.949	5.9091	0.	-9.6644
15089	11.858	5.8182	0.	-0.10681
15090	12.223	5.8182	0.	-4.0819
15091	12.132	5.7273	0.	-5.1555
15092	12.132	5.8182	5.e-002	2.7123e-006
15093	12.132	5.9091	0.	-0.66495
15094	12.406	5.8182	0.	-1.8005
15095	12.314	5.7273	0.	-3.0364
15096	12.314	5.8182	5.e-002	3.8475e-006
15097	12.314	5.9091	0.	-0.35371
15098	12.588	5.8182	0.	-0.6312
15099	12.497	5.7273	0.	-1.2856
15100	12.497	5.8182	5.e-002	4.4239e-006
15101	12.497	5.9091	0.	6.8038e-002
15102	12.771	5.8182	0.	-0.19752
15103	12.68	5.7273	0.	-0.63842
15104	12.68	5.8182	5.e-002	4.0452e-006
15105	12.68	5.9091	0.	4.5828e-002
15106	12.953	5.8182	0.	-1.8242e-002
15107	12.862	5.7273	0.	-0.32306
15108	12.862	5.8182	5.e-002	4.2932e-006
15109	12.862	5.9091	0.	4.7155e-002
15110	13.136	5.8182	0.	3.7757e-002
15111	13.045	5.7273	0.	-0.18864
15112	13.045	5.8182	5.e-002	3.3523e-006
15113	13.045	5.9091	0.	3.1764e-002
15114	13.319	5.8182	0.	4.7093e-002
15115	13.227	5.7273	0.	-0.12353
15116	13.227	5.8182	5.e-002	2.6786e-006
15117	13.227	5.9091	0.	2.6017e-002
15118	13.501	5.8182	0.	3.9452e-002
15119	13.41	5.7273	0.	-9.0642e-002
15120	13.41	5.8182	5.e-002	2.6295e-006
15121	13.41	5.9091	0.	2.5145e-002
15122	13.684	5.8182	0.	2.825e-002
15123	13.593	5.7273	0.	-7.1303e-002
15124	13.593	5.8182	5.e-002	2.2302e-006
15125	13.593	5.9091	0.	2.8499e-002
15126	13.866	5.8182	0.	1.8075e-002
15127	13.775	5.7273	0.	-5.838e-002
15128	13.775	5.8182	5.e-002	1.7484e-006
15129	13.775	5.9091	0.	3.3946e-002
15130	14.049	5.8182	0.	9.9969e-003
15131	13.958	5.7273	0.	-4.8871e-002
15132	13.958	5.8182	5.e-002	2.5016e-006
15133	13.958	5.9091	0.	4.0068e-002
15134	14.232	5.8182	0.	3.6438e-003
15135	14.14	5.7273	0.	-4.1754e-002
15136	14.14	5.8182	5.e-002	2.6565e-006
15137	14.14	5.9091	0.	4.5711e-002
15138	14.414	5.8182	0.	-1.7285e-003
15139	14.323	5.7273	0.	-3.6771e-002
15140	14.323	5.8182	5.e-002	3.4921e-006
15141	14.323	5.9091	0.	5.0003e-002
15142	14.597	5.8182	0.	-6.7956e-003
15143	14.505	5.7273	0.	-3.3957e-002
15144	14.505	5.8182	5.e-002	4.0877e-006
15145	14.505	5.9091	0.	5.2276e-002
15146	14.779	5.8182	0.	-1.1957e-002
15147	14.688	5.7273	0.	-3.3465e-002
15148	14.688	5.8182	5.e-002	5.334e-006
15149	14.688	5.9091	0.	5.2035e-002
15150	14.962	5.8182	0.	-1.7181e-002
15151	14.871	5.7273	0.	-3.5392e-002
15152	14.871	5.8182	5.e-002	2.2116e-005
15153	14.871	5.9091	0.	4.907e-002
15154	15.145	5.8182	0.	-2.2027e-002
15155	15.053	5.7273	0.	-3.944e-002
15156	15.053	5.8182	5.e-002	7.3312e-005
15157	15.053	5.9091	0.	4.3652e-002
15158	15.327	5.8182	0.	-2.5827e-002
15159	15.236	5.7273	0.	-4.4488e-002
15160	15.236	5.8182	5.e-002	4.8579e-005
15161	15.236	5.9091	0.	3.6479e-002
15162	15.51	5.8182	0.	-2.797e-002
15163	15.418	5.7273	0.	-4.7938e-002
15164	15.418	5.8182	5.e-002	2.2727e-005
15165	15.418	5.9091	0.	2.8601e-002
15166	15.692	5.8182	0.	-2.8234e-002
15167	15.601	5.7273	0.	-4.6439e-002
15168	15.601	5.8182	5.e-002	1.7935e-005
15169	15.601	5.9091	0.	2.111e-002
15170	15.875	5.8182	0.	-2.6876e-002
15171	15.784	5.7273	0.	-3.8923e-002
15172	15.784	5.8182	5.e-002	1.896e-005
15173	15.784	5.9091	0.	1.4761e-002
15174	16.057	5.8182	0.	-2.4441e-002
15175	15.966	5.7273	0.	-2.8155e-002
15176	15.966	5.8182	5.e-002	1.4483e-005
15177	15.966	5.9091	0.	9.8679e-003
15178	16.24	5.8182	0.	-2.15e-002
15179	16.149	5.7273	0.	-1.7875e-002
15180	16.149	5.8182	5.e-002	1.4843e-005
15181	16.149	5.9091	0.	6.3766e-003
15182	16.423	5.8182	0.	-1.8487e-002
15183	16.331	5.7273	0.	-9.9702e-003
15184	16.331	5.8182	5.e-002	1.3835e-005
15185	16.331	5.9091	0.	4.0353e-003
15186	16.605	5.8182	0.	-1.5663e-002
15187	16.514	5.7273	0.	-4.5815e-003
15188	16.514	5.8182	5.e-002	1.7643e-005
15189	16.514	5.9091	0.	2.5413e-003
15190	16.788	5.8182	0.	-1.3149e-002
15191	16.697	5.7273	0.	-1.1869e-003
15192	16.697	5.8182	5.e-002	1.4027e-005
15193	16.697	5.9091	0.	1.6197e-003
15194	16.97	5.8182	0.	-1.098e-002
15195	16.879	5.7273	0.	7.9169e-004
15196	16.879	5.8182	5.e-002	1.2168e-005
15197	16.879	5.9091	0.	1.061e-003
15198	17.153	5.8182	0.	-9.1402e-003
15199	17.062	5.7273	0.	1.8017e-003
15200	17.062	5.8182	5.e-002	1.1269e-005
15201	17.062	5.9091	0.	7.1245e-004
15202	17.336	5.8182	0.	-7.5957e-003
15203	17.244	5.7273	0.	2.1551e-003
15204	17.244	5.8182	5.e-002	1.0027e-005
15205	17.244	5.9091	0.	4.7207e-004
15206	17.518	5.8182	0.	-6.3052e-003
15207	17.427	5.7273	0.	2.0651e-003
15208	17.427	5.8182	5.e-002	8.5843e-006
15209	17.427	5.9091	0.	2.7906e-004
15210	17.701	5.8182	0.	-5.2276e-003
15211	17.609	5.7273	0.	1.6716e-003
15212	17.609	5.8182	5.e-002	7.1587e-006
15213	17.609	5.9091	0.	8.9739e-005
15214	17.883	5.8182	0.	-4.3285e-003
15215	17.792	5.7273	0.	1.0692e-003
15216	17.792	5.8182	5.e-002	7.523e-006
15217	17.792	5.9091	0.	-1.1254e-004
15218	18.066	5.8182	0.	-3.5787e-003
15219	17.975	5.7273	0.	3.2059e-004
15220	17.975	5.8182	5.e-002	7.8853e-006
15221	17.975	5.9091	0.	-3.3931e-004
15222	18.249	5.8182	0.	-2.954e-003
15223	18.157	5.7273	0.	-5.3165e-004
15224	18.157	5.8182	5.e-002	5.3404e-006
15225	18.157	5.9091	0.	-5.9593e-004
15226	18.431	5.8182	0.	-2.4363e-003
15227	18.34	5.7273	0.	-1.4616e-003
15228	18.34	5.8182	5.e-002	6.2012e-006
15229	18.34	5.9091	0.	-8.8106e-004
15230	18.614	5.8182	0.	-2.0119e-003
15231	18.522	5.7273	0.	-2.4503e-003
15232	18.522	5.8182	5.e-002	5.6466e-006
15233	18.522	5.9091	0.	-1.1947e-003
15234	18.796	5.8182	0.	-1.6703e-003
15235	18.705	5.7273	0.	-3.491e-003
15236	18.705	5.8182	5.e-002	4.3768e-006
15237	18.705	5.9091	0.	-1.5305e-003
15238	18.979	5.8182	0.	-1.4042e-003
15239	18.888	5.7273	0.	-4.5756e-003
15240	18.888	5.8182	5.e-002	4.953e-006
15241	18.888	5.9091	0.	-1.8867e-003
15242	19.161	5.8182	0.	-1.2117e-003
15243	19.07	5.7273	0.	-5.7055e-003
15244	19.07	5.8182	5.e-002	5.757e-006
15245	19.07	5.9091	0.	-2.2587e-003
15246	19.344	5.8182	0.	-1.0905e-003
15247	19.253	5.7273	0.	-6.8832e-003
15248	19.253	5.8182	5.e-002	5.2264e-006
15249	19.253	5.9091	0.	-2.6439e-003
15250	19.527	5.8182	0.	-1.0439e-003
15251	19.435	5.7273	0.	-8.1133e-003
15252	19.435	5.8182	5.e-002	7.4245e-006
15253	19.435	5.9091	0.	-3.038e-003
15254	19.709	5.8182	0.	-1.0739e-003
15255	19.618	5.7273	0.	-9.4068e-003
15256	19.618	5.8182	5.e-002	8.6006e-006
15257	19.618	5.9091	0.	-3.4385e-003
15258	19.892	5.8182	0.	-1.1875e-003
15259	19.8	5.7273	0.	-1.0769e-002
15260	19.8	5.8182	5.e-002	5.7296e-006
15261	19.8	5.9091	0.	-3.8386e-003
15262	20.074	5.8182	0.	-1.3962e-003
15263	19.983	5.7273	0.	-1.2216e-002
15264	19.983	5.8182	5.e-002	7.0449e-006
15265	19.983	5.9091	0.	-4.2373e-003
15266	20.257	5.8182	0.	-1.712e-003
15267	20.166	5.7273	0.	-1.3759e-002
15268	20.166	5.8182	5.e-002	1.0626e-005
15269	20.166	5.9091	0.	-4.6275e-003
15270	20.44	5.8182	0.	-2.1526e-003
15271	20.348	5.7273	0.	-1.5417e-002
15272	20.348	5.8182	5.e-002	8.7535e-006
15273	20.348	5.9091	0.	-5.0062e-003
15274	20.622	5.8182	0.	-2.7401e-003
15275	20.531	5.7273	0.	-1.721e-002
15276	20.531	5.8182	5.e-002	7.4127e-006
15277	20.531	5.9091	0.	-5.3641e-003
15278	20.805	5.8182	0.	-3.5004e-003
15279	20.713	5.7273	0.	-1.9163e-002
15280	20.713	5.8182	5.e-002	7.4384e-006
15281	20.713	5.9091	0.	-5.695e-003
15282	20.987	5.8182	0.	-4.4628e-003
15283	20.896	5.7273	0.	-2.1299e-002
15284	20.896	5.8182	5.e-002	1.0786e-005
15285	20.896	5.9091	0.	-5.9846e-003
15286	21.17	5.8182	0.	-5.6734e-003
15287	21.079	5.7273	0.	-2.3644e-002
15288	21.079	5.8182	5.e-002	1.2122e-005
15289	21.079	5.9091	0.	-6.2122e-003
15290	21.352	5.8182	0.	-7.1909e-003
15291	21.261	5.7273	0.	-2.625e-002
15292	21.261	5.8182	5.e-002	2.9485e-006
15293	21.261	5.9091	0.	-6.3694e-003
15294	21.535	5.8182	0.	-9.0771e-003
15295	21.444	5.7273	0.	-2.9154e-002
15296	21.444	5.8182	5.e-002	7.4995e-006
15297	21.444	5.9091	0.	-6.4208e-003
15298	21.718	5.8182	0.	-1.1419e-002
15299	21.626	5.7273	0.	-3.2404e-002
15300	21.626	5.8182	5.e-002	6.5687e-006
15301	21.626	5.9091	0.	-6.3272e-003
15302	21.9	5.8182	0.	-1.4332e-002
15303	21.809	5.7273	0.	-3.6069e-002
15304	21.809	5.8182	5.e-002	6.9411e-006
15305	21.809	5.9091	0.	-6.032e-003
15306	22.083	5.8182	0.	-1.7966e-002
15307	21.992	5.7273	0.	-4.0219e-002
15308	21.992	5.8182	5.e-002	1.251e-005
15309	21.992	5.9091	0.	-5.4592e-003
15310	22.265	5.8182	0.	-2.2522e-002
15311	22.174	5.7273	0.	-4.4945e-002
15312	22.174	5.8182	5.e-002	9.3895e-006
15313	22.174	5.9091	0.	-4.4907e-003
15314	22.448	5.8182	0.	-2.8267e-002
15315	22.357	5.7273	0.	-5.0357e-002
15316	22.357	5.8182	5.e-002	8.8249e-006
15317	22.357	5.9091	0.	-2.9571e-003
15318	22.631	5.8182	0.	-3.5618e-002
15319	22.539	5.7273	0.	-5.6546e-002
15320	22.539	5.8182	5.e-002	6.3214e-006
15321	22.539	5.9091	0.	-5.6657e-004
15322	22.813	5.8182	0.	-4.497e-002
15323	22.722	5.7273	0.	-6.3741e-002
15324	22.722	5.8182	5.e-002	4.1784e-006
15325	22.722	5.9091	0.	3.0414e-003
15326	22.996	5.8182	0.	-5.767e-002
15327	22.904	5.7273	0.	-7.1574e-002
15328	22.904	5.8182	5.e-002	4.5087e-006
15329	22.904	5.9091	0.	8.9805e-003
15330	23.178	5.8182	0.	-7.2722e-002
15331	23.087	5.7273	0.	-8.1724e-002
15332	23.087	5.8182	5.e-002	5.23e-007
15333	23.087	5.9091	0.	1.7314e-002
15334	23.361	5.8182	0.	-9.9893e-002
15335	23.27	5.7273	0.	-8.6879e-002
15336	23.27	5.8182	5.e-002	1.9047e-006
15337	23.27	5.9091	0.	3.6288e-002
15338	23.544	5.8182	0.	-0.11383
15339	23.452	5.7273	0.	-0.11092
15340	23.452	5.8182	5.e-002	4.5522e-006
15341	23.452	5.9091	0.	5.062e-002
15342	23.726	5.8182	0.	-0.3043
15343	23.635	5.7273	0.	-4.9446e-002
15344	23.635	5.8182	5.e-002	1.1689e-005
15345	23.635	5.9091	0.	0.14671
15346	23.817	5.7273	0.	-0.36994
15347	23.817	5.8182	5.e-002	1.4536e-005
15348	23.909	5.8182	0.	-1.7946e-002
15349	23.817	5.9091	0.	-6.2068e-002
15350	12.041	5.6364	0.	-6.9335
15351	11.949	5.5455	0.	-6.7468
15352	11.949	5.6364	5.e-002	2.4435e-006
15353	11.858	5.6364	0.	2.2525
15354	12.223	5.6364	0.	-3.7404
15355	12.132	5.5455	0.	-3.0437
15356	12.132	5.6364	5.e-002	5.2841e-006
15357	12.406	5.6364	0.	-2.2373
15358	12.314	5.5455	0.	-2.8316
15359	12.314	5.6364	5.e-002	7.7055e-006
15360	12.588	5.6364	0.	-1.1609
15361	12.497	5.5455	0.	-1.6216
15362	12.497	5.6364	5.e-002	1.1873e-005
15363	12.771	5.6364	0.	-0.70566
15364	12.68	5.5455	0.	-1.0478
15365	12.68	5.6364	5.e-002	1.2356e-005
15366	12.953	5.6364	0.	-0.46885
15367	12.862	5.5455	0.	-0.68691
15368	12.862	5.6364	5.e-002	1.2398e-005
15369	13.136	5.6364	0.	-0.34237
15370	13.045	5.5455	0.	-0.48607
15371	13.045	5.6364	5.e-002	1.1509e-005
15372	13.319	5.6364	0.	-0.26292
15373	13.227	5.5455	0.	-0.35888
15374	13.227	5.6364	5.e-002	1.1079e-005
15375	13.501	5.6364	0.	-0.20792
15376	13.41	5.5455	0.	-0.27548
15377	13.41	5.6364	5.e-002	1.1102e-005
15378	13.684	5.6364	0.	-0.16667
15379	13.593	5.5455	0.	-0.21784
15380	13.593	5.6364	5.e-002	1.1786e-005
15381	13.866	5.6364	0.	-0.13466
15382	13.775	5.5455	0.	-0.17754
15383	13.775	5.6364	5.e-002	1.1272e-005
15384	14.049	5.6364	0.	-0.10976
15385	13.958	5.5455	0.	-0.15
15386	13.958	5.6364	5.e-002	2.5847e-005
15387	14.232	5.6364	0.	-9.097e-002
15388	14.14	5.5455	0.	-0.13331
15389	14.14	5.6364	5.e-002	3.217e-005
15390	14.414	5.6364	0.	-7.8019e-002
15391	14.323	5.5455	0.	-0.12811
15392	14.323	5.6364	5.e-002	2.6298e-005
15393	14.597	5.6364	0.	-7.1445e-002
15394	14.505	5.5455	0.	-0.14023
15395	14.505	5.6364	5.e-002	3.4227e-006
15396	14.779	5.6364	0.	-7.3505e-002
15397	14.688	5.5455	0.	-0.1968
15398	14.688	5.6364	5.e-002	7.0253e-006
15399	14.962	5.6364	0.	-9.1824e-002
15400	14.871	5.5455	0.	-0.50701
15401	14.871	5.6364	5.e-002	7.1044e-006
15402	15.145	5.6364	0.	-0.15955
15403	15.053	5.5455	0.	-1.8011
15404	15.053	5.6364	5.e-002	6.6872e-006
15405	15.327	5.6364	0.	-0.43696
15406	15.236	5.5455	0.	-3.1118
15407	15.236	5.6364	5.e-002	6.8398e-006
15408	15.51	5.6364	0.	-0.89691
15409	15.418	5.5455	0.	-3.9619
15410	15.418	5.6364	5.e-002	6.0729e-006
15411	15.692	5.6364	0.	-1.1356
15412	15.601	5.5455	0.	-4.3762
15413	15.601	5.6364	5.e-002	6.2325e-006
15414	15.875	5.6364	0.	-1.0928
15415	15.784	5.5455	0.	-4.4188
15416	15.784	5.6364	5.e-002	6.7991e-006
15417	16.057	5.6364	0.	-0.80666
15418	15.966	5.5455	0.	-4.1533
15419	15.966	5.6364	5.e-002	5.7137e-006
15420	16.24	5.6364	0.	-0.33757
15421	16.149	5.5455	0.	-3.6372
15422	16.149	5.6364	5.e-002	7.5088e-006
15423	16.423	5.6364	0.	-1.4415e-002
15424	16.331	5.5455	0.	-2.9207
15425	16.331	5.6364	5.e-002	6.7708e-006
15426	16.605	5.6364	0.	1.2002e-002
15427	16.514	5.5455	0.	-2.0466
15428	16.514	5.6364	5.e-002	7.9241e-006
15429	16.788	5.6364	0.	1.5191e-002
15430	16.697	5.5455	0.	-1.051
15431	16.697	5.6364	5.e-002	7.4847e-006
15432	16.97	5.6364	0.	1.4812e-002
15433	16.879	5.5455	0.	5.7212e-003
15434	16.879	5.6364	5.e-002	7.2173e-006
15435	17.153	5.6364	0.	1.3359e-002
15436	17.062	5.5455	0.	1.1129e-002
15437	17.062	5.6364	5.e-002	8.537e-006
15438	17.336	5.6364	0.	1.1489e-002
15439	17.244	5.5455	0.	9.3117e-003
15440	17.244	5.6364	5.e-002	7.1369e-006
15441	17.518	5.6364	0.	9.4413e-003
15442	17.427	5.5455	0.	7.5379e-003
15443	17.427	5.6364	5.e-002	6.9889e-006
15444	17.701	5.6364	0.	7.3159e-003
15445	17.609	5.5455	0.	5.838e-003
15446	17.609	5.6364	5.e-002	7.7941e-006
15447	17.883	5.6364	0.	5.1633e-003
15448	17.792	5.5455	0.	4.2059e-003
15449	17.792	5.6364	5.e-002	7.3135e-006
15450	18.066	5.6364	0.	3.0084e-003
15451	17.975	5.5455	0.	2.6357e-003
15452	17.975	5.6364	5.e-002	7.4754e-006
15453	18.249	5.6364	0.	8.6154e-004
15454	18.157	5.5455	0.	1.1181e-003
15455	18.157	5.6364	5.e-002	7.0062e-006
15456	18.431	5.6364	0.	-1.2731e-003
15457	18.34	5.5455	0.	-3.5467e-004
15458	18.34	5.6364	5.e-002	7.4141e-006
15459	18.614	5.6364	0.	-3.3976e-003
15460	18.522	5.5455	0.	-1.7908e-003
15461	18.522	5.6364	5.e-002	6.6531e-006
15462	18.796	5.6364	0.	-5.5162e-003
15463	18.705	5.5455	0.	-3.1988e-003
15464	18.705	5.6364	5.e-002	4.9921e-006
15465	18.979	5.6364	0.	-7.6346e-003
15466	18.888	5.5455	0.	-4.5858e-003
15467	18.888	5.6364	5.e-002	6.1638e-006
15468	19.161	5.6364	0.	-9.7612e-003
15469	19.07	5.5455	0.	-5.959e-003
15470	19.07	5.6364	5.e-002	6.4454e-006
15471	19.344	5.6364	0.	-1.1906e-002
15472	19.253	5.5455	0.	-7.3259e-003
15473	19.253	5.6364	5.e-002	7.9195e-006
15474	19.527	5.6364	0.	-1.408e-002
15475	19.435	5.5455	0.	-8.6938e-003
15476	19.435	5.6364	5.e-002	7.8492e-006
15477	19.709	5.6364	0.	-1.6298e-002
15478	19.618	5.5455	0.	-1.0072e-002
15479	19.618	5.6364	5.e-002	7.854e-006
15480	19.892	5.6364	0.	-1.857e-002
15481	19.8	5.5455	0.	-1.1469e-002
15482	19.8	5.6364	5.e-002	6.433e-006
15483	20.074	5.6364	0.	-2.0911e-002
15484	19.983	5.5455	0.	-1.2889e-002
15485	19.983	5.6364	5.e-002	7.1155e-006
15486	20.257	5.6364	0.	-2.3335e-002
15487	20.166	5.5455	0.	-1.4339e-002
15488	20.166	5.6364	5.e-002	9.0591e-006
15489	20.44	5.6364	0.	-2.5861e-002
15490	20.348	5.5455	0.	-1.5832e-002
15491	20.348	5.6364	5.e-002	7.1196e-006
15492	20.622	5.6364	0.	-2.8506e-002
15493	20.531	5.5455	0.	-1.737e-002
15494	20.531	5.6364	5.e-002	7.2754e-006
15495	20.805	5.6364	0.	-3.1289e-002
15496	20.713	5.5455	0.	-1.8964e-002
15497	20.713	5.6364	5.e-002	7.9313e-006
15498	20.987	5.6364	0.	-3.4224e-002
15499	20.896	5.5455	0.	-2.0613e-002
15500	20.896	5.6364	5.e-002	8.137e-006
15501	21.17	5.6364	0.	-3.7339e-002
15502	21.079	5.5455	0.	-2.2318e-002
15503	21.079	5.6364	5.e-002	7.9955e-006
15504	21.352	5.6364	0.	-4.0657e-002
15505	21.261	5.5455	0.	-2.4096e-002
15506	21.261	5.6364	5.e-002	5.0323e-006
15507	21.535	5.6364	0.	-4.4196e-002
15508	21.444	5.5455	0.	-2.5932e-002
15509	21.444	5.6364	5.e-002	7.9475e-006
15510	21.718	5.6364	0.	-4.7982e-002
15511	21.626	5.5455	0.	-2.7816e-002
15512	21.626	5.6364	5.e-002	7.6376e-006
15513	21.9	5.6364	0.	-5.2031e-002
15514	21.809	5.5455	0.	-2.9736e-002
15515	21.809	5.6364	5.e-002	7.259e-006
15516	22.083	5.6364	0.	-5.6356e-002
15517	21.992	5.5455	0.	-3.1649e-002
15518	21.992	5.6364	5.e-002	8.2061e-006
15519	22.265	5.6364	0.	-6.0956e-002
15520	22.174	5.5455	0.	-3.3494e-002
15521	22.174	5.6364	5.e-002	9.4349e-006
15522	22.448	5.6364	0.	-6.5784e-002
15523	22.357	5.5455	0.	-3.5168e-002
15524	22.357	5.6364	5.e-002	1.0541e-005
15525	22.631	5.6364	0.	-7.0784e-002
15526	22.539	5.5455	0.	-3.6442e-002
15527	22.539	5.6364	5.e-002	9.4261e-006
15528	22.813	5.6364	0.	-7.5524e-002
15529	22.722	5.5455	0.	-3.7111e-002
15530	22.722	5.6364	5.e-002	7.4077e-006
15531	22.996	5.6364	0.	-8.0213e-002
15532	22.904	5.5455	0.	-3.6025e-002
15533	22.904	5.6364	5.e-002	7.3586e-006
15534	23.178	5.6364	0.	-8.0812e-002
15535	23.087	5.5455	0.	-3.41e-002
15536	23.087	5.6364	5.e-002	5.5058e-006
15537	23.361	5.6364	0.	-8.5702e-002
15538	23.27	5.5455	0.	-2.0597e-002
15539	23.27	5.6364	5.e-002	6.826e-006
15540	23.544	5.6364	0.	-4.4743e-002
15541	23.452	5.5455	0.	-2.3383e-002
15542	23.452	5.6364	5.e-002	8.3478e-006
15543	23.726	5.6364	0.	-0.15143
15544	23.635	5.5455	0.	0.10386
15545	23.635	5.6364	5.e-002	1.5163e-005
15546	23.817	5.5455	0.	-0.13657
15547	23.817	5.6364	5.e-002	1.2285e-005
15548	23.909	5.6364	0.	0.18024
15549	12.041	5.4545	0.	-4.6538
15550	11.949	5.3636	0.	-5.6722
15551	11.949	5.4545	5.e-002	-8.3647e-015
15552	11.858	5.4545	0.	1.4536
15553	12.223	5.4545	0.	-2.6624
15554	12.132	5.3636	0.	-1.8225
15555	12.132	5.4545	5.e-002	8.7867e-006
15556	12.406	5.4545	0.	-2.2263
15557	12.314	5.3636	0.	-2.4616
15558	12.314	5.4545	5.e-002	1.4942e-005
15559	12.588	5.4545	0.	-1.4572
15560	12.497	5.3636	0.	-1.7436
15561	12.497	5.4545	5.e-002	1.8774e-005
15562	12.771	5.4545	0.	-1.004
15563	12.68	5.3636	0.	-1.3427
15564	12.68	5.4545	5.e-002	2.1266e-005
15565	12.953	5.4545	0.	-0.70165
15566	12.862	5.3636	0.	-0.99533
15567	12.862	5.4545	5.e-002	2.2606e-005
15568	13.136	5.4545	0.	-0.51269
15569	13.045	5.3636	0.	-0.76187
15570	13.045	5.4545	5.e-002	1.9409e-005
15571	13.319	5.4545	0.	-0.38802
15572	13.227	5.3636	0.	-0.59737
15573	13.227	5.4545	5.e-002	2.1954e-005
15574	13.501	5.4545	0.	-0.30543
15575	13.41	5.3636	0.	-0.48592
15576	13.41	5.4545	5.e-002	2.8295e-005
15577	13.684	5.4545	0.	-0.25106
15578	13.593	5.3636	0.	-0.41315
15579	13.593	5.4545	5.e-002	3.2821e-005
15580	13.866	5.4545	0.	-0.21778
15581	13.775	5.3636	0.	-0.37302
15582	13.775	5.4545	5.e-002	2.9226e-005
15583	14.049	5.4545	0.	-0.20294
15584	13.958	5.3636	0.	-0.36734
15585	13.958	5.4545	5.e-002	6.0984e-005
15586	14.232	5.4545	0.	-0.20991
15587	14.14	5.3636	0.	-0.41735
15588	14.14	5.4545	5.e-002	8.4123e-005
15589	14.414	5.4545	0.	-0.25868
15590	14.323	5.3636	0.	-0.63536
15591	14.323	5.4545	5.e-002	6.3578e-005
15592	14.597	5.4545	0.	-0.46828
15593	14.505	5.3636	0.	-1.8443
15594	14.505	5.4545	5.e-002	1.1667e-005
15595	14.779	5.4545	0.	-1.7323
15596	14.688	5.3636	0.	-4.7766
15597	14.688	5.4545	5.e-002	7.3173e-006
15598	14.962	5.4545	0.	-3.9463
15599	14.871	5.3636	0.	-7.4491
15600	14.871	5.4545	5.e-002	7.8601e-006
15601	15.145	5.4545	0.	-5.695
15602	15.053	5.3636	0.	-9.4153
15603	15.053	5.4545	5.e-002	4.9275e-006
15604	15.327	5.4545	0.	-6.8547
15605	15.236	5.3636	0.	-10.707
15606	15.236	5.4545	5.e-002	4.463e-006
15607	15.51	5.4545	0.	-7.4871
15608	15.418	5.3636	0.	-11.407
15609	15.418	5.4545	5.e-002	4.843e-006
15610	15.692	5.4545	0.	-7.6709
15611	15.601	5.3636	0.	-11.604
15612	15.601	5.4545	5.e-002	5.2574e-006
15613	15.875	5.4545	0.	-7.4813
15614	15.784	5.3636	0.	-11.384
15615	15.784	5.4545	5.e-002	4.8914e-006
15616	16.057	5.4545	0.	-6.9867
15617	15.966	5.3636	0.	-10.822
15618	15.966	5.4545	5.e-002	4.4218e-006
15619	16.24	5.4545	0.	-6.247
15620	16.149	5.3636	0.	-9.984
15621	16.149	5.4545	5.e-002	5.9815e-006
15622	16.423	5.4545	0.	-5.3135
15623	16.331	5.3636	0.	-8.9289
15624	16.331	5.4545	5.e-002	4.816e-006
15625	16.605	5.4545	0.	-4.2301
15626	16.514	5.3636	0.	-7.7056
15627	16.514	5.4545	5.e-002	5.9188e-006
15628	16.788	5.4545	0.	-3.0333
15629	16.697	5.3636	0.	-6.3556
15630	16.697	5.4545	5.e-002	5.9318e-006
15631	16.97	5.4545	0.	-1.7535
15632	16.879	5.3636	0.	-4.9128
15633	16.879	5.4545	5.e-002	5.4993e-006
15634	17.153	5.4545	0.	-0.41943
15635	17.062	5.3636	0.	-3.4055
15636	17.062	5.4545	5.e-002	6.8665e-006
15637	17.336	5.4545	0.	1.5923e-003
15638	17.244	5.3636	0.	-1.857
15639	17.244	5.4545	5.e-002	4.9401e-006
15640	17.518	5.4545	0.	2.4001e-003
15641	17.427	5.3636	0.	-0.30821
15642	17.427	5.4545	5.e-002	5.6792e-006
15643	17.701	5.4545	0.	1.8976e-003
15644	17.609	5.3636	0.	-4.1247e-003
15645	17.609	5.4545	5.e-002	6.888e-006
15646	17.883	5.4545	0.	1.2125e-003
15647	17.792	5.3636	0.	-6.6804e-004
15648	17.792	5.4545	5.e-002	5.8328e-006
15649	18.066	5.4545	0.	5.0108e-004
15650	17.975	5.3636	0.	-1.924e-004
15651	17.975	5.4545	5.e-002	5.0909e-006
15652	18.249	5.4545	0.	-1.977e-004
15653	18.157	5.3636	0.	-3.162e-004
15654	18.157	5.4545	5.e-002	4.7682e-006
15655	18.431	5.4545	0.	-8.7368e-004
15656	18.34	5.3636	0.	-6.3617e-004
15657	18.34	5.4545	5.e-002	5.6658e-006
15658	18.614	5.4545	0.	-1.5256e-003
15659	18.522	5.3636	0.	-1.0325e-003
15660	18.522	5.4545	5.e-002	4.4448e-006
15661	18.796	5.4545	0.	-2.155e-003
15662	18.705	5.3636	0.	-1.4575e-003
15663	18.705	5.4545	5.e-002	2.5026e-006
15664	18.979	5.4545	0.	-2.7651e-003
15665	18.888	5.3636	0.	-1.8907e-003
15666	18.888	5.4545	5.e-002	4.3876e-006
15667	19.161	5.4545	0.	-3.3584e-003
15668	19.07	5.3636	0.	-2.3221e-003
15669	19.07	5.4545	5.e-002	3.9136e-006
15670	19.344	5.4545	0.	-3.9374e-003
15671	19.253	5.3636	0.	-2.7475e-003
15672	19.253	5.4545	5.e-002	5.784e-006
15673	19.527	5.4545	0.	-4.5053e-003
15674	19.435	5.3636	0.	-3.1628e-003
15675	19.435	5.4545	5.e-002	4.274e-006
15676	19.709	5.4545	0.	-5.0658e-003
15677	19.618	5.3636	0.	-3.5689e-003
15678	19.618	5.4545	5.e-002	5.5476e-006
15679	19.892	5.4545	0.	-5.6191e-003
15680	19.8	5.3636	0.	-3.961e-003
15681	19.8	5.4545	5.e-002	3.263e-006
15682	20.074	5.4545	0.	-6.164e-003
15683	19.983	5.3636	0.	-4.3402e-003
15684	19.983	5.4545	5.e-002	3.503e-006
15685	20.257	5.4545	0.	-6.7034e-003
15686	20.166	5.3636	0.	-4.6995e-003
15687	20.166	5.4545	5.e-002	6.1171e-006
15688	20.44	5.4545	0.	-7.2364e-003
15689	20.348	5.3636	0.	-5.0412e-003
15690	20.348	5.4545	5.e-002	4.0458e-006
15691	20.622	5.4545	0.	-7.7595e-003
15692	20.531	5.3636	0.	-5.3538e-003
15693	20.531	5.4545	5.e-002	3.9641e-006
15694	20.805	5.4545	0.	-8.2658e-003
15695	20.713	5.3636	0.	-5.6357e-003
15696	20.713	5.4545	5.e-002	4.1622e-006
15697	20.987	5.4545	0.	-8.7424e-003
15698	20.896	5.3636	0.	-5.8668e-003
15699	20.896	5.4545	5.e-002	4.1546e-006
15700	21.17	5.4545	0.	-9.1827e-003
15701	21.079	5.3636	0.	-6.0304e-003
15702	21.079	5.4545	5.e-002	3.7157e-006
15703	21.352	5.4545	0.	-9.5689e-003
15704	21.261	5.3636	0.	-6.1152e-003
15705	21.261	5.4545	5.e-002	2.3725e-006
15706	21.535	5.4545	0.	-9.8642e-003
15707	21.444	5.3636	0.	-6.0816e-003
15708	21.444	5.4545	5.e-002	3.9972e-006
15709	21.718	5.4545	0.	-1.0028e-002
15710	21.626	5.3636	0.	-5.8822e-003
15711	21.626	5.4545	5.e-002	4.1392e-006
15712	21.9	5.4545	0.	-9.998e-003
15713	21.809	5.3636	0.	-5.4552e-003
15714	21.809	5.4545	5.e-002	4.5463e-006
15715	22.083	5.4545	0.	-9.6746e-003
15716	21.992	5.3636	0.	-4.7061e-003
15717	21.992	5.4545	5.e-002	4.1478e-006
15718	22.265	5.4545	0.	-8.9155e-003
15719	22.174	5.3636	0.	-3.496e-003
15720	22.174	5.4545	5.e-002	6.5053e-006
15721	22.448	5.4545	0.	-7.4735e-003
15722	22.357	5.3636	0.	-1.6262e-003
15723	22.357	5.4545	5.e-002	7.5039e-006
15724	22.631	5.4545	0.	-5.0254e-003
15725	22.539	5.3636	0.	1.2611e-003
15726	22.539	5.4545	5.e-002	6.5001e-006
15727	22.813	5.4545	0.	-7.4548e-004
15728	22.722	5.3636	0.	5.5331e-003
15729	22.722	5.4545	5.e-002	5.6215e-006
15730	22.996	5.4545	0.	5.6233e-003
15731	22.904	5.3636	0.	1.2612e-002
15732	22.904	5.4545	5.e-002	4.6102e-006
15733	23.178	5.4545	0.	1.9488e-002
15734	23.087	5.3636	0.	2.1731e-002
15735	23.087	5.4545	5.e-002	1.6304e-006
15736	23.361	5.4545	0.	3.108e-002
15737	23.27	5.3636	0.	4.4928e-002
15738	23.27	5.4545	5.e-002	4.9674e-007
15739	23.544	5.4545	0.	0.10492
15740	23.452	5.3636	0.	5.2285e-002
15741	23.452	5.4545	5.e-002	3.6662e-006
15742	23.726	5.4545	0.	5.597e-002
15743	23.635	5.3636	0.	0.20686
15744	23.635	5.4545	5.e-002	9.0741e-006
15745	23.817	5.3636	0.	1.01e-002
15746	23.817	5.4545	5.e-002	8.4206e-006
15747	23.909	5.4545	0.	0.37184
15748	12.041	5.2727	0.	-3.6802
15749	11.949	5.1818	0.	-5.3965
15750	11.949	5.2727	5.e-002	2.9094e-006
15751	11.858	5.2727	0.	1.4385
15752	12.223	5.2727	0.	-1.936
15753	12.132	5.1818	0.	-1.2188
15754	12.132	5.2727	5.e-002	1.9399e-005
15755	12.406	5.2727	0.	-2.0813
15756	12.314	5.1818	0.	-2.2722
15757	12.314	5.2727	5.e-002	2.698e-005
15758	12.588	5.2727	0.	-1.639
15759	12.497	5.1818	0.	-1.8146
15760	12.497	5.2727	5.e-002	3.3675e-005
15761	12.771	5.2727	0.	-1.3315
15762	12.68	5.1818	0.	-1.6138
15763	12.68	5.2727	5.e-002	3.1798e-005
15764	12.953	5.2727	0.	-1.0651
15765	12.862	5.1818	0.	-1.3656
15766	12.862	5.2727	5.e-002	3.6491e-005
15767	13.136	5.2727	0.	-0.8704
15768	13.045	5.1818	0.	-1.1815
15769	13.045	5.2727	5.e-002	3.7257e-005
15770	13.319	5.2727	0.	-0.73149
15771	13.227	5.1818	0.	-1.0469
15772	13.227	5.2727	5.e-002	4.394e-005
15773	13.501	5.2727	0.	-0.64198
15774	13.41	5.1818	0.	-0.97368
15775	13.41	5.2727	5.e-002	3.6592e-005
15776	13.684	5.2727	0.	-0.59978
15777	13.593	5.1818	0.	-0.97892
15778	13.593	5.2727	5.e-002	5.6663e-005
15779	13.866	5.2727	0.	-0.61832
15780	13.775	5.1818	0.	-1.1312
15781	13.775	5.2727	5.e-002	3.599e-005
15782	14.049	5.2727	0.	-0.76175
15783	13.958	5.1818	0.	-1.7421
15784	13.958	5.2727	5.e-002	6.2345e-005
15785	14.232	5.2727	0.	-1.3943
15786	14.14	5.1818	0.	-4.1947
15787	14.14	5.2727	5.e-002	7.3948e-005
15788	14.414	5.2727	0.	-4.0082
15789	14.323	5.1818	0.	-8.5509
15790	14.323	5.2727	5.e-002	2.8213e-005
15791	14.597	5.2727	0.	-7.6602
15792	14.505	5.1818	0.	-12.565
15793	14.505	5.2727	5.e-002	5.5509e-006
15794	14.779	5.2727	0.	-10.697
15795	14.688	5.1818	0.	-15.701
15796	14.688	5.2727	5.e-002	-4.528e-006
15797	14.962	5.2727	0.	-12.929
15798	14.871	5.1818	0.	-17.955
15799	14.871	5.2727	5.e-002	7.7689e-006
15800	15.145	5.2727	0.	-14.413
15801	15.053	5.1818	0.	-19.41
15802	15.053	5.2727	5.e-002	6.8688e-006
15803	15.327	5.2727	0.	-15.238
15804	15.236	5.1818	0.	-20.168
15805	15.236	5.2727	5.e-002	5.4017e-006
15806	15.51	5.2727	0.	-15.501
15807	15.418	5.1818	0.	-20.331
15808	15.418	5.2727	5.e-002	5.7348e-006
15809	15.692	5.2727	0.	-15.295
15810	15.601	5.1818	0.	-19.997
15811	15.601	5.2727	5.e-002	6.0154e-006
15812	15.875	5.2727	0.	-14.701
15813	15.784	5.1818	0.	-19.253
15814	15.784	5.2727	5.e-002	5.9002e-006
15815	16.057	5.2727	0.	-13.796
15816	15.966	5.1818	0.	-18.179
15817	15.966	5.2727	5.e-002	4.952e-006
15818	16.24	5.2727	0.	-12.643
15819	16.149	5.1818	0.	-16.843
15820	16.149	5.2727	5.e-002	5.3455e-006
15821	16.423	5.2727	0.	-11.298
15822	16.331	5.1818	0.	-15.306
15823	16.331	5.2727	5.e-002	5.1379e-006
15824	16.605	5.2727	0.	-9.8073
15825	16.514	5.1818	0.	-13.617
15826	16.514	5.2727	5.e-002	6.3443e-006
15827	16.788	5.2727	0.	-8.2108
15828	16.697	5.1818	0.	-11.818
15829	16.697	5.2727	5.e-002	6.5027e-006
15830	16.97	5.2727	0.	-6.5399
15831	16.879	5.1818	0.	-9.9437
15832	16.879	5.2727	5.e-002	5.4347e-006
15833	17.153	5.2727	0.	-4.8205
15834	17.062	5.1818	0.	-8.0217
15835	17.062	5.2727	5.e-002	6.6728e-006
15836	17.336	5.2727	0.	-3.0735
15837	17.244	5.1818	0.	-6.074
15838	17.244	5.2727	5.e-002	4.8687e-006
15839	17.518	5.2727	0.	-1.3187
15840	17.427	5.1818	0.	-4.1178
15841	17.427	5.2727	5.e-002	5.8566e-006
15842	17.701	5.2727	0.	-3.156e-002
15843	17.609	5.1818	0.	-2.1679
15844	17.609	5.2727	5.e-002	7.6726e-006
15845	17.883	5.2727	0.	-4.384e-003
15846	17.792	5.1818	0.	-0.29398
15847	17.792	5.2727	5.e-002	5.9795e-006
15848	18.066	5.2727	0.	-1.6162e-003
15849	17.975	5.1818	0.	-9.9645e-003
15850	17.975	5.2727	5.e-002	5.1754e-006
15851	18.249	5.2727	0.	-9.201e-004
15852	18.157	5.1818	0.	-3.2014e-003
15853	18.157	5.2727	5.e-002	4.8907e-006
15854	18.431	5.2727	0.	-8.0372e-004
15855	18.34	5.1818	0.	-1.4177e-003
15856	18.34	5.2727	5.e-002	5.4473e-006
15857	18.614	5.2727	0.	-9.1324e-004
15858	18.522	5.1818	0.	-7.4595e-004
15859	18.522	5.2727	5.e-002	3.9574e-006
15860	18.796	5.2727	0.	-1.1231e-003
15861	18.705	5.1818	0.	-4.772e-004
15862	18.705	5.2727	5.e-002	2.1584e-006
15863	18.979	5.2727	0.	-1.379e-003
15864	18.888	5.1818	0.	-3.8678e-004
15865	18.888	5.2727	5.e-002	4.1949e-006
15866	19.161	5.2727	0.	-1.6551e-003
15867	19.07	5.1818	0.	-3.7983e-004
15868	19.07	5.2727	5.e-002	3.778e-006
15869	19.344	5.2727	0.	-1.9363e-003
15870	19.253	5.1818	0.	-4.136e-004
15871	19.253	5.2727	5.e-002	5.036e-006
15872	19.527	5.2727	0.	-2.2141e-003
15873	19.435	5.1818	0.	-4.6206e-004
15874	19.435	5.2727	5.e-002	3.1007e-006
15875	19.709	5.2727	0.	-2.4803e-003
15876	19.618	5.1818	0.	-5.102e-004
15877	19.618	5.2727	5.e-002	4.3749e-006
15878	19.892	5.2727	0.	-2.7303e-003
15879	19.8	5.1818	0.	-5.4335e-004
15880	19.8	5.2727	5.e-002	2.4821e-006
15881	20.074	5.2727	0.	-2.9597e-003
15882	19.983	5.1818	0.	-5.5592e-004
15883	19.983	5.2727	5.e-002	2.3406e-006
15884	20.257	5.2727	0.	-3.1612e-003
15885	20.166	5.1818	0.	-5.3417e-004
15886	20.166	5.2727	5.e-002	4.8256e-006
15887	20.44	5.2727	0.	-3.3272e-003
15888	20.348	5.1818	0.	-4.7212e-004
15889	20.348	5.2727	5.e-002	3.2124e-006
15890	20.622	5.2727	0.	-3.449e-003
15891	20.531	5.1818	0.	-3.5599e-004
15892	20.531	5.2727	5.e-002	3.1885e-006
15893	20.805	5.2727	0.	-3.513e-003
15894	20.713	5.1818	0.	-1.7455e-004
15895	20.713	5.2727	5.e-002	3.3488e-006
15896	20.987	5.2727	0.	-3.4966e-003
15897	20.896	5.1818	0.	9.74e-005
15898	20.896	5.2727	5.e-002	2.6383e-006
15899	21.17	5.2727	0.	-3.3806e-003
15900	21.079	5.1818	0.	4.8773e-004
15901	21.079	5.2727	5.e-002	2.8088e-006
15902	21.352	5.2727	0.	-3.1344e-003
15903	21.261	5.1818	0.	1.0152e-003
15904	21.261	5.2727	5.e-002	9.5881e-007
15905	21.535	5.2727	0.	-2.7113e-003
15906	21.444	5.1818	0.	1.7297e-003
15907	21.444	5.2727	5.e-002	3.2881e-006
15908	21.718	5.2727	0.	-2.0472e-003
15909	21.626	5.1818	0.	2.6922e-003
15910	21.626	5.2727	5.e-002	2.2125e-006
15911	21.9	5.2727	0.	-1.0545e-003
15912	21.809	5.1818	0.	3.9831e-003
15913	21.809	5.2727	5.e-002	2.9592e-006
15914	22.083	5.2727	0.	3.9104e-004
15915	21.992	5.1818	0.	5.712e-003
15916	21.992	5.2727	5.e-002	3.0135e-006
15917	22.265	5.2727	0.	2.4711e-003
15918	22.174	5.1818	0.	8.0437e-003
15919	22.174	5.2727	5.e-002	5.0239e-006
15920	22.448	5.2727	0.	5.4738e-003
15921	22.357	5.1818	0.	1.1201e-002
15922	22.357	5.2727	5.e-002	6.7141e-006
15923	22.631	5.2727	0.	9.7657e-003
15924	22.539	5.1818	0.	1.5572e-002
15925	22.539	5.2727	5.e-002	5.6796e-006
15926	22.813	5.2727	0.	1.6248e-002
15927	22.722	5.1818	0.	2.1549e-002
15928	22.722	5.2727	5.e-002	6.2765e-006
15929	22.996	5.2727	0.	2.5192e-002
15930	22.904	5.1818	0.	3.0618e-002
15931	22.904	5.2727	5.e-002	1.8368e-006
15932	23.178	5.2727	0.	4.2151e-002
15933	23.087	5.1818	0.	4.1991e-002
15934	23.087	5.2727	5.e-002	-1.276e-006
15935	23.361	5.2727	0.	5.8058e-002
15936	23.27	5.1818	0.	6.799e-002
15937	23.27	5.2727	5.e-002	-2.4732e-006
15938	23.544	5.2727	0.	0.1374
15939	23.452	5.1818	0.	7.9227e-002
15940	23.452	5.2727	5.e-002	1.2968e-006
15941	23.726	5.2727	0.	9.7858e-002
15942	23.635	5.1818	0.	0.2408
15943	23.635	5.2727	5.e-002	6.3788e-006
15944	23.817	5.1818	0.	6.1195e-002
15945	23.817	5.2727	5.e-002	6.9049e-006
15946	23.909	5.2727	0.	0.38456
15947	12.041	5.0909	0.	-3.4613
15948	11.949	5.	0.	-6.1194
15949	11.949	5.0909	5.e-002	4.4504e-006
15950	11.858	5.0909	0.	1.6737
15951	12.223	5.0909	0.	-1.6992
15952	12.132	5.	0.	-0.96866
15953	12.132	5.0909	5.e-002	2.9338e-005
15954	12.406	5.0909	0.	-2.0746
15955	12.314	5.	0.	-2.3946
15956	12.314	5.0909	5.e-002	3.6433e-005
15957	12.588	5.0909	0.	-1.8138
15958	12.497	5.	0.	-1.9529
15959	12.497	5.0909	5.e-002	4.5336e-005
15960	12.771	5.0909	0.	-1.6609
15961	12.68	5.	0.	-1.9158
15962	12.68	5.0909	5.e-002	4.9336e-005
15963	12.953	5.0909	0.	-1.5114
15964	12.862	5.	0.	-1.8331
15965	12.862	5.0909	5.e-002	5.3386e-005
15966	13.136	5.0909	0.	-1.4223
15967	13.045	5.	0.	-1.8615
15968	13.045	5.0909	5.e-002	5.8429e-005
15969	13.319	5.0909	0.	-1.4091
15970	13.227	5.	0.	-2.0378
15971	13.227	5.0909	5.e-002	4.6511e-005
15972	13.501	5.0909	0.	-1.5347
15973	13.41	5.	0.	-2.578
15974	13.41	5.0909	5.e-002	6.8058e-005
15975	13.684	5.0909	0.	-2.0073
15976	13.593	5.	0.	-4.3097
15977	13.593	5.0909	5.e-002	6.7595e-005
15978	13.866	5.0909	0.	-3.7345
15979	13.775	5.	0.	-8.9898
15980	13.775	5.0909	5.e-002	3.2816e-005
15981	14.049	5.0909	0.	-8.109
15982	13.958	5.	0.	-15.074
15983	13.958	5.0909	5.e-002	8.2787e-005
15984	14.232	5.0909	0.	-13.142
15985	14.14	5.	0.	-20.406
15986	14.14	5.0909	5.e-002	6.4547e-005
15987	14.414	5.0909	0.	-17.387
15988	14.323	5.	0.	-24.597
15989	14.323	5.0909	5.e-002	2.6028e-005
15990	14.597	5.0909	0.	-20.642
15991	14.505	5.	0.	-27.683
15992	14.505	5.0909	5.e-002	1.7764e-005
15993	14.779	5.0909	0.	-22.952
15994	14.688	5.	0.	-29.776
15995	14.688	5.0909	5.e-002	1.2443e-005
15996	14.962	5.0909	0.	-24.417
15997	14.871	5.	0.	-30.997
15998	14.871	5.0909	5.e-002	9.4693e-006
15999	15.145	5.0909	0.	-25.143
16000	15.053	5.	0.	-31.465
16001	15.053	5.0909	5.e-002	8.4007e-006
16002	15.327	5.0909	0.	-25.238
16003	15.236	5.	0.	-31.292
16004	15.236	5.0909	5.e-002	7.4848e-006
16005	15.51	5.0909	0.	-24.803
16006	15.418	5.	0.	-30.585
16007	15.418	5.0909	5.e-002	7.7791e-006
16008	15.692	5.0909	0.	-23.932
16009	15.601	5.	0.	-29.438
16010	15.601	5.0909	5.e-002	5.7202e-006
16011	15.875	5.0909	0.	-22.708
16012	15.784	5.	0.	-27.937
16013	15.784	5.0909	5.e-002	5.9848e-006
16014	16.057	5.0909	0.	-21.204
16015	15.966	5.	0.	-26.158
16016	15.966	5.0909	5.e-002	3.8068e-006
16017	16.24	5.0909	0.	-19.484
16018	16.149	5.	0.	-24.166
16019	16.149	5.0909	5.e-002	6.3263e-006
16020	16.423	5.0909	0.	-17.602
16021	16.331	5.	0.	-22.018
16022	16.331	5.0909	5.e-002	5.0329e-006
16023	16.605	5.0909	0.	-15.605
16024	16.514	5.	0.	-19.759
16025	16.514	5.0909	5.e-002	6.2018e-006
16026	16.788	5.0909	0.	-13.528
16027	16.697	5.	0.	-17.428
16028	16.697	5.0909	5.e-002	5.9469e-006
16029	16.97	5.0909	0.	-11.402
16030	16.879	5.	0.	-15.056
16031	16.879	5.0909	5.e-002	5.2458e-006
16032	17.153	5.0909	0.	-9.2512
16033	17.062	5.	0.	-12.667
16034	17.062	5.0909	5.e-002	6.2442e-006
16035	17.336	5.0909	0.	-7.0938
16036	17.244	5.	0.	-10.281
16037	17.244	5.0909	5.e-002	5.2986e-006
16038	17.518	5.0909	0.	-4.9439
16039	17.427	5.	0.	-7.9115
16040	17.427	5.0909	5.e-002	5.9234e-006
16041	17.701	5.0909	0.	-2.8131
16042	17.609	5.	0.	-5.5684
16043	17.609	5.0909	5.e-002	7.4261e-006
16044	17.883	5.0909	0.	-0.72921
16045	17.792	5.	0.	-3.2595
16046	17.792	5.0909	5.e-002	6.0219e-006
16047	18.066	5.0909	0.	-1.552e-002
16048	17.975	5.	0.	-1.0034
16049	17.975	5.0909	5.e-002	5.0409e-006
16050	18.249	5.0909	0.	-4.0102e-003
16051	18.157	5.	0.	-1.9284e-002
16052	18.157	5.0909	5.e-002	4.4804e-006
16053	18.431	5.0909	0.	-1.3094e-003
16054	18.34	5.	0.	-4.081e-003
16055	18.34	5.0909	5.e-002	5.1356e-006
16056	18.614	5.0909	0.	-2.0466e-004
16057	18.522	5.	0.	-8.0003e-004
16058	18.522	5.0909	5.e-002	3.7711e-006
16059	18.796	5.0909	0.	3.5747e-004
16060	18.705	5.	0.	5.8017e-004
16061	18.705	5.0909	5.e-002	1.9812e-006
16062	18.979	5.0909	0.	6.8756e-004
16063	18.888	5.	0.	1.3362e-003
16064	18.888	5.0909	5.e-002	3.4564e-006
16065	19.161	5.0909	0.	9.0896e-004
16066	19.07	5.	0.	1.8303e-003
16067	19.07	5.0909	5.e-002	3.239e-006
16068	19.344	5.0909	0.	1.0786e-003
16069	19.253	5.	0.	2.2025e-003
16070	19.253	5.0909	5.e-002	4.3777e-006
16071	19.527	5.0909	0.	1.23e-003
16072	19.435	5.	0.	2.5196e-003
16073	19.435	5.0909	5.e-002	2.5086e-006
16074	19.709	5.0909	0.	1.3844e-003
16075	19.618	5.	0.	2.8189e-003
16076	19.618	5.0909	5.e-002	3.4096e-006
16077	19.892	5.0909	0.	1.5574e-003
16078	19.8	5.	0.	3.1252e-003
16079	19.8	5.0909	5.e-002	1.2949e-006
16080	20.074	5.0909	0.	1.7634e-003
16081	19.983	5.	0.	3.4579e-003
16082	19.983	5.0909	5.e-002	8.053e-007
16083	20.257	5.0909	0.	2.0143e-003
16084	20.166	5.	0.	3.8322e-003
16085	20.166	5.0909	5.e-002	3.8597e-006
16086	20.44	5.0909	0.	2.3215e-003
16087	20.348	5.	0.	4.2615e-003
16088	20.348	5.0909	5.e-002	2.4353e-006
16089	20.622	5.0909	0.	2.7006e-003
16090	20.531	5.	0.	4.7644e-003
16091	20.531	5.0909	5.e-002	2.4098e-006
16092	20.805	5.0909	0.	3.1736e-003
16093	20.713	5.	0.	5.3571e-003
16094	20.713	5.0909	5.e-002	2.3795e-006
16095	20.987	5.0909	0.	3.7699e-003
16096	20.896	5.	0.	6.0681e-003
16097	20.896	5.0909	5.e-002	1.3001e-006
16098	21.17	5.0909	0.	4.5154e-003
16099	21.079	5.	0.	6.9323e-003
16100	21.079	5.0909	5.e-002	8.6369e-007
16101	21.352	5.0909	0.	5.4468e-003
16102	21.261	5.	0.	7.9742e-003
16103	21.261	5.0909	5.e-002	3.2826e-007
16104	21.535	5.0909	0.	6.6254e-003
16105	21.444	5.	0.	9.2474e-003
16106	21.444	5.0909	5.e-002	1.2499e-006
16107	21.718	5.0909	0.	8.1257e-003
16108	21.626	5.	0.	1.0826e-002
16109	21.626	5.0909	5.e-002	8.2882e-007
16110	21.9	5.0909	0.	1.0046e-002
16111	21.809	5.	0.	1.2792e-002
16112	21.809	5.0909	5.e-002	8.6268e-007
16113	22.083	5.0909	0.	1.2529e-002
16114	21.992	5.	0.	1.5268e-002
16115	21.992	5.0909	5.e-002	9.7991e-007
16116	22.265	5.0909	0.	1.5772e-002
16117	22.174	5.	0.	1.8427e-002
16118	22.174	5.0909	5.e-002	3.8026e-006
16119	22.448	5.0909	0.	2.0082e-002
16120	22.357	5.	0.	2.25e-002
16121	22.357	5.0909	5.e-002	4.9993e-006
16122	22.631	5.0909	0.	2.5843e-002
16123	22.539	5.	0.	2.7886e-002
16124	22.539	5.0909	5.e-002	5.3867e-006
16125	22.813	5.0909	0.	3.398e-002
16126	22.722	5.	0.	3.4985e-002
16127	22.722	5.0909	5.e-002	2.8484e-006
16128	22.996	5.0909	0.	4.4798e-002
16129	22.904	5.	0.	4.5307e-002
16130	22.904	5.0909	5.e-002	3.1744e-007
16131	23.178	5.0909	0.	6.3961e-002
16132	23.087	5.	0.	5.8092e-002
16133	23.087	5.0909	5.e-002	-4.6197e-006
16134	23.361	5.0909	0.	8.2434e-002
16135	23.27	5.	0.	8.5885e-002
16136	23.27	5.0909	5.e-002	-4.3062e-006
16137	23.544	5.0909	0.	0.16691
16138	23.452	5.	0.	9.9196e-002
16139	23.452	5.0909	5.e-002	-1.2827e-007
16140	23.726	5.0909	0.	0.13798
16141	23.635	5.	0.	0.26708
16142	23.635	5.0909	5.e-002	5.0901e-006
16143	23.817	5.	0.	0.10227
16144	23.817	5.0909	5.e-002	5.8265e-006
16145	23.909	5.0909	0.	0.40767
16146	12.041	4.9091	0.	-4.0309
16147	11.949	4.8182	0.	-6.4112
16148	11.949	4.9091	5.e-002	8.5859e-006
16149	11.858	4.9091	0.	0.67665
16150	12.223	4.9091	0.	-1.7298
16151	12.132	4.8182	0.	-1.0313
16152	12.132	4.9091	5.e-002	5.162e-005
16153	12.406	4.9091	0.	-2.2954
16154	12.314	4.8182	0.	-2.7433
16155	12.314	4.9091	5.e-002	6.3393e-005
16156	12.588	4.9091	0.	-2.0585
16157	12.497	4.8182	0.	-2.2627
16158	12.497	4.9091	5.e-002	6.4752e-005
16159	12.771	4.9091	0.	-2.0945
16160	12.68	4.8182	0.	-2.3374
16161	12.68	4.9091	5.e-002	8.1148e-005
16162	12.953	4.9091	0.	-2.2387
16163	12.862	4.8182	0.	-2.6156
16164	12.862	4.9091	5.e-002	8.6263e-005
16165	13.136	4.9091	0.	-2.6927
16166	13.045	4.8182	0.	-3.5221
16167	13.045	4.9091	5.e-002	5.9498e-005
16168	13.319	4.9091	0.	-3.9743
16169	13.227	4.8182	0.	-6.5387
16170	13.227	4.9091	5.e-002	4.9818e-005
16171	13.501	4.9091	0.	-7.9834
16172	13.41	4.8182	0.	-14.958
16173	13.41	4.9091	5.e-002	7.005e-005
16174	13.684	4.9091	0.	-15.243
16175	13.593	4.8182	0.	-24.773
16176	13.593	4.9091	5.e-002	9.2878e-005
16177	13.866	4.9091	0.	-22.233
16178	13.775	4.8182	0.	-32.473
16179	13.775	4.9091	5.e-002	2.3474e-005
16180	14.049	4.9091	0.	-27.8
16181	13.958	4.8182	0.	-38.062
16182	13.958	4.9091	5.e-002	9.621e-005
16183	14.232	4.9091	0.	-31.971
16184	14.14	4.8182	0.	-41.953
16185	14.14	4.9091	5.e-002	-1.0501e-005
16186	14.414	4.9091	0.	-34.92
16187	14.323	4.8182	0.	-44.483
16188	14.323	4.9091	5.e-002	2.3988e-005
16189	14.597	4.9091	0.	-36.815
16190	14.505	4.8182	0.	-45.9
16191	14.505	4.9091	5.e-002	6.8926e-006
16192	14.779	4.9091	0.	-37.805
16193	14.688	4.8182	0.	-46.395
16194	14.688	4.9091	5.e-002	4.4641e-006
16195	14.962	4.9091	0.	-38.024
16196	14.871	4.8182	0.	-46.122
16197	14.871	4.9091	5.e-002	1.8048e-005
16198	15.145	4.9091	0.	-37.592
16199	15.053	4.8182	0.	-45.21
16200	15.053	4.9091	5.e-002	1.0892e-005
16201	15.327	4.9091	0.	-36.617
16202	15.236	4.8182	0.	-43.773
16203	15.236	4.9091	5.e-002	7.4483e-006
16204	15.51	4.9091	0.	-35.197
16205	15.418	4.8182	0.	-41.913
16206	15.418	4.9091	5.e-002	8.8686e-006
16207	15.692	4.9091	0.	-33.421
16208	15.601	4.8182	0.	-39.716
16209	15.601	4.9091	5.e-002	6.8691e-006
16210	15.875	4.9091	0.	-31.366
16211	15.784	4.8182	0.	-37.261
16212	15.784	4.9091	5.e-002	7.0781e-006
16213	16.057	4.9091	0.	-29.1
16214	15.966	4.8182	0.	-34.614
16215	15.966	4.9091	5.e-002	5.524e-006
16216	16.24	4.9091	0.	-26.679
16217	16.149	4.8182	0.	-31.832
16218	16.149	4.9091	5.e-002	7.5992e-006
16219	16.423	4.9091	0.	-24.153
16220	16.331	4.8182	0.	-28.964
16221	16.331	4.9091	5.e-002	6.2171e-006
16222	16.605	4.9091	0.	-21.56
16223	16.514	4.8182	0.	-26.048
16224	16.514	4.9091	5.e-002	7.2808e-006
16225	16.788	4.9091	0.	-18.934
16226	16.697	4.8182	0.	-23.115
16227	16.697	4.9091	5.e-002	6.4247e-006
16228	16.97	4.9091	0.	-16.299
16229	16.879	4.8182	0.	-20.192
16230	16.879	4.9091	5.e-002	5.9127e-006
16231	17.153	4.9091	0.	-13.674
16232	17.062	4.8182	0.	-17.295
16233	17.062	4.9091	5.e-002	7.3601e-006
16234	17.336	4.9091	0.	-11.075
16235	17.244	4.8182	0.	-14.44
16236	17.244	4.9091	5.e-002	5.5927e-006
16237	17.518	4.9091	0.	-8.5117
16238	17.427	4.8182	0.	-11.634
16239	17.427	4.9091	5.e-002	6.9362e-006
16240	17.701	4.9091	0.	-5.99
16241	17.609	4.8182	0.	-8.8842
16242	17.609	4.9091	5.e-002	8.6278e-006
16243	17.883	4.9091	0.	-3.5147
16244	17.792	4.8182	0.	-6.1926
16245	17.792	4.9091	5.e-002	7.3303e-006
16246	18.066	4.9091	0.	-1.1008
16247	17.975	4.8182	0.	-3.5604
16248	17.975	4.9091	5.e-002	6.23e-006
16249	18.249	4.9091	0.	-1.8669e-002
16250	18.157	4.8182	0.	-1.0027
16251	18.157	4.9091	5.e-002	5.2929e-006
16252	18.431	4.9091	0.	-3.1185e-003
16253	18.34	4.8182	0.	-1.4645e-002
16254	18.34	4.9091	5.e-002	5.9722e-006
16255	18.614	4.9091	0.	2.5181e-004
16256	18.522	4.8182	0.	-1.6032e-003
16257	18.522	4.9091	5.e-002	4.5175e-006
16258	18.796	4.9091	0.	1.723e-003
16259	18.705	4.8182	0.	1.5372e-003
16260	18.705	4.9091	5.e-002	2.9157e-006
16261	18.979	4.9091	0.	2.5766e-003
16262	18.888	4.8182	0.	2.9986e-003
16263	18.888	4.9091	5.e-002	4.598e-006
16264	19.161	4.9091	0.	3.1731e-003
16265	19.07	4.8182	0.	3.9047e-003
16266	19.07	4.9091	5.e-002	3.9199e-006
16267	19.344	4.9091	0.	3.654e-003
16268	19.253	4.8182	0.	4.5791e-003
16269	19.253	4.9091	5.e-002	4.7382e-006
16270	19.527	4.9091	0.	4.086e-003
16271	19.435	4.8182	0.	5.1527e-003
16272	19.435	4.9091	5.e-002	3.0186e-006
16273	19.709	4.9091	0.	4.5072e-003
16274	19.618	4.8182	0.	5.6873e-003
16275	19.618	4.9091	5.e-002	4.0922e-006
16276	19.892	4.9091	0.	4.9449e-003
16277	19.8	4.8182	0.	6.2222e-003
16278	19.8	4.9091	5.e-002	1.7909e-006
16279	20.074	4.9091	0.	5.418e-003
16280	19.983	4.8182	0.	6.7839e-003
16281	19.983	4.9091	5.e-002	1.7829e-006
16282	20.257	4.9091	0.	5.9426e-003
16283	20.166	4.8182	0.	7.3911e-003
16284	20.166	4.9091	5.e-002	4.4555e-006
16285	20.44	4.9091	0.	6.5384e-003
16286	20.348	4.8182	0.	8.0638e-003
16287	20.348	4.9091	5.e-002	2.9543e-006
16288	20.622	4.9091	0.	7.2238e-003
16289	20.531	4.8182	0.	8.8223e-003
16290	20.531	4.9091	5.e-002	3.1265e-006
16291	20.805	4.9091	0.	8.0209e-003
16292	20.713	4.8182	0.	9.6846e-003
16293	20.713	4.9091	5.e-002	3.1158e-006
16294	20.987	4.9091	0.	8.9628e-003
16295	20.896	4.8182	0.	1.0682e-002
16296	20.896	4.9091	5.e-002	2.0377e-006
16297	21.17	4.9091	0.	1.0082e-002
16298	21.079	4.8182	0.	1.1852e-002
16299	21.079	4.9091	5.e-002	1.7238e-006
16300	21.352	4.9091	0.	1.1418e-002
16301	21.261	4.8182	0.	1.3224e-002
16302	21.261	4.9091	5.e-002	3.2241e-007
16303	21.535	4.9091	0.	1.3036e-002
16304	21.444	4.8182	0.	1.4854e-002
16305	21.444	4.9091	5.e-002	1.9811e-006
16306	21.718	4.9091	0.	1.5016e-002
16307	21.626	4.8182	0.	1.6815e-002
16308	21.626	4.9091	5.e-002	2.1956e-006
16309	21.9	4.9091	0.	1.7459e-002
16310	21.809	4.8182	0.	1.9196e-002
16311	21.809	4.9091	5.e-002	2.2667e-006
16312	22.083	4.9091	0.	2.0513e-002
16313	21.992	4.8182	0.	2.212e-002
16314	21.992	4.9091	5.e-002	1.4297e-006
16315	22.265	4.9091	0.	2.4379e-002
16316	22.174	4.8182	0.	2.5762e-002
16317	22.174	4.9091	5.e-002	4.5276e-006
16318	22.448	4.9091	0.	2.9363e-002
16319	22.357	4.8182	0.	3.0353e-002
16320	22.357	4.9091	5.e-002	5.5914e-006
16321	22.631	4.9091	0.	3.5853e-002
16322	22.539	4.8182	0.	3.6295e-002
16323	22.539	4.9091	5.e-002	5.044e-006
16324	22.813	4.9091	0.	4.478e-002
16325	22.722	4.8182	0.	4.3992e-002
16326	22.722	4.9091	5.e-002	2.2413e-006
16327	22.996	4.9091	0.	5.6464e-002
16328	22.904	4.8182	0.	5.4968e-002
16329	22.904	4.9091	5.e-002	1.4888e-006
16330	23.178	4.9091	0.	7.669e-002
16331	23.087	4.8182	0.	6.8493e-002
16332	23.087	4.9091	5.e-002	-3.5033e-006
16333	23.361	4.9091	0.	9.6441e-002
16334	23.27	4.8182	0.	9.7327e-002
16335	23.27	4.9091	5.e-002	-4.0655e-006
16336	23.544	4.9091	0.	0.1838
16337	23.452	4.8182	0.	0.1119
16338	23.452	4.9091	5.e-002	-5.5212e-007
16339	23.726	4.9091	0.	0.16172
16340	23.635	4.8182	0.	0.28398
16341	23.635	4.9091	5.e-002	5.0257e-006
16342	23.817	4.8182	0.	0.13042
16343	23.817	4.9091	5.e-002	6.2526e-006
16344	23.909	4.9091	0.	0.41785
16345	12.041	4.7273	0.	-3.7468
16346	11.949	4.6364	0.	-12.099
16347	11.949	4.7273	5.e-002	5.0734e-005
16348	11.858	4.7273	0.	4.4056
16349	12.223	4.7273	0.	-2.0646
16350	12.132	4.6364	0.	-1.6567
16351	12.132	4.7273	5.e-002	8.9106e-005
16352	12.406	4.7273	0.	-2.6926
16353	12.314	4.6364	0.	-3.1502
16354	12.314	4.7273	5.e-002	7.7908e-005
16355	12.588	4.7273	0.	-2.4999
16356	12.497	4.6364	0.	-2.815
16357	12.497	4.7273	5.e-002	1.0497e-004
16358	12.771	4.7273	0.	-2.8157
16359	12.68	4.6364	0.	-3.085
16360	12.68	4.7273	5.e-002	8.8177e-005
16361	12.953	4.7273	0.	-3.9807
16362	12.862	4.6364	0.	-4.5542
16363	12.862	4.7273	5.e-002	1.4668e-004
16364	13.136	4.7273	0.	-8.6762
16365	13.045	4.6364	0.	-12.139
16366	13.045	4.7273	5.e-002	1.062e-004
16367	13.319	4.7273	0.	-21.464
16368	13.227	4.6364	0.	-30.858
16369	13.227	4.7273	5.e-002	3.6665e-005
16370	13.501	4.7273	0.	-33.906
16371	13.41	4.6364	0.	-46.116
16372	13.41	4.7273	5.e-002	8.8427e-005
16373	13.684	4.7273	0.	-42.698
16374	13.593	4.6364	0.	-55.946
16375	13.593	4.7273	5.e-002	4.8169e-005
16376	13.866	4.7273	0.	-48.576
16377	13.775	4.6364	0.	-61.948
16378	13.775	4.7273	5.e-002	4.318e-005
16379	14.049	4.7273	0.	-52.332
16380	13.958	4.6364	0.	-65.345
16381	13.958	4.7273	5.e-002	8.0669e-005
16382	14.232	4.7273	0.	-54.51
16383	14.14	4.6364	0.	-66.92
16384	14.14	4.7273	5.e-002	8.857e-006
16385	14.414	4.7273	0.	-55.473
16386	14.323	4.6364	0.	-67.17
16387	14.323	4.7273	5.e-002	8.4716e-006
16388	14.597	4.7273	0.	-55.473
16389	14.505	4.6364	0.	-66.421
16390	14.505	4.7273	5.e-002	1.7083e-005
16391	14.779	4.7273	0.	-54.695
16392	14.688	4.6364	0.	-64.9
16393	14.688	4.7273	5.e-002	1.4349e-005
16394	14.962	4.7273	0.	-53.287
16395	14.871	4.6364	0.	-62.775
16396	14.871	4.7273	5.e-002	6.2486e-006
16397	15.145	4.7273	0.	-51.371
16398	15.053	4.6364	0.	-60.179
16399	15.053	4.7273	5.e-002	1.2057e-005
16400	15.327	4.7273	0.	-49.049
16401	15.236	4.6364	0.	-57.219
16402	15.236	4.7273	5.e-002	1.0046e-005
16403	15.51	4.7273	0.	-46.411
16404	15.418	4.6364	0.	-53.986
16405	15.418	4.7273	5.e-002	8.9389e-006
16406	15.692	4.7273	0.	-43.535
16407	15.601	4.6364	0.	-50.555
16408	15.601	4.7273	5.e-002	6.4266e-006
16409	15.875	4.7273	0.	-40.488
16410	15.784	4.6364	0.	-46.993
16411	15.784	4.7273	5.e-002	7.0652e-006
16412	16.057	4.7273	0.	-37.327
16413	15.966	4.6364	0.	-43.353
16414	15.966	4.7273	5.e-002	6.5659e-006
16415	16.24	4.7273	0.	-34.097
16416	16.149	4.6364	0.	-39.68
16417	16.149	4.7273	5.e-002	7.6361e-006
16418	16.423	4.7273	0.	-30.839
16419	16.331	4.6364	0.	-36.01
16420	16.331	4.7273	5.e-002	5.3271e-006
16421	16.605	4.7273	0.	-27.583
16422	16.514	4.6364	0.	-32.372
16423	16.514	4.7273	5.e-002	6.0112e-006
16424	16.788	4.7273	0.	-24.353
16425	16.697	4.6364	0.	-28.788
16426	16.697	4.7273	5.e-002	6.2959e-006
16427	16.97	4.7273	0.	-21.167
16428	16.879	4.6364	0.	-25.275
16429	16.879	4.7273	5.e-002	5.9324e-006
16430	17.153	4.7273	0.	-18.039
16431	17.062	4.6364	0.	-21.842
16432	17.062	4.7273	5.e-002	6.7286e-006
16433	17.336	4.7273	0.	-14.976
16434	17.244	4.6364	0.	-18.497
16435	17.244	4.7273	5.e-002	5.6098e-006
16436	17.518	4.7273	0.	-11.984
16437	17.427	4.6364	0.	-15.243
16438	17.427	4.7273	5.e-002	6.8524e-006
16439	17.701	4.7273	0.	-9.0629
16440	17.609	4.6364	0.	-12.079
16441	17.609	4.7273	5.e-002	8.4911e-006
16442	17.883	4.7273	0.	-6.2133
16443	17.792	4.6364	0.	-9.003
16444	17.792	4.7273	5.e-002	6.7133e-006
16445	18.066	4.7273	0.	-3.4331
16446	17.975	4.6364	0.	-6.0102
16447	17.975	4.7273	5.e-002	5.6835e-006
16448	18.249	4.7273	0.	-0.74463
16449	18.157	4.6364	0.	-3.0967
16450	18.157	4.7273	5.e-002	5.1731e-006
16451	18.431	4.7273	0.	-9.1776e-003
16452	18.34	4.6364	0.	-0.33047
16453	18.34	4.7273	5.e-002	6.1441e-006
16454	18.614	4.7273	0.	4.0198e-004
16455	18.522	4.6364	0.	-4.1984e-003
16456	18.522	4.7273	5.e-002	4.7849e-006
16457	18.796	4.7273	0.	3.0947e-003
16458	18.705	4.6364	0.	2.4111e-003
16459	18.705	4.7273	5.e-002	2.4849e-006
16460	18.979	4.7273	0.	4.457e-003
16461	18.888	4.6364	0.	4.6452e-003
16462	18.888	4.7273	5.e-002	4.1483e-006
16463	19.161	4.7273	0.	5.3646e-003
16464	19.07	4.6364	0.	5.8927e-003
16465	19.07	4.7273	5.e-002	3.487e-006
16466	19.344	4.7273	0.	6.0836e-003
16467	19.253	4.6364	0.	6.7891e-003
16468	19.253	4.7273	5.e-002	4.3513e-006
16469	19.527	4.7273	0.	6.7249e-003
16470	19.435	4.6364	0.	7.542e-003
16471	19.435	4.7273	5.e-002	2.1601e-006
16472	19.709	4.7273	0.	7.3449e-003
16473	19.618	4.6364	0.	8.2424e-003
16474	19.618	4.7273	5.e-002	3.517e-006
16475	19.892	4.7273	0.	7.9791e-003
16476	19.8	4.6364	0.	8.94e-003
16477	19.8	4.7273	5.e-002	7.2129e-007
16478	20.074	4.7273	0.	8.6518e-003
16479	19.983	4.6364	0.	9.6649e-003
16480	19.983	4.7273	5.e-002	9.0768e-007
16481	20.257	4.7273	0.	9.3846e-003
16482	20.166	4.6364	0.	1.044e-002
16483	20.166	4.7273	5.e-002	3.2989e-006
16484	20.44	4.7273	0.	1.0197e-002
16485	20.348	4.6364	0.	1.1289e-002
16486	20.348	4.7273	5.e-002	2.2608e-006
16487	20.622	4.7273	0.	1.1109e-002
16488	20.531	4.6364	0.	1.2232e-002
16489	20.531	4.7273	5.e-002	2.5372e-006
16490	20.805	4.7273	0.	1.2146e-002
16491	20.713	4.6364	0.	1.3288e-002
16492	20.713	4.7273	5.e-002	2.357e-006
16493	20.987	4.7273	0.	1.3344e-002
16494	20.896	4.6364	0.	1.4492e-002
16495	20.896	4.7273	5.e-002	1.555e-006
16496	21.17	4.7273	0.	1.4735e-002
16497	21.079	4.6364	0.	1.5882e-002
16498	21.079	4.7273	5.e-002	3.4753e-007
16499	21.352	4.7273	0.	1.6365e-002
16500	21.261	4.6364	0.	1.7485e-002
16501	21.261	4.7273	5.e-002	-5.9446e-007
16502	21.535	4.7273	0.	1.8295e-002
16503	21.444	4.6364	0.	1.9364e-002
16504	21.444	4.7273	5.e-002	9.7463e-007
16505	21.718	4.7273	0.	2.0608e-002
16506	21.626	4.6364	0.	2.1586e-002
16507	21.626	4.7273	5.e-002	1.155e-006
16508	21.9	4.7273	0.	2.3408e-002
16509	21.809	4.6364	0.	2.4245e-002
16510	21.809	4.7273	5.e-002	1.1367e-006
16511	22.083	4.7273	0.	2.6842e-002
16512	21.992	4.6364	0.	2.7463e-002
16513	21.992	4.7273	5.e-002	1.1017e-006
16514	22.265	4.7273	0.	3.1109e-002
16515	22.174	4.6364	0.	3.1413e-002
16516	22.174	4.7273	5.e-002	3.5836e-006
16517	22.448	4.7273	0.	3.6518e-002
16518	22.357	4.6364	0.	3.633e-002
16519	22.357	4.7273	5.e-002	4.7579e-006
16520	22.631	4.7273	0.	4.3462e-002
16521	22.539	4.6364	0.	4.2615e-002
16522	22.539	4.7273	5.e-002	4.7454e-006
16523	22.813	4.7273	0.	5.2879e-002
16524	22.722	4.6364	0.	5.0679e-002
16525	22.722	4.7273	5.e-002	4.0801e-006
16526	22.996	4.7273	0.	6.5113e-002
16527	22.904	4.6364	0.	6.2065e-002
16528	22.904	4.7273	5.e-002	-8.0418e-007
16529	23.178	4.7273	0.	8.6057e-002
16530	23.087	4.6364	0.	7.6082e-002
16531	23.087	4.7273	5.e-002	-3.626e-006
16532	23.361	4.7273	0.	0.10676
16533	23.27	4.6364	0.	0.10566
16534	23.27	4.7273	5.e-002	-5.7904e-006
16535	23.544	4.7273	0.	0.19636
16536	23.452	4.6364	0.	0.12121
16537	23.452	4.7273	5.e-002	-1.0264e-006
16538	23.726	4.7273	0.	0.17978
16539	23.635	4.6364	0.	0.29651
16540	23.635	4.7273	5.e-002	3.3927e-006
16541	23.817	4.6364	0.	0.1522
16542	23.817	4.7273	5.e-002	7.2653e-006
16543	23.909	4.7273	0.	0.42586
16544	12.041	4.5455	0.	-10.346
16545	11.949	4.4545	0.	-5.9354
16546	11.949	4.5455	5.e-002	4.0404e-005
16547	11.858	4.5455	0.	-11.101
16548	12.223	4.5455	0.	-2.7359
16549	12.132	4.4545	0.	-1.1656
16550	12.132	4.5455	5.e-002	1.267e-004
16551	12.406	4.5455	0.	-3.2106
16552	12.314	4.4545	0.	-5.9586
16553	12.314	4.5455	5.e-002	1.4874e-004
16554	12.588	4.5455	0.	-3.2801
16555	12.497	4.4545	0.	-3.0907
16556	12.497	4.5455	5.e-002	1.5103e-004
16557	12.771	4.5455	0.	-4.5521
16558	12.68	4.4545	0.	-4.9178
16559	12.68	4.5455	5.e-002	1.4686e-004
16560	12.953	4.5455	0.	-12.775
16561	12.862	4.4545	0.	-15.01
16562	12.862	4.5455	5.e-002	7.238e-005
16563	13.136	4.5455	0.	-37.396
16564	13.045	4.4545	0.	-46.989
16565	13.045	4.5455	5.e-002	8.7363e-005
16566	13.319	4.5455	0.	-56.98
16567	13.227	4.4545	0.	-70.793
16568	13.227	4.5455	5.e-002	1.0564e-004
16569	13.501	4.5455	0.	-68.857
16570	13.41	4.4545	0.	-84.537
16571	13.41	4.5455	5.e-002	9.5943e-005
16572	13.684	4.5455	0.	-75.558
16573	13.593	4.4545	0.	-91.757
16574	13.593	4.5455	5.e-002	6.2361e-005
16575	13.866	4.5455	0.	-78.902
16576	13.775	4.4545	0.	-94.861
16577	13.775	4.5455	5.e-002	5.6789e-005
16578	14.049	4.5455	0.	-80.022
16579	13.958	4.4545	0.	-95.325
16580	13.958	4.5455	5.e-002	2.9194e-005
16581	14.232	4.5455	0.	-79.615
16582	14.14	4.4545	0.	-94.055
16583	14.14	4.5455	5.e-002	5.3956e-005
16584	14.414	4.5455	0.	-78.124
16585	14.323	4.4545	0.	-91.612
16586	14.323	4.5455	5.e-002	8.1698e-006
16587	14.597	4.5455	0.	-75.84
16588	14.505	4.4545	0.	-88.358
16589	14.505	4.5455	5.e-002	-2.6207e-006
16590	14.779	4.5455	0.	-72.965
16591	14.688	4.4545	0.	-84.536
16592	14.688	4.5455	5.e-002	1.5305e-005
16593	14.962	4.5455	0.	-69.65
16594	14.871	4.4545	0.	-80.318
16595	14.871	4.5455	5.e-002	7.7732e-006
16596	15.145	4.5455	0.	-66.009
16597	15.053	4.4545	0.	-75.831
16598	15.053	4.5455	5.e-002	1.0447e-005
16599	15.327	4.5455	0.	-62.138
16600	15.236	4.4545	0.	-71.172
16601	15.236	4.5455	5.e-002	1.1079e-005
16602	15.51	4.5455	0.	-58.112
16603	15.418	4.4545	0.	-66.419
16604	15.418	4.5455	5.e-002	7.0063e-006
16605	15.692	4.5455	0.	-53.995
16606	15.601	4.4545	0.	-61.632
16607	15.601	4.5455	5.e-002	8.6561e-006
16608	15.875	4.5455	0.	-49.84
16609	15.784	4.4545	0.	-56.862
16610	15.784	4.5455	5.e-002	9.4604e-006
16611	16.057	4.5455	0.	-45.689
16612	15.966	4.4545	0.	-52.148
16613	15.966	4.5455	5.e-002	5.969e-006
16614	16.24	4.5455	0.	-41.575
16615	16.149	4.4545	0.	-47.518
16616	16.149	4.5455	5.e-002	7.7593e-006
16617	16.423	4.5455	0.	-37.525
16618	16.331	4.4545	0.	-42.997
16619	16.331	4.5455	5.e-002	5.3801e-006
16620	16.605	4.5455	0.	-33.56
16621	16.514	4.4545	0.	-38.6
16622	16.514	4.5455	5.e-002	6.1903e-006
16623	16.788	4.5455	0.	-29.692
16624	16.697	4.4545	0.	-34.337
16625	16.697	4.5455	5.e-002	6.6517e-006
16626	16.97	4.5455	0.	-25.931
16627	16.879	4.4545	0.	-30.215
16628	16.879	4.5455	5.e-002	5.5971e-006
16629	17.153	4.5455	0.	-22.281
16630	17.062	4.4545	0.	-26.234
16631	17.062	4.5455	5.e-002	7.0019e-006
16632	17.336	4.5455	0.	-18.744
16633	17.244	4.4545	0.	-22.393
16634	17.244	4.5455	5.e-002	5.1195e-006
16635	17.518	4.5455	0.	-15.317
16636	17.427	4.4545	0.	-18.688
16637	17.427	4.5455	5.e-002	6.4249e-006
16638	17.701	4.5455	0.	-11.997
16639	17.609	4.4545	0.	-15.113
16640	17.609	4.5455	5.e-002	8.3585e-006
16641	17.883	4.5455	0.	-8.7762
16642	17.792	4.4545	0.	-11.658
16643	17.792	4.5455	5.e-002	6.8992e-006
16644	18.066	4.5455	0.	-5.6485
16645	17.975	4.4545	0.	-8.3133
16646	17.975	4.5455	5.e-002	6.1267e-006
16647	18.249	4.5455	0.	-2.6073
16648	18.157	4.4545	0.	-5.0695
16649	18.157	4.5455	5.e-002	5.0671e-006
16650	18.431	4.5455	0.	-5.9592e-002
16651	18.34	4.4545	0.	-1.9197
16652	18.34	4.5455	5.e-002	5.9905e-006
16653	18.614	4.5455	0.	-2.8358e-005
16654	18.522	4.4545	0.	-1.3929e-002
16655	18.522	4.5455	5.e-002	4.4689e-006
16656	18.796	4.5455	0.	4.4378e-003
16657	18.705	4.4545	0.	3.1708e-003
16658	18.705	4.5455	5.e-002	2.6299e-006
16659	18.979	4.5455	0.	6.2498e-003
16660	18.888	4.4545	0.	6.2445e-003
16661	18.888	4.5455	5.e-002	4.1544e-006
16662	19.161	4.5455	0.	7.375e-003
16663	19.07	4.4545	0.	7.7377e-003
16664	19.07	4.5455	5.e-002	3.3909e-006
16665	19.344	4.5455	0.	8.2489e-003
16666	19.253	4.4545	0.	8.7721e-003
16667	19.253	4.5455	5.e-002	4.0502e-006
16668	19.527	4.5455	0.	9.0257e-003
16669	19.435	4.4545	0.	9.6354e-003
16670	19.435	4.5455	5.e-002	1.5533e-006
16671	19.709	4.5455	0.	9.7779e-003
16672	19.618	4.4545	0.	1.0442e-002
16673	19.618	4.5455	5.e-002	2.6877e-006
16674	19.892	4.5455	0.	1.0545e-002
16675	19.8	4.4545	0.	1.1246e-002
16676	19.8	4.5455	5.e-002	6.8863e-007
16677	20.074	4.5455	0.	1.1354e-002
16678	19.983	4.4545	0.	1.2081e-002
16679	19.983	4.5455	5.e-002	6.1195e-007
16680	20.257	4.5455	0.	1.2228e-002
16681	20.166	4.4545	0.	1.2973e-002
16682	20.166	4.5455	5.e-002	2.7985e-006
16683	20.44	4.5455	0.	1.3189e-002
16684	20.348	4.4545	0.	1.3944e-002
16685	20.348	4.5455	5.e-002	2.032e-006
16686	20.622	4.5455	0.	1.4258e-002
16687	20.531	4.4545	0.	1.5015e-002
16688	20.531	4.5455	5.e-002	1.9275e-006
16689	20.805	4.5455	0.	1.5461e-002
16690	20.713	4.4545	0.	1.6207e-002
16691	20.713	4.5455	5.e-002	2.0595e-006
16692	20.987	4.5455	0.	1.6835e-002
16693	20.896	4.4545	0.	1.7555e-002
16694	20.896	4.5455	5.e-002	6.6827e-007
16695	21.17	4.5455	0.	1.8411e-002
16696	21.079	4.4545	0.	1.9096e-002
16697	21.079	4.5455	5.e-002	6.2676e-007
16698	21.352	4.5455	0.	2.0235e-002
16699	21.261	4.4545	0.	2.0857e-002
16700	21.261	4.5455	5.e-002	-8.3568e-007
16701	21.535	4.5455	0.	2.2373e-002
16702	21.444	4.4545	0.	2.2902e-002
16703	21.444	4.5455	5.e-002	1.4311e-006
16704	21.718	4.5455	0.	2.4901e-002
16705	21.626	4.4545	0.	2.5297e-002
16706	21.626	4.5455	5.e-002	1.4446e-006
16707	21.9	4.5455	0.	2.7926e-002
16708	21.809	4.4545	0.	2.8138e-002
16709	21.809	4.5455	5.e-002	1.0794e-006
16710	22.083	4.5455	0.	3.1594e-002
16711	21.992	4.4545	0.	3.1541e-002
16712	21.992	4.5455	5.e-002	-3.7336e-008
16713	22.265	4.5455	0.	3.6104e-002
16714	22.174	4.4545	0.	3.5684e-002
16715	22.174	4.5455	5.e-002	2.6111e-006
16716	22.448	4.5455	0.	4.1769e-002
16717	22.357	4.4545	0.	4.08e-002
16718	22.357	4.5455	5.e-002	5.2623e-006
16719	22.631	4.5455	0.	4.8982e-002
16720	22.539	4.4545	0.	4.7295e-002
16721	22.539	4.5455	5.e-002	3.714e-006
16722	22.813	4.5455	0.	5.8696e-002
16723	22.722	4.4545	0.	5.5585e-002
16724	22.722	4.5455	5.e-002	3.7036e-006
16725	22.996	4.5455	0.	7.1284e-002
16726	22.904	4.4545	0.	6.7244e-002
16727	22.904	4.5455	5.e-002	-6.9986e-007
16728	23.178	4.5455	0.	9.2724e-002
16729	23.087	4.4545	0.	8.1606e-002
16730	23.087	4.5455	5.e-002	-6.2262e-006
16731	23.361	4.5455	0.	0.11412
16732	23.27	4.4545	0.	0.11173
16733	23.27	4.5455	5.e-002	-6.4269e-006
16734	23.544	4.5455	0.	0.2054
16735	23.452	4.4545	0.	0.12803
16736	23.452	4.5455	5.e-002	-9.4815e-007
16737	23.726	4.5455	0.	0.19316
16738	23.635	4.4545	0.	0.30582
16739	23.635	4.5455	5.e-002	3.2353e-006
16740	23.817	4.4545	0.	0.1691
16741	23.817	4.5455	5.e-002	6.2703e-006
16742	23.909	4.5455	0.	0.43126
16743	12.041	4.3636	0.	2.9167
16744	11.949	4.2727	0.	-52.913
16745	11.949	4.3636	5.e-002	1.9272e-004
16746	11.858	4.3636	0.	48.962
16747	12.223	4.3636	0.	-4.3823
16748	12.132	4.2727	0.	2.8708
16749	12.132	4.3636	5.e-002	2.3547e-004
16750	12.406	4.3636	0.	-5.7127
16751	12.314	4.2727	0.	-7.5424
16752	12.314	4.3636	5.e-002	2.0686e-004
16753	12.588	4.3636	0.	-4.3977
16754	12.497	4.2727	0.	-4.0658
16755	12.497	4.3636	5.e-002	1.3534e-004
16756	12.771	4.3636	0.	-13.273
16757	12.68	4.2727	0.	-13.709
16758	12.68	4.3636	5.e-002	1.9975e-004
16759	12.953	4.3636	0.	-51.59
16760	12.862	4.2727	0.	-59.668
16761	12.862	4.3636	5.e-002	1.2421e-004
16762	13.136	4.3636	0.	-82.16
16763	13.045	4.2727	0.	-96.082
16764	13.045	4.3636	5.e-002	8.2593e-005
16765	13.319	4.3636	0.	-99.346
16766	13.227	4.2727	0.	-116.24
16767	13.227	4.3636	5.e-002	7.958e-005
16768	13.501	4.3636	0.	-108.
16769	13.41	4.2727	0.	-126.12
16770	13.41	4.3636	5.e-002	7.5083e-005
16771	13.684	4.3636	0.	-111.37
16772	13.593	4.2727	0.	-129.64
16773	13.593	4.3636	5.e-002	4.5517e-005
16774	13.866	4.3636	0.	-111.44
16775	13.775	4.2727	0.	-129.24
16776	13.775	4.3636	5.e-002	8.1258e-006
16777	14.049	4.3636	0.	-109.44
16778	13.958	4.2727	0.	-126.39
16779	13.958	4.3636	5.e-002	3.9503e-005
16780	14.232	4.3636	0.	-106.08
16781	14.14	4.2727	0.	-122.01
16782	14.14	4.3636	5.e-002	1.0745e-005
16783	14.414	4.3636	0.	-101.85
16784	14.323	4.2727	0.	-116.67
16785	14.323	4.3636	5.e-002	2.0712e-005
16786	14.597	4.3636	0.	-97.048
16787	14.505	4.2727	0.	-110.74
16788	14.505	4.3636	5.e-002	2.2982e-007
16789	14.779	4.3636	0.	-91.877
16790	14.688	4.2727	0.	-104.48
16791	14.688	4.3636	5.e-002	8.3615e-006
16792	14.962	4.3636	0.	-86.485
16793	14.871	4.2727	0.	-98.051
16794	14.871	4.3636	5.e-002	1.3636e-005
16795	15.145	4.3636	0.	-80.978
16796	15.053	4.2727	0.	-91.573
16797	15.053	4.3636	5.e-002	1.0692e-005
16798	15.327	4.3636	0.	-75.437
16799	15.236	4.2727	0.	-85.131
16800	15.236	4.3636	5.e-002	9.7678e-006
16801	15.51	4.3636	0.	-69.924
16802	15.418	4.2727	0.	-78.788
16803	15.418	4.3636	5.e-002	7.7211e-006
16804	15.692	4.3636	0.	-64.484
16805	15.601	4.2727	0.	-72.591
16806	15.601	4.3636	5.e-002	9.7934e-006
16807	15.875	4.3636	0.	-59.155
16808	15.784	4.2727	0.	-66.57
16809	15.784	4.3636	5.e-002	7.4704e-006
16810	16.057	4.3636	0.	-53.963
16811	15.966	4.2727	0.	-60.748
16812	15.966	4.3636	5.e-002	7.0472e-006
16813	16.24	4.3636	0.	-48.926
16814	16.149	4.2727	0.	-55.139
16815	16.149	4.3636	5.e-002	6.5264e-006
16816	16.423	4.3636	0.	-44.057
16817	16.331	4.2727	0.	-49.751
16818	16.331	4.3636	5.e-002	7.4422e-006
16819	16.605	4.3636	0.	-39.362
16820	16.514	4.2727	0.	-44.585
16821	16.514	4.3636	5.e-002	7.4293e-006
16822	16.788	4.3636	0.	-34.843
16823	16.697	4.2727	0.	-39.641
16824	16.697	4.3636	5.e-002	7.3666e-006
16825	16.97	4.3636	0.	-30.5
16826	16.879	4.2727	0.	-34.911
16827	16.879	4.3636	5.e-002	6.2786e-006
16828	17.153	4.3636	0.	-26.328
16829	17.062	4.2727	0.	-30.387
16830	17.062	4.3636	5.e-002	7.748e-006
16831	17.336	4.3636	0.	-22.319
16832	17.244	4.2727	0.	-26.059
16833	17.244	4.3636	5.e-002	6.045e-006
16834	17.518	4.3636	0.	-18.464
16835	17.427	4.2727	0.	-21.915
16836	17.427	4.3636	5.e-002	7.4512e-006
16837	17.701	4.3636	0.	-14.752
16838	17.609	4.2727	0.	-17.94
16839	17.609	4.3636	5.e-002	9.5321e-006
16840	17.883	4.3636	0.	-11.172
16841	17.792	4.2727	0.	-14.121
16842	17.792	4.3636	5.e-002	7.7595e-006
16843	18.066	4.3636	0.	-7.7105
16844	17.975	4.2727	0.	-10.441
16845	17.975	4.3636	5.e-002	6.7093e-006
16846	18.249	4.3636	0.	-4.3545
16847	18.157	4.2727	0.	-6.8849
16848	18.157	4.3636	5.e-002	6.205e-006
16849	18.431	4.3636	0.	-1.1028
16850	18.34	4.2727	0.	-3.4383
16851	18.34	4.3636	5.e-002	6.7538e-006
16852	18.614	4.3636	0.	-1.7416e-003
16853	18.522	4.2727	0.	-0.18799
16854	18.522	4.3636	5.e-002	5.1464e-006
16855	18.796	4.3636	0.	5.7612e-003
16856	18.705	4.2727	0.	3.7965e-003
16857	18.705	4.3636	5.e-002	3.0606e-006
16858	18.979	4.3636	0.	7.939e-003
16859	18.888	4.2727	0.	7.7845e-003
16860	18.888	4.3636	5.e-002	4.9022e-006
16861	19.161	4.3636	0.	9.1926e-003
16862	19.07	4.2727	0.	9.4178e-003
16863	19.07	4.3636	5.e-002	4.1858e-006
16864	19.344	4.3636	0.	1.0155e-002
16865	19.253	4.2727	0.	1.0516e-002
16866	19.253	4.3636	5.e-002	4.7907e-006
16867	19.527	4.3636	0.	1.1014e-002
16868	19.435	4.2727	0.	1.1436e-002
16869	19.435	4.3636	5.e-002	2.4768e-006
16870	19.709	4.3636	0.	1.1849e-002
16871	19.618	4.2727	0.	1.2304e-002
16872	19.618	4.3636	5.e-002	3.7786e-006
16873	19.892	4.3636	0.	1.2704e-002
16874	19.8	4.2727	0.	1.3176e-002
16875	19.8	4.3636	5.e-002	1.41e-006
16876	20.074	4.3636	0.	1.3607e-002
16877	19.983	4.2727	0.	1.4087e-002
16878	19.983	4.3636	5.e-002	1.1616e-006
16879	20.257	4.3636	0.	1.4582e-002
16880	20.166	4.2727	0.	1.5059e-002
16881	20.166	4.3636	5.e-002	4.3153e-006
16882	20.44	4.3636	0.	1.5648e-002
16883	20.348	4.2727	0.	1.6117e-002
16884	20.348	4.3636	5.e-002	2.6863e-006
16885	20.622	4.3636	0.	1.6828e-002
16886	20.531	4.2727	0.	1.7279e-002
16887	20.531	4.3636	5.e-002	2.7927e-006
16888	20.805	4.3636	0.	1.815e-002
16889	20.713	4.2727	0.	1.8568e-002
16890	20.713	4.3636	5.e-002	3.4262e-006
16891	20.987	4.3636	0.	1.9646e-002
16892	20.896	4.2727	0.	2.0017e-002
16893	20.896	4.3636	5.e-002	2.094e-006
16894	21.17	4.3636	0.	2.1352e-002
16895	21.079	4.2727	0.	2.1663e-002
16896	21.079	4.3636	5.e-002	1.6953e-006
16897	21.352	4.3636	0.	2.331e-002
16898	21.261	4.2727	0.	2.3535e-002
16899	21.261	4.3636	5.e-002	1.0725e-006
16900	21.535	4.3636	0.	2.5584e-002
16901	21.444	4.2727	0.	2.569e-002
16902	21.444	4.3636	5.e-002	2.0158e-006
16903	21.718	4.3636	0.	2.8256e-002
16904	21.626	4.2727	0.	2.8203e-002
16905	21.626	4.3636	5.e-002	6.0819e-007
16906	21.9	4.3636	0.	3.143e-002
16907	21.809	4.2727	0.	3.1163e-002
16908	21.809	4.3636	5.e-002	2.1698e-006
16909	22.083	4.3636	0.	3.5248e-002
16910	21.992	4.2727	0.	3.4685e-002
16911	21.992	4.3636	5.e-002	1.2518e-006
16912	22.265	4.3636	0.	3.9913e-002
16913	22.174	4.2727	0.	3.8952e-002
16914	22.174	4.3636	5.e-002	3.9281e-006
16915	22.448	4.3636	0.	4.5738e-002
16916	22.357	4.2727	0.	4.4194e-002
16917	22.357	4.3636	5.e-002	3.5763e-006
16918	22.631	4.3636	0.	5.3122e-002
16919	22.539	4.2727	0.	5.0824e-002
16920	22.539	4.3636	5.e-002	4.6848e-006
16921	22.813	4.3636	0.	6.3039e-002
16922	22.722	4.2727	0.	5.9267e-002
16923	22.722	4.3636	5.e-002	3.5423e-006
16924	22.996	4.3636	0.	7.5887e-002
16925	22.904	4.2727	0.	7.1123e-002
16926	22.904	4.3636	5.e-002	1.3027e-006
16927	23.178	4.3636	0.	9.7708e-002
16928	23.087	4.2727	0.	8.575e-002
16929	23.087	4.3636	5.e-002	-3.0278e-006
16930	23.361	4.3636	0.	0.11965
16931	23.27	4.2727	0.	0.11631
16932	23.27	4.3636	5.e-002	-5.1113e-006
16933	23.544	4.3636	0.	0.21226
16934	23.452	4.2727	0.	0.1332
16935	23.452	4.3636	5.e-002	-5.6299e-007
16936	23.726	4.3636	0.	0.20351
16937	23.635	4.2727	0.	0.31295
16938	23.635	4.3636	5.e-002	3.4578e-006
16939	23.817	4.2727	0.	0.18251
16940	23.817	4.3636	5.e-002	7.9506e-006
16941	23.909	4.3636	0.	0.43527
16942	12.041	4.1818	0.	-53.419
16943	11.949	4.0909	0.	-262.04
16944	11.949	4.1818	5.e-002	5.0128e-004
16945	11.858	4.1818	0.	-216.24
16946	12.223	4.1818	0.	-0.83938
16947	12.132	4.0909	0.	31.337
16948	12.132	4.1818	5.e-002	3.1142e-004
16949	12.406	4.1818	0.	-5.6384
16950	12.314	4.0909	0.	-9.5012
16951	12.314	4.1818	5.e-002	1.6848e-004
16952	12.588	4.1818	0.	-10.876
16953	12.497	4.0909	0.	-7.6998
16954	12.497	4.1818	5.e-002	1.6243e-004
16955	12.771	4.1818	0.	-61.21
16956	12.68	4.0909	0.	-64.541
16957	12.68	4.1818	5.e-002	1.1881e-004
16958	12.953	4.1818	0.	-106.48
16959	12.862	4.0909	0.	-117.34
16960	12.862	4.1818	5.e-002	7.3608e-005
16961	13.136	4.1818	0.	-131.57
16962	13.045	4.0909	0.	-147.04
16963	13.045	4.1818	5.e-002	5.5469e-005
16964	13.319	4.1818	0.	-143.84
16965	13.227	4.0909	0.	-161.81
16966	13.227	4.1818	5.e-002	5.3161e-005
16967	13.501	4.1818	0.	-148.24
16968	13.41	4.0909	0.	-167.28
16969	13.41	4.1818	5.e-002	5.3112e-005
16970	13.684	4.1818	0.	-147.78
16971	13.593	4.0909	0.	-166.94
16972	13.593	4.1818	5.e-002	9.8484e-006
16973	13.866	4.1818	0.	-144.33
16974	13.775	4.0909	0.	-163.
16975	13.775	4.1818	5.e-002	3.6689e-005
16976	14.049	4.1818	0.	-139.03
16977	13.958	4.0909	0.	-156.85
16978	13.958	4.1818	5.e-002	3.5129e-005
16979	14.232	4.1818	0.	-132.62
16980	14.14	4.0909	0.	-149.37
16981	14.14	4.1818	5.e-002	2.0878e-005
16982	14.414	4.1818	0.	-125.57
16983	14.323	4.0909	0.	-141.15
16984	14.323	4.1818	5.e-002	1.1264e-005
16985	14.597	4.1818	0.	-118.17
16986	14.505	4.0909	0.	-132.57
16987	14.505	4.1818	5.e-002	1.6652e-005
16988	14.779	4.1818	0.	-110.65
16989	14.688	4.0909	0.	-123.88
16990	14.688	4.1818	5.e-002	4.2016e-006
16991	14.962	4.1818	0.	-103.13
16992	14.871	4.0909	0.	-115.25
16993	14.871	4.1818	5.e-002	9.1944e-006
16994	15.145	4.1818	0.	-95.713
16995	15.053	4.0909	0.	-106.79
16996	15.053	4.1818	5.e-002	9.2677e-006
16997	15.327	4.1818	0.	-88.47
16998	15.236	4.0909	0.	-98.575
16999	15.236	4.1818	5.e-002	7.4752e-006
17000	15.51	4.1818	0.	-81.443
17001	15.418	4.0909	0.	-90.655
17002	15.418	4.1818	5.e-002	8.2751e-006
17003	15.692	4.1818	0.	-74.663
17004	15.601	4.0909	0.	-83.059
17005	15.601	4.1818	5.e-002	8.6193e-006
17006	15.875	4.1818	0.	-68.15
17007	15.784	4.0909	0.	-75.802
17008	15.784	4.1818	5.e-002	8.0951e-006
17009	16.057	4.1818	0.	-61.911
17010	15.966	4.0909	0.	-68.891
17011	15.966	4.1818	5.e-002	7.1119e-006
17012	16.24	4.1818	0.	-55.951
17013	16.149	4.0909	0.	-62.321
17014	16.149	4.1818	5.e-002	8.6884e-006
17015	16.423	4.1818	0.	-50.266
17016	16.331	4.0909	0.	-56.087
17017	16.331	4.1818	5.e-002	7.4055e-006
17018	16.605	4.1818	0.	-44.85
17019	16.514	4.0909	0.	-50.176
17020	16.514	4.1818	5.e-002	6.5564e-006
17021	16.788	4.1818	0.	-39.693
17022	16.697	4.0909	0.	-44.572
17023	16.697	4.1818	5.e-002	6.8539e-006
17024	16.97	4.1818	0.	-34.781
17025	16.879	4.0909	0.	-39.258
17026	16.879	4.1818	5.e-002	5.5834e-006
17027	17.153	4.1818	0.	-30.102
17028	17.062	4.0909	0.	-34.215
17029	17.062	4.1818	5.e-002	6.9457e-006
17030	17.336	4.1818	0.	-25.637
17031	17.244	4.0909	0.	-29.425
17032	17.244	4.1818	5.e-002	5.8309e-006
17033	17.518	4.1818	0.	-21.372
17034	17.427	4.0909	0.	-24.865
17035	17.427	4.1818	5.e-002	6.9159e-006
17036	17.701	4.1818	0.	-17.288
17037	17.609	4.0909	0.	-20.515
17038	17.609	4.1818	5.e-002	8.7413e-006
17039	17.883	4.1818	0.	-13.368
17040	17.792	4.0909	0.	-16.355
17041	17.792	4.1818	5.e-002	7.0991e-006
17042	18.066	4.1818	0.	-9.5925
17043	17.975	4.0909	0.	-12.363
17044	17.975	4.1818	5.e-002	6.4753e-006
17045	18.249	4.1818	0.	-5.9443
17046	18.157	4.0909	0.	-8.5193
17047	18.157	4.1818	5.e-002	5.6746e-006
17048	18.431	4.1818	0.	-2.4076
17049	18.34	4.0909	0.	-4.8031
17050	18.34	4.1818	5.e-002	6.3049e-006
17051	18.614	4.1818	0.	-7.8113e-003
17052	18.522	4.0909	0.	-1.2027
17053	18.522	4.1818	5.e-002	4.8714e-006
17054	18.796	4.1818	0.	7.0766e-003
17055	18.705	4.0909	0.	4.2545e-003
17056	18.705	4.1818	5.e-002	2.771e-006
17057	18.979	4.1818	0.	9.4979e-003
17058	18.888	4.0909	0.	9.2492e-003
17059	18.888	4.1818	5.e-002	4.4977e-006
17060	19.161	4.1818	0.	1.0793e-002
17061	19.07	4.0909	0.	1.091e-002
17062	19.07	4.1818	5.e-002	3.7412e-006
17063	19.344	4.1818	0.	1.1786e-002
17064	19.253	4.0909	0.	1.201e-002
17065	19.253	4.1818	5.e-002	4.3771e-006
17066	19.527	4.1818	0.	1.2685e-002
17067	19.435	4.0909	0.	1.2948e-002
17068	19.435	4.1818	5.e-002	1.9299e-006
17069	19.709	4.1818	0.	1.357e-002
17070	19.618	4.0909	0.	1.3848e-002
17071	19.618	4.1818	5.e-002	3.0627e-006
17072	19.892	4.1818	0.	1.4484e-002
17073	19.8	4.0909	0.	1.4761e-002
17074	19.8	4.1818	5.e-002	7.5587e-007
17075	20.074	4.1818	0.	1.5452e-002
17076	19.983	4.0909	0.	1.5724e-002
17077	19.983	4.1818	5.e-002	1.0532e-006
17078	20.257	4.1818	0.	1.6496e-002
17079	20.166	4.0909	0.	1.675e-002
17080	20.166	4.1818	5.e-002	3.7203e-006
17081	20.44	4.1818	0.	1.7637e-002
17082	20.348	4.0909	0.	1.7869e-002
17083	20.348	4.1818	5.e-002	2.3356e-006
17084	20.622	4.1818	0.	1.8897e-002
17085	20.531	4.0909	0.	1.9095e-002
17086	20.531	4.1818	5.e-002	2.7135e-006
17087	20.805	4.1818	0.	2.03e-002
17088	20.713	4.0909	0.	2.0454e-002
17089	20.713	4.1818	5.e-002	3.5654e-006
17090	20.987	4.1818	0.	2.1883e-002
17091	20.896	4.0909	0.	2.1973e-002
17092	20.896	4.1818	5.e-002	1.2746e-006
17093	21.17	4.1818	0.	2.3678e-002
17094	21.079	4.0909	0.	2.3693e-002
17095	21.079	4.1818	5.e-002	1.3389e-006
17096	21.352	4.1818	0.	2.5726e-002
17097	21.261	4.0909	0.	2.564e-002
17098	21.261	4.1818	5.e-002	7.1187e-007
17099	21.535	4.1818	0.	2.8095e-002
17100	21.444	4.0909	0.	2.7871e-002
17101	21.444	4.1818	5.e-002	1.6755e-006
17102	21.718	4.1818	0.	3.0863e-002
17103	21.626	4.0909	0.	3.0463e-002
17104	21.626	4.1818	5.e-002	7.111e-007
17105	21.9	4.1818	0.	3.413e-002
17106	21.809	4.0909	0.	3.3498e-002
17107	21.809	4.1818	5.e-002	9.3164e-007
17108	22.083	4.1818	0.	3.8045e-002
17109	21.992	4.0909	0.	3.7099e-002
17110	21.992	4.1818	5.e-002	-1.5162e-006
17111	22.265	4.1818	0.	4.2809e-002
17112	22.174	4.0909	0.	4.1444e-002
17113	22.174	4.1818	5.e-002	3.9271e-006
17114	22.448	4.1818	0.	4.8737e-002
17115	22.357	4.0909	0.	4.6771e-002
17116	22.357	4.1818	5.e-002	4.5915e-006
17117	22.631	4.1818	0.	5.6239e-002
17118	22.539	4.0909	0.	5.349e-002
17119	22.539	4.1818	5.e-002	3.8898e-006
17120	22.813	4.1818	0.	6.6303e-002
17121	22.722	4.0909	0.	6.2046e-002
17122	22.722	4.1818	5.e-002	3.0782e-006
17123	22.996	4.1818	0.	7.9346e-002
17124	22.904	4.0909	0.	7.405e-002
17125	22.904	4.1818	5.e-002	5.2833e-007
17126	23.178	4.1818	0.	0.10146
17127	23.087	4.0909	0.	8.8884e-002
17128	23.087	4.1818	5.e-002	-3.7048e-006
17129	23.361	4.1818	0.	0.12384
17130	23.27	4.0909	0.	0.11978
17131	23.27	4.1818	5.e-002	-4.6196e-006
17132	23.544	4.1818	0.	0.21748
17133	23.452	4.0909	0.	0.13714
17134	23.452	4.1818	5.e-002	-2.1174e-007
17135	23.726	4.1818	0.	0.21157
17136	23.635	4.0909	0.	0.31843
17137	23.635	4.1818	5.e-002	5.3459e-006
17138	23.817	4.0909	0.	0.19317
17139	23.817	4.1818	5.e-002	2.4744e-006
17140	23.909	4.1818	0.	0.43825
17141	12.041	4.	0.	-176.37
17142	11.949	3.9091	0.	-176.37
17143	11.949	4.	5.e-002	2.706e-004
17144	11.858	4.	0.	-350.41
17145	12.223	4.	0.	22.501
17146	12.132	3.9091	0.	42.429
17147	12.132	4.	5.e-002	8.658e-005
17148	12.406	4.	0.	-8.8806
17149	12.314	3.9091	0.	-8.8316
17150	12.314	4.	5.e-002	7.8258e-005
17151	12.588	4.	0.	-59.506
17152	12.497	3.9091	0.	-45.003
17153	12.497	4.	5.e-002	8.1521e-005
17154	12.771	4.	0.	-123.36
17155	12.68	3.9091	0.	-122.57
17156	12.68	4.	5.e-002	5.2814e-005
17157	12.953	4.	0.	-159.66
17158	12.862	3.9091	0.	-167.44
17159	12.862	4.	5.e-002	8.1068e-005
17160	13.136	4.	0.	-178.38
17161	13.045	3.9091	0.	-191.69
17162	13.045	4.	5.e-002	7.3264e-005
17163	13.319	4.	0.	-185.91
17164	13.227	3.9091	0.	-202.45
17165	13.227	4.	5.e-002	4.2342e-005
17166	13.501	4.	0.	-186.37
17167	13.41	3.9091	0.	-204.54
17168	13.41	4.	5.e-002	3.2446e-005
17169	13.684	4.	0.	-182.38
17170	13.593	3.9091	0.	-201.07
17171	13.593	4.	5.e-002	1.2879e-005
17172	13.866	4.	0.	-175.63
17173	13.775	3.9091	0.	-194.12
17174	13.775	4.	5.e-002	1.9746e-005
17175	14.049	4.	0.	-167.24
17176	13.958	3.9091	0.	-185.05
17177	13.958	4.	5.e-002	1.1841e-005
17178	14.232	4.	0.	-157.93
17179	14.14	3.9091	0.	-174.78
17180	14.14	4.	5.e-002	2.2492e-005
17181	14.414	4.	0.	-148.17
17182	14.323	3.9091	0.	-163.92
17183	14.323	4.	5.e-002	5.2332e-006
17184	14.597	4.	0.	-138.28
17185	14.505	3.9091	0.	-152.87
17186	14.505	4.	5.e-002	2.0283e-005
17187	14.779	4.	0.	-128.48
17188	14.688	3.9091	0.	-141.91
17189	14.688	4.	5.e-002	8.9757e-006
17190	14.962	4.	0.	-118.9
17191	14.871	3.9091	0.	-131.21
17192	14.871	4.	5.e-002	1.101e-005
17193	15.145	4.	0.	-109.64
17194	15.053	3.9091	0.	-120.88
17195	15.053	4.	5.e-002	1.2203e-005
17196	15.327	4.	0.	-100.75
17197	15.236	3.9091	0.	-110.99
17198	15.236	4.	5.e-002	1.0356e-005
17199	15.51	4.	0.	-92.261
17200	15.418	3.9091	0.	-101.58
17201	15.418	4.	5.e-002	1.024e-005
17202	15.692	4.	0.	-84.188
17203	15.601	3.9091	0.	-92.669
17204	15.601	4.	5.e-002	8.8662e-006
17205	15.875	4.	0.	-76.533
17206	15.784	3.9091	0.	-84.25
17207	15.784	4.	5.e-002	1.0278e-005
17208	16.057	4.	0.	-69.29
17209	15.966	3.9091	0.	-76.316
17210	15.966	4.	5.e-002	8.4143e-006
17211	16.24	4.	0.	-62.447
17212	16.149	3.9091	0.	-68.848
17213	16.149	4.	5.e-002	8.76e-006
17214	16.423	4.	0.	-55.985
17215	16.331	3.9091	0.	-61.824
17216	16.331	4.	5.e-002	8.2843e-006
17217	16.605	4.	0.	-49.884
17218	16.514	3.9091	0.	-55.218
17219	16.514	4.	5.e-002	8.8374e-006
17220	16.788	4.	0.	-44.123
17221	16.697	3.9091	0.	-49.004
17222	16.697	4.	5.e-002	8.0084e-006
17223	16.97	4.	0.	-38.677
17224	16.879	3.9091	0.	-43.151
17225	16.879	4.	5.e-002	6.9909e-006
17226	17.153	4.	0.	-33.522
17227	17.062	3.9091	0.	-37.632
17228	17.062	4.	5.e-002	7.9124e-006
17229	17.336	4.	0.	-28.635
17230	17.244	3.9091	0.	-32.418
17231	17.244	4.	5.e-002	6.8765e-006
17232	17.518	4.	0.	-23.989
17233	17.427	3.9091	0.	-27.48
17234	17.427	4.	5.e-002	8.561e-006
17235	17.701	4.	0.	-19.562
17236	17.609	3.9091	0.	-22.791
17237	17.609	4.	5.e-002	1.0623e-005
17238	17.883	4.	0.	-15.33
17239	17.792	3.9091	0.	-18.323
17240	17.792	4.	5.e-002	9.1916e-006
17241	18.066	4.	0.	-11.268
17242	17.975	3.9091	0.	-14.051
17243	17.975	4.	5.e-002	7.801e-006
17244	18.249	4.	0.	-7.3551
17245	18.157	3.9091	0.	-9.9498
17246	18.157	4.	5.e-002	7.4241e-006
17247	18.431	4.	0.	-3.5688
17248	18.34	3.9091	0.	-5.9943
17249	18.34	4.	5.e-002	8.1013e-006
17250	18.614	4.	0.	-6.7695e-002
17251	18.522	3.9091	0.	-2.1632
17252	18.522	4.	5.e-002	6.4459e-006
17253	18.796	4.	0.	8.3989e-003
17254	18.705	3.9091	0.	4.4741e-003
17255	18.705	4.	5.e-002	4.6815e-006
17256	18.979	4.	0.	1.0904e-002
17257	18.888	3.9091	0.	1.0618e-002
17258	18.888	4.	5.e-002	5.9346e-006
17259	19.161	4.	0.	1.2166e-002
17260	19.07	3.9091	0.	1.2197e-002
17261	19.07	4.	5.e-002	5.3865e-006
17262	19.344	4.	0.	1.3152e-002
17263	19.253	3.9091	0.	1.3257e-002
17264	19.253	4.	5.e-002	5.7507e-006
17265	19.527	4.	0.	1.4065e-002
17266	19.435	3.9091	0.	1.4187e-002
17267	19.435	4.	5.e-002	3.9086e-006
17268	19.709	4.	0.	1.4977e-002
17269	19.618	3.9091	0.	1.5099e-002
17270	19.618	4.	5.e-002	4.8205e-006
17271	19.892	4.	0.	1.5928e-002
17272	19.8	3.9091	0.	1.6039e-002
17273	19.8	4.	5.e-002	2.5225e-006
17274	20.074	4.	0.	1.694e-002
17275	19.983	3.9091	0.	1.7032e-002
17276	19.983	4.	5.e-002	3.0776e-006
17277	20.257	4.	0.	1.8032e-002
17278	20.166	3.9091	0.	1.8099e-002
17279	20.166	4.	5.e-002	5.5383e-006
17280	20.44	4.	0.	1.9226e-002
17281	20.348	3.9091	0.	1.9259e-002
17282	20.348	4.	5.e-002	4.5558e-006
17283	20.622	4.	0.	2.0541e-002
17284	20.531	3.9091	0.	2.0532e-002
17285	20.531	4.	5.e-002	4.7797e-006
17286	20.805	4.	0.	2.2004e-002
17287	20.713	3.9091	0.	2.1938e-002
17288	20.713	4.	5.e-002	4.6848e-006
17289	20.987	4.	0.	2.3647e-002
17290	20.896	3.9091	0.	2.3508e-002
17291	20.896	4.	5.e-002	3.374e-006
17292	21.17	4.	0.	2.5503e-002
17293	21.079	3.9091	0.	2.5279e-002
17294	21.079	4.	5.e-002	2.9612e-006
17295	21.352	4.	0.	2.7615e-002
17296	21.261	3.9091	0.	2.7276e-002
17297	21.261	4.	5.e-002	2.2795e-006
17298	21.535	4.	0.	3.0045e-002
17299	21.444	3.9091	0.	2.9562e-002
17300	21.444	4.	5.e-002	3.617e-006
17301	21.718	4.	0.	3.2874e-002
17302	21.626	3.9091	0.	3.2202e-002
17303	21.626	4.	5.e-002	3.903e-006
17304	21.9	4.	0.	3.6204e-002
17305	21.809	3.9091	0.	3.5288e-002
17306	21.809	4.	5.e-002	2.9596e-006
17307	22.083	4.	0.	4.0181e-002
17308	21.992	3.9091	0.	3.8942e-002
17309	21.992	4.	5.e-002	2.3683e-006
17310	22.265	4.	0.	4.5011e-002
17311	22.174	3.9091	0.	4.3338e-002
17312	22.174	4.	5.e-002	5.088e-006
17313	22.448	4.	0.	5.101e-002
17314	22.357	3.9091	0.	4.8721e-002
17315	22.357	4.	5.e-002	8.56e-006
17316	22.631	4.	0.	5.8596e-002
17317	22.539	3.9091	0.	5.5505e-002
17318	22.539	4.	5.e-002	6.8295e-006
17319	22.813	4.	0.	6.8771e-002
17320	22.722	3.9091	0.	6.4144e-002
17321	22.722	4.	5.e-002	4.948e-006
17322	22.996	4.	0.	8.1967e-002
17323	22.904	3.9091	0.	7.6261e-002
17324	22.904	4.	5.e-002	3.6212e-006
17325	23.178	4.	0.	0.10432
17326	23.087	3.9091	0.	9.1258e-002
17327	23.087	4.	5.e-002	-2.4074e-006
17328	23.361	4.	0.	0.12703
17329	23.27	3.9091	0.	0.12242
17330	23.27	4.	5.e-002	-2.4096e-006
17331	23.544	4.	0.	0.22149
17332	23.452	3.9091	0.	0.14015
17333	23.452	4.	5.e-002	7.7458e-009
17334	23.726	4.	0.	0.21786
17335	23.635	3.9091	0.	0.32266
17336	23.635	4.	5.e-002	7.0983e-006
17337	23.817	3.9091	0.	0.2016
17338	23.817	4.	5.e-002	7.8178e-006
17339	23.909	4.	0.	0.44048
17340	12.041	3.8182	0.	7.068
17341	11.949	3.7273	0.	-10.715
17342	11.949	3.8182	5.e-002	9.9489e-005
17343	12.223	3.8182	0.	10.53
17344	12.132	3.7273	0.	9.0674
17345	12.132	3.8182	5.e-002	3.8569e-006
17346	12.406	3.8182	0.	-14.972
17347	12.314	3.7273	0.	-0.23442
17348	12.314	3.8182	5.e-002	8.2283e-006
17349	12.588	3.8182	0.	-110.11
17350	12.497	3.7273	0.	-77.258
17351	12.497	3.8182	5.e-002	7.8592e-006
17352	12.771	3.8182	0.	-168.22
17353	12.68	3.7273	0.	-155.23
17354	12.68	3.8182	5.e-002	2.4893e-005
17355	12.953	3.8182	0.	-200.6
17356	12.862	3.7273	0.	-200.44
17357	12.862	3.8182	5.e-002	2.0848e-005
17358	13.136	3.8182	0.	-216.51
17359	13.045	3.7273	0.	-224.52
17360	13.045	3.8182	5.e-002	3.9901e-005
17361	13.319	3.8182	0.	-221.54
17362	13.227	3.7273	0.	-234.51
17363	13.227	3.8182	5.e-002	2.9645e-005
17364	13.501	3.8182	0.	-219.52
17365	13.41	3.7273	0.	-235.24
17366	13.41	3.8182	5.e-002	2.8001e-005
17367	13.684	3.8182	0.	-212.97
17368	13.593	3.7273	0.	-229.97
17369	13.593	3.8182	5.e-002	3.2184e-005
17370	13.866	3.8182	0.	-203.62
17371	13.775	3.7273	0.	-220.92
17372	13.775	3.8182	5.e-002	2.5323e-005
17373	14.049	3.8182	0.	-192.63
17374	13.958	3.7273	0.	-209.6
17375	13.958	3.8182	5.e-002	1.7108e-005
17376	14.232	3.8182	0.	-180.79
17377	14.14	3.7273	0.	-197.04
17378	14.14	3.8182	5.e-002	1.1834e-005
17379	14.414	3.8182	0.	-168.63
17380	14.323	3.7273	0.	-183.93
17381	14.323	3.8182	5.e-002	2.1872e-005
17382	14.597	3.8182	0.	-156.49
17383	14.505	3.7273	0.	-170.74
17384	14.505	3.8182	5.e-002	1.2367e-005
17385	14.779	3.8182	0.	-144.63
17386	14.688	3.7273	0.	-157.79
17387	14.688	3.8182	5.e-002	9.3333e-006
17388	14.962	3.8182	0.	-133.17
17389	14.871	3.7273	0.	-145.25
17390	14.871	3.8182	5.e-002	6.75e-006
17391	15.145	3.8182	0.	-122.22
17392	15.053	3.7273	0.	-133.27
17393	15.053	3.8182	5.e-002	8.9919e-006
17394	15.327	3.8182	0.	-111.81
17395	15.236	3.7273	0.	-121.89
17396	15.236	3.8182	5.e-002	1.0356e-005
17397	15.51	3.8182	0.	-101.98
17398	15.418	3.7273	0.	-111.16
17399	15.418	3.8182	5.e-002	8.8286e-006
17400	15.692	3.8182	0.	-92.723
17401	15.601	3.7273	0.	-101.07
17402	15.601	3.8182	5.e-002	9.2588e-006
17403	15.875	3.8182	0.	-84.024
17404	15.784	3.7273	0.	-91.62
17405	15.784	3.8182	5.e-002	8.8983e-006
17406	16.057	3.8182	0.	-75.864
17407	15.966	3.7273	0.	-82.776
17408	15.966	3.8182	5.e-002	8.6072e-006
17409	16.24	3.8182	0.	-68.215
17410	16.149	3.7273	0.	-74.511
17411	16.149	3.8182	5.e-002	9.1018e-006
17412	16.423	3.8182	0.	-61.047
17413	16.331	3.7273	0.	-66.788
17414	16.331	3.8182	5.e-002	6.6508e-006
17415	16.605	3.8182	0.	-54.326
17416	16.514	3.7273	0.	-59.57
17417	16.514	3.8182	5.e-002	7.4054e-006
17418	16.788	3.8182	0.	-48.02
17419	16.697	3.7273	0.	-52.818
17420	16.697	3.8182	5.e-002	7.2028e-006
17421	16.97	3.8182	0.	-42.093
17422	16.879	3.7273	0.	-46.492
17423	16.879	3.8182	5.e-002	5.0213e-006
17424	17.153	3.8182	0.	-36.513
17425	17.062	3.7273	0.	-40.556
17426	17.062	3.8182	5.e-002	7.6807e-006
17427	17.336	3.8182	0.	-31.247
17428	17.244	3.7273	0.	-34.972
17429	17.244	3.8182	5.e-002	5.7398e-006
17430	17.518	3.8182	0.	-26.264
17431	17.427	3.7273	0.	-29.706
17432	17.427	3.8182	5.e-002	6.9517e-006
17433	17.701	3.8182	0.	-21.533
17434	17.609	3.7273	0.	-24.722
17435	17.609	3.8182	5.e-002	8.467e-006
17436	17.883	3.8182	0.	-17.025
17437	17.792	3.7273	0.	-19.989
17438	17.792	3.8182	5.e-002	8.5435e-006
17439	18.066	3.8182	0.	-12.712
17440	17.975	3.7273	0.	-15.477
17441	17.975	3.8182	5.e-002	6.6409e-006
17442	18.249	3.8182	0.	-8.567
17443	18.157	3.7273	0.	-11.155
17444	18.157	3.8182	5.e-002	6.5355e-006
17445	18.431	3.8182	0.	-4.5643
17446	18.34	3.7273	0.	-6.9951
17447	18.34	3.8182	5.e-002	6.9212e-006
17448	18.614	3.8182	0.	-0.68939
17449	18.522	3.7273	0.	-2.9716
17450	18.522	3.8182	5.e-002	5.3876e-006
17451	18.796	3.8182	0.	9.7382e-003
17452	18.705	3.7273	0.	4.2633e-003
17453	18.705	3.8182	5.e-002	3.1234e-006
17454	18.979	3.8182	0.	1.2133e-002
17455	18.888	3.7273	0.	1.1857e-002
17456	18.888	3.8182	5.e-002	4.9507e-006
17457	19.161	3.8182	0.	1.3308e-002
17458	19.07	3.7273	0.	1.3267e-002
17459	19.07	3.8182	5.e-002	4.0519e-006
17460	19.344	3.8182	0.	1.4262e-002
17461	19.253	3.7273	0.	1.426e-002
17462	19.253	3.8182	5.e-002	4.9657e-006
17463	19.527	3.8182	0.	1.5171e-002
17464	19.435	3.7273	0.	1.5169e-002
17465	19.435	3.8182	5.e-002	2.3083e-006
17466	19.709	3.8182	0.	1.6099e-002
17467	19.618	3.7273	0.	1.6084e-002
17468	19.618	3.8182	5.e-002	3.7481e-006
17469	19.892	3.8182	0.	1.7071e-002
17470	19.8	3.7273	0.	1.7035e-002
17471	19.8	3.8182	5.e-002	1.2172e-006
17472	20.074	3.8182	0.	1.8113e-002
17473	19.983	3.7273	0.	1.8051e-002
17474	19.983	3.8182	5.e-002	1.5651e-006
17475	20.257	3.8182	0.	1.924e-002
17476	20.166	3.7273	0.	1.9145e-002
17477	20.166	3.8182	5.e-002	4.5222e-006
17478	20.44	3.8182	0.	2.0471e-002
17479	20.348	3.7273	0.	2.0334e-002
17480	20.348	3.8182	5.e-002	3.6378e-006
17481	20.622	3.8182	0.	2.1825e-002
17482	20.531	3.7273	0.	2.164e-002
17483	20.531	3.8182	5.e-002	3.0737e-006
17484	20.805	3.8182	0.	2.3328e-002
17485	20.713	3.7273	0.	2.3079e-002
17486	20.713	3.8182	5.e-002	3.506e-006
17487	20.987	3.8182	0.	2.5014e-002
17488	20.896	3.7273	0.	2.4683e-002
17489	20.896	3.8182	5.e-002	2.6078e-006
17490	21.17	3.8182	0.	2.6912e-002
17491	21.079	3.7273	0.	2.649e-002
17492	21.079	3.8182	5.e-002	1.707e-006
17493	21.352	3.8182	0.	2.9067e-002
17494	21.261	3.7273	0.	2.8523e-002
17495	21.261	3.8182	5.e-002	8.6195e-008
17496	21.535	3.8182	0.	3.154e-002
17497	21.444	3.7273	0.	3.0843e-002
17498	21.444	3.8182	5.e-002	2.4532e-006
17499	21.718	3.8182	0.	3.4409e-002
17500	21.626	3.7273	0.	3.3518e-002
17501	21.626	3.8182	5.e-002	1.2302e-006
17502	21.9	3.8182	0.	3.778e-002
17503	21.809	3.7273	0.	3.6636e-002
17504	21.809	3.8182	5.e-002	3.1653e-006
17505	22.083	3.8182	0.	4.1798e-002
17506	21.992	3.7273	0.	4.0324e-002
17507	21.992	3.8182	5.e-002	2.5418e-006
17508	22.265	3.8182	0.	4.667e-002
17509	22.174	3.7273	0.	4.4753e-002
17510	22.174	3.8182	5.e-002	4.2691e-006
17511	22.448	3.8182	0.	5.272e-002
17512	22.357	3.7273	0.	5.0173e-002
17513	22.357	3.8182	5.e-002	5.9239e-006
17514	22.631	3.8182	0.	6.0369e-002
17515	22.539	3.7273	0.	5.7006e-002
17516	22.539	3.8182	5.e-002	6.0698e-006
17517	22.813	3.8182	0.	7.0627e-002
17518	22.722	3.7273	0.	6.5707e-002
17519	22.722	3.8182	5.e-002	4.1813e-006
17520	22.996	3.8182	0.	8.3941e-002
17521	22.904	3.7273	0.	7.7913e-002
17522	22.904	3.8182	5.e-002	1.0346e-006
17523	23.178	3.8182	0.	0.10648
17524	23.087	3.7273	0.	9.3037e-002
17525	23.087	3.8182	5.e-002	-1.9915e-006
17526	23.361	3.8182	0.	0.12945
17527	23.27	3.7273	0.	0.12441
17528	23.27	3.8182	5.e-002	-3.8774e-006
17529	23.544	3.8182	0.	0.22455
17530	23.452	3.7273	0.	0.14242
17531	23.452	3.8182	5.e-002	3.0125e-007
17532	23.726	3.8182	0.	0.22273
17533	23.635	3.7273	0.	0.32586
17534	23.635	3.8182	5.e-002	5.2614e-006
17535	23.817	3.7273	0.	0.20814
17536	23.817	3.8182	5.e-002	5.842e-006
17537	23.909	3.8182	0.	0.44215
17538	12.041	3.6364	0.	-10.355
17539	11.949	3.5455	0.	-4.7981
17540	11.949	3.6364	5.e-002	8.0509e-005
17541	12.223	3.6364	0.	-2.3788
17542	12.132	3.5455	0.	-3.5858
17543	12.132	3.6364	5.e-002	-1.3938e-005
17544	12.406	3.6364	0.	-13.826
17545	12.314	3.5455	0.	1.0457
17546	12.314	3.6364	5.e-002	-3.7502e-005
17547	12.588	3.6364	0.	-121.8
17548	12.497	3.5455	0.	-70.489
17549	12.497	3.6364	5.e-002	-2.3488e-005
17550	12.771	3.6364	0.	-187.67
17551	12.68	3.5455	0.	-161.27
17552	12.68	3.6364	5.e-002	-3.3909e-006
17553	12.953	3.6364	0.	-224.74
17554	12.862	3.5455	0.	-215.23
17555	12.862	3.6364	5.e-002	5.7451e-006
17556	13.136	3.6364	0.	-242.84
17557	13.045	3.5455	0.	-244.3
17558	13.045	3.6364	5.e-002	1.0838e-005
17559	13.319	3.6364	0.	-248.43
17560	13.227	3.5455	0.	-256.72
17561	13.227	3.6364	5.e-002	2.2381e-005
17562	13.501	3.6364	0.	-245.84
17563	13.41	3.5455	0.	-258.14
17564	13.41	3.6364	5.e-002	1.475e-005
17565	13.684	3.6364	0.	-238.
17566	13.593	3.5455	0.	-252.44
17567	13.593	3.6364	5.e-002	1.3563e-005
17568	13.866	3.6364	0.	-226.94
17569	13.775	3.5455	0.	-242.26
17570	13.775	3.6364	5.e-002	1.6732e-005
17571	14.049	3.6364	0.	-214.02
17572	13.958	3.5455	0.	-229.43
17573	13.958	3.6364	5.e-002	1.3279e-005
17574	14.232	3.6364	0.	-200.18
17575	14.14	3.5455	0.	-215.18
17576	14.14	3.6364	5.e-002	1.8005e-005
17577	14.414	3.6364	0.	-186.04
17578	14.323	3.5455	0.	-200.33
17579	14.323	3.6364	5.e-002	1.3217e-005
17580	14.597	3.6364	0.	-172.03
17581	14.505	3.5455	0.	-185.43
17582	14.505	3.6364	5.e-002	1.1225e-005
17583	14.779	3.6364	0.	-158.41
17584	14.688	3.5455	0.	-170.85
17585	14.688	3.6364	5.e-002	9.6128e-006
17586	14.962	3.6364	0.	-145.34
17587	14.871	3.5455	0.	-156.82
17588	14.871	3.6364	5.e-002	1.0801e-005
17589	15.145	3.6364	0.	-132.94
17590	15.053	3.5455	0.	-143.46
17591	15.053	3.6364	5.e-002	1.1692e-005
17592	15.327	3.6364	0.	-121.23
17593	15.236	3.5455	0.	-130.85
17594	15.236	3.6364	5.e-002	1.3349e-005
17595	15.51	3.6364	0.	-110.24
17596	15.418	3.5455	0.	-119.02
17597	15.418	3.6364	5.e-002	8.9906e-006
17598	15.692	3.6364	0.	-99.963
17599	15.601	3.5455	0.	-107.96
17600	15.601	3.6364	5.e-002	9.7139e-006
17601	15.875	3.6364	0.	-90.365
17602	15.784	3.5455	0.	-97.649
17603	15.784	3.6364	5.e-002	9.0188e-006
17604	16.057	3.6364	0.	-81.415
17605	15.966	3.5455	0.	-88.052
17606	15.966	3.6364	5.e-002	7.9571e-006
17607	16.24	3.6364	0.	-73.075
17608	16.149	3.5455	0.	-79.126
17609	16.149	3.6364	5.e-002	8.3233e-006
17610	16.423	3.6364	0.	-65.302
17611	16.331	3.5455	0.	-70.826
17612	16.331	3.6364	5.e-002	6.6894e-006
17613	16.605	3.6364	0.	-58.051
17614	16.514	3.5455	0.	-63.102
17615	16.514	3.6364	5.e-002	7.7003e-006
17616	16.788	3.6364	0.	-51.279
17617	16.697	3.5455	0.	-55.906
17618	16.697	3.6364	5.e-002	7.7516e-006
17619	16.97	3.6364	0.	-44.943
17620	16.879	3.5455	0.	-49.192
17621	16.879	3.6364	5.e-002	6.1117e-006
17622	17.153	3.6364	0.	-39.001
17623	17.062	3.5455	0.	-42.914
17624	17.062	3.6364	5.e-002	7.3582e-006
17625	17.336	3.6364	0.	-33.416
17626	17.244	3.5455	0.	-37.028
17627	17.244	3.6364	5.e-002	5.6683e-006
17628	17.518	3.6364	0.	-28.147
17629	17.427	3.5455	0.	-31.493
17630	17.427	3.6364	5.e-002	7.9369e-006
17631	17.701	3.6364	0.	-23.161
17632	17.609	3.5455	0.	-26.27
17633	17.609	3.6364	5.e-002	9.7064e-006
17634	17.883	3.6364	0.	-18.422
17635	17.792	3.5455	0.	-21.322
17636	17.792	3.6364	5.e-002	7.8676e-006
17637	18.066	3.6364	0.	-13.899
17638	17.975	3.5455	0.	-16.615
17639	17.975	3.6364	5.e-002	7.072e-006
17640	18.249	3.6364	0.	-9.5616
17641	18.157	3.5455	0.	-12.114
17642	18.157	3.6364	5.e-002	6.7607e-006
17643	18.431	3.6364	0.	-5.3796
17644	18.34	3.5455	0.	-7.7906
17645	18.34	3.6364	5.e-002	7.6875e-006
17646	18.614	3.6364	0.	-1.3283
17647	18.522	3.5455	0.	-3.6135
17648	18.522	3.6364	5.e-002	5.9838e-006
17649	18.796	3.6364	0.	1.1079e-002
17650	18.705	3.5455	0.	2.8318e-003
17651	18.705	3.6364	5.e-002	3.779e-006
17652	18.979	3.6364	0.	1.3161e-002
17653	18.888	3.5455	0.	1.2921e-002
17654	18.888	3.6364	5.e-002	5.3596e-006
17655	19.161	3.6364	0.	1.4216e-002
17656	19.07	3.5455	0.	1.411e-002
17657	19.07	3.6364	5.e-002	4.8585e-006
17658	19.344	3.6364	0.	1.5127e-002
17659	19.253	3.5455	0.	1.5027e-002
17660	19.253	3.6364	5.e-002	5.6228e-006
17661	19.527	3.6364	0.	1.6027e-002
17662	19.435	3.5455	0.	1.5911e-002
17663	19.435	3.6364	5.e-002	2.881e-006
17664	19.709	3.6364	0.	1.6958e-002
17665	19.618	3.5455	0.	1.6822e-002
17666	19.618	3.6364	5.e-002	4.5608e-006
17667	19.892	3.6364	0.	1.7945e-002
17668	19.8	3.5455	0.	1.7781e-002
17669	19.8	3.6364	5.e-002	2.0738e-006
17670	20.074	3.6364	0.	1.9008e-002
17671	19.983	3.5455	0.	1.881e-002
17672	19.983	3.6364	5.e-002	2.1912e-006
17673	20.257	3.6364	0.	2.0157e-002
17674	20.166	3.5455	0.	1.9922e-002
17675	20.166	3.6364	5.e-002	4.9565e-006
17676	20.44	3.6364	0.	2.1415e-002
17677	20.348	3.5455	0.	2.1132e-002
17678	20.348	3.6364	5.e-002	4.3285e-006
17679	20.622	3.6364	0.	2.2798e-002
17680	20.531	3.5455	0.	2.246e-002
17681	20.531	3.6364	5.e-002	5.2133e-006
17682	20.805	3.6364	0.	2.4328e-002
17683	20.713	3.5455	0.	2.3923e-002
17684	20.713	3.6364	5.e-002	4.6887e-006
17685	20.987	3.6364	0.	2.6042e-002
17686	20.896	3.5455	0.	2.5551e-002
17687	20.896	3.6364	5.e-002	2.8076e-006
17688	21.17	3.6364	0.	2.797e-002
17689	21.079	3.5455	0.	2.7381e-002
17690	21.079	3.6364	5.e-002	2.8483e-006
17691	21.352	3.6364	0.	3.0152e-002
17692	21.261	3.5455	0.	2.9438e-002
17693	21.261	3.6364	5.e-002	2.2875e-006
17694	21.535	3.6364	0.	3.2653e-002
17695	21.444	3.5455	0.	3.1779e-002
17696	21.444	3.6364	5.e-002	3.1701e-006
17697	21.718	3.6364	0.	3.5548e-002
17698	21.626	3.5455	0.	3.4477e-002
17699	21.626	3.6364	5.e-002	3.4226e-006
17700	21.9	3.6364	0.	3.8945e-002
17701	21.809	3.5455	0.	3.7615e-002
17702	21.809	3.6364	5.e-002	3.4652e-006
17703	22.083	3.6364	0.	4.2991e-002
17704	21.992	3.5455	0.	4.1325e-002
17705	21.992	3.6364	5.e-002	2.7973e-006
17706	22.265	3.6364	0.	4.7891e-002
17707	22.174	3.5455	0.	4.5778e-002
17708	22.174	3.6364	5.e-002	5.4778e-006
17709	22.448	3.6364	0.	5.3977e-002
17710	22.357	3.5455	0.	5.1224e-002
17711	22.357	3.6364	5.e-002	7.1686e-006
17712	22.631	3.6364	0.	6.1673e-002
17713	22.539	3.5455	0.	5.8093e-002
17714	22.539	3.6364	5.e-002	7.285e-006
17715	22.813	3.6364	0.	7.1996e-002
17716	22.722	3.5455	0.	6.6839e-002
17717	22.722	3.6364	5.e-002	7.2925e-006
17718	22.996	3.6364	0.	8.5402e-002
17719	22.904	3.5455	0.	7.9111e-002
17720	22.904	3.6364	5.e-002	3.3031e-006
17721	23.178	3.6364	0.	0.10808
17722	23.087	3.5455	0.	9.4329e-002
17723	23.087	3.6364	5.e-002	-6.7433e-007
17724	23.361	3.6364	0.	0.13125
17725	23.27	3.5455	0.	0.12585
17726	23.27	3.6364	5.e-002	-1.5999e-006
17727	23.544	3.6364	0.	0.22684
17728	23.452	3.5455	0.	0.14408
17729	23.452	3.6364	5.e-002	6.3081e-007
17730	23.726	3.6364	0.	0.22641
17731	23.635	3.5455	0.	0.32821
17732	23.635	3.6364	5.e-002	7.2384e-006
17733	23.817	3.5455	0.	0.21302
17734	23.817	3.6364	5.e-002	5.8253e-006
17735	23.909	3.6364	0.	0.44338
17736	12.041	3.4545	0.	1.7466
17737	11.949	3.3636	0.	0.66906
17738	11.949	3.4545	5.e-002	1.7571e-005
17739	12.223	3.4545	0.	-7.2625e-002
17740	12.132	3.3636	0.	0.12559
17741	12.132	3.4545	5.e-002	-3.7648e-005
17742	12.406	3.4545	0.	-1.8542
17743	12.314	3.3636	0.	0.1296
17744	12.314	3.4545	5.e-002	-5.1021e-005
17745	12.588	3.4545	0.	-106.97
17746	12.497	3.3636	0.	-46.024
17747	12.497	3.4545	5.e-002	-3.8839e-005
17748	12.771	3.4545	0.	-187.64
17749	12.68	3.3636	0.	-152.16
17750	12.68	3.4545	5.e-002	-2.008e-005
17751	12.953	3.4545	0.	-234.33
17752	12.862	3.3636	0.	-217.44
17753	12.862	3.4545	5.e-002	-8.2329e-006
17754	13.136	3.4545	0.	-258.01
17755	13.045	3.3636	0.	-253.65
17756	13.045	3.4545	5.e-002	4.5105e-006
17757	13.319	3.4545	0.	-266.37
17758	13.227	3.3636	0.	-270.07
17759	13.227	3.4545	5.e-002	1.1821e-005
17760	13.501	3.4545	0.	-264.72
17761	13.41	3.3636	0.	-273.35
17762	13.41	3.4545	5.e-002	1.3279e-005
17763	13.684	3.4545	0.	-256.7
17764	13.593	3.3636	0.	-268.13
17765	13.593	3.4545	5.e-002	1.5064e-005
17766	13.866	3.4545	0.	-244.76
17767	13.775	3.3636	0.	-257.59
17768	13.775	3.4545	5.e-002	1.2379e-005
17769	14.049	3.4545	0.	-230.59
17770	13.958	3.3636	0.	-243.9
17771	13.958	3.4545	5.e-002	1.5318e-005
17772	14.232	3.4545	0.	-215.32
17773	14.14	3.3636	0.	-228.53
17774	14.14	3.4545	5.e-002	1.2667e-005
17775	14.414	3.4545	0.	-199.7
17776	14.323	3.3636	0.	-212.46
17777	14.323	3.4545	5.e-002	1.2664e-005
17778	14.597	3.4545	0.	-184.25
17779	14.505	3.3636	0.	-196.34
17780	14.505	3.4545	5.e-002	1.1251e-005
17781	14.779	3.4545	0.	-169.26
17782	14.688	3.3636	0.	-180.57
17783	14.688	3.4545	5.e-002	1.211e-005
17784	14.962	3.4545	0.	-154.93
17785	14.871	3.3636	0.	-165.42
17786	14.871	3.4545	5.e-002	1.1835e-005
17787	15.145	3.4545	0.	-141.37
17788	15.053	3.3636	0.	-151.05
17789	15.053	3.4545	5.e-002	1.2045e-005
17790	15.327	3.4545	0.	-128.64
17791	15.236	3.3636	0.	-137.52
17792	15.236	3.4545	5.e-002	8.7147e-006
17793	15.51	3.4545	0.	-116.73
17794	15.418	3.3636	0.	-124.87
17795	15.418	3.4545	5.e-002	9.3078e-006
17796	15.692	3.4545	0.	-105.64
17797	15.601	3.3636	0.	-113.08
17798	15.601	3.4545	5.e-002	9.33e-006
17799	15.875	3.4545	0.	-95.331
17800	15.784	3.3636	0.	-102.12
17801	15.784	3.4545	5.e-002	9.5173e-006
17802	16.057	3.4545	0.	-85.756
17803	15.966	3.3636	0.	-91.96
17804	15.966	3.4545	5.e-002	7.932e-006
17805	16.24	3.4545	0.	-76.869
17806	16.149	3.3636	0.	-82.54
17807	16.149	3.4545	5.e-002	9.2978e-006
17808	16.423	3.4545	0.	-68.617
17809	16.331	3.3636	0.	-73.807
17810	16.331	3.4545	5.e-002	5.9051e-006
17811	16.605	3.4545	0.	-60.947
17812	16.514	3.3636	0.	-65.706
17813	16.514	3.4545	5.e-002	6.6029e-006
17814	16.788	3.4545	0.	-53.809
17815	16.697	3.3636	0.	-58.18
17816	16.697	3.4545	5.e-002	6.3302e-006
17817	16.97	3.4545	0.	-47.151
17818	16.879	3.3636	0.	-51.177
17819	16.879	3.4545	5.e-002	5.193e-006
17820	17.153	3.4545	0.	-40.926
17821	17.062	3.3636	0.	-44.644
17822	17.062	3.4545	5.e-002	6.9438e-006
17823	17.336	3.4545	0.	-35.09
17824	17.244	3.3636	0.	-38.534
17825	17.244	3.4545	5.e-002	5.7845e-006
17826	17.518	3.4545	0.	-29.599
17827	17.427	3.3636	0.	-32.8
17828	17.427	3.4545	5.e-002	7.8225e-006
17829	17.701	3.4545	0.	-24.414
17830	17.609	3.3636	0.	-27.401
17831	17.609	3.4545	5.e-002	9.1655e-006
17832	17.883	3.4545	0.	-19.496
17833	17.792	3.3636	0.	-22.294
17834	17.792	3.4545	5.e-002	8.1034e-006
17835	18.066	3.4545	0.	-14.81
17836	17.975	3.3636	0.	-17.443
17837	17.975	3.4545	5.e-002	7.2378e-006
17838	18.249	3.4545	0.	-10.323
17839	18.157	3.3636	0.	-12.813
17840	18.157	3.4545	5.e-002	6.6247e-006
17841	18.431	3.4545	0.	-6.0025
17842	18.34	3.3636	0.	-8.3683
17843	18.34	3.4545	5.e-002	7.4708e-006
17844	18.614	3.4545	0.	-1.8198
17845	18.522	3.3636	0.	-4.079
17846	18.522	3.4545	5.e-002	5.999e-006
17847	18.796	3.4545	0.	1.2356e-002
17848	18.705	3.3636	0.	-8.4421e-003
17849	18.705	3.4545	5.e-002	3.8072e-006
17850	18.979	3.4545	0.	1.3963e-002
17851	18.888	3.3636	0.	1.375e-002
17852	18.888	3.4545	5.e-002	5.7609e-006
17853	19.161	3.4545	0.	1.4893e-002
17854	19.07	3.3636	0.	1.4717e-002
17855	19.07	3.4545	5.e-002	5.0051e-006
17856	19.344	3.4545	0.	1.5761e-002
17857	19.253	3.3636	0.	1.5567e-002
17858	19.253	3.4545	5.e-002	5.5657e-006
17859	19.527	3.4545	0.	1.6648e-002
17860	19.435	3.3636	0.	1.6429e-002
17861	19.435	3.4545	5.e-002	3.4488e-006
17862	19.709	3.4545	0.	1.7581e-002
17863	19.618	3.3636	0.	1.7334e-002
17864	19.618	3.4545	5.e-002	4.2023e-006
17865	19.892	3.4545	0.	1.8577e-002
17866	19.8	3.3636	0.	1.8298e-002
17867	19.8	3.4545	5.e-002	2.4605e-006
17868	20.074	3.4545	0.	1.9651e-002
17869	19.983	3.3636	0.	1.9334e-002
17870	19.983	3.4545	5.e-002	2.3767e-006
17871	20.257	3.4545	0.	2.0818e-002
17872	20.166	3.3636	0.	2.0459e-002
17873	20.166	3.4545	5.e-002	5.6377e-006
17874	20.44	3.4545	0.	2.2093e-002
17875	20.348	3.3636	0.	2.1683e-002
17876	20.348	3.4545	5.e-002	4.5746e-006
17877	20.622	3.4545	0.	2.3494e-002
17878	20.531	3.3636	0.	2.3025e-002
17879	20.531	3.4545	5.e-002	4.0591e-006
17880	20.805	3.4545	0.	2.5046e-002
17881	20.713	3.3636	0.	2.4503e-002
17882	20.713	3.4545	5.e-002	5.4447e-006
17883	20.987	3.4545	0.	2.6779e-002
17884	20.896	3.3636	0.	2.6148e-002
17885	20.896	3.4545	5.e-002	4.0398e-006
17886	21.17	3.4545	0.	2.8724e-002
17887	21.079	3.3636	0.	2.7991e-002
17888	21.079	3.4545	5.e-002	3.121e-006
17889	21.352	3.4545	0.	3.0925e-002
17890	21.261	3.3636	0.	3.0063e-002
17891	21.261	3.4545	5.e-002	2.0652e-006
17892	21.535	3.4545	0.	3.3443e-002
17893	21.444	3.3636	0.	3.2419e-002
17894	21.444	3.4545	5.e-002	4.4069e-006
17895	21.718	3.4545	0.	3.6356e-002
17896	21.626	3.3636	0.	3.513e-002
17897	21.626	3.4545	5.e-002	3.7941e-006
17898	21.9	3.4545	0.	3.9769e-002
17899	21.809	3.3636	0.	3.8282e-002
17900	21.809	3.4545	5.e-002	5.6987e-006
17901	22.083	3.4545	0.	4.3833e-002
17902	21.992	3.3636	0.	4.2003e-002
17903	21.992	3.4545	5.e-002	2.0736e-006
17904	22.265	3.4545	0.	4.8754e-002
17905	22.174	3.3636	0.	4.6472e-002
17906	22.174	3.4545	5.e-002	6.743e-006
17907	22.448	3.4545	0.	5.4865e-002
17908	22.357	3.3636	0.	5.1936e-002
17909	22.357	3.4545	5.e-002	7.5283e-006
17910	22.631	3.4545	0.	6.2593e-002
17911	22.539	3.3636	0.	5.8828e-002
17912	22.539	3.4545	5.e-002	9.5199e-006
17913	22.813	3.4545	0.	7.2961e-002
17914	22.722	3.3636	0.	6.7605e-002
17915	22.722	3.4545	5.e-002	5.7226e-006
17916	22.996	3.4545	0.	8.6434e-002
17917	22.904	3.3636	0.	7.9924e-002
17918	22.904	3.4545	5.e-002	1.7743e-006
17919	23.178	3.4545	0.	0.10921
17920	23.087	3.3636	0.	9.5207e-002
17921	23.087	3.4545	5.e-002	-2.4674e-007
17922	23.361	3.4545	0.	0.13253
17923	23.27	3.3636	0.	0.12684
17924	23.27	3.4545	5.e-002	-1.1694e-006
17925	23.544	3.4545	0.	0.22846
17926	23.452	3.3636	0.	0.14521
17927	23.452	3.4545	5.e-002	2.864e-006
17928	23.726	3.4545	0.	0.22905
17929	23.635	3.3636	0.	0.32982
17930	23.635	3.4545	5.e-002	3.5112e-006
17931	23.817	3.3636	0.	0.21641
17932	23.817	3.4545	5.e-002	3.8625e-006
17933	23.909	3.4545	0.	0.44425
17934	12.041	3.2727	0.	-1.183
17935	11.949	3.1818	0.	-1.2578
17936	11.949	3.2727	5.e-002	-2.7753e-005
17937	12.223	3.2727	0.	0.25934
17938	12.132	3.1818	0.	2.663e-002
17939	12.132	3.2727	5.e-002	-4.7516e-005
17940	12.406	3.2727	0.	0.3482
17941	12.314	3.1818	0.	0.69605
17942	12.314	3.2727	5.e-002	-4.9009e-005
17943	12.588	3.2727	0.	-86.695
17944	12.497	3.1818	0.	-24.719
17945	12.497	3.2727	5.e-002	-3.7355e-005
17946	12.771	3.2727	0.	-179.64
17947	12.68	3.1818	0.	-141.04
17948	12.68	3.2727	5.e-002	-2.3337e-005
17949	12.953	3.2727	0.	-235.54
17950	12.862	3.1818	0.	-214.83
17951	12.862	3.2727	5.e-002	-1.0415e-005
17952	13.136	3.2727	0.	-265.08
17953	13.045	3.1818	0.	-256.85
17954	13.045	3.2727	5.e-002	-3.1538e-007
17955	13.319	3.2727	0.	-276.72
17956	13.227	3.1818	0.	-276.73
17957	13.227	3.2727	5.e-002	1.7196e-006
17958	13.501	3.2727	0.	-276.58
17959	13.41	3.1818	0.	-281.8
17960	13.41	3.2727	5.e-002	1.0803e-005
17961	13.684	3.2727	0.	-268.93
17962	13.593	3.1818	0.	-277.27
17963	13.593	3.2727	5.e-002	8.0204e-006
17964	13.866	3.2727	0.	-256.69
17965	13.775	3.1818	0.	-266.75
17966	13.775	3.2727	5.e-002	1.6373e-005
17967	14.049	3.2727	0.	-241.83
17968	13.958	3.1818	0.	-252.67
17969	13.958	3.2727	5.e-002	1.7171e-005
17970	14.232	3.2727	0.	-225.67
17971	14.14	3.1818	0.	-236.69
17972	14.14	3.2727	5.e-002	1.2349e-005
17973	14.414	3.2727	0.	-209.09
17974	14.323	3.1818	0.	-219.91
17975	14.323	3.2727	5.e-002	1.3191e-005
17976	14.597	3.2727	0.	-192.65
17977	14.505	3.1818	0.	-203.04
17978	14.505	3.2727	5.e-002	9.6429e-006
17979	14.779	3.2727	0.	-176.73
17980	14.688	3.1818	0.	-186.55
17981	14.688	3.2727	5.e-002	1.1541e-005
17982	14.962	3.2727	0.	-161.54
17983	14.871	3.1818	0.	-170.73
17984	14.871	3.2727	5.e-002	9.9036e-006
17985	15.145	3.2727	0.	-147.19
17986	15.053	3.1818	0.	-155.73
17987	15.053	3.2727	5.e-002	1.2829e-005
17988	15.327	3.2727	0.	-133.74
17989	15.236	3.1818	0.	-141.63
17990	15.236	3.2727	5.e-002	1.1778e-005
17991	15.51	3.2727	0.	-121.2
17992	15.418	3.1818	0.	-128.47
17993	15.418	3.2727	5.e-002	9.1693e-006
17994	15.692	3.2727	0.	-109.55
17995	15.601	3.1818	0.	-116.22
17996	15.601	3.2727	5.e-002	1.0425e-005
17997	15.875	3.2727	0.	-98.745
17998	15.784	3.1818	0.	-104.87
17999	15.784	3.2727	5.e-002	1.0003e-005
18000	16.057	3.2727	0.	-88.738
18001	15.966	3.1818	0.	-94.362
18002	15.966	3.2727	5.e-002	7.6866e-006
18003	16.24	3.2727	0.	-79.471
18004	16.149	3.1818	0.	-84.636
18005	16.149	3.2727	5.e-002	9.2159e-006
18006	16.423	3.2727	0.	-70.888
18007	16.331	3.1818	0.	-75.637
18008	16.331	3.2727	5.e-002	7.0545e-006
18009	16.605	3.2727	0.	-62.929
18010	16.514	3.1818	0.	-67.302
18011	16.514	3.2727	5.e-002	7.8112e-006
18012	16.788	3.2727	0.	-55.537
18013	16.697	3.1818	0.	-59.572
18014	16.697	3.2727	5.e-002	7.1564e-006
18015	16.97	3.2727	0.	-48.658
18016	16.879	3.1818	0.	-52.39
18017	16.879	3.2727	5.e-002	6.5585e-006
18018	17.153	3.2727	0.	-42.239
18019	17.062	3.1818	0.	-45.701
18020	17.062	3.2727	5.e-002	8.3871e-006
18021	17.336	3.2727	0.	-36.23
18022	17.244	3.1818	0.	-39.453
18023	17.244	3.2727	5.e-002	6.8396e-006
18024	17.518	3.2727	0.	-30.586
18025	17.427	3.1818	0.	-33.598
18026	17.427	3.2727	5.e-002	7.7225e-006
18027	17.701	3.2727	0.	-25.264
18028	17.609	3.1818	0.	-28.09
18029	17.609	3.2727	5.e-002	9.5712e-006
18030	17.883	3.2727	0.	-20.224
18031	17.792	3.1818	0.	-22.886
18032	17.792	3.2727	5.e-002	8.5519e-006
18033	18.066	3.2727	0.	-15.427
18034	17.975	3.1818	0.	-17.947
18035	17.975	3.2727	5.e-002	7.6218e-006
18036	18.249	3.2727	0.	-10.838
18037	18.157	3.1818	0.	-13.237
18038	18.157	3.2727	5.e-002	7.1817e-006
18039	18.431	3.2727	0.	-6.4235
18040	18.34	3.1818	0.	-8.7189
18041	18.34	3.2727	5.e-002	8.3625e-006
18042	18.614	3.2727	0.	-2.1522
18043	18.522	3.1818	0.	-4.3613
18044	18.522	3.2727	5.e-002	6.8328e-006
18045	18.796	3.2727	0.	1.341e-002
18046	18.705	3.1818	0.	-0.13568
18047	18.705	3.2727	5.e-002	4.7952e-006
18048	18.979	3.2727	0.	1.4513e-002
18049	18.888	3.1818	0.	1.428e-002
18050	18.888	3.2727	5.e-002	6.5736e-006
18051	19.161	3.2727	0.	1.5342e-002
18052	19.07	3.1818	0.	1.5084e-002
18053	19.07	3.2727	5.e-002	5.6268e-006
18054	19.344	3.2727	0.	1.6177e-002
18055	19.253	3.1818	0.	1.5889e-002
18056	19.253	3.2727	5.e-002	6.4631e-006
18057	19.527	3.2727	0.	1.7054e-002
18058	19.435	3.1818	0.	1.6734e-002
18059	19.435	3.2727	5.e-002	4.6204e-006
18060	19.709	3.2727	0.	1.7987e-002
18061	19.618	3.1818	0.	1.7635e-002
18062	19.618	3.2727	5.e-002	5.7613e-006
18063	19.892	3.2727	0.	1.8987e-002
18064	19.8	3.1818	0.	1.8601e-002
18065	19.8	3.2727	5.e-002	3.573e-006
18066	20.074	3.2727	0.	2.007e-002
18067	19.983	3.1818	0.	1.9644e-002
18068	19.983	3.2727	5.e-002	3.0424e-006
18069	20.257	3.2727	0.	2.1247e-002
18070	20.166	3.1818	0.	2.0773e-002
18071	20.166	3.2727	5.e-002	7.0477e-006
18072	20.44	3.2727	0.	2.2532e-002
18073	20.348	3.1818	0.	2.2006e-002
18074	20.348	3.2727	5.e-002	5.7916e-006
18075	20.622	3.2727	0.	2.3945e-002
18076	20.531	3.1818	0.	2.3355e-002
18077	20.531	3.2727	5.e-002	5.761e-006
18078	20.805	3.2727	0.	2.5508e-002
18079	20.713	3.1818	0.	2.4843e-002
18080	20.713	3.2727	5.e-002	6.6949e-006
18081	20.987	3.2727	0.	2.7252e-002
18082	20.896	3.1818	0.	2.6495e-002
18083	20.896	3.2727	5.e-002	5.2761e-006
18084	21.17	3.2727	0.	2.921e-002
18085	21.079	3.1818	0.	2.8347e-002
18086	21.079	3.2727	5.e-002	4.3438e-006
18087	21.352	3.2727	0.	3.1422e-002
18088	21.261	3.1818	0.	3.0427e-002
18089	21.261	3.2727	5.e-002	3.3254e-006
18090	21.535	3.2727	0.	3.3949e-002
18091	21.444	3.1818	0.	3.279e-002
18092	21.444	3.2727	5.e-002	5.2074e-006
18093	21.718	3.2727	0.	3.6872e-002
18094	21.626	3.1818	0.	3.5509e-002
18095	21.626	3.2727	5.e-002	5.1201e-006
18096	21.9	3.2727	0.	4.0294e-002
18097	21.809	3.1818	0.	3.8668e-002
18098	21.809	3.2727	5.e-002	5.1262e-006
18099	22.083	3.2727	0.	4.4368e-002
18100	21.992	3.1818	0.	4.2398e-002
18101	21.992	3.2727	5.e-002	3.3274e-006
18102	22.265	3.2727	0.	4.9302e-002
18103	22.174	3.1818	0.	4.6873e-002
18104	22.174	3.2727	5.e-002	7.0704e-006
18105	22.448	3.2727	0.	5.5428e-002
18106	22.357	3.1818	0.	5.2349e-002
18107	22.357	3.2727	5.e-002	9.8388e-006
18108	22.631	3.2727	0.	6.3178e-002
18109	22.539	3.1818	0.	5.925e-002
18110	22.539	3.2727	5.e-002	7.9809e-006
18111	22.813	3.2727	0.	7.3578e-002
18112	22.722	3.1818	0.	6.805e-002
18113	22.722	3.2727	5.e-002	7.0402e-006
18114	22.996	3.2727	0.	8.7093e-002
18115	22.904	3.1818	0.	8.0395e-002
18116	22.904	3.2727	5.e-002	4.0964e-006
18117	23.178	3.2727	0.	0.10993
18118	23.087	3.1818	0.	9.5717e-002
18119	23.087	3.2727	5.e-002	1.1742e-006
18120	23.361	3.2727	0.	0.13335
18121	23.27	3.1818	0.	0.12741
18122	23.27	3.2727	5.e-002	1.1886e-006
18123	23.544	3.2727	0.	0.22951
18124	23.452	3.1818	0.	0.14587
18125	23.452	3.2727	5.e-002	1.3313e-006
18126	23.726	3.2727	0.	0.23075
18127	23.635	3.1818	0.	0.33076
18128	23.635	3.2727	5.e-002	9.3288e-006
18129	23.817	3.1818	0.	0.21841
18130	23.817	3.2727	5.e-002	9.5358e-006
18131	23.909	3.2727	0.	0.4448
18132	12.041	3.0909	0.	-0.13893
18133	11.949	3.	0.	-0.24951
18134	11.949	3.0909	5.e-002	-3.478e-005
18135	12.223	3.0909	0.	0.36449
18136	12.132	3.	0.	5.9324e-002
18137	12.132	3.0909	5.e-002	-3.47e-005
18138	12.406	3.0909	0.	0.78573
18139	12.314	3.	0.	0.76648
18140	12.314	3.0909	5.e-002	-3.1228e-005
18141	12.588	3.0909	0.	-74.06
18142	12.497	3.	0.	-16.574
18143	12.497	3.0909	5.e-002	-2.0189e-005
18144	12.771	3.0909	0.	-173.26
18145	12.68	3.	0.	-136.43
18146	12.68	3.0909	5.e-002	-1.2219e-005
18147	12.953	3.0909	0.	-234.42
18148	12.862	3.	0.	-213.27
18149	12.862	3.0909	5.e-002	-2.1898e-006
18150	13.136	3.0909	0.	-267.54
18151	13.045	3.	0.	-257.46
18152	13.045	3.0909	5.e-002	-2.2866e-006
18153	13.319	3.0909	0.	-281.3
18154	13.227	3.	0.	-278.69
18155	13.227	3.0909	5.e-002	9.311e-006
18156	13.501	3.0909	0.	-282.22
18157	13.41	3.	0.	-284.49
18158	13.41	3.0909	5.e-002	8.8199e-006
18159	13.684	3.0909	0.	-274.94
18160	13.593	3.	0.	-280.26
18161	13.593	3.0909	5.e-002	7.8997e-006
18162	13.866	3.0909	0.	-262.65
18163	13.775	3.	0.	-269.78
18164	13.775	3.0909	5.e-002	1.0742e-005
18165	14.049	3.0909	0.	-247.49
18166	13.958	3.	0.	-255.6
18167	13.958	3.0909	5.e-002	1.5395e-005
18168	14.232	3.0909	0.	-230.91
18169	14.14	3.	0.	-239.43
18170	14.14	3.0909	5.e-002	1.0591e-005
18171	14.414	3.0909	0.	-213.86
18172	14.323	3.	0.	-222.42
18173	14.323	3.0909	5.e-002	1.159e-005
18174	14.597	3.0909	0.	-196.94
18175	14.505	3.	0.	-205.31
18176	14.505	3.0909	5.e-002	1.0848e-005
18177	14.779	3.0909	0.	-180.54
18178	14.688	3.	0.	-188.58
18179	14.688	3.0909	5.e-002	1.0249e-005
18180	14.962	3.0909	0.	-164.91
18181	14.871	3.	0.	-172.52
18182	14.871	3.0909	5.e-002	1.3524e-005
18183	15.145	3.0909	0.	-150.16
18184	15.053	3.	0.	-157.3
18185	15.053	3.0909	5.e-002	1.5059e-005
18186	15.327	3.0909	0.	-136.35
18187	15.236	3.	0.	-143.02
18188	15.236	3.0909	5.e-002	1.2877e-005
18189	15.51	3.0909	0.	-123.48
18190	15.418	3.	0.	-129.68
18191	15.418	3.0909	5.e-002	1.164e-005
18192	15.692	3.0909	0.	-111.54
18193	15.601	3.	0.	-117.29
18194	15.601	3.0909	5.e-002	1.1441e-005
18195	15.875	3.0909	0.	-100.48
18196	15.784	3.	0.	-105.8
18197	15.784	3.0909	5.e-002	8.4229e-006
18198	16.057	3.0909	0.	-90.255
18199	15.966	3.	0.	-95.172
18200	15.966	3.0909	5.e-002	8.2774e-006
18201	16.24	3.0909	0.	-80.795
18202	16.149	3.	0.	-85.343
18203	16.149	3.0909	5.e-002	1.0079e-005
18204	16.423	3.0909	0.	-72.042
18205	16.331	3.	0.	-76.253
18206	16.331	3.0909	5.e-002	8.0801e-006
18207	16.605	3.0909	0.	-63.936
18208	16.514	3.	0.	-67.839
18209	16.514	3.0909	5.e-002	8.0074e-006
18210	16.788	3.0909	0.	-56.415
18211	16.697	3.	0.	-60.041
18212	16.697	3.0909	5.e-002	7.9532e-006
18213	16.97	3.0909	0.	-49.422
18214	16.879	3.	0.	-52.799
18215	16.879	3.0909	5.e-002	6.0056e-006
18216	17.153	3.0909	0.	-42.903
18217	17.062	3.	0.	-46.057
18218	17.062	3.0909	5.e-002	9.3133e-006
18219	17.336	3.0909	0.	-36.807
18220	17.244	3.	0.	-39.762
18221	17.244	3.0909	5.e-002	6.414e-006
18222	17.518	3.0909	0.	-31.086
18223	17.427	3.	0.	-33.866
18224	17.427	3.0909	5.e-002	8.7761e-006
18225	17.701	3.0909	0.	-25.694
18226	17.609	3.	0.	-28.321
18227	17.609	3.0909	5.e-002	1.0186e-005
18228	17.883	3.0909	0.	-20.592
18229	17.792	3.	0.	-23.085
18230	17.792	3.0909	5.e-002	9.2101e-006
18231	18.066	3.0909	0.	-15.738
18232	17.975	3.	0.	-18.116
18233	17.975	3.0909	5.e-002	8.4636e-006
18234	18.249	3.0909	0.	-11.098
18235	18.157	3.	0.	-13.379
18236	18.157	3.0909	5.e-002	7.9579e-006
18237	18.431	3.0909	0.	-6.6357
18238	18.34	3.	0.	-8.8365
18239	18.34	3.0909	5.e-002	8.8877e-006
18240	18.614	3.0909	0.	-2.3197
18241	18.522	3.	0.	-4.4559
18242	18.522	3.0909	5.e-002	7.7323e-006
18243	18.796	3.0909	0.	1.4024e-002
18244	18.705	3.	0.	-0.20539
18245	18.705	3.0909	5.e-002	5.8212e-006
18246	18.979	3.0909	0.	1.4794e-002
18247	18.888	3.	0.	1.4463e-002
18248	18.888	3.0909	5.e-002	7.4418e-006
18249	19.161	3.0909	0.	1.5567e-002
18250	19.07	3.	0.	1.5206e-002
18251	19.07	3.0909	5.e-002	6.7237e-006
18252	19.344	3.0909	0.	1.6384e-002
18253	19.253	3.	0.	1.5996e-002
18254	19.253	3.0909	5.e-002	7.8366e-006
18255	19.527	3.0909	0.	1.7253e-002
18256	19.435	3.	0.	1.6835e-002
18257	19.435	3.0909	5.e-002	5.5533e-006
18258	19.709	3.0909	0.	1.8184e-002
18259	19.618	3.	0.	1.7734e-002
18260	19.618	3.0909	5.e-002	7.3248e-006
18261	19.892	3.0909	0.	1.9189e-002
18262	19.8	3.	0.	1.87e-002
18263	19.8	3.0909	5.e-002	4.6874e-006
18264	20.074	3.0909	0.	2.0276e-002
18265	19.983	3.	0.	1.9746e-002
18266	19.983	3.0909	5.e-002	5.3843e-006
18267	20.257	3.0909	0.	2.1457e-002
18268	20.166	3.	0.	2.0877e-002
18269	20.166	3.0909	5.e-002	8.9446e-006
18270	20.44	3.0909	0.	2.2748e-002
18271	20.348	3.	0.	2.2112e-002
18272	20.348	3.0909	5.e-002	7.016e-006
18273	20.622	3.0909	0.	2.4166e-002
18274	20.531	3.	0.	2.3465e-002
18275	20.531	3.0909	5.e-002	7.9596e-006
18276	20.805	3.0909	0.	2.5735e-002
18277	20.713	3.	0.	2.4954e-002
18278	20.713	3.0909	5.e-002	8.4292e-006
18279	20.987	3.0909	0.	2.7485e-002
18280	20.896	3.	0.	2.6609e-002
18281	20.896	3.0909	5.e-002	7.48e-006
18282	21.17	3.0909	0.	2.9447e-002
18283	21.079	3.	0.	2.8464e-002
18284	21.079	3.0909	5.e-002	5.5784e-006
18285	21.352	3.0909	0.	3.1662e-002
18286	21.261	3.	0.	3.0546e-002
18287	21.261	3.0909	5.e-002	5.0818e-006
18288	21.535	3.0909	0.	3.4196e-002
18289	21.444	3.	0.	3.2912e-002
18290	21.444	3.0909	5.e-002	4.5944e-006
18291	21.718	3.0909	0.	3.7124e-002
18292	21.626	3.	0.	3.5633e-002
18293	21.626	3.0909	5.e-002	5.5189e-006
18294	21.9	3.0909	0.	4.0553e-002
18295	21.809	3.	0.	3.8795e-002
18296	21.809	3.0909	5.e-002	7.4276e-006
18297	22.083	3.0909	0.	4.4631e-002
18298	21.992	3.	0.	4.2527e-002
18299	21.992	3.0909	5.e-002	6.511e-006
18300	22.265	3.0909	0.	4.957e-002
18301	22.174	3.	0.	4.7005e-002
18302	22.174	3.0909	5.e-002	8.3935e-006
18303	22.448	3.0909	0.	5.5702e-002
18304	22.357	3.	0.	5.2483e-002
18305	22.357	3.0909	5.e-002	1.1221e-005
18306	22.631	3.0909	0.	6.3463e-002
18307	22.539	3.	0.	5.9388e-002
18308	22.539	3.0909	5.e-002	8.3738e-006
18309	22.813	3.0909	0.	7.3879e-002
18310	22.722	3.	0.	6.8196e-002
18311	22.722	3.0909	5.e-002	1.0287e-005
18312	22.996	3.0909	0.	8.7415e-002
18313	22.904	3.	0.	8.0549e-002
18314	22.904	3.0909	5.e-002	6.4452e-006
18315	23.178	3.0909	0.	0.11029
18316	23.087	3.	0.	9.5885e-002
18317	23.087	3.0909	5.e-002	3.5664e-006
18318	23.361	3.0909	0.	0.13375
18319	23.27	3.	0.	0.1276
18320	23.27	3.0909	5.e-002	1.6651e-006
18321	23.544	3.0909	0.	0.23002
18322	23.452	3.	0.	0.14609
18323	23.452	3.0909	5.e-002	7.4323e-006
18324	23.726	3.0909	0.	0.23159
18325	23.635	3.	0.	0.33107
18326	23.635	3.0909	5.e-002	7.5574e-006
18327	23.817	3.	0.	0.21906
18328	23.817	3.0909	5.e-002	1.3347e-005
18329	23.909	3.0909	0.	0.44507
18330	12.041	2.9091	0.	-0.13893
18331	11.949	2.8182	0.	-1.2578
18332	11.949	2.9091	5.e-002	-3.3783e-005
18333	12.223	2.9091	0.	0.36449
18334	12.132	2.8182	0.	2.6629e-002
18335	12.132	2.9091	5.e-002	-1.4996e-005
18336	12.406	2.9091	0.	0.78573
18337	12.314	2.8182	0.	0.69605
18338	12.314	2.9091	5.e-002	-5.046e-006
18339	12.588	2.9091	0.	-74.06
18340	12.497	2.8182	0.	-24.719
18341	12.497	2.9091	5.e-002	2.2813e-006
18342	12.771	2.9091	0.	-173.26
18343	12.68	2.8182	0.	-141.04
18344	12.68	2.9091	5.e-002	4.6242e-006
18345	12.953	2.9091	0.	-234.42
18346	12.862	2.8182	0.	-214.83
18347	12.862	2.9091	5.e-002	6.1803e-006
18348	13.136	2.9091	0.	-267.54
18349	13.045	2.8182	0.	-256.85
18350	13.045	2.9091	5.e-002	6.2167e-006
18351	13.319	2.9091	0.	-281.3
18352	13.227	2.8182	0.	-276.73
18353	13.227	2.9091	5.e-002	9.6476e-006
18354	13.501	2.9091	0.	-282.22
18355	13.41	2.8182	0.	-281.8
18356	13.41	2.9091	5.e-002	6.386e-006
18357	13.684	2.9091	0.	-274.94
18358	13.593	2.8182	0.	-277.27
18359	13.593	2.9091	5.e-002	7.4048e-006
18360	13.866	2.9091	0.	-262.65
18361	13.775	2.8182	0.	-266.75
18362	13.775	2.9091	5.e-002	8.4665e-006
18363	14.049	2.9091	0.	-247.49
18364	13.958	2.8182	0.	-252.67
18365	13.958	2.9091	5.e-002	9.5513e-006
18366	14.232	2.9091	0.	-230.91
18367	14.14	2.8182	0.	-236.69
18368	14.14	2.9091	5.e-002	8.5151e-006
18369	14.414	2.9091	0.	-213.86
18370	14.323	2.8182	0.	-219.91
18371	14.323	2.9091	5.e-002	1.1319e-005
18372	14.597	2.9091	0.	-196.94
18373	14.505	2.8182	0.	-203.04
18374	14.505	2.9091	5.e-002	1.2059e-005
18375	14.779	2.9091	0.	-180.54
18376	14.688	2.8182	0.	-186.55
18377	14.688	2.9091	5.e-002	1.0781e-005
18378	14.962	2.9091	0.	-164.91
18379	14.871	2.8182	0.	-170.73
18380	14.871	2.9091	5.e-002	1.122e-005
18381	15.145	2.9091	0.	-150.16
18382	15.053	2.8182	0.	-155.73
18383	15.053	2.9091	5.e-002	1.3459e-005
18384	15.327	2.9091	0.	-136.35
18385	15.236	2.8182	0.	-141.63
18386	15.236	2.9091	5.e-002	1.1949e-005
18387	15.51	2.9091	0.	-123.48
18388	15.418	2.8182	0.	-128.47
18389	15.418	2.9091	5.e-002	1.2214e-005
18390	15.692	2.9091	0.	-111.54
18391	15.601	2.8182	0.	-116.22
18392	15.601	2.9091	5.e-002	1.0517e-005
18393	15.875	2.9091	0.	-100.48
18394	15.784	2.8182	0.	-104.87
18395	15.784	2.9091	5.e-002	7.8114e-006
18396	16.057	2.9091	0.	-90.255
18397	15.966	2.8182	0.	-94.362
18398	15.966	2.9091	5.e-002	6.9803e-006
18399	16.24	2.9091	0.	-80.795
18400	16.149	2.8182	0.	-84.636
18401	16.149	2.9091	5.e-002	9.0156e-006
18402	16.423	2.9091	0.	-72.042
18403	16.331	2.8182	0.	-75.637
18404	16.331	2.9091	5.e-002	7.1927e-006
18405	16.605	2.9091	0.	-63.936
18406	16.514	2.8182	0.	-67.302
18407	16.514	2.9091	5.e-002	6.3057e-006
18408	16.788	2.9091	0.	-56.415
18409	16.697	2.8182	0.	-59.572
18410	16.697	2.9091	5.e-002	7.3164e-006
18411	16.97	2.9091	0.	-49.422
18412	16.879	2.8182	0.	-52.39
18413	16.879	2.9091	5.e-002	6.4001e-006
18414	17.153	2.9091	0.	-42.903
18415	17.062	2.8182	0.	-45.701
18416	17.062	2.9091	5.e-002	6.9067e-006
18417	17.336	2.9091	0.	-36.807
18418	17.244	2.8182	0.	-39.453
18419	17.244	2.9091	5.e-002	4.56e-006
18420	17.518	2.9091	0.	-31.086
18421	17.427	2.8182	0.	-33.598
18422	17.427	2.9091	5.e-002	7.4416e-006
18423	17.701	2.9091	0.	-25.695
18424	17.609	2.8182	0.	-28.09
18425	17.609	2.9091	5.e-002	8.8916e-006
18426	17.883	2.9091	0.	-20.592
18427	17.792	2.8182	0.	-22.886
18428	17.792	2.9091	5.e-002	7.9598e-006
18429	18.066	2.9091	0.	-15.738
18430	17.975	2.8182	0.	-17.947
18431	17.975	2.9091	5.e-002	6.6787e-006
18432	18.249	2.9091	0.	-11.098
18433	18.157	2.8182	0.	-13.237
18434	18.157	2.9091	5.e-002	6.7069e-006
18435	18.431	2.9091	0.	-6.6357
18436	18.34	2.8182	0.	-8.719
18437	18.34	2.9091	5.e-002	7.5645e-006
18438	18.614	2.9091	0.	-2.3197
18439	18.522	2.8182	0.	-4.3613
18440	18.522	2.9091	5.e-002	6.2461e-006
18441	18.796	2.9091	0.	1.4024e-002
18442	18.705	2.8182	0.	-0.1357
18443	18.705	2.9091	5.e-002	4.5209e-006
18444	18.979	2.9091	0.	1.4793e-002
18445	18.888	2.8182	0.	1.428e-002
18446	18.888	2.9091	5.e-002	6.2377e-006
18447	19.161	2.9091	0.	1.5567e-002
18448	19.07	2.8182	0.	1.5083e-002
18449	19.07	2.9091	5.e-002	5.6143e-006
18450	19.344	2.9091	0.	1.6383e-002
18451	19.253	2.8182	0.	1.589e-002
18452	19.253	2.9091	5.e-002	6.587e-006
18453	19.527	2.9091	0.	1.7253e-002
18454	19.435	2.8182	0.	1.6735e-002
18455	19.435	2.9091	5.e-002	4.5781e-006
18456	19.709	2.9091	0.	1.8185e-002
18457	19.618	2.8182	0.	1.7635e-002
18458	19.618	2.9091	5.e-002	5.5479e-006
18459	19.892	2.9091	0.	1.9189e-002
18460	19.8	2.8182	0.	1.8601e-002
18461	19.8	2.9091	5.e-002	3.6546e-006
18462	20.074	2.9091	0.	2.0275e-002
18463	19.983	2.8182	0.	1.9643e-002
18464	19.983	2.9091	5.e-002	3.9112e-006
18465	20.257	2.9091	0.	2.1456e-002
18466	20.166	2.8182	0.	2.0774e-002
18467	20.166	2.9091	5.e-002	7.2647e-006
18468	20.44	2.9091	0.	2.2748e-002
18469	20.348	2.8182	0.	2.2004e-002
18470	20.348	2.9091	5.e-002	5.854e-006
18471	20.622	2.9091	0.	2.4166e-002
18472	20.531	2.8182	0.	2.3357e-002
18473	20.531	2.9091	5.e-002	6.341e-006
18474	20.805	2.9091	0.	2.5734e-002
18475	20.713	2.8182	0.	2.4842e-002
18476	20.713	2.9091	5.e-002	6.3472e-006
18477	20.987	2.9091	0.	2.7484e-002
18478	20.896	2.8182	0.	2.6494e-002
18479	20.896	2.9091	5.e-002	6.3421e-006
18480	21.17	2.9091	0.	2.9447e-002
18481	21.079	2.8182	0.	2.8347e-002
18482	21.079	2.9091	5.e-002	4.9057e-006
18483	21.352	2.9091	0.	3.1663e-002
18484	21.261	2.8182	0.	3.0427e-002
18485	21.261	2.9091	5.e-002	3.9707e-006
18486	21.535	2.9091	0.	3.4196e-002
18487	21.444	2.8182	0.	3.279e-002
18488	21.444	2.9091	5.e-002	4.9348e-006
18489	21.718	2.9091	0.	3.7123e-002
18490	21.626	2.8182	0.	3.5507e-002
18491	21.626	2.9091	5.e-002	5.9177e-006
18492	21.9	2.9091	0.	4.0552e-002
18493	21.809	2.8182	0.	3.8668e-002
18494	21.809	2.9091	5.e-002	6.8698e-006
18495	22.083	2.9091	0.	4.4631e-002
18496	21.992	2.8182	0.	4.2397e-002
18497	21.992	2.9091	5.e-002	4.9255e-006
18498	22.265	2.9091	0.	4.9569e-002
18499	22.174	2.8182	0.	4.6874e-002
18500	22.174	2.9091	5.e-002	6.8583e-006
18501	22.448	2.9091	0.	5.5701e-002
18502	22.357	2.8182	0.	5.2348e-002
18503	22.357	2.9091	5.e-002	8.7999e-006
18504	22.631	2.9091	0.	6.3462e-002
18505	22.539	2.8182	0.	5.9249e-002
18506	22.539	2.9091	5.e-002	8.7847e-006
18507	22.813	2.9091	0.	7.3879e-002
18508	22.722	2.8182	0.	6.805e-002
18509	22.722	2.9091	5.e-002	7.8242e-006
18510	22.996	2.9091	0.	8.7416e-002
18511	22.904	2.8182	0.	8.0395e-002
18512	22.904	2.9091	5.e-002	4.0362e-006
18513	23.178	2.9091	0.	0.11029
18514	23.087	2.8182	0.	9.5717e-002
18515	23.087	2.9091	5.e-002	2.1445e-006
18516	23.361	2.9091	0.	0.13375
18517	23.27	2.8182	0.	0.12741
18518	23.27	2.9091	5.e-002	2.2966e-007
18519	23.544	2.9091	0.	0.23002
18520	23.452	2.8182	0.	0.14587
18521	23.452	2.9091	5.e-002	5.9056e-006
18522	23.726	2.9091	0.	0.23159
18523	23.635	2.8182	0.	0.33076
18524	23.635	2.9091	5.e-002	1.1505e-005
18525	23.817	2.8182	0.	0.2184
18526	23.817	2.9091	5.e-002	1.5248e-005
18527	23.909	2.9091	0.	0.44507
18528	12.041	2.7273	0.	-1.183
18529	11.949	2.6364	0.	0.66906
18530	11.949	2.7273	5.e-002	-4.6941e-005
18531	12.223	2.7273	0.	0.25934
18532	12.132	2.6364	0.	0.12559
18533	12.132	2.7273	5.e-002	5.3829e-006
18534	12.406	2.7273	0.	0.34821
18535	12.314	2.6364	0.	0.1296
18536	12.314	2.7273	5.e-002	1.6764e-005
18537	12.588	2.7273	0.	-86.695
18538	12.497	2.6364	0.	-46.024
18539	12.497	2.7273	5.e-002	1.894e-005
18540	12.771	2.7273	0.	-179.64
18541	12.68	2.6364	0.	-152.16
18542	12.68	2.7273	5.e-002	1.5793e-005
18543	12.953	2.7273	0.	-235.54
18544	12.862	2.6364	0.	-217.44
18545	12.862	2.7273	5.e-002	1.4663e-005
18546	13.136	2.7273	0.	-265.08
18547	13.045	2.6364	0.	-253.65
18548	13.045	2.7273	5.e-002	1.4199e-005
18549	13.319	2.7273	0.	-276.72
18550	13.227	2.6364	0.	-270.07
18551	13.227	2.7273	5.e-002	2.3476e-006
18552	13.501	2.7273	0.	-276.58
18553	13.41	2.6364	0.	-273.35
18554	13.41	2.7273	5.e-002	7.8795e-006
18555	13.684	2.7273	0.	-268.93
18556	13.593	2.6364	0.	-268.13
18557	13.593	2.7273	5.e-002	2.805e-006
18558	13.866	2.7273	0.	-256.69
18559	13.775	2.6364	0.	-257.59
18560	13.775	2.7273	5.e-002	6.4745e-006
18561	14.049	2.7273	0.	-241.83
18562	13.958	2.6364	0.	-243.9
18563	13.958	2.7273	5.e-002	6.5952e-006
18564	14.232	2.7273	0.	-225.67
18565	14.14	2.6364	0.	-228.53
18566	14.14	2.7273	5.e-002	8.7411e-006
18567	14.414	2.7273	0.	-209.09
18568	14.323	2.6364	0.	-212.46
18569	14.323	2.7273	5.e-002	8.7927e-006
18570	14.597	2.7273	0.	-192.65
18571	14.505	2.6364	0.	-196.34
18572	14.505	2.7273	5.e-002	7.2487e-006
18573	14.779	2.7273	0.	-176.73
18574	14.688	2.6364	0.	-180.57
18575	14.688	2.7273	5.e-002	7.5947e-006
18576	14.962	2.7273	0.	-161.54
18577	14.871	2.6364	0.	-165.42
18578	14.871	2.7273	5.e-002	1.1108e-005
18579	15.145	2.7273	0.	-147.19
18580	15.053	2.6364	0.	-151.05
18581	15.053	2.7273	5.e-002	1.0068e-005
18582	15.327	2.7273	0.	-133.74
18583	15.236	2.6364	0.	-137.52
18584	15.236	2.7273	5.e-002	7.4219e-006
18585	15.51	2.7273	0.	-121.2
18586	15.418	2.6364	0.	-124.87
18587	15.418	2.7273	5.e-002	1.1044e-005
18588	15.692	2.7273	0.	-109.55
18589	15.601	2.6364	0.	-113.08
18590	15.601	2.7273	5.e-002	9.7063e-006
18591	15.875	2.7273	0.	-98.745
18592	15.784	2.6364	0.	-102.12
18593	15.784	2.7273	5.e-002	9.2022e-006
18594	16.057	2.7273	0.	-88.738
18595	15.966	2.6364	0.	-91.96
18596	15.966	2.7273	5.e-002	6.7708e-006
18597	16.24	2.7273	0.	-79.471
18598	16.149	2.6364	0.	-82.54
18599	16.149	2.7273	5.e-002	8.9631e-006
18600	16.423	2.7273	0.	-70.888
18601	16.331	2.6364	0.	-73.807
18602	16.331	2.7273	5.e-002	6.3621e-006
18603	16.605	2.7273	0.	-62.929
18604	16.514	2.6364	0.	-65.706
18605	16.514	2.7273	5.e-002	6.568e-006
18606	16.788	2.7273	0.	-55.538
18607	16.697	2.6364	0.	-58.18
18608	16.697	2.7273	5.e-002	6.2398e-006
18609	16.97	2.7273	0.	-48.658
18610	16.879	2.6364	0.	-51.177
18611	16.879	2.7273	5.e-002	4.9234e-006
18612	17.153	2.7273	0.	-42.239
18613	17.062	2.6364	0.	-44.644
18614	17.062	2.7273	5.e-002	6.4535e-006
18615	17.336	2.7273	0.	-36.23
18616	17.244	2.6364	0.	-38.534
18617	17.244	2.7273	5.e-002	4.6402e-006
18618	17.518	2.7273	0.	-30.586
18619	17.427	2.6364	0.	-32.801
18620	17.427	2.7273	5.e-002	6.8388e-006
18621	17.701	2.7273	0.	-25.264
18622	17.609	2.6364	0.	-27.401
18623	17.609	2.7273	5.e-002	8.3305e-006
18624	17.883	2.7273	0.	-20.224
18625	17.792	2.6364	0.	-22.294
18626	17.792	2.7273	5.e-002	7.442e-006
18627	18.066	2.7273	0.	-15.427
18628	17.975	2.6364	0.	-17.443
18629	17.975	2.7273	5.e-002	6.3367e-006
18630	18.249	2.7273	0.	-10.838
18631	18.157	2.6364	0.	-12.813
18632	18.157	2.7273	5.e-002	6.5386e-006
18633	18.431	2.7273	0.	-6.4235
18634	18.34	2.6364	0.	-8.3684
18635	18.34	2.7273	5.e-002	7.3816e-006
18636	18.614	2.7273	0.	-2.1522
18637	18.522	2.6364	0.	-4.0791
18638	18.522	2.7273	5.e-002	6.2841e-006
18639	18.796	2.7273	0.	1.3409e-002
18640	18.705	2.6364	0.	-8.4499e-003
18641	18.705	2.7273	5.e-002	4.2223e-006
18642	18.979	2.7273	0.	1.4513e-002
18643	18.888	2.6364	0.	1.375e-002
18644	18.888	2.7273	5.e-002	6.2421e-006
18645	19.161	2.7273	0.	1.5343e-002
18646	19.07	2.6364	0.	1.4717e-002
18647	19.07	2.7273	5.e-002	5.4585e-006
18648	19.344	2.7273	0.	1.6178e-002
18649	19.253	2.6364	0.	1.5569e-002
18650	19.253	2.7273	5.e-002	7.1239e-006
18651	19.527	2.7273	0.	1.7054e-002
18652	19.435	2.6364	0.	1.6429e-002
18653	19.435	2.7273	5.e-002	4.5539e-006
18654	19.709	2.7273	0.	1.7986e-002
18655	19.618	2.6364	0.	1.7333e-002
18656	19.618	2.7273	5.e-002	6.1491e-006
18657	19.892	2.7273	0.	1.8988e-002
18658	19.8	2.6364	0.	1.8298e-002
18659	19.8	2.7273	5.e-002	4.2836e-006
18660	20.074	2.7273	0.	2.007e-002
18661	19.983	2.6364	0.	1.9335e-002
18662	19.983	2.7273	5.e-002	3.8583e-006
18663	20.257	2.7273	0.	2.1247e-002
18664	20.166	2.6364	0.	2.0459e-002
18665	20.166	2.7273	5.e-002	7.2446e-006
18666	20.44	2.7273	0.	2.2532e-002
18667	20.348	2.6364	0.	2.1682e-002
18668	20.348	2.7273	5.e-002	5.6298e-006
18669	20.622	2.7273	0.	2.3946e-002
18670	20.531	2.6364	0.	2.3027e-002
18671	20.531	2.7273	5.e-002	6.6146e-006
18672	20.805	2.7273	0.	2.5507e-002
18673	20.713	2.6364	0.	2.4504e-002
18674	20.713	2.7273	5.e-002	6.6288e-006
18675	20.987	2.7273	0.	2.7252e-002
18676	20.896	2.6364	0.	2.6146e-002
18677	20.896	2.7273	5.e-002	5.1856e-006
18678	21.17	2.7273	0.	2.921e-002
18679	21.079	2.6364	0.	2.7992e-002
18680	21.079	2.7273	5.e-002	4.686e-006
18681	21.352	2.7273	0.	3.1421e-002
18682	21.261	2.6364	0.	3.0063e-002
18683	21.261	2.7273	5.e-002	4.2731e-006
18684	21.535	2.7273	0.	3.3947e-002
18685	21.444	2.6364	0.	3.2419e-002
18686	21.444	2.7273	5.e-002	5.2483e-006
18687	21.718	2.7273	0.	3.687e-002
18688	21.626	2.6364	0.	3.513e-002
18689	21.626	2.7273	5.e-002	6.2943e-006
18690	21.9	2.7273	0.	4.0294e-002
18691	21.809	2.6364	0.	3.8282e-002
18692	21.809	2.7273	5.e-002	5.3399e-006
18693	22.083	2.7273	0.	4.4368e-002
18694	21.992	2.6364	0.	4.2004e-002
18695	21.992	2.7273	5.e-002	3.3204e-006
18696	22.265	2.7273	0.	4.9303e-002
18697	22.174	2.6364	0.	4.6472e-002
18698	22.174	2.7273	5.e-002	8.1651e-006
18699	22.448	2.7273	0.	5.5428e-002
18700	22.357	2.6364	0.	5.1936e-002
18701	22.357	2.7273	5.e-002	9.2248e-006
18702	22.631	2.7273	0.	6.3178e-002
18703	22.539	2.6364	0.	5.8826e-002
18704	22.539	2.7273	5.e-002	1.0133e-005
18705	22.813	2.7273	0.	7.3579e-002
18706	22.722	2.6364	0.	6.7606e-002
18707	22.722	2.7273	5.e-002	9.1658e-006
18708	22.996	2.7273	0.	8.7093e-002
18709	22.904	2.6364	0.	7.9924e-002
18710	22.904	2.7273	5.e-002	4.479e-006
18711	23.178	2.7273	0.	0.10993
18712	23.087	2.6364	0.	9.5207e-002
18713	23.087	2.7273	5.e-002	6.9676e-007
18714	23.361	2.7273	0.	0.13335
18715	23.27	2.6364	0.	0.12684
18716	23.27	2.7273	5.e-002	6.7717e-007
18717	23.544	2.7273	0.	0.22951
18718	23.452	2.6364	0.	0.14521
18719	23.452	2.7273	5.e-002	4.3524e-006
18720	23.726	2.7273	0.	0.23075
18721	23.635	2.6364	0.	0.32982
18722	23.635	2.7273	5.e-002	9.706e-006
18723	23.817	2.6364	0.	0.21641
18724	23.817	2.7273	5.e-002	7.5984e-006
18725	23.909	2.7273	0.	0.4448
18726	12.041	2.5455	0.	1.7466
18727	11.949	2.4545	0.	-4.7981
18728	11.949	2.5455	5.e-002	-1.0358e-004
18729	12.223	2.5455	0.	-7.2622e-002
18730	12.132	2.4545	0.	-3.5858
18731	12.132	2.5455	5.e-002	-6.534e-006
18732	12.406	2.5455	0.	-1.8542
18733	12.314	2.4545	0.	1.0457
18734	12.314	2.5455	5.e-002	2.4455e-005
18735	12.588	2.5455	0.	-106.97
18736	12.497	2.4545	0.	-70.489
18737	12.497	2.5455	5.e-002	2.8118e-005
18738	12.771	2.5455	0.	-187.64
18739	12.68	2.4545	0.	-161.27
18740	12.68	2.5455	5.e-002	2.1259e-005
18741	12.953	2.5455	0.	-234.33
18742	12.862	2.4545	0.	-215.23
18743	12.862	2.5455	5.e-002	1.367e-005
18744	13.136	2.5455	0.	-258.01
18745	13.045	2.4545	0.	-244.3
18746	13.045	2.5455	5.e-002	4.5037e-006
18747	13.319	2.5455	0.	-266.37
18748	13.227	2.4545	0.	-256.72
18749	13.227	2.5455	5.e-002	1.307e-006
18750	13.501	2.5455	0.	-264.72
18751	13.41	2.4545	0.	-258.14
18752	13.41	2.5455	5.e-002	2.3948e-006
18753	13.684	2.5455	0.	-256.7
18754	13.593	2.4545	0.	-252.44
18755	13.593	2.5455	5.e-002	7.2993e-006
18756	13.866	2.5455	0.	-244.76
18757	13.775	2.4545	0.	-242.26
18758	13.775	2.5455	5.e-002	2.571e-006
18759	14.049	2.5455	0.	-230.59
18760	13.958	2.4545	0.	-229.43
18761	13.958	2.5455	5.e-002	1.0622e-006
18762	14.232	2.5455	0.	-215.32
18763	14.14	2.4545	0.	-215.18
18764	14.14	2.5455	5.e-002	7.0365e-006
18765	14.414	2.5455	0.	-199.7
18766	14.323	2.4545	0.	-200.33
18767	14.323	2.5455	5.e-002	5.8561e-006
18768	14.597	2.5455	0.	-184.25
18769	14.505	2.4545	0.	-185.43
18770	14.505	2.5455	5.e-002	7.8862e-006
18771	14.779	2.5455	0.	-169.26
18772	14.688	2.4545	0.	-170.85
18773	14.688	2.5455	5.e-002	9.6505e-006
18774	14.962	2.5455	0.	-154.93
18775	14.871	2.4545	0.	-156.82
18776	14.871	2.5455	5.e-002	1.0854e-005
18777	15.145	2.5455	0.	-141.37
18778	15.053	2.4545	0.	-143.46
18779	15.053	2.5455	5.e-002	9.5376e-006
18780	15.327	2.5455	0.	-128.64
18781	15.236	2.4545	0.	-130.85
18782	15.236	2.5455	5.e-002	8.5078e-006
18783	15.51	2.5455	0.	-116.73
18784	15.418	2.4545	0.	-119.02
18785	15.418	2.5455	5.e-002	1.0176e-005
18786	15.692	2.5455	0.	-105.64
18787	15.601	2.4545	0.	-107.96
18788	15.601	2.5455	5.e-002	8.9592e-006
18789	15.875	2.5455	0.	-95.331
18790	15.784	2.4545	0.	-97.649
18791	15.784	2.5455	5.e-002	8.6209e-006
18792	16.057	2.5455	0.	-85.756
18793	15.966	2.4545	0.	-88.052
18794	15.966	2.5455	5.e-002	8.3568e-006
18795	16.24	2.5455	0.	-76.869
18796	16.149	2.4545	0.	-79.126
18797	16.149	2.5455	5.e-002	8.9669e-006
18798	16.423	2.5455	0.	-68.617
18799	16.331	2.4545	0.	-70.826
18800	16.331	2.5455	5.e-002	7.4647e-006
18801	16.605	2.5455	0.	-60.947
18802	16.514	2.4545	0.	-63.102
18803	16.514	2.5455	5.e-002	6.9523e-006
18804	16.788	2.5455	0.	-53.809
18805	16.697	2.4545	0.	-55.906
18806	16.697	2.5455	5.e-002	6.7044e-006
18807	16.97	2.5455	0.	-47.151
18808	16.879	2.4545	0.	-49.192
18809	16.879	2.5455	5.e-002	5.8965e-006
18810	17.153	2.5455	0.	-40.926
18811	17.062	2.4545	0.	-42.914
18812	17.062	2.5455	5.e-002	6.9681e-006
18813	17.336	2.5455	0.	-35.09
18814	17.244	2.4545	0.	-37.028
18815	17.244	2.5455	5.e-002	5.2423e-006
18816	17.518	2.5455	0.	-29.599
18817	17.427	2.4545	0.	-31.493
18818	17.427	2.5455	5.e-002	6.9717e-006
18819	17.701	2.5455	0.	-24.414
18820	17.609	2.4545	0.	-26.27
18821	17.609	2.5455	5.e-002	8.9784e-006
18822	17.883	2.5455	0.	-19.496
18823	17.792	2.4545	0.	-21.322
18824	17.792	2.5455	5.e-002	7.6433e-006
18825	18.066	2.5455	0.	-14.81
18826	17.975	2.4545	0.	-16.615
18827	17.975	2.5455	5.e-002	6.9555e-006
18828	18.249	2.5455	0.	-10.323
18829	18.157	2.4545	0.	-12.115
18830	18.157	2.5455	5.e-002	7.2129e-006
18831	18.431	2.5455	0.	-6.0026
18832	18.34	2.4545	0.	-7.7906
18833	18.34	2.5455	5.e-002	8.3407e-006
18834	18.614	2.5455	0.	-1.8199
18835	18.522	2.4545	0.	-3.6135
18836	18.522	2.5455	5.e-002	7.063e-006
18837	18.796	2.5455	0.	1.2356e-002
18838	18.705	2.4545	0.	2.8314e-003
18839	18.705	2.5455	5.e-002	5.2264e-006
18840	18.979	2.5455	0.	1.3963e-002
18841	18.888	2.4545	0.	1.2921e-002
18842	18.888	2.5455	5.e-002	7.3676e-006
18843	19.161	2.5455	0.	1.4893e-002
18844	19.07	2.4545	0.	1.4109e-002
18845	19.07	2.5455	5.e-002	6.5568e-006
18846	19.344	2.5455	0.	1.5762e-002
18847	19.253	2.4545	0.	1.5027e-002
18848	19.253	2.5455	5.e-002	8.0209e-006
18849	19.527	2.5455	0.	1.6647e-002
18850	19.435	2.4545	0.	1.5911e-002
18851	19.435	2.5455	5.e-002	5.6001e-006
18852	19.709	2.5455	0.	1.758e-002
18853	19.618	2.4545	0.	1.6821e-002
18854	19.618	2.5455	5.e-002	6.7542e-006
18855	19.892	2.5455	0.	1.8577e-002
18856	19.8	2.4545	0.	1.7781e-002
18857	19.8	2.5455	5.e-002	4.6736e-006
18858	20.074	2.5455	0.	1.9652e-002
18859	19.983	2.4545	0.	1.881e-002
18860	19.983	2.5455	5.e-002	4.9959e-006
18861	20.257	2.5455	0.	2.0818e-002
18862	20.166	2.4545	0.	1.9922e-002
18863	20.166	2.5455	5.e-002	8.3974e-006
18864	20.44	2.5455	0.	2.2094e-002
18865	20.348	2.4545	0.	2.1134e-002
18866	20.348	2.5455	5.e-002	7.789e-006
18867	20.622	2.5455	0.	2.3495e-002
18868	20.531	2.4545	0.	2.246e-002
18869	20.531	2.5455	5.e-002	7.37e-006
18870	20.805	2.5455	0.	2.5045e-002
18871	20.713	2.4545	0.	2.3924e-002
18872	20.713	2.5455	5.e-002	7.8643e-006
18873	20.987	2.5455	0.	2.6778e-002
18874	20.896	2.4545	0.	2.5551e-002
18875	20.896	2.5455	5.e-002	6.8727e-006
18876	21.17	2.5455	0.	2.8725e-002
18877	21.079	2.4545	0.	2.7381e-002
18878	21.079	2.5455	5.e-002	6.8472e-006
18879	21.352	2.5455	0.	3.0925e-002
18880	21.261	2.4545	0.	2.9438e-002
18881	21.261	2.5455	5.e-002	5.9813e-006
18882	21.535	2.5455	0.	3.3445e-002
18883	21.444	2.4545	0.	3.178e-002
18884	21.444	2.5455	5.e-002	6.9814e-006
18885	21.718	2.5455	0.	3.6357e-002
18886	21.626	2.4545	0.	3.4478e-002
18887	21.626	2.5455	5.e-002	6.665e-006
18888	21.9	2.5455	0.	3.9769e-002
18889	21.809	2.4545	0.	3.7617e-002
18890	21.809	2.5455	5.e-002	7.6116e-006
18891	22.083	2.5455	0.	4.3833e-002
18892	21.992	2.4545	0.	4.1325e-002
18893	21.992	2.5455	5.e-002	7.4255e-006
18894	22.265	2.5455	0.	4.8753e-002
18895	22.174	2.4545	0.	4.5778e-002
18896	22.174	2.5455	5.e-002	9.4681e-006
18897	22.448	2.5455	0.	5.4864e-002
18898	22.357	2.4545	0.	5.1225e-002
18899	22.357	2.5455	5.e-002	1.1573e-005
18900	22.631	2.5455	0.	6.2593e-002
18901	22.539	2.4545	0.	5.8093e-002
18902	22.539	2.5455	5.e-002	1.1498e-005
18903	22.813	2.5455	0.	7.2962e-002
18904	22.722	2.4545	0.	6.6839e-002
18905	22.722	2.5455	5.e-002	1.0508e-005
18906	22.996	2.5455	0.	8.6434e-002
18907	22.904	2.4545	0.	7.9111e-002
18908	22.904	2.5455	5.e-002	6.8263e-006
18909	23.178	2.5455	0.	0.10921
18910	23.087	2.4545	0.	9.4329e-002
18911	23.087	2.5455	5.e-002	5.9416e-006
18912	23.361	2.5455	0.	0.13253
18913	23.27	2.4545	0.	0.12585
18914	23.27	2.5455	5.e-002	4.94e-006
18915	23.544	2.5455	0.	0.22846
18916	23.452	2.4545	0.	0.14408
18917	23.452	2.5455	5.e-002	8.5355e-006
18918	23.726	2.5455	0.	0.22905
18919	23.635	2.4545	0.	0.32821
18920	23.635	2.5455	5.e-002	1.1745e-005
18921	23.817	2.4545	0.	0.21302
18922	23.817	2.5455	5.e-002	1.5201e-005
18923	23.909	2.5455	0.	0.44425
18924	12.041	2.3636	0.	-10.355
18925	11.949	2.2727	0.	-10.715
18926	11.949	2.3636	5.e-002	-1.4088e-004
18927	12.223	2.3636	0.	-2.3788
18928	12.132	2.2727	0.	9.0674
18929	12.132	2.3636	5.e-002	-1.4225e-005
18930	12.406	2.3636	0.	-13.826
18931	12.314	2.2727	0.	-0.23441
18932	12.314	2.3636	5.e-002	1.679e-005
18933	12.588	2.3636	0.	-121.8
18934	12.497	2.2727	0.	-77.258
18935	12.497	2.3636	5.e-002	1.6804e-005
18936	12.771	2.3636	0.	-187.67
18937	12.68	2.2727	0.	-155.23
18938	12.68	2.3636	5.e-002	7.1409e-006
18939	12.953	2.3636	0.	-224.74
18940	12.862	2.2727	0.	-200.44
18941	12.862	2.3636	5.e-002	1.8577e-006
18942	13.136	2.3636	0.	-242.84
18943	13.045	2.2727	0.	-224.52
18944	13.045	2.3636	5.e-002	-3.3741e-006
18945	13.319	2.3636	0.	-248.43
18946	13.227	2.2727	0.	-234.51
18947	13.227	2.3636	5.e-002	2.6382e-006
18948	13.501	2.3636	0.	-245.84
18949	13.41	2.2727	0.	-235.24
18950	13.41	2.3636	5.e-002	-1.1258e-005
18951	13.684	2.3636	0.	-238.
18952	13.593	2.2727	0.	-229.97
18953	13.593	2.3636	5.e-002	-3.5229e-006
18954	13.866	2.3636	0.	-226.94
18955	13.775	2.2727	0.	-220.92
18956	13.775	2.3636	5.e-002	-8.5727e-007
18957	14.049	2.3636	0.	-214.02
18958	13.958	2.2727	0.	-209.6
18959	13.958	2.3636	5.e-002	-6.7831e-007
18960	14.232	2.3636	0.	-200.18
18961	14.14	2.2727	0.	-197.04
18962	14.14	2.3636	5.e-002	-2.73e-007
18963	14.414	2.3636	0.	-186.04
18964	14.323	2.2727	0.	-183.93
18965	14.323	2.3636	5.e-002	4.9714e-006
18966	14.597	2.3636	0.	-172.03
18967	14.505	2.2727	0.	-170.74
18968	14.505	2.3636	5.e-002	5.557e-006
18969	14.779	2.3636	0.	-158.41
18970	14.688	2.2727	0.	-157.79
18971	14.688	2.3636	5.e-002	7.4171e-006
18972	14.962	2.3636	0.	-145.34
18973	14.871	2.2727	0.	-145.25
18974	14.871	2.3636	5.e-002	8.3907e-006
18975	15.145	2.3636	0.	-132.94
18976	15.053	2.2727	0.	-133.27
18977	15.053	2.3636	5.e-002	1.02e-005
18978	15.327	2.3636	0.	-121.23
18979	15.236	2.2727	0.	-121.89
18980	15.236	2.3636	5.e-002	1.063e-005
18981	15.51	2.3636	0.	-110.24
18982	15.418	2.2727	0.	-111.16
18983	15.418	2.3636	5.e-002	8.1298e-006
18984	15.692	2.3636	0.	-99.963
18985	15.601	2.2727	0.	-101.07
18986	15.601	2.3636	5.e-002	9.5744e-006
18987	15.875	2.3636	0.	-90.365
18988	15.784	2.2727	0.	-91.62
18989	15.784	2.3636	5.e-002	7.9312e-006
18990	16.057	2.3636	0.	-81.415
18991	15.966	2.2727	0.	-82.776
18992	15.966	2.3636	5.e-002	7.3659e-006
18993	16.24	2.3636	0.	-73.075
18994	16.149	2.2727	0.	-74.511
18995	16.149	2.3636	5.e-002	8.3613e-006
18996	16.423	2.3636	0.	-65.302
18997	16.331	2.2727	0.	-66.788
18998	16.331	2.3636	5.e-002	5.8732e-006
18999	16.605	2.3636	0.	-58.051
19000	16.514	2.2727	0.	-59.57
19001	16.514	2.3636	5.e-002	6.7538e-006
19002	16.788	2.3636	0.	-51.279
19003	16.697	2.2727	0.	-52.818
19004	16.697	2.3636	5.e-002	6.6233e-006
19005	16.97	2.3636	0.	-44.943
19006	16.879	2.2727	0.	-46.492
19007	16.879	2.3636	5.e-002	4.9519e-006
19008	17.153	2.3636	0.	-39.001
19009	17.062	2.2727	0.	-40.556
19010	17.062	2.3636	5.e-002	6.1241e-006
19011	17.336	2.3636	0.	-33.416
19012	17.244	2.2727	0.	-34.972
19013	17.244	2.3636	5.e-002	5.3654e-006
19014	17.518	2.3636	0.	-28.147
19015	17.427	2.2727	0.	-29.706
19016	17.427	2.3636	5.e-002	6.233e-006
19017	17.701	2.3636	0.	-23.161
19018	17.609	2.2727	0.	-24.722
19019	17.609	2.3636	5.e-002	8.7372e-006
19020	17.883	2.3636	0.	-18.422
19021	17.792	2.2727	0.	-19.989
19022	17.792	2.3636	5.e-002	7.6528e-006
19023	18.066	2.3636	0.	-13.9
19024	17.975	2.2727	0.	-15.477
19025	17.975	2.3636	5.e-002	6.895e-006
19026	18.249	2.3636	0.	-9.5616
19027	18.157	2.2727	0.	-11.155
19028	18.157	2.3636	5.e-002	7.0813e-006
19029	18.431	2.3636	0.	-5.3797
19030	18.34	2.2727	0.	-6.9951
19031	18.34	2.3636	5.e-002	8.2379e-006
19032	18.614	2.3636	0.	-1.3283
19033	18.522	2.2727	0.	-2.9717
19034	18.522	2.3636	5.e-002	7.2534e-006
19035	18.796	2.3636	0.	1.108e-002
19036	18.705	2.2727	0.	4.2628e-003
19037	18.705	2.3636	5.e-002	5.3995e-006
19038	18.979	2.3636	0.	1.3161e-002
19039	18.888	2.2727	0.	1.1857e-002
19040	18.888	2.3636	5.e-002	7.5749e-006
19041	19.161	2.3636	0.	1.4215e-002
19042	19.07	2.2727	0.	1.3267e-002
19043	19.07	2.3636	5.e-002	7.0006e-006
19044	19.344	2.3636	0.	1.5126e-002
19045	19.253	2.2727	0.	1.4258e-002
19046	19.253	2.3636	5.e-002	8.0794e-006
19047	19.527	2.3636	0.	1.6026e-002
19048	19.435	2.2727	0.	1.5169e-002
19049	19.435	2.3636	5.e-002	6.1665e-006
19050	19.709	2.3636	0.	1.6958e-002
19051	19.618	2.2727	0.	1.6084e-002
19052	19.618	2.3636	5.e-002	7.5869e-006
19053	19.892	2.3636	0.	1.7946e-002
19054	19.8	2.2727	0.	1.7036e-002
19055	19.8	2.3636	5.e-002	5.7638e-006
19056	20.074	2.3636	0.	1.9007e-002
19057	19.983	2.2727	0.	1.8051e-002
19058	19.983	2.3636	5.e-002	6.1098e-006
19059	20.257	2.3636	0.	2.0159e-002
19060	20.166	2.2727	0.	1.9145e-002
19061	20.166	2.3636	5.e-002	9.8e-006
19062	20.44	2.3636	0.	2.1415e-002
19063	20.348	2.2727	0.	2.0336e-002
19064	20.348	2.3636	5.e-002	8.9616e-006
19065	20.622	2.3636	0.	2.2797e-002
19066	20.531	2.2727	0.	2.1638e-002
19067	20.531	2.3636	5.e-002	8.5432e-006
19068	20.805	2.3636	0.	2.4329e-002
19069	20.713	2.2727	0.	2.308e-002
19070	20.713	2.3636	5.e-002	9.0779e-006
19071	20.987	2.3636	0.	2.6043e-002
19072	20.896	2.2727	0.	2.4684e-002
19073	20.896	2.3636	5.e-002	7.6115e-006
19074	21.17	2.3636	0.	2.7971e-002
19075	21.079	2.2727	0.	2.6489e-002
19076	21.079	2.3636	5.e-002	6.1017e-006
19077	21.352	2.3636	0.	3.0152e-002
19078	21.261	2.2727	0.	2.8523e-002
19079	21.261	2.3636	5.e-002	6.7368e-006
19080	21.535	2.3636	0.	3.2652e-002
19081	21.444	2.2727	0.	3.0842e-002
19082	21.444	2.3636	5.e-002	7.7367e-006
19083	21.718	2.3636	0.	3.5548e-002
19084	21.626	2.2727	0.	3.3517e-002
19085	21.626	2.3636	5.e-002	7.9478e-006
19086	21.9	2.3636	0.	3.8946e-002
19087	21.809	2.2727	0.	3.6637e-002
19088	21.809	2.3636	5.e-002	6.9897e-006
19089	22.083	2.3636	0.	4.2991e-002
19090	21.992	2.2727	0.	4.0323e-002
19091	21.992	2.3636	5.e-002	5.7743e-006
19092	22.265	2.3636	0.	4.7892e-002
19093	22.174	2.2727	0.	4.4752e-002
19094	22.174	2.3636	5.e-002	9.8269e-006
19095	22.448	2.3636	0.	5.3978e-002
19096	22.357	2.2727	0.	5.0174e-002
19097	22.357	2.3636	5.e-002	1.107e-005
19098	22.631	2.3636	0.	6.1673e-002
19099	22.539	2.2727	0.	5.7007e-002
19100	22.539	2.3636	5.e-002	1.1845e-005
19101	22.813	2.3636	0.	7.1996e-002
19102	22.722	2.2727	0.	6.5707e-002
19103	22.722	2.3636	5.e-002	8.9904e-006
19104	22.996	2.3636	0.	8.5402e-002
19105	22.904	2.2727	0.	7.7914e-002
19106	22.904	2.3636	5.e-002	9.1492e-006
19107	23.178	2.3636	0.	0.10808
19108	23.087	2.2727	0.	9.3036e-002
19109	23.087	2.3636	5.e-002	5.4589e-006
19110	23.361	2.3636	0.	0.13125
19111	23.27	2.2727	0.	0.12441
19112	23.27	2.3636	5.e-002	3.4796e-006
19113	23.544	2.3636	0.	0.22684
19114	23.452	2.2727	0.	0.14242
19115	23.452	2.3636	5.e-002	8.9091e-006
19116	23.726	2.3636	0.	0.22641
19117	23.635	2.2727	0.	0.32586
19118	23.635	2.3636	5.e-002	1.1887e-005
19119	23.817	2.2727	0.	0.20814
19120	23.817	2.3636	5.e-002	1.3298e-005
19121	23.909	2.3636	0.	0.44338
19122	12.041	2.1818	0.	7.068
19123	11.949	2.0909	0.	-176.37
19124	11.949	2.1818	5.e-002	-1.1645e-004
19125	12.223	2.1818	0.	10.53
19126	12.132	2.0909	0.	42.429
19127	12.132	2.1818	5.e-002	-2.714e-005
19128	12.406	2.1818	0.	-14.972
19129	12.314	2.0909	0.	-8.8316
19130	12.314	2.1818	5.e-002	-9.7487e-006
19131	12.588	2.1818	0.	-110.11
19132	12.497	2.0909	0.	-45.003
19133	12.497	2.1818	5.e-002	3.5373e-008
19134	12.771	2.1818	0.	-168.22
19135	12.68	2.0909	0.	-122.57
19136	12.68	2.1818	5.e-002	-2.4076e-005
19137	12.953	2.1818	0.	-200.6
19138	12.862	2.0909	0.	-167.44
19139	12.862	2.1818	5.e-002	-2.1503e-005
19140	13.136	2.1818	0.	-216.51
19141	13.045	2.0909	0.	-191.69
19142	13.045	2.1818	5.e-002	-2.1899e-005
19143	13.319	2.1818	0.	-221.54
19144	13.227	2.0909	0.	-202.44
19145	13.227	2.1818	5.e-002	-2.1859e-005
19146	13.501	2.1818	0.	-219.52
19147	13.41	2.0909	0.	-204.54
19148	13.41	2.1818	5.e-002	-9.8373e-006
19149	13.684	2.1818	0.	-212.97
19150	13.593	2.0909	0.	-201.07
19151	13.593	2.1818	5.e-002	-2.4087e-005
19152	13.866	2.1818	0.	-203.62
19153	13.775	2.0909	0.	-194.12
19154	13.775	2.1818	5.e-002	-6.0724e-006
19155	14.049	2.1818	0.	-192.63
19156	13.958	2.0909	0.	-185.05
19157	13.958	2.1818	5.e-002	-1.5705e-006
19158	14.232	2.1818	0.	-180.79
19159	14.14	2.0909	0.	-174.78
19160	14.14	2.1818	5.e-002	-1.7915e-006
19161	14.414	2.1818	0.	-168.63
19162	14.323	2.0909	0.	-163.92
19163	14.323	2.1818	5.e-002	-1.2972e-006
19164	14.597	2.1818	0.	-156.49
19165	14.505	2.0909	0.	-152.87
19166	14.505	2.1818	5.e-002	5.4627e-006
19167	14.779	2.1818	0.	-144.63
19168	14.688	2.0909	0.	-141.91
19169	14.688	2.1818	5.e-002	5.5226e-006
19170	14.962	2.1818	0.	-133.17
19171	14.871	2.0909	0.	-131.21
19172	14.871	2.1818	5.e-002	7.544e-006
19173	15.145	2.1818	0.	-122.22
19174	15.053	2.0909	0.	-120.88
19175	15.053	2.1818	5.e-002	1.0381e-005
19176	15.327	2.1818	0.	-111.81
19177	15.236	2.0909	0.	-110.99
19178	15.236	2.1818	5.e-002	9.7274e-006
19179	15.51	2.1818	0.	-101.98
19180	15.418	2.0909	0.	-101.58
19181	15.418	2.1818	5.e-002	1.0729e-005
19182	15.692	2.1818	0.	-92.723
19183	15.601	2.0909	0.	-92.669
19184	15.601	2.1818	5.e-002	8.7708e-006
19185	15.875	2.1818	0.	-84.024
19186	15.784	2.0909	0.	-84.25
19187	15.784	2.1818	5.e-002	8.4302e-006
19188	16.057	2.1818	0.	-75.864
19189	15.966	2.0909	0.	-76.316
19190	15.966	2.1818	5.e-002	6.6088e-006
19191	16.24	2.1818	0.	-68.215
19192	16.149	2.0909	0.	-68.848
19193	16.149	2.1818	5.e-002	9.5012e-006
19194	16.423	2.1818	0.	-61.047
19195	16.331	2.0909	0.	-61.824
19196	16.331	2.1818	5.e-002	5.9838e-006
19197	16.605	2.1818	0.	-54.326
19198	16.514	2.0909	0.	-55.218
19199	16.514	2.1818	5.e-002	7.0667e-006
19200	16.788	2.1818	0.	-48.02
19201	16.697	2.0909	0.	-49.004
19202	16.697	2.1818	5.e-002	6.3218e-006
19203	16.97	2.1818	0.	-42.093
19204	16.879	2.0909	0.	-43.151
19205	16.879	2.1818	5.e-002	5.103e-006
19206	17.153	2.1818	0.	-36.513
19207	17.062	2.0909	0.	-37.632
19208	17.062	2.1818	5.e-002	6.8183e-006
19209	17.336	2.1818	0.	-31.247
19210	17.244	2.0909	0.	-32.418
19211	17.244	2.1818	5.e-002	5.1809e-006
19212	17.518	2.1818	0.	-26.264
19213	17.427	2.0909	0.	-27.48
19214	17.427	2.1818	5.e-002	6.7193e-006
19215	17.701	2.1818	0.	-21.533
19216	17.609	2.0909	0.	-22.791
19217	17.609	2.1818	5.e-002	8.7269e-006
19218	17.883	2.1818	0.	-17.025
19219	17.792	2.0909	0.	-18.323
19220	17.792	2.1818	5.e-002	7.958e-006
19221	18.066	2.1818	0.	-12.712
19222	17.975	2.0909	0.	-14.051
19223	17.975	2.1818	5.e-002	7.3501e-006
19224	18.249	2.1818	0.	-8.567
19225	18.157	2.0909	0.	-9.9499
19226	18.157	2.1818	5.e-002	7.3239e-006
19227	18.431	2.1818	0.	-4.5644
19228	18.34	2.0909	0.	-5.9944
19229	18.34	2.1818	5.e-002	8.5583e-006
19230	18.614	2.1818	0.	-0.68946
19231	18.522	2.0909	0.	-2.1633
19232	18.522	2.1818	5.e-002	7.5747e-006
19233	18.796	2.1818	0.	9.7376e-003
19234	18.705	2.0909	0.	4.473e-003
19235	18.705	2.1818	5.e-002	5.8652e-006
19236	18.979	2.1818	0.	1.2133e-002
19237	18.888	2.0909	0.	1.0618e-002
19238	18.888	2.1818	5.e-002	7.969e-006
19239	19.161	2.1818	0.	1.3307e-002
19240	19.07	2.0909	0.	1.2197e-002
19241	19.07	2.1818	5.e-002	7.3326e-006
19242	19.344	2.1818	0.	1.4261e-002
19243	19.253	2.0909	0.	1.3256e-002
19244	19.253	2.1818	5.e-002	8.7365e-006
19245	19.527	2.1818	0.	1.5172e-002
19246	19.435	2.0909	0.	1.4187e-002
19247	19.435	2.1818	5.e-002	6.7316e-006
19248	19.709	2.1818	0.	1.6099e-002
19249	19.618	2.0909	0.	1.5101e-002
19250	19.618	2.1818	5.e-002	8.4079e-006
19251	19.892	2.1818	0.	1.7072e-002
19252	19.8	2.0909	0.	1.6039e-002
19253	19.8	2.1818	5.e-002	6.5939e-006
19254	20.074	2.1818	0.	1.8113e-002
19255	19.983	2.0909	0.	1.7033e-002
19256	19.983	2.1818	5.e-002	6.4913e-006
19257	20.257	2.1818	0.	1.924e-002
19258	20.166	2.0909	0.	1.8099e-002
19259	20.166	2.1818	5.e-002	1.0443e-005
19260	20.44	2.1818	0.	2.047e-002
19261	20.348	2.0909	0.	1.926e-002
19262	20.348	2.1818	5.e-002	8.9571e-006
19263	20.622	2.1818	0.	2.1825e-002
19264	20.531	2.0909	0.	2.0532e-002
19265	20.531	2.1818	5.e-002	9.7317e-006
19266	20.805	2.1818	0.	2.3329e-002
19267	20.713	2.0909	0.	2.1938e-002
19268	20.713	2.1818	5.e-002	1.0735e-005
19269	20.987	2.1818	0.	2.5014e-002
19270	20.896	2.0909	0.	2.3508e-002
19271	20.896	2.1818	5.e-002	8.2799e-006
19272	21.17	2.1818	0.	2.6912e-002
19273	21.079	2.0909	0.	2.5278e-002
19274	21.079	2.1818	5.e-002	6.7696e-006
19275	21.352	2.1818	0.	2.9066e-002
19276	21.261	2.0909	0.	2.7276e-002
19277	21.261	2.1818	5.e-002	6.4892e-006
19278	21.535	2.1818	0.	3.1539e-002
19279	21.444	2.0909	0.	2.9562e-002
19280	21.444	2.1818	5.e-002	7.9593e-006
19281	21.718	2.1818	0.	3.441e-002
19282	21.626	2.0909	0.	3.2203e-002
19283	21.626	2.1818	5.e-002	9.1893e-006
19284	21.9	2.1818	0.	3.778e-002
19285	21.809	2.0909	0.	3.5288e-002
19286	21.809	2.1818	5.e-002	8.2658e-006
19287	22.083	2.1818	0.	4.1797e-002
19288	21.992	2.0909	0.	3.8941e-002
19289	21.992	2.1818	5.e-002	7.892e-006
19290	22.265	2.1818	0.	4.6668e-002
19291	22.174	2.0909	0.	4.3339e-002
19292	22.174	2.1818	5.e-002	1.0137e-005
19293	22.448	2.1818	0.	5.2719e-002
19294	22.357	2.0909	0.	4.8719e-002
19295	22.357	2.1818	5.e-002	1.2411e-005
19296	22.631	2.1818	0.	6.0368e-002
19297	22.539	2.0909	0.	5.5506e-002
19298	22.539	2.1818	5.e-002	1.328e-005
19299	22.813	2.1818	0.	7.0627e-002
19300	22.722	2.0909	0.	6.4144e-002
19301	22.722	2.1818	5.e-002	1.0285e-005
19302	22.996	2.1818	0.	8.3942e-002
19303	22.904	2.0909	0.	7.6262e-002
19304	22.904	2.1818	5.e-002	9.5874e-006
19305	23.178	2.1818	0.	0.10648
19306	23.087	2.0909	0.	9.1258e-002
19307	23.087	2.1818	5.e-002	5.8699e-006
19308	23.361	2.1818	0.	0.12945
19309	23.27	2.0909	0.	0.12242
19310	23.27	2.1818	5.e-002	5.8056e-006
19311	23.544	2.1818	0.	0.22455
19312	23.452	2.0909	0.	0.14015
19313	23.452	2.1818	5.e-002	1.1143e-005
19314	23.726	2.1818	0.	0.22273
19315	23.635	2.0909	0.	0.32266
19316	23.635	2.1818	5.e-002	1.5786e-005
19317	23.817	2.0909	0.	0.2016
19318	23.817	2.1818	5.e-002	1.7001e-005
19319	23.909	2.1818	0.	0.44216
19320	12.041	2.	0.	-176.37
19321	11.949	1.9091	0.	-262.04
19322	11.949	2.	5.e-002	-3.2831e-004
19323	11.858	2.	0.	-350.41
19324	12.223	2.	0.	22.501
19325	12.132	1.9091	0.	31.337
19326	12.132	2.	5.e-002	-9.3218e-005
19327	12.406	2.	0.	-8.8805
19328	12.314	1.9091	0.	-9.5012
19329	12.314	2.	5.e-002	-7.863e-005
19330	12.588	2.	0.	-59.505
19331	12.497	1.9091	0.	-7.6997
19332	12.497	2.	5.e-002	-8.9342e-005
19333	12.771	2.	0.	-123.36
19334	12.68	1.9091	0.	-64.541
19335	12.68	2.	5.e-002	-8.5112e-005
19336	12.953	2.	0.	-159.66
19337	12.862	1.9091	0.	-117.34
19338	12.862	2.	5.e-002	-6.0166e-005
19339	13.136	2.	0.	-178.38
19340	13.045	1.9091	0.	-147.04
19341	13.045	2.	5.e-002	-5.234e-005
19342	13.319	2.	0.	-185.91
19343	13.227	1.9091	0.	-161.81
19344	13.227	2.	5.e-002	-5.7395e-005
19345	13.501	2.	0.	-186.37
19346	13.41	1.9091	0.	-167.28
19347	13.41	2.	5.e-002	-6.7327e-006
19348	13.684	2.	0.	-182.38
19349	13.593	1.9091	0.	-166.94
19350	13.593	2.	5.e-002	-2.2258e-005
19351	13.866	2.	0.	-175.63
19352	13.775	1.9091	0.	-163.
19353	13.775	2.	5.e-002	-1.8967e-005
19354	14.049	2.	0.	-167.24
19355	13.958	1.9091	0.	-156.85
19356	13.958	2.	5.e-002	-1.0685e-005
19357	14.232	2.	0.	-157.93
19358	14.14	1.9091	0.	-149.37
19359	14.14	2.	5.e-002	-7.1281e-006
19360	14.414	2.	0.	-148.17
19361	14.323	1.9091	0.	-141.15
19362	14.323	2.	5.e-002	1.4804e-005
19363	14.597	2.	0.	-138.28
19364	14.505	1.9091	0.	-132.57
19365	14.505	2.	5.e-002	-1.9347e-006
19366	14.779	2.	0.	-128.48
19367	14.688	1.9091	0.	-123.88
19368	14.688	2.	5.e-002	4.2938e-006
19369	14.962	2.	0.	-118.9
19370	14.871	1.9091	0.	-115.25
19371	14.871	2.	5.e-002	1.0169e-006
19372	15.145	2.	0.	-109.64
19373	15.053	1.9091	0.	-106.79
19374	15.053	2.	5.e-002	8.4013e-006
19375	15.327	2.	0.	-100.75
19376	15.236	1.9091	0.	-98.575
19377	15.236	2.	5.e-002	9.0761e-006
19378	15.51	2.	0.	-92.261
19379	15.418	1.9091	0.	-90.655
19380	15.418	2.	5.e-002	1.0118e-005
19381	15.692	2.	0.	-84.188
19382	15.601	1.9091	0.	-83.059
19383	15.601	2.	5.e-002	7.7981e-006
19384	15.875	2.	0.	-76.533
19385	15.784	1.9091	0.	-75.802
19386	15.784	2.	5.e-002	8.0557e-006
19387	16.057	2.	0.	-69.29
19388	15.966	1.9091	0.	-68.891
19389	15.966	2.	5.e-002	6.3118e-006
19390	16.24	2.	0.	-62.447
19391	16.149	1.9091	0.	-62.322
19392	16.149	2.	5.e-002	7.1077e-006
19393	16.423	2.	0.	-55.985
19394	16.331	1.9091	0.	-56.087
19395	16.331	2.	5.e-002	5.8552e-006
19396	16.605	2.	0.	-49.884
19397	16.514	1.9091	0.	-50.176
19398	16.514	2.	5.e-002	6.0612e-006
19399	16.788	2.	0.	-44.123
19400	16.697	1.9091	0.	-44.572
19401	16.697	2.	5.e-002	6.0663e-006
19402	16.97	2.	0.	-38.677
19403	16.879	1.9091	0.	-39.258
19404	16.879	2.	5.e-002	5.4492e-006
19405	17.153	2.	0.	-33.522
19406	17.062	1.9091	0.	-34.215
19407	17.062	2.	5.e-002	5.622e-006
19408	17.336	2.	0.	-28.635
19409	17.244	1.9091	0.	-29.425
19410	17.244	2.	5.e-002	4.6687e-006
19411	17.518	2.	0.	-23.99
19412	17.427	1.9091	0.	-24.865
19413	17.427	2.	5.e-002	6.063e-006
19414	17.701	2.	0.	-19.563
19415	17.609	1.9091	0.	-20.515
19416	17.609	2.	5.e-002	7.8497e-006
19417	17.883	2.	0.	-15.33
19418	17.792	1.9091	0.	-16.355
19419	17.792	2.	5.e-002	6.8826e-006
19420	18.066	2.	0.	-11.268
19421	17.975	1.9091	0.	-12.363
19422	17.975	2.	5.e-002	6.4049e-006
19423	18.249	2.	0.	-7.3552
19424	18.157	1.9091	0.	-8.5193
19425	18.157	2.	5.e-002	6.8938e-006
19426	18.431	2.	0.	-3.5689
19427	18.34	1.9091	0.	-4.8032
19428	18.34	2.	5.e-002	7.9862e-006
19429	18.614	2.	0.	-6.7719e-002
19430	18.522	1.9091	0.	-1.2028
19431	18.522	2.	5.e-002	6.9531e-006
19432	18.796	2.	0.	8.399e-003
19433	18.705	1.9091	0.	4.254e-003
19434	18.705	2.	5.e-002	5.4949e-006
19435	18.979	2.	0.	1.0904e-002
19436	18.888	1.9091	0.	9.2496e-003
19437	18.888	2.	5.e-002	7.7744e-006
19438	19.161	2.	0.	1.2166e-002
19439	19.07	1.9091	0.	1.091e-002
19440	19.07	2.	5.e-002	7.305e-006
19441	19.344	2.	0.	1.3153e-002
19442	19.253	1.9091	0.	1.201e-002
19443	19.253	2.	5.e-002	8.4415e-006
19444	19.527	2.	0.	1.4065e-002
19445	19.435	1.9091	0.	1.2949e-002
19446	19.435	2.	5.e-002	6.4704e-006
19447	19.709	2.	0.	1.4978e-002
19448	19.618	1.9091	0.	1.3849e-002
19449	19.618	2.	5.e-002	8.1529e-006
19450	19.892	2.	0.	1.5929e-002
19451	19.8	1.9091	0.	1.4763e-002
19452	19.8	2.	5.e-002	6.5059e-006
19453	20.074	2.	0.	1.6941e-002
19454	19.983	1.9091	0.	1.5724e-002
19455	19.983	2.	5.e-002	6.8762e-006
19456	20.257	2.	0.	1.8034e-002
19457	20.166	1.9091	0.	1.6752e-002
19458	20.166	2.	5.e-002	9.867e-006
19459	20.44	2.	0.	1.9228e-002
19460	20.348	1.9091	0.	1.787e-002
19461	20.348	2.	5.e-002	8.6369e-006
19462	20.622	2.	0.	2.0542e-002
19463	20.531	1.9091	0.	1.9096e-002
19464	20.531	2.	5.e-002	9.4025e-006
19465	20.805	2.	0.	2.2004e-002
19466	20.713	1.9091	0.	2.0454e-002
19467	20.713	2.	5.e-002	9.4283e-006
19468	20.987	2.	0.	2.3647e-002
19469	20.896	1.9091	0.	2.1974e-002
19470	20.896	2.	5.e-002	7.9875e-006
19471	21.17	2.	0.	2.5503e-002
19472	21.079	1.9091	0.	2.3693e-002
19473	21.079	2.	5.e-002	7.4264e-006
19474	21.352	2.	0.	2.7615e-002
19475	21.261	1.9091	0.	2.5639e-002
19476	21.261	2.	5.e-002	6.1754e-006
19477	21.535	2.	0.	3.0047e-002
19478	21.444	1.9091	0.	2.7873e-002
19479	21.444	2.	5.e-002	7.7271e-006
19480	21.718	2.	0.	3.2875e-002
19481	21.626	1.9091	0.	3.0462e-002
19482	21.626	2.	5.e-002	8.9655e-006
19483	21.9	2.	0.	3.6204e-002
19484	21.809	1.9091	0.	3.3497e-002
19485	21.809	2.	5.e-002	8.5039e-006
19486	22.083	2.	0.	4.0183e-002
19487	21.992	1.9091	0.	3.71e-002
19488	21.992	2.	5.e-002	5.3031e-006
19489	22.265	2.	0.	4.5012e-002
19490	22.174	1.9091	0.	4.1447e-002
19491	22.174	2.	5.e-002	1.1301e-005
19492	22.448	2.	0.	5.1011e-002
19493	22.357	1.9091	0.	4.677e-002
19494	22.357	2.	5.e-002	1.1884e-005
19495	22.631	2.	0.	5.8598e-002
19496	22.539	1.9091	0.	5.3491e-002
19497	22.539	2.	5.e-002	1.3545e-005
19498	22.813	2.	0.	6.8772e-002
19499	22.722	1.9091	0.	6.2048e-002
19500	22.722	2.	5.e-002	1.1546e-005
19501	22.996	2.	0.	8.1967e-002
19502	22.904	1.9091	0.	7.405e-002
19503	22.904	2.	5.e-002	1.0792e-005
19504	23.178	2.	0.	0.10432
19505	23.087	1.9091	0.	8.8884e-002
19506	23.087	2.	5.e-002	5.2884e-006
19507	23.361	2.	0.	0.12703
19508	23.27	1.9091	0.	0.11978
19509	23.27	2.	5.e-002	4.262e-006
19510	23.544	2.	0.	0.22149
19511	23.452	1.9091	0.	0.13714
19512	23.452	2.	5.e-002	9.5045e-006
19513	23.726	2.	0.	0.21786
19514	23.635	1.9091	0.	0.31843
19515	23.635	2.	5.e-002	1.5815e-005
19516	23.817	1.9091	0.	0.19317
19517	23.817	2.	5.e-002	1.4951e-005
19518	23.909	2.	0.	0.44048
19519	12.041	1.8182	0.	-53.419
19520	11.949	1.7273	0.	-52.913
19521	11.949	1.8182	5.e-002	-6.6872e-004
19522	11.858	1.8182	0.	-216.24
19523	12.223	1.8182	0.	-0.83938
19524	12.132	1.7273	0.	2.8708
19525	12.132	1.8182	5.e-002	-3.5499e-004
19526	12.406	1.8182	0.	-5.6384
19527	12.314	1.7273	0.	-7.5424
19528	12.314	1.8182	5.e-002	-2.6841e-004
19529	12.588	1.8182	0.	-10.875
19530	12.497	1.7273	0.	-4.0658
19531	12.497	1.8182	5.e-002	-1.9964e-004
19532	12.771	1.8182	0.	-61.21
19533	12.68	1.7273	0.	-13.709
19534	12.68	1.8182	5.e-002	-1.648e-004
19535	12.953	1.8182	0.	-106.48
19536	12.862	1.7273	0.	-59.668
19537	12.862	1.8182	5.e-002	-1.0416e-004
19538	13.136	1.8182	0.	-131.57
19539	13.045	1.7273	0.	-96.082
19540	13.045	1.8182	5.e-002	-1.0321e-004
19541	13.319	1.8182	0.	-143.84
19542	13.227	1.7273	0.	-116.24
19543	13.227	1.8182	5.e-002	-1.0478e-004
19544	13.501	1.8182	0.	-148.24
19545	13.41	1.7273	0.	-126.12
19546	13.41	1.8182	5.e-002	-5.9256e-005
19547	13.684	1.8182	0.	-147.78
19548	13.593	1.7273	0.	-129.64
19549	13.593	1.8182	5.e-002	-3.6413e-005
19550	13.866	1.8182	0.	-144.33
19551	13.775	1.7273	0.	-129.24
19552	13.775	1.8182	5.e-002	-3.3143e-005
19553	14.049	1.8182	0.	-139.03
19554	13.958	1.7273	0.	-126.39
19555	13.958	1.8182	5.e-002	-1.3958e-005
19556	14.232	1.8182	0.	-132.62
19557	14.14	1.7273	0.	-122.01
19558	14.14	1.8182	5.e-002	-1.1692e-005
19559	14.414	1.8182	0.	-125.57
19560	14.323	1.7273	0.	-116.67
19561	14.323	1.8182	5.e-002	-8.7238e-006
19562	14.597	1.8182	0.	-118.17
19563	14.505	1.7273	0.	-110.74
19564	14.505	1.8182	5.e-002	6.2278e-007
19565	14.779	1.8182	0.	-110.65
19566	14.688	1.7273	0.	-104.48
19567	14.688	1.8182	5.e-002	8.7301e-006
19568	14.962	1.8182	0.	-103.13
19569	14.871	1.7273	0.	-98.051
19570	14.871	1.8182	5.e-002	2.3008e-006
19571	15.145	1.8182	0.	-95.713
19572	15.053	1.7273	0.	-91.573
19573	15.053	1.8182	5.e-002	8.2456e-006
19574	15.327	1.8182	0.	-88.47
19575	15.236	1.7273	0.	-85.131
19576	15.236	1.8182	5.e-002	9.1296e-006
19577	15.51	1.8182	0.	-81.443
19578	15.418	1.7273	0.	-78.788
19579	15.418	1.8182	5.e-002	8.5412e-006
19580	15.692	1.8182	0.	-74.664
19581	15.601	1.7273	0.	-72.591
19582	15.601	1.8182	5.e-002	8.8134e-006
19583	15.875	1.8182	0.	-68.15
19584	15.784	1.7273	0.	-66.57
19585	15.784	1.8182	5.e-002	7.9817e-006
19586	16.057	1.8182	0.	-61.911
19587	15.966	1.7273	0.	-60.748
19588	15.966	1.8182	5.e-002	6.1776e-006
19589	16.24	1.8182	0.	-55.951
19590	16.149	1.7273	0.	-55.139
19591	16.149	1.8182	5.e-002	6.6336e-006
19592	16.423	1.8182	0.	-50.266
19593	16.331	1.7273	0.	-49.751
19594	16.331	1.8182	5.e-002	5.0395e-006
19595	16.605	1.8182	0.	-44.85
19596	16.514	1.7273	0.	-44.585
19597	16.514	1.8182	5.e-002	6.0131e-006
19598	16.788	1.8182	0.	-39.693
19599	16.697	1.7273	0.	-39.641
19600	16.697	1.8182	5.e-002	4.7222e-006
19601	16.97	1.8182	0.	-34.781
19602	16.879	1.7273	0.	-34.911
19603	16.879	1.8182	5.e-002	4.0576e-006
19604	17.153	1.8182	0.	-30.102
19605	17.062	1.7273	0.	-30.387
19606	17.062	1.8182	5.e-002	5.0908e-006
19607	17.336	1.8182	0.	-25.638
19608	17.244	1.7273	0.	-26.059
19609	17.244	1.8182	5.e-002	4.0513e-006
19610	17.518	1.8182	0.	-21.372
19611	17.427	1.7273	0.	-21.915
19612	17.427	1.8182	5.e-002	5.064e-006
19613	17.701	1.8182	0.	-17.288
19614	17.609	1.7273	0.	-17.94
19615	17.609	1.8182	5.e-002	7.0845e-006
19616	17.883	1.8182	0.	-13.368
19617	17.792	1.7273	0.	-14.121
19618	17.792	1.8182	5.e-002	6.0777e-006
19619	18.066	1.8182	0.	-9.5926
19620	17.975	1.7273	0.	-10.441
19621	17.975	1.8182	5.e-002	6.0262e-006
19622	18.249	1.8182	0.	-5.9444
19623	18.157	1.7273	0.	-6.885
19624	18.157	1.8182	5.e-002	6.1353e-006
19625	18.431	1.8182	0.	-2.4077
19626	18.34	1.7273	0.	-3.4384
19627	18.34	1.8182	5.e-002	7.5029e-006
19628	18.614	1.8182	0.	-7.8119e-003
19629	18.522	1.7273	0.	-0.18805
19630	18.522	1.8182	5.e-002	6.8414e-006
19631	18.796	1.8182	0.	7.0767e-003
19632	18.705	1.7273	0.	3.7968e-003
19633	18.705	1.8182	5.e-002	5.0412e-006
19634	18.979	1.8182	0.	9.4982e-003
19635	18.888	1.7273	0.	7.7839e-003
19636	18.888	1.8182	5.e-002	7.2598e-006
19637	19.161	1.8182	0.	1.0793e-002
19638	19.07	1.7273	0.	9.4185e-003
19639	19.07	1.8182	5.e-002	7.1608e-006
19640	19.344	1.8182	0.	1.1786e-002
19641	19.253	1.7273	0.	1.0515e-002
19642	19.253	1.8182	5.e-002	8.3757e-006
19643	19.527	1.8182	0.	1.2686e-002
19644	19.435	1.7273	0.	1.1436e-002
19645	19.435	1.8182	5.e-002	6.4099e-006
19646	19.709	1.8182	0.	1.3572e-002
19647	19.618	1.7273	0.	1.2304e-002
19648	19.618	1.8182	5.e-002	8.3594e-006
19649	19.892	1.8182	0.	1.4485e-002
19650	19.8	1.7273	0.	1.3177e-002
19651	19.8	1.8182	5.e-002	6.0748e-006
19652	20.074	1.8182	0.	1.5452e-002
19653	19.983	1.7273	0.	1.4086e-002
19654	19.983	1.8182	5.e-002	6.4987e-006
19655	20.257	1.8182	0.	1.6496e-002
19656	20.166	1.7273	0.	1.506e-002
19657	20.166	1.8182	5.e-002	9.7843e-006
19658	20.44	1.8182	0.	1.7637e-002
19659	20.348	1.7273	0.	1.6116e-002
19660	20.348	1.8182	5.e-002	8.4727e-006
19661	20.622	1.8182	0.	1.8897e-002
19662	20.531	1.7273	0.	1.7279e-002
19663	20.531	1.8182	5.e-002	8.7714e-006
19664	20.805	1.8182	0.	2.0301e-002
19665	20.713	1.7273	0.	1.8569e-002
19666	20.713	1.8182	5.e-002	1.0032e-005
19667	20.987	1.8182	0.	2.1884e-002
19668	20.896	1.7273	0.	2.0017e-002
19669	20.896	1.8182	5.e-002	7.0524e-006
19670	21.17	1.8182	0.	2.3678e-002
19671	21.079	1.7273	0.	2.1664e-002
19672	21.079	1.8182	5.e-002	6.5185e-006
19673	21.352	1.8182	0.	2.5727e-002
19674	21.261	1.7273	0.	2.3534e-002
19675	21.261	1.8182	5.e-002	5.8743e-006
19676	21.535	1.8182	0.	2.8096e-002
19677	21.444	1.7273	0.	2.5691e-002
19678	21.444	1.8182	5.e-002	7.2426e-006
19679	21.718	1.8182	0.	3.0861e-002
19680	21.626	1.7273	0.	2.8203e-002
19681	21.626	1.8182	5.e-002	7.1949e-006
19682	21.9	1.8182	0.	3.413e-002
19683	21.809	1.7273	0.	3.1161e-002
19684	21.809	1.8182	5.e-002	6.251e-006
19685	22.083	1.8182	0.	3.8046e-002
19686	21.992	1.7273	0.	3.4688e-002
19687	21.992	1.8182	5.e-002	5.2801e-006
19688	22.265	1.8182	0.	4.2809e-002
19689	22.174	1.7273	0.	3.8953e-002
19690	22.174	1.8182	5.e-002	8.6003e-006
19691	22.448	1.8182	0.	4.8736e-002
19692	22.357	1.7273	0.	4.4194e-002
19693	22.357	1.8182	5.e-002	1.2131e-005
19694	22.631	1.8182	0.	5.6239e-002
19695	22.539	1.7273	0.	5.0823e-002
19696	22.539	1.8182	5.e-002	1.1001e-005
19697	22.813	1.8182	0.	6.6304e-002
19698	22.722	1.7273	0.	5.9269e-002
19699	22.722	1.8182	5.e-002	1.1798e-005
19700	22.996	1.8182	0.	7.9346e-002
19701	22.904	1.7273	0.	7.1123e-002
19702	22.904	1.8182	5.e-002	8.0988e-006
19703	23.178	1.8182	0.	0.10146
19704	23.087	1.7273	0.	8.575e-002
19705	23.087	1.8182	5.e-002	7.4014e-006
19706	23.361	1.8182	0.	0.12384
19707	23.27	1.7273	0.	0.11631
19708	23.27	1.8182	5.e-002	6.2843e-006
19709	23.544	1.8182	0.	0.21748
19710	23.452	1.7273	0.	0.1332
19711	23.452	1.8182	5.e-002	1.1648e-005
19712	23.726	1.8182	0.	0.21157
19713	23.635	1.7273	0.	0.31295
19714	23.635	1.8182	5.e-002	1.5801e-005
19715	23.817	1.7273	0.	0.18251
19716	23.817	1.8182	5.e-002	1.6642e-005
19717	23.909	1.8182	0.	0.43825
19718	12.041	1.6364	0.	2.9167
19719	11.949	1.5455	0.	-5.9354
19720	11.949	1.6364	5.e-002	-1.529e-004
19721	11.858	1.6364	0.	48.962
19722	12.223	1.6364	0.	-4.3823
19723	12.132	1.5455	0.	-1.1656
19724	12.132	1.6364	5.e-002	-2.4438e-004
19725	12.406	1.6364	0.	-5.7127
19726	12.314	1.5455	0.	-5.9586
19727	12.314	1.6364	5.e-002	-2.8709e-004
19728	12.588	1.6364	0.	-4.3977
19729	12.497	1.5455	0.	-3.0907
19730	12.497	1.6364	5.e-002	-2.6498e-004
19731	12.771	1.6364	0.	-13.273
19732	12.68	1.5455	0.	-4.9178
19733	12.68	1.6364	5.e-002	-1.3352e-004
19734	12.953	1.6364	0.	-51.59
19735	12.862	1.5455	0.	-15.01
19736	12.862	1.6364	5.e-002	-1.0329e-004
19737	13.136	1.6364	0.	-82.159
19738	13.045	1.5455	0.	-46.988
19739	13.045	1.6364	5.e-002	-8.9224e-005
19740	13.319	1.6364	0.	-99.346
19741	13.227	1.5455	0.	-70.793
19742	13.227	1.6364	5.e-002	-1.0324e-004
19743	13.501	1.6364	0.	-108.
19744	13.41	1.5455	0.	-84.537
19745	13.41	1.6364	5.e-002	-9.1681e-005
19746	13.684	1.6364	0.	-111.37
19747	13.593	1.5455	0.	-91.757
19748	13.593	1.6364	5.e-002	-5.5566e-005
19749	13.866	1.6364	0.	-111.44
19750	13.775	1.5455	0.	-94.861
19751	13.775	1.6364	5.e-002	-3.4832e-005
19752	14.049	1.6364	0.	-109.44
19753	13.958	1.5455	0.	-95.325
19754	13.958	1.6364	5.e-002	-2.5917e-005
19755	14.232	1.6364	0.	-106.08
19756	14.14	1.5455	0.	-94.055
19757	14.14	1.6364	5.e-002	-1.8718e-005
19758	14.414	1.6364	0.	-101.85
19759	14.323	1.5455	0.	-91.612
19760	14.323	1.6364	5.e-002	-3.1544e-006
19761	14.597	1.6364	0.	-97.048
19762	14.505	1.5455	0.	-88.358
19763	14.505	1.6364	5.e-002	6.5844e-006
19764	14.779	1.6364	0.	-91.877
19765	14.688	1.5455	0.	-84.536
19766	14.688	1.6364	5.e-002	-3.629e-006
19767	14.962	1.6364	0.	-86.485
19768	14.871	1.5455	0.	-80.318
19769	14.871	1.6364	5.e-002	3.976e-006
19770	15.145	1.6364	0.	-80.978
19771	15.053	1.5455	0.	-75.831
19772	15.053	1.6364	5.e-002	4.8637e-006
19773	15.327	1.6364	0.	-75.437
19774	15.236	1.5455	0.	-71.172
19775	15.236	1.6364	5.e-002	7.821e-006
19776	15.51	1.6364	0.	-69.924
19777	15.418	1.5455	0.	-66.419
19778	15.418	1.6364	5.e-002	7.7784e-006
19779	15.692	1.6364	0.	-64.484
19780	15.601	1.5455	0.	-61.632
19781	15.601	1.6364	5.e-002	5.7332e-006
19782	15.875	1.6364	0.	-59.155
19783	15.784	1.5455	0.	-56.862
19784	15.784	1.6364	5.e-002	7.5568e-006
19785	16.057	1.6364	0.	-53.963
19786	15.966	1.5455	0.	-52.148
19787	15.966	1.6364	5.e-002	4.6502e-006
19788	16.24	1.6364	0.	-48.926
19789	16.149	1.5455	0.	-47.519
19790	16.149	1.6364	5.e-002	6.3411e-006
19791	16.423	1.6364	0.	-44.057
19792	16.331	1.5455	0.	-42.997
19793	16.331	1.6364	5.e-002	5.2366e-006
19794	16.605	1.6364	0.	-39.362
19795	16.514	1.5455	0.	-38.6
19796	16.514	1.6364	5.e-002	5.7079e-006
19797	16.788	1.6364	0.	-34.843
19798	16.697	1.5455	0.	-34.337
19799	16.697	1.6364	5.e-002	4.1335e-006
19800	16.97	1.6364	0.	-30.5
19801	16.879	1.5455	0.	-30.215
19802	16.879	1.6364	5.e-002	3.5401e-006
19803	17.153	1.6364	0.	-26.328
19804	17.062	1.5455	0.	-26.234
19805	17.062	1.6364	5.e-002	5.3756e-006
19806	17.336	1.6364	0.	-22.319
19807	17.244	1.5455	0.	-22.393
19808	17.244	1.6364	5.e-002	3.7512e-006
19809	17.518	1.6364	0.	-18.464
19810	17.427	1.5455	0.	-18.689
19811	17.427	1.6364	5.e-002	5.0284e-006
19812	17.701	1.6364	0.	-14.752
19813	17.609	1.5455	0.	-15.113
19814	17.609	1.6364	5.e-002	6.7867e-006
19815	17.883	1.6364	0.	-11.172
19816	17.792	1.5455	0.	-11.658
19817	17.792	1.6364	5.e-002	5.388e-006
19818	18.066	1.6364	0.	-7.7105
19819	17.975	1.5455	0.	-8.3134
19820	17.975	1.6364	5.e-002	5.3754e-006
19821	18.249	1.6364	0.	-4.3546
19822	18.157	1.5455	0.	-5.0696
19823	18.157	1.6364	5.e-002	6.0605e-006
19824	18.431	1.6364	0.	-1.1029
19825	18.34	1.5455	0.	-1.9198
19826	18.34	1.6364	5.e-002	7.384e-006
19827	18.614	1.6364	0.	-1.7413e-003
19828	18.522	1.5455	0.	-1.3931e-002
19829	18.522	1.6364	5.e-002	6.6144e-006
19830	18.796	1.6364	0.	5.761e-003
19831	18.705	1.5455	0.	3.1707e-003
19832	18.705	1.6364	5.e-002	5.4361e-006
19833	18.979	1.6364	0.	7.9389e-003
19834	18.888	1.5455	0.	6.2438e-003
19835	18.888	1.6364	5.e-002	7.6297e-006
19836	19.161	1.6364	0.	9.1926e-003
19837	19.07	1.5455	0.	7.738e-003
19838	19.07	1.6364	5.e-002	7.4943e-006
19839	19.344	1.6364	0.	1.0154e-002
19840	19.253	1.5455	0.	8.7718e-003
19841	19.253	1.6364	5.e-002	8.5244e-006
19842	19.527	1.6364	0.	1.1013e-002
19843	19.435	1.5455	0.	9.6353e-003
19844	19.435	1.6364	5.e-002	6.9477e-006
19845	19.709	1.6364	0.	1.1848e-002
19846	19.618	1.5455	0.	1.0443e-002
19847	19.618	1.6364	5.e-002	8.2879e-006
19848	19.892	1.6364	0.	1.2703e-002
19849	19.8	1.5455	0.	1.1245e-002
19850	19.8	1.6364	5.e-002	6.1199e-006
19851	20.074	1.6364	0.	1.3606e-002
19852	19.983	1.5455	0.	1.2081e-002
19853	19.983	1.6364	5.e-002	6.7896e-006
19854	20.257	1.6364	0.	1.4581e-002
19855	20.166	1.5455	0.	1.2974e-002
19856	20.166	1.6364	5.e-002	1.0004e-005
19857	20.44	1.6364	0.	1.5648e-002
19858	20.348	1.5455	0.	1.3943e-002
19859	20.348	1.6364	5.e-002	9.0486e-006
19860	20.622	1.6364	0.	1.6829e-002
19861	20.531	1.5455	0.	1.5015e-002
19862	20.531	1.6364	5.e-002	9.1703e-006
19863	20.805	1.6364	0.	1.8149e-002
19864	20.713	1.5455	0.	1.6208e-002
19865	20.713	1.6364	5.e-002	9.5442e-006
19866	20.987	1.6364	0.	1.9646e-002
19867	20.896	1.5455	0.	1.7555e-002
19868	20.896	1.6364	5.e-002	7.1184e-006
19869	21.17	1.6364	0.	2.1352e-002
19870	21.079	1.5455	0.	1.9096e-002
19871	21.079	1.6364	5.e-002	6.495e-006
19872	21.352	1.6364	0.	2.331e-002
19873	21.261	1.5455	0.	2.0858e-002
19874	21.261	1.6364	5.e-002	5.2153e-006
19875	21.535	1.6364	0.	2.5585e-002
19876	21.444	1.5455	0.	2.2902e-002
19877	21.444	1.6364	5.e-002	6.8539e-006
19878	21.718	1.6364	0.	2.8257e-002
19879	21.626	1.5455	0.	2.5297e-002
19880	21.626	1.6364	5.e-002	6.7153e-006
19881	21.9	1.6364	0.	3.1431e-002
19882	21.809	1.5455	0.	2.8137e-002
19883	21.809	1.6364	5.e-002	7.2022e-006
19884	22.083	1.6364	0.	3.5251e-002
19885	21.992	1.5455	0.	3.1542e-002
19886	21.992	1.6364	5.e-002	4.3097e-006
19887	22.265	1.6364	0.	3.9915e-002
19888	22.174	1.5455	0.	3.5683e-002
19889	22.174	1.6364	5.e-002	8.7664e-006
19890	22.448	1.6364	0.	4.5738e-002
19891	22.357	1.5455	0.	4.08e-002
19892	22.357	1.6364	5.e-002	1.2362e-005
19893	22.631	1.6364	0.	5.3122e-002
19894	22.539	1.5455	0.	4.7294e-002
19895	22.539	1.6364	5.e-002	1.1128e-005
19896	22.813	1.6364	0.	6.304e-002
19897	22.722	1.5455	0.	5.5584e-002
19898	22.722	1.6364	5.e-002	9.9467e-006
19899	22.996	1.6364	0.	7.5887e-002
19900	22.904	1.5455	0.	6.7243e-002
19901	22.904	1.6364	5.e-002	9.1775e-006
19902	23.178	1.6364	0.	9.7708e-002
19903	23.087	1.5455	0.	8.1606e-002
19904	23.087	1.6364	5.e-002	6.6673e-006
19905	23.361	1.6364	0.	0.11965
19906	23.27	1.5455	0.	0.11173
19907	23.27	1.6364	5.e-002	7.4443e-006
19908	23.544	1.6364	0.	0.21225
19909	23.452	1.5455	0.	0.12803
19910	23.452	1.6364	5.e-002	1.082e-005
19911	23.726	1.6364	0.	0.20351
19912	23.635	1.5455	0.	0.30582
19913	23.635	1.6364	5.e-002	1.7552e-005
19914	23.817	1.5455	0.	0.1691
19915	23.817	1.6364	5.e-002	1.4507e-005
19916	23.909	1.6364	0.	0.43528
19917	12.041	1.4545	0.	-10.346
19918	11.949	1.3636	0.	-12.099
19919	11.949	1.4545	5.e-002	-5.8795e-005
19920	11.858	1.4545	0.	-11.101
19921	12.223	1.4545	0.	-2.7359
19922	12.132	1.3636	0.	-1.6567
19923	12.132	1.4545	5.e-002	-1.6224e-004
19924	12.406	1.4545	0.	-3.2106
19925	12.314	1.3636	0.	-3.1502
19926	12.314	1.4545	5.e-002	-1.6474e-004
19927	12.588	1.4545	0.	-3.2801
19928	12.497	1.3636	0.	-2.815
19929	12.497	1.4545	5.e-002	-1.9707e-004
19930	12.771	1.4545	0.	-4.5521
19931	12.68	1.3636	0.	-3.085
19932	12.68	1.4545	5.e-002	-2.027e-004
19933	12.953	1.4545	0.	-12.775
19934	12.862	1.3636	0.	-4.5542
19935	12.862	1.4545	5.e-002	-1.397e-004
19936	13.136	1.4545	0.	-37.395
19937	13.045	1.3636	0.	-12.139
19938	13.045	1.4545	5.e-002	-1.4612e-004
19939	13.319	1.4545	0.	-56.98
19940	13.227	1.3636	0.	-30.858
19941	13.227	1.4545	5.e-002	-1.2654e-004
19942	13.501	1.4545	0.	-68.857
19943	13.41	1.3636	0.	-46.116
19944	13.41	1.4545	5.e-002	-1.0834e-004
19945	13.684	1.4545	0.	-75.558
19946	13.593	1.3636	0.	-55.946
19947	13.593	1.4545	5.e-002	-6.6795e-005
19948	13.866	1.4545	0.	-78.902
19949	13.775	1.3636	0.	-61.948
19950	13.775	1.4545	5.e-002	-5.438e-005
19951	14.049	1.4545	0.	-80.021
19952	13.958	1.3636	0.	-65.345
19953	13.958	1.4545	5.e-002	-4.1828e-005
19954	14.232	1.4545	0.	-79.615
19955	14.14	1.3636	0.	-66.92
19956	14.14	1.4545	5.e-002	-2.9206e-005
19957	14.414	1.4545	0.	-78.124
19958	14.323	1.3636	0.	-67.17
19959	14.323	1.4545	5.e-002	-7.2284e-006
19960	14.597	1.4545	0.	-75.84
19961	14.505	1.3636	0.	-66.421
19962	14.505	1.4545	5.e-002	-1.2134e-005
19963	14.779	1.4545	0.	-72.965
19964	14.688	1.3636	0.	-64.9
19965	14.688	1.4545	5.e-002	1.1926e-006
19966	14.962	1.4545	0.	-69.65
19967	14.871	1.3636	0.	-62.775
19968	14.871	1.4545	5.e-002	3.1413e-006
19969	15.145	1.4545	0.	-66.009
19970	15.053	1.3636	0.	-60.179
19971	15.053	1.4545	5.e-002	3.9578e-006
19972	15.327	1.4545	0.	-62.138
19973	15.236	1.3636	0.	-57.219
19974	15.236	1.4545	5.e-002	7.1381e-006
19975	15.51	1.4545	0.	-58.112
19976	15.418	1.3636	0.	-53.986
19977	15.418	1.4545	5.e-002	8.7819e-006
19978	15.692	1.4545	0.	-53.995
19979	15.601	1.3636	0.	-50.555
19980	15.601	1.4545	5.e-002	6.5909e-006
19981	15.875	1.4545	0.	-49.84
19982	15.784	1.3636	0.	-46.993
19983	15.784	1.4545	5.e-002	6.1977e-006
19984	16.057	1.4545	0.	-45.689
19985	15.966	1.3636	0.	-43.353
19986	15.966	1.4545	5.e-002	4.5182e-006
19987	16.24	1.4545	0.	-41.575
19988	16.149	1.3636	0.	-39.68
19989	16.149	1.4545	5.e-002	5.4207e-006
19990	16.423	1.4545	0.	-37.525
19991	16.331	1.3636	0.	-36.01
19992	16.331	1.4545	5.e-002	3.9126e-006
19993	16.605	1.4545	0.	-33.56
19994	16.514	1.3636	0.	-32.372
19995	16.514	1.4545	5.e-002	4.8556e-006
19996	16.788	1.4545	0.	-29.692
19997	16.697	1.3636	0.	-28.788
19998	16.697	1.4545	5.e-002	4.5414e-006
19999	16.97	1.4545	0.	-25.931
20000	16.879	1.3636	0.	-25.275
20001	16.879	1.4545	5.e-002	3.0471e-006
20002	17.153	1.4545	0.	-22.281
20003	17.062	1.3636	0.	-21.842
20004	17.062	1.4545	5.e-002	4.2264e-006
20005	17.336	1.4545	0.	-18.744
20006	17.244	1.3636	0.	-18.497
20007	17.244	1.4545	5.e-002	2.957e-006
20008	17.518	1.4545	0.	-15.317
20009	17.427	1.3636	0.	-15.243
20010	17.427	1.4545	5.e-002	4.3978e-006
20011	17.701	1.4545	0.	-11.997
20012	17.609	1.3636	0.	-12.079
20013	17.609	1.4545	5.e-002	6.459e-006
20014	17.883	1.4545	0.	-8.7763
20015	17.792	1.3636	0.	-9.0031
20016	17.792	1.4545	5.e-002	5.3496e-006
20017	18.066	1.4545	0.	-5.6486
20018	17.975	1.3636	0.	-6.0103
20019	17.975	1.4545	5.e-002	5.0808e-006
20020	18.249	1.4545	0.	-2.6074
20021	18.157	1.3636	0.	-3.0968
20022	18.157	1.4545	5.e-002	5.1995e-006
20023	18.431	1.4545	0.	-5.9606e-002
20024	18.34	1.3636	0.	-0.33055
20025	18.34	1.4545	5.e-002	7.0337e-006
20026	18.614	1.4545	0.	-2.8951e-005
20027	18.522	1.3636	0.	-4.1999e-003
20028	18.522	1.4545	5.e-002	6.6493e-006
20029	18.796	1.4545	0.	4.4374e-003
20030	18.705	1.3636	0.	2.411e-003
20031	18.705	1.4545	5.e-002	5.4146e-006
20032	18.979	1.4545	0.	6.2496e-003
20033	18.888	1.3636	0.	4.6447e-003
20034	18.888	1.4545	5.e-002	7.4133e-006
20035	19.161	1.4545	0.	7.375e-003
20036	19.07	1.3636	0.	5.8936e-003
20037	19.07	1.4545	5.e-002	7.1575e-006
20038	19.344	1.4545	0.	8.249e-003
20039	19.253	1.3636	0.	6.7892e-003
20040	19.253	1.4545	5.e-002	8.2712e-006
20041	19.527	1.4545	0.	9.0279e-003
20042	19.435	1.3636	0.	7.5412e-003
20043	19.435	1.4545	5.e-002	6.8622e-006
20044	19.709	1.4545	0.	9.7798e-003
20045	19.618	1.3636	0.	8.2451e-003
20046	19.618	1.4545	5.e-002	8.7927e-006
20047	19.892	1.4545	0.	1.0545e-002
20048	19.8	1.3636	0.	8.9404e-003
20049	19.8	1.4545	5.e-002	6.7088e-006
20050	20.074	1.4545	0.	1.1355e-002
20051	19.983	1.3636	0.	9.6657e-003
20052	19.983	1.4545	5.e-002	6.8046e-006
20053	20.257	1.4545	0.	1.2229e-002
20054	20.166	1.3636	0.	1.0442e-002
20055	20.166	1.4545	5.e-002	9.8258e-006
20056	20.44	1.4545	0.	1.3189e-002
20057	20.348	1.3636	0.	1.1289e-002
20058	20.348	1.4545	5.e-002	8.6341e-006
20059	20.622	1.4545	0.	1.4258e-002
20060	20.531	1.3636	0.	1.2232e-002
20061	20.531	1.4545	5.e-002	8.6956e-006
20062	20.805	1.4545	0.	1.5461e-002
20063	20.713	1.3636	0.	1.3289e-002
20064	20.713	1.4545	5.e-002	9.1723e-006
20065	20.987	1.4545	0.	1.6835e-002
20066	20.896	1.3636	0.	1.4492e-002
20067	20.896	1.4545	5.e-002	6.6378e-006
20068	21.17	1.4545	0.	1.8413e-002
20069	21.079	1.3636	0.	1.5883e-002
20070	21.079	1.4545	5.e-002	5.9135e-006
20071	21.352	1.4545	0.	2.0237e-002
20072	21.261	1.3636	0.	1.7486e-002
20073	21.261	1.4545	5.e-002	4.7047e-006
20074	21.535	1.4545	0.	2.2372e-002
20075	21.444	1.3636	0.	1.9364e-002
20076	21.444	1.4545	5.e-002	6.3266e-006
20077	21.718	1.4545	0.	2.49e-002
20078	21.626	1.3636	0.	2.1586e-002
20079	21.626	1.4545	5.e-002	5.7711e-006
20080	21.9	1.4545	0.	2.7925e-002
20081	21.809	1.3636	0.	2.4245e-002
20082	21.809	1.4545	5.e-002	6.2876e-006
20083	22.083	1.4545	0.	3.1592e-002
20084	21.992	1.3636	0.	2.7462e-002
20085	21.992	1.4545	5.e-002	3.1662e-006
20086	22.265	1.4545	0.	3.6103e-002
20087	22.174	1.3636	0.	3.1413e-002
20088	22.174	1.4545	5.e-002	7.0303e-006
20089	22.448	1.4545	0.	4.1769e-002
20090	22.357	1.3636	0.	3.633e-002
20091	22.357	1.4545	5.e-002	1.0797e-005
20092	22.631	1.4545	0.	4.8979e-002
20093	22.539	1.3636	0.	4.2615e-002
20094	22.539	1.4545	5.e-002	1.1303e-005
20095	22.813	1.4545	0.	5.8693e-002
20096	22.722	1.3636	0.	5.0678e-002
20097	22.722	1.4545	5.e-002	1.1028e-005
20098	22.996	1.4545	0.	7.1283e-002
20099	22.904	1.3636	0.	6.2065e-002
20100	22.904	1.4545	5.e-002	9.3547e-006
20101	23.178	1.4545	0.	9.2724e-002
20102	23.087	1.3636	0.	7.6082e-002
20103	23.087	1.4545	5.e-002	6.5666e-006
20104	23.361	1.4545	0.	0.11412
20105	23.27	1.3636	0.	0.10566
20106	23.27	1.4545	5.e-002	5.7287e-006
20107	23.544	1.4545	0.	0.2054
20108	23.452	1.3636	0.	0.12121
20109	23.452	1.4545	5.e-002	1.0946e-005
20110	23.726	1.4545	0.	0.19316
20111	23.635	1.3636	0.	0.29651
20112	23.635	1.4545	5.e-002	1.4782e-005
20113	23.817	1.3636	0.	0.1522
20114	23.817	1.4545	5.e-002	1.7935e-005
20115	23.909	1.4545	0.	0.43126
20116	12.041	1.2727	0.	-3.7468
20117	11.949	1.1818	0.	-6.4112
20118	11.949	1.2727	5.e-002	-3.2221e-005
20119	11.858	1.2727	0.	4.4056
20120	12.223	1.2727	0.	-2.0646
20121	12.132	1.1818	0.	-1.0313
20122	12.132	1.2727	5.e-002	-7.7142e-005
20123	12.406	1.2727	0.	-2.6926
20124	12.314	1.1818	0.	-2.7433
20125	12.314	1.2727	5.e-002	-1.1534e-004
20126	12.588	1.2727	0.	-2.4999
20127	12.497	1.1818	0.	-2.2627
20128	12.497	1.2727	5.e-002	-1.3526e-004
20129	12.771	1.2727	0.	-2.8157
20130	12.68	1.1818	0.	-2.3374
20131	12.68	1.2727	5.e-002	-1.3459e-004
20132	12.953	1.2727	0.	-3.9807
20133	12.862	1.1818	0.	-2.6156
20134	12.862	1.2727	5.e-002	-1.2407e-004
20135	13.136	1.2727	0.	-8.6761
20136	13.045	1.1818	0.	-3.5221
20137	13.045	1.2727	5.e-002	-1.4689e-004
20138	13.319	1.2727	0.	-21.463
20139	13.227	1.1818	0.	-6.5387
20140	13.227	1.2727	5.e-002	-1.3296e-004
20141	13.501	1.2727	0.	-33.906
20142	13.41	1.1818	0.	-14.958
20143	13.41	1.2727	5.e-002	-1.1649e-004
20144	13.684	1.2727	0.	-42.698
20145	13.593	1.1818	0.	-24.773
20146	13.593	1.2727	5.e-002	-9.8789e-005
20147	13.866	1.2727	0.	-48.576
20148	13.775	1.1818	0.	-32.473
20149	13.775	1.2727	5.e-002	-5.4219e-005
20150	14.049	1.2727	0.	-52.332
20151	13.958	1.1818	0.	-38.062
20152	13.958	1.2727	5.e-002	-1.4528e-005
20153	14.232	1.2727	0.	-54.51
20154	14.14	1.1818	0.	-41.953
20155	14.14	1.2727	5.e-002	-2.2956e-005
20156	14.414	1.2727	0.	-55.473
20157	14.323	1.1818	0.	-44.483
20158	14.323	1.2727	5.e-002	-2.7227e-005
20159	14.597	1.2727	0.	-55.473
20160	14.505	1.1818	0.	-45.9
20161	14.505	1.2727	5.e-002	-1.8239e-005
20162	14.779	1.2727	0.	-54.695
20163	14.688	1.1818	0.	-46.395
20164	14.688	1.2727	5.e-002	-1.0154e-005
20165	14.962	1.2727	0.	-53.287
20166	14.871	1.1818	0.	-46.122
20167	14.871	1.2727	5.e-002	-3.4477e-006
20168	15.145	1.2727	0.	-51.371
20169	15.053	1.1818	0.	-45.21
20170	15.053	1.2727	5.e-002	5.0455e-006
20171	15.327	1.2727	0.	-49.049
20172	15.236	1.1818	0.	-43.773
20173	15.236	1.2727	5.e-002	6.5962e-006
20174	15.51	1.2727	0.	-46.411
20175	15.418	1.1818	0.	-41.913
20176	15.418	1.2727	5.e-002	6.6862e-006
20177	15.692	1.2727	0.	-43.535
20178	15.601	1.1818	0.	-39.716
20179	15.601	1.2727	5.e-002	6.0831e-006
20180	15.875	1.2727	0.	-40.489
20181	15.784	1.1818	0.	-37.261
20182	15.784	1.2727	5.e-002	5.8667e-006
20183	16.057	1.2727	0.	-37.327
20184	15.966	1.1818	0.	-34.614
20185	15.966	1.2727	5.e-002	3.2224e-006
20186	16.24	1.2727	0.	-34.098
20187	16.149	1.1818	0.	-31.832
20188	16.149	1.2727	5.e-002	4.8427e-006
20189	16.423	1.2727	0.	-30.839
20190	16.331	1.1818	0.	-28.964
20191	16.331	1.2727	5.e-002	3.2889e-006
20192	16.605	1.2727	0.	-27.583
20193	16.514	1.1818	0.	-26.048
20194	16.514	1.2727	5.e-002	4.5873e-006
20195	16.788	1.2727	0.	-24.353
20196	16.697	1.1818	0.	-23.115
20197	16.697	1.2727	5.e-002	3.6692e-006
20198	16.97	1.2727	0.	-21.167
20199	16.879	1.1818	0.	-20.192
20200	16.879	1.2727	5.e-002	2.7143e-006
20201	17.153	1.2727	0.	-18.039
20202	17.062	1.1818	0.	-17.295
20203	17.062	1.2727	5.e-002	4.3411e-006
20204	17.336	1.2727	0.	-14.976
20205	17.244	1.1818	0.	-14.44
20206	17.244	1.2727	5.e-002	2.7639e-006
20207	17.518	1.2727	0.	-11.984
20208	17.427	1.1818	0.	-11.634
20209	17.427	1.2727	5.e-002	4.1331e-006
20210	17.701	1.2727	0.	-9.063
20211	17.609	1.1818	0.	-8.8843
20212	17.609	1.2727	5.e-002	6.0473e-006
20213	17.883	1.2727	0.	-6.2134
20214	17.792	1.1818	0.	-6.1927
20215	17.792	1.2727	5.e-002	4.62e-006
20216	18.066	1.2727	0.	-3.4332
20217	17.975	1.1818	0.	-3.5605
20218	17.975	1.2727	5.e-002	4.2346e-006
20219	18.249	1.2727	0.	-0.74474
20220	18.157	1.1818	0.	-1.0028
20221	18.157	1.2727	5.e-002	4.811e-006
20222	18.431	1.2727	0.	-9.1792e-003
20223	18.34	1.1818	0.	-1.4646e-002
20224	18.34	1.2727	5.e-002	6.6228e-006
20225	18.614	1.2727	0.	4.011e-004
20226	18.522	1.1818	0.	-1.6035e-003
20227	18.522	1.2727	5.e-002	6.3184e-006
20228	18.796	1.2727	0.	3.0947e-003
20229	18.705	1.1818	0.	1.5371e-003
20230	18.705	1.2727	5.e-002	5.4599e-006
20231	18.979	1.2727	0.	4.4576e-003
20232	18.888	1.1818	0.	2.9984e-003
20233	18.888	1.2727	5.e-002	7.3477e-006
20234	19.161	1.2727	0.	5.3655e-003
20235	19.07	1.1818	0.	3.9058e-003
20236	19.07	1.2727	5.e-002	6.9399e-006
20237	19.344	1.2727	0.	6.0828e-003
20238	19.253	1.1818	0.	4.5793e-003
20239	19.253	1.2727	5.e-002	8.0427e-006
20240	19.527	1.2727	0.	6.7246e-003
20241	19.435	1.1818	0.	5.1516e-003
20242	19.435	1.2727	5.e-002	7.0038e-006
20243	19.709	1.2727	0.	7.3461e-003
20244	19.618	1.1818	0.	5.6883e-003
20245	19.618	1.2727	5.e-002	8.443e-006
20246	19.892	1.2727	0.	7.9806e-003
20247	19.8	1.1818	0.	6.2232e-003
20248	19.8	1.2727	5.e-002	6.5318e-006
20249	20.074	1.2727	0.	8.6532e-003
20250	19.983	1.1818	0.	6.7837e-003
20251	19.983	1.2727	5.e-002	6.9311e-006
20252	20.257	1.2727	0.	9.3849e-003
20253	20.166	1.1818	0.	7.3904e-003
20254	20.166	1.2727	5.e-002	9.5029e-006
20255	20.44	1.2727	0.	1.0197e-002
20256	20.348	1.1818	0.	8.0637e-003
20257	20.348	1.2727	5.e-002	8.8253e-006
20258	20.622	1.2727	0.	1.1109e-002
20259	20.531	1.1818	0.	8.8222e-003
20260	20.531	1.2727	5.e-002	8.3212e-006
20261	20.805	1.2727	0.	1.2147e-002
20262	20.713	1.1818	0.	9.6843e-003
20263	20.713	1.2727	5.e-002	9.2245e-006
20264	20.987	1.2727	0.	1.3344e-002
20265	20.896	1.1818	0.	1.0682e-002
20266	20.896	1.2727	5.e-002	6.6244e-006
20267	21.17	1.2727	0.	1.4736e-002
20268	21.079	1.1818	0.	1.1854e-002
20269	21.079	1.2727	5.e-002	5.4944e-006
20270	21.352	1.2727	0.	1.6364e-002
20271	21.261	1.1818	0.	1.3224e-002
20272	21.261	1.2727	5.e-002	4.8274e-006
20273	21.535	1.2727	0.	1.8296e-002
20274	21.444	1.1818	0.	1.4855e-002
20275	21.444	1.2727	5.e-002	4.6695e-006
20276	21.718	1.2727	0.	2.0608e-002
20277	21.626	1.1818	0.	1.6816e-002
20278	21.626	1.2727	5.e-002	5.3829e-006
20279	21.9	1.2727	0.	2.3408e-002
20280	21.809	1.1818	0.	1.9196e-002
20281	21.809	1.2727	5.e-002	4.1067e-006
20282	22.083	1.2727	0.	2.6842e-002
20283	21.992	1.1818	0.	2.2119e-002
20284	21.992	1.2727	5.e-002	1.4659e-006
20285	22.265	1.2727	0.	3.1109e-002
20286	22.174	1.1818	0.	2.5762e-002
20287	22.174	1.2727	5.e-002	5.6631e-006
20288	22.448	1.2727	0.	3.6519e-002
20289	22.357	1.1818	0.	3.0353e-002
20290	22.357	1.2727	5.e-002	1.0464e-005
20291	22.631	1.2727	0.	4.3463e-002
20292	22.539	1.1818	0.	3.6295e-002
20293	22.539	1.2727	5.e-002	1.381e-005
20294	22.813	1.2727	0.	5.288e-002
20295	22.722	1.1818	0.	4.3994e-002
20296	22.722	1.2727	5.e-002	1.4066e-005
20297	22.996	1.2727	0.	6.5114e-002
20298	22.904	1.1818	0.	5.4967e-002
20299	22.904	1.2727	5.e-002	9.1186e-006
20300	23.178	1.2727	0.	8.6058e-002
20301	23.087	1.1818	0.	6.8494e-002
20302	23.087	1.2727	5.e-002	5.7932e-006
20303	23.361	1.2727	0.	0.10677
20304	23.27	1.1818	0.	9.7329e-002
20305	23.27	1.2727	5.e-002	5.8349e-006
20306	23.544	1.2727	0.	0.19636
20307	23.452	1.1818	0.	0.1119
20308	23.452	1.2727	5.e-002	1.0116e-005
20309	23.726	1.2727	0.	0.17978
20310	23.635	1.1818	0.	0.28398
20311	23.635	1.2727	5.e-002	1.4671e-005
20312	23.817	1.1818	0.	0.13042
20313	23.817	1.2727	5.e-002	1.6919e-005
20314	23.909	1.2727	0.	0.42586
20315	12.041	1.0909	0.	-4.0309
20316	11.949	1.	0.	-6.1194
20317	11.949	1.0909	5.e-002	-6.4395e-006
20318	11.858	1.0909	0.	0.67665
20319	12.223	1.0909	0.	-1.7298
20320	12.132	1.	0.	-0.96866
20321	12.132	1.0909	5.e-002	-4.5956e-005
20322	12.406	1.0909	0.	-2.2954
20323	12.314	1.	0.	-2.3946
20324	12.314	1.0909	5.e-002	-7.3718e-005
20325	12.588	1.0909	0.	-2.0585
20326	12.497	1.	0.	-1.9529
20327	12.497	1.0909	5.e-002	-8.8085e-005
20328	12.771	1.0909	0.	-2.0945
20329	12.68	1.	0.	-1.9158
20330	12.68	1.0909	5.e-002	-1.0058e-004
20331	12.953	1.0909	0.	-2.2387
20332	12.862	1.	0.	-1.8331
20333	12.862	1.0909	5.e-002	-1.2473e-004
20334	13.136	1.0909	0.	-2.6927
20335	13.045	1.	0.	-1.8614
20336	13.045	1.0909	5.e-002	-1.1682e-004
20337	13.319	1.0909	0.	-3.9743
20338	13.227	1.	0.	-2.0378
20339	13.227	1.0909	5.e-002	-1.4028e-004
20340	13.501	1.0909	0.	-7.9833
20341	13.41	1.	0.	-2.578
20342	13.41	1.0909	5.e-002	-1.0669e-004
20343	13.684	1.0909	0.	-15.243
20344	13.593	1.	0.	-4.3096
20345	13.593	1.0909	5.e-002	-9.4511e-005
20346	13.866	1.0909	0.	-22.233
20347	13.775	1.	0.	-8.9898
20348	13.775	1.0909	5.e-002	-1.0523e-004
20349	14.049	1.0909	0.	-27.8
20350	13.958	1.	0.	-15.073
20351	13.958	1.0909	5.e-002	-2.9382e-005
20352	14.232	1.0909	0.	-31.971
20353	14.14	1.	0.	-20.406
20354	14.14	1.0909	5.e-002	-5.7899e-005
20355	14.414	1.0909	0.	-34.92
20356	14.323	1.	0.	-24.597
20357	14.323	1.0909	5.e-002	-3.8609e-006
20358	14.597	1.0909	0.	-36.815
20359	14.505	1.	0.	-27.683
20360	14.505	1.0909	5.e-002	-1.094e-005
20361	14.779	1.0909	0.	-37.805
20362	14.688	1.	0.	-29.776
20363	14.688	1.0909	5.e-002	-1.0347e-005
20364	14.962	1.0909	0.	-38.024
20365	14.871	1.	0.	-30.997
20366	14.871	1.0909	5.e-002	3.0487e-006
20367	15.145	1.0909	0.	-37.592
20368	15.053	1.	0.	-31.465
20369	15.053	1.0909	5.e-002	6.7591e-006
20370	15.327	1.0909	0.	-36.617
20371	15.236	1.	0.	-31.293
20372	15.236	1.0909	5.e-002	6.1237e-006
20373	15.51	1.0909	0.	-35.197
20374	15.418	1.	0.	-30.585
20375	15.418	1.0909	5.e-002	7.2409e-006
20376	15.692	1.0909	0.	-33.421
20377	15.601	1.	0.	-29.438
20378	15.601	1.0909	5.e-002	5.4851e-006
20379	15.875	1.0909	0.	-31.367
20380	15.784	1.	0.	-27.937
20381	15.784	1.0909	5.e-002	4.012e-006
20382	16.057	1.0909	0.	-29.1
20383	15.966	1.	0.	-26.158
20384	15.966	1.0909	5.e-002	3.5904e-006
20385	16.24	1.0909	0.	-26.68
20386	16.149	1.	0.	-24.167
20387	16.149	1.0909	5.e-002	4.7999e-006
20388	16.423	1.0909	0.	-24.153
20389	16.331	1.	0.	-22.018
20390	16.331	1.0909	5.e-002	2.931e-006
20391	16.605	1.0909	0.	-21.56
20392	16.514	1.	0.	-19.759
20393	16.514	1.0909	5.e-002	4.1632e-006
20394	16.788	1.0909	0.	-18.934
20395	16.697	1.	0.	-17.428
20396	16.697	1.0909	5.e-002	3.8286e-006
20397	16.97	1.0909	0.	-16.299
20398	16.879	1.	0.	-15.056
20399	16.879	1.0909	5.e-002	2.7307e-006
20400	17.153	1.0909	0.	-13.675
20401	17.062	1.	0.	-12.667
20402	17.062	1.0909	5.e-002	3.6569e-006
20403	17.336	1.0909	0.	-11.076
20404	17.244	1.	0.	-10.281
20405	17.244	1.0909	5.e-002	2.4296e-006
20406	17.518	1.0909	0.	-8.5119
20407	17.427	1.	0.	-7.9116
20408	17.427	1.0909	5.e-002	4.4749e-006
20409	17.701	1.0909	0.	-5.9901
20410	17.609	1.	0.	-5.5685
20411	17.609	1.0909	5.e-002	5.1397e-006
20412	17.883	1.0909	0.	-3.5148
20413	17.792	1.	0.	-3.2596
20414	17.792	1.0909	5.e-002	4.2187e-006
20415	18.066	1.0909	0.	-1.1009
20416	17.975	1.	0.	-1.0035
20417	17.975	1.0909	5.e-002	3.6949e-006
20418	18.249	1.0909	0.	-1.8671e-002
20419	18.157	1.	0.	-1.9287e-002
20420	18.157	1.0909	5.e-002	3.7077e-006
20421	18.431	1.0909	0.	-3.1178e-003
20422	18.34	1.	0.	-4.0806e-003
20423	18.34	1.0909	5.e-002	6.9145e-006
20424	18.614	1.0909	0.	2.5225e-004
20425	18.522	1.	0.	-7.9805e-004
20426	18.522	1.0909	5.e-002	6.776e-006
20427	18.796	1.0909	0.	1.7226e-003
20428	18.705	1.	0.	5.8087e-004
20429	18.705	1.0909	5.e-002	5.1807e-006
20430	18.979	1.0909	0.	2.5768e-003
20431	18.888	1.	0.	1.3371e-003
20432	18.888	1.0909	5.e-002	8.246e-006
20433	19.161	1.0909	0.	3.1734e-003
20434	19.07	1.	0.	1.8314e-003
20435	19.07	1.0909	5.e-002	8.1538e-006
20436	19.344	1.0909	0.	3.6539e-003
20437	19.253	1.	0.	2.2029e-003
20438	19.253	1.0909	5.e-002	9.2987e-006
20439	19.527	1.0909	0.	4.0862e-003
20440	19.435	1.	0.	2.5207e-003
20441	19.435	1.0909	5.e-002	6.8694e-006
20442	19.709	1.0909	0.	4.508e-003
20443	19.618	1.	0.	2.8203e-003
20444	19.618	1.0909	5.e-002	9.307e-006
20445	19.892	1.0909	0.	4.9441e-003
20446	19.8	1.	0.	3.1274e-003
20447	19.8	1.0909	5.e-002	7.3099e-006
20448	20.074	1.0909	0.	5.4158e-003
20449	19.983	1.	0.	3.4589e-003
20450	19.983	1.0909	5.e-002	6.1664e-006
20451	20.257	1.0909	0.	5.9415e-003
20452	20.166	1.	0.	3.8314e-003
20453	20.166	1.0909	5.e-002	9.4805e-006
20454	20.44	1.0909	0.	6.5384e-003
20455	20.348	1.	0.	4.2614e-003
20456	20.348	1.0909	5.e-002	8.6214e-006
20457	20.622	1.0909	0.	7.2228e-003
20458	20.531	1.	0.	4.765e-003
20459	20.531	1.0909	5.e-002	8.3439e-006
20460	20.805	1.0909	0.	8.02e-003
20461	20.713	1.	0.	5.3571e-003
20462	20.713	1.0909	5.e-002	8.3654e-006
20463	20.987	1.0909	0.	8.9634e-003
20464	20.896	1.	0.	6.0692e-003
20465	20.896	1.0909	5.e-002	6.0256e-006
20466	21.17	1.0909	0.	1.0082e-002
20467	21.079	1.	0.	6.9335e-003
20468	21.079	1.0909	5.e-002	5.0255e-006
20469	21.352	1.0909	0.	1.1419e-002
20470	21.261	1.	0.	7.9751e-003
20471	21.261	1.0909	5.e-002	3.9977e-006
20472	21.535	1.0909	0.	1.3038e-002
20473	21.444	1.	0.	9.2497e-003
20474	21.444	1.0909	5.e-002	5.2962e-006
20475	21.718	1.0909	0.	1.5016e-002
20476	21.626	1.	0.	1.0827e-002
20477	21.626	1.0909	5.e-002	3.857e-006
20478	21.9	1.0909	0.	1.7459e-002
20479	21.809	1.	0.	1.2794e-002
20480	21.809	1.0909	5.e-002	2.0004e-006
20481	22.083	1.0909	0.	2.0514e-002
20482	21.992	1.	0.	1.5268e-002
20483	21.992	1.0909	5.e-002	-9.6242e-007
20484	22.265	1.0909	0.	2.4379e-002
20485	22.174	1.	0.	1.8427e-002
20486	22.174	1.0909	5.e-002	4.9695e-006
20487	22.448	1.0909	0.	2.9362e-002
20488	22.357	1.	0.	2.2501e-002
20489	22.357	1.0909	5.e-002	1.0062e-005
20490	22.631	1.0909	0.	3.5854e-002
20491	22.539	1.	0.	2.7884e-002
20492	22.539	1.0909	5.e-002	1.2042e-005
20493	22.813	1.0909	0.	4.4781e-002
20494	22.722	1.	0.	3.4987e-002
20495	22.722	1.0909	5.e-002	1.177e-005
20496	22.996	1.0909	0.	5.6464e-002
20497	22.904	1.	0.	4.5307e-002
20498	22.904	1.0909	5.e-002	6.4044e-006
20499	23.178	1.0909	0.	7.6691e-002
20500	23.087	1.	0.	5.8094e-002
20501	23.087	1.0909	5.e-002	5.7218e-006
20502	23.361	1.0909	0.	9.6442e-002
20503	23.27	1.	0.	8.5886e-002
20504	23.27	1.0909	5.e-002	6.0334e-006
20505	23.544	1.0909	0.	0.1838
20506	23.452	1.	0.	9.9196e-002
20507	23.452	1.0909	5.e-002	9.8988e-006
20508	23.726	1.0909	0.	0.16172
20509	23.635	1.	0.	0.26708
20510	23.635	1.0909	5.e-002	1.4115e-005
20511	23.817	1.	0.	0.10228
20512	23.817	1.0909	5.e-002	1.4984e-005
20513	23.909	1.0909	0.	0.41785
20514	12.041	0.90909	0.	-3.4613
20515	11.949	0.81818	0.	-5.3965
20516	11.949	0.90909	5.e-002	1.5895e-006
20517	11.858	0.90909	0.	1.6737
20518	12.223	0.90909	0.	-1.6992
20519	12.132	0.81818	0.	-1.2188
20520	12.132	0.90909	5.e-002	-2.5849e-005
20521	12.406	0.90909	0.	-2.0746
20522	12.314	0.81818	0.	-2.2722
20523	12.314	0.90909	5.e-002	-4.9024e-005
20524	12.588	0.90909	0.	-1.8138
20525	12.497	0.81818	0.	-1.8146
20526	12.497	0.90909	5.e-002	-6.271e-005
20527	12.771	0.90909	0.	-1.6609
20528	12.68	0.81818	0.	-1.6138
20529	12.68	0.90909	5.e-002	-6.8036e-005
20530	12.953	0.90909	0.	-1.5114
20531	12.862	0.81818	0.	-1.3656
20532	12.862	0.90909	5.e-002	-8.0884e-005
20533	13.136	0.90909	0.	-1.4223
20534	13.045	0.81818	0.	-1.1815
20535	13.045	0.90909	5.e-002	-7.8705e-005
20536	13.319	0.90909	0.	-1.4091
20537	13.227	0.81818	0.	-1.0469
20538	13.227	0.90909	5.e-002	-1.0034e-004
20539	13.501	0.90909	0.	-1.5347
20540	13.41	0.81818	0.	-0.97368
20541	13.41	0.90909	5.e-002	-8.3297e-005
20542	13.684	0.90909	0.	-2.0073
20543	13.593	0.81818	0.	-0.97892
20544	13.593	0.90909	5.e-002	-1.3253e-004
20545	13.866	0.90909	0.	-3.7345
20546	13.775	0.81818	0.	-1.1312
20547	13.775	0.90909	5.e-002	-9.6623e-005
20548	14.049	0.90909	0.	-8.109
20549	13.958	0.81818	0.	-1.7421
20550	13.958	0.90909	5.e-002	-7.6059e-005
20551	14.232	0.90909	0.	-13.142
20552	14.14	0.81818	0.	-4.1947
20553	14.14	0.90909	5.e-002	2.8957e-007
20554	14.414	0.90909	0.	-17.387
20555	14.323	0.81818	0.	-8.5509
20556	14.323	0.90909	5.e-002	-7.113e-006
20557	14.597	0.90909	0.	-20.642
20558	14.505	0.81818	0.	-12.565
20559	14.505	0.90909	5.e-002	-2.4569e-005
20560	14.779	0.90909	0.	-22.952
20561	14.688	0.81818	0.	-15.701
20562	14.688	0.90909	5.e-002	-9.4945e-006
20563	14.962	0.90909	0.	-24.417
20564	14.871	0.81818	0.	-17.955
20565	14.871	0.90909	5.e-002	3.0053e-006
20566	15.145	0.90909	0.	-25.143
20567	15.053	0.81818	0.	-19.41
20568	15.053	0.90909	5.e-002	4.963e-006
20569	15.327	0.90909	0.	-25.238
20570	15.236	0.81818	0.	-20.168
20571	15.236	0.90909	5.e-002	7.3792e-006
20572	15.51	0.90909	0.	-24.803
20573	15.418	0.81818	0.	-20.331
20574	15.418	0.90909	5.e-002	7.2558e-006
20575	15.692	0.90909	0.	-23.932
20576	15.601	0.81818	0.	-19.997
20577	15.601	0.90909	5.e-002	5.1355e-006
20578	15.875	0.90909	0.	-22.708
20579	15.784	0.81818	0.	-19.253
20580	15.784	0.90909	5.e-002	4.3572e-006
20581	16.057	0.90909	0.	-21.204
20582	15.966	0.81818	0.	-18.179
20583	15.966	0.90909	5.e-002	8.8703e-007
20584	16.24	0.90909	0.	-19.484
20585	16.149	0.81818	0.	-16.843
20586	16.149	0.90909	5.e-002	3.9658e-006
20587	16.423	0.90909	0.	-17.603
20588	16.331	0.81818	0.	-15.306
20589	16.331	0.90909	5.e-002	2.9167e-006
20590	16.605	0.90909	0.	-15.605
20591	16.514	0.81818	0.	-13.617
20592	16.514	0.90909	5.e-002	4.4872e-006
20593	16.788	0.90909	0.	-13.528
20594	16.697	0.81818	0.	-11.818
20595	16.697	0.90909	5.e-002	2.9378e-006
20596	16.97	0.90909	0.	-11.402
20597	16.879	0.81818	0.	-9.9438
20598	16.879	0.90909	5.e-002	2.8978e-006
20599	17.153	0.90909	0.	-9.2513
20600	17.062	0.81818	0.	-8.0218
20601	17.062	0.90909	5.e-002	3.2166e-006
20602	17.336	0.90909	0.	-7.0939
20603	17.244	0.81818	0.	-6.0741
20604	17.244	0.90909	5.e-002	1.7703e-006
20605	17.518	0.90909	0.	-4.944
20606	17.427	0.81818	0.	-4.1179
20607	17.427	0.90909	5.e-002	3.7026e-006
20608	17.701	0.90909	0.	-2.8132
20609	17.609	0.81818	0.	-2.168
20610	17.609	0.90909	5.e-002	6.788e-006
20611	17.883	0.90909	0.	-0.72932
20612	17.792	0.81818	0.	-0.29407
20613	17.792	0.90909	5.e-002	4.513e-006
20614	18.066	0.90909	0.	-1.5521e-002
20615	17.975	0.81818	0.	-9.964e-003
20616	17.975	0.90909	5.e-002	4.0773e-006
20617	18.249	0.90909	0.	-4.0101e-003
20618	18.157	0.81818	0.	-3.2014e-003
20619	18.157	0.90909	5.e-002	4.3566e-006
20620	18.431	0.90909	0.	-1.3078e-003
20621	18.34	0.81818	0.	-1.4161e-003
20622	18.34	0.90909	5.e-002	6.1578e-006
20623	18.614	0.90909	0.	-2.0245e-004
20624	18.522	0.81818	0.	-7.4422e-004
20625	18.522	0.90909	5.e-002	6.1967e-006
20626	18.796	0.90909	0.	3.595e-004
20627	18.705	0.81818	0.	-4.7492e-004
20628	18.705	0.90909	5.e-002	4.9932e-006
20629	18.979	0.90909	0.	6.8935e-004
20630	18.888	0.81818	0.	-3.8441e-004
20631	18.888	0.90909	5.e-002	7.9409e-006
20632	19.161	0.90909	0.	9.1011e-004
20633	19.07	0.81818	0.	-3.7793e-004
20634	19.07	0.90909	5.e-002	1.0737e-005
20635	19.344	0.90909	0.	1.0803e-003
20636	19.253	0.81818	0.	-4.1173e-004
20637	19.253	0.90909	5.e-002	1.212e-005
20638	19.527	0.90909	0.	1.2322e-003
20639	19.435	0.81818	0.	-4.5951e-004
20640	19.435	0.90909	5.e-002	7.5058e-006
20641	19.709	0.90909	0.	1.3871e-003
20642	19.618	0.81818	0.	-5.0678e-004
20643	19.618	0.90909	5.e-002	7.9533e-006
20644	19.892	0.90909	0.	1.5613e-003
20645	19.8	0.81818	0.	-5.4144e-004
20646	19.8	0.90909	5.e-002	5.1006e-006
20647	20.074	0.90909	0.	1.7659e-003
20648	19.983	0.81818	0.	-5.5226e-004
20649	19.983	0.90909	5.e-002	6.5283e-006
20650	20.257	0.90909	0.	2.0145e-003
20651	20.166	0.81818	0.	-5.3209e-004
20652	20.166	0.90909	5.e-002	9.495e-006
20653	20.44	0.90909	0.	2.322e-003
20654	20.348	0.81818	0.	-4.7034e-004
20655	20.348	0.90909	5.e-002	7.8365e-006
20656	20.622	0.90909	0.	2.7021e-003
20657	20.531	0.81818	0.	-3.5395e-004
20658	20.531	0.90909	5.e-002	8.5112e-006
20659	20.805	0.90909	0.	3.1756e-003
20660	20.713	0.81818	0.	-1.7267e-004
20661	20.713	0.90909	5.e-002	8.6816e-006
20662	20.987	0.90909	0.	3.7716e-003
20663	20.896	0.81818	0.	9.9057e-005
20664	20.896	0.90909	5.e-002	5.2438e-006
20665	21.17	0.90909	0.	4.5171e-003
20666	21.079	0.81818	0.	4.8947e-004
20667	21.079	0.90909	5.e-002	3.2466e-006
20668	21.352	0.90909	0.	5.4488e-003
20669	21.261	0.81818	0.	1.0174e-003
20670	21.261	0.90909	5.e-002	3.3231e-006
20671	21.535	0.90909	0.	6.6274e-003
20672	21.444	0.81818	0.	1.7308e-003
20673	21.444	0.90909	5.e-002	3.2771e-006
20674	21.718	0.90909	0.	8.1279e-003
20675	21.626	0.81818	0.	2.6947e-003
20676	21.626	0.90909	5.e-002	9.5767e-008
20677	21.9	0.90909	0.	1.0047e-002
20678	21.809	0.81818	0.	3.9852e-003
20679	21.809	0.90909	5.e-002	-1.9722e-006
20680	22.083	0.90909	0.	1.2529e-002
20681	21.992	0.81818	0.	5.7118e-003
20682	21.992	0.90909	5.e-002	-1.5893e-006
20683	22.265	0.90909	0.	1.5773e-002
20684	22.174	0.81818	0.	8.044e-003
20685	22.174	0.90909	5.e-002	6.6736e-006
20686	22.448	0.90909	0.	2.0082e-002
20687	22.357	0.81818	0.	1.1202e-002
20688	22.357	0.90909	5.e-002	1.2119e-005
20689	22.631	0.90909	0.	2.5843e-002
20690	22.539	0.81818	0.	1.5571e-002
20691	22.539	0.90909	5.e-002	1.0012e-005
20692	22.813	0.90909	0.	3.3981e-002
20693	22.722	0.81818	0.	2.1551e-002
20694	22.722	0.90909	5.e-002	7.2555e-006
20695	22.996	0.90909	0.	4.48e-002
20696	22.904	0.81818	0.	3.0619e-002
20697	22.904	0.90909	5.e-002	4.4793e-006
20698	23.178	0.90909	0.	6.3962e-002
20699	23.087	0.81818	0.	4.1994e-002
20700	23.087	0.90909	5.e-002	4.2915e-006
20701	23.361	0.90909	0.	8.2434e-002
20702	23.27	0.81818	0.	6.799e-002
20703	23.27	0.90909	5.e-002	5.4229e-006
20704	23.544	0.90909	0.	0.16691
20705	23.452	0.81818	0.	7.9227e-002
20706	23.452	0.90909	5.e-002	1.0415e-005
20707	23.726	0.90909	0.	0.13798
20708	23.635	0.81818	0.	0.2408
20709	23.635	0.90909	5.e-002	1.4056e-005
20710	23.817	0.81818	0.	6.1196e-002
20711	23.817	0.90909	5.e-002	1.4896e-005
20712	23.909	0.90909	0.	0.40767
20713	12.041	0.72727	0.	-3.6802
20714	11.949	0.63636	0.	-5.6722
20715	11.949	0.72727	5.e-002	4.72e-006
20716	11.858	0.72727	0.	1.4385
20717	12.223	0.72727	0.	-1.936
20718	12.132	0.63636	0.	-1.8225
20719	12.132	0.72727	5.e-002	-1.6423e-005
20720	12.406	0.72727	0.	-2.0813
20721	12.314	0.63636	0.	-2.4616
20722	12.314	0.72727	5.e-002	-2.8737e-005
20723	12.588	0.72727	0.	-1.639
20724	12.497	0.63636	0.	-1.7436
20725	12.497	0.72727	5.e-002	-3.0065e-005
20726	12.771	0.72727	0.	-1.3315
20727	12.68	0.63636	0.	-1.3427
20728	12.68	0.72727	5.e-002	-3.9914e-005
20729	12.953	0.72727	0.	-1.0651
20730	12.862	0.63636	0.	-0.99533
20731	12.862	0.72727	5.e-002	-4.756e-005
20732	13.136	0.72727	0.	-0.8704
20733	13.045	0.63636	0.	-0.76187
20734	13.045	0.72727	5.e-002	-5.436e-005
20735	13.319	0.72727	0.	-0.73149
20736	13.227	0.63636	0.	-0.59737
20737	13.227	0.72727	5.e-002	-5.505e-005
20738	13.501	0.72727	0.	-0.64198
20739	13.41	0.63636	0.	-0.48591
20740	13.41	0.72727	5.e-002	-3.7414e-005
20741	13.684	0.72727	0.	-0.59978
20742	13.593	0.63636	0.	-0.41315
20743	13.593	0.72727	5.e-002	-7.0231e-005
20744	13.866	0.72727	0.	-0.61832
20745	13.775	0.63636	0.	-0.37302
20746	13.775	0.72727	5.e-002	-9.9363e-005
20747	14.049	0.72727	0.	-0.76175
20748	13.958	0.63636	0.	-0.36734
20749	13.958	0.72727	5.e-002	-1.2469e-004
20750	14.232	0.72727	0.	-1.3943
20751	14.14	0.63636	0.	-0.41735
20752	14.14	0.72727	5.e-002	-6.534e-005
20753	14.414	0.72727	0.	-4.0082
20754	14.323	0.63636	0.	-0.63536
20755	14.323	0.72727	5.e-002	-3.123e-005
20756	14.597	0.72727	0.	-7.6602
20757	14.505	0.63636	0.	-1.8443
20758	14.505	0.72727	5.e-002	-1.2973e-005
20759	14.779	0.72727	0.	-10.697
20760	14.688	0.63636	0.	-4.7767
20761	14.688	0.72727	5.e-002	-8.3561e-006
20762	14.962	0.72727	0.	-12.93
20763	14.871	0.63636	0.	-7.4491
20764	14.871	0.72727	5.e-002	8.0015e-006
20765	15.145	0.72727	0.	-14.413
20766	15.053	0.63636	0.	-9.4154
20767	15.053	0.72727	5.e-002	3.3244e-006
20768	15.327	0.72727	0.	-15.238
20769	15.236	0.63636	0.	-10.707
20770	15.236	0.72727	5.e-002	3.8389e-006
20771	15.51	0.72727	0.	-15.501
20772	15.418	0.63636	0.	-11.407
20773	15.418	0.72727	5.e-002	6.2899e-006
20774	15.692	0.72727	0.	-15.295
20775	15.601	0.63636	0.	-11.604
20776	15.601	0.72727	5.e-002	5.137e-006
20777	15.875	0.72727	0.	-14.701
20778	15.784	0.63636	0.	-11.384
20779	15.784	0.72727	5.e-002	2.3403e-006
20780	16.057	0.72727	0.	-13.796
20781	15.966	0.63636	0.	-10.822
20782	15.966	0.72727	5.e-002	1.1991e-006
20783	16.24	0.72727	0.	-12.643
20784	16.149	0.63636	0.	-9.9841
20785	16.149	0.72727	5.e-002	2.1836e-006
20786	16.423	0.72727	0.	-11.298
20787	16.331	0.63636	0.	-8.929
20788	16.331	0.72727	5.e-002	1.6089e-006
20789	16.605	0.72727	0.	-9.8074
20790	16.514	0.63636	0.	-7.7057
20791	16.514	0.72727	5.e-002	4.5889e-006
20792	16.788	0.72727	0.	-8.2108
20793	16.697	0.63636	0.	-6.3557
20794	16.697	0.72727	5.e-002	3.7106e-006
20795	16.97	0.72727	0.	-6.54
20796	16.879	0.63636	0.	-4.9129
20797	16.879	0.72727	5.e-002	2.0305e-006
20798	17.153	0.72727	0.	-4.8206
20799	17.062	0.63636	0.	-3.4056
20800	17.062	0.72727	5.e-002	3.4949e-006
20801	17.336	0.72727	0.	-3.0736
20802	17.244	0.63636	0.	-1.857
20803	17.244	0.72727	5.e-002	2.4212e-006
20804	17.518	0.72727	0.	-1.3188
20805	17.427	0.63636	0.	-0.3083
20806	17.427	0.72727	5.e-002	2.3254e-006
20807	17.701	0.72727	0.	-3.1566e-002
20808	17.609	0.63636	0.	-4.1251e-003
20809	17.609	0.72727	5.e-002	5.5157e-006
20810	17.883	0.72727	0.	-4.3833e-003
20811	17.792	0.63636	0.	-6.6754e-004
20812	17.792	0.72727	5.e-002	4.3264e-006
20813	18.066	0.72727	0.	-1.6155e-003
20814	17.975	0.63636	0.	-1.9235e-004
20815	17.975	0.72727	5.e-002	4.9619e-006
20816	18.249	0.72727	0.	-9.1851e-004
20817	18.157	0.63636	0.	-3.1518e-004
20818	18.157	0.72727	5.e-002	6.0669e-006
20819	18.431	0.72727	0.	-8.0191e-004
20820	18.34	0.63636	0.	-6.3493e-004
20821	18.34	0.72727	5.e-002	6.0471e-006
20822	18.614	0.72727	0.	-9.1148e-004
20823	18.522	0.63636	0.	-1.0324e-003
20824	18.522	0.72727	5.e-002	5.0622e-006
20825	18.796	0.72727	0.	-1.1205e-003
20826	18.705	0.63636	0.	-1.4565e-003
20827	18.705	0.72727	5.e-002	5.322e-006
20828	18.979	0.72727	0.	-1.3765e-003
20829	18.888	0.63636	0.	-1.8898e-003
20830	18.888	0.72727	5.e-002	9.1572e-006
20831	19.161	0.72727	0.	-1.6525e-003
20832	19.07	0.63636	0.	-2.3223e-003
20833	19.07	0.72727	5.e-002	1.195e-005
20834	19.344	0.72727	0.	-1.9335e-003
20835	19.253	0.63636	0.	-2.7457e-003
20836	19.253	0.72727	5.e-002	1.3435e-005
20837	19.527	0.72727	0.	-2.2104e-003
20838	19.435	0.63636	0.	-3.1625e-003
20839	19.435	0.72727	5.e-002	1.0034e-005
20840	19.709	0.72727	0.	-2.4777e-003
20841	19.618	0.63636	0.	-3.5676e-003
20842	19.618	0.72727	5.e-002	8.2042e-006
20843	19.892	0.72727	0.	-2.7286e-003
20844	19.8	0.63636	0.	-3.9626e-003
20845	19.8	0.72727	5.e-002	1.9012e-006
20846	20.074	0.72727	0.	-2.9564e-003
20847	19.983	0.63636	0.	-4.3391e-003
20848	19.983	0.72727	5.e-002	3.6619e-006
20849	20.257	0.72727	0.	-3.1576e-003
20850	20.166	0.63636	0.	-4.6983e-003
20851	20.166	0.72727	5.e-002	7.5851e-006
20852	20.44	0.72727	0.	-3.3239e-003
20853	20.348	0.63636	0.	-5.0389e-003
20854	20.348	0.72727	5.e-002	8.2071e-006
20855	20.622	0.72727	0.	-3.4466e-003
20856	20.531	0.63636	0.	-5.3528e-003
20857	20.531	0.72727	5.e-002	8.4289e-006
20858	20.805	0.72727	0.	-3.5114e-003
20859	20.713	0.63636	0.	-5.6339e-003
20860	20.713	0.72727	5.e-002	8.9889e-006
20861	20.987	0.72727	0.	-3.4949e-003
20862	20.896	0.63636	0.	-5.8657e-003
20863	20.896	0.72727	5.e-002	5.2299e-006
20864	21.17	0.72727	0.	-3.3784e-003
20865	21.079	0.63636	0.	-6.0299e-003
20866	21.079	0.72727	5.e-002	3.9958e-006
20867	21.352	0.72727	0.	-3.1333e-003
20868	21.261	0.63636	0.	-6.1135e-003
20869	21.261	0.72727	5.e-002	1.7696e-006
20870	21.535	0.72727	0.	-2.7098e-003
20871	21.444	0.63636	0.	-6.0802e-003
20872	21.444	0.72727	5.e-002	-3.5e-007
20873	21.718	0.72727	0.	-2.0448e-003
20874	21.626	0.63636	0.	-5.8819e-003
20875	21.626	0.72727	5.e-002	-1.9905e-006
20876	21.9	0.72727	0.	-1.054e-003
20877	21.809	0.63636	0.	-5.4544e-003
20878	21.809	0.72727	5.e-002	-1.2057e-006
20879	22.083	0.72727	0.	3.9099e-004
20880	21.992	0.63636	0.	-4.7057e-003
20881	21.992	0.72727	5.e-002	-3.8701e-007
20882	22.265	0.72727	0.	2.4709e-003
20883	22.174	0.63636	0.	-3.4967e-003
20884	22.174	0.72727	5.e-002	7.9059e-006
20885	22.448	0.72727	0.	5.4733e-003
20886	22.357	0.63636	0.	-1.6276e-003
20887	22.357	0.72727	5.e-002	9.3688e-006
20888	22.631	0.72727	0.	9.767e-003
20889	22.539	0.63636	0.	1.2601e-003
20890	22.539	0.72727	5.e-002	8.043e-006
20891	22.813	0.72727	0.	1.625e-002
20892	22.722	0.63636	0.	5.5343e-003
20893	22.722	0.72727	5.e-002	4.0752e-006
20894	22.996	0.72727	0.	2.5193e-002
20895	22.904	0.63636	0.	1.2612e-002
20896	22.904	0.72727	5.e-002	6.7644e-006
20897	23.178	0.72727	0.	4.2154e-002
20898	23.087	0.63636	0.	2.1732e-002
20899	23.087	0.72727	5.e-002	6.537e-006
20900	23.361	0.72727	0.	5.806e-002
20901	23.27	0.63636	0.	4.493e-002
20902	23.27	0.72727	5.e-002	1.0776e-005
20903	23.544	0.72727	0.	0.1374
20904	23.452	0.63636	0.	5.2288e-002
20905	23.452	0.72727	5.e-002	1.4873e-005
20906	23.726	0.72727	0.	9.786e-002
20907	23.635	0.63636	0.	0.20686
20908	23.635	0.72727	5.e-002	1.3924e-005
20909	23.817	0.63636	0.	1.01e-002
20910	23.817	0.72727	5.e-002	1.6352e-005
20911	23.909	0.72727	0.	0.38456
20912	12.041	0.54545	0.	-4.6538
20913	11.949	0.45455	0.	-6.7468
20914	11.949	0.54545	5.e-002	2.5395e-006
20915	11.858	0.54545	0.	1.4537
20916	12.223	0.54545	0.	-2.6624
20917	12.132	0.45455	0.	-3.0437
20918	12.132	0.54545	5.e-002	-5.272e-006
20919	12.406	0.54545	0.	-2.2263
20920	12.314	0.45455	0.	-2.8316
20921	12.314	0.54545	5.e-002	-1.4451e-005
20922	12.588	0.54545	0.	-1.4572
20923	12.497	0.45455	0.	-1.6216
20924	12.497	0.54545	5.e-002	-1.8194e-005
20925	12.771	0.54545	0.	-1.004
20926	12.68	0.45455	0.	-1.0477
20927	12.68	0.54545	5.e-002	-2.4175e-005
20928	12.953	0.54545	0.	-0.70165
20929	12.862	0.45455	0.	-0.68691
20930	12.862	0.54545	5.e-002	-2.6304e-005
20931	13.136	0.54545	0.	-0.51269
20932	13.045	0.45455	0.	-0.48607
20933	13.045	0.54545	5.e-002	-2.7069e-005
20934	13.319	0.54545	0.	-0.38802
20935	13.227	0.45455	0.	-0.35888
20936	13.227	0.54545	5.e-002	-2.7609e-005
20937	13.501	0.54545	0.	-0.30543
20938	13.41	0.45455	0.	-0.27548
20939	13.41	0.54545	5.e-002	-3.5285e-005
20940	13.684	0.54545	0.	-0.25106
20941	13.593	0.45455	0.	-0.21784
20942	13.593	0.54545	5.e-002	-5.0909e-005
20943	13.866	0.54545	0.	-0.21778
20944	13.775	0.45455	0.	-0.17754
20945	13.775	0.54545	5.e-002	-6.8606e-005
20946	14.049	0.54545	0.	-0.20293
20947	13.958	0.45455	0.	-0.15
20948	13.958	0.54545	5.e-002	-6.8268e-005
20949	14.232	0.54545	0.	-0.2099
20950	14.14	0.45455	0.	-0.13331
20951	14.14	0.54545	5.e-002	-2.1141e-005
20952	14.414	0.54545	0.	-0.25868
20953	14.323	0.45455	0.	-0.12811
20954	14.323	0.54545	5.e-002	-1.4287e-005
20955	14.597	0.54545	0.	-0.46829
20956	14.505	0.45455	0.	-0.14023
20957	14.505	0.54545	5.e-002	7.8784e-007
20958	14.779	0.54545	0.	-1.7323
20959	14.688	0.45455	0.	-0.1968
20960	14.688	0.54545	5.e-002	4.0143e-006
20961	14.962	0.54545	0.	-3.9463
20962	14.871	0.45455	0.	-0.50701
20963	14.871	0.54545	5.e-002	4.4099e-006
20964	15.145	0.54545	0.	-5.695
20965	15.053	0.45455	0.	-1.8011
20966	15.053	0.54545	5.e-002	3.2198e-006
20967	15.327	0.54545	0.	-6.8547
20968	15.236	0.45455	0.	-3.1118
20969	15.236	0.54545	5.e-002	5.1494e-006
20970	15.51	0.54545	0.	-7.4872
20971	15.418	0.45455	0.	-3.9619
20972	15.418	0.54545	5.e-002	5.0975e-006
20973	15.692	0.54545	0.	-7.6709
20974	15.601	0.45455	0.	-4.3762
20975	15.601	0.54545	5.e-002	5.3343e-006
20976	15.875	0.54545	0.	-7.4814
20977	15.784	0.45455	0.	-4.4188
20978	15.784	0.54545	5.e-002	3.6447e-006
20979	16.057	0.54545	0.	-6.9868
20980	15.966	0.45455	0.	-4.1533
20981	15.966	0.54545	5.e-002	3.2579e-007
20982	16.24	0.54545	0.	-6.247
20983	16.149	0.45455	0.	-3.6373
20984	16.149	0.54545	5.e-002	2.9512e-006
20985	16.423	0.54545	0.	-5.3136
20986	16.331	0.45455	0.	-2.9208
20987	16.331	0.54545	5.e-002	2.1856e-006
20988	16.605	0.54545	0.	-4.2302
20989	16.514	0.45455	0.	-2.0467
20990	16.514	0.54545	5.e-002	3.8716e-006
20991	16.788	0.54545	0.	-3.0334
20992	16.697	0.45455	0.	-1.0511
20993	16.697	0.54545	5.e-002	3.6501e-006
20994	16.97	0.54545	0.	-1.7536
20995	16.879	0.45455	0.	5.7117e-003
20996	16.879	0.54545	5.e-002	2.5683e-006
20997	17.153	0.54545	0.	-0.41951
20998	17.062	0.45455	0.	1.1128e-002
20999	17.062	0.54545	5.e-002	5.3015e-006
21000	17.336	0.54545	0.	1.5929e-003
21001	17.244	0.45455	0.	9.3124e-003
21002	17.244	0.54545	5.e-002	2.4516e-006
21003	17.518	0.54545	0.	2.4001e-003
21004	17.427	0.45455	0.	7.5382e-003
21005	17.427	0.54545	5.e-002	1.5457e-006
21006	17.701	0.54545	0.	1.897e-003
21007	17.609	0.45455	0.	5.8366e-003
21008	17.609	0.54545	5.e-002	2.7826e-006
21009	17.883	0.54545	0.	1.212e-003
21010	17.792	0.45455	0.	4.2058e-003
21011	17.792	0.54545	5.e-002	2.0704e-006
21012	18.066	0.54545	0.	5.0129e-004
21013	17.975	0.45455	0.	2.6357e-003
21014	17.975	0.54545	5.e-002	3.6863e-006
21015	18.249	0.54545	0.	-1.9705e-004
21016	18.157	0.45455	0.	1.1181e-003
21017	18.157	0.54545	5.e-002	7.3932e-006
21018	18.431	0.54545	0.	-8.7414e-004
21019	18.34	0.45455	0.	-3.5466e-004
21020	18.34	0.54545	5.e-002	7.1777e-006
21021	18.614	0.54545	0.	-1.5262e-003
21022	18.522	0.45455	0.	-1.7916e-003
21023	18.522	0.54545	5.e-002	5.5275e-006
21024	18.796	0.54545	0.	-2.1558e-003
21025	18.705	0.45455	0.	-3.1997e-003
21026	18.705	0.54545	5.e-002	6.3416e-006
21027	18.979	0.54545	0.	-2.767e-003
21028	18.888	0.45455	0.	-4.5867e-003
21029	18.888	0.54545	5.e-002	8.4137e-006
21030	19.161	0.54545	0.	-3.3594e-003
21031	19.07	0.45455	0.	-5.9606e-003
21032	19.07	0.54545	5.e-002	1.0946e-005
21033	19.344	0.54545	0.	-3.938e-003
21034	19.253	0.45455	0.	-7.3256e-003
21035	19.253	0.54545	5.e-002	1.3127e-005
21036	19.527	0.54545	0.	-4.5075e-003
21037	19.435	0.45455	0.	-8.6956e-003
21038	19.435	0.54545	5.e-002	1.0867e-005
21039	19.709	0.54545	0.	-5.0687e-003
21040	19.618	0.45455	0.	-1.0074e-002
21041	19.618	0.54545	5.e-002	9.3237e-006
21042	19.892	0.54545	0.	-5.6213e-003
21043	19.8	0.45455	0.	-1.1472e-002
21044	19.8	0.54545	5.e-002	1.0552e-006
21045	20.074	0.54545	0.	-6.165e-003
21046	19.983	0.45455	0.	-1.289e-002
21047	19.983	0.54545	5.e-002	1.28e-006
21048	20.257	0.54545	0.	-6.7035e-003
21049	20.166	0.45455	0.	-1.434e-002
21050	20.166	0.54545	5.e-002	5.5199e-006
21051	20.44	0.54545	0.	-7.2365e-003
21052	20.348	0.45455	0.	-1.5833e-002
21053	20.348	0.54545	5.e-002	6.7863e-006
21054	20.622	0.54545	0.	-7.7592e-003
21055	20.531	0.45455	0.	-1.7372e-002
21056	20.531	0.54545	5.e-002	7.8116e-006
21057	20.805	0.54545	0.	-8.2644e-003
21058	20.713	0.45455	0.	-1.8963e-002
21059	20.713	0.54545	5.e-002	9.1551e-006
21060	20.987	0.54545	0.	-8.7424e-003
21061	20.896	0.45455	0.	-2.0612e-002
21062	20.896	0.54545	5.e-002	7.1406e-006
21063	21.17	0.54545	0.	-9.1827e-003
21064	21.079	0.45455	0.	-2.2319e-002
21065	21.079	0.54545	5.e-002	6.0029e-006
21066	21.352	0.54545	0.	-9.5668e-003
21067	21.261	0.45455	0.	-2.4096e-002
21068	21.261	0.54545	5.e-002	-8.235e-007
21069	21.535	0.54545	0.	-9.8639e-003
21070	21.444	0.45455	0.	-2.5932e-002
21071	21.444	0.54545	5.e-002	-2.5789e-006
21072	21.718	0.54545	0.	-1.0029e-002
21073	21.626	0.45455	0.	-2.7819e-002
21074	21.626	0.54545	5.e-002	-2.2135e-006
21075	21.9	0.54545	0.	-9.9973e-003
21076	21.809	0.45455	0.	-2.9736e-002
21077	21.809	0.54545	5.e-002	1.1905e-006
21078	22.083	0.54545	0.	-9.6749e-003
21079	21.992	0.45455	0.	-3.165e-002
21080	21.992	0.54545	5.e-002	1.123e-006
21081	22.265	0.54545	0.	-8.9174e-003
21082	22.174	0.45455	0.	-3.3497e-002
21083	22.174	0.54545	5.e-002	5.6575e-006
21084	22.448	0.54545	0.	-7.4754e-003
21085	22.357	0.45455	0.	-3.5171e-002
21086	22.357	0.54545	5.e-002	5.6426e-006
21087	22.631	0.54545	0.	-5.0265e-003
21088	22.539	0.45455	0.	-3.6445e-002
21089	22.539	0.54545	5.e-002	4.1747e-006
21090	22.813	0.54545	0.	-7.4585e-004
21091	22.722	0.45455	0.	-3.7114e-002
21092	22.722	0.54545	5.e-002	3.8488e-006
21093	22.996	0.54545	0.	5.6223e-003
21094	22.904	0.45455	0.	-3.6027e-002
21095	22.904	0.54545	5.e-002	9.0774e-006
21096	23.178	0.54545	0.	1.9488e-002
21097	23.087	0.45455	0.	-3.4102e-002
21098	23.087	0.54545	5.e-002	8.3856e-006
21099	23.361	0.54545	0.	3.1083e-002
21100	23.27	0.45455	0.	-2.0597e-002
21101	23.27	0.54545	5.e-002	1.1179e-005
21102	23.544	0.54545	0.	0.10492
21103	23.452	0.45455	0.	-2.3382e-002
21104	23.452	0.54545	5.e-002	1.5043e-005
21105	23.726	0.54545	0.	5.597e-002
21106	23.635	0.45455	0.	0.10386
21107	23.635	0.54545	5.e-002	1.5543e-005
21108	23.817	0.45455	0.	-0.13657
21109	23.817	0.54545	5.e-002	1.2906e-005
21110	23.909	0.54545	0.	0.37184
21111	12.041	0.36364	0.	-6.9335
21112	11.949	0.27273	0.	-11.496
21113	11.949	0.36364	5.e-002	2.7424e-006
21114	11.858	0.36364	0.	2.2525
21115	12.223	0.36364	0.	-3.7404
21116	12.132	0.27273	0.	-5.1555
21117	12.132	0.36364	5.e-002	4.0568e-006
21118	12.406	0.36364	0.	-2.2373
21119	12.314	0.27273	0.	-3.0364
21120	12.314	0.36364	5.e-002	-4.5327e-006
21121	12.588	0.36364	0.	-1.1609
21122	12.497	0.27273	0.	-1.2856
21123	12.497	0.36364	5.e-002	-5.8589e-006
21124	12.771	0.36364	0.	-0.70566
21125	12.68	0.27273	0.	-0.63842
21126	12.68	0.36364	5.e-002	-9.5869e-006
21127	12.953	0.36364	0.	-0.46884
21128	12.862	0.27273	0.	-0.32306
21129	12.862	0.36364	5.e-002	-9.4759e-006
21130	13.136	0.36364	0.	-0.34237
21131	13.045	0.27273	0.	-0.18864
21132	13.045	0.36364	5.e-002	-9.5923e-006
21133	13.319	0.36364	0.	-0.26292
21134	13.227	0.27273	0.	-0.12353
21135	13.227	0.36364	5.e-002	-8.2323e-006
21136	13.501	0.36364	0.	-0.20792
21137	13.41	0.27273	0.	-9.0642e-002
21138	13.41	0.36364	5.e-002	-8.2559e-006
21139	13.684	0.36364	0.	-0.16667
21140	13.593	0.27273	0.	-7.1303e-002
21141	13.593	0.36364	5.e-002	-9.4264e-006
21142	13.866	0.36364	0.	-0.13466
21143	13.775	0.27273	0.	-5.838e-002
21144	13.775	0.36364	5.e-002	-8.8714e-006
21145	14.049	0.36364	0.	-0.10976
21146	13.958	0.27273	0.	-4.887e-002
21147	13.958	0.36364	5.e-002	-3.1305e-005
21148	14.232	0.36364	0.	-9.097e-002
21149	14.14	0.27273	0.	-4.1755e-002
21150	14.14	0.36364	5.e-002	-9.0514e-005
21151	14.414	0.36364	0.	-7.8019e-002
21152	14.323	0.27273	0.	-3.6771e-002
21153	14.323	0.36364	5.e-002	1.1422e-006
21154	14.597	0.36364	0.	-7.1445e-002
21155	14.505	0.27273	0.	-3.3958e-002
21156	14.505	0.36364	5.e-002	-5.0635e-006
21157	14.779	0.36364	0.	-7.3505e-002
21158	14.688	0.27273	0.	-3.3465e-002
21159	14.688	0.36364	5.e-002	2.117e-006
21160	14.962	0.36364	0.	-9.1825e-002
21161	14.871	0.27273	0.	-3.5392e-002
21162	14.871	0.36364	5.e-002	3.4691e-006
21163	15.145	0.36364	0.	-0.15955
21164	15.053	0.27273	0.	-3.9441e-002
21165	15.053	0.36364	5.e-002	4.5538e-006
21166	15.327	0.36364	0.	-0.43698
21167	15.236	0.27273	0.	-4.4488e-002
21168	15.236	0.36364	5.e-002	5.3867e-006
21169	15.51	0.36364	0.	-0.89693
21170	15.418	0.27273	0.	-4.7939e-002
21171	15.418	0.36364	5.e-002	4.914e-006
21172	15.692	0.36364	0.	-1.1356
21173	15.601	0.27273	0.	-4.6439e-002
21174	15.601	0.36364	5.e-002	3.6995e-006
21175	15.875	0.36364	0.	-1.0928
21176	15.784	0.27273	0.	-3.8923e-002
21177	15.784	0.36364	5.e-002	2.6443e-006
21178	16.057	0.36364	0.	-0.8067
21179	15.966	0.27273	0.	-2.8156e-002
21180	15.966	0.36364	5.e-002	1.8053e-006
21181	16.24	0.36364	0.	-0.3376
21182	16.149	0.27273	0.	-1.7877e-002
21183	16.149	0.36364	5.e-002	3.0062e-006
21184	16.423	0.36364	0.	-1.4418e-002
21185	16.331	0.27273	0.	-9.9707e-003
21186	16.331	0.36364	5.e-002	1.4217e-006
21187	16.605	0.36364	0.	1.2002e-002
21188	16.514	0.27273	0.	-4.5831e-003
21189	16.514	0.36364	5.e-002	3.303e-006
21190	16.788	0.36364	0.	1.5191e-002
21191	16.697	0.27273	0.	-1.1867e-003
21192	16.697	0.36364	5.e-002	2.9888e-006
21193	16.97	0.36364	0.	1.4812e-002
21194	16.879	0.27273	0.	7.9114e-004
21195	16.879	0.36364	5.e-002	3.2658e-006
21196	17.153	0.36364	0.	1.3359e-002
21197	17.062	0.27273	0.	1.8008e-003
21198	17.062	0.36364	5.e-002	6.3967e-006
21199	17.336	0.36364	0.	1.1489e-002
21200	17.244	0.27273	0.	2.1546e-003
21201	17.244	0.36364	5.e-002	3.1278e-006
21202	17.518	0.36364	0.	9.4401e-003
21203	17.427	0.27273	0.	2.0643e-003
21204	17.427	0.36364	5.e-002	1.7127e-006
21205	17.701	0.36364	0.	7.3151e-003
21206	17.609	0.27273	0.	1.6714e-003
21207	17.609	0.36364	5.e-002	2.4446e-006
21208	17.883	0.36364	0.	5.1638e-003
21209	17.792	0.27273	0.	1.0691e-003
21210	17.792	0.36364	5.e-002	3.453e-006
21211	18.066	0.36364	0.	3.0083e-003
21212	17.975	0.27273	0.	3.2188e-004
21213	17.975	0.36364	5.e-002	3.1559e-006
21214	18.249	0.36364	0.	8.6095e-004
21215	18.157	0.27273	0.	-5.3312e-004
21216	18.157	0.36364	5.e-002	5.8538e-006
21217	18.431	0.36364	0.	-1.2735e-003
21218	18.34	0.27273	0.	-1.4623e-003
21219	18.34	0.36364	5.e-002	8.1854e-006
21220	18.614	0.36364	0.	-3.3986e-003
21221	18.522	0.27273	0.	-2.4512e-003
21222	18.522	0.36364	5.e-002	6.4861e-006
21223	18.796	0.36364	0.	-5.5173e-003
21224	18.705	0.27273	0.	-3.4926e-003
21225	18.705	0.36364	5.e-002	5.8916e-006
21226	18.979	0.36364	0.	-7.6353e-003
21227	18.888	0.27273	0.	-4.5775e-003
21228	18.888	0.36364	5.e-002	7.5804e-006
21229	19.161	0.36364	0.	-9.7616e-003
21230	19.07	0.27273	0.	-5.7052e-003
21231	19.07	0.36364	5.e-002	5.8644e-006
21232	19.344	0.36364	0.	-1.1907e-002
21233	19.253	0.27273	0.	-6.8831e-003
21234	19.253	0.36364	5.e-002	6.3225e-006
21235	19.527	0.36364	0.	-1.4082e-002
21236	19.435	0.27273	0.	-8.1136e-003
21237	19.435	0.36364	5.e-002	6.8914e-006
21238	19.709	0.36364	0.	-1.63e-002
21239	19.618	0.27273	0.	-9.4055e-003
21240	19.618	0.36364	5.e-002	8.1362e-006
21241	19.892	0.36364	0.	-1.8572e-002
21242	19.8	0.27273	0.	-1.077e-002
21243	19.8	0.36364	5.e-002	7.6031e-006
21244	20.074	0.36364	0.	-2.0911e-002
21245	19.983	0.27273	0.	-1.2216e-002
21246	19.983	0.36364	5.e-002	4.2829e-006
21247	20.257	0.36364	0.	-2.3337e-002
21248	20.166	0.27273	0.	-1.376e-002
21249	20.166	0.36364	5.e-002	5.2972e-006
21250	20.44	0.36364	0.	-2.5864e-002
21251	20.348	0.27273	0.	-1.542e-002
21252	20.348	0.36364	5.e-002	3.8988e-006
21253	20.622	0.36364	0.	-2.8508e-002
21254	20.531	0.27273	0.	-1.7212e-002
21255	20.531	0.36364	5.e-002	7.6803e-006
21256	20.805	0.36364	0.	-3.1289e-002
21257	20.713	0.27273	0.	-1.9164e-002
21258	20.713	0.36364	5.e-002	9.0873e-006
21259	20.987	0.36364	0.	-3.4224e-002
21260	20.896	0.27273	0.	-2.1299e-002
21261	20.896	0.36364	5.e-002	8.19e-006
21262	21.17	0.36364	0.	-3.734e-002
21263	21.079	0.27273	0.	-2.3645e-002
21264	21.079	0.36364	5.e-002	4.9888e-006
21265	21.352	0.36364	0.	-4.0659e-002
21266	21.261	0.27273	0.	-2.6251e-002
21267	21.261	0.36364	5.e-002	4.239e-007
21268	21.535	0.36364	0.	-4.42e-002
21269	21.444	0.27273	0.	-2.9155e-002
21270	21.444	0.36364	5.e-002	2.4296e-006
21271	21.718	0.36364	0.	-4.7983e-002
21272	21.626	0.27273	0.	-3.2406e-002
21273	21.626	0.36364	5.e-002	1.1846e-006
21274	21.9	0.36364	0.	-5.2032e-002
21275	21.809	0.27273	0.	-3.6068e-002
21276	21.809	0.36364	5.e-002	6.4164e-006
21277	22.083	0.36364	0.	-5.6359e-002
21278	21.992	0.27273	0.	-4.022e-002
21279	21.992	0.36364	5.e-002	-1.22e-006
21280	22.265	0.36364	0.	-6.096e-002
21281	22.174	0.27273	0.	-4.4947e-002
21282	22.174	0.36364	5.e-002	-2.5171e-008
21283	22.448	0.36364	0.	-6.5787e-002
21284	22.357	0.27273	0.	-5.0357e-002
21285	22.357	0.36364	5.e-002	5.4034e-006
21286	22.631	0.36364	0.	-7.0788e-002
21287	22.539	0.27273	0.	-5.6546e-002
21288	22.539	0.36364	5.e-002	5.8295e-006
21289	22.813	0.36364	0.	-7.5529e-002
21290	22.722	0.27273	0.	-6.3744e-002
21291	22.722	0.36364	5.e-002	7.6666e-006
21292	22.996	0.36364	0.	-8.0216e-002
21293	22.904	0.27273	0.	-7.1575e-002
21294	22.904	0.36364	5.e-002	1.0217e-005
21295	23.178	0.36364	0.	-8.0816e-002
21296	23.087	0.27273	0.	-8.1726e-002
21297	23.087	0.36364	5.e-002	1.0252e-005
21298	23.361	0.36364	0.	-8.5705e-002
21299	23.27	0.27273	0.	-8.6882e-002
21300	23.27	0.36364	5.e-002	1.0362e-005
21301	23.544	0.36364	0.	-4.4746e-002
21302	23.452	0.27273	0.	-0.11092
21303	23.452	0.36364	5.e-002	1.146e-005
21304	23.726	0.36364	0.	-0.15143
21305	23.635	0.27273	0.	-4.9447e-002
21306	23.635	0.36364	5.e-002	1.0668e-005
21307	23.817	0.27273	0.	-0.36995
21308	23.817	0.36364	5.e-002	1.0594e-005
21309	23.909	0.36364	0.	0.18024
21310	12.041	0.18182	0.	-11.939
21311	11.949	0.18182	5.e-002	3.8104e-006
21312	11.949	9.0909e-002	0.	-9.6644
21313	11.858	0.18182	0.	-0.10681
21314	12.223	0.18182	0.	-4.0819
21315	12.132	0.18182	5.e-002	3.5018e-006
21316	12.132	9.0909e-002	0.	-0.66495
21317	12.406	0.18182	0.	-1.8005
21318	12.314	0.18182	5.e-002	2.0368e-006
21319	12.314	9.0909e-002	0.	-0.35371
21320	12.588	0.18182	0.	-0.6312
21321	12.497	0.18182	5.e-002	6.0156e-007
21322	12.497	9.0909e-002	0.	6.8038e-002
21323	12.771	0.18182	0.	-0.19751
21324	12.68	0.18182	5.e-002	5.7862e-007
21325	12.68	9.0909e-002	0.	4.5828e-002
21326	12.953	0.18182	0.	-1.8241e-002
21327	12.862	0.18182	5.e-002	1.1522e-006
21328	12.862	9.0909e-002	0.	4.7154e-002
21329	13.136	0.18182	0.	3.7758e-002
21330	13.045	0.18182	5.e-002	1.2325e-006
21331	13.045	9.0909e-002	0.	3.1764e-002
21332	13.319	0.18182	0.	4.7094e-002
21333	13.227	0.18182	5.e-002	3.6751e-006
21334	13.227	9.0909e-002	0.	2.6018e-002
21335	13.501	0.18182	0.	3.9452e-002
21336	13.41	0.18182	5.e-002	3.9209e-006
21337	13.41	9.0909e-002	0.	2.5145e-002
21338	13.684	0.18182	0.	2.825e-002
21339	13.593	0.18182	5.e-002	4.0639e-006
21340	13.593	9.0909e-002	0.	2.8499e-002
21341	13.866	0.18182	0.	1.8075e-002
21342	13.775	0.18182	5.e-002	4.6025e-006
21343	13.775	9.0909e-002	0.	3.3945e-002
21344	14.049	0.18182	0.	9.9968e-003
21345	13.958	0.18182	5.e-002	5.7991e-006
21346	13.958	9.0909e-002	0.	4.0068e-002
21347	14.232	0.18182	0.	3.643e-003
21348	14.14	0.18182	5.e-002	3.8855e-006
21349	14.14	9.0909e-002	0.	4.5711e-002
21350	14.414	0.18182	0.	-1.7289e-003
21351	14.323	0.18182	5.e-002	3.8933e-006
21352	14.323	9.0909e-002	0.	5.0003e-002
21353	14.597	0.18182	0.	-6.7961e-003
21354	14.505	0.18182	5.e-002	2.0125e-006
21355	14.505	9.0909e-002	0.	5.2276e-002
21356	14.779	0.18182	0.	-1.1957e-002
21357	14.688	0.18182	5.e-002	9.3121e-008
21358	14.688	9.0909e-002	0.	5.2036e-002
21359	14.962	0.18182	0.	-1.7181e-002
21360	14.871	0.18182	5.e-002	-1.8426e-005
21361	14.871	9.0909e-002	0.	4.9071e-002
21362	15.145	0.18182	0.	-2.2026e-002
21363	15.053	0.18182	5.e-002	-8.8344e-005
21364	15.053	9.0909e-002	0.	4.3653e-002
21365	15.327	0.18182	0.	-2.5827e-002
21366	15.236	0.18182	5.e-002	-3.4329e-005
21367	15.236	9.0909e-002	0.	3.6477e-002
21368	15.51	0.18182	0.	-2.7971e-002
21369	15.418	0.18182	5.e-002	-2.755e-005
21370	15.418	9.0909e-002	0.	2.8601e-002
21371	15.692	0.18182	0.	-2.8234e-002
21372	15.601	0.18182	5.e-002	-2.3497e-005
21373	15.601	9.0909e-002	0.	2.1109e-002
21374	15.875	0.18182	0.	-2.6876e-002
21375	15.784	0.18182	5.e-002	-1.5454e-005
21376	15.784	9.0909e-002	0.	1.476e-002
21377	16.057	0.18182	0.	-2.4442e-002
21378	15.966	0.18182	5.e-002	-1.3743e-005
21379	15.966	9.0909e-002	0.	9.8677e-003
21380	16.24	0.18182	0.	-2.1501e-002
21381	16.149	0.18182	5.e-002	-1.2544e-005
21382	16.149	9.0909e-002	0.	6.3766e-003
21383	16.423	0.18182	0.	-1.8488e-002
21384	16.331	0.18182	5.e-002	-9.6866e-006
21385	16.331	9.0909e-002	0.	4.0347e-003
21386	16.605	0.18182	0.	-1.5664e-002
21387	16.514	0.18182	5.e-002	-1.0098e-005
21388	16.514	9.0909e-002	0.	2.5404e-003
21389	16.788	0.18182	0.	-1.315e-002
21390	16.697	0.18182	5.e-002	-4.1957e-006
21391	16.697	9.0909e-002	0.	1.6189e-003
21392	16.97	0.18182	0.	-1.0981e-002
21393	16.879	0.18182	5.e-002	-7.9227e-006
21394	16.879	9.0909e-002	0.	1.0604e-003
21395	17.153	0.18182	0.	-9.1414e-003
21396	17.062	0.18182	5.e-002	-9.3209e-007
21397	17.062	9.0909e-002	0.	7.1296e-004
21398	17.336	0.18182	0.	-7.597e-003
21399	17.244	0.18182	5.e-002	-3.0435e-006
21400	17.244	9.0909e-002	0.	4.7208e-004
21401	17.518	0.18182	0.	-6.305e-003
21402	17.427	0.18182	5.e-002	-1.4071e-006
21403	17.427	9.0909e-002	0.	2.7676e-004
21404	17.701	0.18182	0.	-5.2272e-003
21405	17.609	0.18182	5.e-002	-3.8796e-007
21406	17.609	9.0909e-002	0.	9.0334e-005
21407	17.883	0.18182	0.	-4.328e-003
21408	17.792	0.18182	5.e-002	2.4164e-006
21409	17.792	9.0909e-002	0.	-1.1211e-004
21410	18.066	0.18182	0.	-3.5788e-003
21411	17.975	0.18182	5.e-002	1.4384e-006
21412	17.975	9.0909e-002	0.	-3.3971e-004
21413	18.249	0.18182	0.	-2.9557e-003
21414	18.157	0.18182	5.e-002	3.0421e-006
21415	18.157	9.0909e-002	0.	-5.9591e-004
21416	18.431	0.18182	0.	-2.4376e-003
21417	18.34	0.18182	5.e-002	6.9983e-006
21418	18.34	9.0909e-002	0.	-8.8243e-004
21419	18.614	0.18182	0.	-2.0134e-003
21420	18.522	0.18182	5.e-002	6.3132e-006
21421	18.522	9.0909e-002	0.	-1.1938e-003
21422	18.796	0.18182	0.	-1.6728e-003
21423	18.705	0.18182	5.e-002	4.9377e-006
21424	18.705	9.0909e-002	0.	-1.5299e-003
21425	18.979	0.18182	0.	-1.4051e-003
21426	18.888	0.18182	5.e-002	6.5756e-006
21427	18.888	9.0909e-002	0.	-1.8881e-003
21428	19.161	0.18182	0.	-1.2108e-003
21429	19.07	0.18182	5.e-002	4.2001e-006
21430	19.07	9.0909e-002	0.	-2.2567e-003
21431	19.344	0.18182	0.	-1.0898e-003
21432	19.253	0.18182	5.e-002	2.5437e-006
21433	19.253	9.0909e-002	0.	-2.6462e-003
21434	19.527	0.18182	0.	-1.0412e-003
21435	19.435	0.18182	5.e-002	1.7817e-006
21436	19.435	9.0909e-002	0.	-3.0386e-003
21437	19.709	0.18182	0.	-1.0711e-003
21438	19.618	0.18182	5.e-002	2.3551e-006
21439	19.618	9.0909e-002	0.	-3.4363e-003
21440	19.892	0.18182	0.	-1.1871e-003
21441	19.8	0.18182	5.e-002	3.2797e-006
21442	19.8	9.0909e-002	0.	-3.8365e-003
21443	20.074	0.18182	0.	-1.3978e-003
21444	19.983	0.18182	5.e-002	2.2903e-007
21445	19.983	9.0909e-002	0.	-4.238e-003
21446	20.257	0.18182	0.	-1.7144e-003
21447	20.166	0.18182	5.e-002	2.2698e-006
21448	20.166	9.0909e-002	0.	-4.6292e-003
21449	20.44	0.18182	0.	-2.1538e-003
21450	20.348	0.18182	5.e-002	1.7274e-006
21451	20.348	9.0909e-002	0.	-5.0066e-003
21452	20.622	0.18182	0.	-2.7408e-003
21453	20.531	0.18182	5.e-002	3.4889e-006
21454	20.531	9.0909e-002	0.	-5.3616e-003
21455	20.805	0.18182	0.	-3.5013e-003
21456	20.713	0.18182	5.e-002	2.9157e-006
21457	20.713	9.0909e-002	0.	-5.6984e-003
21458	20.987	0.18182	0.	-4.4631e-003
21459	20.896	0.18182	5.e-002	3.5676e-006
21460	20.896	9.0909e-002	0.	-5.9865e-003
21461	21.17	0.18182	0.	-5.6739e-003
21462	21.079	0.18182	5.e-002	-8.7417e-007
21463	21.079	9.0909e-002	0.	-6.2125e-003
21464	21.352	0.18182	0.	-7.1904e-003
21465	21.261	0.18182	5.e-002	8.8977e-007
21466	21.261	9.0909e-002	0.	-6.3681e-003
21467	21.535	0.18182	0.	-9.0759e-003
21468	21.444	0.18182	5.e-002	7.8798e-007
21469	21.444	9.0909e-002	0.	-6.4201e-003
21470	21.718	0.18182	0.	-1.1418e-002
21471	21.626	0.18182	5.e-002	2.5188e-007
21472	21.626	9.0909e-002	0.	-6.3238e-003
21473	21.9	0.18182	0.	-1.4332e-002
21474	21.809	0.18182	5.e-002	6.561e-006
21475	21.809	9.0909e-002	0.	-6.0329e-003
21476	22.083	0.18182	0.	-1.7966e-002
21477	21.992	0.18182	5.e-002	-7.3253e-006
21478	21.992	9.0909e-002	0.	-5.4598e-003
21479	22.265	0.18182	0.	-2.2521e-002
21480	22.174	0.18182	5.e-002	-1.5187e-007
21481	22.174	9.0909e-002	0.	-4.4895e-003
21482	22.448	0.18182	0.	-2.8265e-002
21483	22.357	0.18182	5.e-002	5.0246e-006
21484	22.357	9.0909e-002	0.	-2.9567e-003
21485	22.631	0.18182	0.	-3.5618e-002
21486	22.539	0.18182	5.e-002	5.9733e-006
21487	22.539	9.0909e-002	0.	-5.6152e-004
21488	22.813	0.18182	0.	-4.4971e-002
21489	22.722	0.18182	5.e-002	2.8103e-006
21490	22.722	9.0909e-002	0.	3.0428e-003
21491	22.996	0.18182	0.	-5.767e-002
21492	22.904	0.18182	5.e-002	7.2724e-006
21493	22.904	9.0909e-002	0.	8.983e-003
21494	23.178	0.18182	0.	-7.2725e-002
21495	23.087	0.18182	5.e-002	2.4518e-006
21496	23.087	9.0909e-002	0.	1.7312e-002
21497	23.361	0.18182	0.	-9.9896e-002
21498	23.27	0.18182	5.e-002	3.642e-006
21499	23.27	9.0909e-002	0.	3.6288e-002
21500	23.544	0.18182	0.	-0.11383
21501	23.452	0.18182	5.e-002	5.2642e-006
21502	23.452	9.0909e-002	0.	5.0617e-002
21503	23.726	0.18182	0.	-0.3043
21504	23.635	0.18182	5.e-002	2.3819e-006
21505	23.635	9.0909e-002	0.	0.14671
21506	23.817	0.18182	5.e-002	5.7385e-006
21507	23.817	9.0909e-002	0.	-6.2071e-002
21508	23.909	0.18182	0.	-1.7948e-002
21509	23.726	0.18182	0.1	0.30431
21510	23.817	0.27273	0.1	0.36995
21511	23.909	0.18182	0.1	1.7948e-002
21512	23.817	9.0909e-002	0.1	6.2071e-002
21513	23.544	0.18182	0.1	0.11383
21514	23.635	0.27273	0.1	4.945e-002
21515	23.635	9.0909e-002	0.1	-0.1467
21516	23.361	0.18182	0.1	9.9895e-002
21517	23.452	0.27273	0.1	0.11092
21518	23.452	9.0909e-002	0.1	-5.0619e-002
21519	23.178	0.18182	0.1	7.2724e-002
21520	23.27	0.27273	0.1	8.6881e-002
21521	23.27	9.0909e-002	0.1	-3.6286e-002
21522	22.996	0.18182	0.1	5.7671e-002
21523	23.087	0.27273	0.1	8.1726e-002
21524	23.087	9.0909e-002	0.1	-1.731e-002
21525	22.813	0.18182	0.1	4.4972e-002
21526	22.904	0.27273	0.1	7.1576e-002
21527	22.904	9.0909e-002	0.1	-8.9821e-003
21528	22.631	0.18182	0.1	3.5619e-002
21529	22.722	0.27273	0.1	6.3744e-002
21530	22.722	9.0909e-002	0.1	-3.0407e-003
21531	22.448	0.18182	0.1	2.8266e-002
21532	22.539	0.27273	0.1	5.6548e-002
21533	22.539	9.0909e-002	0.1	5.6445e-004
21534	22.265	0.18182	0.1	2.2521e-002
21535	22.357	0.27273	0.1	5.0357e-002
21536	22.357	9.0909e-002	0.1	2.9592e-003
21537	22.083	0.18182	0.1	1.7966e-002
21538	22.174	0.27273	0.1	4.4946e-002
21539	22.174	9.0909e-002	0.1	4.4853e-003
21540	21.9	0.18182	0.1	1.4333e-002
21541	21.992	0.27273	0.1	4.0221e-002
21542	21.992	9.0909e-002	0.1	5.4609e-003
21543	21.718	0.18182	0.1	1.1419e-002
21544	21.809	0.27273	0.1	3.6069e-002
21545	21.809	9.0909e-002	0.1	6.0359e-003
21546	21.535	0.18182	0.1	9.0762e-003
21547	21.626	0.27273	0.1	3.2405e-002
21548	21.626	9.0909e-002	0.1	6.3228e-003
21549	21.352	0.18182	0.1	7.1902e-003
21550	21.444	0.27273	0.1	2.9155e-002
21551	21.444	9.0909e-002	0.1	6.4236e-003
21552	21.17	0.18182	0.1	5.6745e-003
21553	21.261	0.27273	0.1	2.6251e-002
21554	21.261	9.0909e-002	0.1	6.3667e-003
21555	20.987	0.18182	0.1	4.4644e-003
21556	21.079	0.27273	0.1	2.3646e-002
21557	21.079	9.0909e-002	0.1	6.2144e-003
21558	20.805	0.18182	0.1	3.5021e-003
21559	20.896	0.27273	0.1	2.13e-002
21560	20.896	9.0909e-002	0.1	5.9892e-003
21561	20.622	0.18182	0.1	2.7416e-003
21562	20.713	0.27273	0.1	1.9165e-002
21563	20.713	9.0909e-002	0.1	5.6985e-003
21564	20.44	0.18182	0.1	2.1541e-003
21565	20.531	0.27273	0.1	1.7212e-002
21566	20.531	9.0909e-002	0.1	5.3644e-003
21567	20.257	0.18182	0.1	1.7148e-003
21568	20.348	0.27273	0.1	1.542e-002
21569	20.348	9.0909e-002	0.1	5.0071e-003
21570	20.074	0.18182	0.1	1.3973e-003
21571	20.166	0.27273	0.1	1.3761e-002
21572	20.166	9.0909e-002	0.1	4.6304e-003
21573	19.892	0.18182	0.1	1.1865e-003
21574	19.983	0.27273	0.1	1.2215e-002
21575	19.983	9.0909e-002	0.1	4.2374e-003
21576	19.709	0.18182	0.1	1.0713e-003
21577	19.8	0.27273	0.1	1.0769e-002
21578	19.8	9.0909e-002	0.1	3.8377e-003
21579	19.527	0.18182	0.1	1.0412e-003
21580	19.618	0.27273	0.1	9.4062e-003
21581	19.618	9.0909e-002	0.1	3.4373e-003
21582	19.344	0.18182	0.1	1.0896e-003
21583	19.435	0.27273	0.1	8.1131e-003
21584	19.435	9.0909e-002	0.1	3.0393e-003
21585	19.161	0.18182	0.1	1.2109e-003
21586	19.253	0.27273	0.1	6.8834e-003
21587	19.253	9.0909e-002	0.1	2.6448e-003
21588	18.979	0.18182	0.1	1.4046e-003
21589	19.07	0.27273	0.1	5.7059e-003
21590	19.07	9.0909e-002	0.1	2.2584e-003
21591	18.796	0.18182	0.1	1.6714e-003
21592	18.888	0.27273	0.1	4.5767e-003
21593	18.888	9.0909e-002	0.1	1.8878e-003
21594	18.614	0.18182	0.1	2.0128e-003
21595	18.705	0.27273	0.1	3.492e-003
21596	18.705	9.0909e-002	0.1	1.5306e-003
21597	18.431	0.18182	0.1	2.4376e-003
21598	18.522	0.27273	0.1	2.452e-003
21599	18.522	9.0909e-002	0.1	1.1944e-003
21600	18.249	0.18182	0.1	2.955e-003
21601	18.34	0.27273	0.1	1.4626e-003
21602	18.34	9.0909e-002	0.1	8.8247e-004
21603	18.066	0.18182	0.1	3.5784e-003
21604	18.157	0.27273	0.1	5.3284e-004
21605	18.157	9.0909e-002	0.1	5.9663e-004
21606	17.883	0.18182	0.1	4.3281e-003
21607	17.975	0.27273	0.1	-3.2065e-004
21608	17.975	9.0909e-002	0.1	3.3992e-004
21609	17.701	0.18182	0.1	5.228e-003
21610	17.792	0.27273	0.1	-1.0694e-003
21611	17.792	9.0909e-002	0.1	1.1319e-004
21612	17.518	0.18182	0.1	6.3061e-003
21613	17.609	0.27273	0.1	-1.6706e-003
21614	17.609	9.0909e-002	0.1	-8.9285e-005
21615	17.336	0.18182	0.1	7.5973e-003
21616	17.427	0.27273	0.1	-2.0645e-003
21617	17.427	9.0909e-002	0.1	-2.7662e-004
21618	17.153	0.18182	0.1	9.1417e-003
21619	17.244	0.27273	0.1	-2.1542e-003
21620	17.244	9.0909e-002	0.1	-4.7083e-004
21621	16.97	0.18182	0.1	1.0981e-002
21622	17.062	0.27273	0.1	-1.8003e-003
21623	17.062	9.0909e-002	0.1	-7.1211e-004
21624	16.788	0.18182	0.1	1.3149e-002
21625	16.879	0.27273	0.1	-7.9081e-004
21626	16.879	9.0909e-002	0.1	-1.0608e-003
21627	16.605	0.18182	0.1	1.5663e-002
21628	16.697	0.27273	0.1	1.1864e-003
21629	16.697	9.0909e-002	0.1	-1.6183e-003
21630	16.423	0.18182	0.1	1.8488e-002
21631	16.514	0.27273	0.1	4.5832e-003
21632	16.514	9.0909e-002	0.1	-2.5401e-003
21633	16.24	0.18182	0.1	2.1501e-002
21634	16.331	0.27273	0.1	9.9704e-003
21635	16.331	9.0909e-002	0.1	-4.0348e-003
21636	16.057	0.18182	0.1	2.4441e-002
21637	16.149	0.27273	0.1	1.7876e-002
21638	16.149	9.0909e-002	0.1	-6.3762e-003
21639	15.875	0.18182	0.1	2.6876e-002
21640	15.966	0.27273	0.1	2.8156e-002
21641	15.966	9.0909e-002	0.1	-9.8675e-003
21642	15.692	0.18182	0.1	2.8234e-002
21643	15.784	0.27273	0.1	3.8924e-002
21644	15.784	9.0909e-002	0.1	-1.4759e-002
21645	15.51	0.18182	0.1	2.7971e-002
21646	15.601	0.27273	0.1	4.644e-002
21647	15.601	9.0909e-002	0.1	-2.1108e-002
21648	15.327	0.18182	0.1	2.5827e-002
21649	15.418	0.27273	0.1	4.7939e-002
21650	15.418	9.0909e-002	0.1	-2.86e-002
21651	15.145	0.18182	0.1	2.2026e-002
21652	15.236	0.27273	0.1	4.4488e-002
21653	15.236	9.0909e-002	0.1	-3.6478e-002
21654	14.962	0.18182	0.1	1.718e-002
21655	15.053	0.27273	0.1	3.9441e-002
21656	15.053	9.0909e-002	0.1	-4.3651e-002
21657	14.779	0.18182	0.1	1.1957e-002
21658	14.871	0.27273	0.1	3.5392e-002
21659	14.871	9.0909e-002	0.1	-4.9071e-002
21660	14.597	0.18182	0.1	6.7957e-003
21661	14.688	0.27273	0.1	3.3465e-002
21662	14.688	9.0909e-002	0.1	-5.2035e-002
21663	14.414	0.18182	0.1	1.7284e-003
21664	14.505	0.27273	0.1	3.3957e-002
21665	14.505	9.0909e-002	0.1	-5.2276e-002
21666	14.232	0.18182	0.1	-3.6437e-003
21667	14.323	0.27273	0.1	3.6771e-002
21668	14.323	9.0909e-002	0.1	-5.0002e-002
21669	14.049	0.18182	0.1	-9.9968e-003
21670	14.14	0.27273	0.1	4.1754e-002
21671	14.14	9.0909e-002	0.1	-4.5711e-002
21672	13.866	0.18182	0.1	-1.8075e-002
21673	13.958	0.27273	0.1	4.8871e-002
21674	13.958	9.0909e-002	0.1	-4.0067e-002
21675	13.684	0.18182	0.1	-2.8251e-002
21676	13.775	0.27273	0.1	5.838e-002
21677	13.775	9.0909e-002	0.1	-3.3945e-002
21678	13.501	0.18182	0.1	-3.9453e-002
21679	13.593	0.27273	0.1	7.1303e-002
21680	13.593	9.0909e-002	0.1	-2.8499e-002
21681	13.319	0.18182	0.1	-4.7094e-002
21682	13.41	0.27273	0.1	9.0642e-002
21683	13.41	9.0909e-002	0.1	-2.5145e-002
21684	13.136	0.18182	0.1	-3.7757e-002
21685	13.227	0.27273	0.1	0.12353
21686	13.227	9.0909e-002	0.1	-2.6017e-002
21687	12.953	0.18182	0.1	1.8242e-002
21688	13.045	0.27273	0.1	0.18864
21689	13.045	9.0909e-002	0.1	-3.1765e-002
21690	12.771	0.18182	0.1	0.19751
21691	12.862	0.27273	0.1	0.32306
21692	12.862	9.0909e-002	0.1	-4.7154e-002
21693	12.588	0.18182	0.1	0.6312
21694	12.68	0.27273	0.1	0.63842
21695	12.68	9.0909e-002	0.1	-4.5828e-002
21696	12.406	0.18182	0.1	1.8005
21697	12.497	0.27273	0.1	1.2856
21698	12.497	9.0909e-002	0.1	-6.8037e-002
21699	12.223	0.18182	0.1	4.0819
21700	12.314	0.27273	0.1	3.0364
21701	12.314	9.0909e-002	0.1	0.35371
21702	12.041	0.18182	0.1	11.939
21703	12.132	0.27273	0.1	5.1555
21704	12.132	9.0909e-002	0.1	0.66495
21705	11.949	0.27273	0.1	11.496
21706	11.858	0.18182	0.1	0.10681
21707	11.949	9.0909e-002	0.1	9.6644
21708	23.726	0.36364	0.1	0.15143
21709	23.817	0.45455	0.1	0.13657
21710	23.909	0.36364	0.1	-0.18024
21711	23.544	0.36364	0.1	4.4746e-002
21712	23.635	0.45455	0.1	-0.10385
21713	23.361	0.36364	0.1	8.5705e-002
21714	23.452	0.45455	0.1	2.3382e-002
21715	23.178	0.36364	0.1	8.0815e-002
21716	23.27	0.45455	0.1	2.0597e-002
21717	22.996	0.36364	0.1	8.0216e-002
21718	23.087	0.45455	0.1	3.4101e-002
21719	22.813	0.36364	0.1	7.5528e-002
21720	22.904	0.45455	0.1	3.6028e-002
21721	22.631	0.36364	0.1	7.0789e-002
21722	22.722	0.45455	0.1	3.7113e-002
21723	22.448	0.36364	0.1	6.5788e-002
21724	22.539	0.45455	0.1	3.6446e-002
21725	22.265	0.36364	0.1	6.0959e-002
21726	22.357	0.45455	0.1	3.517e-002
21727	22.083	0.36364	0.1	5.6359e-002
21728	22.174	0.45455	0.1	3.3496e-002
21729	21.9	0.36364	0.1	5.2032e-002
21730	21.992	0.45455	0.1	3.165e-002
21731	21.718	0.36364	0.1	4.7983e-002
21732	21.809	0.45455	0.1	2.9736e-002
21733	21.535	0.36364	0.1	4.42e-002
21734	21.626	0.45455	0.1	2.7819e-002
21735	21.352	0.36364	0.1	4.0659e-002
21736	21.444	0.45455	0.1	2.5932e-002
21737	21.17	0.36364	0.1	3.734e-002
21738	21.261	0.45455	0.1	2.4095e-002
21739	20.987	0.36364	0.1	3.4225e-002
21740	21.079	0.45455	0.1	2.2319e-002
21741	20.805	0.36364	0.1	3.129e-002
21742	20.896	0.45455	0.1	2.0613e-002
21743	20.622	0.36364	0.1	2.8509e-002
21744	20.713	0.45455	0.1	1.8964e-002
21745	20.44	0.36364	0.1	2.5864e-002
21746	20.531	0.45455	0.1	1.7371e-002
21747	20.257	0.36364	0.1	2.3338e-002
21748	20.348	0.45455	0.1	1.5833e-002
21749	20.074	0.36364	0.1	2.0912e-002
21750	20.166	0.45455	0.1	1.4341e-002
21751	19.892	0.36364	0.1	1.8571e-002
21752	19.983	0.45455	0.1	1.2889e-002
21753	19.709	0.36364	0.1	1.63e-002
21754	19.8	0.45455	0.1	1.1471e-002
21755	19.527	0.36364	0.1	1.4082e-002
21756	19.618	0.45455	0.1	1.0075e-002
21757	19.344	0.36364	0.1	1.1907e-002
21758	19.435	0.45455	0.1	8.6954e-003
21759	19.161	0.36364	0.1	9.763e-003
21760	19.253	0.45455	0.1	7.3273e-003
21761	18.979	0.36364	0.1	7.6359e-003
21762	19.07	0.45455	0.1	5.9615e-003
21763	18.796	0.36364	0.1	5.5172e-003
21764	18.888	0.45455	0.1	4.586e-003
21765	18.614	0.36364	0.1	3.3993e-003
21766	18.705	0.45455	0.1	3.2002e-003
21767	18.431	0.36364	0.1	1.2746e-003
21768	18.522	0.45455	0.1	1.7921e-003
21769	18.249	0.36364	0.1	-8.602e-004
21770	18.34	0.45455	0.1	3.5573e-004
21771	18.066	0.36364	0.1	-3.007e-003
21772	18.157	0.45455	0.1	-1.1179e-003
21773	17.883	0.36364	0.1	-5.1632e-003
21774	17.975	0.45455	0.1	-2.6352e-003
21775	17.701	0.36364	0.1	-7.3155e-003
21776	17.792	0.45455	0.1	-4.206e-003
21777	17.518	0.36364	0.1	-9.4407e-003
21778	17.609	0.45455	0.1	-5.8365e-003
21779	17.336	0.36364	0.1	-1.149e-002
21780	17.427	0.45455	0.1	-7.5388e-003
21781	17.153	0.36364	0.1	-1.3359e-002
21782	17.244	0.45455	0.1	-9.3126e-003
21783	16.97	0.36364	0.1	-1.4811e-002
21784	17.062	0.45455	0.1	-1.1128e-002
21785	16.788	0.36364	0.1	-1.519e-002
21786	16.879	0.45455	0.1	-5.7093e-003
21787	16.605	0.36364	0.1	-1.2002e-002
21788	16.697	0.45455	0.1	1.0511
21789	16.423	0.36364	0.1	1.4418e-002
21790	16.514	0.45455	0.1	2.0467
21791	16.24	0.36364	0.1	0.33761
21792	16.331	0.45455	0.1	2.9208
21793	16.057	0.36364	0.1	0.8067
21794	16.149	0.45455	0.1	3.6373
21795	15.875	0.36364	0.1	1.0928
21796	15.966	0.45455	0.1	4.1534
21797	15.692	0.36364	0.1	1.1356
21798	15.784	0.45455	0.1	4.4188
21799	15.51	0.36364	0.1	0.89694
21800	15.601	0.45455	0.1	4.3762
21801	15.327	0.36364	0.1	0.43698
21802	15.418	0.45455	0.1	3.9619
21803	15.145	0.36364	0.1	0.15956
21804	15.236	0.45455	0.1	3.1118
21805	14.962	0.36364	0.1	9.1826e-002
21806	15.053	0.45455	0.1	1.8012
21807	14.779	0.36364	0.1	7.3505e-002
21808	14.871	0.45455	0.1	0.50702
21809	14.597	0.36364	0.1	7.1445e-002
21810	14.688	0.45455	0.1	0.1968
21811	14.414	0.36364	0.1	7.8019e-002
21812	14.505	0.45455	0.1	0.14023
21813	14.232	0.36364	0.1	9.097e-002
21814	14.323	0.45455	0.1	0.12811
21815	14.049	0.36364	0.1	0.10976
21816	14.14	0.45455	0.1	0.13331
21817	13.866	0.36364	0.1	0.13467
21818	13.958	0.45455	0.1	0.15
21819	13.684	0.36364	0.1	0.16667
21820	13.775	0.45455	0.1	0.17754
21821	13.501	0.36364	0.1	0.20792
21822	13.593	0.45455	0.1	0.21784
21823	13.319	0.36364	0.1	0.26292
21824	13.41	0.45455	0.1	0.27548
21825	13.136	0.36364	0.1	0.34236
21826	13.227	0.45455	0.1	0.35888
21827	12.953	0.36364	0.1	0.46884
21828	13.045	0.45455	0.1	0.48607
21829	12.771	0.36364	0.1	0.70566
21830	12.862	0.45455	0.1	0.68691
21831	12.588	0.36364	0.1	1.1609
21832	12.68	0.45455	0.1	1.0477
21833	12.406	0.36364	0.1	2.2373
21834	12.497	0.45455	0.1	1.6216
21835	12.223	0.36364	0.1	3.7404
21836	12.314	0.45455	0.1	2.8316
21837	12.041	0.36364	0.1	6.9335
21838	12.132	0.45455	0.1	3.0437
21839	11.949	0.45455	0.1	6.7468
21840	11.858	0.36364	0.1	-2.2525
21841	23.726	0.54545	0.1	-5.5969e-002
21842	23.817	0.63636	0.1	-1.01e-002
21843	23.909	0.54545	0.1	-0.37185
21844	23.544	0.54545	0.1	-0.10492
21845	23.635	0.63636	0.1	-0.20686
21846	23.361	0.54545	0.1	-3.1083e-002
21847	23.452	0.63636	0.1	-5.2289e-002
21848	23.178	0.54545	0.1	-1.9489e-002
21849	23.27	0.63636	0.1	-4.493e-002
21850	22.996	0.54545	0.1	-5.6222e-003
21851	23.087	0.63636	0.1	-2.1733e-002
21852	22.813	0.54545	0.1	7.4668e-004
21853	22.904	0.63636	0.1	-1.2612e-002
21854	22.631	0.54545	0.1	5.0265e-003
21855	22.722	0.63636	0.1	-5.5338e-003
21856	22.448	0.54545	0.1	7.4753e-003
21857	22.539	0.63636	0.1	-1.2603e-003
21858	22.265	0.54545	0.1	8.917e-003
21859	22.357	0.63636	0.1	1.6277e-003
21860	22.083	0.54545	0.1	9.6744e-003
21861	22.174	0.63636	0.1	3.4959e-003
21862	21.9	0.54545	0.1	9.9972e-003
21863	21.992	0.63636	0.1	4.7048e-003
21864	21.718	0.54545	0.1	1.0029e-002
21865	21.809	0.63636	0.1	5.4542e-003
21866	21.535	0.54545	0.1	9.8639e-003
21867	21.626	0.63636	0.1	5.8817e-003
21868	21.352	0.54545	0.1	9.5663e-003
21869	21.444	0.63636	0.1	6.0799e-003
21870	21.17	0.54545	0.1	9.1821e-003
21871	21.261	0.63636	0.1	6.1129e-003
21872	20.987	0.54545	0.1	8.7429e-003
21873	21.079	0.63636	0.1	6.0299e-003
21874	20.805	0.54545	0.1	8.2652e-003
21875	20.896	0.63636	0.1	5.8653e-003
21876	20.622	0.54545	0.1	7.7589e-003
21877	20.713	0.63636	0.1	5.6334e-003
21878	20.44	0.54545	0.1	7.2359e-003
21879	20.531	0.63636	0.1	5.3529e-003
21880	20.257	0.54545	0.1	6.7028e-003
21881	20.348	0.63636	0.1	5.0389e-003
21882	20.074	0.54545	0.1	6.1641e-003
21883	20.166	0.63636	0.1	4.6988e-003
21884	19.892	0.54545	0.1	5.6202e-003
21885	19.983	0.63636	0.1	4.3385e-003
21886	19.709	0.54545	0.1	5.0684e-003
21887	19.8	0.63636	0.1	3.9618e-003
21888	19.527	0.54545	0.1	4.508e-003
21889	19.618	0.63636	0.1	3.5692e-003
21890	19.344	0.54545	0.1	3.9392e-003
21891	19.435	0.63636	0.1	3.1625e-003
21892	19.161	0.54545	0.1	3.3606e-003
21893	19.253	0.63636	0.1	2.747e-003
21894	18.979	0.54545	0.1	2.7666e-003
21895	19.07	0.63636	0.1	2.3224e-003
21896	18.796	0.54545	0.1	2.1557e-003
21897	18.888	0.63636	0.1	1.8892e-003
21898	18.614	0.54545	0.1	1.5265e-003
21899	18.705	0.63636	0.1	1.4569e-003
21900	18.431	0.54545	0.1	8.7465e-004
21901	18.522	0.63636	0.1	1.0323e-003
21902	18.249	0.54545	0.1	1.9762e-004
21903	18.34	0.63636	0.1	6.3589e-004
21904	18.066	0.54545	0.1	-5.0172e-004
21905	18.157	0.63636	0.1	3.1485e-004
21906	17.883	0.54545	0.1	-1.2122e-003
21907	17.975	0.63636	0.1	1.9159e-004
21908	17.701	0.54545	0.1	-1.8966e-003
21909	17.792	0.63636	0.1	6.6808e-004
21910	17.518	0.54545	0.1	-2.4e-003
21911	17.609	0.63636	0.1	4.1266e-003
21912	17.336	0.54545	0.1	-1.5933e-003
21913	17.427	0.63636	0.1	0.3083
21914	17.153	0.54545	0.1	0.41951
21915	17.244	0.63636	0.1	1.8571
21916	16.97	0.54545	0.1	1.7536
21917	17.062	0.63636	0.1	3.4056
21918	16.788	0.54545	0.1	3.0334
21919	16.879	0.63636	0.1	4.9129
21920	16.605	0.54545	0.1	4.2302
21921	16.697	0.63636	0.1	6.3557
21922	16.423	0.54545	0.1	5.3136
21923	16.514	0.63636	0.1	7.7057
21924	16.24	0.54545	0.1	6.247
21925	16.331	0.63636	0.1	8.929
21926	16.057	0.54545	0.1	6.9868
21927	16.149	0.63636	0.1	9.9841
21928	15.875	0.54545	0.1	7.4814
21929	15.966	0.63636	0.1	10.822
21930	15.692	0.54545	0.1	7.6709
21931	15.784	0.63636	0.1	11.384
21932	15.51	0.54545	0.1	7.4872
21933	15.601	0.63636	0.1	11.604
21934	15.327	0.54545	0.1	6.8547
21935	15.418	0.63636	0.1	11.407
21936	15.145	0.54545	0.1	5.695
21937	15.236	0.63636	0.1	10.707
21938	14.962	0.54545	0.1	3.9463
21939	15.053	0.63636	0.1	9.4154
21940	14.779	0.54545	0.1	1.7323
21941	14.871	0.63636	0.1	7.4492
21942	14.597	0.54545	0.1	0.46829
21943	14.688	0.63636	0.1	4.7767
21944	14.414	0.54545	0.1	0.25868
21945	14.505	0.63636	0.1	1.8443
21946	14.232	0.54545	0.1	0.2099
21947	14.323	0.63636	0.1	0.63537
21948	14.049	0.54545	0.1	0.20294
21949	14.14	0.63636	0.1	0.41735
21950	13.866	0.54545	0.1	0.21778
21951	13.958	0.63636	0.1	0.36734
21952	13.684	0.54545	0.1	0.25106
21953	13.775	0.63636	0.1	0.37302
21954	13.501	0.54545	0.1	0.30543
21955	13.593	0.63636	0.1	0.41315
21956	13.319	0.54545	0.1	0.38802
21957	13.41	0.63636	0.1	0.48591
21958	13.136	0.54545	0.1	0.51269
21959	13.227	0.63636	0.1	0.59737
21960	12.953	0.54545	0.1	0.70165
21961	13.045	0.63636	0.1	0.76187
21962	12.771	0.54545	0.1	1.004
21963	12.862	0.63636	0.1	0.99533
21964	12.588	0.54545	0.1	1.4572
21965	12.68	0.63636	0.1	1.3427
21966	12.406	0.54545	0.1	2.2263
21967	12.497	0.63636	0.1	1.7436
21968	12.223	0.54545	0.1	2.6624
21969	12.314	0.63636	0.1	2.4616
21970	12.041	0.54545	0.1	4.6538
21971	12.132	0.63636	0.1	1.8225
21972	11.949	0.63636	0.1	5.6722
21973	11.858	0.54545	0.1	-1.4537
21974	23.726	0.72727	0.1	-9.7859e-002
21975	23.817	0.81818	0.1	-6.1196e-002
21976	23.909	0.72727	0.1	-0.38456
21977	23.544	0.72727	0.1	-0.1374
21978	23.635	0.81818	0.1	-0.2408
21979	23.361	0.72727	0.1	-5.8061e-002
21980	23.452	0.81818	0.1	-7.9229e-002
21981	23.178	0.72727	0.1	-4.2154e-002
21982	23.27	0.81818	0.1	-6.7992e-002
21983	22.996	0.72727	0.1	-2.5194e-002
21984	23.087	0.81818	0.1	-4.1994e-002
21985	22.813	0.72727	0.1	-1.625e-002
21986	22.904	0.81818	0.1	-3.0619e-002
21987	22.631	0.72727	0.1	-9.7668e-003
21988	22.722	0.81818	0.1	-2.155e-002
21989	22.448	0.72727	0.1	-5.4733e-003
21990	22.539	0.81818	0.1	-1.5571e-002
21991	22.265	0.72727	0.1	-2.4712e-003
21992	22.357	0.81818	0.1	-1.1201e-002
21993	22.083	0.72727	0.1	-3.922e-004
21994	22.174	0.81818	0.1	-8.045e-003
21995	21.9	0.72727	0.1	1.0531e-003
21996	21.992	0.81818	0.1	-5.7137e-003
21997	21.718	0.72727	0.1	2.0444e-003
21998	21.809	0.81818	0.1	-3.9848e-003
21999	21.535	0.72727	0.1	2.7093e-003
22000	21.626	0.81818	0.1	-2.6949e-003
22001	21.352	0.72727	0.1	3.133e-003
22002	21.444	0.81818	0.1	-1.7309e-003
22003	21.17	0.72727	0.1	3.3784e-003
22004	21.261	0.81818	0.1	-1.0179e-003
22005	20.987	0.72727	0.1	3.4942e-003
22006	21.079	0.81818	0.1	-4.8913e-004
22007	20.805	0.72727	0.1	3.5098e-003
22008	20.896	0.81818	0.1	-9.9773e-005
22009	20.622	0.72727	0.1	3.4465e-003
22010	20.713	0.81818	0.1	1.7223e-004
22011	20.44	0.72727	0.1	3.3246e-003
22012	20.531	0.81818	0.1	3.5422e-004
22013	20.257	0.72727	0.1	3.1588e-003
22014	20.348	0.81818	0.1	4.7099e-004
22015	20.074	0.72727	0.1	2.9572e-003
22016	20.166	0.81818	0.1	5.3318e-004
22017	19.892	0.72727	0.1	2.7283e-003
22018	19.983	0.81818	0.1	5.5286e-004
22019	19.709	0.72727	0.1	2.4787e-003
22020	19.8	0.81818	0.1	5.4127e-004
22021	19.527	0.72727	0.1	2.2114e-003
22022	19.618	0.81818	0.1	5.0753e-004
22023	19.344	0.72727	0.1	1.9337e-003
22024	19.435	0.81818	0.1	4.5956e-004
22025	19.161	0.72727	0.1	1.6527e-003
22026	19.253	0.81818	0.1	4.12e-004
22027	18.979	0.72727	0.1	1.3764e-003
22028	19.07	0.81818	0.1	3.781e-004
22029	18.796	0.72727	0.1	1.1204e-003
22030	18.888	0.81818	0.1	3.8319e-004
22031	18.614	0.72727	0.1	9.1153e-004
22032	18.705	0.81818	0.1	4.7509e-004
22033	18.431	0.72727	0.1	8.0236e-004
22034	18.522	0.81818	0.1	7.4435e-004
22035	18.249	0.72727	0.1	9.1858e-004
22036	18.34	0.81818	0.1	1.4164e-003
22037	18.066	0.72727	0.1	1.6148e-003
22038	18.157	0.81818	0.1	3.2006e-003
22039	17.883	0.72727	0.1	4.3832e-003
22040	17.975	0.81818	0.1	9.964e-003
22041	17.701	0.72727	0.1	3.1569e-002
22042	17.792	0.81818	0.1	0.29407
22043	17.518	0.72727	0.1	1.3188
22044	17.609	0.81818	0.1	2.168
22045	17.336	0.72727	0.1	3.0736
22046	17.427	0.81818	0.1	4.1179
22047	17.153	0.72727	0.1	4.8206
22048	17.244	0.81818	0.1	6.0741
22049	16.97	0.72727	0.1	6.54
22050	17.062	0.81818	0.1	8.0218
22051	16.788	0.72727	0.1	8.2109
22052	16.879	0.81818	0.1	9.9438
22053	16.605	0.72727	0.1	9.8074
22054	16.697	0.81818	0.1	11.818
22055	16.423	0.72727	0.1	11.298
22056	16.514	0.81818	0.1	13.617
22057	16.24	0.72727	0.1	12.643
22058	16.331	0.81818	0.1	15.306
22059	16.057	0.72727	0.1	13.796
22060	16.149	0.81818	0.1	16.843
22061	15.875	0.72727	0.1	14.701
22062	15.966	0.81818	0.1	18.179
22063	15.692	0.72727	0.1	15.295
22064	15.784	0.81818	0.1	19.253
22065	15.51	0.72727	0.1	15.501
22066	15.601	0.81818	0.1	19.997
22067	15.327	0.72727	0.1	15.238
22068	15.418	0.81818	0.1	20.331
22069	15.145	0.72727	0.1	14.413
22070	15.236	0.81818	0.1	20.168
22071	14.962	0.72727	0.1	12.93
22072	15.053	0.81818	0.1	19.41
22073	14.779	0.72727	0.1	10.697
22074	14.871	0.81818	0.1	17.955
22075	14.597	0.72727	0.1	7.6602
22076	14.688	0.81818	0.1	15.701
22077	14.414	0.72727	0.1	4.0083
22078	14.505	0.81818	0.1	12.565
22079	14.232	0.72727	0.1	1.3943
22080	14.323	0.81818	0.1	8.5509
22081	14.049	0.72727	0.1	0.76175
22082	14.14	0.81818	0.1	4.1948
22083	13.866	0.72727	0.1	0.61832
22084	13.958	0.81818	0.1	1.7421
22085	13.684	0.72727	0.1	0.59978
22086	13.775	0.81818	0.1	1.1312
22087	13.501	0.72727	0.1	0.64198
22088	13.593	0.81818	0.1	0.97892
22089	13.319	0.72727	0.1	0.73149
22090	13.41	0.81818	0.1	0.97368
22091	13.136	0.72727	0.1	0.8704
22092	13.227	0.81818	0.1	1.0469
22093	12.953	0.72727	0.1	1.0651
22094	13.045	0.81818	0.1	1.1815
22095	12.771	0.72727	0.1	1.3315
22096	12.862	0.81818	0.1	1.3656
22097	12.588	0.72727	0.1	1.639
22098	12.68	0.81818	0.1	1.6138
22099	12.406	0.72727	0.1	2.0813
22100	12.497	0.81818	0.1	1.8146
22101	12.223	0.72727	0.1	1.936
22102	12.314	0.81818	0.1	2.2722
22103	12.041	0.72727	0.1	3.6802
22104	12.132	0.81818	0.1	1.2188
22105	11.949	0.81818	0.1	5.3965
22106	11.858	0.72727	0.1	-1.4385
22107	23.726	0.90909	0.1	-0.13798
22108	23.817	1.	0.1	-0.10228
22109	23.909	0.90909	0.1	-0.40767
22110	23.544	0.90909	0.1	-0.16691
22111	23.635	1.	0.1	-0.26708
22112	23.361	0.90909	0.1	-8.2436e-002
22113	23.452	1.	0.1	-9.9197e-002
22114	23.178	0.90909	0.1	-6.3963e-002
22115	23.27	1.	0.1	-8.5887e-002
22116	22.996	0.90909	0.1	-4.4799e-002
22117	23.087	1.	0.1	-5.8094e-002
22118	22.813	0.90909	0.1	-3.398e-002
22119	22.904	1.	0.1	-4.5307e-002
22120	22.631	0.90909	0.1	-2.5842e-002
22121	22.722	1.	0.1	-3.4986e-002
22122	22.448	0.90909	0.1	-2.0081e-002
22123	22.539	1.	0.1	-2.7884e-002
22124	22.265	0.90909	0.1	-1.5773e-002
22125	22.357	1.	0.1	-2.25e-002
22126	22.083	0.90909	0.1	-1.2531e-002
22127	22.174	1.	0.1	-1.8428e-002
22128	21.9	0.90909	0.1	-1.0048e-002
22129	21.992	1.	0.1	-1.5269e-002
22130	21.718	0.90909	0.1	-8.1273e-003
22131	21.809	1.	0.1	-1.2793e-002
22132	21.535	0.90909	0.1	-6.6273e-003
22133	21.626	1.	0.1	-1.0826e-002
22134	21.352	0.90909	0.1	-5.4491e-003
22135	21.444	1.	0.1	-9.2494e-003
22136	21.17	0.90909	0.1	-4.5173e-003
22137	21.261	1.	0.1	-7.9757e-003
22138	20.987	0.90909	0.1	-3.7713e-003
22139	21.079	1.	0.1	-6.9327e-003
22140	20.805	0.90909	0.1	-3.1751e-003
22141	20.896	1.	0.1	-6.068e-003
22142	20.622	0.90909	0.1	-2.7022e-003
22143	20.713	1.	0.1	-5.3571e-003
22144	20.44	0.90909	0.1	-2.3217e-003
22145	20.531	1.	0.1	-4.7648e-003
22146	20.257	0.90909	0.1	-2.014e-003
22147	20.348	1.	0.1	-4.2608e-003
22148	20.074	0.90909	0.1	-1.765e-003
22149	20.166	1.	0.1	-3.8314e-003
22150	19.892	0.90909	0.1	-1.5606e-003
22151	19.983	1.	0.1	-3.4586e-003
22152	19.709	0.90909	0.1	-1.3876e-003
22153	19.8	1.	0.1	-3.1278e-003
22154	19.527	0.90909	0.1	-1.2325e-003
22155	19.618	1.	0.1	-2.8201e-003
22156	19.344	0.90909	0.1	-1.0801e-003
22157	19.435	1.	0.1	-2.5206e-003
22158	19.161	0.90909	0.1	-9.0989e-004
22159	19.253	1.	0.1	-2.2031e-003
22160	18.979	0.90909	0.1	-6.9028e-004
22161	19.07	1.	0.1	-1.8312e-003
22162	18.796	0.90909	0.1	-3.6041e-004
22163	18.888	1.	0.1	-1.3378e-003
22164	18.614	0.90909	0.1	2.0267e-004
22165	18.705	1.	0.1	-5.8121e-004
22166	18.431	0.90909	0.1	1.3078e-003
22167	18.522	1.	0.1	7.9838e-004
22168	18.249	0.90909	0.1	4.0096e-003
22169	18.34	1.	0.1	4.0808e-003
22170	18.066	0.90909	0.1	1.5521e-002
22171	18.157	1.	0.1	1.9286e-002
22172	17.883	0.90909	0.1	0.72933
22173	17.975	1.	0.1	1.0035
22174	17.701	0.90909	0.1	2.8132
22175	17.792	1.	0.1	3.2596
22176	17.518	0.90909	0.1	4.944
22177	17.609	1.	0.1	5.5685
22178	17.336	0.90909	0.1	7.0939
22179	17.427	1.	0.1	7.9116
22180	17.153	0.90909	0.1	9.2513
22181	17.244	1.	0.1	10.281
22182	16.97	0.90909	0.1	11.402
22183	17.062	1.	0.1	12.667
22184	16.788	0.90909	0.1	13.528
22185	16.879	1.	0.1	15.056
22186	16.605	0.90909	0.1	15.605
22187	16.697	1.	0.1	17.428
22188	16.423	0.90909	0.1	17.603
22189	16.514	1.	0.1	19.759
22190	16.24	0.90909	0.1	19.484
22191	16.331	1.	0.1	22.018
22192	16.057	0.90909	0.1	21.204
22193	16.149	1.	0.1	24.167
22194	15.875	0.90909	0.1	22.708
22195	15.966	1.	0.1	26.158
22196	15.692	0.90909	0.1	23.932
22197	15.784	1.	0.1	27.937
22198	15.51	0.90909	0.1	24.803
22199	15.601	1.	0.1	29.438
22200	15.327	0.90909	0.1	25.238
22201	15.418	1.	0.1	30.585
22202	15.145	0.90909	0.1	25.143
22203	15.236	1.	0.1	31.293
22204	14.962	0.90909	0.1	24.417
22205	15.053	1.	0.1	31.465
22206	14.779	0.90909	0.1	22.953
22207	14.871	1.	0.1	30.997
22208	14.597	0.90909	0.1	20.642
22209	14.688	1.	0.1	29.776
22210	14.414	0.90909	0.1	17.387
22211	14.505	1.	0.1	27.683
22212	14.232	0.90909	0.1	13.142
22213	14.323	1.	0.1	24.597
22214	14.049	0.90909	0.1	8.109
22215	14.14	1.	0.1	20.406
22216	13.866	0.90909	0.1	3.7345
22217	13.958	1.	0.1	15.074
22218	13.684	0.90909	0.1	2.0073
22219	13.775	1.	0.1	8.9898
22220	13.501	0.90909	0.1	1.5347
22221	13.593	1.	0.1	4.3097
22222	13.319	0.90909	0.1	1.4091
22223	13.41	1.	0.1	2.578
22224	13.136	0.90909	0.1	1.4223
22225	13.227	1.	0.1	2.0378
22226	12.953	0.90909	0.1	1.5114
22227	13.045	1.	0.1	1.8614
22228	12.771	0.90909	0.1	1.6609
22229	12.862	1.	0.1	1.8331
22230	12.588	0.90909	0.1	1.8138
22231	12.68	1.	0.1	1.9158
22232	12.406	0.90909	0.1	2.0746
22233	12.497	1.	0.1	1.9529
22234	12.223	0.90909	0.1	1.6992
22235	12.314	1.	0.1	2.3946
22236	12.041	0.90909	0.1	3.4613
22237	12.132	1.	0.1	0.96866
22238	11.949	1.	0.1	6.1194
22239	11.858	0.90909	0.1	-1.6737
22240	23.726	1.0909	0.1	-0.16172
22241	23.817	1.1818	0.1	-0.13042
22242	23.909	1.0909	0.1	-0.41785
22243	23.544	1.0909	0.1	-0.1838
22244	23.635	1.1818	0.1	-0.28398
22245	23.361	1.0909	0.1	-9.6442e-002
22246	23.452	1.1818	0.1	-0.1119
22247	23.178	1.0909	0.1	-7.6692e-002
22248	23.27	1.1818	0.1	-9.7329e-002
22249	22.996	1.0909	0.1	-5.6464e-002
22250	23.087	1.1818	0.1	-6.8494e-002
22251	22.813	1.0909	0.1	-4.4781e-002
22252	22.904	1.1818	0.1	-5.4968e-002
22253	22.631	1.0909	0.1	-3.5853e-002
22254	22.722	1.1818	0.1	-4.3994e-002
22255	22.448	1.0909	0.1	-2.9362e-002
22256	22.539	1.1818	0.1	-3.6293e-002
22257	22.265	1.0909	0.1	-2.4379e-002
22258	22.357	1.1818	0.1	-3.0354e-002
22259	22.083	1.0909	0.1	-2.0515e-002
22260	22.174	1.1818	0.1	-2.5762e-002
22261	21.9	1.0909	0.1	-1.746e-002
22262	21.992	1.1818	0.1	-2.212e-002
22263	21.718	1.0909	0.1	-1.5016e-002
22264	21.809	1.1818	0.1	-1.9197e-002
22265	21.535	1.0909	0.1	-1.3037e-002
22266	21.626	1.1818	0.1	-1.6814e-002
22267	21.352	1.0909	0.1	-1.1419e-002
22268	21.444	1.1818	0.1	-1.4854e-002
22269	21.17	1.0909	0.1	-1.0082e-002
22270	21.261	1.1818	0.1	-1.3225e-002
22271	20.987	1.0909	0.1	-8.9616e-003
22272	21.079	1.1818	0.1	-1.1853e-002
22273	20.805	1.0909	0.1	-8.0192e-003
22274	20.896	1.1818	0.1	-1.0682e-002
22275	20.622	1.0909	0.1	-7.2227e-003
22276	20.713	1.1818	0.1	-9.6837e-003
22277	20.44	1.0909	0.1	-6.5378e-003
22278	20.531	1.1818	0.1	-8.8223e-003
22279	20.257	1.0909	0.1	-5.9414e-003
22280	20.348	1.1818	0.1	-8.0633e-003
22281	20.074	1.0909	0.1	-5.4164e-003
22282	20.166	1.1818	0.1	-7.3904e-003
22283	19.892	1.0909	0.1	-4.9449e-003
22284	19.983	1.1818	0.1	-6.7843e-003
22285	19.709	1.0909	0.1	-4.5077e-003
22286	19.8	1.1818	0.1	-6.2236e-003
22287	19.527	1.0909	0.1	-4.0857e-003
22288	19.618	1.1818	0.1	-5.6879e-003
22289	19.344	1.0909	0.1	-3.6541e-003
22290	19.435	1.1818	0.1	-5.1517e-003
22291	19.161	1.0909	0.1	-3.1736e-003
22292	19.253	1.1818	0.1	-4.5796e-003
22293	18.979	1.0909	0.1	-2.5764e-003
22294	19.07	1.1818	0.1	-3.9053e-003
22295	18.796	1.0909	0.1	-1.7228e-003
22296	18.888	1.1818	0.1	-2.9987e-003
22297	18.614	1.0909	0.1	-2.5252e-004
22298	18.705	1.1818	0.1	-1.5371e-003
22299	18.431	1.0909	0.1	3.1183e-003
22300	18.522	1.1818	0.1	1.6035e-003
22301	18.249	1.0909	0.1	1.8672e-002
22302	18.34	1.1818	0.1	1.4647e-002
22303	18.066	1.0909	0.1	1.1009
22304	18.157	1.1818	0.1	1.0028
22305	17.883	1.0909	0.1	3.5148
22306	17.975	1.1818	0.1	3.5605
22307	17.701	1.0909	0.1	5.9901
22308	17.792	1.1818	0.1	6.1927
22309	17.518	1.0909	0.1	8.5119
22310	17.609	1.1818	0.1	8.8843
22311	17.336	1.0909	0.1	11.076
22312	17.427	1.1818	0.1	11.634
22313	17.153	1.0909	0.1	13.675
22314	17.244	1.1818	0.1	14.44
22315	16.97	1.0909	0.1	16.299
22316	17.062	1.1818	0.1	17.295
22317	16.788	1.0909	0.1	18.934
22318	16.879	1.1818	0.1	20.192
22319	16.605	1.0909	0.1	21.56
22320	16.697	1.1818	0.1	23.115
22321	16.423	1.0909	0.1	24.153
22322	16.514	1.1818	0.1	26.048
22323	16.24	1.0909	0.1	26.68
22324	16.331	1.1818	0.1	28.964
22325	16.057	1.0909	0.1	29.1
22326	16.149	1.1818	0.1	31.832
22327	15.875	1.0909	0.1	31.367
22328	15.966	1.1818	0.1	34.614
22329	15.692	1.0909	0.1	33.421
22330	15.784	1.1818	0.1	37.261
22331	15.51	1.0909	0.1	35.197
22332	15.601	1.1818	0.1	39.716
22333	15.327	1.0909	0.1	36.617
22334	15.418	1.1818	0.1	41.913
22335	15.145	1.0909	0.1	37.592
22336	15.236	1.1818	0.1	43.773
22337	14.962	1.0909	0.1	38.025
22338	15.053	1.1818	0.1	45.21
22339	14.779	1.0909	0.1	37.805
22340	14.871	1.1818	0.1	46.122
22341	14.597	1.0909	0.1	36.815
22342	14.688	1.1818	0.1	46.395
22343	14.414	1.0909	0.1	34.92
22344	14.505	1.1818	0.1	45.9
22345	14.232	1.0909	0.1	31.971
22346	14.323	1.1818	0.1	44.483
22347	14.049	1.0909	0.1	27.8
22348	14.14	1.1818	0.1	41.953
22349	13.866	1.0909	0.1	22.233
22350	13.958	1.1818	0.1	38.062
22351	13.684	1.0909	0.1	15.243
22352	13.775	1.1818	0.1	32.473
22353	13.501	1.0909	0.1	7.9834
22354	13.593	1.1818	0.1	24.773
22355	13.319	1.0909	0.1	3.9743
22356	13.41	1.1818	0.1	14.958
22357	13.136	1.0909	0.1	2.6927
22358	13.227	1.1818	0.1	6.5387
22359	12.953	1.0909	0.1	2.2387
22360	13.045	1.1818	0.1	3.5221
22361	12.771	1.0909	0.1	2.0945
22362	12.862	1.1818	0.1	2.6156
22363	12.588	1.0909	0.1	2.0585
22364	12.68	1.1818	0.1	2.3374
22365	12.406	1.0909	0.1	2.2954
22366	12.497	1.1818	0.1	2.2627
22367	12.223	1.0909	0.1	1.7298
22368	12.314	1.1818	0.1	2.7432
22369	12.041	1.0909	0.1	4.0309
22370	12.132	1.1818	0.1	1.0313
22371	11.949	1.1818	0.1	6.4112
22372	11.858	1.0909	0.1	-0.67665
22373	23.726	1.2727	0.1	-0.17978
22374	23.817	1.3636	0.1	-0.1522
22375	23.909	1.2727	0.1	-0.42586
22376	23.544	1.2727	0.1	-0.19636
22377	23.635	1.3636	0.1	-0.29651
22378	23.361	1.2727	0.1	-0.10677
22379	23.452	1.3636	0.1	-0.12121
22380	23.178	1.2727	0.1	-8.6058e-002
22381	23.27	1.3636	0.1	-0.10566
22382	22.996	1.2727	0.1	-6.5114e-002
22383	23.087	1.3636	0.1	-7.6083e-002
22384	22.813	1.2727	0.1	-5.288e-002
22385	22.904	1.3636	0.1	-6.2064e-002
22386	22.631	1.2727	0.1	-4.3462e-002
22387	22.722	1.3636	0.1	-5.0678e-002
22388	22.448	1.2727	0.1	-3.6519e-002
22389	22.539	1.3636	0.1	-4.2614e-002
22390	22.265	1.2727	0.1	-3.111e-002
22391	22.357	1.3636	0.1	-3.633e-002
22392	22.083	1.2727	0.1	-2.6842e-002
22393	22.174	1.3636	0.1	-3.1413e-002
22394	21.9	1.2727	0.1	-2.3408e-002
22395	21.992	1.3636	0.1	-2.7463e-002
22396	21.718	1.2727	0.1	-2.0608e-002
22397	21.809	1.3636	0.1	-2.4246e-002
22398	21.535	1.2727	0.1	-1.8295e-002
22399	21.626	1.3636	0.1	-2.1586e-002
22400	21.352	1.2727	0.1	-1.6365e-002
22401	21.444	1.3636	0.1	-1.9363e-002
22402	21.17	1.2727	0.1	-1.4737e-002
22403	21.261	1.3636	0.1	-1.7487e-002
22404	20.987	1.2727	0.1	-1.3345e-002
22405	21.079	1.3636	0.1	-1.5882e-002
22406	20.805	1.2727	0.1	-1.2146e-002
22407	20.896	1.3636	0.1	-1.4492e-002
22408	20.622	1.2727	0.1	-1.1109e-002
22409	20.713	1.3636	0.1	-1.3288e-002
22410	20.44	1.2727	0.1	-1.0197e-002
22411	20.531	1.3636	0.1	-1.2233e-002
22412	20.257	1.2727	0.1	-9.3846e-003
22413	20.348	1.3636	0.1	-1.1289e-002
22414	20.074	1.2727	0.1	-8.653e-003
22415	20.166	1.3636	0.1	-1.0441e-002
22416	19.892	1.2727	0.1	-7.9808e-003
22417	19.983	1.3636	0.1	-9.6662e-003
22418	19.709	1.2727	0.1	-7.3464e-003
22419	19.8	1.3636	0.1	-8.9404e-003
22420	19.527	1.2727	0.1	-6.7248e-003
22421	19.618	1.3636	0.1	-8.2444e-003
22422	19.344	1.2727	0.1	-6.0831e-003
22423	19.435	1.3636	0.1	-7.5414e-003
22424	19.161	1.2727	0.1	-5.3652e-003
22425	19.253	1.3636	0.1	-6.7899e-003
22426	18.979	1.2727	0.1	-4.4579e-003
22427	19.07	1.3636	0.1	-5.8927e-003
22428	18.796	1.2727	0.1	-3.0949e-003
22429	18.888	1.3636	0.1	-4.6457e-003
22430	18.614	1.2727	0.1	-4.01e-004
22431	18.705	1.3636	0.1	-2.4105e-003
22432	18.431	1.2727	0.1	9.1791e-003
22433	18.522	1.3636	0.1	4.2003e-003
22434	18.249	1.2727	0.1	0.74475
22435	18.34	1.3636	0.1	0.33056
22436	18.066	1.2727	0.1	3.4332
22437	18.157	1.3636	0.1	3.0968
22438	17.883	1.2727	0.1	6.2134
22439	17.975	1.3636	0.1	6.0104
22440	17.701	1.2727	0.1	9.063
22441	17.792	1.3636	0.1	9.0031
22442	17.518	1.2727	0.1	11.984
22443	17.609	1.3636	0.1	12.079
22444	17.336	1.2727	0.1	14.976
22445	17.427	1.3636	0.1	15.243
22446	17.153	1.2727	0.1	18.039
22447	17.244	1.3636	0.1	18.497
22448	16.97	1.2727	0.1	21.167
22449	17.062	1.3636	0.1	21.842
22450	16.788	1.2727	0.1	24.353
22451	16.879	1.3636	0.1	25.275
22452	16.605	1.2727	0.1	27.583
22453	16.697	1.3636	0.1	28.788
22454	16.423	1.2727	0.1	30.839
22455	16.514	1.3636	0.1	32.372
22456	16.24	1.2727	0.1	34.098
22457	16.331	1.3636	0.1	36.01
22458	16.057	1.2727	0.1	37.327
22459	16.149	1.3636	0.1	39.68
22460	15.875	1.2727	0.1	40.489
22461	15.966	1.3636	0.1	43.353
22462	15.692	1.2727	0.1	43.535
22463	15.784	1.3636	0.1	46.993
22464	15.51	1.2727	0.1	46.411
22465	15.601	1.3636	0.1	50.555
22466	15.327	1.2727	0.1	49.049
22467	15.418	1.3636	0.1	53.986
22468	15.145	1.2727	0.1	51.371
22469	15.236	1.3636	0.1	57.219
22470	14.962	1.2727	0.1	53.287
22471	15.053	1.3636	0.1	60.179
22472	14.779	1.2727	0.1	54.695
22473	14.871	1.3636	0.1	62.775
22474	14.597	1.2727	0.1	55.473
22475	14.688	1.3636	0.1	64.9
22476	14.414	1.2727	0.1	55.473
22477	14.505	1.3636	0.1	66.421
22478	14.232	1.2727	0.1	54.51
22479	14.323	1.3636	0.1	67.17
22480	14.049	1.2727	0.1	52.332
22481	14.14	1.3636	0.1	66.92
22482	13.866	1.2727	0.1	48.576
22483	13.958	1.3636	0.1	65.345
22484	13.684	1.2727	0.1	42.698
22485	13.775	1.3636	0.1	61.948
22486	13.501	1.2727	0.1	33.906
22487	13.593	1.3636	0.1	55.946
22488	13.319	1.2727	0.1	21.463
22489	13.41	1.3636	0.1	46.116
22490	13.136	1.2727	0.1	8.6762
22491	13.227	1.3636	0.1	30.858
22492	12.953	1.2727	0.1	3.9807
22493	13.045	1.3636	0.1	12.139
22494	12.771	1.2727	0.1	2.8157
22495	12.862	1.3636	0.1	4.5542
22496	12.588	1.2727	0.1	2.4999
22497	12.68	1.3636	0.1	3.085
22498	12.406	1.2727	0.1	2.6926
22499	12.497	1.3636	0.1	2.815
22500	12.223	1.2727	0.1	2.0646
22501	12.314	1.3636	0.1	3.1502
22502	12.041	1.2727	0.1	3.7468
22503	12.132	1.3636	0.1	1.6567
22504	11.949	1.3636	0.1	12.099
22505	11.858	1.2727	0.1	-4.4056
22506	23.726	1.4545	0.1	-0.19316
22507	23.817	1.5455	0.1	-0.1691
22508	23.909	1.4545	0.1	-0.43126
22509	23.544	1.4545	0.1	-0.2054
22510	23.635	1.5455	0.1	-0.30582
22511	23.361	1.4545	0.1	-0.11412
22512	23.452	1.5455	0.1	-0.12803
22513	23.178	1.4545	0.1	-9.2725e-002
22514	23.27	1.5455	0.1	-0.11173
22515	22.996	1.4545	0.1	-7.1284e-002
22516	23.087	1.5455	0.1	-8.1607e-002
22517	22.813	1.4545	0.1	-5.8694e-002
22518	22.904	1.5455	0.1	-6.7242e-002
22519	22.631	1.4545	0.1	-4.898e-002
22520	22.722	1.5455	0.1	-5.5584e-002
22521	22.448	1.4545	0.1	-4.1769e-002
22522	22.539	1.5455	0.1	-4.7294e-002
22523	22.265	1.4545	0.1	-3.6104e-002
22524	22.357	1.5455	0.1	-4.08e-002
22525	22.083	1.4545	0.1	-3.1594e-002
22526	22.174	1.5455	0.1	-3.5684e-002
22527	21.9	1.4545	0.1	-2.7926e-002
22528	21.992	1.5455	0.1	-3.1543e-002
22529	21.718	1.4545	0.1	-2.4901e-002
22530	21.809	1.5455	0.1	-2.8137e-002
22531	21.535	1.4545	0.1	-2.2372e-002
22532	21.626	1.5455	0.1	-2.5298e-002
22533	21.352	1.4545	0.1	-2.0236e-002
22534	21.444	1.5455	0.1	-2.2901e-002
22535	21.17	1.4545	0.1	-1.8412e-002
22536	21.261	1.5455	0.1	-2.0859e-002
22537	20.987	1.4545	0.1	-1.6833e-002
22538	21.079	1.5455	0.1	-1.9095e-002
22539	20.805	1.4545	0.1	-1.546e-002
22540	20.896	1.5455	0.1	-1.7554e-002
22541	20.622	1.4545	0.1	-1.4258e-002
22542	20.713	1.5455	0.1	-1.6207e-002
22543	20.44	1.4545	0.1	-1.319e-002
22544	20.531	1.5455	0.1	-1.5016e-002
22545	20.257	1.4545	0.1	-1.2229e-002
22546	20.348	1.5455	0.1	-1.3944e-002
22547	20.074	1.4545	0.1	-1.1355e-002
22548	20.166	1.5455	0.1	-1.2974e-002
22549	19.892	1.4545	0.1	-1.0545e-002
22550	19.983	1.5455	0.1	-1.2082e-002
22551	19.709	1.4545	0.1	-9.7788e-003
22552	19.8	1.5455	0.1	-1.1246e-002
22553	19.527	1.4545	0.1	-9.0272e-003
22554	19.618	1.5455	0.1	-1.0442e-002
22555	19.344	1.4545	0.1	-8.2497e-003
22556	19.435	1.5455	0.1	-9.6354e-003
22557	19.161	1.4545	0.1	-7.3751e-003
22558	19.253	1.5455	0.1	-8.7716e-003
22559	18.979	1.4545	0.1	-6.2495e-003
22560	19.07	1.5455	0.1	-7.7367e-003
22561	18.796	1.4545	0.1	-4.4377e-003
22562	18.888	1.5455	0.1	-6.244e-003
22563	18.614	1.4545	0.1	2.95e-005
22564	18.705	1.5455	0.1	-3.1709e-003
22565	18.431	1.4545	0.1	5.9608e-002
22566	18.522	1.5455	0.1	1.3932e-002
22567	18.249	1.4545	0.1	2.6074
22568	18.34	1.5455	0.1	1.9198
22569	18.066	1.4545	0.1	5.6486
22570	18.157	1.5455	0.1	5.0696
22571	17.883	1.4545	0.1	8.7763
22572	17.975	1.5455	0.1	8.3134
22573	17.701	1.4545	0.1	11.997
22574	17.792	1.5455	0.1	11.658
22575	17.518	1.4545	0.1	15.317
22576	17.609	1.5455	0.1	15.113
22577	17.336	1.4545	0.1	18.744
22578	17.427	1.5455	0.1	18.689
22579	17.153	1.4545	0.1	22.281
22580	17.244	1.5455	0.1	22.393
22581	16.97	1.4545	0.1	25.931
22582	17.062	1.5455	0.1	26.234
22583	16.788	1.4545	0.1	29.692
22584	16.879	1.5455	0.1	30.215
22585	16.605	1.4545	0.1	33.56
22586	16.697	1.5455	0.1	34.337
22587	16.423	1.4545	0.1	37.525
22588	16.514	1.5455	0.1	38.6
22589	16.24	1.4545	0.1	41.575
22590	16.331	1.5455	0.1	42.997
22591	16.057	1.4545	0.1	45.689
22592	16.149	1.5455	0.1	47.519
22593	15.875	1.4545	0.1	49.84
22594	15.966	1.5455	0.1	52.148
22595	15.692	1.4545	0.1	53.995
22596	15.784	1.5455	0.1	56.862
22597	15.51	1.4545	0.1	58.112
22598	15.601	1.5455	0.1	61.632
22599	15.327	1.4545	0.1	62.138
22600	15.418	1.5455	0.1	66.419
22601	15.145	1.4545	0.1	66.009
22602	15.236	1.5455	0.1	71.172
22603	14.962	1.4545	0.1	69.65
22604	15.053	1.5455	0.1	75.831
22605	14.779	1.4545	0.1	72.965
22606	14.871	1.5455	0.1	80.318
22607	14.597	1.4545	0.1	75.84
22608	14.688	1.5455	0.1	84.536
22609	14.414	1.4545	0.1	78.124
22610	14.505	1.5455	0.1	88.358
22611	14.232	1.4545	0.1	79.615
22612	14.323	1.5455	0.1	91.612
22613	14.049	1.4545	0.1	80.022
22614	14.14	1.5455	0.1	94.055
22615	13.866	1.4545	0.1	78.902
22616	13.958	1.5455	0.1	95.325
22617	13.684	1.4545	0.1	75.558
22618	13.775	1.5455	0.1	94.861
22619	13.501	1.4545	0.1	68.857
22620	13.593	1.5455	0.1	91.757
22621	13.319	1.4545	0.1	56.98
22622	13.41	1.5455	0.1	84.537
22623	13.136	1.4545	0.1	37.396
22624	13.227	1.5455	0.1	70.793
22625	12.953	1.4545	0.1	12.775
22626	13.045	1.5455	0.1	46.988
22627	12.771	1.4545	0.1	4.5521
22628	12.862	1.5455	0.1	15.01
22629	12.588	1.4545	0.1	3.2801
22630	12.68	1.5455	0.1	4.9178
22631	12.406	1.4545	0.1	3.2106
22632	12.497	1.5455	0.1	3.0907
22633	12.223	1.4545	0.1	2.7358
22634	12.314	1.5455	0.1	5.9586
22635	12.041	1.4545	0.1	10.346
22636	12.132	1.5455	0.1	1.1656
22637	11.949	1.5455	0.1	5.9354
22638	11.858	1.4545	0.1	11.101
22639	23.726	1.6364	0.1	-0.20351
22640	23.817	1.7273	0.1	-0.18251
22641	23.909	1.6364	0.1	-0.43527
22642	23.544	1.6364	0.1	-0.21226
22643	23.635	1.7273	0.1	-0.31295
22644	23.361	1.6364	0.1	-0.11965
22645	23.452	1.7273	0.1	-0.1332
22646	23.178	1.6364	0.1	-9.7709e-002
22647	23.27	1.7273	0.1	-0.11631
22648	22.996	1.6364	0.1	-7.5887e-002
22649	23.087	1.7273	0.1	-8.5751e-002
22650	22.813	1.6364	0.1	-6.304e-002
22651	22.904	1.7273	0.1	-7.1123e-002
22652	22.631	1.6364	0.1	-5.3122e-002
22653	22.722	1.7273	0.1	-5.9268e-002
22654	22.448	1.6364	0.1	-4.5738e-002
22655	22.539	1.7273	0.1	-5.0823e-002
22656	22.265	1.6364	0.1	-3.9914e-002
22657	22.357	1.7273	0.1	-4.4194e-002
22658	22.083	1.6364	0.1	-3.5249e-002
22659	22.174	1.7273	0.1	-3.8952e-002
22660	21.9	1.6364	0.1	-3.143e-002
22661	21.992	1.7273	0.1	-3.4687e-002
22662	21.718	1.6364	0.1	-2.8257e-002
22663	21.809	1.7273	0.1	-3.1161e-002
22664	21.535	1.6364	0.1	-2.5585e-002
22665	21.626	1.7273	0.1	-2.8204e-002
22666	21.352	1.6364	0.1	-2.331e-002
22667	21.444	1.7273	0.1	-2.5691e-002
22668	21.17	1.6364	0.1	-2.1351e-002
22669	21.261	1.7273	0.1	-2.3535e-002
22670	20.987	1.6364	0.1	-1.9646e-002
22671	21.079	1.7273	0.1	-2.1662e-002
22672	20.805	1.6364	0.1	-1.8149e-002
22673	20.896	1.7273	0.1	-2.0016e-002
22674	20.622	1.6364	0.1	-1.6828e-002
22675	20.713	1.7273	0.1	-1.8568e-002
22676	20.44	1.6364	0.1	-1.5648e-002
22677	20.531	1.7273	0.1	-1.7279e-002
22678	20.257	1.6364	0.1	-1.4581e-002
22679	20.348	1.7273	0.1	-1.6116e-002
22680	20.074	1.6364	0.1	-1.3607e-002
22681	20.166	1.7273	0.1	-1.506e-002
22682	19.892	1.6364	0.1	-1.2704e-002
22683	19.983	1.7273	0.1	-1.4087e-002
22684	19.709	1.6364	0.1	-1.1849e-002
22685	19.8	1.7273	0.1	-1.3178e-002
22686	19.527	1.6364	0.1	-1.1013e-002
22687	19.618	1.7273	0.1	-1.2304e-002
22688	19.344	1.6364	0.1	-1.0153e-002
22689	19.435	1.7273	0.1	-1.1437e-002
22690	19.161	1.6364	0.1	-9.191e-003
22691	19.253	1.7273	0.1	-1.0515e-002
22692	18.979	1.6364	0.1	-7.9379e-003
22693	19.07	1.7273	0.1	-9.4178e-003
22694	18.796	1.6364	0.1	-5.7611e-003
22695	18.888	1.7273	0.1	-7.7843e-003
22696	18.614	1.6364	0.1	1.7411e-003
22697	18.705	1.7273	0.1	-3.7971e-003
22698	18.431	1.6364	0.1	1.1029
22699	18.522	1.7273	0.1	0.18806
22700	18.249	1.6364	0.1	4.3546
22701	18.34	1.7273	0.1	3.4384
22702	18.066	1.6364	0.1	7.7106
22703	18.157	1.7273	0.1	6.885
22704	17.883	1.6364	0.1	11.172
22705	17.975	1.7273	0.1	10.441
22706	17.701	1.6364	0.1	14.752
22707	17.792	1.7273	0.1	14.121
22708	17.518	1.6364	0.1	18.464
22709	17.609	1.7273	0.1	17.94
22710	17.336	1.6364	0.1	22.319
22711	17.427	1.7273	0.1	21.915
22712	17.153	1.6364	0.1	26.328
22713	17.244	1.7273	0.1	26.059
22714	16.97	1.6364	0.1	30.5
22715	17.062	1.7273	0.1	30.387
22716	16.788	1.6364	0.1	34.843
22717	16.879	1.7273	0.1	34.911
22718	16.605	1.6364	0.1	39.362
22719	16.697	1.7273	0.1	39.641
22720	16.423	1.6364	0.1	44.057
22721	16.514	1.7273	0.1	44.586
22722	16.24	1.6364	0.1	48.926
22723	16.331	1.7273	0.1	49.751
22724	16.057	1.6364	0.1	53.963
22725	16.149	1.7273	0.1	55.139
22726	15.875	1.6364	0.1	59.155
22727	15.966	1.7273	0.1	60.748
22728	15.692	1.6364	0.1	64.485
22729	15.784	1.7273	0.1	66.57
22730	15.51	1.6364	0.1	69.924
22731	15.601	1.7273	0.1	72.591
22732	15.327	1.6364	0.1	75.437
22733	15.418	1.7273	0.1	78.788
22734	15.145	1.6364	0.1	80.978
22735	15.236	1.7273	0.1	85.131
22736	14.962	1.6364	0.1	86.485
22737	15.053	1.7273	0.1	91.573
22738	14.779	1.6364	0.1	91.877
22739	14.871	1.7273	0.1	98.051
22740	14.597	1.6364	0.1	97.048
22741	14.688	1.7273	0.1	104.48
22742	14.414	1.6364	0.1	101.85
22743	14.505	1.7273	0.1	110.74
22744	14.232	1.6364	0.1	106.08
22745	14.323	1.7273	0.1	116.67
22746	14.049	1.6364	0.1	109.44
22747	14.14	1.7273	0.1	122.01
22748	13.866	1.6364	0.1	111.44
22749	13.958	1.7273	0.1	126.39
22750	13.684	1.6364	0.1	111.37
22751	13.775	1.7273	0.1	129.24
22752	13.501	1.6364	0.1	108.
22753	13.593	1.7273	0.1	129.64
22754	13.319	1.6364	0.1	99.346
22755	13.41	1.7273	0.1	126.12
22756	13.136	1.6364	0.1	82.159
22757	13.227	1.7273	0.1	116.24
22758	12.953	1.6364	0.1	51.59
22759	13.045	1.7273	0.1	96.082
22760	12.771	1.6364	0.1	13.273
22761	12.862	1.7273	0.1	59.668
22762	12.588	1.6364	0.1	4.3977
22763	12.68	1.7273	0.1	13.709
22764	12.406	1.6364	0.1	5.7127
22765	12.497	1.7273	0.1	4.0658
22766	12.223	1.6364	0.1	4.3823
22767	12.314	1.7273	0.1	7.5424
22768	12.041	1.6364	0.1	-2.9167
22769	12.132	1.7273	0.1	-2.8708
22770	11.949	1.7273	0.1	52.913
22771	11.858	1.6364	0.1	-48.962
22772	23.726	1.8182	0.1	-0.21157
22773	23.817	1.9091	0.1	-0.19317
22774	23.909	1.8182	0.1	-0.43825
22775	23.544	1.8182	0.1	-0.21748
22776	23.635	1.9091	0.1	-0.31843
22777	23.361	1.8182	0.1	-0.12384
22778	23.452	1.9091	0.1	-0.13714
22779	23.178	1.8182	0.1	-0.10146
22780	23.27	1.9091	0.1	-0.11978
22781	22.996	1.8182	0.1	-7.9346e-002
22782	23.087	1.9091	0.1	-8.8884e-002
22783	22.813	1.8182	0.1	-6.6303e-002
22784	22.904	1.9091	0.1	-7.4049e-002
22785	22.631	1.8182	0.1	-5.6239e-002
22786	22.722	1.9091	0.1	-6.2046e-002
22787	22.448	1.8182	0.1	-4.8737e-002
22788	22.539	1.9091	0.1	-5.349e-002
22789	22.265	1.8182	0.1	-4.2809e-002
22790	22.357	1.9091	0.1	-4.677e-002
22791	22.083	1.8182	0.1	-3.8046e-002
22792	22.174	1.9091	0.1	-4.1446e-002
22793	21.9	1.8182	0.1	-3.4131e-002
22794	21.992	1.9091	0.1	-3.7101e-002
22795	21.718	1.8182	0.1	-3.0862e-002
22796	21.809	1.9091	0.1	-3.3498e-002
22797	21.535	1.8182	0.1	-2.8096e-002
22798	21.626	1.9091	0.1	-3.0463e-002
22799	21.352	1.8182	0.1	-2.5727e-002
22800	21.444	1.9091	0.1	-2.7872e-002
22801	21.17	1.8182	0.1	-2.3677e-002
22802	21.261	1.9091	0.1	-2.564e-002
22803	20.987	1.8182	0.1	-2.1882e-002
22804	21.079	1.9091	0.1	-2.3692e-002
22805	20.805	1.8182	0.1	-2.03e-002
22806	20.896	1.9091	0.1	-2.1973e-002
22807	20.622	1.8182	0.1	-1.8896e-002
22808	20.713	1.9091	0.1	-2.0454e-002
22809	20.44	1.8182	0.1	-1.7637e-002
22810	20.531	1.9091	0.1	-1.9096e-002
22811	20.257	1.8182	0.1	-1.6496e-002
22812	20.348	1.9091	0.1	-1.7869e-002
22813	20.074	1.8182	0.1	-1.5453e-002
22814	20.166	1.9091	0.1	-1.6752e-002
22815	19.892	1.8182	0.1	-1.4485e-002
22816	19.983	1.9091	0.1	-1.5723e-002
22817	19.709	1.8182	0.1	-1.3572e-002
22818	19.8	1.9091	0.1	-1.4763e-002
22819	19.527	1.8182	0.1	-1.2686e-002
22820	19.618	1.9091	0.1	-1.3848e-002
22821	19.344	1.8182	0.1	-1.1787e-002
22822	19.435	1.9091	0.1	-1.2949e-002
22823	19.161	1.8182	0.1	-1.0794e-002
22824	19.253	1.9091	0.1	-1.201e-002
22825	18.979	1.8182	0.1	-9.4988e-003
22826	19.07	1.9091	0.1	-1.091e-002
22827	18.796	1.8182	0.1	-7.0773e-003
22828	18.888	1.9091	0.1	-9.2496e-003
22829	18.614	1.8182	0.1	7.8128e-003
22830	18.705	1.9091	0.1	-4.2547e-003
22831	18.431	1.8182	0.1	2.4077
22832	18.522	1.9091	0.1	1.2028
22833	18.249	1.8182	0.1	5.9444
22834	18.34	1.9091	0.1	4.8032
22835	18.066	1.8182	0.1	9.5926
22836	18.157	1.9091	0.1	8.5193
22837	17.883	1.8182	0.1	13.368
22838	17.975	1.9091	0.1	12.363
22839	17.701	1.8182	0.1	17.289
22840	17.792	1.9091	0.1	16.355
22841	17.518	1.8182	0.1	21.372
22842	17.609	1.9091	0.1	20.515
22843	17.336	1.8182	0.1	25.638
22844	17.427	1.9091	0.1	24.865
22845	17.153	1.8182	0.1	30.102
22846	17.244	1.9091	0.1	29.425
22847	16.97	1.8182	0.1	34.781
22848	17.062	1.9091	0.1	34.215
22849	16.788	1.8182	0.1	39.693
22850	16.879	1.9091	0.1	39.258
22851	16.605	1.8182	0.1	44.85
22852	16.697	1.9091	0.1	44.572
22853	16.423	1.8182	0.1	50.266
22854	16.514	1.9091	0.1	50.176
22855	16.24	1.8182	0.1	55.951
22856	16.331	1.9091	0.1	56.087
22857	16.057	1.8182	0.1	61.911
22858	16.149	1.9091	0.1	62.322
22859	15.875	1.8182	0.1	68.15
22860	15.966	1.9091	0.1	68.891
22861	15.692	1.8182	0.1	74.664
22862	15.784	1.9091	0.1	75.802
22863	15.51	1.8182	0.1	81.443
22864	15.601	1.9091	0.1	83.059
22865	15.327	1.8182	0.1	88.47
22866	15.418	1.9091	0.1	90.655
22867	15.145	1.8182	0.1	95.713
22868	15.236	1.9091	0.1	98.575
22869	14.962	1.8182	0.1	103.13
22870	15.053	1.9091	0.1	106.79
22871	14.779	1.8182	0.1	110.65
22872	14.871	1.9091	0.1	115.25
22873	14.597	1.8182	0.1	118.17
22874	14.688	1.9091	0.1	123.88
22875	14.414	1.8182	0.1	125.57
22876	14.505	1.9091	0.1	132.57
22877	14.232	1.8182	0.1	132.62
22878	14.323	1.9091	0.1	141.15
22879	14.049	1.8182	0.1	139.03
22880	14.14	1.9091	0.1	149.37
22881	13.866	1.8182	0.1	144.33
22882	13.958	1.9091	0.1	156.85
22883	13.684	1.8182	0.1	147.78
22884	13.775	1.9091	0.1	163.
22885	13.501	1.8182	0.1	148.24
22886	13.593	1.9091	0.1	166.94
22887	13.319	1.8182	0.1	143.84
22888	13.41	1.9091	0.1	167.28
22889	13.136	1.8182	0.1	131.57
22890	13.227	1.9091	0.1	161.81
22891	12.953	1.8182	0.1	106.48
22892	13.045	1.9091	0.1	147.04
22893	12.771	1.8182	0.1	61.21
22894	12.862	1.9091	0.1	117.34
22895	12.588	1.8182	0.1	10.876
22896	12.68	1.9091	0.1	64.541
22897	12.406	1.8182	0.1	5.6384
22898	12.497	1.9091	0.1	7.6997
22899	12.223	1.8182	0.1	0.83938
22900	12.314	1.9091	0.1	9.5012
22901	12.041	1.8182	0.1	53.419
22902	12.132	1.9091	0.1	-31.337
22903	11.949	1.9091	0.1	262.04
22904	11.858	1.8182	0.1	216.24
22905	23.726	2.	0.1	-0.21786
22906	23.817	2.0909	0.1	-0.2016
22907	23.909	2.	0.1	-0.44048
22908	23.544	2.	0.1	-0.22149
22909	23.635	2.0909	0.1	-0.32266
22910	23.361	2.	0.1	-0.12703
22911	23.452	2.0909	0.1	-0.14015
22912	23.178	2.	0.1	-0.10432
22913	23.27	2.0909	0.1	-0.12242
22914	22.996	2.	0.1	-8.1967e-002
22915	23.087	2.0909	0.1	-9.1258e-002
22916	22.813	2.	0.1	-6.877e-002
22917	22.904	2.0909	0.1	-7.6261e-002
22918	22.631	2.	0.1	-5.8595e-002
22919	22.722	2.0909	0.1	-6.4143e-002
22920	22.448	2.	0.1	-5.1009e-002
22921	22.539	2.0909	0.1	-5.5504e-002
22922	22.265	2.	0.1	-4.5011e-002
22923	22.357	2.0909	0.1	-4.8719e-002
22924	22.083	2.	0.1	-4.0183e-002
22925	22.174	2.0909	0.1	-4.3338e-002
22926	21.9	2.	0.1	-3.6205e-002
22927	21.992	2.0909	0.1	-3.8942e-002
22928	21.718	2.	0.1	-3.2875e-002
22929	21.809	2.0909	0.1	-3.5289e-002
22930	21.535	2.	0.1	-3.0046e-002
22931	21.626	2.0909	0.1	-3.2203e-002
22932	21.352	2.	0.1	-2.7615e-002
22933	21.444	2.0909	0.1	-2.9561e-002
22934	21.17	2.	0.1	-2.5503e-002
22935	21.261	2.0909	0.1	-2.7277e-002
22936	20.987	2.	0.1	-2.3647e-002
22937	21.079	2.0909	0.1	-2.5278e-002
22938	20.805	2.	0.1	-2.2004e-002
22939	20.896	2.0909	0.1	-2.3507e-002
22940	20.622	2.	0.1	-2.0542e-002
22941	20.713	2.0909	0.1	-2.1938e-002
22942	20.44	2.	0.1	-1.9227e-002
22943	20.531	2.0909	0.1	-2.0532e-002
22944	20.257	2.	0.1	-1.8033e-002
22945	20.348	2.0909	0.1	-1.9259e-002
22946	20.074	2.	0.1	-1.694e-002
22947	20.166	2.0909	0.1	-1.8099e-002
22948	19.892	2.	0.1	-1.5929e-002
22949	19.983	2.0909	0.1	-1.7032e-002
22950	19.709	2.	0.1	-1.4978e-002
22951	19.8	2.0909	0.1	-1.6039e-002
22952	19.527	2.	0.1	-1.4065e-002
22953	19.618	2.0909	0.1	-1.5099e-002
22954	19.344	2.	0.1	-1.3153e-002
22955	19.435	2.0909	0.1	-1.4187e-002
22956	19.161	2.	0.1	-1.2166e-002
22957	19.253	2.0909	0.1	-1.3256e-002
22958	18.979	2.	0.1	-1.0903e-002
22959	19.07	2.0909	0.1	-1.2197e-002
22960	18.796	2.	0.1	-8.399e-003
22961	18.888	2.0909	0.1	-1.0618e-002
22962	18.614	2.	0.1	6.7722e-002
22963	18.705	2.0909	0.1	-4.4738e-003
22964	18.431	2.	0.1	3.5689
22965	18.522	2.0909	0.1	2.1633
22966	18.249	2.	0.1	7.3552
22967	18.34	2.0909	0.1	5.9944
22968	18.066	2.	0.1	11.268
22969	18.157	2.0909	0.1	9.9499
22970	17.883	2.	0.1	15.33
22971	17.975	2.0909	0.1	14.051
22972	17.701	2.	0.1	19.563
22973	17.792	2.0909	0.1	18.323
22974	17.518	2.	0.1	23.99
22975	17.609	2.0909	0.1	22.791
22976	17.336	2.	0.1	28.635
22977	17.427	2.0909	0.1	27.48
22978	17.153	2.	0.1	33.522
22979	17.244	2.0909	0.1	32.418
22980	16.97	2.	0.1	38.677
22981	17.062	2.0909	0.1	37.632
22982	16.788	2.	0.1	44.123
22983	16.879	2.0909	0.1	43.151
22984	16.605	2.	0.1	49.884
22985	16.697	2.0909	0.1	49.004
22986	16.423	2.	0.1	55.985
22987	16.514	2.0909	0.1	55.218
22988	16.24	2.	0.1	62.447
22989	16.331	2.0909	0.1	61.824
22990	16.057	2.	0.1	69.29
22991	16.149	2.0909	0.1	68.848
22992	15.875	2.	0.1	76.533
22993	15.966	2.0909	0.1	76.316
22994	15.692	2.	0.1	84.188
22995	15.784	2.0909	0.1	84.25
22996	15.51	2.	0.1	92.261
22997	15.601	2.0909	0.1	92.669
22998	15.327	2.	0.1	100.75
22999	15.418	2.0909	0.1	101.58
23000	15.145	2.	0.1	109.64
23001	15.236	2.0909	0.1	110.99
23002	14.962	2.	0.1	118.9
23003	15.053	2.0909	0.1	120.88
23004	14.779	2.	0.1	128.48
23005	14.871	2.0909	0.1	131.21
23006	14.597	2.	0.1	138.28
23007	14.688	2.0909	0.1	141.91
23008	14.414	2.	0.1	148.17
23009	14.505	2.0909	0.1	152.87
23010	14.232	2.	0.1	157.93
23011	14.323	2.0909	0.1	163.92
23012	14.049	2.	0.1	167.24
23013	14.14	2.0909	0.1	174.78
23014	13.866	2.	0.1	175.63
23015	13.958	2.0909	0.1	185.05
23016	13.684	2.	0.1	182.38
23017	13.775	2.0909	0.1	194.12
23018	13.501	2.	0.1	186.37
23019	13.593	2.0909	0.1	201.07
23020	13.319	2.	0.1	185.91
23021	13.41	2.0909	0.1	204.54
23022	13.136	2.	0.1	178.38
23023	13.227	2.0909	0.1	202.44
23024	12.953	2.	0.1	159.66
23025	13.045	2.0909	0.1	191.69
23026	12.771	2.	0.1	123.36
23027	12.862	2.0909	0.1	167.44
23028	12.588	2.	0.1	59.506
23029	12.68	2.0909	0.1	122.57
23030	12.406	2.	0.1	8.8805
23031	12.497	2.0909	0.1	45.003
23032	12.223	2.	0.1	-22.501
23033	12.314	2.0909	0.1	8.8316
23034	12.041	2.	0.1	176.37
23035	12.132	2.0909	0.1	-42.429
23036	11.949	2.0909	0.1	176.37
23037	11.858	2.	0.1	350.41
23038	23.726	2.1818	0.1	-0.22273
23039	23.817	2.2727	0.1	-0.20814
23040	23.909	2.1818	0.1	-0.44215
23041	23.544	2.1818	0.1	-0.22455
23042	23.635	2.2727	0.1	-0.32586
23043	23.361	2.1818	0.1	-0.12945
23044	23.452	2.2727	0.1	-0.14242
23045	23.178	2.1818	0.1	-0.10648
23046	23.27	2.2727	0.1	-0.12441
23047	22.996	2.1818	0.1	-8.3942e-002
23048	23.087	2.2727	0.1	-9.3038e-002
23049	22.813	2.1818	0.1	-7.0627e-002
23050	22.904	2.2727	0.1	-7.7914e-002
23051	22.631	2.1818	0.1	-6.0368e-002
23052	22.722	2.2727	0.1	-6.5707e-002
23053	22.448	2.1818	0.1	-5.2719e-002
23054	22.539	2.2727	0.1	-5.7006e-002
23055	22.265	2.1818	0.1	-4.6669e-002
23056	22.357	2.2727	0.1	-5.0173e-002
23057	22.083	2.1818	0.1	-4.1797e-002
23058	22.174	2.2727	0.1	-4.4753e-002
23059	21.9	2.1818	0.1	-3.778e-002
23060	21.992	2.2727	0.1	-4.0323e-002
23061	21.718	2.1818	0.1	-3.4409e-002
23062	21.809	2.2727	0.1	-3.6637e-002
23063	21.535	2.1818	0.1	-3.1539e-002
23064	21.626	2.2727	0.1	-3.3517e-002
23065	21.352	2.1818	0.1	-2.9066e-002
23066	21.444	2.2727	0.1	-3.0842e-002
23067	21.17	2.1818	0.1	-2.6913e-002
23068	21.261	2.2727	0.1	-2.8524e-002
23069	20.987	2.1818	0.1	-2.5014e-002
23070	21.079	2.2727	0.1	-2.649e-002
23071	20.805	2.1818	0.1	-2.3328e-002
23072	20.896	2.2727	0.1	-2.4683e-002
23073	20.622	2.1818	0.1	-2.1825e-002
23074	20.713	2.2727	0.1	-2.3079e-002
23075	20.44	2.1818	0.1	-2.047e-002
23076	20.531	2.2727	0.1	-2.164e-002
23077	20.257	2.1818	0.1	-1.9239e-002
23078	20.348	2.2727	0.1	-2.0334e-002
23079	20.074	2.1818	0.1	-1.8112e-002
23080	20.166	2.2727	0.1	-1.9144e-002
23081	19.892	2.1818	0.1	-1.7072e-002
23082	19.983	2.2727	0.1	-1.805e-002
23083	19.709	2.1818	0.1	-1.6099e-002
23084	19.8	2.2727	0.1	-1.7037e-002
23085	19.527	2.1818	0.1	-1.5171e-002
23086	19.618	2.2727	0.1	-1.6083e-002
23087	19.344	2.1818	0.1	-1.4261e-002
23088	19.435	2.2727	0.1	-1.5169e-002
23089	19.161	2.1818	0.1	-1.3307e-002
23090	19.253	2.2727	0.1	-1.4259e-002
23091	18.979	2.1818	0.1	-1.2133e-002
23092	19.07	2.2727	0.1	-1.3267e-002
23093	18.796	2.1818	0.1	-9.738e-003
23094	18.888	2.2727	0.1	-1.1857e-002
23095	18.614	2.1818	0.1	0.68947
23096	18.705	2.2727	0.1	-4.2639e-003
23097	18.431	2.1818	0.1	4.5644
23098	18.522	2.2727	0.1	2.9717
23099	18.249	2.1818	0.1	8.5671
23100	18.34	2.2727	0.1	6.9951
23101	18.066	2.1818	0.1	12.712
23102	18.157	2.2727	0.1	11.155
23103	17.883	2.1818	0.1	17.025
23104	17.975	2.2727	0.1	15.477
23105	17.701	2.1818	0.1	21.533
23106	17.792	2.2727	0.1	19.99
23107	17.518	2.1818	0.1	26.264
23108	17.609	2.2727	0.1	24.722
23109	17.336	2.1818	0.1	31.247
23110	17.427	2.2727	0.1	29.706
23111	17.153	2.1818	0.1	36.513
23112	17.244	2.2727	0.1	34.972
23113	16.97	2.1818	0.1	42.093
23114	17.062	2.2727	0.1	40.556
23115	16.788	2.1818	0.1	48.02
23116	16.879	2.2727	0.1	46.492
23117	16.605	2.1818	0.1	54.326
23118	16.697	2.2727	0.1	52.818
23119	16.423	2.1818	0.1	61.047
23120	16.514	2.2727	0.1	59.57
23121	16.24	2.1818	0.1	68.215
23122	16.331	2.2727	0.1	66.788
23123	16.057	2.1818	0.1	75.864
23124	16.149	2.2727	0.1	74.511
23125	15.875	2.1818	0.1	84.024
23126	15.966	2.2727	0.1	82.776
23127	15.692	2.1818	0.1	92.723
23128	15.784	2.2727	0.1	91.62
23129	15.51	2.1818	0.1	101.98
23130	15.601	2.2727	0.1	101.07
23131	15.327	2.1818	0.1	111.81
23132	15.418	2.2727	0.1	111.16
23133	15.145	2.1818	0.1	122.22
23134	15.236	2.2727	0.1	121.89
23135	14.962	2.1818	0.1	133.17
23136	15.053	2.2727	0.1	133.27
23137	14.779	2.1818	0.1	144.63
23138	14.871	2.2727	0.1	145.25
23139	14.597	2.1818	0.1	156.49
23140	14.688	2.2727	0.1	157.79
23141	14.414	2.1818	0.1	168.63
23142	14.505	2.2727	0.1	170.74
23143	14.232	2.1818	0.1	180.79
23144	14.323	2.2727	0.1	183.93
23145	14.049	2.1818	0.1	192.63
23146	14.14	2.2727	0.1	197.04
23147	13.866	2.1818	0.1	203.62
23148	13.958	2.2727	0.1	209.6
23149	13.684	2.1818	0.1	212.97
23150	13.775	2.2727	0.1	220.92
23151	13.501	2.1818	0.1	219.52
23152	13.593	2.2727	0.1	229.97
23153	13.319	2.1818	0.1	221.54
23154	13.41	2.2727	0.1	235.24
23155	13.136	2.1818	0.1	216.51
23156	13.227	2.2727	0.1	234.51
23157	12.953	2.1818	0.1	200.6
23158	13.045	2.2727	0.1	224.52
23159	12.771	2.1818	0.1	168.22
23160	12.862	2.2727	0.1	200.44
23161	12.588	2.1818	0.1	110.11
23162	12.68	2.2727	0.1	155.23
23163	12.406	2.1818	0.1	14.972
23164	12.497	2.2727	0.1	77.258
23165	12.223	2.1818	0.1	-10.53
23166	12.314	2.2727	0.1	0.23441
23167	12.041	2.1818	0.1	-7.068
23168	12.132	2.2727	0.1	-9.0674
23169	11.949	2.2727	0.1	10.715
23170	11.858	2.1818	0.1	-14.73
23171	23.726	2.3636	0.1	-0.22641
23172	23.817	2.4545	0.1	-0.21302
23173	23.909	2.3636	0.1	-0.44338
23174	23.544	2.3636	0.1	-0.22684
23175	23.635	2.4545	0.1	-0.32821
23176	23.361	2.3636	0.1	-0.13125
23177	23.452	2.4545	0.1	-0.14408
23178	23.178	2.3636	0.1	-0.10808
23179	23.27	2.4545	0.1	-0.12586
23180	22.996	2.3636	0.1	-8.5404e-002
23181	23.087	2.4545	0.1	-9.433e-002
23182	22.813	2.3636	0.1	-7.1997e-002
23183	22.904	2.4545	0.1	-7.9112e-002
23184	22.631	2.3636	0.1	-6.1673e-002
23185	22.722	2.4545	0.1	-6.6838e-002
23186	22.448	2.3636	0.1	-5.3977e-002
23187	22.539	2.4545	0.1	-5.8092e-002
23188	22.265	2.3636	0.1	-4.7892e-002
23189	22.357	2.4545	0.1	-5.1223e-002
23190	22.083	2.3636	0.1	-4.2991e-002
23191	22.174	2.4545	0.1	-4.5778e-002
23192	21.9	2.3636	0.1	-3.8946e-002
23193	21.992	2.4545	0.1	-4.1325e-002
23194	21.718	2.3636	0.1	-3.5548e-002
23195	21.809	2.4545	0.1	-3.7617e-002
23196	21.535	2.3636	0.1	-3.2651e-002
23197	21.626	2.4545	0.1	-3.4477e-002
23198	21.352	2.3636	0.1	-3.0153e-002
23199	21.444	2.4545	0.1	-3.1779e-002
23200	21.17	2.3636	0.1	-2.7971e-002
23201	21.261	2.4545	0.1	-2.9439e-002
23202	20.987	2.3636	0.1	-2.6042e-002
23203	21.079	2.4545	0.1	-2.7381e-002
23204	20.805	2.3636	0.1	-2.4328e-002
23205	20.896	2.4545	0.1	-2.5551e-002
23206	20.622	2.3636	0.1	-2.2797e-002
23207	20.713	2.4545	0.1	-2.3924e-002
23208	20.44	2.3636	0.1	-2.1415e-002
23209	20.531	2.4545	0.1	-2.2461e-002
23210	20.257	2.3636	0.1	-2.0157e-002
23211	20.348	2.4545	0.1	-2.1132e-002
23212	20.074	2.3636	0.1	-1.9006e-002
23213	20.166	2.4545	0.1	-1.9922e-002
23214	19.892	2.3636	0.1	-1.7946e-002
23215	19.983	2.4545	0.1	-1.8811e-002
23216	19.709	2.3636	0.1	-1.6959e-002
23217	19.8	2.4545	0.1	-1.7782e-002
23218	19.527	2.3636	0.1	-1.6026e-002
23219	19.618	2.4545	0.1	-1.682e-002
23220	19.344	2.3636	0.1	-1.5126e-002
23221	19.435	2.4545	0.1	-1.5911e-002
23222	19.161	2.3636	0.1	-1.4215e-002
23223	19.253	2.4545	0.1	-1.5026e-002
23224	18.979	2.3636	0.1	-1.3161e-002
23225	19.07	2.4545	0.1	-1.4109e-002
23226	18.796	2.3636	0.1	-1.108e-002
23227	18.888	2.4545	0.1	-1.292e-002
23228	18.614	2.3636	0.1	1.3284
23229	18.705	2.4545	0.1	-2.832e-003
23230	18.431	2.3636	0.1	5.3797
23231	18.522	2.4545	0.1	3.6135
23232	18.249	2.3636	0.1	9.5616
23233	18.34	2.4545	0.1	7.7906
23234	18.066	2.3636	0.1	13.9
23235	18.157	2.4545	0.1	12.115
23236	17.883	2.3636	0.1	18.422
23237	17.975	2.4545	0.1	16.615
23238	17.701	2.3636	0.1	23.161
23239	17.792	2.4545	0.1	21.322
23240	17.518	2.3636	0.1	28.147
23241	17.609	2.4545	0.1	26.27
23242	17.336	2.3636	0.1	33.416
23243	17.427	2.4545	0.1	31.493
23244	17.153	2.3636	0.1	39.002
23245	17.244	2.4545	0.1	37.028
23246	16.97	2.3636	0.1	44.943
23247	17.062	2.4545	0.1	42.914
23248	16.788	2.3636	0.1	51.279
23249	16.879	2.4545	0.1	49.192
23250	16.605	2.3636	0.1	58.051
23251	16.697	2.4545	0.1	55.906
23252	16.423	2.3636	0.1	65.302
23253	16.514	2.4545	0.1	63.102
23254	16.24	2.3636	0.1	73.075
23255	16.331	2.4545	0.1	70.826
23256	16.057	2.3636	0.1	81.415
23257	16.149	2.4545	0.1	79.126
23258	15.875	2.3636	0.1	90.365
23259	15.966	2.4545	0.1	88.052
23260	15.692	2.3636	0.1	99.963
23261	15.784	2.4545	0.1	97.649
23262	15.51	2.3636	0.1	110.24
23263	15.601	2.4545	0.1	107.96
23264	15.327	2.3636	0.1	121.23
23265	15.418	2.4545	0.1	119.02
23266	15.145	2.3636	0.1	132.94
23267	15.236	2.4545	0.1	130.85
23268	14.962	2.3636	0.1	145.34
23269	15.053	2.4545	0.1	143.46
23270	14.779	2.3636	0.1	158.41
23271	14.871	2.4545	0.1	156.82
23272	14.597	2.3636	0.1	172.03
23273	14.688	2.4545	0.1	170.85
23274	14.414	2.3636	0.1	186.04
23275	14.505	2.4545	0.1	185.43
23276	14.232	2.3636	0.1	200.18
23277	14.323	2.4545	0.1	200.33
23278	14.049	2.3636	0.1	214.02
23279	14.14	2.4545	0.1	215.18
23280	13.866	2.3636	0.1	226.94
23281	13.958	2.4545	0.1	229.43
23282	13.684	2.3636	0.1	238.
23283	13.775	2.4545	0.1	242.26
23284	13.501	2.3636	0.1	245.84
23285	13.593	2.4545	0.1	252.44
23286	13.319	2.3636	0.1	248.43
23287	13.41	2.4545	0.1	258.14
23288	13.136	2.3636	0.1	242.84
23289	13.227	2.4545	0.1	256.72
23290	12.953	2.3636	0.1	224.74
23291	13.045	2.4545	0.1	244.3
23292	12.771	2.3636	0.1	187.67
23293	12.862	2.4545	0.1	215.23
23294	12.588	2.3636	0.1	121.8
23295	12.68	2.4545	0.1	161.27
23296	12.406	2.3636	0.1	13.826
23297	12.497	2.4545	0.1	70.489
23298	12.223	2.3636	0.1	2.3788
23299	12.314	2.4545	0.1	-1.0457
23300	12.041	2.3636	0.1	10.355
23301	12.132	2.4545	0.1	3.5858
23302	11.949	2.4545	0.1	4.7981
23303	11.858	2.3636	0.1	21.182
23304	23.726	2.5455	0.1	-0.22905
23305	23.817	2.6364	0.1	-0.21641
23306	23.909	2.5455	0.1	-0.44425
23307	23.544	2.5455	0.1	-0.22846
23308	23.635	2.6364	0.1	-0.32982
23309	23.361	2.5455	0.1	-0.13253
23310	23.452	2.6364	0.1	-0.14521
23311	23.178	2.5455	0.1	-0.10921
23312	23.27	2.6364	0.1	-0.12684
23313	22.996	2.5455	0.1	-8.6434e-002
23314	23.087	2.6364	0.1	-9.5208e-002
23315	22.813	2.5455	0.1	-7.2962e-002
23316	22.904	2.6364	0.1	-7.9925e-002
23317	22.631	2.5455	0.1	-6.2592e-002
23318	22.722	2.6364	0.1	-6.7604e-002
23319	22.448	2.5455	0.1	-5.4863e-002
23320	22.539	2.6364	0.1	-5.8826e-002
23321	22.265	2.5455	0.1	-4.8753e-002
23322	22.357	2.6364	0.1	-5.1935e-002
23323	22.083	2.5455	0.1	-4.3832e-002
23324	22.174	2.6364	0.1	-4.6472e-002
23325	21.9	2.5455	0.1	-3.9769e-002
23326	21.992	2.6364	0.1	-4.2004e-002
23327	21.718	2.5455	0.1	-3.6356e-002
23328	21.809	2.6364	0.1	-3.8282e-002
23329	21.535	2.5455	0.1	-3.3443e-002
23330	21.626	2.6364	0.1	-3.513e-002
23331	21.352	2.5455	0.1	-3.0925e-002
23332	21.444	2.6364	0.1	-3.2419e-002
23333	21.17	2.5455	0.1	-2.8725e-002
23334	21.261	2.6364	0.1	-3.0064e-002
23335	20.987	2.5455	0.1	-2.6778e-002
23336	21.079	2.6364	0.1	-2.7991e-002
23337	20.805	2.5455	0.1	-2.5045e-002
23338	20.896	2.6364	0.1	-2.6146e-002
23339	20.622	2.5455	0.1	-2.3495e-002
23340	20.713	2.6364	0.1	-2.4503e-002
23341	20.44	2.5455	0.1	-2.2094e-002
23342	20.531	2.6364	0.1	-2.3026e-002
23343	20.257	2.5455	0.1	-2.0818e-002
23344	20.348	2.6364	0.1	-2.1683e-002
23345	20.074	2.5455	0.1	-1.9653e-002
23346	20.166	2.6364	0.1	-2.0459e-002
23347	19.892	2.5455	0.1	-1.8579e-002
23348	19.983	2.6364	0.1	-1.9336e-002
23349	19.709	2.5455	0.1	-1.758e-002
23350	19.8	2.6364	0.1	-1.8298e-002
23351	19.527	2.5455	0.1	-1.6647e-002
23352	19.618	2.6364	0.1	-1.7333e-002
23353	19.344	2.5455	0.1	-1.5761e-002
23354	19.435	2.6364	0.1	-1.6429e-002
23355	19.161	2.5455	0.1	-1.4893e-002
23356	19.253	2.6364	0.1	-1.5567e-002
23357	18.979	2.5455	0.1	-1.3963e-002
23358	19.07	2.6364	0.1	-1.4717e-002
23359	18.796	2.5455	0.1	-1.2356e-002
23360	18.888	2.6364	0.1	-1.3749e-002
23361	18.614	2.5455	0.1	1.8199
23362	18.705	2.6364	0.1	8.4501e-003
23363	18.431	2.5455	0.1	6.0026
23364	18.522	2.6364	0.1	4.0791
23365	18.249	2.5455	0.1	10.323
23366	18.34	2.6364	0.1	8.3684
23367	18.066	2.5455	0.1	14.81
23368	18.157	2.6364	0.1	12.813
23369	17.883	2.5455	0.1	19.496
23370	17.975	2.6364	0.1	17.443
23371	17.701	2.5455	0.1	24.414
23372	17.792	2.6364	0.1	22.294
23373	17.518	2.5455	0.1	29.599
23374	17.609	2.6364	0.1	27.401
23375	17.336	2.5455	0.1	35.09
23376	17.427	2.6364	0.1	32.801
23377	17.153	2.5455	0.1	40.927
23378	17.244	2.6364	0.1	38.534
23379	16.97	2.5455	0.1	47.151
23380	17.062	2.6364	0.1	44.644
23381	16.788	2.5455	0.1	53.809
23382	16.879	2.6364	0.1	51.177
23383	16.605	2.5455	0.1	60.947
23384	16.697	2.6364	0.1	58.18
23385	16.423	2.5455	0.1	68.617
23386	16.514	2.6364	0.1	65.706
23387	16.24	2.5455	0.1	76.869
23388	16.331	2.6364	0.1	73.807
23389	16.057	2.5455	0.1	85.756
23390	16.149	2.6364	0.1	82.54
23391	15.875	2.5455	0.1	95.331
23392	15.966	2.6364	0.1	91.96
23393	15.692	2.5455	0.1	105.64
23394	15.784	2.6364	0.1	102.12
23395	15.51	2.5455	0.1	116.73
23396	15.601	2.6364	0.1	113.08
23397	15.327	2.5455	0.1	128.64
23398	15.418	2.6364	0.1	124.87
23399	15.145	2.5455	0.1	141.37
23400	15.236	2.6364	0.1	137.52
23401	14.962	2.5455	0.1	154.93
23402	15.053	2.6364	0.1	151.05
23403	14.779	2.5455	0.1	169.26
23404	14.871	2.6364	0.1	165.42
23405	14.597	2.5455	0.1	184.25
23406	14.688	2.6364	0.1	180.57
23407	14.414	2.5455	0.1	199.7
23408	14.505	2.6364	0.1	196.34
23409	14.232	2.5455	0.1	215.32
23410	14.323	2.6364	0.1	212.46
23411	14.049	2.5455	0.1	230.59
23412	14.14	2.6364	0.1	228.53
23413	13.866	2.5455	0.1	244.76
23414	13.958	2.6364	0.1	243.9
23415	13.684	2.5455	0.1	256.7
23416	13.775	2.6364	0.1	257.59
23417	13.501	2.5455	0.1	264.72
23418	13.593	2.6364	0.1	268.13
23419	13.319	2.5455	0.1	266.37
23420	13.41	2.6364	0.1	273.35
23421	13.136	2.5455	0.1	258.01
23422	13.227	2.6364	0.1	270.07
23423	12.953	2.5455	0.1	234.33
23424	13.045	2.6364	0.1	253.65
23425	12.771	2.5455	0.1	187.64
23426	12.862	2.6364	0.1	217.44
23427	12.588	2.5455	0.1	106.97
23428	12.68	2.6364	0.1	152.16
23429	12.406	2.5455	0.1	1.8542
23430	12.497	2.6364	0.1	46.024
23431	12.223	2.5455	0.1	7.2622e-002
23432	12.314	2.6364	0.1	-0.1296
23433	12.041	2.5455	0.1	-1.7466
23434	12.132	2.6364	0.1	-0.12559
23435	11.949	2.6364	0.1	-0.66906
23436	11.858	2.5455	0.1	-2.3139
23437	23.726	2.7273	0.1	-0.23075
23438	23.817	2.8182	0.1	-0.2184
23439	23.909	2.7273	0.1	-0.4448
23440	23.544	2.7273	0.1	-0.22951
23441	23.635	2.8182	0.1	-0.33076
23442	23.361	2.7273	0.1	-0.13335
23443	23.452	2.8182	0.1	-0.14587
23444	23.178	2.7273	0.1	-0.10994
23445	23.27	2.8182	0.1	-0.12741
23446	22.996	2.7273	0.1	-8.7095e-002
23447	23.087	2.8182	0.1	-9.5719e-002
23448	22.813	2.7273	0.1	-7.3579e-002
23449	22.904	2.8182	0.1	-8.0396e-002
23450	22.631	2.7273	0.1	-6.3177e-002
23451	22.722	2.8182	0.1	-6.805e-002
23452	22.448	2.7273	0.1	-5.5427e-002
23453	22.539	2.8182	0.1	-5.925e-002
23454	22.265	2.7273	0.1	-4.9302e-002
23455	22.357	2.8182	0.1	-5.2347e-002
23456	22.083	2.7273	0.1	-4.4369e-002
23457	22.174	2.8182	0.1	-4.6874e-002
23458	21.9	2.7273	0.1	-4.0295e-002
23459	21.992	2.8182	0.1	-4.2397e-002
23460	21.718	2.7273	0.1	-3.6872e-002
23461	21.809	2.8182	0.1	-3.8669e-002
23462	21.535	2.7273	0.1	-3.3949e-002
23463	21.626	2.8182	0.1	-3.5508e-002
23464	21.352	2.7273	0.1	-3.1422e-002
23465	21.444	2.8182	0.1	-3.2791e-002
23466	21.17	2.7273	0.1	-2.9211e-002
23467	21.261	2.8182	0.1	-3.0428e-002
23468	20.987	2.7273	0.1	-2.7252e-002
23469	21.079	2.8182	0.1	-2.8347e-002
23470	20.805	2.7273	0.1	-2.5507e-002
23471	20.896	2.8182	0.1	-2.6494e-002
23472	20.622	2.7273	0.1	-2.3945e-002
23473	20.713	2.8182	0.1	-2.4842e-002
23474	20.44	2.7273	0.1	-2.2533e-002
23475	20.531	2.8182	0.1	-2.3357e-002
23476	20.257	2.7273	0.1	-2.1246e-002
23477	20.348	2.8182	0.1	-2.2005e-002
23478	20.074	2.7273	0.1	-2.007e-002
23479	20.166	2.8182	0.1	-2.0773e-002
23480	19.892	2.7273	0.1	-1.8988e-002
23481	19.983	2.8182	0.1	-1.9643e-002
23482	19.709	2.7273	0.1	-1.7986e-002
23483	19.8	2.8182	0.1	-1.8602e-002
23484	19.527	2.7273	0.1	-1.7053e-002
23485	19.618	2.8182	0.1	-1.7635e-002
23486	19.344	2.7273	0.1	-1.6177e-002
23487	19.435	2.8182	0.1	-1.6734e-002
23488	19.161	2.7273	0.1	-1.5342e-002
23489	19.253	2.8182	0.1	-1.5889e-002
23490	18.979	2.7273	0.1	-1.4513e-002
23491	19.07	2.8182	0.1	-1.5083e-002
23492	18.796	2.7273	0.1	-1.341e-002
23493	18.888	2.8182	0.1	-1.428e-002
23494	18.614	2.7273	0.1	2.1522
23495	18.705	2.8182	0.1	0.13571
23496	18.431	2.7273	0.1	6.4235
23497	18.522	2.8182	0.1	4.3613
23498	18.249	2.7273	0.1	10.838
23499	18.34	2.8182	0.1	8.719
23500	18.066	2.7273	0.1	15.427
23501	18.157	2.8182	0.1	13.237
23502	17.883	2.7273	0.1	20.224
23503	17.975	2.8182	0.1	17.947
23504	17.701	2.7273	0.1	25.264
23505	17.792	2.8182	0.1	22.886
23506	17.518	2.7273	0.1	30.586
23507	17.609	2.8182	0.1	28.09
23508	17.336	2.7273	0.1	36.23
23509	17.427	2.8182	0.1	33.598
23510	17.153	2.7273	0.1	42.239
23511	17.244	2.8182	0.1	39.453
23512	16.97	2.7273	0.1	48.658
23513	17.062	2.8182	0.1	45.701
23514	16.788	2.7273	0.1	55.538
23515	16.879	2.8182	0.1	52.39
23516	16.605	2.7273	0.1	62.929
23517	16.697	2.8182	0.1	59.572
23518	16.423	2.7273	0.1	70.888
23519	16.514	2.8182	0.1	67.302
23520	16.24	2.7273	0.1	79.471
23521	16.331	2.8182	0.1	75.637
23522	16.057	2.7273	0.1	88.738
23523	16.149	2.8182	0.1	84.636
23524	15.875	2.7273	0.1	98.745
23525	15.966	2.8182	0.1	94.362
23526	15.692	2.7273	0.1	109.55
23527	15.784	2.8182	0.1	104.87
23528	15.51	2.7273	0.1	121.2
23529	15.601	2.8182	0.1	116.22
23530	15.327	2.7273	0.1	133.74
23531	15.418	2.8182	0.1	128.47
23532	15.145	2.7273	0.1	147.19
23533	15.236	2.8182	0.1	141.63
23534	14.962	2.7273	0.1	161.54
23535	15.053	2.8182	0.1	155.73
23536	14.779	2.7273	0.1	176.73
23537	14.871	2.8182	0.1	170.73
23538	14.597	2.7273	0.1	192.65
23539	14.688	2.8182	0.1	186.55
23540	14.414	2.7273	0.1	209.09
23541	14.505	2.8182	0.1	203.04
23542	14.232	2.7273	0.1	225.67
23543	14.323	2.8182	0.1	219.91
23544	14.049	2.7273	0.1	241.83
23545	14.14	2.8182	0.1	236.69
23546	13.866	2.7273	0.1	256.69
23547	13.958	2.8182	0.1	252.67
23548	13.684	2.7273	0.1	268.93
23549	13.775	2.8182	0.1	266.75
23550	13.501	2.7273	0.1	276.58
23551	13.593	2.8182	0.1	277.27
23552	13.319	2.7273	0.1	276.72
23553	13.41	2.8182	0.1	281.8
23554	13.136	2.7273	0.1	265.08
23555	13.227	2.8182	0.1	276.73
23556	12.953	2.7273	0.1	235.54
23557	13.045	2.8182	0.1	256.85
23558	12.771	2.7273	0.1	179.64
23559	12.862	2.8182	0.1	214.83
23560	12.588	2.7273	0.1	86.695
23561	12.68	2.8182	0.1	141.04
23562	12.406	2.7273	0.1	-0.34821
23563	12.497	2.8182	0.1	24.719
23564	12.223	2.7273	0.1	-0.25934
23565	12.314	2.8182	0.1	-0.69605
23566	12.041	2.7273	0.1	1.183
23567	12.132	2.8182	0.1	-2.663e-002
23568	11.949	2.8182	0.1	1.2578
23569	11.858	2.7273	0.1	2.7095
23570	23.726	2.9091	0.1	-0.23159
23571	23.817	3.	0.1	-0.21906
23572	23.909	2.9091	0.1	-0.44506
23573	23.544	2.9091	0.1	-0.23002
23574	23.635	3.	0.1	-0.33107
23575	23.361	2.9091	0.1	-0.13375
23576	23.452	3.	0.1	-0.14609
23577	23.178	2.9091	0.1	-0.11029
23578	23.27	3.	0.1	-0.1276
23579	22.996	2.9091	0.1	-8.7415e-002
23580	23.087	3.	0.1	-9.5885e-002
23581	22.813	2.9091	0.1	-7.3879e-002
23582	22.904	3.	0.1	-8.055e-002
23583	22.631	2.9091	0.1	-6.3463e-002
23584	22.722	3.	0.1	-6.8195e-002
23585	22.448	2.9091	0.1	-5.5702e-002
23586	22.539	3.	0.1	-5.9389e-002
23587	22.265	2.9091	0.1	-4.9569e-002
23588	22.357	3.	0.1	-5.2482e-002
23589	22.083	2.9091	0.1	-4.463e-002
23590	22.174	3.	0.1	-4.7005e-002
23591	21.9	2.9091	0.1	-4.0552e-002
23592	21.992	3.	0.1	-4.2527e-002
23593	21.718	2.9091	0.1	-3.7123e-002
23594	21.809	3.	0.1	-3.8795e-002
23595	21.535	2.9091	0.1	-3.4196e-002
23596	21.626	3.	0.1	-3.5632e-002
23597	21.352	2.9091	0.1	-3.1664e-002
23598	21.444	3.	0.1	-3.2913e-002
23599	21.17	2.9091	0.1	-2.9447e-002
23600	21.261	3.	0.1	-3.0547e-002
23601	20.987	2.9091	0.1	-2.7483e-002
23602	21.079	3.	0.1	-2.8464e-002
23603	20.805	2.9091	0.1	-2.5733e-002
23604	20.896	3.	0.1	-2.6608e-002
23605	20.622	2.9091	0.1	-2.4166e-002
23606	20.713	3.	0.1	-2.4954e-002
23607	20.44	2.9091	0.1	-2.2748e-002
23608	20.531	3.	0.1	-2.3464e-002
23609	20.257	2.9091	0.1	-2.1457e-002
23610	20.348	3.	0.1	-2.2111e-002
23611	20.074	2.9091	0.1	-2.0276e-002
23612	20.166	3.	0.1	-2.0876e-002
23613	19.892	2.9091	0.1	-1.919e-002
23614	19.983	3.	0.1	-1.9745e-002
23615	19.709	2.9091	0.1	-1.8186e-002
23616	19.8	3.	0.1	-1.8701e-002
23617	19.527	2.9091	0.1	-1.7253e-002
23618	19.618	3.	0.1	-1.7734e-002
23619	19.344	2.9091	0.1	-1.6383e-002
23620	19.435	3.	0.1	-1.6836e-002
23621	19.161	2.9091	0.1	-1.5567e-002
23622	19.253	3.	0.1	-1.5996e-002
23623	18.979	2.9091	0.1	-1.4793e-002
23624	19.07	3.	0.1	-1.5206e-002
23625	18.796	2.9091	0.1	-1.4024e-002
23626	18.888	3.	0.1	-1.4463e-002
23627	18.614	2.9091	0.1	2.3197
23628	18.705	3.	0.1	0.2054
23629	18.431	2.9091	0.1	6.6357
23630	18.522	3.	0.1	4.4559
23631	18.249	2.9091	0.1	11.098
23632	18.34	3.	0.1	8.8365
23633	18.066	2.9091	0.1	15.738
23634	18.157	3.	0.1	13.379
23635	17.883	2.9091	0.1	20.592
23636	17.975	3.	0.1	18.116
23637	17.701	2.9091	0.1	25.695
23638	17.792	3.	0.1	23.085
23639	17.518	2.9091	0.1	31.086
23640	17.609	3.	0.1	28.321
23641	17.336	2.9091	0.1	36.807
23642	17.427	3.	0.1	33.866
23643	17.153	2.9091	0.1	42.903
23644	17.244	3.	0.1	39.762
23645	16.97	2.9091	0.1	49.422
23646	17.062	3.	0.1	46.057
23647	16.788	2.9091	0.1	56.415
23648	16.879	3.	0.1	52.799
23649	16.605	2.9091	0.1	63.936
23650	16.697	3.	0.1	60.041
23651	16.423	2.9091	0.1	72.042
23652	16.514	3.	0.1	67.839
23653	16.24	2.9091	0.1	80.795
23654	16.331	3.	0.1	76.253
23655	16.057	2.9091	0.1	90.255
23656	16.149	3.	0.1	85.343
23657	15.875	2.9091	0.1	100.48
23658	15.966	3.	0.1	95.172
23659	15.692	2.9091	0.1	111.54
23660	15.784	3.	0.1	105.8
23661	15.51	2.9091	0.1	123.48
23662	15.601	3.	0.1	117.29
23663	15.327	2.9091	0.1	136.35
23664	15.418	3.	0.1	129.68
23665	15.145	2.9091	0.1	150.16
23666	15.236	3.	0.1	143.02
23667	14.962	2.9091	0.1	164.91
23668	15.053	3.	0.1	157.3
23669	14.779	2.9091	0.1	180.54
23670	14.871	3.	0.1	172.52
23671	14.597	2.9091	0.1	196.94
23672	14.688	3.	0.1	188.58
23673	14.414	2.9091	0.1	213.86
23674	14.505	3.	0.1	205.31
23675	14.232	2.9091	0.1	230.91
23676	14.323	3.	0.1	222.42
23677	14.049	2.9091	0.1	247.49
23678	14.14	3.	0.1	239.43
23679	13.866	2.9091	0.1	262.65
23680	13.958	3.	0.1	255.6
23681	13.684	2.9091	0.1	274.94
23682	13.775	3.	0.1	269.78
23683	13.501	2.9091	0.1	282.22
23684	13.593	3.	0.1	280.26
23685	13.319	2.9091	0.1	281.3
23686	13.41	3.	0.1	284.49
23687	13.136	2.9091	0.1	267.54
23688	13.227	3.	0.1	278.69
23689	12.953	2.9091	0.1	234.42
23690	13.045	3.	0.1	257.46
23691	12.771	2.9091	0.1	173.26
23692	12.862	3.	0.1	213.27
23693	12.588	2.9091	0.1	74.06
23694	12.68	3.	0.1	136.43
23695	12.406	2.9091	0.1	-0.78573
23696	12.497	3.	0.1	16.574
23697	12.223	2.9091	0.1	-0.36449
23698	12.314	3.	0.1	-0.76648
23699	12.041	2.9091	0.1	0.13893
23700	12.132	3.	0.1	-5.9324e-002
23701	11.949	3.	0.1	0.24951
23702	11.858	2.9091	0.1	0.90466
23703	23.726	3.0909	0.1	-0.23159
23704	23.817	3.1818	0.1	-0.2184
23705	23.909	3.0909	0.1	-0.44507
23706	23.544	3.0909	0.1	-0.23002
23707	23.635	3.1818	0.1	-0.33076
23708	23.361	3.0909	0.1	-0.13375
23709	23.452	3.1818	0.1	-0.14587
23710	23.178	3.0909	0.1	-0.11029
23711	23.27	3.1818	0.1	-0.12741
23712	22.996	3.0909	0.1	-8.7415e-002
23713	23.087	3.1818	0.1	-9.5718e-002
23714	22.813	3.0909	0.1	-7.3878e-002
23715	22.904	3.1818	0.1	-8.0396e-002
23716	22.631	3.0909	0.1	-6.3462e-002
23717	22.722	3.1818	0.1	-6.8049e-002
23718	22.448	3.0909	0.1	-5.5702e-002
23719	22.539	3.1818	0.1	-5.925e-002
23720	22.265	3.0909	0.1	-4.9569e-002
23721	22.357	3.1818	0.1	-5.2347e-002
23722	22.083	3.0909	0.1	-4.463e-002
23723	22.174	3.1818	0.1	-4.6873e-002
23724	21.9	3.0909	0.1	-4.0552e-002
23725	21.992	3.1818	0.1	-4.2398e-002
23726	21.718	3.0909	0.1	-3.7123e-002
23727	21.809	3.1818	0.1	-3.8669e-002
23728	21.535	3.0909	0.1	-3.4196e-002
23729	21.626	3.1818	0.1	-3.5508e-002
23730	21.352	3.0909	0.1	-3.1664e-002
23731	21.444	3.1818	0.1	-3.2791e-002
23732	21.17	3.0909	0.1	-2.9447e-002
23733	21.261	3.1818	0.1	-3.0428e-002
23734	20.987	3.0909	0.1	-2.7484e-002
23735	21.079	3.1818	0.1	-2.8347e-002
23736	20.805	3.0909	0.1	-2.5734e-002
23737	20.896	3.1818	0.1	-2.6494e-002
23738	20.622	3.0909	0.1	-2.4165e-002
23739	20.713	3.1818	0.1	-2.4842e-002
23740	20.44	3.0909	0.1	-2.2747e-002
23741	20.531	3.1818	0.1	-2.3355e-002
23742	20.257	3.0909	0.1	-2.1456e-002
23743	20.348	3.1818	0.1	-2.2005e-002
23744	20.074	3.0909	0.1	-2.0275e-002
23745	20.166	3.1818	0.1	-2.0772e-002
23746	19.892	3.0909	0.1	-1.9189e-002
23747	19.983	3.1818	0.1	-1.9644e-002
23748	19.709	3.0909	0.1	-1.8185e-002
23749	19.8	3.1818	0.1	-1.8601e-002
23750	19.527	3.0909	0.1	-1.7253e-002
23751	19.618	3.1818	0.1	-1.7635e-002
23752	19.344	3.0909	0.1	-1.6384e-002
23753	19.435	3.1818	0.1	-1.6735e-002
23754	19.161	3.0909	0.1	-1.5567e-002
23755	19.253	3.1818	0.1	-1.5889e-002
23756	18.979	3.0909	0.1	-1.4794e-002
23757	19.07	3.1818	0.1	-1.5084e-002
23758	18.796	3.0909	0.1	-1.4024e-002
23759	18.888	3.1818	0.1	-1.428e-002
23760	18.614	3.0909	0.1	2.3197
23761	18.705	3.1818	0.1	0.13569
23762	18.431	3.0909	0.1	6.6357
23763	18.522	3.1818	0.1	4.3613
23764	18.249	3.0909	0.1	11.098
23765	18.34	3.1818	0.1	8.719
23766	18.066	3.0909	0.1	15.738
23767	18.157	3.1818	0.1	13.237
23768	17.883	3.0909	0.1	20.592
23769	17.975	3.1818	0.1	17.947
23770	17.701	3.0909	0.1	25.695
23771	17.792	3.1818	0.1	22.886
23772	17.518	3.0909	0.1	31.086
23773	17.609	3.1818	0.1	28.09
23774	17.336	3.0909	0.1	36.807
23775	17.427	3.1818	0.1	33.598
23776	17.153	3.0909	0.1	42.903
23777	17.244	3.1818	0.1	39.453
23778	16.97	3.0909	0.1	49.422
23779	17.062	3.1818	0.1	45.701
23780	16.788	3.0909	0.1	56.415
23781	16.879	3.1818	0.1	52.39
23782	16.605	3.0909	0.1	63.936
23783	16.697	3.1818	0.1	59.572
23784	16.423	3.0909	0.1	72.042
23785	16.514	3.1818	0.1	67.302
23786	16.24	3.0909	0.1	80.795
23787	16.331	3.1818	0.1	75.637
23788	16.057	3.0909	0.1	90.255
23789	16.149	3.1818	0.1	84.636
23790	15.875	3.0909	0.1	100.48
23791	15.966	3.1818	0.1	94.362
23792	15.692	3.0909	0.1	111.54
23793	15.784	3.1818	0.1	104.87
23794	15.51	3.0909	0.1	123.48
23795	15.601	3.1818	0.1	116.22
23796	15.327	3.0909	0.1	136.35
23797	15.418	3.1818	0.1	128.47
23798	15.145	3.0909	0.1	150.16
23799	15.236	3.1818	0.1	141.63
23800	14.962	3.0909	0.1	164.91
23801	15.053	3.1818	0.1	155.73
23802	14.779	3.0909	0.1	180.54
23803	14.871	3.1818	0.1	170.73
23804	14.597	3.0909	0.1	196.94
23805	14.688	3.1818	0.1	186.55
23806	14.414	3.0909	0.1	213.86
23807	14.505	3.1818	0.1	203.04
23808	14.232	3.0909	0.1	230.91
23809	14.323	3.1818	0.1	219.91
23810	14.049	3.0909	0.1	247.49
23811	14.14	3.1818	0.1	236.69
23812	13.866	3.0909	0.1	262.65
23813	13.958	3.1818	0.1	252.67
23814	13.684	3.0909	0.1	274.94
23815	13.775	3.1818	0.1	266.75
23816	13.501	3.0909	0.1	282.22
23817	13.593	3.1818	0.1	277.27
23818	13.319	3.0909	0.1	281.3
23819	13.41	3.1818	0.1	281.8
23820	13.136	3.0909	0.1	267.54
23821	13.227	3.1818	0.1	276.73
23822	12.953	3.0909	0.1	234.42
23823	13.045	3.1818	0.1	256.85
23824	12.771	3.0909	0.1	173.26
23825	12.862	3.1818	0.1	214.83
23826	12.588	3.0909	0.1	74.06
23827	12.68	3.1818	0.1	141.04
23828	12.406	3.0909	0.1	-0.78573
23829	12.497	3.1818	0.1	24.719
23830	12.223	3.0909	0.1	-0.36449
23831	12.314	3.1818	0.1	-0.69605
23832	12.041	3.0909	0.1	0.13893
23833	12.132	3.1818	0.1	-2.6628e-002
23834	11.949	3.1818	0.1	1.2578
23835	11.858	3.0909	0.1	0.90466
23836	23.726	3.2727	0.1	-0.23075
23837	23.817	3.3636	0.1	-0.21641
23838	23.909	3.2727	0.1	-0.4448
23839	23.544	3.2727	0.1	-0.22951
23840	23.635	3.3636	0.1	-0.32982
23841	23.361	3.2727	0.1	-0.13335
23842	23.452	3.3636	0.1	-0.14521
23843	23.178	3.2727	0.1	-0.10994
23844	23.27	3.3636	0.1	-0.12684
23845	22.996	3.2727	0.1	-8.7094e-002
23846	23.087	3.3636	0.1	-9.5208e-002
23847	22.813	3.2727	0.1	-7.3579e-002
23848	22.904	3.3636	0.1	-7.9924e-002
23849	22.631	3.2727	0.1	-6.3178e-002
23850	22.722	3.3636	0.1	-6.7605e-002
23851	22.448	3.2727	0.1	-5.5427e-002
23852	22.539	3.3636	0.1	-5.8826e-002
23853	22.265	3.2727	0.1	-4.9302e-002
23854	22.357	3.3636	0.1	-5.1935e-002
23855	22.083	3.2727	0.1	-4.4369e-002
23856	22.174	3.3636	0.1	-4.6472e-002
23857	21.9	3.2727	0.1	-4.0296e-002
23858	21.992	3.3636	0.1	-4.2004e-002
23859	21.718	3.2727	0.1	-3.6872e-002
23860	21.809	3.3636	0.1	-3.8283e-002
23861	21.535	3.2727	0.1	-3.3949e-002
23862	21.626	3.3636	0.1	-3.5129e-002
23863	21.352	3.2727	0.1	-3.1421e-002
23864	21.444	3.3636	0.1	-3.2419e-002
23865	21.17	3.2727	0.1	-2.921e-002
23866	21.261	3.3636	0.1	-3.0064e-002
23867	20.987	3.2727	0.1	-2.7252e-002
23868	21.079	3.3636	0.1	-2.7991e-002
23869	20.805	3.2727	0.1	-2.5507e-002
23870	20.896	3.3636	0.1	-2.6147e-002
23871	20.622	3.2727	0.1	-2.3945e-002
23872	20.713	3.3636	0.1	-2.4503e-002
23873	20.44	3.2727	0.1	-2.2532e-002
23874	20.531	3.3636	0.1	-2.3025e-002
23875	20.257	3.2727	0.1	-2.1246e-002
23876	20.348	3.3636	0.1	-2.1683e-002
23877	20.074	3.2727	0.1	-2.007e-002
23878	20.166	3.3636	0.1	-2.0459e-002
23879	19.892	3.2727	0.1	-1.8988e-002
23880	19.983	3.3636	0.1	-1.9335e-002
23881	19.709	3.2727	0.1	-1.7987e-002
23882	19.8	3.3636	0.1	-1.8298e-002
23883	19.527	3.2727	0.1	-1.7053e-002
23884	19.618	3.3636	0.1	-1.7335e-002
23885	19.344	3.2727	0.1	-1.6177e-002
23886	19.435	3.3636	0.1	-1.6429e-002
23887	19.161	3.2727	0.1	-1.5342e-002
23888	19.253	3.3636	0.1	-1.5567e-002
23889	18.979	3.2727	0.1	-1.4513e-002
23890	19.07	3.3636	0.1	-1.4717e-002
23891	18.796	3.2727	0.1	-1.341e-002
23892	18.888	3.3636	0.1	-1.375e-002
23893	18.614	3.2727	0.1	2.1522
23894	18.705	3.3636	0.1	8.4441e-003
23895	18.431	3.2727	0.1	6.4235
23896	18.522	3.3636	0.1	4.079
23897	18.249	3.2727	0.1	10.838
23898	18.34	3.3636	0.1	8.3684
23899	18.066	3.2727	0.1	15.427
23900	18.157	3.3636	0.1	12.813
23901	17.883	3.2727	0.1	20.224
23902	17.975	3.3636	0.1	17.443
23903	17.701	3.2727	0.1	25.264
23904	17.792	3.3636	0.1	22.294
23905	17.518	3.2727	0.1	30.586
23906	17.609	3.3636	0.1	27.401
23907	17.336	3.2727	0.1	36.23
23908	17.427	3.3636	0.1	32.801
23909	17.153	3.2727	0.1	42.239
23910	17.244	3.3636	0.1	38.534
23911	16.97	3.2727	0.1	48.658
23912	17.062	3.3636	0.1	44.644
23913	16.788	3.2727	0.1	55.538
23914	16.879	3.3636	0.1	51.177
23915	16.605	3.2727	0.1	62.929
23916	16.697	3.3636	0.1	58.18
23917	16.423	3.2727	0.1	70.888
23918	16.514	3.3636	0.1	65.706
23919	16.24	3.2727	0.1	79.471
23920	16.331	3.3636	0.1	73.807
23921	16.057	3.2727	0.1	88.738
23922	16.149	3.3636	0.1	82.54
23923	15.875	3.2727	0.1	98.745
23924	15.966	3.3636	0.1	91.96
23925	15.692	3.2727	0.1	109.55
23926	15.784	3.3636	0.1	102.12
23927	15.51	3.2727	0.1	121.2
23928	15.601	3.3636	0.1	113.08
23929	15.327	3.2727	0.1	133.74
23930	15.418	3.3636	0.1	124.87
23931	15.145	3.2727	0.1	147.19
23932	15.236	3.3636	0.1	137.52
23933	14.962	3.2727	0.1	161.54
23934	15.053	3.3636	0.1	151.05
23935	14.779	3.2727	0.1	176.73
23936	14.871	3.3636	0.1	165.42
23937	14.597	3.2727	0.1	192.65
23938	14.688	3.3636	0.1	180.57
23939	14.414	3.2727	0.1	209.09
23940	14.505	3.3636	0.1	196.34
23941	14.232	3.2727	0.1	225.67
23942	14.323	3.3636	0.1	212.46
23943	14.049	3.2727	0.1	241.83
23944	14.14	3.3636	0.1	228.53
23945	13.866	3.2727	0.1	256.69
23946	13.958	3.3636	0.1	243.9
23947	13.684	3.2727	0.1	268.93
23948	13.775	3.3636	0.1	257.59
23949	13.501	3.2727	0.1	276.58
23950	13.593	3.3636	0.1	268.13
23951	13.319	3.2727	0.1	276.72
23952	13.41	3.3636	0.1	273.35
23953	13.136	3.2727	0.1	265.08
23954	13.227	3.3636	0.1	270.07
23955	12.953	3.2727	0.1	235.54
23956	13.045	3.3636	0.1	253.65
23957	12.771	3.2727	0.1	179.64
23958	12.862	3.3636	0.1	217.44
23959	12.588	3.2727	0.1	86.695
23960	12.68	3.3636	0.1	152.16
23961	12.406	3.2727	0.1	-0.3482
23962	12.497	3.3636	0.1	46.024
23963	12.223	3.2727	0.1	-0.25933
23964	12.314	3.3636	0.1	-0.1296
23965	12.041	3.2727	0.1	1.183
23966	12.132	3.3636	0.1	-0.12559
23967	11.949	3.3636	0.1	-0.66906
23968	11.858	3.2727	0.1	2.7095
23969	23.726	3.4545	0.1	-0.22905
23970	23.817	3.5455	0.1	-0.21303
23971	23.909	3.4545	0.1	-0.44425
23972	23.544	3.4545	0.1	-0.22846
23973	23.635	3.5455	0.1	-0.32821
23974	23.361	3.4545	0.1	-0.13253
23975	23.452	3.5455	0.1	-0.14408
23976	23.178	3.4545	0.1	-0.10921
23977	23.27	3.5455	0.1	-0.12586
23978	22.996	3.4545	0.1	-8.6434e-002
23979	23.087	3.5455	0.1	-9.433e-002
23980	22.813	3.4545	0.1	-7.2961e-002
23981	22.904	3.5455	0.1	-7.9111e-002
23982	22.631	3.4545	0.1	-6.2592e-002
23983	22.722	3.5455	0.1	-6.6838e-002
23984	22.448	3.4545	0.1	-5.4863e-002
23985	22.539	3.5455	0.1	-5.8091e-002
23986	22.265	3.4545	0.1	-4.8754e-002
23987	22.357	3.5455	0.1	-5.1224e-002
23988	22.083	3.4545	0.1	-4.3833e-002
23989	22.174	3.5455	0.1	-4.5778e-002
23990	21.9	3.4545	0.1	-3.977e-002
23991	21.992	3.5455	0.1	-4.1326e-002
23992	21.718	3.4545	0.1	-3.6356e-002
23993	21.809	3.5455	0.1	-3.7617e-002
23994	21.535	3.4545	0.1	-3.3442e-002
23995	21.626	3.5455	0.1	-3.4476e-002
23996	21.352	3.4545	0.1	-3.0925e-002
23997	21.444	3.5455	0.1	-3.1779e-002
23998	21.17	3.4545	0.1	-2.8725e-002
23999	21.261	3.5455	0.1	-2.9438e-002
24000	20.987	3.4545	0.1	-2.6779e-002
24001	21.079	3.5455	0.1	-2.7381e-002
24002	20.805	3.4545	0.1	-2.5045e-002
24003	20.896	3.5455	0.1	-2.5551e-002
24004	20.622	3.4545	0.1	-2.3494e-002
24005	20.713	3.5455	0.1	-2.3923e-002
24006	20.44	3.4545	0.1	-2.2093e-002
24007	20.531	3.5455	0.1	-2.2461e-002
24008	20.257	3.4545	0.1	-2.0818e-002
24009	20.348	3.5455	0.1	-2.1132e-002
24010	20.074	3.4545	0.1	-1.9651e-002
24011	20.166	3.5455	0.1	-1.9922e-002
24012	19.892	3.4545	0.1	-1.8577e-002
24013	19.983	3.5455	0.1	-1.881e-002
24014	19.709	3.4545	0.1	-1.7582e-002
24015	19.8	3.5455	0.1	-1.7781e-002
24016	19.527	3.4545	0.1	-1.6649e-002
24017	19.618	3.5455	0.1	-1.6822e-002
24018	19.344	3.4545	0.1	-1.5762e-002
24019	19.435	3.5455	0.1	-1.5911e-002
24020	19.161	3.4545	0.1	-1.4894e-002
24021	19.253	3.5455	0.1	-1.5027e-002
24022	18.979	3.4545	0.1	-1.3963e-002
24023	19.07	3.5455	0.1	-1.411e-002
24024	18.796	3.4545	0.1	-1.2356e-002
24025	18.888	3.5455	0.1	-1.2921e-002
24026	18.614	3.4545	0.1	1.8199
24027	18.705	3.5455	0.1	-2.8326e-003
24028	18.431	3.4545	0.1	6.0025
24029	18.522	3.5455	0.1	3.6135
24030	18.249	3.4545	0.1	10.323
24031	18.34	3.5455	0.1	7.7906
24032	18.066	3.4545	0.1	14.81
24033	18.157	3.5455	0.1	12.114
24034	17.883	3.4545	0.1	19.496
24035	17.975	3.5455	0.1	16.615
24036	17.701	3.4545	0.1	24.414
24037	17.792	3.5455	0.1	21.322
24038	17.518	3.4545	0.1	29.599
24039	17.609	3.5455	0.1	26.27
24040	17.336	3.4545	0.1	35.09
24041	17.427	3.5455	0.1	31.493
24042	17.153	3.4545	0.1	40.926
24043	17.244	3.5455	0.1	37.028
24044	16.97	3.4545	0.1	47.151
24045	17.062	3.5455	0.1	42.914
24046	16.788	3.4545	0.1	53.809
24047	16.879	3.5455	0.1	49.192
24048	16.605	3.4545	0.1	60.947
24049	16.697	3.5455	0.1	55.906
24050	16.423	3.4545	0.1	68.617
24051	16.514	3.5455	0.1	63.102
24052	16.24	3.4545	0.1	76.869
24053	16.331	3.5455	0.1	70.826
24054	16.057	3.4545	0.1	85.756
24055	16.149	3.5455	0.1	79.126
24056	15.875	3.4545	0.1	95.331
24057	15.966	3.5455	0.1	88.052
24058	15.692	3.4545	0.1	105.64
24059	15.784	3.5455	0.1	97.649
24060	15.51	3.4545	0.1	116.73
24061	15.601	3.5455	0.1	107.96
24062	15.327	3.4545	0.1	128.64
24063	15.418	3.5455	0.1	119.02
24064	15.145	3.4545	0.1	141.37
24065	15.236	3.5455	0.1	130.85
24066	14.962	3.4545	0.1	154.93
24067	15.053	3.5455	0.1	143.46
24068	14.779	3.4545	0.1	169.26
24069	14.871	3.5455	0.1	156.82
24070	14.597	3.4545	0.1	184.25
24071	14.688	3.5455	0.1	170.85
24072	14.414	3.4545	0.1	199.7
24073	14.505	3.5455	0.1	185.43
24074	14.232	3.4545	0.1	215.32
24075	14.323	3.5455	0.1	200.33
24076	14.049	3.4545	0.1	230.59
24077	14.14	3.5455	0.1	215.18
24078	13.866	3.4545	0.1	244.76
24079	13.958	3.5455	0.1	229.43
24080	13.684	3.4545	0.1	256.7
24081	13.775	3.5455	0.1	242.26
24082	13.501	3.4545	0.1	264.72
24083	13.593	3.5455	0.1	252.44
24084	13.319	3.4545	0.1	266.37
24085	13.41	3.5455	0.1	258.14
24086	13.136	3.4545	0.1	258.01
24087	13.227	3.5455	0.1	256.72
24088	12.953	3.4545	0.1	234.33
24089	13.045	3.5455	0.1	244.3
24090	12.771	3.4545	0.1	187.64
24091	12.862	3.5455	0.1	215.23
24092	12.588	3.4545	0.1	106.97
24093	12.68	3.5455	0.1	161.27
24094	12.406	3.4545	0.1	1.8542
24095	12.497	3.5455	0.1	70.489
24096	12.223	3.4545	0.1	7.2625e-002
24097	12.314	3.5455	0.1	-1.0457
24098	12.041	3.4545	0.1	-1.7466
24099	12.132	3.5455	0.1	3.5858
24100	11.949	3.5455	0.1	4.7981
24101	11.858	3.4545	0.1	-2.3139
24102	23.726	3.6364	0.1	-0.22641
24103	23.817	3.7273	0.1	-0.20814
24104	23.909	3.6364	0.1	-0.44338
24105	23.544	3.6364	0.1	-0.22684
24106	23.635	3.7273	0.1	-0.32586
24107	23.361	3.6364	0.1	-0.13125
24108	23.452	3.7273	0.1	-0.14243
24109	23.178	3.6364	0.1	-0.10808
24110	23.27	3.7273	0.1	-0.12441
24111	22.996	3.6364	0.1	-8.5402e-002
24112	23.087	3.7273	0.1	-9.3037e-002
24113	22.813	3.6364	0.1	-7.1996e-002
24114	22.904	3.7273	0.1	-7.7914e-002
24115	22.631	3.6364	0.1	-6.1673e-002
24116	22.722	3.7273	0.1	-6.5707e-002
24117	22.448	3.6364	0.1	-5.3977e-002
24118	22.539	3.7273	0.1	-5.7006e-002
24119	22.265	3.6364	0.1	-4.7891e-002
24120	22.357	3.7273	0.1	-5.0173e-002
24121	22.083	3.6364	0.1	-4.2991e-002
24122	22.174	3.7273	0.1	-4.4753e-002
24123	21.9	3.6364	0.1	-3.8946e-002
24124	21.992	3.7273	0.1	-4.0323e-002
24125	21.718	3.6364	0.1	-3.5548e-002
24126	21.809	3.7273	0.1	-3.6637e-002
24127	21.535	3.6364	0.1	-3.2651e-002
24128	21.626	3.7273	0.1	-3.3517e-002
24129	21.352	3.6364	0.1	-3.0152e-002
24130	21.444	3.7273	0.1	-3.0842e-002
24131	21.17	3.6364	0.1	-2.797e-002
24132	21.261	3.7273	0.1	-2.8524e-002
24133	20.987	3.6364	0.1	-2.6043e-002
24134	21.079	3.7273	0.1	-2.6489e-002
24135	20.805	3.6364	0.1	-2.4329e-002
24136	20.896	3.7273	0.1	-2.4684e-002
24137	20.622	3.6364	0.1	-2.2798e-002
24138	20.713	3.7273	0.1	-2.308e-002
24139	20.44	3.6364	0.1	-2.1414e-002
24140	20.531	3.7273	0.1	-2.164e-002
24141	20.257	3.6364	0.1	-2.0157e-002
24142	20.348	3.7273	0.1	-2.0334e-002
24143	20.074	3.6364	0.1	-1.9007e-002
24144	20.166	3.7273	0.1	-1.9144e-002
24145	19.892	3.6364	0.1	-1.7945e-002
24146	19.983	3.7273	0.1	-1.8051e-002
24147	19.709	3.6364	0.1	-1.6958e-002
24148	19.8	3.7273	0.1	-1.7036e-002
24149	19.527	3.6364	0.1	-1.6027e-002
24150	19.618	3.7273	0.1	-1.6084e-002
24151	19.344	3.6364	0.1	-1.5126e-002
24152	19.435	3.7273	0.1	-1.5169e-002
24153	19.161	3.6364	0.1	-1.4215e-002
24154	19.253	3.7273	0.1	-1.4259e-002
24155	18.979	3.6364	0.1	-1.3161e-002
24156	19.07	3.7273	0.1	-1.3267e-002
24157	18.796	3.6364	0.1	-1.108e-002
24158	18.888	3.7273	0.1	-1.1857e-002
24159	18.614	3.6364	0.1	1.3283
24160	18.705	3.7273	0.1	-4.2643e-003
24161	18.431	3.6364	0.1	5.3796
24162	18.522	3.7273	0.1	2.9716
24163	18.249	3.6364	0.1	9.5616
24164	18.34	3.7273	0.1	6.9951
24165	18.066	3.6364	0.1	13.899
24166	18.157	3.7273	0.1	11.155
24167	17.883	3.6364	0.1	18.422
24168	17.975	3.7273	0.1	15.477
24169	17.701	3.6364	0.1	23.161
24170	17.792	3.7273	0.1	19.989
24171	17.518	3.6364	0.1	28.147
24172	17.609	3.7273	0.1	24.722
24173	17.336	3.6364	0.1	33.416
24174	17.427	3.7273	0.1	29.706
24175	17.153	3.6364	0.1	39.001
24176	17.244	3.7273	0.1	34.972
24177	16.97	3.6364	0.1	44.943
24178	17.062	3.7273	0.1	40.556
24179	16.788	3.6364	0.1	51.279
24180	16.879	3.7273	0.1	46.492
24181	16.605	3.6364	0.1	58.051
24182	16.697	3.7273	0.1	52.818
24183	16.423	3.6364	0.1	65.302
24184	16.514	3.7273	0.1	59.57
24185	16.24	3.6364	0.1	73.075
24186	16.331	3.7273	0.1	66.788
24187	16.057	3.6364	0.1	81.415
24188	16.149	3.7273	0.1	74.511
24189	15.875	3.6364	0.1	90.365
24190	15.966	3.7273	0.1	82.776
24191	15.692	3.6364	0.1	99.963
24192	15.784	3.7273	0.1	91.62
24193	15.51	3.6364	0.1	110.24
24194	15.601	3.7273	0.1	101.07
24195	15.327	3.6364	0.1	121.23
24196	15.418	3.7273	0.1	111.16
24197	15.145	3.6364	0.1	132.94
24198	15.236	3.7273	0.1	121.89
24199	14.962	3.6364	0.1	145.34
24200	15.053	3.7273	0.1	133.27
24201	14.779	3.6364	0.1	158.41
24202	14.871	3.7273	0.1	145.25
24203	14.597	3.6364	0.1	172.03
24204	14.688	3.7273	0.1	157.79
24205	14.414	3.6364	0.1	186.04
24206	14.505	3.7273	0.1	170.74
24207	14.232	3.6364	0.1	200.18
24208	14.323	3.7273	0.1	183.93
24209	14.049	3.6364	0.1	214.02
24210	14.14	3.7273	0.1	197.04
24211	13.866	3.6364	0.1	226.94
24212	13.958	3.7273	0.1	209.6
24213	13.684	3.6364	0.1	238.
24214	13.775	3.7273	0.1	220.92
24215	13.501	3.6364	0.1	245.84
24216	13.593	3.7273	0.1	229.97
24217	13.319	3.6364	0.1	248.43
24218	13.41	3.7273	0.1	235.24
24219	13.136	3.6364	0.1	242.84
24220	13.227	3.7273	0.1	234.51
24221	12.953	3.6364	0.1	224.74
24222	13.045	3.7273	0.1	224.52
24223	12.771	3.6364	0.1	187.67
24224	12.862	3.7273	0.1	200.44
24225	12.588	3.6364	0.1	121.8
24226	12.68	3.7273	0.1	155.23
24227	12.406	3.6364	0.1	13.826
24228	12.497	3.7273	0.1	77.258
24229	12.223	3.6364	0.1	2.3788
24230	12.314	3.7273	0.1	0.23442
24231	12.041	3.6364	0.1	10.355
24232	12.132	3.7273	0.1	-9.0674
24233	11.949	3.7273	0.1	10.715
24234	11.858	3.6364	0.1	21.182
24235	23.726	3.8182	0.1	-0.22273
24236	23.817	3.9091	0.1	-0.2016
24237	23.909	3.8182	0.1	-0.44215
24238	23.544	3.8182	0.1	-0.22455
24239	23.635	3.9091	0.1	-0.32266
24240	23.361	3.8182	0.1	-0.12945
24241	23.452	3.9091	0.1	-0.14015
24242	23.178	3.8182	0.1	-0.10648
24243	23.27	3.9091	0.1	-0.12242
24244	22.996	3.8182	0.1	-8.3943e-002
24245	23.087	3.9091	0.1	-9.1259e-002
24246	22.813	3.8182	0.1	-7.0627e-002
24247	22.904	3.9091	0.1	-7.6261e-002
24248	22.631	3.8182	0.1	-6.0368e-002
24249	22.722	3.9091	0.1	-6.4143e-002
24250	22.448	3.8182	0.1	-5.2719e-002
24251	22.539	3.9091	0.1	-5.5504e-002
24252	22.265	3.8182	0.1	-4.667e-002
24253	22.357	3.9091	0.1	-4.8719e-002
24254	22.083	3.8182	0.1	-4.1797e-002
24255	22.174	3.9091	0.1	-4.3338e-002
24256	21.9	3.8182	0.1	-3.7779e-002
24257	21.992	3.9091	0.1	-3.8941e-002
24258	21.718	3.8182	0.1	-3.4409e-002
24259	21.809	3.9091	0.1	-3.5289e-002
24260	21.535	3.8182	0.1	-3.154e-002
24261	21.626	3.9091	0.1	-3.2203e-002
24262	21.352	3.8182	0.1	-2.9067e-002
24263	21.444	3.9091	0.1	-2.9561e-002
24264	21.17	3.8182	0.1	-2.6913e-002
24265	21.261	3.9091	0.1	-2.7277e-002
24266	20.987	3.8182	0.1	-2.5014e-002
24267	21.079	3.9091	0.1	-2.5279e-002
24268	20.805	3.8182	0.1	-2.3329e-002
24269	20.896	3.9091	0.1	-2.3507e-002
24270	20.622	3.8182	0.1	-2.1826e-002
24271	20.713	3.9091	0.1	-2.1938e-002
24272	20.44	3.8182	0.1	-2.0471e-002
24273	20.531	3.9091	0.1	-2.0532e-002
24274	20.257	3.8182	0.1	-1.9239e-002
24275	20.348	3.9091	0.1	-1.9259e-002
24276	20.074	3.8182	0.1	-1.8113e-002
24277	20.166	3.9091	0.1	-1.8099e-002
24278	19.892	3.8182	0.1	-1.7072e-002
24279	19.983	3.9091	0.1	-1.7032e-002
24280	19.709	3.8182	0.1	-1.6099e-002
24281	19.8	3.9091	0.1	-1.604e-002
24282	19.527	3.8182	0.1	-1.5172e-002
24283	19.618	3.9091	0.1	-1.5099e-002
24284	19.344	3.8182	0.1	-1.4261e-002
24285	19.435	3.9091	0.1	-1.4187e-002
24286	19.161	3.8182	0.1	-1.3307e-002
24287	19.253	3.9091	0.1	-1.3256e-002
24288	18.979	3.8182	0.1	-1.2133e-002
24289	19.07	3.9091	0.1	-1.2197e-002
24290	18.796	3.8182	0.1	-9.7385e-003
24291	18.888	3.9091	0.1	-1.0618e-002
24292	18.614	3.8182	0.1	0.6894
24293	18.705	3.9091	0.1	-4.4741e-003
24294	18.431	3.8182	0.1	4.5643
24295	18.522	3.9091	0.1	2.1632
24296	18.249	3.8182	0.1	8.567
24297	18.34	3.9091	0.1	5.9943
24298	18.066	3.8182	0.1	12.712
24299	18.157	3.9091	0.1	9.9498
24300	17.883	3.8182	0.1	17.025
24301	17.975	3.9091	0.1	14.051
24302	17.701	3.8182	0.1	21.533
24303	17.792	3.9091	0.1	18.323
24304	17.518	3.8182	0.1	26.264
24305	17.609	3.9091	0.1	22.791
24306	17.336	3.8182	0.1	31.247
24307	17.427	3.9091	0.1	27.48
24308	17.153	3.8182	0.1	36.513
24309	17.244	3.9091	0.1	32.418
24310	16.97	3.8182	0.1	42.093
24311	17.062	3.9091	0.1	37.632
24312	16.788	3.8182	0.1	48.02
24313	16.879	3.9091	0.1	43.151
24314	16.605	3.8182	0.1	54.326
24315	16.697	3.9091	0.1	49.004
24316	16.423	3.8182	0.1	61.047
24317	16.514	3.9091	0.1	55.218
24318	16.24	3.8182	0.1	68.215
24319	16.331	3.9091	0.1	61.824
24320	16.057	3.8182	0.1	75.864
24321	16.149	3.9091	0.1	68.848
24322	15.875	3.8182	0.1	84.024
24323	15.966	3.9091	0.1	76.316
24324	15.692	3.8182	0.1	92.723
24325	15.784	3.9091	0.1	84.25
24326	15.51	3.8182	0.1	101.98
24327	15.601	3.9091	0.1	92.669
24328	15.327	3.8182	0.1	111.81
24329	15.418	3.9091	0.1	101.58
24330	15.145	3.8182	0.1	122.22
24331	15.236	3.9091	0.1	110.99
24332	14.962	3.8182	0.1	133.17
24333	15.053	3.9091	0.1	120.88
24334	14.779	3.8182	0.1	144.63
24335	14.871	3.9091	0.1	131.21
24336	14.597	3.8182	0.1	156.49
24337	14.688	3.9091	0.1	141.91
24338	14.414	3.8182	0.1	168.63
24339	14.505	3.9091	0.1	152.87
24340	14.232	3.8182	0.1	180.79
24341	14.323	3.9091	0.1	163.92
24342	14.049	3.8182	0.1	192.63
24343	14.14	3.9091	0.1	174.78
24344	13.866	3.8182	0.1	203.62
24345	13.958	3.9091	0.1	185.05
24346	13.684	3.8182	0.1	212.97
24347	13.775	3.9091	0.1	194.12
24348	13.501	3.8182	0.1	219.52
24349	13.593	3.9091	0.1	201.07
24350	13.319	3.8182	0.1	221.54
24351	13.41	3.9091	0.1	204.54
24352	13.136	3.8182	0.1	216.51
24353	13.227	3.9091	0.1	202.44
24354	12.953	3.8182	0.1	200.6
24355	13.045	3.9091	0.1	191.69
24356	12.771	3.8182	0.1	168.22
24357	12.862	3.9091	0.1	167.44
24358	12.588	3.8182	0.1	110.11
24359	12.68	3.9091	0.1	122.57
24360	12.406	3.8182	0.1	14.972
24361	12.497	3.9091	0.1	45.003
24362	12.223	3.8182	0.1	-10.53
24363	12.314	3.9091	0.1	8.8316
24364	12.041	3.8182	0.1	-7.068
24365	12.132	3.9091	0.1	-42.429
24366	11.949	3.9091	0.1	176.37
24367	11.858	3.8182	0.1	-14.729
24368	23.726	4.	0.1	-0.21786
24369	23.817	4.0909	0.1	-0.19317
24370	23.909	4.	0.1	-0.44048
24371	23.544	4.	0.1	-0.22149
24372	23.635	4.0909	0.1	-0.31844
24373	23.361	4.	0.1	-0.12703
24374	23.452	4.0909	0.1	-0.13714
24375	23.178	4.	0.1	-0.10432
24376	23.27	4.0909	0.1	-0.11978
24377	22.996	4.	0.1	-8.1967e-002
24378	23.087	4.0909	0.1	-8.8884e-002
24379	22.813	4.	0.1	-6.8771e-002
24380	22.904	4.0909	0.1	-7.4049e-002
24381	22.631	4.	0.1	-5.8595e-002
24382	22.722	4.0909	0.1	-6.2046e-002
24383	22.448	4.	0.1	-5.1009e-002
24384	22.539	4.0909	0.1	-5.349e-002
24385	22.265	4.	0.1	-4.501e-002
24386	22.357	4.0909	0.1	-4.677e-002
24387	22.083	4.	0.1	-4.0182e-002
24388	22.174	4.0909	0.1	-4.1444e-002
24389	21.9	4.	0.1	-3.6204e-002
24390	21.992	4.0909	0.1	-3.7101e-002
24391	21.718	4.	0.1	-3.2874e-002
24392	21.809	4.0909	0.1	-3.3498e-002
24393	21.535	4.	0.1	-3.0046e-002
24394	21.626	4.0909	0.1	-3.0463e-002
24395	21.352	4.	0.1	-2.7615e-002
24396	21.444	4.0909	0.1	-2.7871e-002
24397	21.17	4.	0.1	-2.5503e-002
24398	21.261	4.0909	0.1	-2.564e-002
24399	20.987	4.	0.1	-2.3647e-002
24400	21.079	4.0909	0.1	-2.3693e-002
24401	20.805	4.	0.1	-2.2003e-002
24402	20.896	4.0909	0.1	-2.1972e-002
24403	20.622	4.	0.1	-2.0541e-002
24404	20.713	4.0909	0.1	-2.0453e-002
24405	20.44	4.	0.1	-1.9226e-002
24406	20.531	4.0909	0.1	-1.9096e-002
24407	20.257	4.	0.1	-1.8033e-002
24408	20.348	4.0909	0.1	-1.7869e-002
24409	20.074	4.	0.1	-1.694e-002
24410	20.166	4.0909	0.1	-1.6751e-002
24411	19.892	4.	0.1	-1.5928e-002
24412	19.983	4.0909	0.1	-1.5724e-002
24413	19.709	4.	0.1	-1.4978e-002
24414	19.8	4.0909	0.1	-1.4763e-002
24415	19.527	4.	0.1	-1.4065e-002
24416	19.618	4.0909	0.1	-1.3848e-002
24417	19.344	4.	0.1	-1.3152e-002
24418	19.435	4.0909	0.1	-1.2949e-002
24419	19.161	4.	0.1	-1.2166e-002
24420	19.253	4.0909	0.1	-1.201e-002
24421	18.979	4.	0.1	-1.0904e-002
24422	19.07	4.0909	0.1	-1.0909e-002
24423	18.796	4.	0.1	-8.3988e-003
24424	18.888	4.0909	0.1	-9.2494e-003
24425	18.614	4.	0.1	6.7698e-002
24426	18.705	4.0909	0.1	-4.2543e-003
24427	18.431	4.	0.1	3.5688
24428	18.522	4.0909	0.1	1.2027
24429	18.249	4.	0.1	7.3551
24430	18.34	4.0909	0.1	4.8031
24431	18.066	4.	0.1	11.268
24432	18.157	4.0909	0.1	8.5193
24433	17.883	4.	0.1	15.33
24434	17.975	4.0909	0.1	12.363
24435	17.701	4.	0.1	19.562
24436	17.792	4.0909	0.1	16.355
24437	17.518	4.	0.1	23.989
24438	17.609	4.0909	0.1	20.515
24439	17.336	4.	0.1	28.635
24440	17.427	4.0909	0.1	24.865
24441	17.153	4.	0.1	33.522
24442	17.244	4.0909	0.1	29.425
24443	16.97	4.	0.1	38.677
24444	17.062	4.0909	0.1	34.215
24445	16.788	4.	0.1	44.123
24446	16.879	4.0909	0.1	39.258
24447	16.605	4.	0.1	49.884
24448	16.697	4.0909	0.1	44.572
24449	16.423	4.	0.1	55.985
24450	16.514	4.0909	0.1	50.176
24451	16.24	4.	0.1	62.447
24452	16.331	4.0909	0.1	56.087
24453	16.057	4.	0.1	69.29
24454	16.149	4.0909	0.1	62.321
24455	15.875	4.	0.1	76.533
24456	15.966	4.0909	0.1	68.891
24457	15.692	4.	0.1	84.188
24458	15.784	4.0909	0.1	75.802
24459	15.51	4.	0.1	92.261
24460	15.601	4.0909	0.1	83.059
24461	15.327	4.	0.1	100.75
24462	15.418	4.0909	0.1	90.655
24463	15.145	4.	0.1	109.64
24464	15.236	4.0909	0.1	98.575
24465	14.962	4.	0.1	118.9
24466	15.053	4.0909	0.1	106.79
24467	14.779	4.	0.1	128.48
24468	14.871	4.0909	0.1	115.25
24469	14.597	4.	0.1	138.28
24470	14.688	4.0909	0.1	123.88
24471	14.414	4.	0.1	148.17
24472	14.505	4.0909	0.1	132.57
24473	14.232	4.	0.1	157.93
24474	14.323	4.0909	0.1	141.15
24475	14.049	4.	0.1	167.24
24476	14.14	4.0909	0.1	149.37
24477	13.866	4.	0.1	175.63
24478	13.958	4.0909	0.1	156.85
24479	13.684	4.	0.1	182.38
24480	13.775	4.0909	0.1	163.
24481	13.501	4.	0.1	186.37
24482	13.593	4.0909	0.1	166.94
24483	13.319	4.	0.1	185.91
24484	13.41	4.0909	0.1	167.28
24485	13.136	4.	0.1	178.38
24486	13.227	4.0909	0.1	161.81
24487	12.953	4.	0.1	159.66
24488	13.045	4.0909	0.1	147.04
24489	12.771	4.	0.1	123.36
24490	12.862	4.0909	0.1	117.34
24491	12.588	4.	0.1	59.506
24492	12.68	4.0909	0.1	64.541
24493	12.406	4.	0.1	8.8805
24494	12.497	4.0909	0.1	7.6998
24495	12.223	4.	0.1	-22.501
24496	12.314	4.0909	0.1	9.5012
24497	12.041	4.	0.1	176.37
24498	12.132	4.0909	0.1	-31.337
24499	11.949	4.0909	0.1	262.04
24500	11.858	4.	0.1	350.41
24501	23.726	4.1818	0.1	-0.21157
24502	23.817	4.2727	0.1	-0.18251
24503	23.909	4.1818	0.1	-0.43825
24504	23.544	4.1818	0.1	-0.21748
24505	23.635	4.2727	0.1	-0.31295
24506	23.361	4.1818	0.1	-0.12384
24507	23.452	4.2727	0.1	-0.1332
24508	23.178	4.1818	0.1	-0.10146
24509	23.27	4.2727	0.1	-0.11631
24510	22.996	4.1818	0.1	-7.9345e-002
24511	23.087	4.2727	0.1	-8.575e-002
24512	22.813	4.1818	0.1	-6.6302e-002
24513	22.904	4.2727	0.1	-7.1122e-002
24514	22.631	4.1818	0.1	-5.6239e-002
24515	22.722	4.2727	0.1	-5.9267e-002
24516	22.448	4.1818	0.1	-4.8737e-002
24517	22.539	4.2727	0.1	-5.0824e-002
24518	22.265	4.1818	0.1	-4.2808e-002
24519	22.357	4.2727	0.1	-4.4194e-002
24520	22.083	4.1818	0.1	-3.8045e-002
24521	22.174	4.2727	0.1	-3.8952e-002
24522	21.9	4.1818	0.1	-3.4131e-002
24523	21.992	4.2727	0.1	-3.4687e-002
24524	21.718	4.1818	0.1	-3.0862e-002
24525	21.809	4.2727	0.1	-3.1162e-002
24526	21.535	4.1818	0.1	-2.8095e-002
24527	21.626	4.2727	0.1	-2.8203e-002
24528	21.352	4.1818	0.1	-2.5727e-002
24529	21.444	4.2727	0.1	-2.5691e-002
24530	21.17	4.1818	0.1	-2.3678e-002
24531	21.261	4.2727	0.1	-2.3534e-002
24532	20.987	4.1818	0.1	-2.1882e-002
24533	21.079	4.2727	0.1	-2.1663e-002
24534	20.805	4.1818	0.1	-2.0299e-002
24535	20.896	4.2727	0.1	-2.0016e-002
24536	20.622	4.1818	0.1	-1.8897e-002
24537	20.713	4.2727	0.1	-1.8568e-002
24538	20.44	4.1818	0.1	-1.7638e-002
24539	20.531	4.2727	0.1	-1.7279e-002
24540	20.257	4.1818	0.1	-1.6495e-002
24541	20.348	4.2727	0.1	-1.6116e-002
24542	20.074	4.1818	0.1	-1.5452e-002
24543	20.166	4.2727	0.1	-1.5059e-002
24544	19.892	4.1818	0.1	-1.4486e-002
24545	19.983	4.2727	0.1	-1.4088e-002
24546	19.709	4.1818	0.1	-1.3572e-002
24547	19.8	4.2727	0.1	-1.3177e-002
24548	19.527	4.1818	0.1	-1.2686e-002
24549	19.618	4.2727	0.1	-1.2305e-002
24550	19.344	4.1818	0.1	-1.1786e-002
24551	19.435	4.2727	0.1	-1.1436e-002
24552	19.161	4.1818	0.1	-1.0792e-002
24553	19.253	4.2727	0.1	-1.0515e-002
24554	18.979	4.1818	0.1	-9.4972e-003
24555	19.07	4.2727	0.1	-9.4167e-003
24556	18.796	4.1818	0.1	-7.0769e-003
24557	18.888	4.2727	0.1	-7.7843e-003
24558	18.614	4.1818	0.1	7.811e-003
24559	18.705	4.2727	0.1	-3.7974e-003
24560	18.431	4.1818	0.1	2.4077
24561	18.522	4.2727	0.1	0.188
24562	18.249	4.1818	0.1	5.9443
24563	18.34	4.2727	0.1	3.4383
24564	18.066	4.1818	0.1	9.5926
24565	18.157	4.2727	0.1	6.8849
24566	17.883	4.1818	0.1	13.368
24567	17.975	4.2727	0.1	10.441
24568	17.701	4.1818	0.1	17.288
24569	17.792	4.2727	0.1	14.121
24570	17.518	4.1818	0.1	21.372
24571	17.609	4.2727	0.1	17.94
24572	17.336	4.1818	0.1	25.637
24573	17.427	4.2727	0.1	21.915
24574	17.153	4.1818	0.1	30.102
24575	17.244	4.2727	0.1	26.059
24576	16.97	4.1818	0.1	34.781
24577	17.062	4.2727	0.1	30.387
24578	16.788	4.1818	0.1	39.693
24579	16.879	4.2727	0.1	34.911
24580	16.605	4.1818	0.1	44.85
24581	16.697	4.2727	0.1	39.641
24582	16.423	4.1818	0.1	50.266
24583	16.514	4.2727	0.1	44.585
24584	16.24	4.1818	0.1	55.951
24585	16.331	4.2727	0.1	49.751
24586	16.057	4.1818	0.1	61.911
24587	16.149	4.2727	0.1	55.139
24588	15.875	4.1818	0.1	68.15
24589	15.966	4.2727	0.1	60.748
24590	15.692	4.1818	0.1	74.663
24591	15.784	4.2727	0.1	66.57
24592	15.51	4.1818	0.1	81.443
24593	15.601	4.2727	0.1	72.591
24594	15.327	4.1818	0.1	88.47
24595	15.418	4.2727	0.1	78.788
24596	15.145	4.1818	0.1	95.713
24597	15.236	4.2727	0.1	85.131
24598	14.962	4.1818	0.1	103.13
24599	15.053	4.2727	0.1	91.573
24600	14.779	4.1818	0.1	110.65
24601	14.871	4.2727	0.1	98.051
24602	14.597	4.1818	0.1	118.17
24603	14.688	4.2727	0.1	104.48
24604	14.414	4.1818	0.1	125.57
24605	14.505	4.2727	0.1	110.74
24606	14.232	4.1818	0.1	132.62
24607	14.323	4.2727	0.1	116.67
24608	14.049	4.1818	0.1	139.03
24609	14.14	4.2727	0.1	122.01
24610	13.866	4.1818	0.1	144.33
24611	13.958	4.2727	0.1	126.39
24612	13.684	4.1818	0.1	147.78
24613	13.775	4.2727	0.1	129.24
24614	13.501	4.1818	0.1	148.24
24615	13.593	4.2727	0.1	129.64
24616	13.319	4.1818	0.1	143.84
24617	13.41	4.2727	0.1	126.12
24618	13.136	4.1818	0.1	131.57
24619	13.227	4.2727	0.1	116.24
24620	12.953	4.1818	0.1	106.48
24621	13.045	4.2727	0.1	96.082
24622	12.771	4.1818	0.1	61.21
24623	12.862	4.2727	0.1	59.668
24624	12.588	4.1818	0.1	10.876
24625	12.68	4.2727	0.1	13.709
24626	12.406	4.1818	0.1	5.6384
24627	12.497	4.2727	0.1	4.0658
24628	12.223	4.1818	0.1	0.83938
24629	12.314	4.2727	0.1	7.5424
24630	12.041	4.1818	0.1	53.419
24631	12.132	4.2727	0.1	-2.8708
24632	11.949	4.2727	0.1	52.913
24633	11.858	4.1818	0.1	216.24
24634	23.726	4.3636	0.1	-0.20351
24635	23.817	4.4545	0.1	-0.1691
24636	23.909	4.3636	0.1	-0.43527
24637	23.544	4.3636	0.1	-0.21225
24638	23.635	4.4545	0.1	-0.30582
24639	23.361	4.3636	0.1	-0.11965
24640	23.452	4.4545	0.1	-0.12803
24641	23.178	4.3636	0.1	-9.7709e-002
24642	23.27	4.4545	0.1	-0.11173
24643	22.996	4.3636	0.1	-7.5887e-002
24644	23.087	4.4545	0.1	-8.1606e-002
24645	22.813	4.3636	0.1	-6.3039e-002
24646	22.904	4.4545	0.1	-6.7243e-002
24647	22.631	4.3636	0.1	-5.3122e-002
24648	22.722	4.4545	0.1	-5.5583e-002
24649	22.448	4.3636	0.1	-4.5738e-002
24650	22.539	4.4545	0.1	-4.7294e-002
24651	22.265	4.3636	0.1	-3.9914e-002
24652	22.357	4.4545	0.1	-4.08e-002
24653	22.083	4.3636	0.1	-3.5249e-002
24654	22.174	4.4545	0.1	-3.5684e-002
24655	21.9	4.3636	0.1	-3.143e-002
24656	21.992	4.4545	0.1	-3.1542e-002
24657	21.718	4.3636	0.1	-2.8256e-002
24658	21.809	4.4545	0.1	-2.8137e-002
24659	21.535	4.3636	0.1	-2.5585e-002
24660	21.626	4.4545	0.1	-2.5297e-002
24661	21.352	4.3636	0.1	-2.331e-002
24662	21.444	4.4545	0.1	-2.2901e-002
24663	21.17	4.3636	0.1	-2.1352e-002
24664	21.261	4.4545	0.1	-2.0858e-002
24665	20.987	4.3636	0.1	-1.9646e-002
24666	21.079	4.4545	0.1	-1.9095e-002
24667	20.805	4.3636	0.1	-1.8149e-002
24668	20.896	4.4545	0.1	-1.7554e-002
24669	20.622	4.3636	0.1	-1.6828e-002
24670	20.713	4.4545	0.1	-1.6208e-002
24671	20.44	4.3636	0.1	-1.5648e-002
24672	20.531	4.4545	0.1	-1.5015e-002
24673	20.257	4.3636	0.1	-1.4581e-002
24674	20.348	4.4545	0.1	-1.3943e-002
24675	20.074	4.3636	0.1	-1.3607e-002
24676	20.166	4.4545	0.1	-1.2973e-002
24677	19.892	4.3636	0.1	-1.2704e-002
24678	19.983	4.4545	0.1	-1.2081e-002
24679	19.709	4.3636	0.1	-1.1849e-002
24680	19.8	4.4545	0.1	-1.1246e-002
24681	19.527	4.3636	0.1	-1.1013e-002
24682	19.618	4.4545	0.1	-1.0441e-002
24683	19.344	4.3636	0.1	-1.0154e-002
24684	19.435	4.4545	0.1	-9.6356e-003
24685	19.161	4.3636	0.1	-9.1916e-003
24686	19.253	4.4545	0.1	-8.7711e-003
24687	18.979	4.3636	0.1	-7.9385e-003
24688	19.07	4.4545	0.1	-7.7372e-003
24689	18.796	4.3636	0.1	-5.7617e-003
24690	18.888	4.4545	0.1	-6.2442e-003
24691	18.614	4.3636	0.1	1.7406e-003
24692	18.705	4.4545	0.1	-3.171e-003
24693	18.431	4.3636	0.1	1.1028
24694	18.522	4.4545	0.1	1.3929e-002
24695	18.249	4.3636	0.1	4.3545
24696	18.34	4.4545	0.1	1.9197
24697	18.066	4.3636	0.1	7.7105
24698	18.157	4.4545	0.1	5.0695
24699	17.883	4.3636	0.1	11.172
24700	17.975	4.4545	0.1	8.3133
24701	17.701	4.3636	0.1	14.752
24702	17.792	4.4545	0.1	11.658
24703	17.518	4.3636	0.1	18.464
24704	17.609	4.4545	0.1	15.113
24705	17.336	4.3636	0.1	22.319
24706	17.427	4.4545	0.1	18.688
24707	17.153	4.3636	0.1	26.328
24708	17.244	4.4545	0.1	22.393
24709	16.97	4.3636	0.1	30.5
24710	17.062	4.4545	0.1	26.234
24711	16.788	4.3636	0.1	34.843
24712	16.879	4.4545	0.1	30.215
24713	16.605	4.3636	0.1	39.362
24714	16.697	4.4545	0.1	34.337
24715	16.423	4.3636	0.1	44.057
24716	16.514	4.4545	0.1	38.6
24717	16.24	4.3636	0.1	48.926
24718	16.331	4.4545	0.1	42.997
24719	16.057	4.3636	0.1	53.963
24720	16.149	4.4545	0.1	47.518
24721	15.875	4.3636	0.1	59.155
24722	15.966	4.4545	0.1	52.148
24723	15.692	4.3636	0.1	64.484
24724	15.784	4.4545	0.1	56.862
24725	15.51	4.3636	0.1	69.924
24726	15.601	4.4545	0.1	61.632
24727	15.327	4.3636	0.1	75.437
24728	15.418	4.4545	0.1	66.419
24729	15.145	4.3636	0.1	80.978
24730	15.236	4.4545	0.1	71.172
24731	14.962	4.3636	0.1	86.485
24732	15.053	4.4545	0.1	75.831
24733	14.779	4.3636	0.1	91.877
24734	14.871	4.4545	0.1	80.318
24735	14.597	4.3636	0.1	97.048
24736	14.688	4.4545	0.1	84.536
24737	14.414	4.3636	0.1	101.85
24738	14.505	4.4545	0.1	88.358
24739	14.232	4.3636	0.1	106.08
24740	14.323	4.4545	0.1	91.612
24741	14.049	4.3636	0.1	109.44
24742	14.14	4.4545	0.1	94.055
24743	13.866	4.3636	0.1	111.44
24744	13.958	4.4545	0.1	95.325
24745	13.684	4.3636	0.1	111.37
24746	13.775	4.4545	0.1	94.861
24747	13.501	4.3636	0.1	108.
24748	13.593	4.4545	0.1	91.757
24749	13.319	4.3636	0.1	99.346
24750	13.41	4.4545	0.1	84.537
24751	13.136	4.3636	0.1	82.159
24752	13.227	4.4545	0.1	70.793
24753	12.953	4.3636	0.1	51.59
24754	13.045	4.4545	0.1	46.988
24755	12.771	4.3636	0.1	13.273
24756	12.862	4.4545	0.1	15.01
24757	12.588	4.3636	0.1	4.3977
24758	12.68	4.4545	0.1	4.9178
24759	12.406	4.3636	0.1	5.7127
24760	12.497	4.4545	0.1	3.0907
24761	12.223	4.3636	0.1	4.3823
24762	12.314	4.4545	0.1	5.9586
24763	12.041	4.3636	0.1	-2.9167
24764	12.132	4.4545	0.1	1.1656
24765	11.949	4.4545	0.1	5.9354
24766	11.858	4.3636	0.1	-48.962
24767	23.726	4.5455	0.1	-0.19316
24768	23.817	4.6364	0.1	-0.1522
24769	23.909	4.5455	0.1	-0.43126
24770	23.544	4.5455	0.1	-0.2054
24771	23.635	4.6364	0.1	-0.29651
24772	23.361	4.5455	0.1	-0.11412
24773	23.452	4.6364	0.1	-0.12121
24774	23.178	4.5455	0.1	-9.2724e-002
24775	23.27	4.6364	0.1	-0.10566
24776	22.996	4.5455	0.1	-7.1284e-002
24777	23.087	4.6364	0.1	-7.6083e-002
24778	22.813	4.5455	0.1	-5.8694e-002
24779	22.904	4.6364	0.1	-6.2065e-002
24780	22.631	4.5455	0.1	-4.8979e-002
24781	22.722	4.6364	0.1	-5.0677e-002
24782	22.448	4.5455	0.1	-4.1769e-002
24783	22.539	4.6364	0.1	-4.2614e-002
24784	22.265	4.5455	0.1	-3.6104e-002
24785	22.357	4.6364	0.1	-3.6329e-002
24786	22.083	4.5455	0.1	-3.1594e-002
24787	22.174	4.6364	0.1	-3.1413e-002
24788	21.9	4.5455	0.1	-2.7926e-002
24789	21.992	4.6364	0.1	-2.7463e-002
24790	21.718	4.5455	0.1	-2.49e-002
24791	21.809	4.6364	0.1	-2.4245e-002
24792	21.535	4.5455	0.1	-2.2371e-002
24793	21.626	4.6364	0.1	-2.1585e-002
24794	21.352	4.5455	0.1	-2.0235e-002
24795	21.444	4.6364	0.1	-1.9363e-002
24796	21.17	4.5455	0.1	-1.8411e-002
24797	21.261	4.6364	0.1	-1.7486e-002
24798	20.987	4.5455	0.1	-1.6834e-002
24799	21.079	4.6364	0.1	-1.5882e-002
24800	20.805	4.5455	0.1	-1.5461e-002
24801	20.896	4.6364	0.1	-1.4491e-002
24802	20.622	4.5455	0.1	-1.4259e-002
24803	20.713	4.6364	0.1	-1.3289e-002
24804	20.44	4.5455	0.1	-1.3189e-002
24805	20.531	4.6364	0.1	-1.2232e-002
24806	20.257	4.5455	0.1	-1.2228e-002
24807	20.348	4.6364	0.1	-1.1289e-002
24808	20.074	4.5455	0.1	-1.1354e-002
24809	20.166	4.6364	0.1	-1.0441e-002
24810	19.892	4.5455	0.1	-1.0545e-002
24811	19.983	4.6364	0.1	-9.6655e-003
24812	19.709	4.5455	0.1	-9.7784e-003
24813	19.8	4.6364	0.1	-8.9408e-003
24814	19.527	4.5455	0.1	-9.0265e-003
24815	19.618	4.6364	0.1	-8.2421e-003
24816	19.344	4.5455	0.1	-8.2491e-003
24817	19.435	4.6364	0.1	-7.5427e-003
24818	19.161	4.5455	0.1	-7.3745e-003
24819	19.253	4.6364	0.1	-6.7888e-003
24820	18.979	4.5455	0.1	-6.2496e-003
24821	19.07	4.6364	0.1	-5.8927e-003
24822	18.796	4.5455	0.1	-4.4373e-003
24823	18.888	4.6364	0.1	-4.6452e-003
24824	18.614	4.5455	0.1	2.9068e-005
24825	18.705	4.6364	0.1	-2.411e-003
24826	18.431	4.5455	0.1	5.9593e-002
24827	18.522	4.6364	0.1	4.1993e-003
24828	18.249	4.5455	0.1	2.6073
24829	18.34	4.6364	0.1	0.33048
24830	18.066	4.5455	0.1	5.6485
24831	18.157	4.6364	0.1	3.0967
24832	17.883	4.5455	0.1	8.7762
24833	17.975	4.6364	0.1	6.0103
24834	17.701	4.5455	0.1	11.997
24835	17.792	4.6364	0.1	9.003
24836	17.518	4.5455	0.1	15.317
24837	17.609	4.6364	0.1	12.079
24838	17.336	4.5455	0.1	18.744
24839	17.427	4.6364	0.1	15.243
24840	17.153	4.5455	0.1	22.281
24841	17.244	4.6364	0.1	18.497
24842	16.97	4.5455	0.1	25.931
24843	17.062	4.6364	0.1	21.842
24844	16.788	4.5455	0.1	29.692
24845	16.879	4.6364	0.1	25.275
24846	16.605	4.5455	0.1	33.56
24847	16.697	4.6364	0.1	28.788
24848	16.423	4.5455	0.1	37.525
24849	16.514	4.6364	0.1	32.372
24850	16.24	4.5455	0.1	41.575
24851	16.331	4.6364	0.1	36.01
24852	16.057	4.5455	0.1	45.689
24853	16.149	4.6364	0.1	39.68
24854	15.875	4.5455	0.1	49.84
24855	15.966	4.6364	0.1	43.353
24856	15.692	4.5455	0.1	53.995
24857	15.784	4.6364	0.1	46.993
24858	15.51	4.5455	0.1	58.112
24859	15.601	4.6364	0.1	50.555
24860	15.327	4.5455	0.1	62.138
24861	15.418	4.6364	0.1	53.986
24862	15.145	4.5455	0.1	66.009
24863	15.236	4.6364	0.1	57.219
24864	14.962	4.5455	0.1	69.649
24865	15.053	4.6364	0.1	60.179
24866	14.779	4.5455	0.1	72.965
24867	14.871	4.6364	0.1	62.775
24868	14.597	4.5455	0.1	75.84
24869	14.688	4.6364	0.1	64.9
24870	14.414	4.5455	0.1	78.124
24871	14.505	4.6364	0.1	66.421
24872	14.232	4.5455	0.1	79.615
24873	14.323	4.6364	0.1	67.17
24874	14.049	4.5455	0.1	80.021
24875	14.14	4.6364	0.1	66.92
24876	13.866	4.5455	0.1	78.902
24877	13.958	4.6364	0.1	65.345
24878	13.684	4.5455	0.1	75.558
24879	13.775	4.6364	0.1	61.948
24880	13.501	4.5455	0.1	68.857
24881	13.593	4.6364	0.1	55.946
24882	13.319	4.5455	0.1	56.98
24883	13.41	4.6364	0.1	46.116
24884	13.136	4.5455	0.1	37.396
24885	13.227	4.6364	0.1	30.858
24886	12.953	4.5455	0.1	12.775
24887	13.045	4.6364	0.1	12.139
24888	12.771	4.5455	0.1	4.5521
24889	12.862	4.6364	0.1	4.5542
24890	12.588	4.5455	0.1	3.2801
24891	12.68	4.6364	0.1	3.085
24892	12.406	4.5455	0.1	3.2106
24893	12.497	4.6364	0.1	2.815
24894	12.223	4.5455	0.1	2.7359
24895	12.314	4.6364	0.1	3.1502
24896	12.041	4.5455	0.1	10.346
24897	12.132	4.6364	0.1	1.6567
24898	11.949	4.6364	0.1	12.099
24899	11.858	4.5455	0.1	11.101
24900	23.726	4.7273	0.1	-0.17978
24901	23.817	4.8182	0.1	-0.13042
24902	23.909	4.7273	0.1	-0.42586
24903	23.544	4.7273	0.1	-0.19636
24904	23.635	4.8182	0.1	-0.28398
24905	23.361	4.7273	0.1	-0.10677
24906	23.452	4.8182	0.1	-0.1119
24907	23.178	4.7273	0.1	-8.6058e-002
24908	23.27	4.8182	0.1	-9.7329e-002
24909	22.996	4.7273	0.1	-6.5115e-002
24910	23.087	4.8182	0.1	-6.8494e-002
24911	22.813	4.7273	0.1	-5.2879e-002
24912	22.904	4.8182	0.1	-5.4968e-002
24913	22.631	4.7273	0.1	-4.3461e-002
24914	22.722	4.8182	0.1	-4.3992e-002
24915	22.448	4.7273	0.1	-3.6518e-002
24916	22.539	4.8182	0.1	-3.6294e-002
24917	22.265	4.7273	0.1	-3.1108e-002
24918	22.357	4.8182	0.1	-3.0352e-002
24919	22.083	4.7273	0.1	-2.6842e-002
24920	22.174	4.8182	0.1	-2.5761e-002
24921	21.9	4.7273	0.1	-2.3408e-002
24922	21.992	4.8182	0.1	-2.212e-002
24923	21.718	4.7273	0.1	-2.0608e-002
24924	21.809	4.8182	0.1	-1.9197e-002
24925	21.535	4.7273	0.1	-1.8295e-002
24926	21.626	4.8182	0.1	-1.6814e-002
24927	21.352	4.7273	0.1	-1.6365e-002
24928	21.444	4.8182	0.1	-1.4855e-002
24929	21.17	4.7273	0.1	-1.4736e-002
24930	21.261	4.8182	0.1	-1.3225e-002
24931	20.987	4.7273	0.1	-1.3344e-002
24932	21.079	4.8182	0.1	-1.1853e-002
24933	20.805	4.7273	0.1	-1.2146e-002
24934	20.896	4.8182	0.1	-1.0681e-002
24935	20.622	4.7273	0.1	-1.1109e-002
24936	20.713	4.8182	0.1	-9.6845e-003
24937	20.44	4.7273	0.1	-1.0197e-002
24938	20.531	4.8182	0.1	-8.8218e-003
24939	20.257	4.7273	0.1	-9.3847e-003
24940	20.348	4.8182	0.1	-8.0637e-003
24941	20.074	4.7273	0.1	-8.6527e-003
24942	20.166	4.8182	0.1	-7.391e-003
24943	19.892	4.7273	0.1	-7.9803e-003
24944	19.983	4.8182	0.1	-6.7844e-003
24945	19.709	4.7273	0.1	-7.3449e-003
24946	19.8	4.8182	0.1	-6.2232e-003
24947	19.527	4.7273	0.1	-6.7245e-003
24948	19.618	4.8182	0.1	-5.6867e-003
24949	19.344	4.7273	0.1	-6.0838e-003
24950	19.435	4.8182	0.1	-5.1523e-003
24951	19.161	4.7273	0.1	-5.3646e-003
24952	19.253	4.8182	0.1	-4.5794e-003
24953	18.979	4.7273	0.1	-4.4572e-003
24954	19.07	4.8182	0.1	-3.9048e-003
24955	18.796	4.7273	0.1	-3.0952e-003
24956	18.888	4.8182	0.1	-2.9988e-003
24957	18.614	4.7273	0.1	-4.0168e-004
24958	18.705	4.8182	0.1	-1.5373e-003
24959	18.431	4.7273	0.1	9.1788e-003
24960	18.522	4.8182	0.1	1.6032e-003
24961	18.249	4.7273	0.1	0.74465
24962	18.34	4.8182	0.1	1.4645e-002
24963	18.066	4.7273	0.1	3.4331
24964	18.157	4.8182	0.1	1.0027
24965	17.883	4.7273	0.1	6.2133
24966	17.975	4.8182	0.1	3.5604
24967	17.701	4.7273	0.1	9.0629
24968	17.792	4.8182	0.1	6.1926
24969	17.518	4.7273	0.1	11.984
24970	17.609	4.8182	0.1	8.8842
24971	17.336	4.7273	0.1	14.976
24972	17.427	4.8182	0.1	11.634
24973	17.153	4.7273	0.1	18.039
24974	17.244	4.8182	0.1	14.44
24975	16.97	4.7273	0.1	21.167
24976	17.062	4.8182	0.1	17.295
24977	16.788	4.7273	0.1	24.353
24978	16.879	4.8182	0.1	20.192
24979	16.605	4.7273	0.1	27.583
24980	16.697	4.8182	0.1	23.115
24981	16.423	4.7273	0.1	30.839
24982	16.514	4.8182	0.1	26.048
24983	16.24	4.7273	0.1	34.097
24984	16.331	4.8182	0.1	28.964
24985	16.057	4.7273	0.1	37.327
24986	16.149	4.8182	0.1	31.832
24987	15.875	4.7273	0.1	40.488
24988	15.966	4.8182	0.1	34.614
24989	15.692	4.7273	0.1	43.535
24990	15.784	4.8182	0.1	37.261
24991	15.51	4.7273	0.1	46.411
24992	15.601	4.8182	0.1	39.716
24993	15.327	4.7273	0.1	49.049
24994	15.418	4.8182	0.1	41.913
24995	15.145	4.7273	0.1	51.371
24996	15.236	4.8182	0.1	43.773
24997	14.962	4.7273	0.1	53.287
24998	15.053	4.8182	0.1	45.21
24999	14.779	4.7273	0.1	54.695
25000	14.871	4.8182	0.1	46.122
25001	14.597	4.7273	0.1	55.473
25002	14.688	4.8182	0.1	46.395
25003	14.414	4.7273	0.1	55.473
25004	14.505	4.8182	0.1	45.9
25005	14.232	4.7273	0.1	54.51
25006	14.323	4.8182	0.1	44.483
25007	14.049	4.7273	0.1	52.332
25008	14.14	4.8182	0.1	41.953
25009	13.866	4.7273	0.1	48.576
25010	13.958	4.8182	0.1	38.062
25011	13.684	4.7273	0.1	42.698
25012	13.775	4.8182	0.1	32.473
25013	13.501	4.7273	0.1	33.906
25014	13.593	4.8182	0.1	24.773
25015	13.319	4.7273	0.1	21.463
25016	13.41	4.8182	0.1	14.958
25017	13.136	4.7273	0.1	8.6762
25018	13.227	4.8182	0.1	6.5387
25019	12.953	4.7273	0.1	3.9807
25020	13.045	4.8182	0.1	3.5221
25021	12.771	4.7273	0.1	2.8157
25022	12.862	4.8182	0.1	2.6156
25023	12.588	4.7273	0.1	2.4999
25024	12.68	4.8182	0.1	2.3374
25025	12.406	4.7273	0.1	2.6926
25026	12.497	4.8182	0.1	2.2627
25027	12.223	4.7273	0.1	2.0646
25028	12.314	4.8182	0.1	2.7433
25029	12.041	4.7273	0.1	3.7468
25030	12.132	4.8182	0.1	1.0313
25031	11.949	4.8182	0.1	6.4112
25032	11.858	4.7273	0.1	-4.4056
25033	23.726	4.9091	0.1	-0.16172
25034	23.817	5.	0.1	-0.10228
25035	23.909	4.9091	0.1	-0.41785
25036	23.544	4.9091	0.1	-0.1838
25037	23.635	5.	0.1	-0.26708
25038	23.361	4.9091	0.1	-9.6442e-002
25039	23.452	5.	0.1	-9.9197e-002
25040	23.178	4.9091	0.1	-7.6691e-002
25041	23.27	5.	0.1	-8.5887e-002
25042	22.996	4.9091	0.1	-5.6464e-002
25043	23.087	5.	0.1	-5.8093e-002
25044	22.813	4.9091	0.1	-4.478e-002
25045	22.904	5.	0.1	-4.5305e-002
25046	22.631	4.9091	0.1	-3.5852e-002
25047	22.722	5.	0.1	-3.4986e-002
25048	22.448	4.9091	0.1	-2.9362e-002
25049	22.539	5.	0.1	-2.7884e-002
25050	22.265	4.9091	0.1	-2.4378e-002
25051	22.357	5.	0.1	-2.2499e-002
25052	22.083	4.9091	0.1	-2.0514e-002
25053	22.174	5.	0.1	-1.8426e-002
25054	21.9	4.9091	0.1	-1.7461e-002
25055	21.992	5.	0.1	-1.5269e-002
25056	21.718	4.9091	0.1	-1.5017e-002
25057	21.809	5.	0.1	-1.2793e-002
25058	21.535	4.9091	0.1	-1.3037e-002
25059	21.626	5.	0.1	-1.0826e-002
25060	21.352	4.9091	0.1	-1.1419e-002
25061	21.444	5.	0.1	-9.2487e-003
25062	21.17	4.9091	0.1	-1.0081e-002
25063	21.261	5.	0.1	-7.9742e-003
25064	20.987	4.9091	0.1	-8.9621e-003
25065	21.079	5.	0.1	-6.9318e-003
25066	20.805	4.9091	0.1	-8.0201e-003
25067	20.896	5.	0.1	-6.0678e-003
25068	20.622	4.9091	0.1	-7.223e-003
25069	20.713	5.	0.1	-5.3571e-003
25070	20.44	4.9091	0.1	-6.538e-003
25071	20.531	5.	0.1	-4.764e-003
25072	20.257	4.9091	0.1	-5.9424e-003
25073	20.348	5.	0.1	-4.2605e-003
25074	20.074	4.9091	0.1	-5.4176e-003
25075	20.166	5.	0.1	-3.8314e-003
25076	19.892	4.9091	0.1	-4.9452e-003
25077	19.983	5.	0.1	-3.4586e-003
25078	19.709	4.9091	0.1	-4.5075e-003
25079	19.8	5.	0.1	-3.126e-003
25080	19.527	4.9091	0.1	-4.0853e-003
25081	19.618	5.	0.1	-2.8184e-003
25082	19.344	4.9091	0.1	-3.6537e-003
25083	19.435	5.	0.1	-2.5189e-003
25084	19.161	4.9091	0.1	-3.1733e-003
25085	19.253	5.	0.1	-2.2023e-003
25086	18.979	4.9091	0.1	-2.5766e-003
25087	19.07	5.	0.1	-1.8304e-003
25088	18.796	4.9091	0.1	-1.7226e-003
25089	18.888	5.	0.1	-1.3368e-003
25090	18.614	4.9091	0.1	-2.5215e-004
25091	18.705	5.	0.1	-5.7989e-004
25092	18.431	4.9091	0.1	3.1174e-003
25093	18.522	5.	0.1	7.9967e-004
25094	18.249	4.9091	0.1	1.8669e-002
25095	18.34	5.	0.1	4.081e-003
25096	18.066	4.9091	0.1	1.1008
25097	18.157	5.	0.1	1.9284e-002
25098	17.883	4.9091	0.1	3.5147
25099	17.975	5.	0.1	1.0034
25100	17.701	4.9091	0.1	5.99
25101	17.792	5.	0.1	3.2595
25102	17.518	4.9091	0.1	8.5118
25103	17.609	5.	0.1	5.5684
25104	17.336	4.9091	0.1	11.075
25105	17.427	5.	0.1	7.9115
25106	17.153	4.9091	0.1	13.674
25107	17.244	5.	0.1	10.281
25108	16.97	4.9091	0.1	16.299
25109	17.062	5.	0.1	12.667
25110	16.788	4.9091	0.1	18.934
25111	16.879	5.	0.1	15.056
25112	16.605	4.9091	0.1	21.56
25113	16.697	5.	0.1	17.428
25114	16.423	4.9091	0.1	24.153
25115	16.514	5.	0.1	19.759
25116	16.24	4.9091	0.1	26.679
25117	16.331	5.	0.1	22.018
25118	16.057	4.9091	0.1	29.1
25119	16.149	5.	0.1	24.167
25120	15.875	4.9091	0.1	31.366
25121	15.966	5.	0.1	26.158
25122	15.692	4.9091	0.1	33.421
25123	15.784	5.	0.1	27.937
25124	15.51	4.9091	0.1	35.197
25125	15.601	5.	0.1	29.438
25126	15.327	4.9091	0.1	36.617
25127	15.418	5.	0.1	30.585
25128	15.145	4.9091	0.1	37.592
25129	15.236	5.	0.1	31.292
25130	14.962	4.9091	0.1	38.024
25131	15.053	5.	0.1	31.465
25132	14.779	4.9091	0.1	37.805
25133	14.871	5.	0.1	30.997
25134	14.597	4.9091	0.1	36.815
25135	14.688	5.	0.1	29.776
25136	14.414	4.9091	0.1	34.92
25137	14.505	5.	0.1	27.683
25138	14.232	4.9091	0.1	31.971
25139	14.323	5.	0.1	24.597
25140	14.049	4.9091	0.1	27.8
25141	14.14	5.	0.1	20.406
25142	13.866	4.9091	0.1	22.233
25143	13.958	5.	0.1	15.073
25144	13.684	4.9091	0.1	15.243
25145	13.775	5.	0.1	8.9898
25146	13.501	4.9091	0.1	7.9834
25147	13.593	5.	0.1	4.3097
25148	13.319	4.9091	0.1	3.9743
25149	13.41	5.	0.1	2.578
25150	13.136	4.9091	0.1	2.6927
25151	13.227	5.	0.1	2.0378
25152	12.953	4.9091	0.1	2.2387
25153	13.045	5.	0.1	1.8615
25154	12.771	4.9091	0.1	2.0945
25155	12.862	5.	0.1	1.8331
25156	12.588	4.9091	0.1	2.0585
25157	12.68	5.	0.1	1.9158
25158	12.406	4.9091	0.1	2.2954
25159	12.497	5.	0.1	1.9529
25160	12.223	4.9091	0.1	1.7298
25161	12.314	5.	0.1	2.3946
25162	12.041	4.9091	0.1	4.0309
25163	12.132	5.	0.1	0.96866
25164	11.949	5.	0.1	6.1194
25165	11.858	4.9091	0.1	-0.67665
25166	23.726	5.0909	0.1	-0.13798
25167	23.817	5.1818	0.1	-6.1195e-002
25168	23.909	5.0909	0.1	-0.40767
25169	23.544	5.0909	0.1	-0.16691
25170	23.635	5.1818	0.1	-0.2408
25171	23.361	5.0909	0.1	-8.2435e-002
25172	23.452	5.1818	0.1	-7.9227e-002
25173	23.178	5.0909	0.1	-6.3962e-002
25174	23.27	5.1818	0.1	-6.7991e-002
25175	22.996	5.0909	0.1	-4.4797e-002
25176	23.087	5.1818	0.1	-4.1993e-002
25177	22.813	5.0909	0.1	-3.3979e-002
25178	22.904	5.1818	0.1	-3.0617e-002
25179	22.631	5.0909	0.1	-2.5843e-002
25180	22.722	5.1818	0.1	-2.155e-002
25181	22.448	5.0909	0.1	-2.0081e-002
25182	22.539	5.1818	0.1	-1.5571e-002
25183	22.265	5.0909	0.1	-1.5772e-002
25184	22.357	5.1818	0.1	-1.12e-002
25185	22.083	5.0909	0.1	-1.2529e-002
25186	22.174	5.1818	0.1	-8.0433e-003
25187	21.9	5.0909	0.1	-1.0046e-002
25188	21.992	5.1818	0.1	-5.7123e-003
25189	21.718	5.0909	0.1	-8.1257e-003
25190	21.809	5.1818	0.1	-3.9824e-003
25191	21.535	5.0909	0.1	-6.626e-003
25192	21.626	5.1818	0.1	-2.6928e-003
25193	21.352	5.0909	0.1	-5.4471e-003
25194	21.444	5.1818	0.1	-1.7299e-003
25195	21.17	5.0909	0.1	-4.5153e-003
25196	21.261	5.1818	0.1	-1.0161e-003
25197	20.987	5.0909	0.1	-3.7698e-003
25198	21.079	5.1818	0.1	-4.8773e-004
25199	20.805	5.0909	0.1	-3.174e-003
25200	20.896	5.1818	0.1	-9.7418e-005
25201	20.622	5.0909	0.1	-2.701e-003
25202	20.713	5.1818	0.1	1.734e-004
25203	20.44	5.0909	0.1	-2.3205e-003
25204	20.531	5.1818	0.1	3.5607e-004
25205	20.257	5.0909	0.1	-2.0127e-003
25206	20.348	5.1818	0.1	4.7294e-004
25207	20.074	5.0909	0.1	-1.7637e-003
25208	20.166	5.1818	0.1	5.3482e-004
25209	19.892	5.0909	0.1	-1.5585e-003
25210	19.983	5.1818	0.1	5.549e-004
25211	19.709	5.0909	0.1	-1.3844e-003
25212	19.8	5.1818	0.1	5.4289e-004
25213	19.527	5.0909	0.1	-1.2295e-003
25214	19.618	5.1818	0.1	5.0943e-004
25215	19.344	5.0909	0.1	-1.0781e-003
25216	19.435	5.1818	0.1	4.6189e-004
25217	19.161	5.0909	0.1	-9.0853e-004
25218	19.253	5.1818	0.1	4.1349e-004
25219	18.979	5.0909	0.1	-6.8825e-004
25220	19.07	5.1818	0.1	3.802e-004
25221	18.796	5.0909	0.1	-3.5822e-004
25222	18.888	5.1818	0.1	3.8583e-004
25223	18.614	5.0909	0.1	2.0495e-004
25224	18.705	5.1818	0.1	4.7695e-004
25225	18.431	5.0909	0.1	1.3102e-003
25226	18.522	5.1818	0.1	7.4538e-004
25227	18.249	5.0909	0.1	4.0106e-003
25228	18.34	5.1818	0.1	1.4181e-003
25229	18.066	5.0909	0.1	1.5519e-002
25230	18.157	5.1818	0.1	3.2018e-003
25231	17.883	5.0909	0.1	0.72923
25232	17.975	5.1818	0.1	9.9639e-003
25233	17.701	5.0909	0.1	2.8131
25234	17.792	5.1818	0.1	0.29399
25235	17.518	5.0909	0.1	4.9439
25236	17.609	5.1818	0.1	2.1679
25237	17.336	5.0909	0.1	7.0938
25238	17.427	5.1818	0.1	4.1178
25239	17.153	5.0909	0.1	9.2512
25240	17.244	5.1818	0.1	6.074
25241	16.97	5.0909	0.1	11.402
25242	17.062	5.1818	0.1	8.0217
25243	16.788	5.0909	0.1	13.528
25244	16.879	5.1818	0.1	9.9437
25245	16.605	5.0909	0.1	15.605
25246	16.697	5.1818	0.1	11.818
25247	16.423	5.0909	0.1	17.602
25248	16.514	5.1818	0.1	13.617
25249	16.24	5.0909	0.1	19.484
25250	16.331	5.1818	0.1	15.306
25251	16.057	5.0909	0.1	21.204
25252	16.149	5.1818	0.1	16.843
25253	15.875	5.0909	0.1	22.708
25254	15.966	5.1818	0.1	18.179
25255	15.692	5.0909	0.1	23.932
25256	15.784	5.1818	0.1	19.253
25257	15.51	5.0909	0.1	24.803
25258	15.601	5.1818	0.1	19.997
25259	15.327	5.0909	0.1	25.238
25260	15.418	5.1818	0.1	20.331
25261	15.145	5.0909	0.1	25.143
25262	15.236	5.1818	0.1	20.168
25263	14.962	5.0909	0.1	24.417
25264	15.053	5.1818	0.1	19.41
25265	14.779	5.0909	0.1	22.952
25266	14.871	5.1818	0.1	17.955
25267	14.597	5.0909	0.1	20.642
25268	14.688	5.1818	0.1	15.701
25269	14.414	5.0909	0.1	17.387
25270	14.505	5.1818	0.1	12.565
25271	14.232	5.0909	0.1	13.142
25272	14.323	5.1818	0.1	8.5509
25273	14.049	5.0909	0.1	8.109
25274	14.14	5.1818	0.1	4.1947
25275	13.866	5.0909	0.1	3.7345
25276	13.958	5.1818	0.1	1.7421
25277	13.684	5.0909	0.1	2.0073
25278	13.775	5.1818	0.1	1.1312
25279	13.501	5.0909	0.1	1.5347
25280	13.593	5.1818	0.1	0.97892
25281	13.319	5.0909	0.1	1.4091
25282	13.41	5.1818	0.1	0.97368
25283	13.136	5.0909	0.1	1.4223
25284	13.227	5.1818	0.1	1.0469
25285	12.953	5.0909	0.1	1.5114
25286	13.045	5.1818	0.1	1.1815
25287	12.771	5.0909	0.1	1.6609
25288	12.862	5.1818	0.1	1.3656
25289	12.588	5.0909	0.1	1.8138
25290	12.68	5.1818	0.1	1.6138
25291	12.406	5.0909	0.1	2.0746
25292	12.497	5.1818	0.1	1.8146
25293	12.223	5.0909	0.1	1.6992
25294	12.314	5.1818	0.1	2.2722
25295	12.041	5.0909	0.1	3.4613
25296	12.132	5.1818	0.1	1.2188
25297	11.949	5.1818	0.1	5.3965
25298	11.858	5.0909	0.1	-1.6737
25299	23.726	5.2727	0.1	-9.7859e-002
25300	23.817	5.3636	0.1	-1.0099e-002
25301	23.909	5.2727	0.1	-0.38456
25302	23.544	5.2727	0.1	-0.1374
25303	23.635	5.3636	0.1	-0.20686
25304	23.361	5.2727	0.1	-5.8059e-002
25305	23.452	5.3636	0.1	-5.2286e-002
25306	23.178	5.2727	0.1	-4.2153e-002
25307	23.27	5.3636	0.1	-4.4929e-002
25308	22.996	5.2727	0.1	-2.5194e-002
25309	23.087	5.3636	0.1	-2.1733e-002
25310	22.813	5.2727	0.1	-1.6249e-002
25311	22.904	5.3636	0.1	-1.2612e-002
25312	22.631	5.2727	0.1	-9.7658e-003
25313	22.722	5.3636	0.1	-5.5325e-003
25314	22.448	5.2727	0.1	-5.4725e-003
25315	22.539	5.3636	0.1	-1.2602e-003
25316	22.265	5.2727	0.1	-2.4703e-003
25317	22.357	5.3636	0.1	1.6272e-003
25318	22.083	5.2727	0.1	-3.9097e-004
25319	22.174	5.3636	0.1	3.4969e-003
25320	21.9	5.2727	0.1	1.0553e-003
25321	21.992	5.3636	0.1	4.7069e-003
25322	21.718	5.2727	0.1	2.0473e-003
25323	21.809	5.3636	0.1	5.4556e-003
25324	21.535	5.2727	0.1	2.7111e-003
25325	21.626	5.3636	0.1	5.8827e-003
25326	21.352	5.2727	0.1	3.1337e-003
25327	21.444	5.3636	0.1	6.0812e-003
25328	21.17	5.2727	0.1	3.3795e-003
25329	21.261	5.3636	0.1	6.1133e-003
25330	20.987	5.2727	0.1	3.4965e-003
25331	21.079	5.3636	0.1	6.0301e-003
25332	20.805	5.2727	0.1	3.5123e-003
25333	20.896	5.3636	0.1	5.8669e-003
25334	20.622	5.2727	0.1	3.4484e-003
25335	20.713	5.3636	0.1	5.6348e-003
25336	20.44	5.2727	0.1	3.3272e-003
25337	20.531	5.3636	0.1	5.3536e-003
25338	20.257	5.2727	0.1	3.1611e-003
25339	20.348	5.3636	0.1	5.0414e-003
25340	20.074	5.2727	0.1	2.9597e-003
25341	20.166	5.3636	0.1	4.7003e-003
25342	19.892	5.2727	0.1	2.7299e-003
25343	19.983	5.3636	0.1	4.34e-003
25344	19.709	5.2727	0.1	2.479e-003
25345	19.8	5.3636	0.1	3.9601e-003
25346	19.527	5.2727	0.1	2.2127e-003
25347	19.618	5.3636	0.1	3.5682e-003
25348	19.344	5.2727	0.1	1.9355e-003
25349	19.435	5.3636	0.1	3.1631e-003
25350	19.161	5.2727	0.1	1.6549e-003
25351	19.253	5.3636	0.1	2.7473e-003
25352	18.979	5.2727	0.1	1.3791e-003
25353	19.07	5.3636	0.1	2.3218e-003
25354	18.796	5.2727	0.1	1.1227e-003
25355	18.888	5.3636	0.1	1.8912e-003
25356	18.614	5.2727	0.1	9.1216e-004
25357	18.705	5.3636	0.1	1.4572e-003
25358	18.431	5.2727	0.1	8.0273e-004
25359	18.522	5.3636	0.1	1.032e-003
25360	18.249	5.2727	0.1	9.2047e-004
25361	18.34	5.3636	0.1	6.3667e-004
25362	18.066	5.2727	0.1	1.6165e-003
25363	18.157	5.3636	0.1	3.1657e-004
25364	17.883	5.2727	0.1	4.3841e-003
25365	17.975	5.3636	0.1	1.923e-004
25366	17.701	5.2727	0.1	3.1561e-002
25367	17.792	5.3636	0.1	6.6893e-004
25368	17.518	5.2727	0.1	1.3187
25369	17.609	5.3636	0.1	4.1248e-003
25370	17.336	5.2727	0.1	3.0735
25371	17.427	5.3636	0.1	0.30823
25372	17.153	5.2727	0.1	4.8205
25373	17.244	5.3636	0.1	1.857
25374	16.97	5.2727	0.1	6.5399
25375	17.062	5.3636	0.1	3.4055
25376	16.788	5.2727	0.1	8.2108
25377	16.879	5.3636	0.1	4.9129
25378	16.605	5.2727	0.1	9.8073
25379	16.697	5.3636	0.1	6.3556
25380	16.423	5.2727	0.1	11.298
25381	16.514	5.3636	0.1	7.7057
25382	16.24	5.2727	0.1	12.643
25383	16.331	5.3636	0.1	8.9289
25384	16.057	5.2727	0.1	13.796
25385	16.149	5.3636	0.1	9.984
25386	15.875	5.2727	0.1	14.701
25387	15.966	5.3636	0.1	10.822
25388	15.692	5.2727	0.1	15.295
25389	15.784	5.3636	0.1	11.384
25390	15.51	5.2727	0.1	15.501
25391	15.601	5.3636	0.1	11.604
25392	15.327	5.2727	0.1	15.238
25393	15.418	5.3636	0.1	11.407
25394	15.145	5.2727	0.1	14.413
25395	15.236	5.3636	0.1	10.707
25396	14.962	5.2727	0.1	12.929
25397	15.053	5.3636	0.1	9.4153
25398	14.779	5.2727	0.1	10.697
25399	14.871	5.3636	0.1	7.4491
25400	14.597	5.2727	0.1	7.6602
25401	14.688	5.3636	0.1	4.7766
25402	14.414	5.2727	0.1	4.0082
25403	14.505	5.3636	0.1	1.8443
25404	14.232	5.2727	0.1	1.3943
25405	14.323	5.3636	0.1	0.63536
25406	14.049	5.2727	0.1	0.76175
25407	14.14	5.3636	0.1	0.41735
25408	13.866	5.2727	0.1	0.61832
25409	13.958	5.3636	0.1	0.36734
25410	13.684	5.2727	0.1	0.59978
25411	13.775	5.3636	0.1	0.37302
25412	13.501	5.2727	0.1	0.64198
25413	13.593	5.3636	0.1	0.41315
25414	13.319	5.2727	0.1	0.73149
25415	13.41	5.3636	0.1	0.48592
25416	13.136	5.2727	0.1	0.8704
25417	13.227	5.3636	0.1	0.59737
25418	12.953	5.2727	0.1	1.0651
25419	13.045	5.3636	0.1	0.76187
25420	12.771	5.2727	0.1	1.3315
25421	12.862	5.3636	0.1	0.99533
25422	12.588	5.2727	0.1	1.639
25423	12.68	5.3636	0.1	1.3427
25424	12.406	5.2727	0.1	2.0813
25425	12.497	5.3636	0.1	1.7436
25426	12.223	5.2727	0.1	1.936
25427	12.314	5.3636	0.1	2.4616
25428	12.041	5.2727	0.1	3.6802
25429	12.132	5.3636	0.1	1.8225
25430	11.949	5.3636	0.1	5.6722
25431	11.858	5.2727	0.1	-1.4385
25432	23.726	5.4545	0.1	-5.5969e-002
25433	23.817	5.5455	0.1	0.13657
25434	23.909	5.4545	0.1	-0.37184
25435	23.544	5.4545	0.1	-0.10492
25436	23.635	5.5455	0.1	-0.10386
25437	23.361	5.4545	0.1	-3.1082e-002
25438	23.452	5.5455	0.1	2.3382e-002
25439	23.178	5.4545	0.1	-1.9489e-002
25440	23.27	5.5455	0.1	2.0596e-002
25441	22.996	5.4545	0.1	-5.623e-003
25442	23.087	5.5455	0.1	3.4099e-002
25443	22.813	5.4545	0.1	7.4676e-004
25444	22.904	5.5455	0.1	3.6026e-002
25445	22.631	5.4545	0.1	5.027e-003
25446	22.722	5.5455	0.1	3.7112e-002
25447	22.448	5.4545	0.1	7.4741e-003
25448	22.539	5.5455	0.1	3.6444e-002
25449	22.265	5.4545	0.1	8.9165e-003
25450	22.357	5.5455	0.1	3.5168e-002
25451	22.083	5.4545	0.1	9.6762e-003
25452	22.174	5.5455	0.1	3.3496e-002
25453	21.9	5.4545	0.1	9.9983e-003
25454	21.992	5.5455	0.1	3.1649e-002
25455	21.718	5.4545	0.1	1.0029e-002
25456	21.809	5.5455	0.1	2.9736e-002
25457	21.535	5.4545	0.1	9.8644e-003
25458	21.626	5.5455	0.1	2.7818e-002
25459	21.352	5.4545	0.1	9.5673e-003
25460	21.444	5.5455	0.1	2.5932e-002
25461	21.17	5.4545	0.1	9.1816e-003
25462	21.261	5.5455	0.1	2.4094e-002
25463	20.987	5.4545	0.1	8.7424e-003
25464	21.079	5.5455	0.1	2.2319e-002
25465	20.805	5.4545	0.1	8.2657e-003
25466	20.896	5.5455	0.1	2.0613e-002
25467	20.622	5.4545	0.1	7.759e-003
25468	20.713	5.5455	0.1	1.8964e-002
25469	20.44	5.4545	0.1	7.2365e-003
25470	20.531	5.5455	0.1	1.737e-002
25471	20.257	5.4545	0.1	6.7045e-003
25472	20.348	5.5455	0.1	1.5832e-002
25473	20.074	5.4545	0.1	6.1646e-003
25474	20.166	5.5455	0.1	1.4341e-002
25475	19.892	5.4545	0.1	5.6183e-003
25476	19.983	5.5455	0.1	1.2889e-002
25477	19.709	5.4545	0.1	5.0653e-003
25478	19.8	5.5455	0.1	1.1468e-002
25479	19.527	5.4545	0.1	4.5063e-003
25480	19.618	5.5455	0.1	1.0073e-002
25481	19.344	5.4545	0.1	3.9383e-003
25482	19.435	5.5455	0.1	8.6953e-003
25483	19.161	5.4545	0.1	3.358e-003
25484	19.253	5.5455	0.1	7.3261e-003
25485	18.979	5.4545	0.1	2.7652e-003
25486	19.07	5.5455	0.1	5.9589e-003
25487	18.796	5.4545	0.1	2.1558e-003
25488	18.888	5.5455	0.1	4.5863e-003
25489	18.614	5.4545	0.1	1.5259e-003
25490	18.705	5.5455	0.1	3.1991e-003
25491	18.431	5.4545	0.1	8.7469e-004
25492	18.522	5.5455	0.1	1.7915e-003
25493	18.249	5.4545	0.1	1.9821e-004
25494	18.34	5.5455	0.1	3.5545e-004
25495	18.066	5.4545	0.1	-5.0109e-004
25496	18.157	5.5455	0.1	-1.1187e-003
25497	17.883	5.4545	0.1	-1.2118e-003
25498	17.975	5.5455	0.1	-2.6355e-003
25499	17.701	5.4545	0.1	-1.897e-003
25500	17.792	5.5455	0.1	-4.2058e-003
25501	17.518	5.4545	0.1	-2.4e-003
25502	17.609	5.5455	0.1	-5.8376e-003
25503	17.336	5.4545	0.1	-1.5926e-003
25504	17.427	5.5455	0.1	-7.5376e-003
25505	17.153	5.4545	0.1	0.41944
25506	17.244	5.5455	0.1	-9.3124e-003
25507	16.97	5.4545	0.1	1.7535
25508	17.062	5.5455	0.1	-1.1128e-002
25509	16.788	5.4545	0.1	3.0334
25510	16.879	5.5455	0.1	-5.7194e-003
25511	16.605	5.4545	0.1	4.2302
25512	16.697	5.5455	0.1	1.051
25513	16.423	5.4545	0.1	5.3135
25514	16.514	5.5455	0.1	2.0466
25515	16.24	5.4545	0.1	6.247
25516	16.331	5.5455	0.1	2.9207
25517	16.057	5.4545	0.1	6.9868
25518	16.149	5.5455	0.1	3.6373
25519	15.875	5.4545	0.1	7.4813
25520	15.966	5.5455	0.1	4.1533
25521	15.692	5.4545	0.1	7.6709
25522	15.784	5.5455	0.1	4.4188
25523	15.51	5.4545	0.1	7.4871
25524	15.601	5.5455	0.1	4.3762
25525	15.327	5.4545	0.1	6.8547
25526	15.418	5.5455	0.1	3.9619
25527	15.145	5.4545	0.1	5.695
25528	15.236	5.5455	0.1	3.1118
25529	14.962	5.4545	0.1	3.9463
25530	15.053	5.5455	0.1	1.8011
25531	14.779	5.4545	0.1	1.7323
25532	14.871	5.5455	0.1	0.50701
25533	14.597	5.4545	0.1	0.46828
25534	14.688	5.5455	0.1	0.1968
25535	14.414	5.4545	0.1	0.25868
25536	14.505	5.5455	0.1	0.14023
25537	14.232	5.4545	0.1	0.20991
25538	14.323	5.5455	0.1	0.12811
25539	14.049	5.4545	0.1	0.20294
25540	14.14	5.5455	0.1	0.13331
25541	13.866	5.4545	0.1	0.21778
25542	13.958	5.5455	0.1	0.15
25543	13.684	5.4545	0.1	0.25106
25544	13.775	5.5455	0.1	0.17754
25545	13.501	5.4545	0.1	0.30543
25546	13.593	5.5455	0.1	0.21784
25547	13.319	5.4545	0.1	0.38802
25548	13.41	5.5455	0.1	0.27548
25549	13.136	5.4545	0.1	0.51269
25550	13.227	5.5455	0.1	0.35888
25551	12.953	5.4545	0.1	0.70166
25552	13.045	5.5455	0.1	0.48607
25553	12.771	5.4545	0.1	1.004
25554	12.862	5.5455	0.1	0.68691
25555	12.588	5.4545	0.1	1.4572
25556	12.68	5.5455	0.1	1.0478
25557	12.406	5.4545	0.1	2.2263
25558	12.497	5.5455	0.1	1.6216
25559	12.223	5.4545	0.1	2.6624
25560	12.314	5.5455	0.1	2.8316
25561	12.041	5.4545	0.1	4.6538
25562	12.132	5.5455	0.1	3.0437
25563	11.949	5.5455	0.1	6.7468
25564	11.858	5.4545	0.1	-1.4536
25565	23.726	5.6364	0.1	0.15143
25566	23.817	5.7273	0.1	0.36995
25567	23.909	5.6364	0.1	-0.18024
25568	23.544	5.6364	0.1	4.4743e-002
25569	23.635	5.7273	0.1	4.9446e-002
25570	23.361	5.6364	0.1	8.5702e-002
25571	23.452	5.7273	0.1	0.11092
25572	23.178	5.6364	0.1	8.0812e-002
25573	23.27	5.7273	0.1	8.6879e-002
25574	22.996	5.6364	0.1	8.0213e-002
25575	23.087	5.7273	0.1	8.1723e-002
25576	22.813	5.6364	0.1	7.5525e-002
25577	22.904	5.7273	0.1	7.1574e-002
25578	22.631	5.6364	0.1	7.0785e-002
25579	22.722	5.7273	0.1	6.374e-002
25580	22.448	5.6364	0.1	6.5785e-002
25581	22.539	5.7273	0.1	5.6548e-002
25582	22.265	5.6364	0.1	6.0958e-002
25583	22.357	5.7273	0.1	5.0358e-002
25584	22.083	5.6364	0.1	5.6356e-002
25585	22.174	5.7273	0.1	4.4945e-002
25586	21.9	5.6364	0.1	5.2031e-002
25587	21.992	5.7273	0.1	4.0218e-002
25588	21.718	5.6364	0.1	4.7983e-002
25589	21.809	5.7273	0.1	3.6068e-002
25590	21.535	5.6364	0.1	4.4198e-002
25591	21.626	5.7273	0.1	3.2404e-002
25592	21.352	5.6364	0.1	4.0656e-002
25593	21.444	5.7273	0.1	2.9153e-002
25594	21.17	5.6364	0.1	3.7339e-002
25595	21.261	5.7273	0.1	2.625e-002
25596	20.987	5.6364	0.1	3.4225e-002
25597	21.079	5.7273	0.1	2.3645e-002
25598	20.805	5.6364	0.1	3.129e-002
25599	20.896	5.7273	0.1	2.1299e-002
25600	20.622	5.6364	0.1	2.8507e-002
25601	20.713	5.7273	0.1	1.9164e-002
25602	20.44	5.6364	0.1	2.5861e-002
25603	20.531	5.7273	0.1	1.721e-002
25604	20.257	5.6364	0.1	2.3335e-002
25605	20.348	5.7273	0.1	1.5417e-002
25606	20.074	5.6364	0.1	2.0911e-002
25607	20.166	5.7273	0.1	1.3759e-002
25608	19.892	5.6364	0.1	1.857e-002
25609	19.983	5.7273	0.1	1.2215e-002
25610	19.709	5.6364	0.1	1.6299e-002
25611	19.8	5.7273	0.1	1.0769e-002
25612	19.527	5.6364	0.1	1.4082e-002
25613	19.618	5.7273	0.1	9.4068e-003
25614	19.344	5.6364	0.1	1.1907e-002
25615	19.435	5.7273	0.1	8.114e-003
25616	19.161	5.6364	0.1	9.7618e-003
25617	19.253	5.7273	0.1	6.8833e-003
25618	18.979	5.6364	0.1	7.635e-003
25619	19.07	5.7273	0.1	5.706e-003
25620	18.796	5.6364	0.1	5.5163e-003
25621	18.888	5.7273	0.1	4.5754e-003
25622	18.614	5.6364	0.1	3.3982e-003
25623	18.705	5.7273	0.1	3.4911e-003
25624	18.431	5.6364	0.1	1.2736e-003
25625	18.522	5.7273	0.1	2.4506e-003
25626	18.249	5.6364	0.1	-8.6189e-004
25627	18.34	5.7273	0.1	1.4617e-003
25628	18.066	5.6364	0.1	-3.0088e-003
25629	18.157	5.7273	0.1	5.3129e-004
25630	17.883	5.6364	0.1	-5.1637e-003
25631	17.975	5.7273	0.1	-3.21e-004
25632	17.701	5.6364	0.1	-7.316e-003
25633	17.792	5.7273	0.1	-1.0695e-003
25634	17.518	5.6364	0.1	-9.4407e-003
25635	17.609	5.7273	0.1	-1.6717e-003
25636	17.336	5.6364	0.1	-1.1489e-002
25637	17.427	5.7273	0.1	-2.0646e-003
25638	17.153	5.6364	0.1	-1.3359e-002
25639	17.244	5.7273	0.1	-2.1554e-003
25640	16.97	5.6364	0.1	-1.4812e-002
25641	17.062	5.7273	0.1	-1.8011e-003
25642	16.788	5.6364	0.1	-1.5191e-002
25643	16.879	5.7273	0.1	-7.9171e-004
25644	16.605	5.6364	0.1	-1.2003e-002
25645	16.697	5.7273	0.1	1.1865e-003
25646	16.423	5.6364	0.1	1.4416e-002
25647	16.514	5.7273	0.1	4.582e-003
25648	16.24	5.6364	0.1	0.33758
25649	16.331	5.7273	0.1	9.9707e-003
25650	16.057	5.6364	0.1	0.80667
25651	16.149	5.7273	0.1	1.7876e-002
25652	15.875	5.6364	0.1	1.0928
25653	15.966	5.7273	0.1	2.8155e-002
25654	15.692	5.6364	0.1	1.1356
25655	15.784	5.7273	0.1	3.8923e-002
25656	15.51	5.6364	0.1	0.89692
25657	15.601	5.7273	0.1	4.644e-002
25658	15.327	5.6364	0.1	0.43697
25659	15.418	5.7273	0.1	4.7938e-002
25660	15.145	5.6364	0.1	0.15955
25661	15.236	5.7273	0.1	4.4488e-002
25662	14.962	5.6364	0.1	9.1825e-002
25663	15.053	5.7273	0.1	3.944e-002
25664	14.779	5.6364	0.1	7.3505e-002
25665	14.871	5.7273	0.1	3.5391e-002
25666	14.597	5.6364	0.1	7.1445e-002
25667	14.688	5.7273	0.1	3.3465e-002
25668	14.414	5.6364	0.1	7.8019e-002
25669	14.505	5.7273	0.1	3.3957e-002
25670	14.232	5.6364	0.1	9.0971e-002
25671	14.323	5.7273	0.1	3.6772e-002
25672	14.049	5.6364	0.1	0.10976
25673	14.14	5.7273	0.1	4.1754e-002
25674	13.866	5.6364	0.1	0.13467
25675	13.958	5.7273	0.1	4.8871e-002
25676	13.684	5.6364	0.1	0.16667
25677	13.775	5.7273	0.1	5.838e-002
25678	13.501	5.6364	0.1	0.20792
25679	13.593	5.7273	0.1	7.1303e-002
25680	13.319	5.6364	0.1	0.26292
25681	13.41	5.7273	0.1	9.0642e-002
25682	13.136	5.6364	0.1	0.34237
25683	13.227	5.7273	0.1	0.12353
25684	12.953	5.6364	0.1	0.46885
25685	13.045	5.7273	0.1	0.18864
25686	12.771	5.6364	0.1	0.70566
25687	12.862	5.7273	0.1	0.32306
25688	12.588	5.6364	0.1	1.1609
25689	12.68	5.7273	0.1	0.63842
25690	12.406	5.6364	0.1	2.2373
25691	12.497	5.7273	0.1	1.2856
25692	12.223	5.6364	0.1	3.7404
25693	12.314	5.7273	0.1	3.0364
25694	12.041	5.6364	0.1	6.9335
25695	12.132	5.7273	0.1	5.1555
25696	11.949	5.7273	0.1	11.496
25697	11.858	5.6364	0.1	-2.2525
25698	23.726	5.8182	0.1	0.30431
25699	23.817	5.9091	0.1	6.2073e-002
25700	23.909	5.8182	0.1	1.7949e-002
25701	23.544	5.8182	0.1	0.11383
25702	23.635	5.9091	0.1	-0.14671
25703	23.361	5.8182	0.1	9.9893e-002
25704	23.452	5.9091	0.1	-5.0617e-002
25705	23.178	5.8182	0.1	7.2722e-002
25706	23.27	5.9091	0.1	-3.6289e-002
25707	22.996	5.8182	0.1	5.7669e-002
25708	23.087	5.9091	0.1	-1.7314e-002
25709	22.813	5.8182	0.1	4.4969e-002
25710	22.904	5.9091	0.1	-8.9789e-003
25711	22.631	5.8182	0.1	3.5619e-002
25712	22.722	5.9091	0.1	-3.0427e-003
25713	22.448	5.8182	0.1	2.8269e-002
25714	22.539	5.9091	0.1	5.6873e-004
25715	22.265	5.8182	0.1	2.2522e-002
25716	22.357	5.9091	0.1	2.9584e-003
25717	22.083	5.8182	0.1	1.7965e-002
25718	22.174	5.9091	0.1	4.4919e-003
25719	21.9	5.8182	0.1	1.4331e-002
25720	21.992	5.9091	0.1	5.4606e-003
25721	21.718	5.8182	0.1	1.1417e-002
25722	21.809	5.9091	0.1	6.0306e-003
25723	21.535	5.8182	0.1	9.0752e-003
25724	21.626	5.9091	0.1	6.3268e-003
25725	21.352	5.8182	0.1	7.19e-003
25726	21.444	5.9091	0.1	6.4216e-003
25727	21.17	5.8182	0.1	5.6736e-003
25728	21.261	5.9091	0.1	6.3686e-003
25729	20.987	5.8182	0.1	4.4624e-003
25730	21.079	5.9091	0.1	6.2141e-003
25731	20.805	5.8182	0.1	3.4999e-003
25732	20.896	5.9091	0.1	5.9852e-003
25733	20.622	5.8182	0.1	2.7396e-003
25734	20.713	5.9091	0.1	5.697e-003
25735	20.44	5.8182	0.1	2.1526e-003
25736	20.531	5.9091	0.1	5.3635e-003
25737	20.257	5.8182	0.1	1.7126e-003
25738	20.348	5.9091	0.1	5.0072e-003
25739	20.074	5.8182	0.1	1.3961e-003
25740	20.166	5.9091	0.1	4.6283e-003
25741	19.892	5.8182	0.1	1.1874e-003
25742	19.983	5.9091	0.1	4.2377e-003
25743	19.709	5.8182	0.1	1.0734e-003
25744	19.8	5.9091	0.1	3.8388e-003
25745	19.527	5.8182	0.1	1.0432e-003
25746	19.618	5.9091	0.1	3.4388e-003
25747	19.344	5.8182	0.1	1.0905e-003
25748	19.435	5.9091	0.1	3.0392e-003
25749	19.161	5.8182	0.1	1.2118e-003
25750	19.253	5.9091	0.1	2.6448e-003
25751	18.979	5.8182	0.1	1.4042e-003
25752	19.07	5.9091	0.1	2.2596e-003
25753	18.796	5.8182	0.1	1.6701e-003
25754	18.888	5.9091	0.1	1.8865e-003
25755	18.614	5.8182	0.1	2.0116e-003
25756	18.705	5.9091	0.1	1.5311e-003
25757	18.431	5.8182	0.1	2.4361e-003
25758	18.522	5.9091	0.1	1.1945e-003
25759	18.249	5.8182	0.1	2.9541e-003
25760	18.34	5.9091	0.1	8.8254e-004
25761	18.066	5.8182	0.1	3.5782e-003
25762	18.157	5.9091	0.1	5.9639e-004
25763	17.883	5.8182	0.1	4.3282e-003
25764	17.975	5.9091	0.1	3.4056e-004
25765	17.701	5.8182	0.1	5.2274e-003
25766	17.792	5.9091	0.1	1.1321e-004
25767	17.518	5.8182	0.1	6.305e-003
25768	17.609	5.9091	0.1	-9.0073e-005
25769	17.336	5.8182	0.1	7.5958e-003
25770	17.427	5.9091	0.1	-2.7692e-004
25771	17.153	5.8182	0.1	9.1404e-003
25772	17.244	5.9091	0.1	-4.724e-004
25773	16.97	5.8182	0.1	1.098e-002
25774	17.062	5.9091	0.1	-7.1116e-004
25775	16.788	5.8182	0.1	1.3149e-002
25776	16.879	5.9091	0.1	-1.0605e-003
25777	16.605	5.8182	0.1	1.5663e-002
25778	16.697	5.9091	0.1	-1.6194e-003
25779	16.423	5.8182	0.1	1.8487e-002
25780	16.514	5.9091	0.1	-2.5396e-003
25781	16.24	5.8182	0.1	2.15e-002
25782	16.331	5.9091	0.1	-4.0344e-003
25783	16.057	5.8182	0.1	2.444e-002
25784	16.149	5.9091	0.1	-6.3758e-003
25785	15.875	5.8182	0.1	2.6875e-002
25786	15.966	5.9091	0.1	-9.868e-003
25787	15.692	5.8182	0.1	2.8233e-002
25788	15.784	5.9091	0.1	-1.4759e-002
25789	15.51	5.8182	0.1	2.797e-002
25790	15.601	5.9091	0.1	-2.1108e-002
25791	15.327	5.8182	0.1	2.5826e-002
25792	15.418	5.9091	0.1	-2.86e-002
25793	15.145	5.8182	0.1	2.2026e-002
25794	15.236	5.9091	0.1	-3.6479e-002
25795	14.962	5.8182	0.1	1.718e-002
25796	15.053	5.9091	0.1	-4.3651e-002
25797	14.779	5.8182	0.1	1.1956e-002
25798	14.871	5.9091	0.1	-4.9071e-002
25799	14.597	5.8182	0.1	6.7954e-003
25800	14.688	5.9091	0.1	-5.2035e-002
25801	14.414	5.8182	0.1	1.7284e-003
25802	14.505	5.9091	0.1	-5.2275e-002
25803	14.232	5.8182	0.1	-3.6436e-003
25804	14.323	5.9091	0.1	-5.0002e-002
25805	14.049	5.8182	0.1	-9.997e-003
25806	14.14	5.9091	0.1	-4.5711e-002
25807	13.866	5.8182	0.1	-1.8075e-002
25808	13.958	5.9091	0.1	-4.0068e-002
25809	13.684	5.8182	0.1	-2.8251e-002
25810	13.775	5.9091	0.1	-3.3945e-002
25811	13.501	5.8182	0.1	-3.9453e-002
25812	13.593	5.9091	0.1	-2.8498e-002
25813	13.319	5.8182	0.1	-4.7094e-002
25814	13.41	5.9091	0.1	-2.5145e-002
25815	13.136	5.8182	0.1	-3.7758e-002
25816	13.227	5.9091	0.1	-2.6017e-002
25817	12.953	5.8182	0.1	1.8242e-002
25818	13.045	5.9091	0.1	-3.1764e-002
25819	12.771	5.8182	0.1	0.19751
25820	12.862	5.9091	0.1	-4.7155e-002
25821	12.588	5.8182	0.1	0.6312
25822	12.68	5.9091	0.1	-4.5828e-002
25823	12.406	5.8182	0.1	1.8005
25824	12.497	5.9091	0.1	-6.8037e-002
25825	12.223	5.8182	0.1	4.0819
25826	12.314	5.9091	0.1	0.35371
25827	12.041	5.8182	0.1	11.939
25828	12.132	5.9091	0.1	0.66495
25829	11.858	5.8182	0.1	0.10681
25830	11.949	5.9091	0.1	9.6644
25831	0.18413	0.27273	0.1	411.24
25832	0.27619	0.18182	0.1	2.442
25833	9.2063e-002	0.18182	0.1	571.04
25834	0.18413	9.0909e-002	0.1	-88.441
25835	0.18413	0.45455	0.1	1044.6
25836	0.27619	0.36364	0.1	742.45
25837	9.2063e-002	0.36364	0.1	1564.2
25838	0.18413	0.63636	0.1	1383.9
25839	0.27619	0.54545	0.1	1244.2
25840	9.2063e-002	0.54545	0.1	2041.
25841	0.18413	0.81818	0.1	1586.6
25842	0.27619	0.72727	0.1	1554.9
25843	9.2063e-002	0.72727	0.1	2319.7
25844	0.18413	1.	0.1	1719.3
25845	0.27619	0.90909	0.1	1756.1
25846	9.2063e-002	0.90909	0.1	2502.2
25847	0.18413	1.1818	0.1	1813.
25848	0.27619	1.0909	0.1	1894.2
25849	9.2063e-002	1.0909	0.1	2631.1
25850	0.18413	1.3636	0.1	1881.9
25851	0.27619	1.2727	0.1	1993.6
25852	9.2063e-002	1.2727	0.1	2726.
25853	0.18413	1.5455	0.1	1934.1
25854	0.27619	1.4545	0.1	2067.5
25855	9.2063e-002	1.4545	0.1	2797.8
25856	0.18413	1.7273	0.1	1974.3
25857	0.27619	1.6364	0.1	2123.7
25858	9.2063e-002	1.6364	0.1	2853.
25859	0.18413	1.9091	0.1	2005.3
25860	0.27619	1.8182	0.1	2166.9
25861	9.2063e-002	1.8182	0.1	2895.7
25862	0.18413	2.0909	0.1	2029.2
25863	0.27619	2.	0.1	2200.2
25864	9.2063e-002	2.	0.1	2928.9
25865	0.18413	2.2727	0.1	2047.3
25866	0.27619	2.1818	0.1	2225.7
25867	9.2063e-002	2.1818	0.1	2954.3
25868	0.18413	2.4545	0.1	2060.6
25869	0.27619	2.3636	0.1	2244.7
25870	9.2063e-002	2.3636	0.1	2973.4
25871	0.18413	2.6364	0.1	2069.7
25872	0.27619	2.5455	0.1	2258.2
25873	9.2063e-002	2.5455	0.1	2987.
25874	0.18413	2.8182	0.1	2075.
25875	0.27619	2.7273	0.1	2266.9
25876	9.2063e-002	2.7273	0.1	2995.7
25877	0.18413	3.	0.1	2076.7
25878	0.27619	2.9091	0.1	2271.2
25879	9.2063e-002	2.9091	0.1	3000.
25880	0.18413	3.1818	0.1	2075.
25881	0.27619	3.0909	0.1	2271.2
25882	9.2063e-002	3.0909	0.1	3000.
25883	0.18413	3.3636	0.1	2069.7
25884	0.27619	3.2727	0.1	2266.9
25885	9.2063e-002	3.2727	0.1	2995.7
25886	0.18413	3.5455	0.1	2060.6
25887	0.27619	3.4545	0.1	2258.2
25888	9.2063e-002	3.4545	0.1	2987.
25889	0.18413	3.7273	0.1	2047.3
25890	0.27619	3.6364	0.1	2244.7
25891	9.2063e-002	3.6364	0.1	2973.4
25892	0.18413	3.9091	0.1	2029.2
25893	0.27619	3.8182	0.1	2225.7
25894	9.2063e-002	3.8182	0.1	2954.3
25895	0.18413	4.0909	0.1	2005.3
25896	0.27619	4.	0.1	2200.2
25897	9.2063e-002	4.	0.1	2928.9
25898	0.18413	4.2727	0.1	1974.3
25899	0.27619	4.1818	0.1	2166.9
25900	9.2063e-002	4.1818	0.1	2895.7
25901	0.18413	4.4545	0.1	1934.1
25902	0.27619	4.3636	0.1	2123.7
25903	9.2063e-002	4.3636	0.1	2853.
25904	0.18413	4.6364	0.1	1881.9
25905	0.27619	4.5455	0.1	2067.5
25906	9.2063e-002	4.5455	0.1	2797.8
25907	0.18413	4.8182	0.1	1813.
25908	0.27619	4.7273	0.1	1993.6
25909	9.2063e-002	4.7273	0.1	2726.
25910	0.18413	5.	0.1	1719.3
25911	0.27619	4.9091	0.1	1894.2
25912	9.2063e-002	4.9091	0.1	2631.1
25913	0.18413	5.1818	0.1	1586.6
25914	0.27619	5.0909	0.1	1756.1
25915	9.2063e-002	5.0909	0.1	2502.2
25916	0.18413	5.3636	0.1	1383.9
25917	0.27619	5.2727	0.1	1554.9
25918	9.2063e-002	5.2727	0.1	2319.7
25919	0.18413	5.5455	0.1	1044.6
25920	0.27619	5.4545	0.1	1244.2
25921	9.2063e-002	5.4545	0.1	2041.
25922	0.18413	5.7273	0.1	411.24
25923	0.27619	5.6364	0.1	742.45
25924	9.2063e-002	5.6364	0.1	1564.2
25925	0.27619	5.8182	0.1	2.4421
25926	9.2063e-002	5.8182	0.1	571.04
25927	0.18413	5.9091	0.1	-88.441
25928	0.36825	0.27273	0.1	305.82
25929	0.46032	0.18182	0.1	41.359
25930	0.36825	9.0909e-002	0.1	23.567
25931	0.36825	0.45455	0.1	941.61
25932	0.46032	0.36364	0.1	535.9
25933	0.36825	0.63636	0.1	1407.9
25934	0.46032	0.54545	0.1	1039.5
25935	0.36825	0.81818	0.1	1717.8
25936	0.46032	0.72727	0.1	1408.5
25937	0.36825	1.	0.1	1926.2
25938	0.46032	0.90909	0.1	1668.5
25939	0.36825	1.1818	0.1	2071.8
25940	0.46032	1.0909	0.1	1852.5
25941	0.36825	1.3636	0.1	2177.3
25942	0.46032	1.2727	0.1	1985.9
25943	0.36825	1.5455	0.1	2255.9
25944	0.46032	1.4545	0.1	2084.7
25945	0.36825	1.7273	0.1	2315.7
25946	0.46032	1.6364	0.1	2159.4
25947	0.36825	1.9091	0.1	2361.4
25948	0.46032	1.8182	0.1	2216.4
25949	0.36825	2.0909	0.1	2396.5
25950	0.46032	2.	0.1	2260.
25951	0.36825	2.2727	0.1	2422.9
25952	0.46032	2.1818	0.1	2293.3
25953	0.36825	2.4545	0.1	2442.2
25954	0.46032	2.3636	0.1	2318.
25955	0.36825	2.6364	0.1	2455.4
25956	0.46032	2.5455	0.1	2335.5
25957	0.36825	2.8182	0.1	2463.1
25958	0.46032	2.7273	0.1	2346.8
25959	0.36825	3.	0.1	2465.6
25960	0.46032	2.9091	0.1	2352.3
25961	0.36825	3.1818	0.1	2463.1
25962	0.46032	3.0909	0.1	2352.3
25963	0.36825	3.3636	0.1	2455.4
25964	0.46032	3.2727	0.1	2346.8
25965	0.36825	3.5455	0.1	2442.2
25966	0.46032	3.4545	0.1	2335.5
25967	0.36825	3.7273	0.1	2422.9
25968	0.46032	3.6364	0.1	2318.
25969	0.36825	3.9091	0.1	2396.5
25970	0.46032	3.8182	0.1	2293.3
25971	0.36825	4.0909	0.1	2361.4
25972	0.46032	4.	0.1	2260.
25973	0.36825	4.2727	0.1	2315.7
25974	0.46032	4.1818	0.1	2216.4
25975	0.36825	4.4545	0.1	2255.9
25976	0.46032	4.3636	0.1	2159.4
25977	0.36825	4.6364	0.1	2177.3
25978	0.46032	4.5455	0.1	2084.7
25979	0.36825	4.8182	0.1	2071.8
25980	0.46032	4.7273	0.1	1985.9
25981	0.36825	5.	0.1	1926.2
25982	0.46032	4.9091	0.1	1852.5
25983	0.36825	5.1818	0.1	1717.8
25984	0.46032	5.0909	0.1	1668.5
25985	0.36825	5.3636	0.1	1407.9
25986	0.46032	5.2727	0.1	1408.5
25987	0.36825	5.5455	0.1	941.61
25988	0.46032	5.4545	0.1	1039.5
25989	0.36825	5.7273	0.1	305.82
25990	0.46032	5.6364	0.1	535.9
25991	0.46032	5.8182	0.1	41.359
25992	0.36825	5.9091	0.1	23.567
25993	0.55238	0.27273	0.1	168.72
25994	0.64444	0.18182	0.1	9.777
25995	0.55238	9.0909e-002	0.1	-9.0529
25996	0.55238	0.45455	0.1	636.67
25997	0.64444	0.36364	0.1	375.04
25998	0.55238	0.63636	0.1	1043.
25999	0.64444	0.54545	0.1	783.54
26000	0.55238	0.81818	0.1	1360.3
26001	0.64444	0.72727	0.1	1130.4
26002	0.55238	1.	0.1	1594.6
26003	0.64444	0.90909	0.1	1402.1
26004	0.55238	1.1818	0.1	1766.
26005	0.64444	1.0909	0.1	1607.9
26006	0.55238	1.3636	0.1	1892.7
26007	0.64444	1.2727	0.1	1762.8
26008	0.55238	1.5455	0.1	1987.6
26009	0.64444	1.4545	0.1	1880.1
26010	0.55238	1.7273	0.1	2059.7
26011	0.64444	1.6364	0.1	1969.5
26012	0.55238	1.9091	0.1	2114.7
26013	0.64444	1.8182	0.1	2038.
26014	0.55238	2.0909	0.1	2156.7
26015	0.64444	2.	0.1	2090.6
26016	0.55238	2.2727	0.1	2188.3
26017	0.64444	2.1818	0.1	2130.5
26018	0.55238	2.4545	0.1	2211.3
26019	0.64444	2.3636	0.1	2160.2
26020	0.55238	2.6364	0.1	2227.
26021	0.64444	2.5455	0.1	2181.3
26022	0.55238	2.8182	0.1	2236.1
26023	0.64444	2.7273	0.1	2194.8
26024	0.55238	3.	0.1	2239.1
26025	0.64444	2.9091	0.1	2201.4
26026	0.55238	3.1818	0.1	2236.1
26027	0.64444	3.0909	0.1	2201.4
26028	0.55238	3.3636	0.1	2227.
26029	0.64444	3.2727	0.1	2194.8
26030	0.55238	3.5455	0.1	2211.3
26031	0.64444	3.4545	0.1	2181.3
26032	0.55238	3.7273	0.1	2188.3
26033	0.64444	3.6364	0.1	2160.2
26034	0.55238	3.9091	0.1	2156.7
26035	0.64444	3.8182	0.1	2130.5
26036	0.55238	4.0909	0.1	2114.7
26037	0.64444	4.	0.1	2090.6
26038	0.55238	4.2727	0.1	2059.7
26039	0.64444	4.1818	0.1	2038.
26040	0.55238	4.4545	0.1	1987.6
26041	0.64444	4.3636	0.1	1969.5
26042	0.55238	4.6364	0.1	1892.7
26043	0.64444	4.5455	0.1	1880.1
26044	0.55238	4.8182	0.1	1766.
26045	0.64444	4.7273	0.1	1762.8
26046	0.55238	5.	0.1	1594.6
26047	0.64444	4.9091	0.1	1607.9
26048	0.55238	5.1818	0.1	1360.3
26049	0.64444	5.0909	0.1	1402.1
26050	0.55238	5.3636	0.1	1043.
26051	0.64444	5.2727	0.1	1130.4
26052	0.55238	5.5455	0.1	636.67
26053	0.64444	5.4545	0.1	783.54
26054	0.55238	5.7273	0.1	168.72
26055	0.64444	5.6364	0.1	375.04
26056	0.64444	5.8182	0.1	9.777
26057	0.55238	5.9091	0.1	-9.0529
26058	0.73651	0.27273	0.1	145.46
26059	0.82857	0.18182	0.1	16.328
26060	0.73651	9.0909e-002	0.1	1.4123
26061	0.73651	0.45455	0.1	522.19
26062	0.82857	0.36364	0.1	311.03
26063	0.73651	0.63636	0.1	872.58
26064	0.82857	0.54545	0.1	647.89
26065	0.73651	0.81818	0.1	1173.7
26066	0.82857	0.72727	0.1	956.83
26067	0.73651	1.	0.1	1416.2
26068	0.82857	0.90909	0.1	1219.2
26069	0.73651	1.1818	0.1	1605.
26070	0.82857	1.0909	0.1	1431.6
26071	0.73651	1.3636	0.1	1750.2
26072	0.82857	1.2727	0.1	1599.5
26073	0.73651	1.5455	0.1	1861.8
26074	0.82857	1.4545	0.1	1730.8
26075	0.73651	1.7273	0.1	1947.7
26076	0.82857	1.6364	0.1	1833.2
26077	0.73651	1.9091	0.1	2013.7
26078	0.82857	1.8182	0.1	1912.8
26079	0.73651	2.0909	0.1	2064.3
26080	0.82857	2.	0.1	1974.4
26081	0.73651	2.2727	0.1	2102.5
26082	0.82857	2.1818	0.1	2021.4
26083	0.73651	2.4545	0.1	2130.3
26084	0.82857	2.3636	0.1	2056.6
26085	0.73651	2.6364	0.1	2149.2
26086	0.82857	2.5455	0.1	2081.5
26087	0.73651	2.8182	0.1	2160.2
26088	0.82857	2.7273	0.1	2097.5
26089	0.73651	3.	0.1	2163.8
26090	0.82857	2.9091	0.1	2105.3
26091	0.73651	3.1818	0.1	2160.2
26092	0.82857	3.0909	0.1	2105.3
26093	0.73651	3.3636	0.1	2149.2
26094	0.82857	3.2727	0.1	2097.5
26095	0.73651	3.5455	0.1	2130.3
26096	0.82857	3.4545	0.1	2081.5
26097	0.73651	3.7273	0.1	2102.5
26098	0.82857	3.6364	0.1	2056.6
26099	0.73651	3.9091	0.1	2064.3
26100	0.82857	3.8182	0.1	2021.4
26101	0.73651	4.0909	0.1	2013.7
26102	0.82857	4.	0.1	1974.4
26103	0.73651	4.2727	0.1	1947.7
26104	0.82857	4.1818	0.1	1912.8
26105	0.73651	4.4545	0.1	1861.8
26106	0.82857	4.3636	0.1	1833.2
26107	0.73651	4.6364	0.1	1750.2
26108	0.82857	4.5455	0.1	1730.8
26109	0.73651	4.8182	0.1	1605.
26110	0.82857	4.7273	0.1	1599.5
26111	0.73651	5.	0.1	1416.2
26112	0.82857	4.9091	0.1	1431.6
26113	0.73651	5.1818	0.1	1173.7
26114	0.82857	5.0909	0.1	1219.2
26115	0.73651	5.3636	0.1	872.58
26116	0.82857	5.2727	0.1	956.83
26117	0.73651	5.5455	0.1	522.19
26118	0.82857	5.4545	0.1	647.89
26119	0.73651	5.7273	0.1	145.46
26120	0.82857	5.6364	0.1	311.03
26121	0.82857	5.8182	0.1	16.328
26122	0.73651	5.9091	0.1	1.4123
26123	0.92063	0.27273	0.1	127.34
26124	1.0127	0.18182	0.1	15.826
26125	0.92063	9.0909e-002	0.1	-1.0355
26126	0.92063	0.45455	0.1	436.06
26127	1.0127	0.36364	0.1	269.19
26128	0.92063	0.63636	0.1	732.66
26129	1.0127	0.54545	0.1	550.68
26130	0.92063	0.81818	0.1	1003.3
26131	1.0127	0.72727	0.1	819.89
26132	0.92063	1.	0.1	1235.6
26133	1.0127	0.90909	0.1	1061.3
26134	0.92063	1.1818	0.1	1426.8
26135	1.0127	1.0909	0.1	1267.5
26136	0.92063	1.3636	0.1	1580.6
26137	1.0127	1.2727	0.1	1438.
26138	0.92063	1.5455	0.1	1702.5
26139	1.0127	1.4545	0.1	1576.2
26140	0.92063	1.7273	0.1	1798.5
26141	1.0127	1.6364	0.1	1687.
26142	0.92063	1.9091	0.1	1873.6
26143	1.0127	1.8182	0.1	1774.8
26144	0.92063	2.0909	0.1	1931.6
26145	1.0127	2.	0.1	1843.6
26146	0.92063	2.2727	0.1	1975.6
26147	1.0127	2.1818	0.1	1896.8
26148	0.92063	2.4545	0.1	2007.9
26149	1.0127	2.3636	0.1	1936.8
26150	0.92063	2.6364	0.1	2029.9
26151	1.0127	2.5455	0.1	1965.3
26152	0.92063	2.8182	0.1	2042.7
26153	1.0127	2.7273	0.1	1983.6
26154	0.92063	3.	0.1	2046.9
26155	1.0127	2.9091	0.1	1992.6
26156	0.92063	3.1818	0.1	2042.7
26157	1.0127	3.0909	0.1	1992.6
26158	0.92063	3.3636	0.1	2029.9
26159	1.0127	3.2727	0.1	1983.6
26160	0.92063	3.5455	0.1	2007.9
26161	1.0127	3.4545	0.1	1965.3
26162	0.92063	3.7273	0.1	1975.6
26163	1.0127	3.6364	0.1	1936.8
26164	0.92063	3.9091	0.1	1931.6
26165	1.0127	3.8182	0.1	1896.8
26166	0.92063	4.0909	0.1	1873.6
26167	1.0127	4.	0.1	1843.6
26168	0.92063	4.2727	0.1	1798.5
26169	1.0127	4.1818	0.1	1774.8
26170	0.92063	4.4545	0.1	1702.5
26171	1.0127	4.3636	0.1	1687.
26172	0.92063	4.6364	0.1	1580.6
26173	1.0127	4.5455	0.1	1576.2
26174	0.92063	4.8182	0.1	1426.8
26175	1.0127	4.7273	0.1	1438.
26176	0.92063	5.	0.1	1235.6
26177	1.0127	4.9091	0.1	1267.5
26178	0.92063	5.1818	0.1	1003.3
26179	1.0127	5.0909	0.1	1061.3
26180	0.92063	5.3636	0.1	732.66
26181	1.0127	5.2727	0.1	819.89
26182	0.92063	5.5455	0.1	436.06
26183	1.0127	5.4545	0.1	550.69
26184	0.92063	5.7273	0.1	127.34
26185	1.0127	5.6364	0.1	269.19
26186	1.0127	5.8182	0.1	15.826
26187	0.92063	5.9091	0.1	-1.0355
26188	1.1048	0.27273	0.1	121.24
26189	1.1968	0.18182	0.1	18.898
26190	1.1048	9.0909e-002	0.1	-1.1213e-002
26191	1.1048	0.45455	0.1	383.03
26192	1.1968	0.36364	0.1	243.52
26193	1.1048	0.63636	0.1	637.89
26194	1.1968	0.54545	0.1	484.33
26195	1.1048	0.81818	0.1	878.42
26196	1.1968	0.72727	0.1	719.52
26197	1.1048	1.	0.1	1094.
26198	1.1968	0.90909	0.1	937.88
26199	1.1048	1.1818	0.1	1279.4
26200	1.1968	1.0909	0.1	1131.7
26201	1.1048	1.3636	0.1	1434.3
26202	1.1968	1.2727	0.1	1298.
26203	1.1048	1.5455	0.1	1561.2
26204	1.1968	1.4545	0.1	1437.4
26205	1.1048	1.7273	0.1	1663.6
26206	1.1968	1.6364	0.1	1552.
26207	1.1048	1.9091	0.1	1745.1
26208	1.1968	1.8182	0.1	1644.9
26209	1.1048	2.0909	0.1	1809.1
26210	1.1968	2.	0.1	1718.9
26211	1.1048	2.2727	0.1	1858.1
26212	1.1968	2.1818	0.1	1776.8
26213	1.1048	2.4545	0.1	1894.3
26214	1.1968	2.3636	0.1	1820.7
26215	1.1048	2.6364	0.1	1919.1
26216	1.1968	2.5455	0.1	1852.2
26217	1.1048	2.8182	0.1	1933.6
26218	1.1968	2.7273	0.1	1872.6
26219	1.1048	3.	0.1	1938.4
26220	1.1968	2.9091	0.1	1882.6
26221	1.1048	3.1818	0.1	1933.6
26222	1.1968	3.0909	0.1	1882.6
26223	1.1048	3.3636	0.1	1919.1
26224	1.1968	3.2727	0.1	1872.6
26225	1.1048	3.5455	0.1	1894.3
26226	1.1968	3.4545	0.1	1852.2
26227	1.1048	3.7273	0.1	1858.1
26228	1.1968	3.6364	0.1	1820.7
26229	1.1048	3.9091	0.1	1809.1
26230	1.1968	3.8182	0.1	1776.8
26231	1.1048	4.0909	0.1	1745.1
26232	1.1968	4.	0.1	1718.9
26233	1.1048	4.2727	0.1	1663.6
26234	1.1968	4.1818	0.1	1644.9
26235	1.1048	4.4545	0.1	1561.2
26236	1.1968	4.3636	0.1	1552.
26237	1.1048	4.6364	0.1	1434.3
26238	1.1968	4.5455	0.1	1437.4
26239	1.1048	4.8182	0.1	1279.4
26240	1.1968	4.7273	0.1	1298.
26241	1.1048	5.	0.1	1094.
26242	1.1968	4.9091	0.1	1131.7
26243	1.1048	5.1818	0.1	878.42
26244	1.1968	5.0909	0.1	937.88
26245	1.1048	5.3636	0.1	637.89
26246	1.1968	5.2727	0.1	719.52
26247	1.1048	5.5455	0.1	383.03
26248	1.1968	5.4545	0.1	484.33
26249	1.1048	5.7273	0.1	121.24
26250	1.1968	5.6364	0.1	243.52
26251	1.1968	5.8182	0.1	18.898
26252	1.1048	5.9091	0.1	-1.1209e-002
26253	1.2889	0.27273	0.1	117.69
26254	1.381	0.18182	0.1	22.903
26255	1.2889	9.0909e-002	0.1	0.15233
26256	1.2889	0.45455	0.1	344.07
26257	1.381	0.36364	0.1	224.98
26258	1.2889	0.63636	0.1	565.7
26259	1.381	0.54545	0.1	434.53
26260	1.2889	0.81818	0.1	779.09
26261	1.381	0.72727	0.1	641.41
26262	1.2889	1.	0.1	975.97
26263	1.381	0.90909	0.1	837.74
26264	1.2889	1.1818	0.1	1150.9
26265	1.381	1.0909	0.1	1016.8
26266	1.2889	1.3636	0.1	1301.6
26267	1.381	1.2727	0.1	1175.
26268	1.2889	1.5455	0.1	1428.7
26269	1.381	1.4545	0.1	1311.2
26270	1.2889	1.7273	0.1	1533.7
26271	1.381	1.6364	0.1	1425.9
26272	1.2889	1.9091	0.1	1619.
26273	1.381	1.8182	0.1	1520.8
26274	1.2889	2.0909	0.1	1686.9
26275	1.381	2.	0.1	1597.7
26276	1.2889	2.2727	0.1	1739.6
26277	1.381	2.1818	0.1	1658.7
26278	1.2889	2.4545	0.1	1778.8
26279	1.381	2.3636	0.1	1705.4
26280	1.2889	2.6364	0.1	1805.9
26281	1.381	2.5455	0.1	1739.1
26282	1.2889	2.8182	0.1	1821.8
26283	1.381	2.7273	0.1	1761.1
26284	1.2889	3.	0.1	1827.
26285	1.381	2.9091	0.1	1771.9
26286	1.2889	3.1818	0.1	1821.8
26287	1.381	3.0909	0.1	1771.9
26288	1.2889	3.3636	0.1	1805.9
26289	1.381	3.2727	0.1	1761.1
26290	1.2889	3.5455	0.1	1778.8
26291	1.381	3.4545	0.1	1739.1
26292	1.2889	3.7273	0.1	1739.6
26293	1.381	3.6364	0.1	1705.4
26294	1.2889	3.9091	0.1	1686.9
26295	1.381	3.8182	0.1	1658.7
26296	1.2889	4.0909	0.1	1619.
26297	1.381	4.	0.1	1597.7
26298	1.2889	4.2727	0.1	1533.7
26299	1.381	4.1818	0.1	1520.8
26300	1.2889	4.4545	0.1	1428.7
26301	1.381	4.3636	0.1	1425.9
26302	1.2889	4.6364	0.1	1301.6
26303	1.381	4.5455	0.1	1311.2
26304	1.2889	4.8182	0.1	1150.9
26305	1.381	4.7273	0.1	1175.
26306	1.2889	5.	0.1	975.97
26307	1.381	4.9091	0.1	1016.8
26308	1.2889	5.1818	0.1	779.1
26309	1.381	5.0909	0.1	837.74
26310	1.2889	5.3636	0.1	565.7
26311	1.381	5.2727	0.1	641.41
26312	1.2889	5.5455	0.1	344.07
26313	1.381	5.4545	0.1	434.53
26314	1.2889	5.7273	0.1	117.69
26315	1.381	5.6364	0.1	224.98
26316	1.381	5.8182	0.1	22.903
26317	1.2889	5.9091	0.1	0.15233
26318	1.473	0.27273	0.1	115.81
26319	1.5651	0.18182	0.1	28.067
26320	1.473	9.0909e-002	0.1	0.92765
26321	1.473	0.45455	0.1	314.78
26322	1.5651	0.36364	0.1	210.82
26323	1.473	0.63636	0.1	509.92
26324	1.5651	0.54545	0.1	395.74
26325	1.473	0.81818	0.1	699.99
26326	1.5651	0.72727	0.1	579.26
26327	1.473	1.	0.1	878.75
26328	1.5651	0.90909	0.1	755.79
26329	1.473	1.1818	0.1	1041.3
26330	1.5651	1.0909	0.1	919.94
26331	1.473	1.3636	0.1	1184.9
26332	1.5651	1.2727	0.1	1068.1
26333	1.473	1.5455	0.1	1308.8
26334	1.5651	1.4545	0.1	1198.4
26335	1.473	1.7273	0.1	1413.4
26336	1.5651	1.6364	0.1	1310.5
26337	1.473	1.9091	0.1	1499.9
26338	1.5651	1.8182	0.1	1404.9
26339	1.473	2.0909	0.1	1569.8
26340	1.5651	2.	0.1	1482.6
26341	1.473	2.2727	0.1	1624.7
26342	1.5651	2.1818	0.1	1545.
26343	1.473	2.4545	0.1	1665.9
26344	1.5651	2.3636	0.1	1593.2
26345	1.473	2.6364	0.1	1694.6
26346	1.5651	2.5455	0.1	1628.4
26347	1.473	2.8182	0.1	1711.4
26348	1.5651	2.7273	0.1	1651.4
26349	1.473	3.	0.1	1717.
26350	1.5651	2.9091	0.1	1662.7
26351	1.473	3.1818	0.1	1711.4
26352	1.5651	3.0909	0.1	1662.7
26353	1.473	3.3636	0.1	1694.6
26354	1.5651	3.2727	0.1	1651.4
26355	1.473	3.5455	0.1	1665.9
26356	1.5651	3.4545	0.1	1628.4
26357	1.473	3.7273	0.1	1624.7
26358	1.5651	3.6364	0.1	1593.2
26359	1.473	3.9091	0.1	1569.8
26360	1.5651	3.8182	0.1	1545.
26361	1.473	4.0909	0.1	1499.9
26362	1.5651	4.	0.1	1482.6
26363	1.473	4.2727	0.1	1413.4
26364	1.5651	4.1818	0.1	1404.9
26365	1.473	4.4545	0.1	1308.8
26366	1.5651	4.3636	0.1	1310.5
26367	1.473	4.6364	0.1	1184.9
26368	1.5651	4.5455	0.1	1198.4
26369	1.473	4.8182	0.1	1041.3
26370	1.5651	4.7273	0.1	1068.1
26371	1.473	5.	0.1	878.75
26372	1.5651	4.9091	0.1	919.94
26373	1.473	5.1818	0.1	699.99
26374	1.5651	5.0909	0.1	755.79
26375	1.473	5.3636	0.1	509.92
26376	1.5651	5.2727	0.1	579.26
26377	1.473	5.5455	0.1	314.78
26378	1.5651	5.4545	0.1	395.74
26379	1.473	5.7273	0.1	115.81
26380	1.5651	5.6364	0.1	210.82
26381	1.5651	5.8182	0.1	28.067
26382	1.473	5.9091	0.1	0.92766
26383	1.6571	0.27273	0.1	114.31
26384	1.7492	0.18182	0.1	33.467
26385	1.6571	9.0909e-002	0.1	3.17
26386	1.6571	0.45455	0.1	291.21
26387	1.7492	0.36364	0.1	199.1
26388	1.6571	0.63636	0.1	464.75
26389	1.7492	0.54545	0.1	364.04
26390	1.6571	0.81818	0.1	634.91
26391	1.7492	0.72727	0.1	528.07
26392	1.6571	1.	0.1	797.
26393	1.7492	0.90909	0.1	687.19
26394	1.6571	1.1818	0.1	946.88
26395	1.7492	1.0909	0.1	837.11
26396	1.6571	1.3636	0.1	1081.8
26397	1.7492	1.2727	0.1	974.59
26398	1.6571	1.5455	0.1	1200.4
26399	1.7492	1.4545	0.1	1097.6
26400	1.6571	1.7273	0.1	1302.3
26401	1.7492	1.6364	0.1	1205.2
26402	1.6571	1.9091	0.1	1387.9
26403	1.7492	1.8182	0.1	1297.1
26404	1.6571	2.0909	0.1	1458.1
26405	1.7492	2.	0.1	1374.
26406	1.6571	2.2727	0.1	1513.8
26407	1.7492	2.1818	0.1	1436.4
26408	1.6571	2.4545	0.1	1556.
26409	1.7492	2.3636	0.1	1485.1
26410	1.6571	2.6364	0.1	1585.5
26411	1.7492	2.5455	0.1	1520.8
26412	1.6571	2.8182	0.1	1603.
26413	1.7492	2.7273	0.1	1544.3
26414	1.6571	3.	0.1	1608.8
26415	1.7492	2.9091	0.1	1556.
26416	1.6571	3.1818	0.1	1603.
26417	1.7492	3.0909	0.1	1556.
26418	1.6571	3.3636	0.1	1585.5
26419	1.7492	3.2727	0.1	1544.3
26420	1.6571	3.5455	0.1	1556.
26421	1.7492	3.4545	0.1	1520.8
26422	1.6571	3.7273	0.1	1513.8
26423	1.7492	3.6364	0.1	1485.1
26424	1.6571	3.9091	0.1	1458.1
26425	1.7492	3.8182	0.1	1436.4
26426	1.6571	4.0909	0.1	1387.9
26427	1.7492	4.	0.1	1374.
26428	1.6571	4.2727	0.1	1302.3
26429	1.7492	4.1818	0.1	1297.1
26430	1.6571	4.4545	0.1	1200.4
26431	1.7492	4.3636	0.1	1205.2
26432	1.6571	4.6364	0.1	1081.8
26433	1.7492	4.5455	0.1	1097.6
26434	1.6571	4.8182	0.1	946.88
26435	1.7492	4.7273	0.1	974.59
26436	1.6571	5.	0.1	797.
26437	1.7492	4.9091	0.1	837.11
26438	1.6571	5.1818	0.1	634.91
26439	1.7492	5.0909	0.1	687.19
26440	1.6571	5.3636	0.1	464.75
26441	1.7492	5.2727	0.1	528.07
26442	1.6571	5.5455	0.1	291.21
26443	1.7492	5.4545	0.1	364.04
26444	1.6571	5.7273	0.1	114.31
26445	1.7492	5.6364	0.1	199.1
26446	1.7492	5.8182	0.1	33.467
26447	1.6571	5.9091	0.1	3.1701
26448	1.8413	0.27273	0.1	112.78
26449	1.9333	0.18182	0.1	38.44
26450	1.8413	9.0909e-002	0.1	7.85
26451	1.8413	0.45455	0.1	271.45
26452	1.9333	0.36364	0.1	188.88
26453	1.8413	0.63636	0.1	427.04
26454	1.9333	0.54545	0.1	337.21
26455	1.8413	0.81818	0.1	580.16
26456	1.9333	0.72727	0.1	484.76
26457	1.8413	1.	0.1	727.25
26458	1.9333	0.90909	0.1	628.65
26459	1.8413	1.1818	0.1	864.88
26460	1.9333	1.0909	0.1	765.44
26461	1.8413	1.3636	0.1	990.53
26462	1.9333	1.2727	0.1	892.34
26463	1.8413	1.5455	0.1	1102.6
26464	1.9333	1.4545	0.1	1007.4
26465	1.8413	1.7273	0.1	1200.3
26466	1.9333	1.6364	0.1	1109.3
26467	1.8413	1.9091	0.1	1283.5
26468	1.9333	1.8182	0.1	1197.6
26469	1.8413	2.0909	0.1	1352.6
26470	1.9333	2.	0.1	1272.2
26471	1.8413	2.2727	0.1	1407.9
26472	1.9333	2.1818	0.1	1333.4
26473	1.8413	2.4545	0.1	1450.2
26474	1.9333	2.3636	0.1	1381.6
26475	1.8413	2.6364	0.1	1479.9
26476	1.9333	2.5455	0.1	1417.2
26477	1.8413	2.8182	0.1	1497.6
26478	1.9333	2.7273	0.1	1440.7
26479	1.8413	3.	0.1	1503.4
26480	1.9333	2.9091	0.1	1452.4
26481	1.8413	3.1818	0.1	1497.6
26482	1.9333	3.0909	0.1	1452.4
26483	1.8413	3.3636	0.1	1479.9
26484	1.9333	3.2727	0.1	1440.7
26485	1.8413	3.5455	0.1	1450.2
26486	1.9333	3.4545	0.1	1417.2
26487	1.8413	3.7273	0.1	1407.9
26488	1.9333	3.6364	0.1	1381.6
26489	1.8413	3.9091	0.1	1352.6
26490	1.9333	3.8182	0.1	1333.4
26491	1.8413	4.0909	0.1	1283.5
26492	1.9333	4.	0.1	1272.2
26493	1.8413	4.2727	0.1	1200.3
26494	1.9333	4.1818	0.1	1197.6
26495	1.8413	4.4545	0.1	1102.6
26496	1.9333	4.3636	0.1	1109.3
26497	1.8413	4.6364	0.1	990.53
26498	1.9333	4.5455	0.1	1007.4
26499	1.8413	4.8182	0.1	864.88
26500	1.9333	4.7273	0.1	892.34
26501	1.8413	5.	0.1	727.25
26502	1.9333	4.9091	0.1	765.44
26503	1.8413	5.1818	0.1	580.16
26504	1.9333	5.0909	0.1	628.65
26505	1.8413	5.3636	0.1	427.04
26506	1.9333	5.2727	0.1	484.76
26507	1.8413	5.5455	0.1	271.45
26508	1.9333	5.4545	0.1	337.21
26509	1.8413	5.7273	0.1	112.78
26510	1.9333	5.6364	0.1	188.88
26511	1.9333	5.8182	0.1	38.44
26512	1.8413	5.9091	0.1	7.85
26513	2.0254	0.27273	0.1	110.96
26514	2.1175	0.18182	0.1	42.606
26515	2.0254	9.0909e-002	0.1	12.61
26516	2.0254	0.45455	0.1	254.23
26517	2.1175	0.36364	0.1	179.56
26518	2.0254	0.63636	0.1	394.64
26519	2.1175	0.54545	0.1	313.79
26520	2.0254	0.81818	0.1	533.05
26521	2.1175	0.72727	0.1	447.24
26522	2.0254	1.	0.1	666.74
26523	2.1175	0.90909	0.1	577.76
26524	2.0254	1.1818	0.1	792.89
26525	2.1175	1.0909	0.1	702.59
26526	2.0254	1.3636	0.1	909.25
26527	2.1175	1.2727	0.1	819.37
26528	2.0254	1.5455	0.1	1014.2
26529	2.1175	1.4545	0.1	926.26
26530	2.0254	1.7273	0.1	1106.8
26531	2.1175	1.6364	0.1	1022.
26532	2.0254	1.9091	0.1	1186.5
26533	2.1175	1.8182	0.1	1105.8
26534	2.0254	2.0909	0.1	1253.4
26535	2.1175	2.	0.1	1177.3
26536	2.0254	2.2727	0.1	1307.4
26537	2.1175	2.1818	0.1	1236.4
26538	2.0254	2.4545	0.1	1349.
26539	2.1175	2.3636	0.1	1283.3
26540	2.0254	2.6364	0.1	1378.4
26541	2.1175	2.5455	0.1	1318.2
26542	2.0254	2.8182	0.1	1395.9
26543	2.1175	2.7273	0.1	1341.3
26544	2.0254	3.	0.1	1401.7
26545	2.1175	2.9091	0.1	1352.8
26546	2.0254	3.1818	0.1	1395.9
26547	2.1175	3.0909	0.1	1352.8
26548	2.0254	3.3636	0.1	1378.4
26549	2.1175	3.2727	0.1	1341.3
26550	2.0254	3.5455	0.1	1349.
26551	2.1175	3.4545	0.1	1318.2
26552	2.0254	3.7273	0.1	1307.4
26553	2.1175	3.6364	0.1	1283.3
26554	2.0254	3.9091	0.1	1253.4
26555	2.1175	3.8182	0.1	1236.4
26556	2.0254	4.0909	0.1	1186.5
26557	2.1175	4.	0.1	1177.3
26558	2.0254	4.2727	0.1	1106.8
26559	2.1175	4.1818	0.1	1105.8
26560	2.0254	4.4545	0.1	1014.2
26561	2.1175	4.3636	0.1	1022.
26562	2.0254	4.6364	0.1	909.25
26563	2.1175	4.5455	0.1	926.26
26564	2.0254	4.8182	0.1	792.89
26565	2.1175	4.7273	0.1	819.37
26566	2.0254	5.	0.1	666.74
26567	2.1175	4.9091	0.1	702.59
26568	2.0254	5.1818	0.1	533.05
26569	2.1175	5.0909	0.1	577.76
26570	2.0254	5.3636	0.1	394.64
26571	2.1175	5.2727	0.1	447.24
26572	2.0254	5.5455	0.1	254.23
26573	2.1175	5.4545	0.1	313.79
26574	2.0254	5.7273	0.1	110.96
26575	2.1175	5.6364	0.1	179.56
26576	2.1175	5.8182	0.1	42.606
26577	2.0254	5.9091	0.1	12.61
26578	2.2095	0.27273	0.1	108.76
26579	2.3016	0.18182	0.1	45.844
26580	2.2095	9.0909e-002	0.1	16.519
26581	2.2095	0.45455	0.1	238.78
26582	2.3016	0.36364	0.1	170.81
26583	2.2095	0.63636	0.1	366.14
26584	2.3016	0.54545	0.1	292.87
26585	2.2095	0.81818	0.1	491.75
26586	2.3016	0.72727	0.1	414.08
26587	2.2095	1.	0.1	613.48
26588	2.3016	0.90909	0.1	532.79
26589	2.2095	1.1818	0.1	729.02
26590	2.3016	1.0909	0.1	646.79
26591	2.2095	1.3636	0.1	836.41
26592	2.3016	1.2727	0.1	754.09
26593	2.2095	1.5455	0.1	934.13
26594	2.3016	1.4545	0.1	853.01
26595	2.2095	1.7273	0.1	1021.1
26596	2.3016	1.6364	0.1	942.31
26597	2.2095	1.9091	0.1	1096.7
26598	2.3016	1.8182	0.1	1021.1
26599	2.2095	2.0909	0.1	1160.5
26600	2.3016	2.	0.1	1088.9
26601	2.2095	2.2727	0.1	1212.5
26602	2.3016	2.1818	0.1	1145.3
26603	2.2095	2.4545	0.1	1252.8
26604	2.3016	2.3636	0.1	1190.4
26605	2.2095	2.6364	0.1	1281.4
26606	2.3016	2.5455	0.1	1224.1
26607	2.2095	2.8182	0.1	1298.5
26608	2.3016	2.7273	0.1	1246.5
26609	2.2095	3.	0.1	1304.2
26610	2.3016	2.9091	0.1	1257.7
26611	2.2095	3.1818	0.1	1298.5
26612	2.3016	3.0909	0.1	1257.7
26613	2.2095	3.3636	0.1	1281.4
26614	2.3016	3.2727	0.1	1246.5
26615	2.2095	3.5455	0.1	1252.8
26616	2.3016	3.4545	0.1	1224.1
26617	2.2095	3.7273	0.1	1212.5
26618	2.3016	3.6364	0.1	1190.4
26619	2.2095	3.9091	0.1	1160.5
26620	2.3016	3.8182	0.1	1145.3
26621	2.2095	4.0909	0.1	1096.7
26622	2.3016	4.	0.1	1088.9
26623	2.2095	4.2727	0.1	1021.1
26624	2.3016	4.1818	0.1	1021.1
26625	2.2095	4.4545	0.1	934.13
26626	2.3016	4.3636	0.1	942.31
26627	2.2095	4.6364	0.1	836.41
26628	2.3016	4.5455	0.1	853.01
26629	2.2095	4.8182	0.1	729.02
26630	2.3016	4.7273	0.1	754.09
26631	2.2095	5.	0.1	613.48
26632	2.3016	4.9091	0.1	646.79
26633	2.2095	5.1818	0.1	491.75
26634	2.3016	5.0909	0.1	532.79
26635	2.2095	5.3636	0.1	366.14
26636	2.3016	5.2727	0.1	414.08
26637	2.2095	5.5455	0.1	238.78
26638	2.3016	5.4545	0.1	292.87
26639	2.2095	5.7273	0.1	108.76
26640	2.3016	5.6364	0.1	170.81
26641	2.3016	5.8182	0.1	45.845
26642	2.2095	5.9091	0.1	16.519
26643	2.3937	0.27273	0.1	106.15
26644	2.4857	0.18182	0.1	48.166
26645	2.3937	9.0909e-002	0.1	19.541
26646	2.3937	0.45455	0.1	224.61
26647	2.4857	0.36364	0.1	162.43
26648	2.3937	0.63636	0.1	340.58
26649	2.4857	0.54545	0.1	273.83
26650	2.3937	0.81818	0.1	454.94
26651	2.4857	0.72727	0.1	384.28
26652	2.3937	1.	0.1	565.98
26653	2.4857	0.90909	0.1	492.53
26654	2.3937	1.1818	0.1	671.79
26655	2.4857	1.0909	0.1	596.74
26656	2.3937	1.3636	0.1	770.68
26657	2.4857	1.2727	0.1	695.22
26658	2.3937	1.5455	0.1	861.25
26659	2.4857	1.4545	0.1	786.51
26660	2.3937	1.7273	0.1	942.43
26661	2.4857	1.6364	0.1	869.42
26662	2.3937	1.9091	0.1	1013.5
26663	2.4857	1.8182	0.1	943.04
26664	2.3937	2.0909	0.1	1073.9
26665	2.4857	2.	0.1	1006.8
26666	2.3937	2.2727	0.1	1123.4
26667	2.4857	2.1818	0.1	1060.1
26668	2.3937	2.4545	0.1	1161.9
26669	2.4857	2.3636	0.1	1103.
26670	2.3937	2.6364	0.1	1189.4
26671	2.4857	2.5455	0.1	1135.1
26672	2.3937	2.8182	0.1	1205.9
26673	2.4857	2.7273	0.1	1156.6
26674	2.3937	3.	0.1	1211.4
26675	2.4857	2.9091	0.1	1167.3
26676	2.3937	3.1818	0.1	1205.9
26677	2.4857	3.0909	0.1	1167.3
26678	2.3937	3.3636	0.1	1189.4
26679	2.4857	3.2727	0.1	1156.6
26680	2.3937	3.5455	0.1	1161.9
26681	2.4857	3.4545	0.1	1135.1
26682	2.3937	3.7273	0.1	1123.4
26683	2.4857	3.6364	0.1	1103.
26684	2.3937	3.9091	0.1	1073.9
26685	2.4857	3.8182	0.1	1060.1
26686	2.3937	4.0909	0.1	1013.5
26687	2.4857	4.	0.1	1006.8
26688	2.3937	4.2727	0.1	942.43
26689	2.4857	4.1818	0.1	943.04
26690	2.3937	4.4545	0.1	861.25
26691	2.4857	4.3636	0.1	869.42
26692	2.3937	4.6364	0.1	770.68
26693	2.4857	4.5455	0.1	786.51
26694	2.3937	4.8182	0.1	671.79
26695	2.4857	4.7273	0.1	695.22
26696	2.3937	5.	0.1	565.98
26697	2.4857	4.9091	0.1	596.74
26698	2.3937	5.1818	0.1	454.94
26699	2.4857	5.0909	0.1	492.53
26700	2.3937	5.3636	0.1	340.58
26701	2.4857	5.2727	0.1	384.28
26702	2.3937	5.5455	0.1	224.61
26703	2.4857	5.4545	0.1	273.83
26704	2.3937	5.7273	0.1	106.15
26705	2.4857	5.6364	0.1	162.43
26706	2.4857	5.8182	0.1	48.166
26707	2.3937	5.9091	0.1	19.541
26708	2.5778	0.27273	0.1	103.16
26709	2.6698	0.18182	0.1	49.642
26710	2.5778	9.0909e-002	0.1	21.776
26711	2.5778	0.45455	0.1	211.4
26712	2.6698	0.36364	0.1	154.3
26713	2.5778	0.63636	0.1	317.33
26714	2.6698	0.54545	0.1	256.25
26715	2.5778	0.81818	0.1	421.7
26716	2.6698	0.72727	0.1	357.18
26717	2.5778	1.	0.1	523.16
26718	2.6698	0.90909	0.1	456.07
26719	2.5778	1.1818	0.1	620.08
26720	2.6698	1.0909	0.1	551.41
26721	2.5778	1.3636	0.1	711.02
26722	2.6698	1.2727	0.1	641.77
26723	2.5778	1.5455	0.1	794.7
26724	2.6698	1.4545	0.1	725.85
26725	2.5778	1.7273	0.1	870.11
26726	2.6698	1.6364	0.1	802.56
26727	2.5778	1.9091	0.1	936.45
26728	2.6698	1.8182	0.1	871.
26729	2.5778	2.0909	0.1	993.17
26730	2.6698	2.	0.1	930.52
26731	2.5778	2.2727	0.1	1039.9
26732	2.6698	2.1818	0.1	980.61
26733	2.5778	2.4545	0.1	1076.4
26734	2.6698	2.3636	0.1	1021.
26735	2.5778	2.6364	0.1	1102.5
26736	2.6698	2.5455	0.1	1051.4
26737	2.5778	2.8182	0.1	1118.2
26738	2.6698	2.7273	0.1	1071.7
26739	2.5778	3.	0.1	1123.4
26740	2.6698	2.9091	0.1	1081.9
26741	2.5778	3.1818	0.1	1118.2
26742	2.6698	3.0909	0.1	1081.9
26743	2.5778	3.3636	0.1	1102.5
26744	2.6698	3.2727	0.1	1071.7
26745	2.5778	3.5455	0.1	1076.4
26746	2.6698	3.4545	0.1	1051.4
26747	2.5778	3.7273	0.1	1039.9
26748	2.6698	3.6364	0.1	1021.
26749	2.5778	3.9091	0.1	993.17
26750	2.6698	3.8182	0.1	980.61
26751	2.5778	4.0909	0.1	936.45
26752	2.6698	4.	0.1	930.52
26753	2.5778	4.2727	0.1	870.11
26754	2.6698	4.1818	0.1	871.
26755	2.5778	4.4545	0.1	794.7
26756	2.6698	4.3636	0.1	802.56
26757	2.5778	4.6364	0.1	711.02
26758	2.6698	4.5455	0.1	725.85
26759	2.5778	4.8182	0.1	620.08
26760	2.6698	4.7273	0.1	641.77
26761	2.5778	5.	0.1	523.16
26762	2.6698	4.9091	0.1	551.41
26763	2.5778	5.1818	0.1	421.7
26764	2.6698	5.0909	0.1	456.07
26765	2.5778	5.3636	0.1	317.33
26766	2.6698	5.2727	0.1	357.18
26767	2.5778	5.5455	0.1	211.4
26768	2.6698	5.4545	0.1	256.25
26769	2.5778	5.7273	0.1	103.16
26770	2.6698	5.6364	0.1	154.3
26771	2.6698	5.8182	0.1	49.642
26772	2.5778	5.9091	0.1	21.776
26773	2.7619	0.27273	0.1	99.808
26774	2.854	0.18182	0.1	50.365
26775	2.7619	9.0909e-002	0.1	23.336
26776	2.7619	0.45455	0.1	198.94
26777	2.854	0.36364	0.1	146.36
26778	2.7619	0.63636	0.1	295.92
26779	2.854	0.54545	0.1	239.87
26780	2.7619	0.81818	0.1	391.39
26781	2.854	0.72727	0.1	332.27
26782	2.7619	1.	0.1	484.2
26783	2.854	0.90909	0.1	422.76
26784	2.7619	1.1818	0.1	573.02
26785	2.854	1.0909	0.1	510.07
26786	2.7619	1.3636	0.1	656.56
26787	2.854	1.2727	0.1	592.96
26788	2.7619	1.5455	0.1	733.71
26789	2.854	1.4545	0.1	670.29
26790	2.7619	1.7273	0.1	803.5
26791	2.854	1.6364	0.1	741.07
26792	2.7619	1.9091	0.1	865.16
26793	2.854	1.8182	0.1	804.46
26794	2.7619	2.0909	0.1	918.09
26795	2.854	2.	0.1	859.78
26796	2.7619	2.2727	0.1	961.85
26797	2.854	2.1818	0.1	906.51
26798	2.7619	2.4545	0.1	996.14
26799	2.854	2.3636	0.1	944.27
26800	2.7619	2.6364	0.1	1020.8
26801	2.854	2.5455	0.1	972.79
26802	2.7619	2.8182	0.1	1035.6
26803	2.854	2.7273	0.1	991.9
26804	2.7619	3.	0.1	1040.5
26805	2.854	2.9091	0.1	1001.5
26806	2.7619	3.1818	0.1	1035.6
26807	2.854	3.0909	0.1	1001.5
26808	2.7619	3.3636	0.1	1020.8
26809	2.854	3.2727	0.1	991.9
26810	2.7619	3.5455	0.1	996.14
26811	2.854	3.4545	0.1	972.79
26812	2.7619	3.7273	0.1	961.85
26813	2.854	3.6364	0.1	944.27
26814	2.7619	3.9091	0.1	918.09
26815	2.854	3.8182	0.1	906.51
26816	2.7619	4.0909	0.1	865.16
26817	2.854	4.	0.1	859.78
26818	2.7619	4.2727	0.1	803.5
26819	2.854	4.1818	0.1	804.46
26820	2.7619	4.4545	0.1	733.71
26821	2.854	4.3636	0.1	741.07
26822	2.7619	4.6364	0.1	656.56
26823	2.854	4.5455	0.1	670.29
26824	2.7619	4.8182	0.1	573.02
26825	2.854	4.7273	0.1	592.96
26826	2.7619	5.	0.1	484.2
26827	2.854	4.9091	0.1	510.07
26828	2.7619	5.1818	0.1	391.39
26829	2.854	5.0909	0.1	422.76
26830	2.7619	5.3636	0.1	295.92
26831	2.854	5.2727	0.1	332.27
26832	2.7619	5.5455	0.1	198.94
26833	2.854	5.4545	0.1	239.87
26834	2.7619	5.7273	0.1	99.808
26835	2.854	5.6364	0.1	146.36
26836	2.854	5.8182	0.1	50.365
26837	2.7619	5.9091	0.1	23.336
26838	2.946	0.27273	0.1	96.158
26839	3.0381	0.18182	0.1	50.436
26840	2.946	9.0909e-002	0.1	24.325
26841	2.946	0.45455	0.1	187.1
26842	3.0381	0.36364	0.1	138.59
26843	2.946	0.63636	0.1	276.05
26844	3.0381	0.54545	0.1	224.47
26845	2.946	0.81818	0.1	363.51
26846	3.0381	0.72727	0.1	309.21
26847	2.946	1.	0.1	448.51
26848	3.0381	0.90909	0.1	392.12
26849	2.946	1.1818	0.1	529.92
26850	3.0381	1.0909	0.1	472.12
26851	2.946	1.3636	0.1	606.63
26852	3.0381	1.2727	0.1	548.15
26853	2.946	1.5455	0.1	677.64
26854	3.0381	1.4545	0.1	619.22
26855	2.946	1.7273	0.1	742.06
26856	3.0381	1.6364	0.1	684.41
26857	2.946	1.9091	0.1	799.15
26858	3.0381	1.8182	0.1	742.94
26859	2.946	2.0909	0.1	848.31
26860	3.0381	2.	0.1	794.17
26861	2.946	2.2727	0.1	889.07
26862	3.0381	2.1818	0.1	837.56
26863	2.946	2.4545	0.1	921.09
26864	3.0381	2.3636	0.1	872.71
26865	2.946	2.6364	0.1	944.12
26866	3.0381	2.5455	0.1	899.31
26867	2.946	2.8182	0.1	958.
26868	3.0381	2.7273	0.1	917.15
26869	2.946	3.	0.1	962.63
26870	3.0381	2.9091	0.1	926.1
26871	2.946	3.1818	0.1	958.
26872	3.0381	3.0909	0.1	926.1
26873	2.946	3.3636	0.1	944.12
26874	3.0381	3.2727	0.1	917.15
26875	2.946	3.5455	0.1	921.09
26876	3.0381	3.4545	0.1	899.31
26877	2.946	3.7273	0.1	889.07
26878	3.0381	3.6364	0.1	872.71
26879	2.946	3.9091	0.1	848.31
26880	3.0381	3.8182	0.1	837.56
26881	2.946	4.0909	0.1	799.15
26882	3.0381	4.	0.1	794.17
26883	2.946	4.2727	0.1	742.06
26884	3.0381	4.1818	0.1	742.94
26885	2.946	4.4545	0.1	677.64
26886	3.0381	4.3636	0.1	684.41
26887	2.946	4.6364	0.1	606.63
26888	3.0381	4.5455	0.1	619.22
26889	2.946	4.8182	0.1	529.92
26890	3.0381	4.7273	0.1	548.15
26891	2.946	5.	0.1	448.51
26892	3.0381	4.9091	0.1	472.12
26893	2.946	5.1818	0.1	363.51
26894	3.0381	5.0909	0.1	392.12
26895	2.946	5.3636	0.1	276.05
26896	3.0381	5.2727	0.1	309.21
26897	2.946	5.5455	0.1	187.1
26898	3.0381	5.4545	0.1	224.47
26899	2.946	5.7273	0.1	96.158
26900	3.0381	5.6364	0.1	138.59
26901	3.0381	5.8182	0.1	50.436
26902	2.946	5.9091	0.1	24.326
26903	3.1302	0.27273	0.1	92.26
26904	3.2222	0.18182	0.1	49.951
26905	3.1302	9.0909e-002	0.1	24.835
26906	3.1302	0.45455	0.1	175.8
26907	3.2222	0.36364	0.1	130.97
26908	3.1302	0.63636	0.1	257.49
26909	3.2222	0.54545	0.1	209.95
26910	3.1302	0.81818	0.1	337.7
26911	3.2222	0.72727	0.1	287.74
26912	3.1302	1.	0.1	415.63
26913	3.2222	0.90909	0.1	363.78
26914	3.1302	1.1818	0.1	490.27
26915	3.2222	1.0909	0.1	437.14
26916	3.1302	1.3636	0.1	560.69
26917	3.2222	1.2727	0.1	506.88
26918	3.1302	1.5455	0.1	625.96
26919	3.2222	1.4545	0.1	572.13
26920	3.1302	1.7273	0.1	685.31
26921	3.2222	1.6364	0.1	632.09
26922	3.1302	1.9091	0.1	738.01
26923	3.2222	1.8182	0.1	686.03
26924	3.1302	2.0909	0.1	783.5
26925	3.2222	2.	0.1	733.32
26926	3.1302	2.2727	0.1	821.31
26927	3.2222	2.1818	0.1	773.46
26928	3.1302	2.4545	0.1	851.06
26929	3.2222	2.3636	0.1	806.04
26930	3.1302	2.6364	0.1	872.49
26931	3.2222	2.5455	0.1	830.73
26932	3.1302	2.8182	0.1	885.42
26933	3.2222	2.7273	0.1	847.31
26934	3.1302	3.	0.1	889.74
26935	3.2222	2.9091	0.1	855.64
26936	3.1302	3.1818	0.1	885.42
26937	3.2222	3.0909	0.1	855.64
26938	3.1302	3.3636	0.1	872.49
26939	3.2222	3.2727	0.1	847.31
26940	3.1302	3.5455	0.1	851.06
26941	3.2222	3.4545	0.1	830.73
26942	3.1302	3.7273	0.1	821.31
26943	3.2222	3.6364	0.1	806.04
26944	3.1302	3.9091	0.1	783.5
26945	3.2222	3.8182	0.1	773.46
26946	3.1302	4.0909	0.1	738.01
26947	3.2222	4.	0.1	733.32
26948	3.1302	4.2727	0.1	685.31
26949	3.2222	4.1818	0.1	686.03
26950	3.1302	4.4545	0.1	625.96
26951	3.2222	4.3636	0.1	632.09
26952	3.1302	4.6364	0.1	560.69
26953	3.2222	4.5455	0.1	572.13
26954	3.1302	4.8182	0.1	490.27
26955	3.2222	4.7273	0.1	506.88
26956	3.1302	5.	0.1	415.63
26957	3.2222	4.9091	0.1	437.14
26958	3.1302	5.1818	0.1	337.7
26959	3.2222	5.0909	0.1	363.78
26960	3.1302	5.3636	0.1	257.49
26961	3.2222	5.2727	0.1	287.74
26962	3.1302	5.5455	0.1	175.8
26963	3.2222	5.4545	0.1	209.95
26964	3.1302	5.7273	0.1	92.26
26965	3.2222	5.6364	0.1	130.97
26966	3.2222	5.8182	0.1	49.951
26967	3.1302	5.9091	0.1	24.835
26968	3.3143	0.27273	0.1	88.17
26969	3.4063	0.18182	0.1	49.
26970	3.3143	9.0909e-002	0.1	24.946
26971	3.3143	0.45455	0.1	164.98
26972	3.4063	0.36364	0.1	123.51
26973	3.3143	0.63636	0.1	240.08
26974	3.4063	0.54545	0.1	196.2
26975	3.3143	0.81818	0.1	313.71
26976	3.4063	0.72727	0.1	267.68
26977	3.3143	1.	0.1	385.2
26978	3.4063	0.90909	0.1	337.47
26979	3.3143	1.1818	0.1	453.66
26980	3.4063	1.0909	0.1	404.76
26981	3.3143	1.3636	0.1	518.28
26982	3.4063	1.2727	0.1	468.74
26983	3.3143	1.5455	0.1	578.24
26984	3.4063	1.4545	0.1	528.63
26985	3.3143	1.7273	0.1	632.82
26986	3.4063	1.6364	0.1	583.72
26987	3.3143	1.9091	0.1	681.38
26988	3.4063	1.8182	0.1	633.34
26989	3.3143	2.0909	0.1	723.35
26990	3.4063	2.	0.1	676.9
26991	3.3143	2.2727	0.1	758.29
26992	3.4063	2.1818	0.1	713.94
26993	3.3143	2.4545	0.1	785.82
26994	3.4063	2.3636	0.1	744.02
26995	3.3143	2.6364	0.1	805.68
26996	3.4063	2.5455	0.1	766.86
26997	3.3143	2.8182	0.1	817.67
26998	3.4063	2.7273	0.1	782.21
26999	3.3143	3.	0.1	821.68
27000	3.4063	2.9091	0.1	789.92
27001	3.3143	3.1818	0.1	817.67
27002	3.4063	3.0909	0.1	789.92
27003	3.3143	3.3636	0.1	805.68
27004	3.4063	3.2727	0.1	782.21
27005	3.3143	3.5455	0.1	785.82
27006	3.4063	3.4545	0.1	766.86
27007	3.3143	3.7273	0.1	758.29
27008	3.4063	3.6364	0.1	744.02
27009	3.3143	3.9091	0.1	723.35
27010	3.4063	3.8182	0.1	713.94
27011	3.3143	4.0909	0.1	681.38
27012	3.4063	4.	0.1	676.9
27013	3.3143	4.2727	0.1	632.82
27014	3.4063	4.1818	0.1	633.34
27015	3.3143	4.4545	0.1	578.24
27016	3.4063	4.3636	0.1	583.72
27017	3.3143	4.6364	0.1	518.28
27018	3.4063	4.5455	0.1	528.63
27019	3.3143	4.8182	0.1	453.66
27020	3.4063	4.7273	0.1	468.74
27021	3.3143	5.	0.1	385.2
27022	3.4063	4.9091	0.1	404.76
27023	3.3143	5.1818	0.1	313.71
27024	3.4063	5.0909	0.1	337.47
27025	3.3143	5.3636	0.1	240.08
27026	3.4063	5.2727	0.1	267.68
27027	3.3143	5.5455	0.1	164.98
27028	3.4063	5.4545	0.1	196.2
27029	3.3143	5.7273	0.1	88.17
27030	3.4063	5.6364	0.1	123.51
27031	3.4063	5.8182	0.1	49.
27032	3.3143	5.9091	0.1	24.946
27033	3.4984	0.27273	0.1	83.939
27034	3.5905	0.18182	0.1	47.667
27035	3.4984	9.0909e-002	0.1	24.727
27036	3.4984	0.45455	0.1	154.6
27037	3.5905	0.36364	0.1	116.22
27038	3.4984	0.63636	0.1	223.69
27039	3.5905	0.54545	0.1	183.15
27040	3.4984	0.81818	0.1	291.34
27041	3.5905	0.72727	0.1	248.87
27042	3.4984	1.	0.1	356.94
27043	3.5905	0.90909	0.1	312.96
27044	3.4984	1.1818	0.1	419.76
27045	3.5905	1.0909	0.1	374.71
27046	3.4984	1.3636	0.1	479.04
27047	3.5905	1.2727	0.1	433.41
27048	3.4984	1.5455	0.1	534.09
27049	3.5905	1.4545	0.1	488.37
27050	3.4984	1.7273	0.1	584.24
27051	3.5905	1.6364	0.1	538.94
27052	3.4984	1.9091	0.1	628.89
27053	3.5905	1.8182	0.1	584.53
27054	3.4984	2.0909	0.1	667.54
27055	3.5905	2.	0.1	624.6
27056	3.4984	2.2727	0.1	699.75
27057	3.5905	2.1818	0.1	658.69
27058	3.4984	2.4545	0.1	725.15
27059	3.5905	2.3636	0.1	686.41
27060	3.4984	2.6364	0.1	743.49
27061	3.5905	2.5455	0.1	707.47
27062	3.4984	2.8182	0.1	754.57
27063	3.5905	2.7273	0.1	721.63
27064	3.4984	3.	0.1	758.28
27065	3.5905	2.9091	0.1	728.75
27066	3.4984	3.1818	0.1	754.57
27067	3.5905	3.0909	0.1	728.75
27068	3.4984	3.3636	0.1	743.49
27069	3.5905	3.2727	0.1	721.63
27070	3.4984	3.5455	0.1	725.15
27071	3.5905	3.4545	0.1	707.47
27072	3.4984	3.7273	0.1	699.75
27073	3.5905	3.6364	0.1	686.41
27074	3.4984	3.9091	0.1	667.54
27075	3.5905	3.8182	0.1	658.69
27076	3.4984	4.0909	0.1	628.89
27077	3.5905	4.	0.1	624.6
27078	3.4984	4.2727	0.1	584.24
27079	3.5905	4.1818	0.1	584.53
27080	3.4984	4.4545	0.1	534.09
27081	3.5905	4.3636	0.1	538.94
27082	3.4984	4.6364	0.1	479.04
27083	3.5905	4.5455	0.1	488.37
27084	3.4984	4.8182	0.1	419.76
27085	3.5905	4.7273	0.1	433.41
27086	3.4984	5.	0.1	356.94
27087	3.5905	4.9091	0.1	374.71
27088	3.4984	5.1818	0.1	291.34
27089	3.5905	5.0909	0.1	312.96
27090	3.4984	5.3636	0.1	223.69
27091	3.5905	5.2727	0.1	248.87
27092	3.4984	5.5455	0.1	154.6
27093	3.5905	5.4545	0.1	183.15
27094	3.4984	5.7273	0.1	83.939
27095	3.5905	5.6364	0.1	116.22
27096	3.5905	5.8182	0.1	47.667
27097	3.4984	5.9091	0.1	24.727
27098	3.6825	0.27273	0.1	79.618
27099	3.7746	0.18182	0.1	46.024
27100	3.6825	9.0909e-002	0.1	24.239
27101	3.6825	0.45455	0.1	144.66
27102	3.7746	0.36364	0.1	109.12
27103	3.6825	0.63636	0.1	208.24
27104	3.7746	0.54545	0.1	170.77
27105	3.6825	0.81818	0.1	270.41
27106	3.7746	0.72727	0.1	231.22
27107	3.6825	1.	0.1	330.65
27108	3.7746	0.90909	0.1	290.09
27109	3.6825	1.1818	0.1	388.29
27110	3.7746	1.0909	0.1	346.77
27111	3.6825	1.3636	0.1	442.68
27112	3.7746	1.2727	0.1	400.62
27113	3.6825	1.5455	0.1	493.19
27114	3.7746	1.4545	0.1	451.05
27115	3.6825	1.7273	0.1	539.23
27116	3.7746	1.6364	0.1	497.45
27117	3.6825	1.9091	0.1	580.25
27118	3.7746	1.8182	0.1	539.3
27119	3.6825	2.0909	0.1	615.78
27120	3.7746	2.	0.1	576.11
27121	3.6825	2.2727	0.1	645.41
27122	3.7746	2.1818	0.1	607.44
27123	3.6825	2.4545	0.1	668.8
27124	3.7746	2.3636	0.1	632.94
27125	3.6825	2.6364	0.1	685.7
27126	3.7746	2.5455	0.1	652.31
27127	3.6825	2.8182	0.1	695.91
27128	3.7746	2.7273	0.1	665.35
27129	3.6825	3.	0.1	699.32
27130	3.7746	2.9091	0.1	671.91
27131	3.6825	3.1818	0.1	695.91
27132	3.7746	3.0909	0.1	671.91
27133	3.6825	3.3636	0.1	685.7
27134	3.7746	3.2727	0.1	665.35
27135	3.6825	3.5455	0.1	668.8
27136	3.7746	3.4545	0.1	652.31
27137	3.6825	3.7273	0.1	645.41
27138	3.7746	3.6364	0.1	632.94
27139	3.6825	3.9091	0.1	615.78
27140	3.7746	3.8182	0.1	607.44
27141	3.6825	4.0909	0.1	580.25
27142	3.7746	4.	0.1	576.11
27143	3.6825	4.2727	0.1	539.23
27144	3.7746	4.1818	0.1	539.3
27145	3.6825	4.4545	0.1	493.19
27146	3.7746	4.3636	0.1	497.46
27147	3.6825	4.6364	0.1	442.68
27148	3.7746	4.5455	0.1	451.05
27149	3.6825	4.8182	0.1	388.29
27150	3.7746	4.7273	0.1	400.62
27151	3.6825	5.	0.1	330.65
27152	3.7746	4.9091	0.1	346.77
27153	3.6825	5.1818	0.1	270.41
27154	3.7746	5.0909	0.1	290.09
27155	3.6825	5.3636	0.1	208.24
27156	3.7746	5.2727	0.1	231.22
27157	3.6825	5.5455	0.1	144.66
27158	3.7746	5.4545	0.1	170.77
27159	3.6825	5.7273	0.1	79.618
27160	3.7746	5.6364	0.1	109.12
27161	3.7746	5.8182	0.1	46.024
27162	3.6825	5.9091	0.1	24.239
27163	3.8667	0.27273	0.1	75.249
27164	3.9587	0.18182	0.1	44.137
27165	3.8667	9.0909e-002	0.1	23.533
27166	3.8667	0.45455	0.1	135.13
27167	3.9587	0.36364	0.1	102.22
27168	3.8667	0.63636	0.1	193.66
27169	3.9587	0.54545	0.1	159.01
27170	3.8667	0.81818	0.1	250.82
27171	3.9587	0.72727	0.1	214.62
27172	3.8667	1.	0.1	306.14
27173	3.9587	0.90909	0.1	268.72
27174	3.8667	1.1818	0.1	359.04
27175	3.9587	1.0909	0.1	320.75
27176	3.8667	1.3636	0.1	408.94
27177	3.9587	1.2727	0.1	370.17
27178	3.8667	1.5455	0.1	455.28
27179	3.9587	1.4545	0.1	416.42
27180	3.8667	1.7273	0.1	497.52
27181	3.9587	1.6364	0.1	458.99
27182	3.8667	1.9091	0.1	535.17
27183	3.9587	1.8182	0.1	497.39
27184	3.8667	2.0909	0.1	567.79
27185	3.9587	2.	0.1	531.16
27186	3.8667	2.2727	0.1	595.01
27187	3.9587	2.1818	0.1	559.92
27188	3.8667	2.4545	0.1	616.51
27189	3.9587	2.3636	0.1	583.34
27190	3.8667	2.6364	0.1	632.04
27191	3.9587	2.5455	0.1	601.15
27192	3.8667	2.8182	0.1	641.43
27193	3.9587	2.7273	0.1	613.13
27194	3.8667	3.	0.1	644.58
27195	3.9587	2.9091	0.1	619.16
27196	3.8667	3.1818	0.1	641.43
27197	3.9587	3.0909	0.1	619.16
27198	3.8667	3.3636	0.1	632.04
27199	3.9587	3.2727	0.1	613.13
27200	3.8667	3.5455	0.1	616.51
27201	3.9587	3.4545	0.1	601.15
27202	3.8667	3.7273	0.1	595.01
27203	3.9587	3.6364	0.1	583.34
27204	3.8667	3.9091	0.1	567.79
27205	3.9587	3.8182	0.1	559.92
27206	3.8667	4.0909	0.1	535.17
27207	3.9587	4.	0.1	531.16
27208	3.8667	4.2727	0.1	497.52
27209	3.9587	4.1818	0.1	497.39
27210	3.8667	4.4545	0.1	455.28
27211	3.9587	4.3636	0.1	458.99
27212	3.8667	4.6364	0.1	408.94
27213	3.9587	4.5455	0.1	416.42
27214	3.8667	4.8182	0.1	359.04
27215	3.9587	4.7273	0.1	370.17
27216	3.8667	5.	0.1	306.14
27217	3.9587	4.9091	0.1	320.75
27218	3.8667	5.1818	0.1	250.82
27219	3.9587	5.0909	0.1	268.72
27220	3.8667	5.3636	0.1	193.66
27221	3.9587	5.2727	0.1	214.62
27222	3.8667	5.5455	0.1	135.13
27223	3.9587	5.4545	0.1	159.01
27224	3.8667	5.7273	0.1	75.249
27225	3.9587	5.6364	0.1	102.22
27226	3.9587	5.8182	0.1	44.137
27227	3.8667	5.9091	0.1	23.533
27228	4.0508	0.27273	0.1	70.873
27229	4.1429	0.18182	0.1	42.062
27230	4.0508	9.0909e-002	0.1	22.655
27231	4.0508	0.45455	0.1	126.01
27232	4.1429	0.36364	0.1	95.529
27233	4.0508	0.63636	0.1	179.89
27234	4.1429	0.54545	0.1	147.84
27235	4.0508	0.81818	0.1	232.45
27236	4.1429	0.72727	0.1	199.
27237	4.0508	1.	0.1	283.27
27238	4.1429	0.90909	0.1	248.72
27239	4.0508	1.1818	0.1	331.82
27240	4.1429	1.0909	0.1	296.5
27241	4.0508	1.3636	0.1	377.6
27242	4.1429	1.2727	0.1	341.84
27243	4.0508	1.5455	0.1	420.1
27244	4.1429	1.4545	0.1	384.27
27245	4.0508	1.7273	0.1	458.85
27246	4.1429	1.6364	0.1	423.31
27247	4.0508	1.9091	0.1	493.38
27248	4.1429	1.8182	0.1	458.52
27249	4.0508	2.0909	0.1	523.31
27250	4.1429	2.	0.1	489.5
27251	4.0508	2.2727	0.1	548.29
27252	4.1429	2.1818	0.1	515.89
27253	4.0508	2.4545	0.1	568.03
27254	4.1429	2.3636	0.1	537.38
27255	4.0508	2.6364	0.1	582.29
27256	4.1429	2.5455	0.1	553.72
27257	4.0508	2.8182	0.1	590.91
27258	4.1429	2.7273	0.1	564.72
27259	4.0508	3.	0.1	593.8
27260	4.1429	2.9091	0.1	570.25
27261	4.0508	3.1818	0.1	590.91
27262	4.1429	3.0909	0.1	570.25
27263	4.0508	3.3636	0.1	582.29
27264	4.1429	3.2727	0.1	564.72
27265	4.0508	3.5455	0.1	568.03
27266	4.1429	3.4545	0.1	553.72
27267	4.0508	3.7273	0.1	548.29
27268	4.1429	3.6364	0.1	537.38
27269	4.0508	3.9091	0.1	523.31
27270	4.1429	3.8182	0.1	515.89
27271	4.0508	4.0909	0.1	493.38
27272	4.1429	4.	0.1	489.5
27273	4.0508	4.2727	0.1	458.85
27274	4.1429	4.1818	0.1	458.52
27275	4.0508	4.4545	0.1	420.1
27276	4.1429	4.3636	0.1	423.31
27277	4.0508	4.6364	0.1	377.6
27278	4.1429	4.5455	0.1	384.27
27279	4.0508	4.8182	0.1	331.82
27280	4.1429	4.7273	0.1	341.84
27281	4.0508	5.	0.1	283.27
27282	4.1429	4.9091	0.1	296.5
27283	4.0508	5.1818	0.1	232.45
27284	4.1429	5.0909	0.1	248.72
27285	4.0508	5.3636	0.1	179.89
27286	4.1429	5.2727	0.1	199.
27287	4.0508	5.5455	0.1	126.01
27288	4.1429	5.4545	0.1	147.84
27289	4.0508	5.7273	0.1	70.873
27290	4.1429	5.6364	0.1	95.529
27291	4.1429	5.8182	0.1	42.062
27292	4.0508	5.9091	0.1	22.655
27293	4.2349	0.27273	0.1	66.522
27294	4.327	0.18182	0.1	39.849
27295	4.2349	9.0909e-002	0.1	21.643
27296	4.2349	0.45455	0.1	117.29
27297	4.327	0.36364	0.1	89.065
27298	4.2349	0.63636	0.1	166.89
27299	4.327	0.54545	0.1	137.24
27300	4.2349	0.81818	0.1	215.22
27301	4.327	0.72727	0.1	184.31
27302	4.2349	1.	0.1	261.9
27303	4.327	0.90909	0.1	230.
27304	4.2349	1.1818	0.1	306.47
27305	4.327	1.0909	0.1	273.87
27306	4.2349	1.3636	0.1	348.47
27307	4.327	1.2727	0.1	315.48
27308	4.2349	1.5455	0.1	387.45
27309	4.327	1.4545	0.1	354.4
27310	4.2349	1.7273	0.1	422.97
27311	4.327	1.6364	0.1	390.2
27312	4.2349	1.9091	0.1	454.64
27313	4.327	1.8182	0.1	422.48
27314	4.2349	2.0909	0.1	482.09
27315	4.327	2.	0.1	450.89
27316	4.2349	2.2727	0.1	505.
27317	4.327	2.1818	0.1	475.09
27318	4.2349	2.4545	0.1	523.1
27319	4.327	2.3636	0.1	494.79
27320	4.2349	2.6364	0.1	536.19
27321	4.327	2.5455	0.1	509.78
27322	4.2349	2.8182	0.1	544.1
27323	4.327	2.7273	0.1	519.87
27324	4.2349	3.	0.1	546.75
27325	4.327	2.9091	0.1	524.94
27326	4.2349	3.1818	0.1	544.1
27327	4.327	3.0909	0.1	524.94
27328	4.2349	3.3636	0.1	536.19
27329	4.327	3.2727	0.1	519.87
27330	4.2349	3.5455	0.1	523.1
27331	4.327	3.4545	0.1	509.78
27332	4.2349	3.7273	0.1	505.
27333	4.327	3.6364	0.1	494.79
27334	4.2349	3.9091	0.1	482.09
27335	4.327	3.8182	0.1	475.09
27336	4.2349	4.0909	0.1	454.64
27337	4.327	4.	0.1	450.89
27338	4.2349	4.2727	0.1	422.97
27339	4.327	4.1818	0.1	422.48
27340	4.2349	4.4545	0.1	387.45
27341	4.327	4.3636	0.1	390.2
27342	4.2349	4.6364	0.1	348.47
27343	4.327	4.5455	0.1	354.4
27344	4.2349	4.8182	0.1	306.47
27345	4.327	4.7273	0.1	315.48
27346	4.2349	5.	0.1	261.9
27347	4.327	4.9091	0.1	273.87
27348	4.2349	5.1818	0.1	215.22
27349	4.327	5.0909	0.1	230.
27350	4.2349	5.3636	0.1	166.89
27351	4.327	5.2727	0.1	184.31
27352	4.2349	5.5455	0.1	117.29
27353	4.327	5.4545	0.1	137.24
27354	4.2349	5.7273	0.1	66.522
27355	4.327	5.6364	0.1	89.065
27356	4.327	5.8182	0.1	39.849
27357	4.2349	5.9091	0.1	21.643
27358	4.419	0.27273	0.1	62.226
27359	4.5111	0.18182	0.1	37.54
27360	4.419	9.0909e-002	0.1	20.529
27361	4.419	0.45455	0.1	108.96
27362	4.5111	0.36364	0.1	82.832
27363	4.419	0.63636	0.1	154.61
27364	4.5111	0.54545	0.1	127.18
27365	4.419	0.81818	0.1	199.04
27366	4.5111	0.72727	0.1	170.47
27367	4.419	1.	0.1	241.92
27368	4.5111	0.90909	0.1	212.46
27369	4.419	1.1818	0.1	282.84
27370	4.5111	1.0909	0.1	252.74
27371	4.419	1.3636	0.1	321.37
27372	4.5111	1.2727	0.1	290.93
27373	4.419	1.5455	0.1	357.12
27374	4.5111	1.4545	0.1	326.63
27375	4.419	1.7273	0.1	389.7
27376	4.5111	1.6364	0.1	359.46
27377	4.419	1.9091	0.1	418.73
27378	4.5111	1.8182	0.1	389.06
27379	4.419	2.0909	0.1	443.89
27380	4.5111	2.	0.1	415.1
27381	4.419	2.2727	0.1	464.9
27382	4.5111	2.1818	0.1	437.29
27383	4.419	2.4545	0.1	481.5
27384	4.5111	2.3636	0.1	455.36
27385	4.419	2.6364	0.1	493.5
27386	4.5111	2.5455	0.1	469.1
27387	4.419	2.8182	0.1	500.75
27388	4.5111	2.7273	0.1	478.35
27389	4.419	3.	0.1	503.18
27390	4.5111	2.9091	0.1	483.01
27391	4.419	3.1818	0.1	500.75
27392	4.5111	3.0909	0.1	483.01
27393	4.419	3.3636	0.1	493.5
27394	4.5111	3.2727	0.1	478.35
27395	4.419	3.5455	0.1	481.5
27396	4.5111	3.4545	0.1	469.1
27397	4.419	3.7273	0.1	464.9
27398	4.5111	3.6364	0.1	455.36
27399	4.419	3.9091	0.1	443.89
27400	4.5111	3.8182	0.1	437.29
27401	4.419	4.0909	0.1	418.73
27402	4.5111	4.	0.1	415.1
27403	4.419	4.2727	0.1	389.7
27404	4.5111	4.1818	0.1	389.06
27405	4.419	4.4545	0.1	357.12
27406	4.5111	4.3636	0.1	359.46
27407	4.419	4.6364	0.1	321.37
27408	4.5111	4.5455	0.1	326.63
27409	4.419	4.8182	0.1	282.84
27410	4.5111	4.7273	0.1	290.93
27411	4.419	5.	0.1	241.92
27412	4.5111	4.9091	0.1	252.74
27413	4.419	5.1818	0.1	199.04
27414	4.5111	5.0909	0.1	212.46
27415	4.419	5.3636	0.1	154.61
27416	4.5111	5.2727	0.1	170.48
27417	4.419	5.5455	0.1	108.96
27418	4.5111	5.4545	0.1	127.18
27419	4.419	5.7273	0.1	62.226
27420	4.5111	5.6364	0.1	82.832
27421	4.5111	5.8182	0.1	37.54
27422	4.419	5.9091	0.1	20.529
27423	4.6032	0.27273	0.1	58.006
27424	4.6952	0.18182	0.1	35.169
27425	4.6032	9.0909e-002	0.1	19.342
27426	4.6032	0.45455	0.1	101.01
27427	4.6952	0.36364	0.1	76.836
27428	4.6032	0.63636	0.1	143.01
27429	4.6952	0.54545	0.1	117.65
27430	4.6032	0.81818	0.1	183.85
27431	4.6952	0.72727	0.1	157.45
27432	4.6032	1.	0.1	223.24
27433	4.6952	0.90909	0.1	196.03
27434	4.6032	1.1818	0.1	260.8
27435	4.6952	1.0909	0.1	233.01
27436	4.6032	1.3636	0.1	296.16
27437	4.6952	1.2727	0.1	268.06
27438	4.6032	1.5455	0.1	328.94
27439	4.6952	1.4545	0.1	300.8
27440	4.6032	1.7273	0.1	358.81
27441	4.6952	1.6364	0.1	330.91
27442	4.6032	1.9091	0.1	385.43
27443	4.6952	1.8182	0.1	358.06
27444	4.6032	2.0909	0.1	408.5
27445	4.6952	2.	0.1	381.94
27446	4.6032	2.2727	0.1	427.76
27447	4.6952	2.1818	0.1	402.28
27448	4.6032	2.4545	0.1	442.98
27449	4.6952	2.3636	0.1	418.85
27450	4.6032	2.6364	0.1	453.98
27451	4.6952	2.5455	0.1	431.45
27452	4.6032	2.8182	0.1	460.64
27453	4.6952	2.7273	0.1	439.93
27454	4.6032	3.	0.1	462.86
27455	4.6952	2.9091	0.1	444.2
27456	4.6032	3.1818	0.1	460.64
27457	4.6952	3.0909	0.1	444.2
27458	4.6032	3.3636	0.1	453.98
27459	4.6952	3.2727	0.1	439.93
27460	4.6032	3.5455	0.1	442.98
27461	4.6952	3.4545	0.1	431.45
27462	4.6032	3.7273	0.1	427.76
27463	4.6952	3.6364	0.1	418.85
27464	4.6032	3.9091	0.1	408.5
27465	4.6952	3.8182	0.1	402.28
27466	4.6032	4.0909	0.1	385.43
27467	4.6952	4.	0.1	381.94
27468	4.6032	4.2727	0.1	358.81
27469	4.6952	4.1818	0.1	358.06
27470	4.6032	4.4545	0.1	328.94
27471	4.6952	4.3636	0.1	330.91
27472	4.6032	4.6364	0.1	296.16
27473	4.6952	4.5455	0.1	300.8
27474	4.6032	4.8182	0.1	260.8
27475	4.6952	4.7273	0.1	268.06
27476	4.6032	5.	0.1	223.24
27477	4.6952	4.9091	0.1	233.01
27478	4.6032	5.1818	0.1	183.85
27479	4.6952	5.0909	0.1	196.03
27480	4.6032	5.3636	0.1	143.01
27481	4.6952	5.2727	0.1	157.45
27482	4.6032	5.5455	0.1	101.01
27483	4.6952	5.4545	0.1	117.65
27484	4.6032	5.7273	0.1	58.006
27485	4.6952	5.6364	0.1	76.837
27486	4.6952	5.8182	0.1	35.169
27487	4.6032	5.9091	0.1	19.342
27488	4.7873	0.27273	0.1	53.881
27489	4.8794	0.18182	0.1	32.767
27490	4.7873	9.0909e-002	0.1	18.103
27491	4.7873	0.45455	0.1	93.433
27492	4.8794	0.36364	0.1	71.079
27493	4.7873	0.63636	0.1	132.06
27494	4.8794	0.54545	0.1	108.61
27495	4.7873	0.81818	0.1	169.59
27496	4.8794	0.72727	0.1	145.19
27497	4.7873	1.	0.1	205.76
27498	4.8794	0.90909	0.1	180.62
27499	4.7873	1.1818	0.1	240.24
27500	4.8794	1.0909	0.1	214.57
27501	4.7873	1.3636	0.1	272.68
27502	4.8794	1.2727	0.1	246.73
27503	4.7873	1.5455	0.1	302.75
27504	4.8794	1.4545	0.1	276.77
27505	4.7873	1.7273	0.1	330.15
27506	4.8794	1.6364	0.1	304.4
27507	4.7873	1.9091	0.1	354.56
27508	4.8794	1.8182	0.1	329.29
27509	4.7873	2.0909	0.1	375.72
27510	4.8794	2.	0.1	351.2
27511	4.7873	2.2727	0.1	393.38
27512	4.8794	2.1818	0.1	369.86
27513	4.7873	2.4545	0.1	407.33
27514	4.8794	2.3636	0.1	385.05
27515	4.7873	2.6364	0.1	417.42
27516	4.8794	2.5455	0.1	396.61
27517	4.7873	2.8182	0.1	423.52
27518	4.8794	2.7273	0.1	404.4
27519	4.7873	3.	0.1	425.57
27520	4.8794	2.9091	0.1	408.31
27521	4.7873	3.1818	0.1	423.52
27522	4.8794	3.0909	0.1	408.31
27523	4.7873	3.3636	0.1	417.42
27524	4.8794	3.2727	0.1	404.4
27525	4.7873	3.5455	0.1	407.33
27526	4.8794	3.4545	0.1	396.61
27527	4.7873	3.7273	0.1	393.38
27528	4.8794	3.6364	0.1	385.05
27529	4.7873	3.9091	0.1	375.72
27530	4.8794	3.8182	0.1	369.86
27531	4.7873	4.0909	0.1	354.56
27532	4.8794	4.	0.1	351.2
27533	4.7873	4.2727	0.1	330.15
27534	4.8794	4.1818	0.1	329.29
27535	4.7873	4.4545	0.1	302.75
27536	4.8794	4.3636	0.1	304.4
27537	4.7873	4.6364	0.1	272.68
27538	4.8794	4.5455	0.1	276.77
27539	4.7873	4.8182	0.1	240.24
27540	4.8794	4.7273	0.1	246.73
27541	4.7873	5.	0.1	205.76
27542	4.8794	4.9091	0.1	214.57
27543	4.7873	5.1818	0.1	169.59
27544	4.8794	5.0909	0.1	180.62
27545	4.7873	5.3636	0.1	132.06
27546	4.8794	5.2727	0.1	145.19
27547	4.7873	5.5455	0.1	93.433
27548	4.8794	5.4545	0.1	108.61
27549	4.7873	5.7273	0.1	53.881
27550	4.8794	5.6364	0.1	71.079
27551	4.8794	5.8182	0.1	32.767
27552	4.7873	5.9091	0.1	18.103
27553	4.9714	0.27273	0.1	49.864
27554	5.0635	0.18182	0.1	30.356
27555	4.9714	9.0909e-002	0.1	16.833
27556	4.9714	0.45455	0.1	86.219
27557	5.0635	0.36364	0.1	65.558
27558	4.9714	0.63636	0.1	121.71
27559	5.0635	0.54545	0.1	100.04
27560	4.9714	0.81818	0.1	156.19
27561	5.0635	0.72727	0.1	133.64
27562	4.9714	1.	0.1	189.4
27563	5.0635	0.90909	0.1	166.16
27564	4.9714	1.1818	0.1	221.04
27565	5.0635	1.0909	0.1	197.32
27566	4.9714	1.3636	0.1	250.8
27567	5.0635	1.2727	0.1	226.83
27568	4.9714	1.5455	0.1	278.4
27569	5.0635	1.4545	0.1	254.4
27570	4.9714	1.7273	0.1	303.53
27571	5.0635	1.6364	0.1	279.75
27572	4.9714	1.9091	0.1	325.93
27573	5.0635	1.8182	0.1	302.6
27574	4.9714	2.0909	0.1	345.34
27575	5.0635	2.	0.1	322.7
27576	4.9714	2.2727	0.1	361.54
27577	5.0635	2.1818	0.1	339.82
27578	4.9714	2.4545	0.1	374.35
27579	5.0635	2.3636	0.1	353.78
27580	4.9714	2.6364	0.1	383.6
27581	5.0635	2.5455	0.1	364.39
27582	4.9714	2.8182	0.1	389.2
27583	5.0635	2.7273	0.1	371.53
27584	4.9714	3.	0.1	391.08
27585	5.0635	2.9091	0.1	375.13
27586	4.9714	3.1818	0.1	389.2
27587	5.0635	3.0909	0.1	375.13
27588	4.9714	3.3636	0.1	383.6
27589	5.0635	3.2727	0.1	371.53
27590	4.9714	3.5455	0.1	374.35
27591	5.0635	3.4545	0.1	364.39
27592	4.9714	3.7273	0.1	361.54
27593	5.0635	3.6364	0.1	353.78
27594	4.9714	3.9091	0.1	345.34
27595	5.0635	3.8182	0.1	339.82
27596	4.9714	4.0909	0.1	325.93
27597	5.0635	4.	0.1	322.7
27598	4.9714	4.2727	0.1	303.53
27599	5.0635	4.1818	0.1	302.6
27600	4.9714	4.4545	0.1	278.4
27601	5.0635	4.3636	0.1	279.75
27602	4.9714	4.6364	0.1	250.8
27603	5.0635	4.5455	0.1	254.4
27604	4.9714	4.8182	0.1	221.04
27605	5.0635	4.7273	0.1	226.83
27606	4.9714	5.	0.1	189.4
27607	5.0635	4.9091	0.1	197.32
27608	4.9714	5.1818	0.1	156.19
27609	5.0635	5.0909	0.1	166.16
27610	4.9714	5.3636	0.1	121.71
27611	5.0635	5.2727	0.1	133.64
27612	4.9714	5.5455	0.1	86.219
27613	5.0635	5.4545	0.1	100.04
27614	4.9714	5.7273	0.1	49.864
27615	5.0635	5.6364	0.1	65.558
27616	5.0635	5.8182	0.1	30.356
27617	4.9714	5.9091	0.1	16.833
27618	5.1556	0.27273	0.1	45.965
27619	5.2476	0.18182	0.1	27.957
27620	5.1556	9.0909e-002	0.1	15.547
27621	5.1556	0.45455	0.1	79.35
27622	5.2476	0.36364	0.1	60.267
27623	5.1556	0.63636	0.1	111.94
27624	5.2476	0.54545	0.1	91.916
27625	5.1556	0.81818	0.1	143.58
27626	5.2476	0.72727	0.1	122.74
27627	5.1556	1.	0.1	174.06
27628	5.2476	0.90909	0.1	152.59
27629	5.1556	1.1818	0.1	203.1
27630	5.2476	1.0909	0.1	181.18
27631	5.1556	1.3636	0.1	230.41
27632	5.2476	1.2727	0.1	208.26
27633	5.1556	1.5455	0.1	255.74
27634	5.2476	1.4545	0.1	233.56
27635	5.1556	1.7273	0.1	278.8
27636	5.2476	1.6364	0.1	256.83
27637	5.1556	1.9091	0.1	299.36
27638	5.2476	1.8182	0.1	277.81
27639	5.1556	2.0909	0.1	317.18
27640	5.2476	2.	0.1	296.27
27641	5.1556	2.2727	0.1	332.06
27642	5.2476	2.1818	0.1	312.01
27643	5.1556	2.4545	0.1	343.83
27644	5.2476	2.3636	0.1	324.83
27645	5.1556	2.6364	0.1	352.33
27646	5.2476	2.5455	0.1	334.58
27647	5.1556	2.8182	0.1	357.47
27648	5.2476	2.7273	0.1	341.15
27649	5.1556	3.	0.1	359.2
27650	5.2476	2.9091	0.1	344.46
27651	5.1556	3.1818	0.1	357.47
27652	5.2476	3.0909	0.1	344.46
27653	5.1556	3.3636	0.1	352.33
27654	5.2476	3.2727	0.1	341.15
27655	5.1556	3.5455	0.1	343.83
27656	5.2476	3.4545	0.1	334.58
27657	5.1556	3.7273	0.1	332.06
27658	5.2476	3.6364	0.1	324.83
27659	5.1556	3.9091	0.1	317.18
27660	5.2476	3.8182	0.1	312.01
27661	5.1556	4.0909	0.1	299.36
27662	5.2476	4.	0.1	296.27
27663	5.1556	4.2727	0.1	278.8
27664	5.2476	4.1818	0.1	277.81
27665	5.1556	4.4545	0.1	255.74
27666	5.2476	4.3636	0.1	256.83
27667	5.1556	4.6364	0.1	230.41
27668	5.2476	4.5455	0.1	233.56
27669	5.1556	4.8182	0.1	203.1
27670	5.2476	4.7273	0.1	208.26
27671	5.1556	5.	0.1	174.06
27672	5.2476	4.9091	0.1	181.18
27673	5.1556	5.1818	0.1	143.58
27674	5.2476	5.0909	0.1	152.59
27675	5.1556	5.3636	0.1	111.94
27676	5.2476	5.2727	0.1	122.74
27677	5.1556	5.5455	0.1	79.35
27678	5.2476	5.4545	0.1	91.916
27679	5.1556	5.7273	0.1	45.965
27680	5.2476	5.6364	0.1	60.267
27681	5.2476	5.8182	0.1	27.957
27682	5.1556	5.9091	0.1	15.547
27683	5.3397	0.27273	0.1	42.188
27684	5.4317	0.18182	0.1	25.582
27685	5.3397	9.0909e-002	0.1	14.256
27686	5.3397	0.45455	0.1	72.809
27687	5.4317	0.36364	0.1	55.199
27688	5.3397	0.63636	0.1	102.7
27689	5.4317	0.54545	0.1	84.206
27690	5.3397	0.81818	0.1	131.72
27691	5.4317	0.72727	0.1	112.46
27692	5.3397	1.	0.1	159.68
27693	5.4317	0.90909	0.1	139.82
27694	5.3397	1.1818	0.1	186.32
27695	5.4317	1.0909	0.1	166.05
27696	5.3397	1.3636	0.1	211.39
27697	5.4317	1.2727	0.1	190.9
27698	5.3397	1.5455	0.1	234.64
27699	5.4317	1.4545	0.1	214.13
27700	5.3397	1.7273	0.1	255.83
27701	5.4317	1.6364	0.1	235.5
27702	5.3397	1.9091	0.1	274.71
27703	5.4317	1.8182	0.1	254.79
27704	5.3397	2.0909	0.1	291.09
27705	5.4317	2.	0.1	271.76
27706	5.3397	2.2727	0.1	304.77
27707	5.4317	2.1818	0.1	286.24
27708	5.3397	2.4545	0.1	315.59
27709	5.4317	2.3636	0.1	298.04
27710	5.3397	2.6364	0.1	323.41
27711	5.4317	2.5455	0.1	307.02
27712	5.3397	2.8182	0.1	328.14
27713	5.4317	2.7273	0.1	313.07
27714	5.3397	3.	0.1	329.73
27715	5.4317	2.9091	0.1	316.11
27716	5.3397	3.1818	0.1	328.14
27717	5.4317	3.0909	0.1	316.11
27718	5.3397	3.3636	0.1	323.41
27719	5.4317	3.2727	0.1	313.07
27720	5.3397	3.5455	0.1	315.59
27721	5.4317	3.4545	0.1	307.02
27722	5.3397	3.7273	0.1	304.77
27723	5.4317	3.6364	0.1	298.04
27724	5.3397	3.9091	0.1	291.09
27725	5.4317	3.8182	0.1	286.24
27726	5.3397	4.0909	0.1	274.71
27727	5.4317	4.	0.1	271.76
27728	5.3397	4.2727	0.1	255.83
27729	5.4317	4.1818	0.1	254.79
27730	5.3397	4.4545	0.1	234.64
27731	5.4317	4.3636	0.1	235.5
27732	5.3397	4.6364	0.1	211.39
27733	5.4317	4.5455	0.1	214.13
27734	5.3397	4.8182	0.1	186.32
27735	5.4317	4.7273	0.1	190.9
27736	5.3397	5.	0.1	159.68
27737	5.4317	4.9091	0.1	166.05
27738	5.3397	5.1818	0.1	131.72
27739	5.4317	5.0909	0.1	139.82
27740	5.3397	5.3636	0.1	102.7
27741	5.4317	5.2727	0.1	112.46
27742	5.3397	5.5455	0.1	72.809
27743	5.4317	5.4545	0.1	84.206
27744	5.3397	5.7273	0.1	42.188
27745	5.4317	5.6364	0.1	55.199
27746	5.4317	5.8182	0.1	25.582
27747	5.3397	5.9091	0.1	14.256
27748	5.5238	0.27273	0.1	38.535
27749	5.6159	0.18182	0.1	23.244
27750	5.5238	9.0909e-002	0.1	12.972
27751	5.5238	0.45455	0.1	66.577
27752	5.6159	0.36364	0.1	50.343
27753	5.5238	0.63636	0.1	93.952
27754	5.6159	0.54545	0.1	76.879
27755	5.5238	0.81818	0.1	120.55
27756	5.6159	0.72727	0.1	102.74
27757	5.5238	1.	0.1	146.17
27758	5.6159	0.90909	0.1	127.81
27759	5.5238	1.1818	0.1	170.61
27760	5.6159	1.0909	0.1	151.85
27761	5.5238	1.3636	0.1	193.62
27762	5.6159	1.2727	0.1	174.65
27763	5.5238	1.5455	0.1	214.98
27764	5.6159	1.4545	0.1	195.99
27765	5.5238	1.7273	0.1	234.45
27766	5.6159	1.6364	0.1	215.64
27767	5.5238	1.9091	0.1	251.83
27768	5.6159	1.8182	0.1	233.38
27769	5.5238	2.0909	0.1	266.9
27770	5.6159	2.	0.1	249.02
27771	5.5238	2.2727	0.1	279.5
27772	5.6159	2.1818	0.1	262.36
27773	5.5238	2.4545	0.1	289.47
27774	5.6159	2.3636	0.1	273.24
27775	5.5238	2.6364	0.1	296.68
27776	5.6159	2.5455	0.1	281.53
27777	5.5238	2.8182	0.1	301.04
27778	5.6159	2.7273	0.1	287.11
27779	5.5238	3.	0.1	302.5
27780	5.6159	2.9091	0.1	289.92
27781	5.5238	3.1818	0.1	301.04
27782	5.6159	3.0909	0.1	289.92
27783	5.5238	3.3636	0.1	296.68
27784	5.6159	3.2727	0.1	287.11
27785	5.5238	3.5455	0.1	289.47
27786	5.6159	3.4545	0.1	281.53
27787	5.5238	3.7273	0.1	279.5
27788	5.6159	3.6364	0.1	273.24
27789	5.5238	3.9091	0.1	266.9
27790	5.6159	3.8182	0.1	262.36
27791	5.5238	4.0909	0.1	251.83
27792	5.6159	4.	0.1	249.02
27793	5.5238	4.2727	0.1	234.45
27794	5.6159	4.1818	0.1	233.38
27795	5.5238	4.4545	0.1	214.98
27796	5.6159	4.3636	0.1	215.64
27797	5.5238	4.6364	0.1	193.62
27798	5.6159	4.5455	0.1	195.99
27799	5.5238	4.8182	0.1	170.61
27800	5.6159	4.7273	0.1	174.65
27801	5.5238	5.	0.1	146.17
27802	5.6159	4.9091	0.1	151.85
27803	5.5238	5.1818	0.1	120.55
27804	5.6159	5.0909	0.1	127.81
27805	5.5238	5.3636	0.1	93.952
27806	5.6159	5.2727	0.1	102.74
27807	5.5238	5.5455	0.1	66.577
27808	5.6159	5.4545	0.1	76.879
27809	5.5238	5.7273	0.1	38.535
27810	5.6159	5.6364	0.1	50.343
27811	5.6159	5.8182	0.1	23.244
27812	5.5238	5.9091	0.1	12.972
27813	5.7079	0.27273	0.1	35.004
27814	5.8	0.18182	0.1	20.947
27815	5.7079	9.0909e-002	0.1	11.7
27816	5.7079	0.45455	0.1	60.63
27817	5.8	0.36364	0.1	45.682
27818	5.7079	0.63636	0.1	85.657
27819	5.8	0.54545	0.1	69.903
27820	5.7079	0.81818	0.1	109.99
27821	5.8	0.72727	0.1	93.535
27822	5.7079	1.	0.1	133.47
27823	5.8	0.90909	0.1	116.47
27824	5.7079	1.1818	0.1	155.88
27825	5.8	1.0909	0.1	138.49
27826	5.7079	1.3636	0.1	177.
27827	5.8	1.2727	0.1	159.42
27828	5.7079	1.5455	0.1	196.64
27829	5.8	1.4545	0.1	179.03
27830	5.7079	1.7273	0.1	214.56
27831	5.8	1.6364	0.1	197.11
27832	5.7079	1.9091	0.1	230.57
27833	5.8	1.8182	0.1	213.47
27834	5.7079	2.0909	0.1	244.47
27835	5.8	2.	0.1	227.9
27836	5.7079	2.2727	0.1	256.1
27837	5.8	2.1818	0.1	240.23
27838	5.7079	2.4545	0.1	265.3
27839	5.8	2.3636	0.1	250.29
27840	5.7079	2.6364	0.1	271.97
27841	5.8	2.5455	0.1	257.96
27842	5.7079	2.8182	0.1	276.
27843	5.8	2.7273	0.1	263.13
27844	5.7079	3.	0.1	277.35
27845	5.8	2.9091	0.1	265.74
27846	5.7079	3.1818	0.1	276.
27847	5.8	3.0909	0.1	265.74
27848	5.7079	3.3636	0.1	271.97
27849	5.8	3.2727	0.1	263.13
27850	5.7079	3.5455	0.1	265.3
27851	5.8	3.4545	0.1	257.96
27852	5.7079	3.7273	0.1	256.1
27853	5.8	3.6364	0.1	250.29
27854	5.7079	3.9091	0.1	244.47
27855	5.8	3.8182	0.1	240.23
27856	5.7079	4.0909	0.1	230.57
27857	5.8	4.	0.1	227.9
27858	5.7079	4.2727	0.1	214.56
27859	5.8	4.1818	0.1	213.47
27860	5.7079	4.4545	0.1	196.64
27861	5.8	4.3636	0.1	197.11
27862	5.7079	4.6364	0.1	177.
27863	5.8	4.5455	0.1	179.03
27864	5.7079	4.8182	0.1	155.88
27865	5.8	4.7273	0.1	159.42
27866	5.7079	5.	0.1	133.47
27867	5.8	4.9091	0.1	138.49
27868	5.7079	5.1818	0.1	109.99
27869	5.8	5.0909	0.1	116.47
27870	5.7079	5.3636	0.1	85.657
27871	5.8	5.2727	0.1	93.535
27872	5.7079	5.5455	0.1	60.63
27873	5.8	5.4545	0.1	69.903
27874	5.7079	5.7273	0.1	35.004
27875	5.8	5.6364	0.1	45.682
27876	5.8	5.8182	0.1	20.947
27877	5.7079	5.9091	0.1	11.7
27878	5.8921	0.27273	0.1	31.588
27879	5.9841	0.18182	0.1	18.696
27880	5.8921	9.0909e-002	0.1	10.446
27881	5.8921	0.45455	0.1	54.944
27882	5.9841	0.36364	0.1	41.2
27883	5.8921	0.63636	0.1	77.771
27884	5.9841	0.54545	0.1	63.24
27885	5.8921	0.81818	0.1	99.999
27886	5.9841	0.72727	0.1	84.783
27887	5.8921	1.	0.1	121.48
27888	5.9841	0.90909	0.1	105.73
27889	5.8921	1.1818	0.1	142.03
27890	5.9841	1.0909	0.1	125.9
27891	5.8921	1.3636	0.1	161.43
27892	5.9841	1.2727	0.1	145.1
27893	5.8921	1.5455	0.1	179.5
27894	5.9841	1.4545	0.1	163.14
27895	5.8921	1.7273	0.1	196.02
27896	5.9841	1.6364	0.1	179.81
27897	5.8921	1.9091	0.1	210.8
27898	5.9841	1.8182	0.1	194.92
27899	5.8921	2.0909	0.1	223.65
27900	5.9841	2.	0.1	208.27
27901	5.8921	2.2727	0.1	234.42
27902	5.9841	2.1818	0.1	219.7
27903	5.8921	2.4545	0.1	242.95
27904	5.9841	2.3636	0.1	229.04
27905	5.8921	2.6364	0.1	249.13
27906	5.9841	2.5455	0.1	236.17
27907	5.8921	2.8182	0.1	252.87
27908	5.9841	2.7273	0.1	240.98
27909	5.8921	3.	0.1	254.12
27910	5.9841	2.9091	0.1	243.4
27911	5.8921	3.1818	0.1	252.87
27912	5.9841	3.0909	0.1	243.4
27913	5.8921	3.3636	0.1	249.13
27914	5.9841	3.2727	0.1	240.98
27915	5.8921	3.5455	0.1	242.95
27916	5.9841	3.4545	0.1	236.17
27917	5.8921	3.7273	0.1	234.42
27918	5.9841	3.6364	0.1	229.04
27919	5.8921	3.9091	0.1	223.65
27920	5.9841	3.8182	0.1	219.7
27921	5.8921	4.0909	0.1	210.8
27922	5.9841	4.	0.1	208.27
27923	5.8921	4.2727	0.1	196.02
27924	5.9841	4.1818	0.1	194.92
27925	5.8921	4.4545	0.1	179.5
27926	5.9841	4.3636	0.1	179.81
27927	5.8921	4.6364	0.1	161.43
27928	5.9841	4.5455	0.1	163.14
27929	5.8921	4.8182	0.1	142.03
27930	5.9841	4.7273	0.1	145.1
27931	5.8921	5.	0.1	121.48
27932	5.9841	4.9091	0.1	125.9
27933	5.8921	5.1818	0.1	99.999
27934	5.9841	5.0909	0.1	105.73
27935	5.8921	5.3636	0.1	77.771
27936	5.9841	5.2727	0.1	84.783
27937	5.8921	5.5455	0.1	54.944
27938	5.9841	5.4545	0.1	63.24
27939	5.8921	5.7273	0.1	31.588
27940	5.9841	5.6364	0.1	41.2
27941	5.9841	5.8182	0.1	18.696
27942	5.8921	5.9091	0.1	10.446
27943	6.0762	0.27273	0.1	28.28
27944	6.1683	0.18182	0.1	16.492
27945	6.0762	9.0909e-002	0.1	9.2131
27946	6.0762	0.45455	0.1	49.489
27947	6.1683	0.36364	0.1	36.876
27948	6.0762	0.63636	0.1	70.246
27949	6.1683	0.54545	0.1	56.852
27950	6.0762	0.81818	0.1	90.507
27951	6.1683	0.72727	0.1	76.432
27952	6.0762	1.	0.1	110.14
27953	6.1683	0.90909	0.1	95.531
27954	6.0762	1.1818	0.1	128.97
27955	6.1683	1.0909	0.1	113.98
27956	6.0762	1.3636	0.1	146.8
27957	6.1683	1.2727	0.1	131.61
27958	6.0762	1.5455	0.1	163.45
27959	6.1683	1.4545	0.1	148.22
27960	6.0762	1.7273	0.1	178.71
27961	6.1683	1.6364	0.1	163.62
27962	6.0762	1.9091	0.1	192.39
27963	6.1683	1.8182	0.1	177.62
27964	6.0762	2.0909	0.1	204.32
27965	6.1683	2.	0.1	190.02
27966	6.0762	2.2727	0.1	214.33
27967	6.1683	2.1818	0.1	200.66
27968	6.0762	2.4545	0.1	222.27
27969	6.1683	2.3636	0.1	209.37
27970	6.0762	2.6364	0.1	228.03
27971	6.1683	2.5455	0.1	216.03
27972	6.0762	2.8182	0.1	231.52
27973	6.1683	2.7273	0.1	220.53
27974	6.0762	3.	0.1	232.69
27975	6.1683	2.9091	0.1	222.8
27976	6.0762	3.1818	0.1	231.52
27977	6.1683	3.0909	0.1	222.8
27978	6.0762	3.3636	0.1	228.03
27979	6.1683	3.2727	0.1	220.53
27980	6.0762	3.5455	0.1	222.27
27981	6.1683	3.4545	0.1	216.03
27982	6.0762	3.7273	0.1	214.33
27983	6.1683	3.6364	0.1	209.37
27984	6.0762	3.9091	0.1	204.32
27985	6.1683	3.8182	0.1	200.66
27986	6.0762	4.0909	0.1	192.39
27987	6.1683	4.	0.1	190.02
27988	6.0762	4.2727	0.1	178.71
27989	6.1683	4.1818	0.1	177.62
27990	6.0762	4.4545	0.1	163.45
27991	6.1683	4.3636	0.1	163.62
27992	6.0762	4.6364	0.1	146.8
27993	6.1683	4.5455	0.1	148.22
27994	6.0762	4.8182	0.1	128.97
27995	6.1683	4.7273	0.1	131.61
27996	6.0762	5.	0.1	110.14
27997	6.1683	4.9091	0.1	113.98
27998	6.0762	5.1818	0.1	90.507
27999	6.1683	5.0909	0.1	95.531
28000	6.0762	5.3636	0.1	70.246
28001	6.1683	5.2727	0.1	76.432
28002	6.0762	5.5455	0.1	49.489
28003	6.1683	5.4545	0.1	56.852
28004	6.0762	5.7273	0.1	28.28
28005	6.1683	5.6364	0.1	36.876
28006	6.1683	5.8182	0.1	16.491
28007	6.0762	5.9091	0.1	9.2131
28008	6.2603	0.27273	0.1	25.067
28009	6.3524	0.18182	0.1	14.33
28010	6.2603	9.0909e-002	0.1	8.0018
28011	6.2603	0.45455	0.1	44.235
28012	6.3524	0.36364	0.1	32.684
28013	6.2603	0.63636	0.1	63.034
28014	6.3524	0.54545	0.1	50.696
28015	6.2603	0.81818	0.1	81.451
28016	6.3524	0.72727	0.1	68.422
28017	6.2603	1.	0.1	99.366
28018	6.3524	0.90909	0.1	85.793
28019	6.2603	1.1818	0.1	116.61
28020	6.3524	1.0909	0.1	102.65
28021	6.2603	1.3636	0.1	133.02
28022	6.3524	1.2727	0.1	118.84
28023	6.2603	1.5455	0.1	148.38
28024	6.3524	1.4545	0.1	134.16
28025	6.2603	1.7273	0.1	162.52
28026	6.3524	1.6364	0.1	148.43
28027	6.2603	1.9091	0.1	175.24
28028	6.3524	1.8182	0.1	161.44
28029	6.2603	2.0909	0.1	186.36
28030	6.3524	2.	0.1	173.02
28031	6.2603	2.2727	0.1	195.7
28032	6.3524	2.1818	0.1	182.98
28033	6.2603	2.4545	0.1	203.14
28034	6.3524	2.3636	0.1	191.16
28035	6.2603	2.6364	0.1	208.53
28036	6.3524	2.5455	0.1	197.42
28037	6.2603	2.8182	0.1	211.81
28038	6.3524	2.7273	0.1	201.65
28039	6.2603	3.	0.1	212.91
28040	6.3524	2.9091	0.1	203.79
28041	6.2603	3.1818	0.1	211.81
28042	6.3524	3.0909	0.1	203.79
28043	6.2603	3.3636	0.1	208.53
28044	6.3524	3.2727	0.1	201.65
28045	6.2603	3.5455	0.1	203.14
28046	6.3524	3.4545	0.1	197.42
28047	6.2603	3.7273	0.1	195.7
28048	6.3524	3.6364	0.1	191.16
28049	6.2603	3.9091	0.1	186.36
28050	6.3524	3.8182	0.1	182.98
28051	6.2603	4.0909	0.1	175.24
28052	6.3524	4.	0.1	173.02
28053	6.2603	4.2727	0.1	162.52
28054	6.3524	4.1818	0.1	161.44
28055	6.2603	4.4545	0.1	148.38
28056	6.3524	4.3636	0.1	148.43
28057	6.2603	4.6364	0.1	133.02
28058	6.3524	4.5455	0.1	134.16
28059	6.2603	4.8182	0.1	116.61
28060	6.3524	4.7273	0.1	118.84
28061	6.2603	5.	0.1	99.366
28062	6.3524	4.9091	0.1	102.65
28063	6.2603	5.1818	0.1	81.451
28064	6.3524	5.0909	0.1	85.793
28065	6.2603	5.3636	0.1	63.034
28066	6.3524	5.2727	0.1	68.422
28067	6.2603	5.5455	0.1	44.235
28068	6.3524	5.4545	0.1	50.695
28069	6.2603	5.7273	0.1	25.067
28070	6.3524	5.6364	0.1	32.684
28071	6.3524	5.8182	0.1	14.33
28072	6.2603	5.9091	0.1	8.0018
28073	6.4444	0.27273	0.1	21.934
28074	6.5365	0.18182	0.1	12.207
28075	6.4444	9.0909e-002	0.1	6.8117
28076	6.4444	0.45455	0.1	39.144
28077	6.5365	0.36364	0.1	28.597
28078	6.4444	0.63636	0.1	56.082
28079	6.5365	0.54545	0.1	44.723
28080	6.4444	0.81818	0.1	72.761
28081	6.5365	0.72727	0.1	60.69
28082	6.4444	1.	0.1	89.077
28083	6.5365	0.90909	0.1	76.438
28084	6.4444	1.1818	0.1	104.87
28085	6.5365	1.0909	0.1	91.828
28086	6.4444	1.3636	0.1	119.98
28087	6.5365	1.2727	0.1	106.7
28088	6.4444	1.5455	0.1	134.2
28089	6.5365	1.4545	0.1	120.86
28090	6.4444	1.7273	0.1	147.35
28091	6.5365	1.6364	0.1	134.13
28092	6.4444	1.9091	0.1	159.22
28093	6.5365	1.8182	0.1	146.29
28094	6.4444	2.0909	0.1	169.64
28095	6.5365	2.	0.1	157.17
28096	6.4444	2.2727	0.1	178.43
28097	6.5365	2.1818	0.1	166.55
28098	6.4444	2.4545	0.1	185.44
28099	6.5365	2.3636	0.1	174.29
28100	6.4444	2.6364	0.1	190.54
28101	6.5365	2.5455	0.1	180.22
28102	6.4444	2.8182	0.1	193.64
28103	6.5365	2.7273	0.1	184.25
28104	6.4444	3.	0.1	194.67
28105	6.5365	2.9091	0.1	186.28
28106	6.4444	3.1818	0.1	193.64
28107	6.5365	3.0909	0.1	186.28
28108	6.4444	3.3636	0.1	190.54
28109	6.5365	3.2727	0.1	184.25
28110	6.4444	3.5455	0.1	185.44
28111	6.5365	3.4545	0.1	180.22
28112	6.4444	3.7273	0.1	178.43
28113	6.5365	3.6364	0.1	174.29
28114	6.4444	3.9091	0.1	169.64
28115	6.5365	3.8182	0.1	166.55
28116	6.4444	4.0909	0.1	159.22
28117	6.5365	4.	0.1	157.17
28118	6.4444	4.2727	0.1	147.35
28119	6.5365	4.1818	0.1	146.29
28120	6.4444	4.4545	0.1	134.2
28121	6.5365	4.3636	0.1	134.13
28122	6.4444	4.6364	0.1	119.98
28123	6.5365	4.5455	0.1	120.86
28124	6.4444	4.8182	0.1	104.87
28125	6.5365	4.7273	0.1	106.7
28126	6.4444	5.	0.1	89.076
28127	6.5365	4.9091	0.1	91.827
28128	6.4444	5.1818	0.1	72.761
28129	6.5365	5.0909	0.1	76.438
28130	6.4444	5.3636	0.1	56.082
28131	6.5365	5.2727	0.1	60.689
28132	6.4444	5.5455	0.1	39.144
28133	6.5365	5.4545	0.1	44.723
28134	6.4444	5.7273	0.1	21.934
28135	6.5365	5.6364	0.1	28.597
28136	6.5365	5.8182	0.1	12.206
28137	6.4444	5.9091	0.1	6.8117
28138	6.6286	0.27273	0.1	18.863
28139	6.7206	0.18182	0.1	10.113
28140	6.6286	9.0909e-002	0.1	5.6406
28141	6.6286	0.45455	0.1	34.178
28142	6.7206	0.36364	0.1	24.582
28143	6.6286	0.63636	0.1	49.331
28144	6.7206	0.54545	0.1	38.882
28145	6.6286	0.81818	0.1	64.366
28146	6.7206	0.72727	0.1	53.165
28147	6.6286	1.	0.1	79.187
28148	6.7206	0.90909	0.1	67.385
28149	6.6286	1.1818	0.1	93.648
28150	6.7206	1.0909	0.1	81.41
28151	6.6286	1.3636	0.1	107.58
28152	6.7206	1.2727	0.1	95.082
28153	6.6286	1.5455	0.1	120.78
28154	6.7206	1.4545	0.1	108.22
28155	6.6286	1.7273	0.1	133.07
28156	6.7206	1.6364	0.1	120.61
28157	6.6286	1.9091	0.1	144.23
28158	6.7206	1.8182	0.1	132.06
28159	6.6286	2.0909	0.1	154.07
28160	6.7206	2.	0.1	142.34
28161	6.6286	2.2727	0.1	162.41
28162	6.7206	2.1818	0.1	151.27
28163	6.6286	2.4545	0.1	169.07
28164	6.7206	2.3636	0.1	158.66
28165	6.6286	2.6364	0.1	173.93
28166	6.7206	2.5455	0.1	164.35
28167	6.6286	2.8182	0.1	176.89
28168	6.7206	2.7273	0.1	168.21
28169	6.6286	3.	0.1	177.88
28170	6.7206	2.9091	0.1	170.16
28171	6.6286	3.1818	0.1	176.89
28172	6.7206	3.0909	0.1	170.16
28173	6.6286	3.3636	0.1	173.93
28174	6.7206	3.2727	0.1	168.21
28175	6.6286	3.5455	0.1	169.07
28176	6.7206	3.4545	0.1	164.35
28177	6.6286	3.7273	0.1	162.41
28178	6.7206	3.6364	0.1	158.66
28179	6.6286	3.9091	0.1	154.07
28180	6.7206	3.8182	0.1	151.27
28181	6.6286	4.0909	0.1	144.23
28182	6.7206	4.	0.1	142.34
28183	6.6286	4.2727	0.1	133.07
28184	6.7206	4.1818	0.1	132.06
28185	6.6286	4.4545	0.1	120.78
28186	6.7206	4.3636	0.1	120.61
28187	6.6286	4.6364	0.1	107.58
28188	6.7206	4.5455	0.1	108.22
28189	6.6286	4.8182	0.1	93.648
28190	6.7206	4.7273	0.1	95.082
28191	6.6286	5.	0.1	79.187
28192	6.7206	4.9091	0.1	81.41
28193	6.6286	5.1818	0.1	64.366
28194	6.7206	5.0909	0.1	67.385
28195	6.6286	5.3636	0.1	49.331
28196	6.7206	5.2727	0.1	53.165
28197	6.6286	5.5455	0.1	34.178
28198	6.7206	5.4545	0.1	38.882
28199	6.6286	5.7273	0.1	18.863
28200	6.7206	5.6364	0.1	24.582
28201	6.7206	5.8182	0.1	10.113
28202	6.6286	5.9091	0.1	5.6406
28203	6.8127	0.27273	0.1	15.831
28204	6.9048	0.18182	0.1	8.0378
28205	6.8127	9.0909e-002	0.1	4.4848
28206	6.8127	0.45455	0.1	29.291
28207	6.9048	0.36364	0.1	20.603
28208	6.8127	0.63636	0.1	42.719
28209	6.9048	0.54545	0.1	33.116
28210	6.8127	0.81818	0.1	56.186
28211	6.9048	0.72727	0.1	45.775
28212	6.8127	1.	0.1	69.608
28213	6.9048	0.90909	0.1	58.546
28214	6.8127	1.1818	0.1	82.843
28215	6.9048	1.0909	0.1	71.305
28216	6.8127	1.3636	0.1	95.719
28217	6.9048	1.2727	0.1	83.893
28218	6.8127	1.5455	0.1	108.04
28219	6.9048	1.4545	0.1	96.12
28220	6.8127	1.7273	0.1	119.59
28221	6.9048	1.6364	0.1	107.77
28222	6.8127	1.9091	0.1	130.17
28223	6.9048	1.8182	0.1	118.63
28224	6.8127	2.0909	0.1	139.54
28225	6.9048	2.	0.1	128.46
28226	6.8127	2.2727	0.1	147.53
28227	6.9048	2.1818	0.1	137.04
28228	6.8127	2.4545	0.1	153.93
28229	6.9048	2.3636	0.1	144.18
28230	6.8127	2.6364	0.1	158.62
28231	6.9048	2.5455	0.1	149.69
28232	6.8127	2.8182	0.1	161.48
28233	6.9048	2.7273	0.1	153.45
28234	6.8127	3.	0.1	162.44
28235	6.9048	2.9091	0.1	155.35
28236	6.8127	3.1818	0.1	161.48
28237	6.9048	3.0909	0.1	155.35
28238	6.8127	3.3636	0.1	158.62
28239	6.9048	3.2727	0.1	153.45
28240	6.8127	3.5455	0.1	153.93
28241	6.9048	3.4545	0.1	149.69
28242	6.8127	3.7273	0.1	147.53
28243	6.9048	3.6364	0.1	144.18
28244	6.8127	3.9091	0.1	139.54
28245	6.9048	3.8182	0.1	137.04
28246	6.8127	4.0909	0.1	130.17
28247	6.9048	4.	0.1	128.46
28248	6.8127	4.2727	0.1	119.59
28249	6.9048	4.1818	0.1	118.63
28250	6.8127	4.4545	0.1	108.04
28251	6.9048	4.3636	0.1	107.77
28252	6.8127	4.6364	0.1	95.719
28253	6.9048	4.5455	0.1	96.12
28254	6.8127	4.8182	0.1	82.843
28255	6.9048	4.7273	0.1	83.893
28256	6.8127	5.	0.1	69.608
28257	6.9048	4.9091	0.1	71.305
28258	6.8127	5.1818	0.1	56.186
28259	6.9048	5.0909	0.1	58.546
28260	6.8127	5.3636	0.1	42.719
28261	6.9048	5.2727	0.1	45.775
28262	6.8127	5.5455	0.1	29.291
28263	6.9048	5.4545	0.1	33.116
28264	6.8127	5.7273	0.1	15.831
28265	6.9048	5.6364	0.1	20.603
28266	6.9048	5.8182	0.1	8.0378
28267	6.8127	5.9091	0.1	4.4848
28268	6.9968	0.27273	0.1	12.814
28269	7.0889	0.18182	0.1	5.9684
28270	6.9968	9.0909e-002	0.1	3.3396
28271	6.9968	0.45455	0.1	24.435
28272	7.0889	0.36364	0.1	16.618
28273	6.9968	0.63636	0.1	36.177
28274	7.0889	0.54545	0.1	27.36
28275	6.9968	0.81818	0.1	48.138
28276	7.0889	0.72727	0.1	38.438
28277	6.9968	1.	0.1	60.244
28278	7.0889	0.90909	0.1	49.827
28279	6.9968	1.1818	0.1	72.355
28280	7.0889	1.0909	0.1	61.408
28281	6.9968	1.3636	0.1	84.294
28282	7.0889	1.2727	0.1	73.021
28283	6.9968	1.5455	0.1	95.854
28284	7.0889	1.4545	0.1	84.464
28285	6.9968	1.7273	0.1	106.81
28286	7.0889	1.6364	0.1	95.507
28287	6.9968	1.9091	0.1	116.92
28288	7.0889	1.8182	0.1	105.9
28289	6.9968	2.0909	0.1	125.96
28290	7.0889	2.	0.1	115.4
28291	6.9968	2.2727	0.1	133.69
28292	7.0889	2.1818	0.1	123.76
28293	6.9968	2.4545	0.1	139.94
28294	7.0889	2.3636	0.1	130.75
28295	6.9968	2.6364	0.1	144.52
28296	7.0889	2.5455	0.1	136.18
28297	6.9968	2.8182	0.1	147.32
28298	7.0889	2.7273	0.1	139.89
28299	6.9968	3.	0.1	148.27
28300	7.0889	2.9091	0.1	141.77
28301	6.9968	3.1818	0.1	147.32
28302	7.0889	3.0909	0.1	141.77
28303	6.9968	3.3636	0.1	144.52
28304	7.0889	3.2727	0.1	139.89
28305	6.9968	3.5455	0.1	139.94
28306	7.0889	3.4545	0.1	136.18
28307	6.9968	3.7273	0.1	133.69
28308	7.0889	3.6364	0.1	130.75
28309	6.9968	3.9091	0.1	125.96
28310	7.0889	3.8182	0.1	123.76
28311	6.9968	4.0909	0.1	116.92
28312	7.0889	4.	0.1	115.4
28313	6.9968	4.2727	0.1	106.81
28314	7.0889	4.1818	0.1	105.9
28315	6.9968	4.4545	0.1	95.854
28316	7.0889	4.3636	0.1	95.507
28317	6.9968	4.6364	0.1	84.294
28318	7.0889	4.5455	0.1	84.464
28319	6.9968	4.8182	0.1	72.355
28320	7.0889	4.7273	0.1	73.021
28321	6.9968	5.	0.1	60.244
28322	7.0889	4.9091	0.1	61.408
28323	6.9968	5.1818	0.1	48.138
28324	7.0889	5.0909	0.1	49.827
28325	6.9968	5.3636	0.1	36.177
28326	7.0889	5.2727	0.1	38.438
28327	6.9968	5.5455	0.1	24.435
28328	7.0889	5.4545	0.1	27.36
28329	6.9968	5.7273	0.1	12.814
28330	7.0889	5.6364	0.1	16.618
28331	7.0889	5.8182	0.1	5.9684
28332	6.9968	5.9091	0.1	3.3396
28333	7.181	0.27273	0.1	9.7806
28334	7.273	0.18182	0.1	3.8892
28335	7.181	9.0909e-002	0.1	2.2003
28336	7.181	0.45455	0.1	19.553
28337	7.273	0.36364	0.1	12.58
28338	7.181	0.63636	0.1	29.628
28339	7.273	0.54545	0.1	21.544
28340	7.181	0.81818	0.1	40.131
28341	7.273	0.72727	0.1	31.064
28342	7.181	1.	0.1	50.993
28343	7.273	0.90909	0.1	41.124
28344	7.181	1.1818	0.1	62.076
28345	7.273	1.0909	0.1	51.61
28346	7.181	1.3636	0.1	73.191
28347	7.273	1.2727	0.1	62.351
28348	7.181	1.5455	0.1	84.117
28349	7.273	1.4545	0.1	73.131
28350	7.181	1.7273	0.1	94.603
28351	7.273	1.6364	0.1	83.697
28352	7.181	1.9091	0.1	104.39
28353	7.273	1.8182	0.1	93.776
28354	7.181	2.0909	0.1	113.21
28355	7.273	2.	0.1	103.08
28356	7.181	2.2727	0.1	120.82
28357	7.273	2.1818	0.1	111.34
28358	7.181	2.4545	0.1	127.
28359	7.273	2.3636	0.1	118.3
28360	7.181	2.6364	0.1	131.55
28361	7.273	2.5455	0.1	123.73
28362	7.181	2.8182	0.1	134.34
28363	7.273	2.7273	0.1	127.46
28364	7.181	3.	0.1	135.28
28365	7.273	2.9091	0.1	129.35
28366	7.181	3.1818	0.1	134.34
28367	7.273	3.0909	0.1	129.35
28368	7.181	3.3636	0.1	131.55
28369	7.273	3.2727	0.1	127.46
28370	7.181	3.5455	0.1	127.
28371	7.273	3.4545	0.1	123.73
28372	7.181	3.7273	0.1	120.82
28373	7.273	3.6364	0.1	118.3
28374	7.181	3.9091	0.1	113.21
28375	7.273	3.8182	0.1	111.34
28376	7.181	4.0909	0.1	104.39
28377	7.273	4.	0.1	103.08
28378	7.181	4.2727	0.1	94.603
28379	7.273	4.1818	0.1	93.776
28380	7.181	4.4545	0.1	84.117
28381	7.273	4.3636	0.1	83.697
28382	7.181	4.6364	0.1	73.191
28383	7.273	4.5455	0.1	73.131
28384	7.181	4.8182	0.1	62.076
28385	7.273	4.7273	0.1	62.351
28386	7.181	5.	0.1	50.993
28387	7.273	4.9091	0.1	51.61
28388	7.181	5.1818	0.1	40.131
28389	7.273	5.0909	0.1	41.124
28390	7.181	5.3636	0.1	29.628
28391	7.273	5.2727	0.1	31.064
28392	7.181	5.5455	0.1	19.552
28393	7.273	5.4545	0.1	21.544
28394	7.181	5.7273	0.1	9.7806
28395	7.273	5.6364	0.1	12.579
28396	7.273	5.8182	0.1	3.8892
28397	7.181	5.9091	0.1	2.2003
28398	7.3651	0.27273	0.1	6.6978
28399	7.4571	0.18182	0.1	1.7905
28400	7.3651	9.0909e-002	0.1	1.0698
28401	7.3651	0.45455	0.1	14.582
28402	7.4571	0.36364	0.1	8.4348
28403	7.3651	0.63636	0.1	22.989
28404	7.4571	0.54545	0.1	15.589
28405	7.3651	0.81818	0.1	32.064
28406	7.4571	0.72727	0.1	23.556
28407	7.3651	1.	0.1	41.745
28408	7.4571	0.90909	0.1	32.328
28409	7.3651	1.1818	0.1	51.887
28410	7.4571	1.0909	0.1	41.789
28411	7.3651	1.3636	0.1	62.292
28412	7.4571	1.2727	0.1	51.759
28413	7.3651	1.5455	0.1	72.712
28414	7.4571	1.4545	0.1	61.999
28415	7.3651	1.7273	0.1	82.871
28416	7.4571	1.6364	0.1	72.228
28417	7.3651	1.9091	0.1	92.472
28418	7.4571	1.8182	0.1	82.134
28419	7.3651	2.0909	0.1	101.22
28420	7.4571	2.	0.1	91.397
28421	7.3651	2.2727	0.1	108.83
28422	7.4571	2.1818	0.1	99.698
28423	7.3651	2.4545	0.1	115.04
28424	7.4571	2.3636	0.1	106.74
28425	7.3651	2.6364	0.1	119.64
28426	7.4571	2.5455	0.1	112.27
28427	7.3651	2.8182	0.1	122.47
28428	7.4571	2.7273	0.1	116.08
28429	7.3651	3.	0.1	123.42
28430	7.4571	2.9091	0.1	118.02
28431	7.3651	3.1818	0.1	122.47
28432	7.4571	3.0909	0.1	118.02
28433	7.3651	3.3636	0.1	119.64
28434	7.4571	3.2727	0.1	116.08
28435	7.3651	3.5455	0.1	115.04
28436	7.4571	3.4545	0.1	112.27
28437	7.3651	3.7273	0.1	108.83
28438	7.4571	3.6364	0.1	106.74
28439	7.3651	3.9091	0.1	101.22
28440	7.4571	3.8182	0.1	99.698
28441	7.3651	4.0909	0.1	92.472
28442	7.4571	4.	0.1	91.397
28443	7.3651	4.2727	0.1	82.871
28444	7.4571	4.1818	0.1	82.134
28445	7.3651	4.4545	0.1	72.712
28446	7.4571	4.3636	0.1	72.228
28447	7.3651	4.6364	0.1	62.292
28448	7.4571	4.5455	0.1	61.999
28449	7.3651	4.8182	0.1	51.887
28450	7.4571	4.7273	0.1	51.759
28451	7.3651	5.	0.1	41.745
28452	7.4571	4.9091	0.1	41.789
28453	7.3651	5.1818	0.1	32.064
28454	7.4571	5.0909	0.1	32.328
28455	7.3651	5.3636	0.1	22.989
28456	7.4571	5.2727	0.1	23.556
28457	7.3651	5.5455	0.1	14.582
28458	7.4571	5.4545	0.1	15.589
28459	7.3651	5.7273	0.1	6.6978
28460	7.4571	5.6364	0.1	8.4348
28461	7.4571	5.8182	0.1	1.7905
28462	7.3651	5.9091	0.1	1.0698
28463	7.5492	0.27273	0.1	3.528
28464	7.6413	0.18182	0.1	9.37e-002
28465	7.5492	9.0909e-002	0.1	0.12968
28466	7.5492	0.45455	0.1	9.4549
28467	7.6413	0.36364	0.1	4.126
28468	7.5492	0.63636	0.1	16.166
28469	7.6413	0.54545	0.1	9.4087
28470	7.5492	0.81818	0.1	23.827
28471	7.6413	0.72727	0.1	15.807
28472	7.5492	1.	0.1	32.377
28473	7.6413	0.90909	0.1	23.315
28474	7.5492	1.1818	0.1	41.665
28475	7.6413	1.0909	0.1	31.817
28476	7.5492	1.3636	0.1	51.469
28477	7.6413	1.2727	0.1	41.114
28478	7.5492	1.5455	0.1	61.517
28479	7.6413	1.4545	0.1	50.939
28480	7.5492	1.7273	0.1	71.493
28481	7.6413	1.6364	0.1	60.975
28482	7.5492	1.9091	0.1	81.061
28483	7.6413	1.8182	0.1	70.865
28484	7.5492	2.0909	0.1	89.878
28485	7.6413	2.	0.1	80.238
28486	7.5492	2.2727	0.1	97.615
28487	7.6413	2.1818	0.1	88.729
28488	7.5492	2.4545	0.1	103.98
28489	7.6413	2.3636	0.1	95.992
28490	7.5492	2.6364	0.1	108.71
28491	7.6413	2.5455	0.1	101.73
28492	7.5492	2.8182	0.1	111.63
28493	7.6413	2.7273	0.1	105.69
28494	7.5492	3.	0.1	112.62
28495	7.6413	2.9091	0.1	107.72
28496	7.5492	3.1818	0.1	111.63
28497	7.6413	3.0909	0.1	107.72
28498	7.5492	3.3636	0.1	108.71
28499	7.6413	3.2727	0.1	105.69
28500	7.5492	3.5455	0.1	103.98
28501	7.6413	3.4545	0.1	101.73
28502	7.5492	3.7273	0.1	97.615
28503	7.6413	3.6364	0.1	95.992
28504	7.5492	3.9091	0.1	89.878
28505	7.6413	3.8182	0.1	88.728
28506	7.5492	4.0909	0.1	81.061
28507	7.6413	4.	0.1	80.238
28508	7.5492	4.2727	0.1	71.493
28509	7.6413	4.1818	0.1	70.865
28510	7.5492	4.4545	0.1	61.517
28511	7.6413	4.3636	0.1	60.975
28512	7.5492	4.6364	0.1	51.469
28513	7.6413	4.5455	0.1	50.939
28514	7.5492	4.8182	0.1	41.664
28515	7.6413	4.7273	0.1	41.114
28516	7.5492	5.	0.1	32.377
28517	7.6413	4.9091	0.1	31.817
28518	7.5492	5.1818	0.1	23.827
28519	7.6413	5.0909	0.1	23.315
28520	7.5492	5.3636	0.1	16.166
28521	7.6413	5.2727	0.1	15.807
28522	7.5492	5.5455	0.1	9.4549
28523	7.6413	5.4545	0.1	9.4087
28524	7.5492	5.7273	0.1	3.5279
28525	7.6413	5.6364	0.1	4.1259
28526	7.6413	5.8182	0.1	9.3698e-002
28527	7.5492	5.9091	0.1	0.12968
28528	7.7333	0.27273	0.1	0.30482
28529	7.8254	0.18182	0.1	-5.5315e-004
28530	7.7333	9.0909e-002	0.1	-1.9016e-002
28531	7.7333	0.45455	0.1	4.0971
28532	7.8254	0.36364	0.1	5.7273e-002
28533	7.7333	0.63636	0.1	9.0617
28534	7.8254	0.54545	0.1	2.9256
28535	7.7333	0.81818	0.1	15.304
28536	7.8254	0.72727	0.1	7.7067
28537	7.7333	1.	0.1	22.761
28538	7.8254	0.90909	0.1	13.959
28539	7.7333	1.1818	0.1	31.271
28540	7.8254	1.0909	0.1	21.554
28541	7.7333	1.3636	0.1	40.587
28542	7.8254	1.2727	0.1	30.272
28543	7.7333	1.5455	0.1	50.4
28544	7.8254	1.4545	0.1	39.81
28545	7.7333	1.7273	0.1	60.348
28546	7.8254	1.6364	0.1	49.803
28547	7.7333	1.9091	0.1	70.044
28548	7.8254	1.8182	0.1	59.843
28549	7.7333	2.0909	0.1	79.091
28550	7.8254	2.	0.1	69.499
28551	7.7333	2.2727	0.1	87.107
28552	7.8254	2.1818	0.1	78.342
28553	7.7333	2.4545	0.1	93.743
28554	7.8254	2.3636	0.1	85.97
28555	7.7333	2.6364	0.1	98.709
28556	7.8254	2.5455	0.1	92.03
28557	7.7333	2.8182	0.1	101.78
28558	7.8254	2.7273	0.1	96.236
28559	7.7333	3.	0.1	102.82
28560	7.8254	2.9091	0.1	98.391
28561	7.7333	3.1818	0.1	101.78
28562	7.8254	3.0909	0.1	98.391
28563	7.7333	3.3636	0.1	98.709
28564	7.8254	3.2727	0.1	96.236
28565	7.7333	3.5455	0.1	93.743
28566	7.8254	3.4545	0.1	92.029
28567	7.7333	3.7273	0.1	87.107
28568	7.8254	3.6364	0.1	85.97
28569	7.7333	3.9091	0.1	79.091
28570	7.8254	3.8182	0.1	78.342
28571	7.7333	4.0909	0.1	70.044
28572	7.8254	4.	0.1	69.499
28573	7.7333	4.2727	0.1	60.348
28574	7.8254	4.1818	0.1	59.843
28575	7.7333	4.4545	0.1	50.4
28576	7.8254	4.3636	0.1	49.803
28577	7.7333	4.6364	0.1	40.587
28578	7.8254	4.5455	0.1	39.81
28579	7.7333	4.8182	0.1	31.271
28580	7.8254	4.7273	0.1	30.271
28581	7.7333	5.	0.1	22.761
28582	7.8254	4.9091	0.1	21.554
28583	7.7333	5.1818	0.1	15.304
28584	7.8254	5.0909	0.1	13.959
28585	7.7333	5.3636	0.1	9.0617
28586	7.8254	5.2727	0.1	7.7066
28587	7.7333	5.5455	0.1	4.0971
28588	7.8254	5.4545	0.1	2.9255
28589	7.7333	5.7273	0.1	0.30481
28590	7.8254	5.6364	0.1	5.7272e-002
28591	7.8254	5.8182	0.1	-5.5149e-004
28592	7.7333	5.9091	0.1	-1.9015e-002
28593	7.9175	0.27273	0.1	-1.9401e-003
28594	8.0095	0.18182	0.1	1.6426e-004
28595	7.9175	9.0909e-002	0.1	-3.1933e-002
28596	7.9175	0.45455	0.1	2.2801e-002
28597	8.0095	0.36364	0.1	2.6087e-003
28598	7.9175	0.63636	0.1	1.6369
28599	8.0095	0.54545	0.1	8.7338e-003
28600	7.9175	0.81818	0.1	6.3821
28601	8.0095	0.72727	0.1	0.23016
28602	7.9175	1.	0.1	12.763
28603	8.0095	0.90909	0.1	4.1815
28604	7.9175	1.1818	0.1	20.562
28605	8.0095	1.0909	0.1	10.867
28606	7.9175	1.3636	0.1	29.499
28607	8.0095	1.2727	0.1	19.084
28608	7.9175	1.5455	0.1	39.217
28609	8.0095	1.4545	0.1	28.459
28610	7.9175	1.7273	0.1	49.301
28611	8.0095	1.6364	0.1	38.569
28612	7.9175	1.9091	0.1	59.3
28613	8.0095	1.8182	0.1	48.936
28614	7.9175	2.0909	0.1	68.752
28615	8.0095	2.	0.1	59.058
28616	7.9175	2.2727	0.1	77.207
28617	8.0095	2.1818	0.1	68.433
28618	7.9175	2.4545	0.1	84.258
28619	8.0095	2.3636	0.1	76.587
28620	7.9175	2.6364	0.1	89.559
28621	8.0095	2.5455	0.1	83.103
28622	7.9175	2.8182	0.1	92.85
28623	8.0095	2.7273	0.1	87.645
28624	7.9175	3.	0.1	93.965
28625	8.0095	2.9091	0.1	89.976
28626	7.9175	3.1818	0.1	92.85
28627	8.0095	3.0909	0.1	89.976
28628	7.9175	3.3636	0.1	89.559
28629	8.0095	3.2727	0.1	87.645
28630	7.9175	3.5455	0.1	84.258
28631	8.0095	3.4545	0.1	83.103
28632	7.9175	3.7273	0.1	77.207
28633	8.0095	3.6364	0.1	76.587
28634	7.9175	3.9091	0.1	68.752
28635	8.0095	3.8182	0.1	68.433
28636	7.9175	4.0909	0.1	59.3
28637	8.0095	4.	0.1	59.058
28638	7.9175	4.2727	0.1	49.301
28639	8.0095	4.1818	0.1	48.936
28640	7.9175	4.4545	0.1	39.217
28641	8.0095	4.3636	0.1	38.569
28642	7.9175	4.6364	0.1	29.499
28643	8.0095	4.5455	0.1	28.459
28644	7.9175	4.8182	0.1	20.562
28645	8.0095	4.7273	0.1	19.083
28646	7.9175	5.	0.1	12.763
28647	8.0095	4.9091	0.1	10.867
28648	7.9175	5.1818	0.1	6.3821
28649	8.0095	5.0909	0.1	4.1815
28650	7.9175	5.3636	0.1	1.6368
28651	8.0095	5.2727	0.1	0.23015
28652	7.9175	5.5455	0.1	2.2802e-002
28653	8.0095	5.4545	0.1	8.7341e-003
28654	7.9175	5.7273	0.1	-1.9385e-003
28655	8.0095	5.6364	0.1	2.6103e-003
28656	8.0095	5.8182	0.1	1.658e-004
28657	7.9175	5.9091	0.1	-3.1931e-002
28658	8.1016	0.27273	0.1	3.1803e-003
28659	8.1937	0.18182	0.1	9.487e-003
28660	8.1016	9.0909e-002	0.1	-3.1882e-002
28661	8.1016	0.45455	0.1	-1.7237e-003
28662	8.1937	0.36364	0.1	1.2119e-002
28663	8.1016	0.63636	0.1	1.0084e-002
28664	8.1937	0.54545	0.1	-9.7745e-003
28665	8.1016	0.81818	0.1	0.11114
28666	8.1937	0.72727	0.1	1.3575e-002
28667	8.1016	1.	0.1	2.4358
28668	8.1937	0.90909	0.1	8.0525e-002
28669	8.1016	1.1818	0.1	9.4131
28670	8.1937	1.0909	0.1	0.76808
28671	8.1016	1.3636	0.1	18.054
28672	8.1937	1.2727	0.1	7.4596
28673	8.1016	1.5455	0.1	27.816
28674	8.1937	1.4545	0.1	16.738
28675	8.1016	1.7273	0.1	38.207
28676	8.1937	1.6364	0.1	27.115
28677	8.1016	1.9091	0.1	48.697
28678	8.1937	1.8182	0.1	37.995
28679	8.1016	2.0909	0.1	58.742
28680	8.1937	2.	0.1	48.784
28681	8.1016	2.2727	0.1	67.816
28682	8.1937	2.1818	0.1	58.887
28683	8.1016	2.4545	0.1	75.435
28684	8.1937	2.3636	0.1	67.745
28685	8.1016	2.6364	0.1	81.191
28686	8.1937	2.5455	0.1	74.863
28687	8.1016	2.8182	0.1	84.774
28688	8.1937	2.7273	0.1	79.842
28689	8.1016	3.	0.1	85.99
28690	8.1937	2.9091	0.1	82.404
28691	8.1016	3.1818	0.1	84.774
28692	8.1937	3.0909	0.1	82.404
28693	8.1016	3.3636	0.1	81.191
28694	8.1937	3.2727	0.1	79.842
28695	8.1016	3.5455	0.1	75.435
28696	8.1937	3.4545	0.1	74.863
28697	8.1016	3.7273	0.1	67.816
28698	8.1937	3.6364	0.1	67.745
28699	8.1016	3.9091	0.1	58.742
28700	8.1937	3.8182	0.1	58.887
28701	8.1016	4.0909	0.1	48.697
28702	8.1937	4.	0.1	48.784
28703	8.1016	4.2727	0.1	38.207
28704	8.1937	4.1818	0.1	37.995
28705	8.1016	4.4545	0.1	27.816
28706	8.1937	4.3636	0.1	27.114
28707	8.1016	4.6364	0.1	18.054
28708	8.1937	4.5455	0.1	16.738
28709	8.1016	4.8182	0.1	9.413
28710	8.1937	4.7273	0.1	7.4596
28711	8.1016	5.	0.1	2.4357
28712	8.1937	4.9091	0.1	0.76805
28713	8.1016	5.1818	0.1	0.11114
28714	8.1937	5.0909	0.1	8.0525e-002
28715	8.1016	5.3636	0.1	1.0085e-002
28716	8.1937	5.2727	0.1	1.3576e-002
28717	8.1016	5.5455	0.1	-1.7227e-003
28718	8.1937	5.4545	0.1	-9.7738e-003
28719	8.1016	5.7273	0.1	3.1817e-003
28720	8.1937	5.6364	0.1	1.2121e-002
28721	8.1937	5.8182	0.1	9.4884e-003
28722	8.1016	5.9091	0.1	-3.1881e-002
28723	8.2857	0.27273	0.1	1.2106e-002
28724	8.3778	0.18182	0.1	2.216e-002
28725	8.2857	9.0909e-002	0.1	-2.7905e-002
28726	8.2857	0.45455	0.1	4.5609e-004
28727	8.3778	0.36364	0.1	2.465e-002
28728	8.2857	0.63636	0.1	-6.0048e-003
28729	8.3778	0.54545	0.1	-1.4465e-002
28730	8.2857	0.81818	0.1	1.8527e-002
28731	8.3778	0.72727	0.1	2.3736e-004
28732	8.2857	1.	0.1	8.1015e-002
28733	8.3778	0.90909	0.1	2.5075e-002
28734	8.2857	1.1818	0.1	0.44123
28735	8.3778	1.0909	0.1	8.634e-002
28736	8.2857	1.3636	0.1	6.2158
28737	8.3778	1.2727	0.1	0.32635
28738	8.2857	1.5455	0.1	16.05
28739	8.3778	1.4545	0.1	4.7456
28740	8.2857	1.7273	0.1	26.908
28741	8.3778	1.6364	0.1	15.298
28742	8.2857	1.9091	0.1	38.085
28743	8.3778	1.8182	0.1	26.859
28744	8.2857	2.0909	0.1	48.93
28745	8.3778	2.	0.1	38.522
28746	8.2857	2.2727	0.1	58.817
28747	8.3778	2.1818	0.1	49.567
28748	8.2857	2.4545	0.1	67.174
28749	8.3778	2.3636	0.1	59.324
28750	8.2857	2.6364	0.1	73.516
28751	8.3778	2.5455	0.1	67.206
28752	8.2857	2.8182	0.1	77.475
28753	8.3778	2.7273	0.1	72.738
28754	8.2857	3.	0.1	78.82
28755	8.3778	2.9091	0.1	75.59
28756	8.2857	3.1818	0.1	77.475
28757	8.3778	3.0909	0.1	75.59
28758	8.2857	3.3636	0.1	73.516
28759	8.3778	3.2727	0.1	72.738
28760	8.2857	3.5455	0.1	67.174
28761	8.3778	3.4545	0.1	67.206
28762	8.2857	3.7273	0.1	58.817
28763	8.3778	3.6364	0.1	59.324
28764	8.2857	3.9091	0.1	48.93
28765	8.3778	3.8182	0.1	49.567
28766	8.2857	4.0909	0.1	38.085
28767	8.3778	4.	0.1	38.522
28768	8.2857	4.2727	0.1	26.908
28769	8.3778	4.1818	0.1	26.859
28770	8.2857	4.4545	0.1	16.05
28771	8.3778	4.3636	0.1	15.298
28772	8.2857	4.6364	0.1	6.2157
28773	8.3778	4.5455	0.1	4.7456
28774	8.2857	4.8182	0.1	0.44122
28775	8.3778	4.7273	0.1	0.32635
28776	8.2857	5.	0.1	8.1015e-002
28777	8.3778	4.9091	0.1	8.634e-002
28778	8.2857	5.1818	0.1	1.8527e-002
28779	8.3778	5.0909	0.1	2.5076e-002
28780	8.2857	5.3636	0.1	-6.004e-003
28781	8.3778	5.2727	0.1	2.3816e-004
28782	8.2857	5.5455	0.1	4.5722e-004
28783	8.3778	5.4545	0.1	-1.4465e-002
28784	8.2857	5.7273	0.1	1.2108e-002
28785	8.3778	5.6364	0.1	2.4652e-002
28786	8.3778	5.8182	0.1	2.2161e-002
28787	8.2857	5.9091	0.1	-2.7903e-002
28788	8.4698	0.27273	0.1	2.2207e-002
28789	8.5619	0.18182	0.1	3.6722e-002
28790	8.4698	9.0909e-002	0.1	-2.1956e-002
28791	8.4698	0.45455	0.1	5.1232e-003
28792	8.5619	0.36364	0.1	3.8687e-002
28793	8.4698	0.63636	0.1	-1.0875e-002
28794	8.5619	0.54545	0.1	-1.7207e-002
28795	8.4698	0.81818	0.1	5.5014e-003
28796	8.5619	0.72727	0.1	-3.9285e-003
28797	8.4698	1.	0.1	3.5292e-002
28798	8.5619	0.90909	0.1	1.3082e-002
28799	8.4698	1.1818	0.1	0.10018
28800	8.5619	1.0909	0.1	4.8755e-002
28801	8.4698	1.3636	0.1	0.32299
28802	8.5619	1.2727	0.1	0.11851
28803	8.4698	1.5455	0.1	4.152
28804	8.5619	1.4545	0.1	0.33375
28805	8.4698	1.7273	0.1	15.262
28806	8.5619	1.6364	0.1	3.5793
28807	8.4698	1.9091	0.1	27.299
28808	8.5619	1.8182	0.1	15.385
28809	8.4698	2.0909	0.1	39.16
28810	8.5619	2.	0.1	28.102
28811	8.4698	2.2727	0.1	50.074
28812	8.5619	2.1818	0.1	40.311
28813	8.4698	2.4545	0.1	59.356
28814	8.5619	2.3636	0.1	51.181
28815	8.4698	2.6364	0.1	66.429
28816	8.5619	2.5455	0.1	60.003
28817	8.4698	2.8182	0.1	70.855
28818	8.5619	2.7273	0.1	66.215
28819	8.4698	3.	0.1	72.361
28820	8.5619	2.9091	0.1	69.421
28821	8.4698	3.1818	0.1	70.855
28822	8.5619	3.0909	0.1	69.421
28823	8.4698	3.3636	0.1	66.429
28824	8.5619	3.2727	0.1	66.215
28825	8.4698	3.5455	0.1	59.356
28826	8.5619	3.4545	0.1	60.003
28827	8.4698	3.7273	0.1	50.074
28828	8.5619	3.6364	0.1	51.18
28829	8.4698	3.9091	0.1	39.16
28830	8.5619	3.8182	0.1	40.311
28831	8.4698	4.0909	0.1	27.299
28832	8.5619	4.	0.1	28.102
28833	8.4698	4.2727	0.1	15.262
28834	8.5619	4.1818	0.1	15.385
28835	8.4698	4.4545	0.1	4.1519
28836	8.5619	4.3636	0.1	3.5792
28837	8.4698	4.6364	0.1	0.32298
28838	8.5619	4.5455	0.1	0.33375
28839	8.4698	4.8182	0.1	0.10018
28840	8.5619	4.7273	0.1	0.11851
28841	8.4698	5.	0.1	3.5293e-002
28842	8.5619	4.9091	0.1	4.8755e-002
28843	8.4698	5.1818	0.1	5.5026e-003
28844	8.5619	5.0909	0.1	1.3084e-002
28845	8.4698	5.3636	0.1	-1.0874e-002
28846	8.5619	5.2727	0.1	-3.9275e-003
28847	8.4698	5.5455	0.1	5.1239e-003
28848	8.5619	5.4545	0.1	-1.7207e-002
28849	8.4698	5.7273	0.1	2.2209e-002
28850	8.5619	5.6364	0.1	3.8689e-002
28851	8.5619	5.8182	0.1	3.6723e-002
28852	8.4698	5.9091	0.1	-2.1954e-002
28853	8.654	0.27273	0.1	3.2775e-002
28854	8.746	0.18182	0.1	5.2077e-002
28855	8.654	9.0909e-002	0.1	-1.4696e-002
28856	8.654	0.45455	0.1	1.0713e-002
28857	8.746	0.36364	0.1	5.3881e-002
28858	8.654	0.63636	0.1	-1.3374e-002
28859	8.746	0.54545	0.1	-1.9461e-002
28860	8.654	0.81818	0.1	1.1872e-003
28861	8.746	0.72727	0.1	-5.2367e-003
28862	8.654	1.	0.1	2.4151e-002
28863	8.746	0.90909	0.1	9.355e-003
28864	8.654	1.1818	0.1	6.5221e-002
28865	8.746	1.0909	0.1	3.9272e-002
28866	8.654	1.3636	0.1	0.14353
28867	8.746	1.2727	0.1	8.6848e-002
28868	8.654	1.5455	0.1	0.37968
28869	8.746	1.4545	0.1	0.17614
28870	8.654	1.7273	0.1	3.7842
28871	8.746	1.6364	0.1	0.44143
28872	8.654	1.9091	0.1	16.19
28873	8.746	1.8182	0.1	4.1272
28874	8.654	2.0909	0.1	29.251
28875	8.746	2.	0.1	17.356
28876	8.654	2.2727	0.1	41.416
28877	8.746	2.1818	0.1	30.924
28878	8.654	2.4545	0.1	51.826
28879	8.746	2.3636	0.1	43.13
28880	8.654	2.6364	0.1	59.788
28881	8.746	2.5455	0.1	53.084
28882	8.654	2.8182	0.1	64.781
28883	8.746	2.7273	0.1	60.111
28884	8.654	3.	0.1	66.482
28885	8.746	2.9091	0.1	63.743
28886	8.654	3.1818	0.1	64.781
28887	8.746	3.0909	0.1	63.743
28888	8.654	3.3636	0.1	59.788
28889	8.746	3.2727	0.1	60.111
28890	8.654	3.5455	0.1	51.826
28891	8.746	3.4545	0.1	53.084
28892	8.654	3.7273	0.1	41.416
28893	8.746	3.6364	0.1	43.129
28894	8.654	3.9091	0.1	29.251
28895	8.746	3.8182	0.1	30.924
28896	8.654	4.0909	0.1	16.19
28897	8.746	4.	0.1	17.356
28898	8.654	4.2727	0.1	3.7841
28899	8.746	4.1818	0.1	4.1271
28900	8.654	4.4545	0.1	0.37968
28901	8.746	4.3636	0.1	0.44143
28902	8.654	4.6364	0.1	0.14353
28903	8.746	4.5455	0.1	0.17614
28904	8.654	4.8182	0.1	6.5221e-002
28905	8.746	4.7273	0.1	8.6848e-002
28906	8.654	5.	0.1	2.4152e-002
28907	8.746	4.9091	0.1	3.9273e-002
28908	8.654	5.1818	0.1	1.1884e-003
28909	8.746	5.0909	0.1	9.3564e-003
28910	8.654	5.3636	0.1	-1.3373e-002
28911	8.746	5.2727	0.1	-5.2356e-003
28912	8.654	5.5455	0.1	1.0714e-002
28913	8.746	5.4545	0.1	-1.9461e-002
28914	8.654	5.7273	0.1	3.2776e-002
28915	8.746	5.6364	0.1	5.3883e-002
28916	8.746	5.8182	0.1	5.2079e-002
28917	8.654	5.9091	0.1	-1.4695e-002
28918	8.8381	0.27273	0.1	4.3182e-002
28919	8.9302	0.18182	0.1	6.6729e-002
28920	8.8381	9.0909e-002	0.1	-6.4631e-003
28921	8.8381	0.45455	0.1	1.6839e-002
28922	8.9302	0.36364	0.1	6.9961e-002
28923	8.8381	0.63636	0.1	-1.4841e-002
28924	8.9302	0.54545	0.1	-2.1568e-002
28925	8.8381	0.81818	0.1	2.3016e-004
28926	8.9302	0.72727	0.1	-4.7729e-003
28927	8.8381	1.	0.1	2.1635e-002
28928	8.9302	0.90909	0.1	9.5933e-003
28929	8.8381	1.1818	0.1	5.7022e-002
28930	8.9302	1.0909	0.1	3.8818e-002
28931	8.8381	1.3636	0.1	0.11238
28932	8.9302	1.2727	0.1	8.0743e-002
28933	8.8381	1.5455	0.1	0.21601
28934	8.9302	1.4545	0.1	0.14604
28935	8.8381	1.7273	0.1	0.53801
28936	8.9302	1.6364	0.1	0.26908
28937	8.8381	1.9091	0.1	5.1526
28938	8.9302	1.8182	0.1	0.67506
28939	8.8381	2.0909	0.1	19.014
28940	8.9302	2.	0.1	6.53
28941	8.8381	2.2727	0.1	32.63
28942	8.9302	2.1818	0.1	21.185
28943	8.8381	2.4545	0.1	44.383
28944	8.9302	2.3636	0.1	34.932
28945	8.8381	2.6364	0.1	53.404
28946	8.9302	2.5455	0.1	46.218
28947	8.8381	2.8182	0.1	59.071
28948	8.9302	2.7273	0.1	54.204
28949	8.8381	3.	0.1	61.003
28950	8.9302	2.9091	0.1	58.335
28951	8.8381	3.1818	0.1	59.071
28952	8.9302	3.0909	0.1	58.335
28953	8.8381	3.3636	0.1	53.404
28954	8.9302	3.2727	0.1	54.204
28955	8.8381	3.5455	0.1	44.382
28956	8.9302	3.4545	0.1	46.218
28957	8.8381	3.7273	0.1	32.63
28958	8.9302	3.6364	0.1	34.932
28959	8.8381	3.9091	0.1	19.014
28960	8.9302	3.8182	0.1	21.185
28961	8.8381	4.0909	0.1	5.1525
28962	8.9302	4.	0.1	6.5299
28963	8.8381	4.2727	0.1	0.538
28964	8.9302	4.1818	0.1	0.67506
28965	8.8381	4.4545	0.1	0.21601
28966	8.9302	4.3636	0.1	0.26908
28967	8.8381	4.6364	0.1	0.11239
28968	8.9302	4.5455	0.1	0.14604
28969	8.8381	4.8182	0.1	5.7023e-002
28970	8.9302	4.7273	0.1	8.0743e-002
28971	8.8381	5.	0.1	2.1636e-002
28972	8.9302	4.9091	0.1	3.8819e-002
28973	8.8381	5.1818	0.1	2.3139e-004
28974	8.9302	5.0909	0.1	9.5947e-003
28975	8.8381	5.3636	0.1	-1.484e-002
28976	8.9302	5.2727	0.1	-4.7719e-003
28977	8.8381	5.5455	0.1	1.684e-002
28978	8.9302	5.4545	0.1	-2.1567e-002
28979	8.8381	5.7273	0.1	4.3183e-002
28980	8.9302	5.6364	0.1	6.9962e-002
28981	8.9302	5.8182	0.1	6.673e-002
28982	8.8381	5.9091	0.1	-6.4618e-003
28983	9.0222	0.27273	0.1	5.2539e-002
28984	9.1143	0.18182	0.1	7.8338e-002
28985	9.0222	9.0909e-002	0.1	2.4511e-003
28986	9.0222	0.45455	0.1	2.3309e-002
28987	9.1143	0.36364	0.1	8.6489e-002
28988	9.0222	0.63636	0.1	-1.5481e-002
28989	9.1143	0.54545	0.1	-2.3545e-002
28990	9.0222	0.81818	0.1	1.6998e-003
28991	9.1143	0.72727	0.1	-2.5432e-003
28992	9.0222	1.	0.1	2.3889e-002
28993	9.1143	0.90909	0.1	1.3108e-002
28994	9.0222	1.1818	0.1	5.8752e-002
28995	9.1143	1.0909	0.1	4.4054e-002
28996	9.0222	1.3636	0.1	0.10805
28997	9.1143	1.2727	0.1	8.5571e-002
28998	9.0222	1.5455	0.1	0.18421
28999	9.1143	1.4545	0.1	0.14419
29000	9.0222	1.7273	0.1	0.33169
29001	9.1143	1.6364	0.1	0.23495
29002	9.0222	1.9091	0.1	0.87862
29003	9.1143	1.8182	0.1	0.41787
29004	9.0222	2.0909	0.1	8.5082
29005	9.1143	2.	0.1	1.2091
29006	9.0222	2.2727	0.1	23.46
29007	9.1143	2.1818	0.1	11.003
29008	9.0222	2.4545	0.1	36.756
29009	9.1143	2.3636	0.1	26.284
29010	9.0222	2.6364	0.1	47.011
29011	9.1143	2.5455	0.1	39.089
29012	9.0222	2.8182	0.1	53.464
29013	9.1143	2.7273	0.1	48.175
29014	9.0222	3.	0.1	55.664
29015	9.1143	2.9091	0.1	52.879
29016	9.0222	3.1818	0.1	53.464
29017	9.1143	3.0909	0.1	52.879
29018	9.0222	3.3636	0.1	47.011
29019	9.1143	3.2727	0.1	48.175
29020	9.0222	3.5455	0.1	36.756
29021	9.1143	3.4545	0.1	39.089
29022	9.0222	3.7273	0.1	23.46
29023	9.1143	3.6364	0.1	26.284
29024	9.0222	3.9091	0.1	8.5081
29025	9.1143	3.8182	0.1	11.003
29026	9.0222	4.0909	0.1	0.8786
29027	9.1143	4.	0.1	1.2091
29028	9.0222	4.2727	0.1	0.33169
29029	9.1143	4.1818	0.1	0.41787
29030	9.0222	4.4545	0.1	0.18421
29031	9.1143	4.3636	0.1	0.23495
29032	9.0222	4.6364	0.1	0.10805
29033	9.1143	4.5455	0.1	0.14419
29034	9.0222	4.8182	0.1	5.8752e-002
29035	9.1143	4.7273	0.1	8.5571e-002
29036	9.0222	5.	0.1	2.3889e-002
29037	9.1143	4.9091	0.1	4.4055e-002
29038	9.0222	5.1818	0.1	1.701e-003
29039	9.1143	5.0909	0.1	1.3109e-002
29040	9.0222	5.3636	0.1	-1.548e-002
29041	9.1143	5.2727	0.1	-2.5423e-003
29042	9.0222	5.5455	0.1	2.331e-002
29043	9.1143	5.4545	0.1	-2.3545e-002
29044	9.0222	5.7273	0.1	5.254e-002
29045	9.1143	5.6364	0.1	8.649e-002
29046	9.1143	5.8182	0.1	7.8339e-002
29047	9.0222	5.9091	0.1	2.4522e-003
29048	9.2063	0.27273	0.1	5.9474e-002
29049	9.2984	0.18182	0.1	8.333e-002
29050	9.2063	9.0909e-002	0.1	1.1652e-002
29051	9.2063	0.45455	0.1	2.9919e-002
29052	9.2984	0.36364	0.1	0.10271
29053	9.2063	0.63636	0.1	-1.5097e-002
29054	9.2984	0.54545	0.1	-2.5231e-002
29055	9.2063	0.81818	0.1	5.7664e-003
29056	9.2984	0.72727	0.1	1.9252e-003
29057	9.2063	1.	0.1	3.0332e-002
29058	9.2984	0.90909	0.1	2.0311e-002
29059	9.2063	1.1818	0.1	6.7223e-002
29060	9.2984	1.0909	0.1	5.4643e-002
29061	9.2063	1.3636	0.1	0.11609
29062	9.2984	1.2727	0.1	9.8344e-002
29063	9.2063	1.5455	0.1	0.18408
29064	9.2984	1.4545	0.1	0.15634
29065	9.2063	1.7273	0.1	0.29065
29066	9.2984	1.6364	0.1	0.23675
29067	9.2063	1.9091	0.1	0.51804
29068	9.2984	1.8182	0.1	0.36562
29069	9.2063	2.0909	0.1	1.7472
29070	9.2984	2.	0.1	0.6625
29071	9.2063	2.2727	0.1	13.688
29072	9.2984	2.1818	0.1	2.7796
29073	9.2063	2.4545	0.1	28.588
29074	9.2984	2.3636	0.1	16.85
29075	9.2063	2.6364	0.1	40.24
29076	9.2984	2.5455	0.1	31.261
29077	9.2063	2.8182	0.1	47.583
29078	9.2984	2.7273	0.1	41.571
29079	9.2063	3.	0.1	50.088
29080	9.2984	2.9091	0.1	46.908
29081	9.2063	3.1818	0.1	47.583
29082	9.2984	3.0909	0.1	46.908
29083	9.2063	3.3636	0.1	40.24
29084	9.2984	3.2727	0.1	41.571
29085	9.2063	3.5455	0.1	28.588
29086	9.2984	3.4545	0.1	31.261
29087	9.2063	3.7273	0.1	13.688
29088	9.2984	3.6364	0.1	16.85
29089	9.2063	3.9091	0.1	1.7472
29090	9.2984	3.8182	0.1	2.7795
29091	9.2063	4.0909	0.1	0.51803
29092	9.2984	4.	0.1	0.66249
29093	9.2063	4.2727	0.1	0.29065
29094	9.2984	4.1818	0.1	0.36562
29095	9.2063	4.4545	0.1	0.18408
29096	9.2984	4.3636	0.1	0.23675
29097	9.2063	4.6364	0.1	0.11609
29098	9.2984	4.5455	0.1	0.15634
29099	9.2063	4.8182	0.1	6.7223e-002
29100	9.2984	4.7273	0.1	9.8345e-002
29101	9.2063	5.	0.1	3.0333e-002
29102	9.2984	4.9091	0.1	5.4643e-002
29103	9.2063	5.1818	0.1	5.7678e-003
29104	9.2984	5.0909	0.1	2.0313e-002
29105	9.2063	5.3636	0.1	-1.5096e-002
29106	9.2984	5.2727	0.1	1.9263e-003
29107	9.2063	5.5455	0.1	2.992e-002
29108	9.2984	5.4545	0.1	-2.523e-002
29109	9.2063	5.7273	0.1	5.9476e-002
29110	9.2984	5.6364	0.1	0.10271
29111	9.2984	5.8182	0.1	8.3332e-002
29112	9.2063	5.9091	0.1	1.1654e-002
29113	9.3905	0.27273	0.1	6.194e-002
29114	9.4825	0.18182	0.1	7.654e-002
29115	9.3905	9.0909e-002	0.1	2.0542e-002
29116	9.3905	0.45455	0.1	3.6372e-002
29117	9.4825	0.36364	0.1	0.11736
29118	9.3905	0.63636	0.1	-1.3203e-002
29119	9.4825	0.54545	0.1	-2.6289e-002
29120	9.3905	0.81818	0.1	1.3174e-002
29121	9.4825	0.72727	0.1	9.4867e-003
29122	9.3905	1.	0.1	4.1614e-002
29123	9.4825	0.90909	0.1	3.2269e-002
29124	9.3905	1.1818	0.1	8.2194e-002
29125	9.4825	1.0909	0.1	7.1401e-002
29126	9.3905	1.3636	0.1	0.13339
29127	9.4825	1.2727	0.1	0.11891
29128	9.3905	1.5455	0.1	0.20002
29129	9.4825	1.4545	0.1	0.17922
29130	9.3905	1.7273	0.1	0.2923
29131	9.4825	1.6364	0.1	0.2571
29132	9.3905	1.9091	0.1	0.44388
29133	9.4825	1.8182	0.1	0.36568
29134	9.3905	2.0909	0.1	0.82852
29135	9.4825	2.	0.1	0.55026
29136	9.3905	2.2727	0.1	4.403
29137	9.4825	2.1818	0.1	1.0817
29138	9.3905	2.4545	0.1	19.434
29139	9.4825	2.3636	0.1	6.8858
29140	9.3905	2.6364	0.1	32.569
29141	9.4825	2.5455	0.1	22.16
29142	9.3905	2.8182	0.1	40.887
29143	9.4825	2.7273	0.1	33.739
29144	9.3905	3.	0.1	43.724
29145	9.4825	2.9091	0.1	39.744
29146	9.3905	3.1818	0.1	40.887
29147	9.4825	3.0909	0.1	39.744
29148	9.3905	3.3636	0.1	32.568
29149	9.4825	3.2727	0.1	33.739
29150	9.3905	3.5455	0.1	19.434
29151	9.4825	3.4545	0.1	22.16
29152	9.3905	3.7273	0.1	4.4029
29153	9.4825	3.6364	0.1	6.8857
29154	9.3905	3.9091	0.1	0.82852
29155	9.4825	3.8182	0.1	1.0817
29156	9.3905	4.0909	0.1	0.44388
29157	9.4825	4.	0.1	0.55025
29158	9.3905	4.2727	0.1	0.2923
29159	9.4825	4.1818	0.1	0.36568
29160	9.3905	4.4545	0.1	0.20002
29161	9.4825	4.3636	0.1	0.2571
29162	9.3905	4.6364	0.1	0.13339
29163	9.4825	4.5455	0.1	0.17922
29164	9.3905	4.8182	0.1	8.2194e-002
29165	9.4825	4.7273	0.1	0.11891
29166	9.3905	5.	0.1	4.1615e-002
29167	9.4825	4.9091	0.1	7.1401e-002
29168	9.3905	5.1818	0.1	1.3175e-002
29169	9.4825	5.0909	0.1	3.227e-002
29170	9.3905	5.3636	0.1	-1.3202e-002
29171	9.4825	5.2727	0.1	9.488e-003
29172	9.3905	5.5455	0.1	3.6373e-002
29173	9.4825	5.4545	0.1	-2.6288e-002
29174	9.3905	5.7273	0.1	6.1942e-002
29175	9.4825	5.6364	0.1	0.11737
29176	9.4825	5.8182	0.1	7.6541e-002
29177	9.3905	5.9091	0.1	2.0543e-002
29178	9.5746	0.27273	0.1	5.7014e-002
29179	9.6667	0.18182	0.1	5.1029e-002
29180	9.5746	9.0909e-002	0.1	2.8199e-002
29181	9.5746	0.45455	0.1	4.2208e-002
29182	9.6667	0.36364	0.1	0.12854
29183	9.5746	0.63636	0.1	-9.0154e-003
29184	9.6667	0.54545	0.1	-2.6184e-002
29185	9.5746	0.81818	0.1	2.5159e-002
29186	9.6667	0.72727	0.1	2.1394e-002
29187	9.5746	1.	0.1	5.9049e-002
29188	9.6667	0.90909	0.1	5.0646e-002
29189	9.5746	1.1818	0.1	0.10462
29190	9.6667	1.0909	0.1	9.5918e-002
29191	9.5746	1.3636	0.1	0.15977
29192	9.6667	1.2727	0.1	0.14829
29193	9.5746	1.5455	0.1	0.22822
29194	9.6667	1.4545	0.1	0.21243
29195	9.5746	1.7273	0.1	0.31545
29196	9.6667	1.6364	0.1	0.29122
29197	9.5746	1.9091	0.1	0.43668
29198	9.6667	1.8182	0.1	0.39078
29199	9.5746	2.0909	0.1	0.64985
29200	9.6667	2.	0.1	0.52857
29201	9.5746	2.2727	0.1	1.3555
29202	9.6667	2.1818	0.1	0.78036
29203	9.5746	2.4545	0.1	9.0947
29204	9.6667	2.3636	0.1	1.7649
29205	9.5746	2.6364	0.1	23.281
29206	9.6667	2.5455	0.1	11.237
29207	9.5746	2.8182	0.1	32.587
29208	9.6667	2.7273	0.1	23.755
29209	9.5746	3.	0.1	35.764
29210	9.6667	2.9091	0.1	30.385
29211	9.5746	3.1818	0.1	32.587
29212	9.6667	3.0909	0.1	30.385
29213	9.5746	3.3636	0.1	23.281
29214	9.6667	3.2727	0.1	23.755
29215	9.5746	3.5455	0.1	9.0946
29216	9.6667	3.4545	0.1	11.237
29217	9.5746	3.7273	0.1	1.3555
29218	9.6667	3.6364	0.1	1.7648
29219	9.5746	3.9091	0.1	0.64985
29220	9.6667	3.8182	0.1	0.78036
29221	9.5746	4.0909	0.1	0.43668
29222	9.6667	4.	0.1	0.52856
29223	9.5746	4.2727	0.1	0.31545
29224	9.6667	4.1818	0.1	0.39078
29225	9.5746	4.4545	0.1	0.22822
29226	9.6667	4.3636	0.1	0.29122
29227	9.5746	4.6364	0.1	0.15977
29228	9.6667	4.5455	0.1	0.21243
29229	9.5746	4.8182	0.1	0.10462
29230	9.6667	4.7273	0.1	0.14829
29231	9.5746	5.	0.1	5.905e-002
29232	9.6667	4.9091	0.1	9.5919e-002
29233	9.5746	5.1818	0.1	2.5161e-002
29234	9.6667	5.0909	0.1	5.0648e-002
29235	9.5746	5.3636	0.1	-9.0144e-003
29236	9.6667	5.2727	0.1	2.1395e-002
29237	9.5746	5.5455	0.1	4.2209e-002
29238	9.6667	5.4545	0.1	-2.6183e-002
29239	9.5746	5.7273	0.1	5.7016e-002
29240	9.6667	5.6364	0.1	0.12855
29241	9.6667	5.8182	0.1	5.103e-002
29242	9.5746	5.9091	0.1	2.82e-002
29243	9.7587	0.27273	0.1	4.0812e-002
29244	9.8508	0.18182	0.1	-1.5153e-003
29245	9.7587	9.0909e-002	0.1	3.3254e-002
29246	9.7587	0.45455	0.1	4.6754e-002
29247	9.8508	0.36364	0.1	0.13356
29248	9.7587	0.63636	0.1	-1.3983e-003
29249	9.8508	0.54545	0.1	-2.4072e-002
29250	9.7587	0.81818	0.1	4.3504e-002
29251	9.8508	0.72727	0.1	3.9392e-002
29252	9.7587	1.	0.1	8.4653e-002
29253	9.8508	0.90909	0.1	7.7817e-002
29254	9.7587	1.1818	0.1	0.13625
29255	9.8508	1.0909	0.1	0.13061
29256	9.7587	1.3636	0.1	0.19616
29257	9.8508	1.2727	0.1	0.18852
29258	9.7587	1.5455	0.1	0.26779
29259	9.8508	1.4545	0.1	0.25711
29260	9.7587	1.7273	0.1	0.35357
29261	9.8508	1.6364	0.1	0.33844
29262	9.7587	1.9091	0.1	0.45827
29263	9.8508	1.8182	0.1	0.43337
29264	9.7587	2.0909	0.1	0.5998
29265	9.8508	2.	0.1	0.54366
29266	9.7587	2.2727	0.1	0.86395
29267	9.8508	2.1818	0.1	0.68345
29268	9.7587	2.4545	0.1	2.0253
29269	9.8508	2.3636	0.1	0.93897
29270	9.7587	2.6364	0.1	11.559
29271	9.8508	2.5455	0.1	2.127
29272	9.7587	2.8182	0.1	21.549
29273	9.8508	2.7273	0.1	10.469
29274	9.7587	3.	0.1	25.023
29275	9.8508	2.9091	0.1	17.37
29276	9.7587	3.1818	0.1	21.549
29277	9.8508	3.0909	0.1	17.37
29278	9.7587	3.3636	0.1	11.559
29279	9.8508	3.2727	0.1	10.469
29280	9.7587	3.5455	0.1	2.0252
29281	9.8508	3.4545	0.1	2.127
29282	9.7587	3.7273	0.1	0.86394
29283	9.8508	3.6364	0.1	0.93896
29284	9.7587	3.9091	0.1	0.5998
29285	9.8508	3.8182	0.1	0.68345
29286	9.7587	4.0909	0.1	0.45827
29287	9.8508	4.	0.1	0.54366
29288	9.7587	4.2727	0.1	0.35357
29289	9.8508	4.1818	0.1	0.43337
29290	9.7587	4.4545	0.1	0.26779
29291	9.8508	4.3636	0.1	0.33844
29292	9.7587	4.6364	0.1	0.19616
29293	9.8508	4.5455	0.1	0.25711
29294	9.7587	4.8182	0.1	0.13625
29295	9.8508	4.7273	0.1	0.18852
29296	9.7587	5.	0.1	8.4654e-002
29297	9.8508	4.9091	0.1	0.13061
29298	9.7587	5.1818	0.1	4.3505e-002
29299	9.8508	5.0909	0.1	7.7819e-002
29300	9.7587	5.3636	0.1	-1.3978e-003
29301	9.8508	5.2727	0.1	3.9393e-002
29302	9.7587	5.5455	0.1	4.6754e-002
29303	9.8508	5.4545	0.1	-2.4071e-002
29304	9.7587	5.7273	0.1	4.0814e-002
29305	9.8508	5.6364	0.1	0.13356
29306	9.8508	5.8182	0.1	-1.5138e-003
29307	9.7587	5.9091	0.1	3.3255e-002
29308	9.9429	0.27273	0.1	8.8124e-003
29309	10.035	0.18182	0.1	-8.933e-002
29310	9.9429	9.0909e-002	0.1	3.3857e-002
29311	9.9429	0.45455	0.1	4.9232e-002
29312	10.035	0.36364	0.1	0.12894
29313	9.9429	0.63636	0.1	1.1317e-002
29314	10.035	0.54545	0.1	-1.883e-002
29315	9.9429	0.81818	0.1	7.0704e-002
29316	10.035	0.72727	0.1	6.5506e-002
29317	9.9429	1.	0.1	0.12133
29318	10.035	0.90909	0.1	0.11668
29319	9.9429	1.1818	0.1	0.1799
29320	10.035	1.0909	0.1	0.17869
29321	9.9429	1.3636	0.1	0.2449
29322	10.035	1.2727	0.1	0.2423
29323	9.9429	1.5455	0.1	0.32029
29324	10.035	1.4545	0.1	0.31447
29325	9.9429	1.7273	0.1	0.40616
29326	10.035	1.6364	0.1	0.39708
29327	9.9429	1.9091	0.1	0.4994
29328	10.035	1.8182	0.1	0.48775
29329	9.9429	2.0909	0.1	0.59533
29330	10.035	2.	0.1	0.5727
29331	9.9429	2.2727	0.1	0.69862
29332	10.035	2.1818	0.1	0.63828
29333	9.9429	2.4545	0.1	0.8619
29334	10.035	2.3636	0.1	0.67234
29335	9.9429	2.6364	0.1	1.4993
29336	10.035	2.5455	0.1	0.66486
29337	9.9429	2.8182	0.1	6.359
29338	10.035	2.7273	0.1	0.59701
29339	9.9429	3.	0.1	9.7539
29340	10.035	2.9091	0.1	0.27434
29341	9.9429	3.1818	0.1	6.359
29342	10.035	3.0909	0.1	0.27434
29343	9.9429	3.3636	0.1	1.4993
29344	10.035	3.2727	0.1	0.59701
29345	9.9429	3.5455	0.1	0.86189
29346	10.035	3.4545	0.1	0.66485
29347	9.9429	3.7273	0.1	0.69862
29348	10.035	3.6364	0.1	0.67234
29349	9.9429	3.9091	0.1	0.59533
29350	10.035	3.8182	0.1	0.63828
29351	9.9429	4.0909	0.1	0.4994
29352	10.035	4.	0.1	0.5727
29353	9.9429	4.2727	0.1	0.40616
29354	10.035	4.1818	0.1	0.48775
29355	9.9429	4.4545	0.1	0.32029
29356	10.035	4.3636	0.1	0.39708
29357	9.9429	4.6364	0.1	0.2449
29358	10.035	4.5455	0.1	0.31447
29359	9.9429	4.8182	0.1	0.1799
29360	10.035	4.7273	0.1	0.2423
29361	9.9429	5.	0.1	0.12133
29362	10.035	4.9091	0.1	0.17869
29363	9.9429	5.1818	0.1	7.0705e-002
29364	10.035	5.0909	0.1	0.11668
29365	9.9429	5.3636	0.1	1.1318e-002
29366	10.035	5.2727	0.1	6.5507e-002
29367	9.9429	5.5455	0.1	4.9234e-002
29368	10.035	5.4545	0.1	-1.883e-002
29369	9.9429	5.7273	0.1	8.8136e-003
29370	10.035	5.6364	0.1	0.12894
29371	10.035	5.8182	0.1	-8.9329e-002
29372	9.9429	5.9091	0.1	3.3858e-002
29373	10.127	0.27273	0.1	-4.3359e-002
29374	10.219	0.18182	0.1	-0.21539
29375	10.127	9.0909e-002	0.1	2.7189e-002
29376	10.127	0.45455	0.1	4.8677e-002
29377	10.219	0.36364	0.1	0.11232
29378	10.127	0.63636	0.1	3.0949e-002
29379	10.219	0.54545	0.1	-7.6201e-003
29380	10.127	0.81818	0.1	0.1094
29381	10.219	0.72727	0.1	0.10301
29382	10.127	1.	0.1	0.17245
29383	10.219	0.90909	0.1	0.17163
29384	10.127	1.1818	0.1	0.23882
29385	10.219	1.0909	0.1	0.24532
29386	10.127	1.3636	0.1	0.30771
29387	10.219	1.2727	0.1	0.3156
29388	10.127	1.5455	0.1	0.38385
29389	10.219	1.4545	0.1	0.39236
29390	10.127	1.7273	0.1	0.46675
29391	10.219	1.6364	0.1	0.47881
29392	10.127	1.9091	0.1	0.54404
29393	10.219	1.8182	0.1	0.56168
29394	10.127	2.0909	0.1	0.59518
29395	10.219	2.	0.1	0.6262
29396	10.127	2.2727	0.1	0.59822
29397	10.219	2.1818	0.1	0.62063
29398	10.127	2.4545	0.1	0.52305
29399	10.219	2.3636	0.1	0.50448
29400	10.127	2.6364	0.1	0.33322
29401	10.219	2.5455	0.1	0.28388
29402	10.127	2.8182	0.1	4.4807e-003
29403	10.219	2.7273	0.1	-9.1082e-003
29404	10.127	3.	0.1	-0.23936
29405	10.219	2.9091	0.1	-0.25131
29406	10.127	3.1818	0.1	4.4808e-003
29407	10.219	3.0909	0.1	-0.25131
29408	10.127	3.3636	0.1	0.33322
29409	10.219	3.2727	0.1	-9.108e-003
29410	10.127	3.5455	0.1	0.52305
29411	10.219	3.4545	0.1	0.28387
29412	10.127	3.7273	0.1	0.59822
29413	10.219	3.6364	0.1	0.50447
29414	10.127	3.9091	0.1	0.59518
29415	10.219	3.8182	0.1	0.62063
29416	10.127	4.0909	0.1	0.54404
29417	10.219	4.	0.1	0.6262
29418	10.127	4.2727	0.1	0.46675
29419	10.219	4.1818	0.1	0.56168
29420	10.127	4.4545	0.1	0.38385
29421	10.219	4.3636	0.1	0.47881
29422	10.127	4.6364	0.1	0.30772
29423	10.219	4.5455	0.1	0.39236
29424	10.127	4.8182	0.1	0.23883
29425	10.219	4.7273	0.1	0.3156
29426	10.127	5.	0.1	0.17245
29427	10.219	4.9091	0.1	0.24532
29428	10.127	5.1818	0.1	0.1094
29429	10.219	5.0909	0.1	0.17164
29430	10.127	5.3636	0.1	3.095e-002
29431	10.219	5.2727	0.1	0.10301
29432	10.127	5.5455	0.1	4.8678e-002
29433	10.219	5.4545	0.1	-7.6193e-003
29434	10.127	5.7273	0.1	-4.3358e-002
29435	10.219	5.6364	0.1	0.11232
29436	10.219	5.8182	0.1	-0.21539
29437	10.127	5.9091	0.1	2.719e-002
29438	10.311	0.27273	0.1	-0.11428
29439	10.403	0.18182	0.1	-0.37043
29440	10.311	9.0909e-002	0.1	1.2147e-002
29441	10.311	0.45455	0.1	4.751e-002
29442	10.403	0.36364	0.1	8.3158e-002
29443	10.311	0.63636	0.1	6.2333e-002
29444	10.403	0.54545	0.1	1.2453e-002
29445	10.311	0.81818	0.1	0.1649
29446	10.403	0.72727	0.1	0.15278
29447	10.311	1.	0.1	0.24438
29448	10.403	0.90909	0.1	0.24303
29449	10.311	1.1818	0.1	0.32111
29450	10.403	1.0909	0.1	0.33328
29451	10.311	1.3636	0.1	0.397
29452	10.403	1.2727	0.1	0.41645
29453	10.311	1.5455	0.1	0.48008
29454	10.403	1.4545	0.1	0.48957
29455	10.311	1.7273	0.1	0.56138
29456	10.403	1.6364	0.1	0.55074
29457	10.311	1.9091	0.1	0.62748
29458	10.403	1.8182	0.1	0.62837
29459	10.311	2.0909	0.1	0.63675
29460	10.403	2.	0.1	0.61413
29461	10.311	2.2727	0.1	0.52589
29462	10.403	2.1818	0.1	0.50494
29463	10.311	2.4545	0.1	0.29849
29464	10.403	2.3636	0.1	0.31392
29465	10.311	2.6364	0.1	1.4952e-002
29466	10.403	2.5455	0.1	1.6817e-002
29467	10.311	2.8182	0.1	-0.23448
29468	10.403	2.7273	0.1	-0.2465
29469	10.311	3.	0.1	-0.33635
29470	10.403	2.9091	0.1	-0.37933
29471	10.311	3.1818	0.1	-0.23448
29472	10.403	3.0909	0.1	-0.37933
29473	10.311	3.3636	0.1	1.4953e-002
29474	10.403	3.2727	0.1	-0.2465
29475	10.311	3.5455	0.1	0.29849
29476	10.403	3.4545	0.1	1.6817e-002
29477	10.311	3.7273	0.1	0.52589
29478	10.403	3.6364	0.1	0.31392
29479	10.311	3.9091	0.1	0.63675
29480	10.403	3.8182	0.1	0.50494
29481	10.311	4.0909	0.1	0.62748
29482	10.403	4.	0.1	0.61413
29483	10.311	4.2727	0.1	0.56138
29484	10.403	4.1818	0.1	0.62836
29485	10.311	4.4545	0.1	0.48008
29486	10.403	4.3636	0.1	0.55074
29487	10.311	4.6364	0.1	0.397
29488	10.403	4.5455	0.1	0.48957
29489	10.311	4.8182	0.1	0.32111
29490	10.403	4.7273	0.1	0.41645
29491	10.311	5.	0.1	0.24438
29492	10.403	4.9091	0.1	0.33328
29493	10.311	5.1818	0.1	0.16491
29494	10.403	5.0909	0.1	0.24304
29495	10.311	5.3636	0.1	6.2333e-002
29496	10.403	5.2727	0.1	0.15278
29497	10.311	5.5455	0.1	4.7511e-002
29498	10.403	5.4545	0.1	1.2454e-002
29499	10.311	5.7273	0.1	-0.11428
29500	10.403	5.6364	0.1	8.3159e-002
29501	10.403	5.8182	0.1	-0.37043
29502	10.311	5.9091	0.1	1.2148e-002
29503	10.495	0.27273	0.1	-0.19546
29504	10.587	0.18182	0.1	-0.49911
29505	10.495	9.0909e-002	0.1	-1.8083e-002
29506	10.495	0.45455	0.1	4.736e-002
29507	10.587	0.36364	0.1	6.5689e-002
29508	10.495	0.63636	0.1	0.10519
29509	10.587	0.54545	0.1	6.3133e-002
29510	10.495	0.81818	0.1	0.23332
29511	10.587	0.72727	0.1	0.22728
29512	10.495	1.	0.1	0.33389
29513	10.587	0.90909	0.1	0.34357
29514	10.495	1.1818	0.1	0.42965
29515	10.587	1.0909	0.1	0.46154
29516	10.495	1.3636	0.1	0.50756
29517	10.587	1.2727	0.1	0.55974
29518	10.495	1.5455	0.1	0.55369
29519	10.587	1.4545	0.1	0.66525
29520	10.495	1.7273	0.1	0.60443
29521	10.587	1.6364	0.1	0.83814
29522	10.495	1.9091	0.1	0.59774
29523	10.587	1.8182	0.1	0.79076
29524	10.495	2.0909	0.1	0.46945
29525	10.587	2.	0.1	0.8362
29526	10.495	2.2727	0.1	0.29395
29527	10.587	2.1818	0.1	0.62812
29528	10.495	2.4545	0.1	4.7514e-002
29529	10.587	2.3636	0.1	2.7306e-002
29530	10.495	2.6364	0.1	-0.23251
29531	10.587	2.5455	0.1	-0.30295
29532	10.495	2.8182	0.1	-0.40542
29533	10.587	2.7273	0.1	-0.44936
29534	10.495	3.	0.1	-0.45421
29535	10.587	2.9091	0.1	-0.5052
29536	10.495	3.1818	0.1	-0.40542
29537	10.587	3.0909	0.1	-0.5052
29538	10.495	3.3636	0.1	-0.23251
29539	10.587	3.2727	0.1	-0.44936
29540	10.495	3.5455	0.1	4.7514e-002
29541	10.587	3.4545	0.1	-0.30295
29542	10.495	3.7273	0.1	0.29395
29543	10.587	3.6364	0.1	2.7306e-002
29544	10.495	3.9091	0.1	0.46945
29545	10.587	3.8182	0.1	0.62812
29546	10.495	4.0909	0.1	0.59774
29547	10.587	4.	0.1	0.8362
29548	10.495	4.2727	0.1	0.60443
29549	10.587	4.1818	0.1	0.79076
29550	10.495	4.4545	0.1	0.55369
29551	10.587	4.3636	0.1	0.83814
29552	10.495	4.6364	0.1	0.50756
29553	10.587	4.5455	0.1	0.66525
29554	10.495	4.8182	0.1	0.42965
29555	10.587	4.7273	0.1	0.55974
29556	10.495	5.	0.1	0.33389
29557	10.587	4.9091	0.1	0.46154
29558	10.495	5.1818	0.1	0.23332
29559	10.587	5.0909	0.1	0.34357
29560	10.495	5.3636	0.1	0.10519
29561	10.587	5.2727	0.1	0.22728
29562	10.495	5.5455	0.1	4.7361e-002
29563	10.587	5.4545	0.1	6.3134e-002
29564	10.495	5.7273	0.1	-0.19546
29565	10.587	5.6364	0.1	6.569e-002
29566	10.587	5.8182	0.1	-0.49911
29567	10.495	5.9091	0.1	-1.8082e-002
29568	10.679	0.27273	0.1	-0.21576
29569	10.771	0.18182	0.1	-0.50215
29570	10.679	9.0909e-002	0.1	-3.4057e-002
29571	10.679	0.45455	0.1	9.538e-002
29572	10.771	0.36364	0.1	8.7382e-002
29573	10.679	0.63636	0.1	0.19473
29574	10.771	0.54545	0.1	0.14333
29575	10.679	0.81818	0.1	0.34337
29576	10.771	0.72727	0.1	0.29689
29577	10.679	1.	0.1	0.47533
29578	10.771	0.90909	0.1	0.42291
29579	10.679	1.1818	0.1	0.59515
29580	10.771	1.0909	0.1	0.55411
29581	10.679	1.3636	0.1	0.7193
29582	10.771	1.2727	0.1	0.74332
29583	10.679	1.5455	0.1	0.94572
29584	10.771	1.4545	0.1	0.96226
29585	10.679	1.7273	0.1	1.0101
29586	10.771	1.6364	0.1	0.52503
29587	10.679	1.9091	0.1	1.0091
29588	10.771	1.8182	0.1	0.81925
29589	10.679	2.0909	0.1	0.98021
29590	10.771	2.	0.1	-0.13712
29591	10.679	2.2727	0.1	0.35548
29592	10.771	2.1818	0.1	-0.84933
29593	10.679	2.4545	0.1	-0.32489
29594	10.771	2.3636	0.1	-0.3003
29595	10.679	2.6364	0.1	-0.52104
29596	10.771	2.5455	0.1	-0.67083
29597	10.679	2.8182	0.1	-0.55744
29598	10.771	2.7273	0.1	-0.63198
29599	10.679	3.	0.1	-0.56939
29600	10.771	2.9091	0.1	-0.58047
29601	10.679	3.1818	0.1	-0.55744
29602	10.771	3.0909	0.1	-0.58047
29603	10.679	3.3636	0.1	-0.52104
29604	10.771	3.2727	0.1	-0.63198
29605	10.679	3.5455	0.1	-0.32489
29606	10.771	3.4545	0.1	-0.67083
29607	10.679	3.7273	0.1	0.35548
29608	10.771	3.6364	0.1	-0.3003
29609	10.679	3.9091	0.1	0.98021
29610	10.771	3.8182	0.1	-0.84934
29611	10.679	4.0909	0.1	1.0091
29612	10.771	4.	0.1	-0.13712
29613	10.679	4.2727	0.1	1.0101
29614	10.771	4.1818	0.1	0.81925
29615	10.679	4.4545	0.1	0.94572
29616	10.771	4.3636	0.1	0.52503
29617	10.679	4.6364	0.1	0.7193
29618	10.771	4.5455	0.1	0.96226
29619	10.679	4.8182	0.1	0.59515
29620	10.771	4.7273	0.1	0.74332
29621	10.679	5.	0.1	0.47533
29622	10.771	4.9091	0.1	0.55411
29623	10.679	5.1818	0.1	0.34337
29624	10.771	5.0909	0.1	0.42291
29625	10.679	5.3636	0.1	0.19473
29626	10.771	5.2727	0.1	0.29689
29627	10.679	5.5455	0.1	9.538e-002
29628	10.771	5.4545	0.1	0.14333
29629	10.679	5.7273	0.1	-0.21576
29630	10.771	5.6364	0.1	8.7382e-002
29631	10.771	5.8182	0.1	-0.50215
29632	10.679	5.9091	0.1	-3.4056e-002
29633	10.863	0.27273	0.1	-0.11634
29634	10.956	0.18182	0.1	0.10224
29635	10.863	9.0909e-002	0.1	-9.5879e-002
29636	10.863	0.45455	0.1	0.17335
29637	10.956	0.36364	0.1	0.46805
29638	10.863	0.63636	0.1	0.26333
29639	10.956	0.54545	0.1	0.46886
29640	10.863	0.81818	0.1	0.38447
29641	10.956	0.72727	0.1	0.53845
29642	10.863	1.	0.1	0.50655
29643	10.956	0.90909	0.1	0.63384
29644	10.863	1.1818	0.1	0.7073
29645	10.956	1.0909	0.1	0.86021
29646	10.863	1.3636	0.1	0.99195
29647	10.956	1.2727	0.1	1.1051
29648	10.863	1.5455	0.1	0.54236
29649	10.956	1.4545	0.1	1.2717
29650	10.863	1.7273	0.1	0.32082
29651	10.956	1.6364	0.1	3.5134
29652	10.863	1.9091	0.1	-0.35281
29653	10.956	1.8182	0.1	2.2441
29654	10.863	2.0909	0.1	-1.9908
29655	10.956	2.	0.1	4.2902
29656	10.863	2.2727	0.1	-1.5296
29657	10.956	2.1818	0.1	2.015
29658	10.863	2.4545	0.1	-0.66211
29659	10.956	2.3636	0.1	-2.4095
29660	10.863	2.6364	0.1	-0.77716
29661	10.956	2.5455	0.1	-0.75232
29662	10.863	2.8182	0.1	-0.65365
29663	10.956	2.7273	0.1	-0.68071
29664	10.863	3.	0.1	-0.59423
29665	10.956	2.9091	0.1	-0.50841
29666	10.863	3.1818	0.1	-0.65365
29667	10.956	3.0909	0.1	-0.50841
29668	10.863	3.3636	0.1	-0.77716
29669	10.956	3.2727	0.1	-0.68071
29670	10.863	3.5455	0.1	-0.66211
29671	10.956	3.4545	0.1	-0.75232
29672	10.863	3.7273	0.1	-1.5296
29673	10.956	3.6364	0.1	-2.4095
29674	10.863	3.9091	0.1	-1.9908
29675	10.956	3.8182	0.1	2.015
29676	10.863	4.0909	0.1	-0.35281
29677	10.956	4.	0.1	4.2902
29678	10.863	4.2727	0.1	0.32082
29679	10.956	4.1818	0.1	2.2441
29680	10.863	4.4545	0.1	0.54236
29681	10.956	4.3636	0.1	3.5134
29682	10.863	4.6364	0.1	0.99195
29683	10.956	4.5455	0.1	1.2717
29684	10.863	4.8182	0.1	0.7073
29685	10.956	4.7273	0.1	1.1051
29686	10.863	5.	0.1	0.50656
29687	10.956	4.9091	0.1	0.86021
29688	10.863	5.1818	0.1	0.38447
29689	10.956	5.0909	0.1	0.63384
29690	10.863	5.3636	0.1	0.26333
29691	10.956	5.2727	0.1	0.53845
29692	10.863	5.5455	0.1	0.17335
29693	10.956	5.4545	0.1	0.46886
29694	10.863	5.7273	0.1	-0.11634
29695	10.956	5.6364	0.1	0.46805
29696	10.956	5.8182	0.1	0.10224
29697	10.863	5.9091	0.1	-9.5878e-002
29698	11.048	0.27273	0.1	0.8569
29699	11.14	0.18182	0.1	1.5378
29700	11.048	9.0909e-002	0.1	0.3197
29701	11.048	0.45455	0.1	0.81586
29702	11.14	0.36364	0.1	0.92792
29703	11.048	0.63636	0.1	0.75627
29704	11.14	0.54545	0.1	0.47998
29705	11.048	0.81818	0.1	0.79105
29706	11.14	0.72727	0.1	0.19003
29707	11.048	1.	0.1	0.98924
29708	11.14	0.90909	0.1	0.10669
29709	11.048	1.1818	0.1	1.2615
29710	11.14	1.0909	0.1	0.12121
29711	11.048	1.3636	0.1	1.3919
29712	11.14	1.2727	0.1	0.3152
29713	11.048	1.5455	0.1	4.2466
29714	11.14	1.4545	0.1	0.49447
29715	11.048	1.7273	0.1	5.4515
29716	11.14	1.6364	0.1	1.4747
29717	11.048	1.9091	0.1	6.8489
29718	11.14	1.8182	0.1	-4.1779
29719	11.048	2.0909	0.1	8.2276
29720	11.14	2.	0.1	-21.466
29721	11.048	2.2727	0.1	0.99994
29722	11.14	2.1818	0.1	-10.027
29723	11.048	2.4545	0.1	-2.4908
29724	11.14	2.3636	0.1	-0.16276
29725	11.048	2.6364	0.1	-0.63448
29726	11.14	2.5455	0.1	-0.86902
29727	11.048	2.8182	0.1	-0.53027
29728	11.14	2.7273	0.1	-0.28868
29729	11.048	3.	0.1	-0.42409
29730	11.14	2.9091	0.1	-0.13712
29731	11.048	3.1818	0.1	-0.53027
29732	11.14	3.0909	0.1	-0.13712
29733	11.048	3.3636	0.1	-0.63448
29734	11.14	3.2727	0.1	-0.28868
29735	11.048	3.5455	0.1	-2.4908
29736	11.14	3.4545	0.1	-0.86902
29737	11.048	3.7273	0.1	0.99994
29738	11.14	3.6364	0.1	-0.16275
29739	11.048	3.9091	0.1	8.2276
29740	11.14	3.8182	0.1	-10.027
29741	11.048	4.0909	0.1	6.8489
29742	11.14	4.	0.1	-21.466
29743	11.048	4.2727	0.1	5.4515
29744	11.14	4.1818	0.1	-4.1779
29745	11.048	4.4545	0.1	4.2466
29746	11.14	4.3636	0.1	1.4747
29747	11.048	4.6364	0.1	1.3919
29748	11.14	4.5455	0.1	0.49447
29749	11.048	4.8182	0.1	1.2615
29750	11.14	4.7273	0.1	0.3152
29751	11.048	5.	0.1	0.98924
29752	11.14	4.9091	0.1	0.12121
29753	11.048	5.1818	0.1	0.79105
29754	11.14	5.0909	0.1	0.10669
29755	11.048	5.3636	0.1	0.75627
29756	11.14	5.2727	0.1	0.19003
29757	11.048	5.5455	0.1	0.81586
29758	11.14	5.4545	0.1	0.47998
29759	11.048	5.7273	0.1	0.8569
29760	11.14	5.6364	0.1	0.92792
29761	11.14	5.8182	0.1	1.5378
29762	11.048	5.9091	0.1	0.3197
29763	11.232	0.27273	0.1	1.7976
29764	11.324	0.18182	0.1	9.4304
29765	11.232	9.0909e-002	0.1	0.26052
29766	11.232	0.45455	0.1	0.48724
29767	11.324	0.36364	0.1	4.4576
29768	11.232	0.63636	0.1	-0.14217
29769	11.324	0.54545	0.1	2.9507
29770	11.232	0.81818	0.1	-0.5136
29771	11.324	0.72727	0.1	2.2726
29772	11.232	1.	0.1	-0.76258
29773	11.324	0.90909	0.1	2.0689
29774	11.232	1.1818	0.1	-0.82132
29775	11.324	1.0909	0.1	2.5542
29776	11.232	1.3636	0.1	-0.58345
29777	11.324	1.2727	0.1	1.7208
29778	11.232	1.5455	0.1	-2.2528
29779	11.324	1.4545	0.1	8.4816
29780	11.232	1.7273	0.1	-8.2585
29781	11.324	1.6364	0.1	-9.4443
29782	11.232	1.9091	0.1	-32.496
29783	11.324	1.8182	0.1	44.001
29784	11.232	2.0909	0.1	-39.903
29785	11.324	2.	0.1	185.12
29786	11.232	2.2727	0.1	-11.452
29787	11.324	2.1818	0.1	-24.219
29788	11.232	2.4545	0.1	1.5513
29789	11.324	2.3636	0.1	8.1675
29790	11.232	2.6364	0.1	-0.49458
29791	11.324	2.5455	0.1	-2.5621
29792	11.232	2.8182	0.1	9.8387e-002
29793	11.324	2.7273	0.1	1.2868
29794	11.232	3.	0.1	0.13816
29795	11.324	2.9091	0.1	0.33539
29796	11.232	3.1818	0.1	9.8388e-002
29797	11.324	3.0909	0.1	0.33539
29798	11.232	3.3636	0.1	-0.49458
29799	11.324	3.2727	0.1	1.2868
29800	11.232	3.5455	0.1	1.5513
29801	11.324	3.4545	0.1	-2.5621
29802	11.232	3.7273	0.1	-11.452
29803	11.324	3.6364	0.1	8.1675
29804	11.232	3.9091	0.1	-39.903
29805	11.324	3.8182	0.1	-24.219
29806	11.232	4.0909	0.1	-32.496
29807	11.324	4.	0.1	185.12
29808	11.232	4.2727	0.1	-8.2585
29809	11.324	4.1818	0.1	44.001
29810	11.232	4.4545	0.1	-2.2528
29811	11.324	4.3636	0.1	-9.4443
29812	11.232	4.6364	0.1	-0.58344
29813	11.324	4.5455	0.1	8.4816
29814	11.232	4.8182	0.1	-0.82132
29815	11.324	4.7273	0.1	1.7208
29816	11.232	5.	0.1	-0.76258
29817	11.324	4.9091	0.1	2.5542
29818	11.232	5.1818	0.1	-0.5136
29819	11.324	5.0909	0.1	2.0689
29820	11.232	5.3636	0.1	-0.14217
29821	11.324	5.2727	0.1	2.2726
29822	11.232	5.5455	0.1	0.48724
29823	11.324	5.4545	0.1	2.9507
29824	11.232	5.7273	0.1	1.7976
29825	11.324	5.6364	0.1	4.4576
29826	11.324	5.8182	0.1	9.4304
29827	11.232	5.9091	0.1	0.26052
29828	11.416	0.27273	0.1	9.9384
29829	11.508	0.18182	0.1	-1.5364
29830	11.416	9.0909e-002	0.1	9.6641
29831	11.416	0.45455	0.1	5.7874
29832	11.508	0.36364	0.1	-2.4303
29833	11.416	0.63636	0.1	4.9224
29834	11.508	0.54545	0.1	-1.5653
29835	11.416	0.81818	0.1	4.6502
29836	11.508	0.72727	0.1	-1.5252
29837	11.416	1.	0.1	5.3012
29838	11.508	0.90909	0.1	-1.7938
29839	11.416	1.1818	0.1	5.1324
29840	11.508	1.0909	0.1	-0.57956
29841	11.416	1.3636	0.1	10.881
29842	11.508	1.2727	0.1	-4.9293
29843	11.416	1.5455	0.1	1.6203
29844	11.508	1.4545	0.1	13.212
29845	11.416	1.7273	0.1	42.928
29846	11.508	1.6364	0.1	-53.972
29847	11.416	1.9091	0.1	265.64
29848	11.508	1.8182	0.1	240.36
29849	11.416	2.0909	0.1	187.28
29850	11.508	2.	0.1	269.27
29851	11.416	2.2727	0.1	-3.0176
29852	11.508	2.1818	0.1	-73.512
29853	11.416	2.4545	0.1	4.1561
29854	11.508	2.3636	0.1	19.617
29855	11.416	2.6364	0.1	-0.81579
29856	11.508	2.5455	0.1	-2.3321
29857	11.416	2.8182	0.1	1.4946
29858	11.508	2.7273	0.1	2.7645
29859	11.416	3.	0.1	0.50288
29860	11.508	2.9091	0.1	1.0571
29861	11.416	3.1818	0.1	1.4946
29862	11.508	3.0909	0.1	1.0571
29863	11.416	3.3636	0.1	-0.81579
29864	11.508	3.2727	0.1	2.7645
29865	11.416	3.5455	0.1	4.1561
29866	11.508	3.4545	0.1	-2.3321
29867	11.416	3.7273	0.1	-3.0177
29868	11.508	3.6364	0.1	19.617
29869	11.416	3.9091	0.1	187.28
29870	11.508	3.8182	0.1	-73.512
29871	11.416	4.0909	0.1	265.64
29872	11.508	4.	0.1	269.27
29873	11.416	4.2727	0.1	42.928
29874	11.508	4.1818	0.1	240.36
29875	11.416	4.4545	0.1	1.6203
29876	11.508	4.3636	0.1	-53.972
29877	11.416	4.6364	0.1	10.881
29878	11.508	4.5455	0.1	13.212
29879	11.416	4.8182	0.1	5.1324
29880	11.508	4.7273	0.1	-4.9293
29881	11.416	5.	0.1	5.3012
29882	11.508	4.9091	0.1	-0.57956
29883	11.416	5.1818	0.1	4.6502
29884	11.508	5.0909	0.1	-1.7938
29885	11.416	5.3636	0.1	4.9224
29886	11.508	5.2727	0.1	-1.5252
29887	11.416	5.5455	0.1	5.7874
29888	11.508	5.4545	0.1	-1.5653
29889	11.416	5.7273	0.1	9.9384
29890	11.508	5.6364	0.1	-2.4303
29891	11.508	5.8182	0.1	-1.5364
29892	11.416	5.9091	0.1	9.6641
29893	11.767	3.7273	0.1	-14.282
29894	11.683	3.8182	0.1	-90.987
29895	11.767	3.9091	0.1	452.19
29896	11.767	3.5455	0.1	13.793
29897	11.683	3.6364	0.1	28.029
29898	11.767	3.3636	0.1	1.0027
29899	11.683	3.4545	0.1	-0.79109
29900	11.767	3.1818	0.1	2.2752
29901	11.683	3.2727	0.1	3.0672
29902	11.767	3.	0.1	1.4849
29903	11.683	3.0909	0.1	1.5529
29904	11.767	2.8182	0.1	2.2752
29905	11.683	2.9091	0.1	1.5529
29906	11.767	2.6364	0.1	1.0027
29907	11.683	2.7273	0.1	3.0672
29908	11.767	2.4545	0.1	13.793
29909	11.683	2.5455	0.1	-0.79108
29910	11.767	2.2727	0.1	-14.282
29911	11.683	2.3636	0.1	28.029
29912	11.683	2.1818	0.1	-90.987
29913	11.767	2.0909	0.1	452.19
29914	11.6	3.7273	0.1	-49.58
29915	11.6	3.9091	0.1	249.15
29916	11.6	3.5455	0.1	12.955
29917	11.6	3.3636	0.1	1.1824
29918	11.6	3.1818	0.1	2.2734
29919	11.6	3.	0.1	1.5637
29920	11.6	2.8182	0.1	2.2734
29921	11.6	2.6364	0.1	1.1824
29922	11.6	2.4545	0.1	12.955
29923	11.6	2.2727	0.1	-49.58
29924	11.6	2.0909	0.1	249.15
29925	11.767	5.7273	0.1	-9.2334
29926	11.767	5.9091	0.1	-0.3105
29927	11.767	5.8182	5.e-002	3.2451e-006
29928	11.767	5.5455	0.1	-10.586
29929	11.767	5.6364	5.e-002	2.1007e-006
29930	11.767	5.3636	0.1	-11.281
29931	11.767	5.4545	5.e-002	1.9699e-006
29932	11.767	5.1818	0.1	-12.906
29933	11.767	5.2727	5.e-002	-5.0999e-008
29934	11.767	5.	0.1	-14.814
29935	11.767	5.0909	5.e-002	-8.0303e-008
29936	11.767	4.8182	0.1	-19.434
29937	11.767	4.9091	5.e-002	-7.3179e-008
29938	11.767	4.6364	0.1	-22.034
29939	11.767	4.7273	5.e-002	-1.24e-013
29940	11.767	4.4545	0.1	-53.24
29941	11.767	4.5455	5.e-002	-1.2323e-005
29942	11.767	4.2727	0.1	-45.791
29943	11.767	4.3636	5.e-002	3.3278e-005
29944	11.767	4.0909	0.1	936.37
29945	11.767	4.1818	5.e-002	-1.8618e-004
29946	11.683	4.	0.1	1421.6
29947	11.767	4.	5.e-002	1.8058e-003
29948	11.6	4.0909	0.1	782.32
29949	11.6	4.	5.e-002	1.0884e-003
29950	11.6	4.2727	0.1	-43.185
29951	11.6	4.1818	5.e-002	-2.0988e-004
29952	11.6	4.4545	0.1	-56.686
29953	11.6	4.3636	5.e-002	3.2967e-005
29954	11.6	4.6364	0.1	-24.572
29955	11.6	4.5455	5.e-002	-1.4144e-005
29956	11.6	4.8182	0.1	-22.342
29957	11.6	4.7273	5.e-002	-1.5e-013
29958	11.6	5.	0.1	-17.41
29959	11.6	4.9091	5.e-002	-3.3925e-008
29960	11.6	5.1818	0.1	-15.479
29961	11.6	5.0909	5.e-002	-7.6701e-008
29962	11.6	5.3636	0.1	-13.759
29963	11.6	5.2727	5.e-002	-1.0015e-007
29964	11.6	5.5455	0.1	-13.004
29965	11.6	5.4545	5.e-002	-1.5458e-007
29966	11.6	5.7273	0.1	-11.617
29967	11.6	5.6364	5.e-002	6.068e-006
29968	11.6	5.9091	0.1	-3.4137
29969	11.6	5.8182	5.e-002	-1.8479e-006
29970	11.767	0.27273	0.1	-9.2334
29971	11.767	9.0909e-002	0.1	-0.3105
29972	11.767	0.18182	5.e-002	-5.6955e-006
29973	11.767	0.45455	0.1	-10.586
29974	11.767	0.36364	5.e-002	2.7278e-006
29975	11.767	0.63636	0.1	-11.281
29976	11.767	0.54545	5.e-002	1.5422e-007
29977	11.767	0.81818	0.1	-12.906
29978	11.767	0.72727	5.e-002	3.0459e-006
29979	11.767	1.	0.1	-14.814
29980	11.767	0.90909	5.e-002	1.6061e-007
29981	11.767	1.1818	0.1	-19.434
29982	11.767	1.0909	5.e-002	1.4636e-007
29983	11.767	1.3636	0.1	-22.034
29984	11.767	1.2727	5.e-002	-1.9697e-006
29985	11.767	1.5455	0.1	-53.24
29986	11.767	1.4545	5.e-002	2.3975e-005
29987	11.767	1.7273	0.1	-45.791
29988	11.767	1.6364	5.e-002	-2.9115e-005
29989	11.767	1.9091	0.1	936.37
29990	11.767	1.8182	5.e-002	2.2682e-004
29991	11.683	2.	0.1	1421.6
29992	11.767	2.	5.e-002	-1.9717e-003
29993	11.6	1.9091	0.1	782.32
29994	11.6	2.	5.e-002	-1.431e-003
29995	11.6	1.7273	0.1	-43.185
29996	11.6	1.8182	5.e-002	2.5385e-004
29997	11.6	1.5455	0.1	-56.686
29998	11.6	1.6364	5.e-002	-2.8948e-005
29999	11.6	1.3636	0.1	-24.572
30000	11.6	1.4545	5.e-002	2.329e-005
30001	11.6	1.1818	0.1	-22.342
30002	11.6	1.2727	5.e-002	-3.9191e-006
30003	11.6	1.	0.1	-17.41
30004	11.6	1.0909	5.e-002	-1.8948e-006
30005	11.6	0.81818	0.1	-15.479
30006	11.6	0.90909	5.e-002	1.534e-007
30007	11.6	0.63636	0.1	-13.759
30008	11.6	0.72727	5.e-002	2.003e-007
30009	11.6	0.45455	0.1	-13.004
30010	11.6	0.54545	5.e-002	3.5359e-006
30011	11.6	0.27273	0.1	-11.617
30012	11.6	0.36364	5.e-002	4.6229e-007
30013	11.6	9.0909e-002	0.1	-3.4136
30014	11.6	0.18182	5.e-002	6.3638e-007
30015	11.858	6.	0.1	12.175
30016	11.767	6.	5.e-002	1.489e-006
30017	12.041	6.	0.1	-0.31654
30018	11.949	6.	5.e-002	-7.9414e-007
30019	12.223	6.	0.1	-1.4201
30020	12.132	6.	5.e-002	3.0596e-006
30021	12.406	6.	0.1	-0.41875
30022	12.314	6.	5.e-002	2.2513e-006
30023	12.588	6.	0.1	1.1898e-002
30024	12.497	6.	5.e-002	2.3483e-006
30025	12.771	6.	0.1	0.36853
30026	12.68	6.	5.e-002	2.2259e-006
30027	12.953	6.	0.1	0.55161
30028	12.862	6.	5.e-002	2.5741e-006
30029	13.136	6.	0.1	0.62576
30030	13.045	6.	5.e-002	2.5181e-006
30031	13.319	6.	0.1	0.61964
30032	13.227	6.	5.e-002	2.8176e-006
30033	13.501	6.	0.1	0.56529
30034	13.41	6.	5.e-002	3.2169e-006
30035	13.684	6.	0.1	0.48507
30036	13.593	6.	5.e-002	3.291e-006
30037	13.866	6.	0.1	0.39489
30038	13.775	6.	5.e-002	2.9453e-006
30039	14.049	6.	0.1	0.30491
30040	13.958	6.	5.e-002	3.2477e-006
30041	14.232	6.	0.1	0.22123
30042	14.14	6.	5.e-002	3.475e-006
30043	14.414	6.	0.1	0.14704
30044	14.323	6.	5.e-002	4.0616e-006
30045	14.597	6.	0.1	8.3669e-002
30046	14.505	6.	5.e-002	3.3774e-006
30047	14.779	6.	0.1	3.1239e-002
30048	14.688	6.	5.e-002	4.0847e-006
30049	14.962	6.	0.1	-1.085e-002
30050	14.871	6.	5.e-002	3.4805e-006
30051	15.145	6.	0.1	-4.3584e-002
30052	15.053	6.	5.e-002	3.9044e-006
30053	15.327	6.	0.1	-6.8087e-002
30054	15.236	6.	5.e-002	3.3678e-006
30055	15.51	6.	0.1	-8.5528e-002
30056	15.418	6.	5.e-002	4.3515e-006
30057	15.692	6.	0.1	-9.7028e-002
30058	15.601	6.	5.e-002	4.0535e-006
30059	15.875	6.	0.1	-0.1036
30060	15.784	6.	5.e-002	3.6246e-006
30061	16.057	6.	0.1	-0.10616
30062	15.966	6.	5.e-002	4.1263e-006
30063	16.24	6.	0.1	-0.10548
30064	16.149	6.	5.e-002	4.5434e-006
30065	16.423	6.	0.1	-0.10222
30066	16.331	6.	5.e-002	4.5908e-006
30067	16.605	6.	0.1	-9.6953e-002
30068	16.514	6.	5.e-002	4.1853e-006
30069	16.788	6.	0.1	-9.0127e-002
30070	16.697	6.	5.e-002	4.8997e-006
30071	16.97	6.	0.1	-8.2123e-002
30072	16.879	6.	5.e-002	4.2326e-006
30073	17.153	6.	0.1	-7.3244e-002
30074	17.062	6.	5.e-002	4.8193e-006
30075	17.336	6.	0.1	-6.3731e-002
30076	17.244	6.	5.e-002	4.9988e-006
30077	17.518	6.	0.1	-5.3773e-002
30078	17.427	6.	5.e-002	4.1656e-006
30079	17.701	6.	0.1	-4.3511e-002
30080	17.609	6.	5.e-002	3.934e-006
30081	17.883	6.	0.1	-3.3054e-002
30082	17.792	6.	5.e-002	6.1944e-006
30083	18.066	6.	0.1	-2.2475e-002
30084	17.975	6.	5.e-002	4.4671e-006
30085	18.249	6.	0.1	-1.1825e-002
30086	18.157	6.	5.e-002	5.72e-006
30087	18.431	6.	0.1	-1.1306e-003
30088	18.34	6.	5.e-002	4.7684e-006
30089	18.614	6.	0.1	9.5969e-003
30090	18.522	6.	5.e-002	5.6024e-006
30091	18.796	6.	0.1	2.0361e-002
30092	18.705	6.	5.e-002	5.2434e-006
30093	18.979	6.	0.1	3.1179e-002
30094	18.888	6.	5.e-002	4.5269e-006
30095	19.161	6.	0.1	4.2077e-002
30096	19.07	6.	5.e-002	5.7133e-006
30097	19.344	6.	0.1	5.3092e-002
30098	19.253	6.	5.e-002	5.8299e-006
30099	19.527	6.	0.1	6.4263e-002
30100	19.435	6.	5.e-002	6.3778e-006
30101	19.709	6.	0.1	7.5642e-002
30102	19.618	6.	5.e-002	4.8964e-006
30103	19.892	6.	0.1	8.7288e-002
30104	19.8	6.	5.e-002	5.4838e-006
30105	20.074	6.	0.1	9.9263e-002
30106	19.983	6.	5.e-002	5.7702e-006
30107	20.257	6.	0.1	0.11164
30108	20.166	6.	5.e-002	6.378e-006
30109	20.44	6.	0.1	0.12449
30110	20.348	6.	5.e-002	6.5569e-006
30111	20.622	6.	0.1	0.1379
30112	20.531	6.	5.e-002	5.8712e-006
30113	20.805	6.	0.1	0.15198
30114	20.713	6.	5.e-002	5.8819e-006
30115	20.987	6.	0.1	0.16683
30116	20.896	6.	5.e-002	8.5026e-006
30117	21.17	6.	0.1	0.18257
30118	21.079	6.	5.e-002	6.5158e-006
30119	21.352	6.	0.1	0.19936
30120	21.261	6.	5.e-002	5.6359e-006
30121	21.535	6.	0.1	0.21737
30122	21.444	6.	5.e-002	7.9577e-006
30123	21.718	6.	0.1	0.2368
30124	21.626	6.	5.e-002	8.0521e-006
30125	21.9	6.	0.1	0.2579
30126	21.809	6.	5.e-002	5.3447e-006
30127	22.083	6.	0.1	0.28101
30128	21.992	6.	5.e-002	8.0485e-006
30129	22.265	6.	0.1	0.30653
30130	22.174	6.	5.e-002	8.6996e-006
30131	22.448	6.	0.1	0.33499
30132	22.357	6.	5.e-002	7.5371e-006
30133	22.631	6.	0.1	0.36717
30134	22.539	6.	5.e-002	7.0999e-006
30135	22.813	6.	0.1	0.40403
30136	22.722	6.	5.e-002	6.1824e-006
30137	22.996	6.	0.1	0.44747
30138	22.904	6.	5.e-002	7.2378e-006
30139	23.178	6.	0.1	0.4984
30140	23.087	6.	5.e-002	6.7295e-006
30141	23.361	6.	0.1	0.56806
30142	23.27	6.	5.e-002	9.461e-006
30143	23.544	6.	0.1	0.64794
30144	23.452	6.	5.e-002	6.9289e-006
30145	23.726	6.	0.1	0.8661
30146	23.635	6.	5.e-002	9.8003e-006
30147	23.909	6.	0.1	0.63828
30148	23.817	6.	5.e-002	8.1115e-006
30149	24.	5.9091	0.1	-2.4028
30150	24.	6.	5.e-002	3.0063e-005
30151	24.	5.7273	0.1	-2.2156
30152	24.	5.8182	5.e-002	4.1603e-006
30153	24.	5.5455	0.1	-2.3073
30154	24.	5.6364	5.e-002	7.355e-006
30155	24.	5.3636	0.1	-2.4216
30156	24.	5.4545	5.e-002	5.8994e-006
30157	24.	5.1818	0.1	-2.4552
30158	24.	5.2727	5.e-002	5.5741e-006
30159	24.	5.	0.1	-2.4836
30160	24.	5.0909	5.e-002	5.1792e-006
30161	24.	4.8182	0.1	-2.5022
30162	24.	4.9091	5.e-002	4.8086e-006
30163	24.	4.6364	0.1	-2.5165
30164	24.	4.7273	5.e-002	3.9627e-006
30165	24.	4.4545	0.1	-2.5273
30166	24.	4.5455	5.e-002	2.8537e-006
30167	24.	4.2727	0.1	-2.5357
30168	24.	4.3636	5.e-002	6.3002e-006
30169	24.	4.0909	0.1	-2.5421
30170	24.	4.1818	5.e-002	3.0779e-006
30171	24.	3.9091	0.1	-2.5471
30172	24.	4.	5.e-002	6.1974e-006
30173	24.	3.7273	0.1	-2.5509
30174	24.	3.8182	5.e-002	6.6238e-006
30175	24.	3.5455	0.1	-2.5537
30176	24.	3.6364	5.e-002	6.5582e-006
30177	24.	3.3636	0.1	-2.5557
30178	24.	3.4545	5.e-002	3.08e-006
30179	24.	3.1818	0.1	-2.5568
30180	24.	3.2727	5.e-002	1.0699e-005
30181	24.	3.	0.1	-2.5571
30182	24.	3.0909	5.e-002	1.1305e-005
30183	24.	2.8182	0.1	-2.5568
30184	24.	2.9091	5.e-002	1.5346e-005
30185	24.	2.6364	0.1	-2.5557
30186	24.	2.7273	5.e-002	1.5605e-005
30187	24.	2.4545	0.1	-2.5537
30188	24.	2.5455	5.e-002	1.5591e-005
30189	24.	2.2727	0.1	-2.5509
30190	24.	2.3636	5.e-002	1.5396e-005
30191	24.	2.0909	0.1	-2.5471
30192	24.	2.1818	5.e-002	1.5331e-005
30193	24.	1.9091	0.1	-2.5421
30194	24.	2.	5.e-002	2.1031e-005
30195	24.	1.7273	0.1	-2.5357
30196	24.	1.8182	5.e-002	1.4802e-005
30197	24.	1.5455	0.1	-2.5273
30198	24.	1.6364	5.e-002	2.0099e-005
30199	24.	1.3636	0.1	-2.5165
30200	24.	1.4545	5.e-002	1.9377e-005
30201	24.	1.1818	0.1	-2.5022
30202	24.	1.2727	5.e-002	1.6477e-005
30203	24.	1.	0.1	-2.4836
30204	24.	1.0909	5.e-002	2.0312e-005
30205	24.	0.81818	0.1	-2.4552
30206	24.	0.90909	5.e-002	2.1365e-005
30207	24.	0.63636	0.1	-2.4216
30208	24.	0.72727	5.e-002	1.602e-005
30209	24.	0.45455	0.1	-2.3073
30210	24.	0.54545	5.e-002	1.8754e-005
30211	24.	0.27273	0.1	-2.2156
30212	24.	0.36364	5.e-002	2.0539e-005
30213	24.	9.0909e-002	0.1	-2.4028
30214	24.	0.18182	5.e-002	1.5495e-005
30215	2.3842e-015	0.27273	0.1	1763.5
30216	7.9472e-016	9.0909e-002	0.1	376.74
30217	1.6109e-015	0.18182	5.e-002	-1.3778e-004
30218	3.9736e-015	0.45455	0.1	2567.
30219	3.2219e-015	0.36364	5.e-002	-2.1028e-004
30220	5.563e-015	0.63636	0.1	2980.4
30221	4.8328e-015	0.54545	5.e-002	-1.664e-004
30222	7.1525e-015	0.81818	0.1	3239.
30223	6.4438e-015	0.72727	5.e-002	-1.458e-004
30224	8.7419e-015	1.	0.1	3417.3
30225	8.0547e-015	0.90909	5.e-002	-1.3665e-004
30226	1.0331e-014	1.1818	0.1	3547.
30227	9.6657e-015	1.0909	5.e-002	-9.8859e-006
30228	1.1921e-014	1.3636	0.1	3644.2
30229	1.1277e-014	1.2727	5.e-002	-1.2877e-004
30230	1.351e-014	1.5455	0.1	3718.6
30231	1.2888e-014	1.4545	5.e-002	-6.4266e-005
30232	1.51e-014	1.7273	0.1	3776.
30233	1.4498e-014	1.6364	5.e-002	-6.5191e-005
30234	1.6689e-014	1.9091	0.1	3820.6
30235	1.6109e-014	1.8182	5.e-002	-6.2145e-005
30236	1.8279e-014	2.0909	0.1	3855.1
30237	1.772e-014	2.	5.e-002	-6.0282e-005
30238	1.9868e-014	2.2727	0.1	3881.2
30239	1.9331e-014	2.1818	5.e-002	-6.111e-005
30240	2.1457e-014	2.4545	0.1	3900.3
30241	2.0942e-014	2.3636	5.e-002	-6.141e-005
30242	2.3047e-014	2.6364	0.1	3913.3
30243	2.2553e-014	2.5455	5.e-002	4.3323e-007
30244	2.4636e-014	2.8182	0.1	3920.8
30245	2.4164e-014	2.7273	5.e-002	-6.067e-005
30246	2.6226e-014	3.	0.1	3923.2
30247	2.5775e-014	2.9091	5.e-002	1.1508e-007
30248	2.7815e-014	3.1818	0.1	3920.8
30249	2.7386e-014	3.0909	5.e-002	-1.2184e-007
30250	2.9405e-014	3.3636	0.1	3913.3
30251	2.8997e-014	3.2727	5.e-002	-3.6876e-007
30252	3.0994e-014	3.5455	0.1	3900.3
30253	3.0608e-014	3.4545	5.e-002	-5.913e-007
30254	3.2583e-014	3.7273	0.1	3881.2
30255	3.2219e-014	3.6364	5.e-002	-7.6941e-007
30256	3.4173e-014	3.9091	0.1	3855.1
30257	3.383e-014	3.8182	5.e-002	5.9735e-005
30258	3.5762e-014	4.0909	0.1	3820.6
30259	3.5441e-014	4.	5.e-002	-8.6172e-007
30260	3.7352e-014	4.2727	0.1	3776.
30261	3.7052e-014	4.1818	5.e-002	5.9455e-005
30262	3.8941e-014	4.4545	0.1	3718.6
30263	3.8663e-014	4.3636	5.e-002	5.9514e-005
30264	4.0531e-014	4.6364	0.1	3644.2
30265	4.0274e-014	4.5455	5.e-002	6.242e-005
30266	4.212e-014	4.8182	0.1	3547.
30267	4.1885e-014	4.7273	5.e-002	6.7193e-005
30268	4.371e-014	5.	0.1	3417.3
30269	4.3495e-014	4.9091	5.e-002	2.0249e-006
30270	4.5299e-014	5.1818	0.1	3239.
30271	4.5106e-014	5.0909	5.e-002	7.5029e-005
30272	4.6888e-014	5.3636	0.1	2980.4
30273	4.6717e-014	5.2727	5.e-002	2.881e-005
30274	4.8478e-014	5.5455	0.1	2567.
30275	4.8328e-014	5.4545	5.e-002	1.5773e-004
30276	5.0067e-014	5.7273	0.1	1763.5
30277	4.9939e-014	5.6364	5.e-002	1.1072e-004
30278	5.1657e-014	5.9091	0.1	376.74
30279	5.155e-014	5.8182	5.e-002	1.0711e-004
30280	23.909	0.	0.1	0.63828
30281	24.	0.	5.e-002	2.5923e-005
30282	23.726	0.	0.1	0.86609
30283	23.817	0.	5.e-002	1.1205e-006
30284	23.544	0.	0.1	0.64794
30285	23.635	0.	5.e-002	9.1965e-006
30286	23.361	0.	0.1	0.56806
30287	23.452	0.	5.e-002	4.6678e-006
30288	23.178	0.	0.1	0.4984
30289	23.27	0.	5.e-002	8.5586e-006
30290	22.996	0.	0.1	0.44747
30291	23.087	0.	5.e-002	2.9842e-006
30292	22.813	0.	0.1	0.40403
30293	22.904	0.	5.e-002	6.4921e-006
30294	22.631	0.	0.1	0.36717
30295	22.722	0.	5.e-002	8.0664e-006
30296	22.448	0.	0.1	0.33499
30297	22.539	0.	5.e-002	7.2138e-006
30298	22.265	0.	0.1	0.30653
30299	22.357	0.	5.e-002	9.445e-006
30300	22.083	0.	0.1	0.28101
30301	22.174	0.	5.e-002	6.0305e-006
30302	21.9	0.	0.1	0.25791
30303	21.992	0.	5.e-002	7.6264e-006
30304	21.718	0.	0.1	0.2368
30305	21.809	0.	5.e-002	8.421e-006
30306	21.535	0.	0.1	0.21737
30307	21.626	0.	5.e-002	8.1038e-006
30308	21.352	0.	0.1	0.19936
30309	21.444	0.	5.e-002	8.9397e-006
30310	21.17	0.	0.1	0.18257
30311	21.261	0.	5.e-002	4.3196e-006
30312	20.987	0.	0.1	0.16683
30313	21.079	0.	5.e-002	8.0749e-006
30314	20.805	0.	0.1	0.15198
30315	20.896	0.	5.e-002	7.0028e-006
30316	20.622	0.	0.1	0.1379
30317	20.713	0.	5.e-002	6.1085e-006
30318	20.44	0.	0.1	0.12449
30319	20.531	0.	5.e-002	7.6714e-006
30320	20.257	0.	0.1	0.11164
30321	20.348	0.	5.e-002	5.9003e-006
30322	20.074	0.	0.1	9.9264e-002
30323	20.166	0.	5.e-002	8.2116e-006
30324	19.892	0.	0.1	8.7289e-002
30325	19.983	0.	5.e-002	5.6501e-006
30326	19.709	0.	0.1	7.5642e-002
30327	19.8	0.	5.e-002	4.3507e-006
30328	19.527	0.	0.1	6.4264e-002
30329	19.618	0.	5.e-002	6.4285e-006
30330	19.344	0.	0.1	5.3094e-002
30331	19.435	0.	5.e-002	5.1854e-006
30332	19.161	0.	0.1	4.2081e-002
30333	19.253	0.	5.e-002	5.7276e-006
30334	18.979	0.	0.1	3.1181e-002
30335	19.07	0.	5.e-002	6.1944e-006
30336	18.796	0.	0.1	2.0362e-002
30337	18.888	0.	5.e-002	5.7785e-006
30338	18.614	0.	0.1	9.5962e-003
30339	18.705	0.	5.e-002	4.5878e-006
30340	18.431	0.	0.1	-1.1303e-003
30341	18.522	0.	5.e-002	5.1851e-006
30342	18.249	0.	0.1	-1.1824e-002
30343	18.34	0.	5.e-002	5.4844e-006
30344	18.066	0.	0.1	-2.2475e-002
30345	18.157	0.	5.e-002	5.1856e-006
30346	17.883	0.	0.1	-3.3052e-002
30347	17.975	0.	5.e-002	4.7683e-006
30348	17.701	0.	0.1	-4.351e-002
30349	17.792	0.	5.e-002	4.2273e-006
30350	17.518	0.	0.1	-5.3771e-002
30351	17.609	0.	5.e-002	5.2392e-006
30352	17.336	0.	0.1	-6.373e-002
30353	17.427	0.	5.e-002	4.9609e-006
30354	17.153	0.	0.1	-7.3244e-002
30355	17.244	0.	5.e-002	3.4484e-006
30356	16.97	0.	0.1	-8.2123e-002
30357	17.062	0.	5.e-002	5.1848e-006
30358	16.788	0.	0.1	-9.0126e-002
30359	16.879	0.	5.e-002	3.5858e-006
30360	16.605	0.	0.1	-9.6952e-002
30361	16.697	0.	5.e-002	3.8735e-006
30362	16.423	0.	0.1	-0.10222
30363	16.514	0.	5.e-002	4.3027e-006
30364	16.24	0.	0.1	-0.10548
30365	16.331	0.	5.e-002	4.0987e-006
30366	16.057	0.	0.1	-0.10616
30367	16.149	0.	5.e-002	4.7673e-006
30368	15.875	0.	0.1	-0.1036
30369	15.966	0.	5.e-002	3.2895e-006
30370	15.692	0.	0.1	-9.7027e-002
30371	15.784	0.	5.e-002	4.946e-006
30372	15.51	0.	0.1	-8.5528e-002
30373	15.601	0.	5.e-002	3.4561e-006
30374	15.327	0.	0.1	-6.8087e-002
30375	15.418	0.	5.e-002	3.8143e-006
30376	15.145	0.	0.1	-4.3584e-002
30377	15.236	0.	5.e-002	3.3378e-006
30378	14.962	0.	0.1	-1.085e-002
30379	15.053	0.	5.e-002	3.9041e-006
30380	14.779	0.	0.1	3.1239e-002
30381	14.871	0.	5.e-002	3.2415e-006
30382	14.597	0.	0.1	8.3669e-002
30383	14.688	0.	5.e-002	3.4115e-006
30384	14.414	0.	0.1	0.14704
30385	14.505	0.	5.e-002	2.8272e-006
30386	14.232	0.	0.1	0.22123
30387	14.323	0.	5.e-002	2.8134e-006
30388	14.049	0.	0.1	0.30491
30389	14.14	0.	5.e-002	3.2331e-006
30390	13.866	0.	0.1	0.39489
30391	13.958	0.	5.e-002	3.0689e-006
30392	13.684	0.	0.1	0.48507
30393	13.775	0.	5.e-002	1.9947e-006
30394	13.501	0.	0.1	0.56529
30395	13.593	0.	5.e-002	2.6823e-006
30396	13.319	0.	0.1	0.61964
30397	13.41	0.	5.e-002	2.1703e-006
30398	13.136	0.	0.1	0.62576
30399	13.227	0.	5.e-002	3.455e-006
30400	12.953	0.	0.1	0.55161
30401	13.045	0.	5.e-002	2.8914e-006
30402	12.771	0.	0.1	0.36853
30403	12.862	0.	5.e-002	2.704e-006
30404	12.588	0.	0.1	1.1899e-002
30405	12.68	0.	5.e-002	3.8177e-006
30406	12.406	0.	0.1	-0.41875
30407	12.497	0.	5.e-002	3.7808e-006
30408	12.223	0.	0.1	-1.4201
30409	12.314	0.	5.e-002	2.29e-006
30410	12.041	0.	0.1	-0.31654
30411	12.132	0.	5.e-002	3.4697e-006
30412	11.858	0.	0.1	12.175
30413	11.949	0.	5.e-002	1.0267e-006
30414	11.767	0.	5.e-002	-1.4357e-006
30415	11.508	9.6284e-031	0.1	14.125
30416	11.6	9.7055e-031	5.e-002	1.2365e-006
30417	11.324	9.4744e-031	0.1	0.59027
30418	11.416	0.	5.e-002	-9.2215e-007
30419	11.14	9.3203e-031	0.1	-0.70754
30420	11.232	0.	5.e-002	1.6684e-006
30421	10.956	9.1663e-031	0.1	0.45752
30422	11.048	0.	5.e-002	1.9078e-006
30423	10.771	9.0122e-031	0.1	0.9471
30424	10.863	0.	5.e-002	2.8157e-006
30425	10.587	8.8582e-031	0.1	1.3489
30426	10.679	0.	5.e-002	2.3771e-006
30427	10.403	8.7041e-031	0.1	1.5394
30428	10.495	0.	5.e-002	2.0422e-006
30429	10.219	8.5501e-031	0.1	1.5942
30430	10.311	0.	5.e-002	2.2566e-006
30431	10.035	8.396e-031	0.1	1.5465
30432	10.127	0.	5.e-002	-3.4645e-005
30433	9.8508	8.2419e-031	0.1	1.4348
30434	9.9429	0.	5.e-002	-4.9932e-005
30435	9.6667	8.0879e-031	0.1	1.2865
30436	9.7587	0.	5.e-002	-1.5694e-006
30437	9.4825	7.9338e-031	0.1	1.1222
30438	9.5746	0.	5.e-002	-7.2383e-007
30439	9.2984	7.7798e-031	0.1	0.95528
30440	9.3905	0.	5.e-002	5.2004e-007
30441	9.1143	7.6257e-031	0.1	0.79426
30442	9.2063	0.	5.e-002	9.8043e-007
30443	8.9302	7.4717e-031	0.1	0.64382
30444	9.0222	0.	5.e-002	9.5627e-007
30445	8.746	7.3176e-031	0.1	0.50607
30446	8.8381	0.	5.e-002	8.6761e-007
30447	8.5619	7.1636e-031	0.1	0.38145
30448	8.654	0.	5.e-002	1.0599e-006
30449	8.3778	7.0095e-031	0.1	0.26934
30450	8.4698	0.	5.e-002	1.0938e-006
30451	8.1937	6.8555e-031	0.1	0.16855
30452	8.2857	0.	5.e-002	1.0375e-006
30453	8.0095	6.7014e-031	0.1	7.7611e-002
30454	8.1016	0.	5.e-002	1.1863e-006
30455	7.8254	6.5473e-031	0.1	-5.0421e-003
30456	7.9175	0.	5.e-002	1.0043e-006
30457	7.6413	6.3933e-031	0.1	-8.0952e-002
30458	7.7333	0.	5.e-002	8.939e-007
30459	7.4571	6.2392e-031	0.1	-0.15158
30460	7.5492	0.	5.e-002	9.5096e-007
30461	7.273	6.0852e-031	0.1	-0.21828
30462	7.3651	0.	5.e-002	9.14e-007
30463	7.0889	5.9311e-031	0.1	-0.28227
30464	7.181	0.	5.e-002	6.3353e-007
30465	6.9048	5.7771e-031	0.1	-0.28314
30466	6.9968	0.	5.e-002	7.7197e-007
30467	6.7206	5.623e-031	0.1	5.2036e-002
30468	6.8127	0.	5.e-002	6.841e-007
30469	6.5365	5.469e-031	0.1	0.39452
30470	6.6286	0.	5.e-002	7.162e-007
30471	6.3524	5.3149e-031	0.1	0.74153
30472	6.4444	0.	5.e-002	4.6222e-007
30473	6.1683	5.1608e-031	0.1	1.0897
30474	6.2603	0.	5.e-002	6.0466e-007
30475	5.9841	5.0068e-031	0.1	1.4351
30476	6.0762	0.	5.e-002	-7.6747e-007
30477	5.8	4.8527e-031	0.1	1.7726
30478	5.8921	0.	5.e-002	9.2119e-007
30479	5.6159	4.6987e-031	0.1	2.0966
30480	5.7079	0.	5.e-002	-7.6797e-007
30481	5.4317	4.5446e-031	0.1	2.4
30482	5.5238	0.	5.e-002	-1.9363e-006
30483	5.2476	4.3906e-031	0.1	2.6745
30484	5.3397	0.	5.e-002	-6.661e-006
30485	5.0635	4.2365e-031	0.1	2.9101
30486	5.1556	0.	5.e-002	-5.173e-005
30487	4.8794	4.0825e-031	0.1	3.095
30488	4.9714	0.	5.e-002	-6.7282e-005
30489	4.6952	3.9284e-031	0.1	3.2155
30490	4.7873	0.	5.e-002	-9.439e-006
30491	4.5111	3.7744e-031	0.1	3.2552
30492	4.6032	0.	5.e-002	-3.5121e-006
30493	4.327	3.6203e-031	0.1	3.1952
30494	4.419	0.	5.e-002	-2.1442e-006
30495	4.1429	3.4662e-031	0.1	3.0133
30496	4.2349	0.	5.e-002	-1.3956e-006
30497	3.9587	3.3122e-031	0.1	2.6845
30498	4.0508	0.	5.e-002	-1.0031e-006
30499	3.7746	3.1581e-031	0.1	2.1802
30500	3.8667	0.	5.e-002	-9.8357e-007
30501	3.5905	3.0041e-031	0.1	1.4704
30502	3.6825	0.	5.e-002	-6.1857e-007
30503	3.4063	2.85e-031	0.1	0.5305
30504	3.4984	0.	5.e-002	-7.7171e-007
30505	3.2222	2.696e-031	0.1	-0.62314
30506	3.3143	0.	5.e-002	-4.3936e-007
30507	3.0381	2.5419e-031	0.1	-1.75
30508	3.1302	0.	5.e-002	-3.8319e-007
30509	2.854	2.3879e-031	0.1	-2.3987
30510	2.946	0.	5.e-002	-5.0996e-007
30511	2.6698	2.2338e-031	0.1	-2.7723
30512	2.7619	0.	5.e-002	-3.605e-008
30513	2.4857	2.0797e-031	0.1	-3.085
30514	2.5778	0.	5.e-002	-4.1812e-007
30515	2.3016	1.9257e-031	0.1	-3.3942
30516	2.3937	0.	5.e-002	-3.8498e-007
30517	2.1175	1.7716e-031	0.1	-3.7204
30518	2.2095	0.	5.e-002	-2.3855e-007
30519	1.9333	1.6176e-031	0.1	-4.0749
30520	2.0254	0.	5.e-002	-2.2364e-007
30521	1.7492	1.4635e-031	0.1	-4.4698
30522	1.8413	0.	5.e-002	-2.1132e-007
30523	1.5651	1.3095e-031	0.1	-4.9123
30524	1.6571	0.	5.e-002	-3.0173e-007
30525	1.381	1.1554e-031	0.1	-5.4343
30526	1.473	0.	5.e-002	-1.9275e-007
30527	1.1968	1.0014e-031	0.1	-6.0025
30528	1.2889	0.	5.e-002	-1.8572e-007
30529	1.0127	8.473e-032	0.1	-6.8172
30530	1.1048	0.	5.e-002	-1.7943e-007
30531	0.82857	6.9325e-032	0.1	-7.4354
30532	0.92063	0.	5.e-002	-1.7341e-007
30533	0.64444	5.3919e-032	0.1	-8.8841
30534	0.73651	0.	5.e-002	-1.6286e-007
30535	0.46032	3.8514e-032	0.1	-13.436
30536	0.55238	0.	5.e-002	-1.5241e-007
30537	0.27619	2.3108e-032	0.1	19.186
30538	0.36825	0.	5.e-002	-2.108e-007
30539	9.2063e-002	7.7028e-033	0.1	-166.11
30540	0.18413	0.	5.e-002	2.8631e-005
30541	0.	0.	5.e-002	-2.3897e-004
30542	9.2063e-002	6.	0.1	-166.11
30543	5.2451e-014	6.	5.e-002	1.7922e-004
30544	0.27619	6.	0.1	19.186
30545	0.18413	6.	5.e-002	-2.0981e-005
30546	0.46032	6.	0.1	-13.436
30547	0.36825	6.	5.e-002	1.4054e-007
30548	0.64444	6.	0.1	-8.8841
30549	0.55238	6.	5.e-002	1.5241e-007
30550	0.82857	6.	0.1	-7.4354
30551	0.73651	6.	5.e-002	9.5079e-007
30552	1.0127	6.	0.1	-6.8172
30553	0.92063	6.	5.e-002	1.7341e-007
30554	1.1968	6.	0.1	-6.0025
30555	1.1048	6.	5.e-002	1.7943e-007
30556	1.381	6.	0.1	-5.4343
30557	1.2889	6.	5.e-002	1.8572e-007
30558	1.5651	6.	0.1	-4.9123
30559	1.473	6.	5.e-002	9.6375e-008
30560	1.7492	6.	0.1	-4.4698
30561	1.6571	6.	5.e-002	2.0115e-007
30562	1.9333	6.	0.1	-4.0749
30563	1.8413	6.	5.e-002	2.1132e-007
30564	2.1175	6.	0.1	-3.7204
30565	2.0254	6.	5.e-002	2.2364e-007
30566	2.3016	6.	0.1	-3.3942
30567	2.2095	6.	5.e-002	2.3855e-007
30568	2.4857	6.	0.1	-3.085
30569	2.3937	6.	5.e-002	2.5665e-007
30570	2.6698	6.	0.1	-2.7723
30571	2.5778	6.	5.e-002	2.7875e-007
30572	2.854	6.	0.1	-2.3987
30573	2.7619	6.	5.e-002	1.5299e-007
30574	3.0381	6.	0.1	-1.75
30575	2.946	6.	5.e-002	3.3997e-007
30576	3.2222	6.	0.1	-0.62313
30577	3.1302	6.	5.e-002	3.8319e-007
30578	3.4063	6.	0.1	0.53051
30579	3.3143	6.	5.e-002	4.3936e-007
30580	3.5905	6.	0.1	1.4704
30581	3.4984	6.	5.e-002	5.1447e-007
30582	3.7746	6.	0.1	2.1802
30583	3.6825	6.	5.e-002	3.0929e-007
30584	3.9587	6.	0.1	2.6845
30585	3.8667	6.	5.e-002	7.6972e-007
30586	4.1429	6.	0.1	3.0134
30587	4.0508	6.	5.e-002	5.0156e-007
30588	4.327	6.	0.1	3.1952
30589	4.2349	6.	5.e-002	1.108e-006
30590	4.5111	6.	0.1	3.2552
30591	4.419	6.	5.e-002	2.5282e-006
30592	4.6952	6.	0.1	3.2155
30593	4.6032	6.	5.e-002	3.9477e-006
30594	4.8794	6.	0.1	3.095
30595	4.7873	6.	5.e-002	5.2426e-006
30596	5.0635	6.	0.1	2.9101
30597	4.9714	6.	5.e-002	3.4404e-005
30598	5.2476	6.	0.1	2.6745
30599	5.1556	6.	5.e-002	5.2407e-005
30600	5.4317	6.	0.1	2.4
30601	5.3397	6.	5.e-002	7.5578e-006
30602	5.6159	6.	0.1	2.0966
30603	5.5238	6.	5.e-002	1.6173e-006
30604	5.8	6.	0.1	1.7726
30605	5.7079	6.	5.e-002	1.9266e-006
30606	5.9841	6.	0.1	1.435
30607	5.8921	6.	5.e-002	1.3858e-006
30608	6.1683	6.	0.1	1.0897
30609	6.0762	6.	5.e-002	3.6504e-007
30610	6.3524	6.	0.1	0.74152
30611	6.2603	6.	5.e-002	8.8406e-007
30612	6.5365	6.	0.1	0.39451
30613	6.4444	6.	5.e-002	6.426e-007
30614	6.7206	6.	0.1	5.203e-002
30615	6.6286	6.	5.e-002	9.3035e-007
30616	6.9048	6.	0.1	-0.28314
30617	6.8127	6.	5.e-002	6.847e-007
30618	7.0889	6.	0.1	-0.28227
30619	6.9968	6.	5.e-002	8.5355e-007
30620	7.273	6.	0.1	-0.21828
30621	7.181	6.	5.e-002	7.1912e-007
30622	7.4571	6.	0.1	-0.15158
30623	7.3651	6.	5.e-002	8.9943e-007
30624	7.6413	6.	0.1	-8.0951e-002
30625	7.5492	6.	5.e-002	9.5546e-007
30626	7.8254	6.	0.1	-5.0413e-003
30627	7.7333	6.	5.e-002	1.0693e-006
30628	8.0095	6.	0.1	7.7612e-002
30629	7.9175	6.	5.e-002	1.0734e-006
30630	8.1937	6.	0.1	0.16855
30631	8.1016	6.	5.e-002	1.0767e-006
30632	8.3778	6.	0.1	0.26934
30633	8.2857	6.	5.e-002	1.1849e-006
30634	8.5619	6.	0.1	0.38145
30635	8.4698	6.	5.e-002	1.1898e-006
30636	8.746	6.	0.1	0.50607
30637	8.654	6.	5.e-002	1.4221e-006
30638	8.9302	6.	0.1	0.64382
30639	8.8381	6.	5.e-002	1.4694e-006
30640	9.1143	6.	0.1	0.79426
30641	9.0222	6.	5.e-002	1.7375e-006
30642	9.2984	6.	0.1	0.95528
30643	9.2063	6.	5.e-002	1.6205e-006
30644	9.4825	6.	0.1	1.1222
30645	9.3905	6.	5.e-002	1.8128e-006
30646	9.6667	6.	0.1	1.2865
30647	9.5746	6.	5.e-002	3.364e-006
30648	9.8508	6.	0.1	1.4348
30649	9.7587	6.	5.e-002	4.5232e-006
30650	10.035	6.	0.1	1.5465
30651	9.9429	6.	5.e-002	5.1389e-005
30652	10.219	6.	0.1	1.5942
30653	10.127	6.	5.e-002	3.6253e-005
30654	10.403	6.	0.1	1.5394
30655	10.311	6.	5.e-002	1.1283e-006
30656	10.587	6.	0.1	1.3489
30657	10.495	6.	5.e-002	1.4025e-006
30658	10.771	6.	0.1	0.9471
30659	10.679	6.	5.e-002	8.3933e-007
30660	10.956	6.	0.1	0.45752
30661	10.863	6.	5.e-002	9.513e-007
30662	11.14	6.	0.1	-0.70754
30663	11.048	6.	5.e-002	1.4458e-006
30664	11.324	6.	0.1	0.59027
30665	11.232	6.	5.e-002	2.1126e-006
30666	11.508	6.	0.1	14.125
30667	11.416	6.	5.e-002	1.4956e-006
30668	11.6	6.	5.e-002	1.1608e-006
30669	11.324	6.	0.	-0.59027
30670	11.508	6.	0.	-14.125
30671	11.14	6.	0.	0.70754
30672	10.956	6.	0.	-0.45752
30673	10.771	6.	0.	-0.9471
30674	10.587	6.	0.	-1.3489
30675	10.403	6.	0.	-1.5394
30676	10.219	6.	0.	-1.5942
30677	10.035	6.	0.	-1.5465
30678	9.8508	6.	0.	-1.4348
30679	9.6667	6.	0.	-1.2865
30680	9.4825	6.	0.	-1.1222
30681	9.2984	6.	0.	-0.95528
30682	9.1143	6.	0.	-0.79426
30683	8.9302	6.	0.	-0.64382
30684	8.746	6.	0.	-0.50607
30685	8.5619	6.	0.	-0.38145
30686	8.3778	6.	0.	-0.26934
30687	8.1937	6.	0.	-0.16855
30688	8.0095	6.	0.	-7.7612e-002
30689	7.8254	6.	0.	5.0414e-003
30690	7.6413	6.	0.	8.0951e-002
30691	7.4571	6.	0.	0.15158
30692	7.273	6.	0.	0.21828
30693	7.0889	6.	0.	0.28227
30694	6.9048	6.	0.	0.28314
30695	6.7206	6.	0.	-5.2028e-002
30696	6.5365	6.	0.	-0.39451
30697	6.3524	6.	0.	-0.74152
30698	6.1683	6.	0.	-1.0897
30699	5.9841	6.	0.	-1.435
30700	5.8	6.	0.	-1.7726
30701	5.6159	6.	0.	-2.0966
30702	5.4317	6.	0.	-2.4
30703	5.2476	6.	0.	-2.6745
30704	5.0635	6.	0.	-2.9101
30705	4.8794	6.	0.	-3.095
30706	4.6952	6.	0.	-3.2155
30707	4.5111	6.	0.	-3.2552
30708	4.327	6.	0.	-3.1952
30709	4.1429	6.	0.	-3.0134
30710	3.9587	6.	0.	-2.6845
30711	3.7746	6.	0.	-2.1802
30712	3.5905	6.	0.	-1.4704
30713	3.4063	6.	0.	-0.53051
30714	3.2222	6.	0.	0.62313
30715	3.0381	6.	0.	1.75
30716	2.854	6.	0.	2.3987
30717	2.6698	6.	0.	2.7723
30718	2.4857	6.	0.	3.085
30719	2.3016	6.	0.	3.3942
30720	2.1175	6.	0.	3.7204
30721	1.9333	6.	0.	4.0749
30722	1.7492	6.	0.	4.4698
30723	1.5651	6.	0.	4.9123
30724	1.381	6.	0.	5.4343
30725	1.1968	6.	0.	6.0025
30726	1.0127	6.	0.	6.8172
30727	0.82857	6.	0.	7.4354
30728	0.64444	6.	0.	8.8841
30729	0.46032	6.	0.	13.436
30730	0.27619	6.	0.	-19.186
30731	9.2063e-002	6.	0.	166.11
30732	11.6	5.9091	0.	3.4137
30733	5.1657e-014	5.9091	0.	-376.74
30734	0.27619	2.3108e-032	0.	-19.186
30735	9.2063e-002	7.7028e-033	0.	166.11
30736	0.46032	3.8514e-032	0.	13.436
30737	0.64444	5.3919e-032	0.	8.8841
30738	0.82857	6.9325e-032	0.	7.4354
30739	1.0127	8.473e-032	0.	6.8172
30740	1.1968	1.0014e-031	0.	6.0025
30741	1.381	1.1554e-031	0.	5.4343
30742	1.5651	1.3095e-031	0.	4.9123
30743	1.7492	1.4635e-031	0.	4.4698
30744	1.9333	1.6176e-031	0.	4.0749
30745	2.1175	1.7716e-031	0.	3.7204
30746	2.3016	1.9257e-031	0.	3.3942
30747	2.4857	2.0797e-031	0.	3.085
30748	2.6698	2.2338e-031	0.	2.7723
30749	2.854	2.3879e-031	0.	2.3987
30750	3.0381	2.5419e-031	0.	1.75
30751	3.2222	2.696e-031	0.	0.62314
30752	3.4063	2.85e-031	0.	-0.5305
30753	3.5905	3.0041e-031	0.	-1.4704
30754	3.7746	3.1581e-031	0.	-2.1802
30755	3.9587	3.3122e-031	0.	-2.6845
30756	4.1429	3.4662e-031	0.	-3.0133
30757	4.327	3.6203e-031	0.	-3.1952
30758	4.5111	3.7744e-031	0.	-3.2552
30759	4.6952	3.9284e-031	0.	-3.2155
30760	4.8794	4.0825e-031	0.	-3.095
30761	5.0635	4.2365e-031	0.	-2.9101
30762	5.2476	4.3906e-031	0.	-2.6745
30763	5.4317	4.5446e-031	0.	-2.4
30764	5.6159	4.6987e-031	0.	-2.0966
30765	5.8	4.8527e-031	0.	-1.7726
30766	5.9841	5.0068e-031	0.	-1.435
30767	6.1683	5.1608e-031	0.	-1.0897
30768	6.3524	5.3149e-031	0.	-0.74153
30769	6.5365	5.469e-031	0.	-0.39451
30770	6.7206	5.623e-031	0.	-5.2034e-002
30771	6.9048	5.7771e-031	0.	0.28314
30772	7.0889	5.9311e-031	0.	0.28227
30773	7.273	6.0852e-031	0.	0.21828
30774	7.4571	6.2392e-031	0.	0.15158
30775	7.6413	6.3933e-031	0.	8.0952e-002
30776	7.8254	6.5473e-031	0.	5.0422e-003
30777	8.0095	6.7014e-031	0.	-7.7611e-002
30778	8.1937	6.8555e-031	0.	-0.16855
30779	8.3778	7.0095e-031	0.	-0.26934
30780	8.5619	7.1636e-031	0.	-0.38145
30781	8.746	7.3176e-031	0.	-0.50607
30782	8.9302	7.4717e-031	0.	-0.64382
30783	9.1143	7.6257e-031	0.	-0.79426
30784	9.2984	7.7798e-031	0.	-0.95528
30785	9.4825	7.9338e-031	0.	-1.1222
30786	9.6667	8.0879e-031	0.	-1.2865
30787	9.8508	8.2419e-031	0.	-1.4347
30788	10.035	8.396e-031	0.	-1.5465
30789	10.219	8.5501e-031	0.	-1.5942
30790	10.403	8.7041e-031	0.	-1.5394
30791	10.587	8.8582e-031	0.	-1.3489
30792	10.771	9.0122e-031	0.	-0.9471
30793	10.956	9.1663e-031	0.	-0.45752
30794	11.14	9.3203e-031	0.	0.70754
30795	11.324	9.4744e-031	0.	-0.59027
30796	11.508	9.6284e-031	0.	-14.125
30797	11.6	9.0909e-002	0.	3.4137
30798	7.9472e-016	9.0909e-002	0.	-376.74
30799	12.041	0.	0.	0.31654
30800	11.858	0.	0.	-12.175
30801	12.223	0.	0.	1.4201
30802	12.406	0.	0.	0.41875
30803	12.588	0.	0.	-1.1899e-002
30804	12.771	0.	0.	-0.36853
30805	12.953	0.	0.	-0.55161
30806	13.136	0.	0.	-0.62576
30807	13.319	0.	0.	-0.61964
30808	13.501	0.	0.	-0.56529
30809	13.684	0.	0.	-0.48507
30810	13.866	0.	0.	-0.39489
30811	14.049	0.	0.	-0.30491
30812	14.232	0.	0.	-0.22123
30813	14.414	0.	0.	-0.14704
30814	14.597	0.	0.	-8.3668e-002
30815	14.779	0.	0.	-3.1239e-002
30816	14.962	0.	0.	1.085e-002
30817	15.145	0.	0.	4.3583e-002
30818	15.327	0.	0.	6.8086e-002
30819	15.51	0.	0.	8.5528e-002
30820	15.692	0.	0.	9.7028e-002
30821	15.875	0.	0.	0.1036
30822	16.057	0.	0.	0.10616
30823	16.24	0.	0.	0.10548
30824	16.423	0.	0.	0.10222
30825	16.605	0.	0.	9.6952e-002
30826	16.788	0.	0.	9.0126e-002
30827	16.97	0.	0.	8.2123e-002
30828	17.153	0.	0.	7.3244e-002
30829	17.336	0.	0.	6.3731e-002
30830	17.518	0.	0.	5.3773e-002
30831	17.701	0.	0.	4.3511e-002
30832	17.883	0.	0.	3.3053e-002
30833	18.066	0.	0.	2.2475e-002
30834	18.249	0.	0.	1.1825e-002
30835	18.431	0.	0.	1.131e-003
30836	18.614	0.	0.	-9.5958e-003
30837	18.796	0.	0.	-2.0361e-002
30838	18.979	0.	0.	-3.118e-002
30839	19.161	0.	0.	-4.2078e-002
30840	19.344	0.	0.	-5.3092e-002
30841	19.527	0.	0.	-6.4264e-002
30842	19.709	0.	0.	-7.5644e-002
30843	19.892	0.	0.	-8.729e-002
30844	20.074	0.	0.	-9.9263e-002
30845	20.257	0.	0.	-0.11164
30846	20.44	0.	0.	-0.12449
30847	20.622	0.	0.	-0.1379
30848	20.805	0.	0.	-0.15198
30849	20.987	0.	0.	-0.16683
30850	21.17	0.	0.	-0.18257
30851	21.352	0.	0.	-0.19936
30852	21.535	0.	0.	-0.21737
30853	21.718	0.	0.	-0.2368
30854	21.9	0.	0.	-0.25791
30855	22.083	0.	0.	-0.28101
30856	22.265	0.	0.	-0.30652
30857	22.448	0.	0.	-0.33499
30858	22.631	0.	0.	-0.36717
30859	22.813	0.	0.	-0.40403
30860	22.996	0.	0.	-0.44747
30861	23.178	0.	0.	-0.4984
30862	23.361	0.	0.	-0.56806
30863	23.544	0.	0.	-0.64794
30864	23.726	0.	0.	-0.86609
30865	23.909	0.	0.	-0.63827
30866	11.767	9.0909e-002	0.	0.3105
30867	24.	9.0909e-002	0.	2.4028
30868	5.0067e-014	5.7273	0.	-1763.5
30869	4.8478e-014	5.5455	0.	-2567.
30870	4.6888e-014	5.3636	0.	-2980.4
30871	4.5299e-014	5.1818	0.	-3239.
30872	4.371e-014	5.	0.	-3417.3
30873	4.212e-014	4.8182	0.	-3547.
30874	4.0531e-014	4.6364	0.	-3644.2
30875	3.8941e-014	4.4545	0.	-3718.6
30876	3.7352e-014	4.2727	0.	-3776.
30877	3.5762e-014	4.0909	0.	-3820.6
30878	3.4173e-014	3.9091	0.	-3855.1
30879	3.2583e-014	3.7273	0.	-3881.2
30880	3.0994e-014	3.5455	0.	-3900.3
30881	2.9405e-014	3.3636	0.	-3913.3
30882	2.7815e-014	3.1818	0.	-3920.8
30883	2.6226e-014	3.	0.	-3923.2
30884	2.4636e-014	2.8182	0.	-3920.8
30885	2.3047e-014	2.6364	0.	-3913.3
30886	2.1457e-014	2.4545	0.	-3900.3
30887	1.9868e-014	2.2727	0.	-3881.2
30888	1.8279e-014	2.0909	0.	-3855.1
30889	1.6689e-014	1.9091	0.	-3820.6
30890	1.51e-014	1.7273	0.	-3776.
30891	1.351e-014	1.5455	0.	-3718.6
30892	1.1921e-014	1.3636	0.	-3644.2
30893	1.0331e-014	1.1818	0.	-3547.
30894	8.7419e-015	1.	0.	-3417.3
30895	7.1525e-015	0.81818	0.	-3239.
30896	5.563e-015	0.63636	0.	-2980.4
30897	3.9736e-015	0.45455	0.	-2567.
30898	2.3842e-015	0.27273	0.	-1763.5
30899	24.	0.27273	0.	2.2156
30900	24.	0.45455	0.	2.3073
30901	24.	0.63636	0.	2.4216
30902	24.	0.81818	0.	2.4552
30903	24.	1.	0.	2.4836
30904	24.	1.1818	0.	2.5022
30905	24.	1.3636	0.	2.5165
30906	24.	1.5455	0.	2.5273
30907	24.	1.7273	0.	2.5357
30908	24.	1.9091	0.	2.5421
30909	24.	2.0909	0.	2.5471
30910	24.	2.2727	0.	2.5509
30911	24.	2.4545	0.	2.5537
30912	24.	2.6364	0.	2.5557
30913	24.	2.8182	0.	2.5568
30914	24.	3.	0.	2.5571
30915	24.	3.1818	0.	2.5568
30916	24.	3.3636	0.	2.5557
30917	24.	3.5455	0.	2.5537
30918	24.	3.7273	0.	2.5509
30919	24.	3.9091	0.	2.5471
30920	24.	4.0909	0.	2.5421
30921	24.	4.2727	0.	2.5357
30922	24.	4.4545	0.	2.5273
30923	24.	4.6364	0.	2.5165
30924	24.	4.8182	0.	2.5022
30925	24.	5.	0.	2.4836
30926	24.	5.1818	0.	2.4552
30927	24.	5.3636	0.	2.4216
30928	24.	5.5455	0.	2.3073
30929	24.	5.7273	0.	2.2156
30930	24.	5.9091	0.	2.4028
30931	23.909	6.	0.	-0.63828
30932	23.726	6.	0.	-0.86609
30933	23.544	6.	0.	-0.64794
30934	23.361	6.	0.	-0.56806
30935	23.178	6.	0.	-0.4984
30936	22.996	6.	0.	-0.44747
30937	22.813	6.	0.	-0.40403
30938	22.631	6.	0.	-0.36717
30939	22.448	6.	0.	-0.33499
30940	22.265	6.	0.	-0.30653
30941	22.083	6.	0.	-0.28101
30942	21.9	6.	0.	-0.25791
30943	21.718	6.	0.	-0.2368
30944	21.535	6.	0.	-0.21737
30945	21.352	6.	0.	-0.19936
30946	21.17	6.	0.	-0.18257
30947	20.987	6.	0.	-0.16683
30948	20.805	6.	0.	-0.15198
30949	20.622	6.	0.	-0.1379
30950	20.44	6.	0.	-0.12449
30951	20.257	6.	0.	-0.11164
30952	20.074	6.	0.	-9.9262e-002
30953	19.892	6.	0.	-8.7288e-002
30954	19.709	6.	0.	-7.5643e-002
30955	19.527	6.	0.	-6.4262e-002
30956	19.344	6.	0.	-5.309e-002
30957	19.161	6.	0.	-4.2077e-002
30958	18.979	6.	0.	-3.1179e-002
30959	18.796	6.	0.	-2.0361e-002
30960	18.614	6.	0.	-9.5971e-003
30961	18.431	6.	0.	1.1309e-003
30962	18.249	6.	0.	1.1826e-002
30963	18.066	6.	0.	2.2476e-002
30964	17.883	6.	0.	3.3055e-002
30965	17.701	6.	0.	4.3512e-002
30966	17.518	6.	0.	5.3773e-002
30967	17.336	6.	0.	6.3731e-002
30968	17.153	6.	0.	7.3244e-002
30969	16.97	6.	0.	8.2123e-002
30970	16.788	6.	0.	9.0127e-002
30971	16.605	6.	0.	9.6953e-002
30972	16.423	6.	0.	0.10222
30973	16.24	6.	0.	0.10548
30974	16.057	6.	0.	0.10616
30975	15.875	6.	0.	0.1036
30976	15.692	6.	0.	9.7029e-002
30977	15.51	6.	0.	8.553e-002
30978	15.327	6.	0.	6.8088e-002
30979	15.145	6.	0.	4.3585e-002
30980	14.962	6.	0.	1.085e-002
30981	14.779	6.	0.	-3.1239e-002
30982	14.597	6.	0.	-8.3668e-002
30983	14.414	6.	0.	-0.14704
30984	14.232	6.	0.	-0.22123
30985	14.049	6.	0.	-0.30491
30986	13.866	6.	0.	-0.39489
30987	13.684	6.	0.	-0.48507
30988	13.501	6.	0.	-0.56529
30989	13.319	6.	0.	-0.61964
30990	13.136	6.	0.	-0.62576
30991	12.953	6.	0.	-0.55161
30992	12.771	6.	0.	-0.36853
30993	12.588	6.	0.	-1.1898e-002
30994	12.406	6.	0.	0.41875
30995	12.223	6.	0.	1.4201
30996	12.041	6.	0.	0.31654
30997	11.858	6.	0.	-12.175
30998	11.767	5.9091	0.	0.3105
30999	11.6	1.7273	0.	43.185
31000	11.6	1.9091	0.	-782.32
31001	11.6	1.5455	0.	56.686
31002	11.6	1.3636	0.	24.572
31003	11.6	1.1818	0.	22.342
31004	11.6	1.	0.	17.41
31005	11.6	0.81818	0.	15.479
31006	11.6	0.63636	0.	13.759
31007	11.6	0.45455	0.	13.004
31008	11.6	0.27273	0.	11.617
31009	11.683	2.	0.	-1421.6
31010	11.767	0.27273	0.	9.2334
31011	11.767	0.45455	0.	10.586
31012	11.767	0.63636	0.	11.281
31013	11.767	0.81818	0.	12.906
31014	11.767	1.	0.	14.814
31015	11.767	1.1818	0.	19.434
31016	11.767	1.3636	0.	22.034
31017	11.767	1.5455	0.	53.24
31018	11.767	1.7273	0.	45.791
31019	11.767	1.9091	0.	-936.37
31020	11.6	4.2727	0.	43.185
31021	11.6	4.0909	0.	-782.32
31022	11.6	4.4545	0.	56.686
31023	11.6	4.6364	0.	24.572
31024	11.6	4.8182	0.	22.342
31025	11.6	5.	0.	17.41
31026	11.6	5.1818	0.	15.479
31027	11.6	5.3636	0.	13.759
31028	11.6	5.5455	0.	13.004
31029	11.6	5.7273	0.	11.617
31030	11.683	4.	0.	-1421.6
31031	11.767	5.7273	0.	9.2334
31032	11.767	5.5455	0.	10.586
31033	11.767	5.3636	0.	11.281
31034	11.767	5.1818	0.	12.906
31035	11.767	5.	0.	14.814
31036	11.767	4.8182	0.	19.434
31037	11.767	4.6364	0.	22.034
31038	11.767	4.4545	0.	53.24
31039	11.767	4.2727	0.	45.791
31040	11.767	4.0909	0.	-936.37
