Node Numbers,X Locations (inches),Y Locations (inches),Z Locations (inches),Equivalent Elastic Strains (in/in),Equivalent Stress (psi),Max Principal Elastic Strain (in/in),Max Principal Stress (psi),Middle Principal Elastic Strain (in/in),Middle Principal Stress (psi),Min Principal Elastic Strain (in/in),Min Principal Stress (psi),Total Deformation (in)
1,4.6877,2.5757,0,0.00079838,7243.7,0.00028191,478.89,0.00020959,-64.519,-0.00071629,-7021.2,0.14213
2,4.5222,3.5175,0,0.00085256,8136.3,0.00029129,358.81,0.00026317,147.55,-0.00080537,-7881.1,0.13074
3,5.4687,1.7885,0,0.00047391,4491.8,0.00016229,-123.23,0.00011248,-497.51,-0.00045888,-4790.5,0.19948
4,3.4375,3.4988,0,0.001021,10110,0.0004127,1114.6,0.00030042,270.89,-0.0009855,-9391,0.070058
5,5.5143,4.2154,0,0.00051836,4930.1,0.00019648,-203.45,8.2417e-05,-1060.5,-0.00050923,-5505.9,0.20369
6,3.1904,2.4253,0,0.0009001,8857.9,0.00035521,-80.269,0.00017229,-1454.7,-0.00090447,-9545,0.0593
7,2.8181,0.82286,0,0.00049011,4873.3,0.00018185,272.4,0.00015016,34.274,-0.00048201,-4715.6,0.040475
8,4.9245,0.48238,0,0.00039233,3855.5,0.0001464,254.41,0.000118,41.077,-0.00038035,-3703.3,0.14733
9,3.1761,4.5919,0,0.00062313,6131.7,0.00022359,252.05,0.00018958,-3.4895,-0.00060897,-6003.5,0.054694
10,2.914,5.1996,0,0.00048103,4756.8,0.00018252,323.91,0.00014317,28.233,-0.00046932,-4573.8,0.042953
11,4.6578,5.0876,0,0.0004093,3550.7,0.00016217,493.5,8.3295e-05,-99.12,-0.00034487,-3316.2,0.13111
12,5.3639,3.446,0,0.00063165,6264.4,0.00022442,-74.891,0.0001695,-487.52,-0.00063542,-6535.4,0.19322
13,5.6638,2.5193,0,0.00053513,5259.5,0.00020339,156.7,0.00013629,-347.51,-0.00052775,-5336.8,0.21752
14,1.0442,4.7317,0,0.0006122,6085.9,0.00033398,1009.8,4.1933e-05,-1184.5,-0.00058153,-5868.9,0.0056055
15,0.93624,1.1472,0,0.00060416,5997.1,0.00032873,1004.1,4.3208e-05,-1141.2,-0.00057294,-5770.6,0.0043896
16,4.8752,1.2081,0,0.00065505,6276.7,0.00024323,275.98,0.00017025,-272.32,-0.00062624,-6256.8,0.14884
17,5.0535,4.7565,0,0.00061453,5804.7,0.00023043,383.5,0.00015977,-147.39,-0.00057503,-5668.4,0.16406
18,1.8726,1.0363,0,0.00052588,5236.6,0.00018186,-239.2,0.00013522,-589.6,-0.00053724,-5642.2,0.018167
19,2.0866,4.5287,0,0.00051334,5083.7,0.00020519,-196.28,8.129e-05,-1127.2,-0.0005248,-5681.1,0.023775
20,5.7864,0.73376,0,0.00038946,3666.7,0.00014016,98.814,9.6979e-05,-225.65,-0.000368,-3719.3,0.2207
21,4.885,5.4764,0,0.00036914,3574.7,0.00014243,303.42,0.00010388,13.772,-0.00035144,-3407.3,0.14594
22,0.96357,2.3087,0,0.00065883,6558.8,0.0003718,941.93,-1.9442e-07,-1853.1,-0.0006255,-6551.4,0.0051247
23,1.0166,3.4998,0,0.00067058,6674.5,0.00037353,987.76,1.5075e-05,-1705.5,-0.00063801,-6612.6,0.0058183
24,2.0238,3.2171,0,0.0005469,5445.5,0.0002213,-206.92,8.4432e-05,-1235.3,-0.00056212,-6093.3,0.023851
25,6.6261,1.1906,0,0.00043153,4280.4,0.00015198,184.78,0.00014025,96.592,-0.00042348,-4139.1,0.2984
26,8.1366,1.2112,0,0.00039321,3923.3,0.00013693,-34.542,0.0001137,-209.11,-0.00039645,-4042.2,0.44821
27,9.3991,1.2006,0,0.00035162,3511.4,0.00011586,-24.268,0.0001139,-39.055,-0.00035246,-3543.1,0.58711
28,10.586,1.1986,0,0.00032083,3204.7,0.00010751,8.2245,0.00010374,-20.056,-0.00032088,-3210.5,0.72794
29,11.73,1.1878,0,0.00028928,2889.7,9.603e-05,-0.19416,9.4385e-05,-12.55,-0.00028938,-2896,0.87231
30,12.863,1.1749,0,0.00025963,2593.4,8.5837e-05,1.4297,8.5446e-05,-1.5048,-0.00025952,-2593.5,1.0226
31,13.995,1.1725,0,0.00023036,2300.9,7.6473e-05,5.6856,7.5678e-05,-0.29205,-0.00023016,-2298.2,1.1795
32,15.101,1.1712,0,0.00020248,2022.3,6.7698e-05,11.005,6.6238e-05,0.031238,-0.00020218,-2016.7,1.3385
33,16.217,1.1714,0,0.00017495,1747,5.8934e-05,14.858,5.6949e-05,-0.058329,-0.00017457,-1739.6,1.504
34,17.322,1.1734,0,0.00014844,1482,5.0532e-05,19.079,4.7994e-05,0.0094982,-0.00014797,-1472.4,1.672
35,18.432,1.1777,0,0.00012254,1223.1,4.24e-05,24.083,3.9188e-05,-0.048727,-0.00012197,-1210.9,1.8445
36,19.538,1.184,0,9.7554e-05,973.35,3.4743e-05,31.263,3.058e-05,-0.014794,-9.6833e-05,-957.35,2.0193
37,20.648,1.1884,0,7.3351e-05,731.4,2.7601e-05,41.649,2.2065e-05,0.058978,-7.2392e-05,-709.66,2.1971
38,21.763,1.1882,0,5.0039e-05,498.46,2.1176e-05,57.386,1.3531e-05,-0.05797,-4.8656e-05,-467.3,2.3775
39,22.883,1.1949,0,2.8583e-05,284.53,1.6187e-05,85.01,4.8489e-06,-0.17754,-2.6056e-05,-232.38,2.5599
40,22.871,2.3929,0,3.2178e-05,320.69,2.0402e-05,124.8,3.7812e-06,-0.07692,-2.809e-05,-239.54,2.5588
41,22.873,3.6018,0,3.2154e-05,320.4,2.0399e-05,125.07,3.7831e-06,0.21868,-2.805e-05,-238.96,2.5595
42,22.88,4.7966,0,2.8729e-05,285.98,1.6282e-05,85.621,4.8644e-06,-0.16905,-2.6182e-05,-233.44,2.5603
43,21.761,4.7923,0,5.0122e-05,499.3,2.1257e-05,58.053,1.3527e-05,-0.024257,-4.8724e-05,-467.75,2.3783
44,20.641,4.7905,0,7.3536e-05,733.21,2.7753e-05,42.796,2.2071e-05,0.10403,-7.2549e-05,-710.83,2.197
45,19.529,4.7389,0,9.7847e-05,976.31,3.5044e-05,33.7,3.0554e-05,-0.036072,-9.7082e-05,-959.04,2.019
46,18.42,4.6978,0,0.0001228,1225.8,4.2607e-05,25.543,3.9208e-05,0.00030746,-0.00012221,-1212.8,1.8439
47,17.316,4.6773,0,0.00014849,1482.6,5.0584e-05,19.52,4.7995e-05,0.068196,-0.00014802,-1472.7,1.6724
48,16.212,4.6701,0,0.00017496,1747.2,5.8919e-05,14.606,5.6968e-05,-0.052434,-0.00017459,-1739.9,1.5045
49,15.107,4.6703,0,0.0002022,2019.5,6.7544e-05,10.163,6.6173e-05,-0.13475,-0.00020191,-2014.4,1.3407
50,14,4.672,0,0.0002301,2298.3,7.6286e-05,4.3444,7.5636e-05,-0.5395,-0.00022992,-2296.4,1.1815
51,12.882,4.7176,0,0.00025889,2586,8.571e-05,0.86865,8.4946e-05,-4.8696,-0.00025885,-2588,1.0264
52,11.74,4.7561,0,0.00028897,2886.3,9.6063e-05,0.83283,9.4125e-05,-13.732,-0.00028905,-2892.7,0.87474
53,10.588,4.7668,0,0.0003201,3197.2,0.00010712,5.7403,0.0001035,-21.443,-0.0003202,-3204.9,0.72936
54,9.4121,4.7747,0,0.00035101,3505.1,0.00011705,-17.982,0.00011189,-56.768,-0.000352,-3542.3,0.58966
55,8.1836,4.7845,0,0.00039161,3908.5,0.00013552,-0.47881,0.00011799,-132.22,-0.00039321,-3973.2,0.45419
56,6.8485,4.7398,0,0.00041093,4068,0.00014991,255.83,0.0001313,116.01,-0.00040058,-3880.3,0.32053
57,5.8674,5.2761,0,0.00043786,4153.5,0.0001504,8.139,0.000115,-257.84,-0.00041924,-4271.9,0.22877
58,6.8531,2.4497,0,0.000427,4257.9,0.00015603,-17.494,0.00011215,-347.17,-0.00043133,-4430.7,0.32352
59,6.85,3.5466,0,0.00040681,4058.5,0.00014579,-102.25,0.00010401,-416.21,-0.00041404,-4308.6,0.32356
60,8.0659,2.3667,0,0.00038909,3885.8,0.00013613,-23.122,0.00011276,-198.72,-0.00039232,-3993.7,0.44431
61,9.3162,2.3858,0,0.00035048,3501.6,0.00012128,12.036,0.0001071,-94.464,-0.00035168,-3541.6,0.58104
62,10.515,2.3772,0,0.0003199,3196.3,0.0001089,4.2089,0.00010025,-60.79,-0.00032076,-3224.1,0.72253
63,11.697,2.3625,0,0.00028877,2885.1,9.6511e-05,-1.2196,9.3072e-05,-27.059,-0.00028918,-2899.2,0.87097
64,12.855,2.3534,0,0.00025885,2586.1,8.5919e-05,0.51017,8.457e-05,-9.6227,-0.00025894,-2590.6,1.0243
65,13.988,2.3506,0,0.00022984,2296.1,7.5895e-05,0.75212,7.577e-05,-0.18124,-0.00022976,-2295.8,1.181
66,15.098,2.3499,0,0.00020194,2017.1,6.7286e-05,7.9433,6.6199e-05,-0.22113,-0.00020172,-2013.3,1.3403
67,16.213,2.3513,0,0.00017454,1743.3,5.8707e-05,13.701,5.6894e-05,0.078708,-0.00017421,-1736.3,1.5054
68,17.32,2.3556,0,0.00014811,1479,5.0488e-05,19.788,4.7863e-05,0.063681,-0.00014766,-1469,1.6735
69,18.43,2.3617,0,0.0001224,1222,4.2632e-05,27.321,3.8991e-05,-0.037625,-0.0001218,-1208.2,1.8457
70,19.537,2.369,0,9.7732e-05,975.43,3.5421e-05,38.39,3.0255e-05,-0.42315,-9.6907e-05,-955.87,2.0205
71,20.646,2.3768,0,7.4157e-05,739.77,2.9017e-05,55.516,2.1627e-05,-0.0094036,-7.2927e-05,-710.45,2.198
72,21.757,2.3865,0,5.2011e-05,518.52,2.3856e-05,82.521,1.287e-05,-0.018958,-4.9989e-05,-472.31,2.3776
73,21.755,3.5902,0,5.21e-05,519.38,2.397e-05,83.271,1.2808e-05,-0.59436,-5.0057e-05,-472.94,2.3776
74,20.646,3.5785,0,7.4178e-05,739.99,2.9037e-05,55.654,2.1624e-05,-0.045409,-7.2946e-05,-710.61,2.1983
75,19.539,3.5557,0,9.7666e-05,974.73,3.5294e-05,37.71,3.035e-05,0.5686,-9.6836e-05,-955.06,2.0212
76,18.423,3.5306,0,0.00012257,1223.6,4.267e-05,27.217,3.906e-05,0.090317,-0.00012196,-1209.8,1.845
77,17.317,3.5175,0,0.00014815,1479.3,5.0497e-05,19.673,4.7867e-05,-0.09001,-0.00014769,-1469.4,1.6735
78,16.209,3.5104,0,0.00017464,1744.1,5.8758e-05,13.878,5.6897e-05,-0.10428,-0.00017429,-1737.2,1.5052
79,15.1,3.5079,0,0.00020185,2016.1,6.719e-05,7.5391,6.6228e-05,0.31308,-0.00020161,-2012.1,1.3411
80,13.987,3.5102,0,0.00022981,2295.5,7.5938e-05,1.4862,7.5709e-05,-0.23278,-0.00022968,-2294.8,1.1814
81,12.849,3.5236,0,0.00025903,2587.5,8.5852e-05,-0.29067,8.4732e-05,-8.7081,-0.00025908,-2592,1.024
82,11.696,3.5495,0,0.00028887,2885.6,9.6459e-05,-1.4743,9.3174e-05,-26.156,-0.00028922,-2899.3,0.87128
83,10.526,3.5579,0,0.00031982,3194.5,0.00010834,-1.1308,0.00010055,-59.63,-0.00032066,-3224.4,0.72425
84,9.3164,3.5745,0,0.00035151,3510.4,0.00012088,-1.6146,0.00010731,-103.57,-0.00035296,-3561.8,0.58144
85,8.1022,3.5873,0,0.00038564,3850.8,0.00013967,59.326,0.00011109,-155.42,-0.00038653,-3894.3,0.44852
86,2.8533,1.6851,0,0.00064423,6386.5,0.00022544,130.06,0.00019804,-75.856,-0.00063792,-6356.9,0.045249
87,3.4747,4.2141,0,0.0010206,9992.9,0.00050082,1707.7,0.00017816,-716.64,-0.0009608,-9274.3,0.068089
88,4.633,0.89628,0,0.00040221,3649.2,0.00018794,833.04,7.6447e-05,-4.6534,-0.00034379,-3162.1,0.12787
89,4.1211,2.6779,0,0.001112,10786,0.00059908,3255,0.0002184,394.74,-0.00098837,-8672.5,0.10556
90,3.9811,3.1224,0,0.0010719,10537,0.00040761,579.57,0.00029818,-242.66,-0.0010463,-10345,0.097914
91,3.4664,2.6026,0,0.00093983,9165.1,0.00036128,808.67,0.00027621,169.52,-0.00089883,-8659.3,0.071396
92,1.9382,2.0883,0,0.00055806,5552.9,0.00024815,-259.17,3.4754e-05,-1862.6,-0.00057412,-6437.4,0.021209
93,2.9232,3.8215,0,0.00069557,6852.3,0.00024825,440.24,0.00022938,298.47,-0.00067303,-6481.9,0.049377
94,2.9232,3.8215,0.1,0.00069557,6852.3,0.00067303,6481.9,-0.00022938,-298.47,-0.00024825,-440.24,0.049377
95,1.9382,2.0883,0.1,0.00055806,5552.9,0.00057412,6437.4,-3.4754e-05,1862.6,-0.00024815,259.17,0.021209
96,3.4664,2.6026,0.1,0.00093983,9165.1,0.00089883,8659.3,-0.00027621,-169.52,-0.00036128,-808.67,0.071396
97,3.9811,3.1224,0.1,0.0010719,10537,0.0010463,10345,-0.00029818,242.66,-0.00040761,-579.57,0.097914
98,4.1211,2.6779,0.1,0.001112,10786,0.00098837,8672.5,-0.0002184,-394.74,-0.00059908,-3255,0.10556
99,4.633,0.89628,0.1,0.00040221,3649.2,0.00034379,3162.1,-7.6447e-05,4.6534,-0.00018794,-833.04,0.12787
100,3.4747,4.2141,0.1,0.0010206,9992.9,0.0009608,9274.3,-0.00017816,716.64,-0.00050082,-1707.7,0.068089
101,2.8533,1.6851,0.1,0.00064423,6386.5,0.00063792,6356.9,-0.00019804,75.856,-0.00022544,-130.06,0.045249
102,8.1022,3.5873,0.1,0.00038564,3850.8,0.00038653,3894.3,-0.00011109,155.42,-0.00013967,-59.326,0.44852
103,9.3164,3.5745,0.1,0.00035151,3510.4,0.00035296,3561.8,-0.00010731,103.57,-0.00012088,1.6146,0.58144
104,10.526,3.5579,0.1,0.00031982,3194.5,0.00032066,3224.4,-0.00010055,59.63,-0.00010834,1.1308,0.72425
105,11.696,3.5495,0.1,0.00028887,2885.6,0.00028922,2899.3,-9.3174e-05,26.156,-9.6459e-05,1.4743,0.87128
106,12.849,3.5236,0.1,0.00025903,2587.5,0.00025908,2592,-8.4732e-05,8.7081,-8.5852e-05,0.29067,1.024
107,13.987,3.5102,0.1,0.00022981,2295.5,0.00022968,2294.8,-7.5709e-05,0.23278,-7.5938e-05,-1.4862,1.1814
108,15.1,3.5079,0.1,0.00020185,2016.1,0.00020161,2012.1,-6.6228e-05,-0.31308,-6.719e-05,-7.5391,1.3411
109,16.209,3.5104,0.1,0.00017464,1744.1,0.00017429,1737.2,-5.6897e-05,0.10428,-5.8758e-05,-13.878,1.5052
110,17.317,3.5175,0.1,0.00014815,1479.3,0.00014769,1469.4,-4.7867e-05,0.09001,-5.0497e-05,-19.673,1.6735
111,18.423,3.5306,0.1,0.00012257,1223.6,0.00012196,1209.8,-3.906e-05,-0.090318,-4.267e-05,-27.217,1.845
112,19.539,3.5557,0.1,9.7666e-05,974.73,9.6836e-05,955.06,-3.035e-05,-0.56861,-3.5294e-05,-37.71,2.0212
113,20.646,3.5785,0.1,7.4178e-05,739.99,7.2946e-05,710.61,-2.1624e-05,0.04541,-2.9037e-05,-55.654,2.1983
114,21.755,3.5902,0.1,5.21e-05,519.38,5.0057e-05,472.94,-1.2808e-05,0.59437,-2.397e-05,-83.271,2.3776
115,21.757,2.3865,0.1,5.2011e-05,518.52,4.9989e-05,472.31,-1.287e-05,0.018958,-2.3856e-05,-82.521,2.3776
116,20.646,2.3768,0.1,7.4157e-05,739.77,7.2927e-05,710.45,-2.1627e-05,0.0094033,-2.9017e-05,-55.516,2.198
117,19.537,2.369,0.1,9.7732e-05,975.43,9.6907e-05,955.87,-3.0255e-05,0.42315,-3.5421e-05,-38.39,2.0205
118,18.43,2.3617,0.1,0.0001224,1222,0.0001218,1208.2,-3.8991e-05,0.037625,-4.2632e-05,-27.321,1.8457
119,17.32,2.3556,0.1,0.00014811,1479,0.00014766,1469,-4.7863e-05,-0.06368,-5.0488e-05,-19.788,1.6735
120,16.213,2.3513,0.1,0.00017454,1743.3,0.00017421,1736.3,-5.6894e-05,-0.078708,-5.8707e-05,-13.701,1.5054
121,15.098,2.3499,0.1,0.00020194,2017.1,0.00020172,2013.3,-6.6199e-05,0.22112,-6.7286e-05,-7.9433,1.3403
122,13.988,2.3506,0.1,0.00022984,2296.1,0.00022976,2295.8,-7.577e-05,0.18124,-7.5895e-05,-0.75212,1.181
123,12.855,2.3534,0.1,0.00025885,2586.1,0.00025894,2590.6,-8.457e-05,9.6227,-8.5919e-05,-0.51017,1.0243
124,11.697,2.3625,0.1,0.00028877,2885.1,0.00028918,2899.2,-9.3072e-05,27.059,-9.6511e-05,1.2196,0.87097
125,10.515,2.3772,0.1,0.0003199,3196.3,0.00032076,3224.1,-0.00010025,60.79,-0.0001089,-4.2089,0.72253
126,9.3162,2.3858,0.1,0.00035048,3501.6,0.00035168,3541.6,-0.0001071,94.464,-0.00012128,-12.036,0.58104
127,8.0659,2.3667,0.1,0.00038909,3885.8,0.00039232,3993.7,-0.00011276,198.72,-0.00013613,23.122,0.44431
128,6.85,3.5466,0.1,0.00040681,4058.5,0.00041404,4308.6,-0.00010401,416.21,-0.00014579,102.25,0.32356
129,6.8531,2.4497,0.1,0.000427,4257.9,0.00043133,4430.7,-0.00011215,347.17,-0.00015603,17.494,0.32352
130,5.8674,5.2761,0.1,0.00043786,4153.5,0.00041924,4271.9,-0.000115,257.84,-0.0001504,-8.139,0.22877
131,6.8485,4.7398,0.1,0.00041093,4068,0.00040058,3880.3,-0.0001313,-116.01,-0.00014991,-255.83,0.32053
132,8.1836,4.7845,0.1,0.00039161,3908.5,0.00039321,3973.2,-0.00011799,132.22,-0.00013552,0.47881,0.45419
133,9.4121,4.7747,0.1,0.00035101,3505.1,0.000352,3542.3,-0.00011189,56.768,-0.00011705,17.982,0.58966
134,10.588,4.7668,0.1,0.0003201,3197.2,0.0003202,3204.9,-0.0001035,21.443,-0.00010712,-5.7403,0.72936
135,11.74,4.7561,0.1,0.00028897,2886.3,0.00028905,2892.7,-9.4125e-05,13.732,-9.6063e-05,-0.83283,0.87474
136,12.882,4.7176,0.1,0.00025889,2586,0.00025885,2588,-8.4946e-05,4.8696,-8.571e-05,-0.86865,1.0264
137,14,4.672,0.1,0.0002301,2298.3,0.00022992,2296.4,-7.5636e-05,0.5395,-7.6286e-05,-4.3444,1.1815
138,15.107,4.6703,0.1,0.0002022,2019.5,0.00020191,2014.4,-6.6173e-05,0.13475,-6.7544e-05,-10.163,1.3407
139,16.212,4.6701,0.1,0.00017496,1747.2,0.00017459,1739.9,-5.6968e-05,0.052434,-5.8919e-05,-14.606,1.5045
140,17.316,4.6773,0.1,0.00014849,1482.6,0.00014802,1472.7,-4.7995e-05,-0.068196,-5.0584e-05,-19.52,1.6724
141,18.42,4.6978,0.1,0.0001228,1225.8,0.00012221,1212.8,-3.9208e-05,-0.00030721,-4.2607e-05,-25.543,1.8439
142,19.529,4.7389,0.1,9.7847e-05,976.31,9.7082e-05,959.04,-3.0554e-05,0.036072,-3.5044e-05,-33.7,2.019
143,20.641,4.7905,0.1,7.3536e-05,733.21,7.2549e-05,710.83,-2.2071e-05,-0.10403,-2.7753e-05,-42.796,2.197
144,21.761,4.7923,0.1,5.0122e-05,499.3,4.8724e-05,467.75,-1.3527e-05,0.024257,-2.1257e-05,-58.053,2.3783
145,22.88,4.7966,0.1,2.8729e-05,285.98,2.6182e-05,233.44,-4.8644e-06,0.16904,-1.6282e-05,-85.621,2.5603
146,22.873,3.6018,0.1,3.2154e-05,320.4,2.805e-05,238.96,-3.7831e-06,-0.21868,-2.0399e-05,-125.07,2.5595
147,22.871,2.3929,0.1,3.2178e-05,320.69,2.809e-05,239.54,-3.7812e-06,0.076919,-2.0402e-05,-124.8,2.5588
148,22.883,1.1949,0.1,2.8583e-05,284.53,2.6056e-05,232.38,-4.8489e-06,0.17754,-1.6187e-05,-85.01,2.5599
149,21.763,1.1882,0.1,5.0039e-05,498.46,4.8656e-05,467.3,-1.3531e-05,0.057969,-2.1176e-05,-57.386,2.3775
150,20.648,1.1884,0.1,7.3351e-05,731.4,7.2392e-05,709.66,-2.2065e-05,-0.05898,-2.7601e-05,-41.649,2.1971
151,19.538,1.184,0.1,9.7554e-05,973.35,9.6833e-05,957.35,-3.058e-05,0.014794,-3.4743e-05,-31.263,2.0193
152,18.432,1.1777,0.1,0.00012254,1223.1,0.00012197,1210.9,-3.9188e-05,0.048728,-4.24e-05,-24.083,1.8445
153,17.322,1.1734,0.1,0.00014844,1482,0.00014797,1472.4,-4.7994e-05,-0.0094992,-5.0532e-05,-19.079,1.672
154,16.217,1.1714,0.1,0.00017495,1747,0.00017457,1739.6,-5.6949e-05,0.058329,-5.8934e-05,-14.858,1.504
155,15.101,1.1712,0.1,0.00020248,2022.3,0.00020218,2016.7,-6.6238e-05,-0.031237,-6.7698e-05,-11.005,1.3385
156,13.995,1.1725,0.1,0.00023036,2300.9,0.00023016,2298.2,-7.5678e-05,0.29205,-7.6473e-05,-5.6856,1.1795
157,12.863,1.1749,0.1,0.00025963,2593.4,0.00025952,2593.5,-8.5446e-05,1.5048,-8.5837e-05,-1.4297,1.0226
158,11.73,1.1878,0.1,0.00028928,2889.7,0.00028938,2896,-9.4385e-05,12.55,-9.603e-05,0.19416,0.87231
159,10.586,1.1986,0.1,0.00032083,3204.7,0.00032088,3210.5,-0.00010374,20.056,-0.00010751,-8.2245,0.72794
160,9.3991,1.2006,0.1,0.00035162,3511.4,0.00035246,3543.1,-0.0001139,39.055,-0.00011586,24.268,0.58711
161,8.1366,1.2112,0.1,0.00039321,3923.3,0.00039645,4042.2,-0.0001137,209.11,-0.00013693,34.542,0.44821
162,6.6261,1.1906,0.1,0.00043153,4280.4,0.00042348,4139.1,-0.00014025,-96.592,-0.00015198,-184.78,0.2984
163,2.0238,3.2171,0.1,0.0005469,5445.5,0.00056212,6093.3,-8.4432e-05,1235.3,-0.0002213,206.92,0.023851
164,1.0166,3.4998,0.1,0.00067058,6674.5,0.00063801,6612.6,-1.5075e-05,1705.5,-0.00037353,-987.76,0.0058183
165,0.96357,2.3087,0.1,0.00065883,6558.8,0.0006255,6551.4,1.9442e-07,1853.1,-0.0003718,-941.93,0.0051247
166,4.885,5.4764,0.1,0.00036914,3574.7,0.00035144,3407.3,-0.00010388,-13.772,-0.00014243,-303.42,0.14594
167,5.7864,0.73376,0.1,0.00038946,3666.7,0.000368,3719.3,-9.6979e-05,225.65,-0.00014016,-98.814,0.2207
168,2.0866,4.5287,0.1,0.00051334,5083.7,0.0005248,5681.1,-8.129e-05,1127.2,-0.00020519,196.28,0.023775
169,1.8726,1.0363,0.1,0.00052588,5236.6,0.00053724,5642.2,-0.00013522,589.6,-0.00018186,239.2,0.018167
170,5.0535,4.7565,0.1,0.00061453,5804.7,0.00057503,5668.4,-0.00015977,147.39,-0.00023043,-383.5,0.16406
171,4.8752,1.2081,0.1,0.00065505,6276.7,0.00062624,6256.8,-0.00017025,272.32,-0.00024323,-275.98,0.14884
172,0.93624,1.1472,0.1,0.00060416,5997.1,0.00057294,5770.6,-4.3208e-05,1141.2,-0.00032873,-1004.1,0.0043896
173,1.0442,4.7317,0.1,0.0006122,6085.9,0.00058153,5868.9,-4.1933e-05,1184.5,-0.00033398,-1009.8,0.0056055
174,5.6638,2.5193,0.1,0.00053513,5259.5,0.00052775,5336.8,-0.00013629,347.51,-0.00020339,-156.7,0.21752
175,5.3639,3.446,0.1,0.00063165,6264.4,0.00063542,6535.4,-0.0001695,487.52,-0.00022442,74.891,0.19322
176,4.6578,5.0876,0.1,0.0004093,3550.7,0.00034487,3316.2,-8.3295e-05,99.12,-0.00016217,-493.5,0.13111
177,2.914,5.1996,0.1,0.00048103,4756.8,0.00046932,4573.8,-0.00014317,-28.233,-0.00018252,-323.91,0.042953
178,3.1761,4.5919,0.1,0.00062313,6131.7,0.00060897,6003.5,-0.00018958,3.4895,-0.00022359,-252.05,0.054694
179,4.9245,0.48238,0.1,0.00039233,3855.5,0.00038035,3703.3,-0.000118,-41.077,-0.0001464,-254.41,0.14733
180,2.8181,0.82286,0.1,0.00049011,4873.3,0.00048201,4715.6,-0.00015016,-34.274,-0.00018185,-272.4,0.040475
181,3.1904,2.4253,0.1,0.0009001,8857.9,0.00090447,9545,-0.00017229,1454.7,-0.00035521,80.269,0.0593
182,5.5143,4.2154,0.1,0.00051836,4930.1,0.00050923,5505.9,-8.2417e-05,1060.5,-0.00019648,203.45,0.20369
183,3.4375,3.4988,0.1,0.001021,10110,0.0009855,9391,-0.00030042,-270.89,-0.0004127,-1114.6,0.070058
184,5.4687,1.7885,0.1,0.00047391,4491.8,0.00045888,4790.5,-0.00011248,497.51,-0.00016229,123.23,0.19948
185,4.5222,3.5175,0.1,0.00085256,8136.3,0.00080537,7881.1,-0.00026317,-147.55,-0.00029129,-358.81,0.13074
186,4.6877,2.5757,0.1,0.00079838,7243.7,0.00071629,7021.2,-0.00020959,64.519,-0.00028191,-478.89,0.14213
187,4.0267,4,0,0.001662,16409,0.00088871,3490,0.00022439,-1501.4,-0.0015502,-14835,0.095701
188,4.0267,4.5,0,0.00058211,5768.4,0.00046011,3858.5,2.1288e-05,561.35,-0.00042636,-2802.1,0.089597
189,4.0267,5,0,0.00041762,4109.6,0.00031341,2257,-8.6974e-06,-163.15,-0.00031812,-2488,0.083899
190,4.0267,5.5,0,0.00015534,1282.3,7.8115e-05,390.59,1.089e-05,-114.51,-0.00011593,-1067.4,0.078888
191,3.86,4,0,0.0022902,22737,0.00082659,162.77,0.00063486,-1277.8,-0.0022908,-23260,0.086753
192,3.86,5.5,0,0.00025895,2552.8,0.00016507,898.85,1.2358e-05,-248.59,-0.00022425,-2026.4,0.07012
193,3.86,5,0,0.00041774,4114.1,0.00024467,1255.4,4.9189e-05,-213.39,-0.0003738,-3391.6,0.075037
194,3.86,4.5,0,0.00098609,9690,0.00086252,8006.3,-3.8494e-05,1236.5,-0.0006148,-3093.7,0.080592
195,4.0267,2,0,0.0016073,15888,0.00077573,2488.5,0.00030182,-1072.3,-0.0015355,-14878,0.095158
196,4.0267,1.5,0,0.00069909,6835.3,0.00059489,5323.3,-2.8865e-05,636.71,-0.00044897,-2519.8,0.088638
197,4.0267,1,0,0.0003011,2852.3,0.00018672,1018.8,9.6785e-06,-311.43,-0.00024908,-2255.6,0.082795
198,4.0267,0.5,0,0.0001834,1708.7,0.00011601,734.23,1.0169e-05,-61.035,-0.00014503,-1227.1,0.077423
199,3.86,2,0,0.0023829,23413,0.00082129,-981.92,0.00059826,-2657.7,-0.0024004,-25188,0.086273
200,3.86,0.5,0,0.0002586,2553.8,0.0001638,986.05,2.6011e-05,-49.217,-0.00022336,-1922.9,0.070389
201,3.86,1,0,0.00054184,5350.2,0.00034704,2156.3,5.5586e-05,-33.633,-0.00046451,-3941.4,0.075362
202,3.86,1.5,0,0.0010175,10153,0.00070429,4620.1,5.2945e-05,-273.86,-0.00084933,-7053.2,0.080726
203,4.0267,6,0,7.1046e-05,709.97,3.0133e-05,113.31,2.2362e-05,54.921,-6.8004e-05,-624.05,0.074127
204,5.1363,6,0,0.0003279,3272.7,0.00011392,63.325,0.00010394,-11.676,-0.00032656,-3246.3,0.162
205,6.2459,6,0,0.00042737,4259.8,0.00014651,34.774,0.00013392,-59.832,-0.00042662,-4271.5,0.25726
206,7.3556,6,0,0.00039616,3954.1,0.00014494,-2.3975,0.00010538,-299.66,-0.00039998,-4096.7,0.3627
207,8.4652,6,0,0.00037894,3785.2,0.00012865,55.598,0.00012392,20.055,-0.00037748,-3747.3,0.4779
208,9.5748,6,0,0.00035228,3519.3,0.0001183,23.551,0.00011485,-2.4127,-0.0003518,-3508.6,0.60239
209,10.684,6,0,0.00032075,3204.4,0.00010723,15.436,0.00010485,-2.4602,-0.00032044,-3197.9,0.73555
210,11.794,6,0,0.00028972,2894.7,9.6246e-05,7.5866,9.5179e-05,-0.4287,-0.00028955,-2891.1,0.87656
211,12.904,6,0,0.00025963,2594.2,8.642e-05,9.0261,8.5219e-05,0.0035741,-0.00025944,-2589.6,1.0247
212,14.013,6,0,0.00023044,2302.5,7.6848e-05,10.009,7.5581e-05,0.48676,-0.00023023,-2297.3,1.1792
213,15.123,6,0,0.00020214,2019.9,6.767e-05,11.576,6.6126e-05,-0.028792,-0.00020193,-2014.1,1.3393
214,16.233,6,0,0.00017454,1744.1,5.8526e-05,11.265,5.7049e-05,0.16582,-0.00017433,-1738.3,1.5044
215,17.342,6,0,0.00014766,1475.6,4.9715e-05,11.815,4.8137e-05,-0.040285,-0.00014745,-1469.6,1.6737
216,18.452,6,0,0.00012149,1214,4.1163e-05,12.788,3.9445e-05,-0.12526,-0.00012127,-1207.6,1.8466
217,19.561,6,0,9.5955e-05,958.86,3.2884e-05,14.375,3.0913e-05,-0.43553,-9.5706e-05,-951.8,2.0224
218,20.671,6,0,7.1036e-05,709.86,2.4694e-05,14.889,2.2679e-05,-0.25645,-7.0774e-05,-702.42,2.2006
219,21.781,6,0,4.6499e-05,464.65,1.6491e-05,14.161,1.4691e-05,0.63452,-4.623e-05,-457.1,2.3805
220,22.89,6,0,2.2248e-05,222.27,8.536e-06,14.536,6.6206e-06,0.14522,-2.1958e-05,-214.58,2.5614
221,24,6,0,3.1243e-06,31.221,2.7154e-06,22.377,-4.564e-07,-1.4553,-1.9884e-06,-12.966,2.7428
222,24,4.8,0,1.451e-05,144.89,1.4475e-05,144.42,-4.3373e-06,3.0718,-5.2478e-06,-3.7697,2.7434
223,24,3.6,0,1.8458e-05,184.2,1.8433e-05,184.36,-5.673e-06,3.2318,-6.4723e-06,-2.7734,2.7436
224,24,2.4,0,1.8441e-05,184.03,1.8422e-05,184.36,-5.6666e-06,3.3712,-6.455e-06,-2.5528,2.7432
225,24,1.2,0,1.4482e-05,144.6,1.4456e-05,144.4,-4.3264e-06,3.2776,-5.2223e-06,-3.4541,2.7424
226,0,1.2,0,0.00038478,3796.3,2.0793e-06,-3692.7,-4.267e-06,-3740.4,-0.00050632,-7512.6,0
227,0,2.4,0,0.00038263,3817,1.145e-05,-3642.8,-1.3974e-05,-3833.8,-0.00050879,-7551.7,0
228,0,3.6,0,0.00039459,3928.5,2.3158e-06,-3823.5,-4.8976e-06,-3877.7,-0.0005241,-7778.8,0
229,0,4.8,0,0.00038203,3769.4,8.0493e-07,-3678.6,-3.2042e-06,-3708.7,-0.00050286,-7463,0
230,24,0,0,3.1639e-06,31.617,2.7448e-06,22.531,-4.6379e-07,-1.5775,-2.0195e-06,-13.266,2.7412
231,4.0267,0,0,7.9408e-05,793.53,3.3286e-05,145.07,2.744e-05,101.15,-7.5128e-05,-669.51,0.072362
232,22.89,0,0,2.2241e-05,222.2,8.5252e-06,14.563,6.6352e-06,0.36228,-2.1947e-05,-214.39,2.5597
233,21.781,0,0,4.6493e-05,464.59,1.6576e-05,15.115,1.4627e-05,0.47438,-4.6208e-05,-456.62,2.3788
234,20.671,0,0,7.0899e-05,708.48,2.4705e-05,15.615,2.2604e-05,-0.16496,-7.0621e-05,-700.63,2.199
235,19.561,0,0,9.5814e-05,957.46,3.2821e-05,14.516,3.0908e-05,0.14689,-9.5554e-05,-950.04,2.0208
236,18.452,0,0,0.00012135,1212.6,4.1134e-05,13.168,3.9401e-05,0.15223,-0.00012111,-1205.9,1.8449
237,17.342,0,0,0.00014751,1474,4.9672e-05,11.958,4.8086e-05,0.044852,-0.0001473,-1468,1.672
238,16.233,0,0,0.00017443,1743,5.846e-05,10.902,5.7034e-05,0.18911,-0.00017423,-1737.5,1.5027
239,15.123,0,0,0.00020202,2018.6,6.7491e-05,9.9942,6.6172e-05,0.08817,-0.00020183,-2013.6,1.3376
240,14.013,0,0,0.00023049,2303.1,7.6766e-05,8.7014,7.5649e-05,0.31111,-0.00023031,-2298.6,1.1775
241,12.904,0,0,0.00025967,2594.5,8.6347e-05,7.6251,8.5249e-05,-0.62536,-0.00025951,-2591,1.023
242,11.794,0,0,0.00028986,2896,9.6295e-05,7.4292,9.5199e-05,-0.80956,-0.00028969,-2892.7,0.87491
243,10.684,0,0,0.00032051,3201.9,0.00010723,14.589,0.00010455,-5.577,-0.00032026,-3197.4,0.7339
244,9.5748,0,0,0.00035258,3521.8,0.00011838,23.627,0.00011495,-2.1407,-0.00035205,-3511,0.60074
245,8.4652,0,0,0.00037827,3777.5,0.00012961,79.521,0.00012379,35.854,-0.00037603,-3719.6,0.47626
246,7.3556,0,0,0.0003969,3963.9,0.00014795,-64.653,9.4883e-05,-463.39,-0.00040414,-4212.8,0.36109
247,6.2459,0,0,0.00042243,4211.9,0.00015022,156.32,0.00013449,38.15,-0.00041805,-4113.4,0.2557
248,5.1363,0,0,0.00033589,3352.2,0.00012159,78.676,9.9241e-05,-89.217,-0.00033531,-3354.3,0.16033
249,0,0,0,0.00015282,1527.2,3.2083e-05,-797,7.7954e-06,-979.49,-0.00018222,-2407.2,0
250,3.86,0,0,4.1806e-05,417.77,2.1387e-05,108.73,1.0381e-05,26.038,-3.8894e-05,-344.2,0.065972
251,2.895,0,0,0.00038192,3803.7,0.0001417,235.32,0.00011974,70.295,-0.00037516,-3648.2,0.037404
252,1.93,0,0,0.00055406,5534.1,0.0002092,221.33,0.00015745,-167.48,-0.00055185,-5496.9,0.015161
253,0.965,0,0,0.00064317,6423.5,0.00024161,406.02,0.00019896,85.614,-0.00063383,-6171.6,0.0026516
254,0,6,0,0.00015554,1554.3,2.8917e-05,-857.16,1.0357e-05,-996.61,-0.00018661,-2476.5,0
255,3.86,6,0,4.5859e-05,458.27,2.7525e-05,228.39,1.4395e-05,129.74,-3.8962e-05,-271.17,0.065616
256,0.965,6,0,0.0006505,6493.2,0.00023626,382.46,0.00021238,202.99,-0.00063962,-6198.6,0.0026201
257,1.93,6,0,0.00054351,5427.5,0.0001852,-137.68,0.00015629,-354.91,-0.00055118,-5670.6,0.015059
258,2.895,6,0,0.00035985,3589.8,0.00012953,115.86,0.00011042,-27.71,-0.00035752,-3543.6,0.037069
259,4.0267,4,0.1,0.001662,16409,0.0015502,14835,-0.00022439,1501.4,-0.00088871,-3490,0.095701
260,4.0267,4.5,0.1,0.00058211,5768.4,0.00042636,2802.1,-2.1288e-05,-561.35,-0.00046011,-3858.5,0.089597
261,4.0267,5,0.1,0.00041762,4109.6,0.00031812,2488,8.6974e-06,163.15,-0.00031341,-2257,0.083899
262,4.0267,5.5,0.1,0.00015534,1282.3,0.00011593,1067.4,-1.089e-05,114.51,-7.8115e-05,-390.59,0.078888
263,3.86,5.5,0.1,0.00025895,2552.8,0.00022425,2026.4,-1.2358e-05,248.59,-0.00016507,-898.85,0.07012
264,3.86,5,0.1,0.00041774,4114.1,0.0003738,3391.6,-4.9189e-05,213.39,-0.00024467,-1255.4,0.075037
265,3.86,4.5,0.1,0.00098609,9690,0.0006148,3093.7,3.8494e-05,-1236.5,-0.00086251,-8006.3,0.080592
266,3.86,4,0.1,0.0022902,22737,0.0022908,23260,-0.00063486,1277.8,-0.00082659,-162.77,0.086753
267,4.0267,2,0.1,0.0016073,15888,0.0015355,14878,-0.00030182,1072.3,-0.00077573,-2488.5,0.095158
268,4.0267,1.5,0.1,0.00069909,6835.3,0.00044897,2519.8,2.8865e-05,-636.71,-0.00059489,-5323.3,0.088638
269,4.0267,1,0.1,0.0003011,2852.3,0.00024908,2255.6,-9.6785e-06,311.43,-0.00018672,-1018.8,0.082795
270,4.0267,0.5,0.1,0.0001834,1708.7,0.00014503,1227.1,-1.0169e-05,61.035,-0.00011601,-734.23,0.077423
271,3.86,0.5,0.1,0.0002586,2553.8,0.00022336,1922.9,-2.6011e-05,49.217,-0.0001638,-986.05,0.070389
272,3.86,1,0.1,0.00054184,5350.2,0.00046451,3941.4,-5.5586e-05,33.633,-0.00034704,-2156.3,0.075362
273,3.86,1.5,0.1,0.0010175,10153,0.00084933,7053.2,-5.2945e-05,273.86,-0.00070429,-4620.1,0.080726
274,3.86,2,0.1,0.0023829,23413,0.0024004,25188,-0.00059826,2657.7,-0.00082129,981.92,0.086273
275,4.0267,6,0.1,7.1046e-05,709.97,6.8004e-05,624.05,-2.2362e-05,-54.921,-3.0133e-05,-113.31,0.074127
276,5.1363,6,0.1,0.0003279,3272.7,0.00032656,3246.3,-0.00010394,11.676,-0.00011392,-63.325,0.162
277,6.2459,6,0.1,0.00042737,4259.8,0.00042662,4271.5,-0.00013392,59.832,-0.00014651,-34.774,0.25726
278,7.3556,6,0.1,0.00039616,3954.1,0.00039998,4096.7,-0.00010538,299.66,-0.00014494,2.3975,0.3627
279,8.4652,6,0.1,0.00037894,3785.2,0.00037748,3747.3,-0.00012392,-20.055,-0.00012865,-55.598,0.4779
280,9.5748,6,0.1,0.00035228,3519.3,0.0003518,3508.6,-0.00011485,2.4127,-0.0001183,-23.551,0.60239
281,10.684,6,0.1,0.00032075,3204.4,0.00032044,3197.9,-0.00010485,2.4602,-0.00010723,-15.436,0.73555
282,11.794,6,0.1,0.00028972,2894.7,0.00028955,2891.1,-9.5179e-05,0.4287,-9.6246e-05,-7.5866,0.87656
283,12.904,6,0.1,0.00025963,2594.2,0.00025944,2589.6,-8.5219e-05,-0.0035739,-8.642e-05,-9.0261,1.0247
284,14.013,6,0.1,0.00023044,2302.5,0.00023023,2297.3,-7.5581e-05,-0.48676,-7.6848e-05,-10.009,1.1792
285,15.123,6,0.1,0.00020214,2019.9,0.00020193,2014.1,-6.6126e-05,0.028792,-6.767e-05,-11.576,1.3393
286,16.233,6,0.1,0.00017454,1744.1,0.00017433,1738.3,-5.7049e-05,-0.16582,-5.8526e-05,-11.265,1.5044
287,17.342,6,0.1,0.00014766,1475.6,0.00014745,1469.6,-4.8137e-05,0.040285,-4.9715e-05,-11.815,1.6737
288,18.452,6,0.1,0.00012149,1214,0.00012127,1207.6,-3.9445e-05,0.12526,-4.1163e-05,-12.788,1.8466
289,19.561,6,0.1,9.5955e-05,958.86,9.5706e-05,951.8,-3.0913e-05,0.43553,-3.2884e-05,-14.375,2.0224
290,20.671,6,0.1,7.1036e-05,709.86,7.0774e-05,702.42,-2.2679e-05,0.25645,-2.4694e-05,-14.889,2.2006
291,21.781,6,0.1,4.6499e-05,464.65,4.623e-05,457.1,-1.4691e-05,-0.63452,-1.6491e-05,-14.161,2.3805
292,22.89,6,0.1,2.2248e-05,222.27,2.1958e-05,214.58,-6.6206e-06,-0.14522,-8.536e-06,-14.536,2.5614
293,24,6,0.1,3.1243e-06,31.221,1.9884e-06,12.966,4.564e-07,1.4553,-2.7154e-06,-22.377,2.7428
294,24,4.8,0.1,1.451e-05,144.89,5.2478e-06,3.7697,4.3373e-06,-3.0718,-1.4475e-05,-144.42,2.7434
295,24,3.6,0.1,1.8458e-05,184.2,6.4723e-06,2.7734,5.673e-06,-3.2318,-1.8433e-05,-184.36,2.7436
296,24,2.4,0.1,1.8441e-05,184.03,6.455e-06,2.5528,5.6666e-06,-3.3712,-1.8422e-05,-184.36,2.7432
297,24,1.2,0.1,1.4482e-05,144.6,5.2223e-06,3.4541,4.3264e-06,-3.2776,-1.4456e-05,-144.4,2.7424
298,0,1.2,0.1,0.00038478,3796.3,0.00050632,7512.6,4.267e-06,3740.4,-2.0793e-06,3692.7,0
299,0,2.4,0.1,0.00038263,3817,0.00050879,7551.7,1.3974e-05,3833.8,-1.145e-05,3642.8,0
300,0,3.6,0.1,0.00039459,3928.5,0.0005241,7778.8,4.8976e-06,3877.7,-2.3158e-06,3823.5,0
301,0,4.8,0.1,0.00038203,3769.4,0.00050286,7463,3.2042e-06,3708.7,-8.0493e-07,3678.6,0
302,24,0,0.1,3.1639e-06,31.617,2.0195e-06,13.266,4.6379e-07,1.5775,-2.7448e-06,-22.531,2.7412
303,22.89,0,0.1,2.2241e-05,222.2,2.1947e-05,214.39,-6.6352e-06,-0.36228,-8.5252e-06,-14.563,2.5597
304,21.781,0,0.1,4.6493e-05,464.59,4.6208e-05,456.62,-1.4627e-05,-0.47438,-1.6576e-05,-15.115,2.3788
305,20.671,0,0.1,7.0899e-05,708.48,7.0621e-05,700.63,-2.2604e-05,0.16496,-2.4705e-05,-15.615,2.199
306,19.561,0,0.1,9.5814e-05,957.46,9.5554e-05,950.04,-3.0908e-05,-0.1469,-3.2821e-05,-14.516,2.0208
307,18.452,0,0.1,0.00012135,1212.6,0.00012111,1205.9,-3.9401e-05,-0.15223,-4.1134e-05,-13.168,1.8449
308,17.342,0,0.1,0.00014751,1474,0.0001473,1468,-4.8086e-05,-0.044853,-4.9672e-05,-11.958,1.672
309,16.233,0,0.1,0.00017443,1743,0.00017423,1737.5,-5.7034e-05,-0.18911,-5.846e-05,-10.902,1.5027
310,15.123,0,0.1,0.00020202,2018.6,0.00020183,2013.6,-6.6172e-05,-0.088171,-6.7491e-05,-9.9942,1.3376
311,14.013,0,0.1,0.00023049,2303.1,0.00023031,2298.6,-7.5649e-05,-0.31111,-7.6766e-05,-8.7014,1.1775
312,12.904,0,0.1,0.00025967,2594.5,0.00025951,2591,-8.5249e-05,0.62536,-8.6347e-05,-7.6251,1.023
313,11.794,0,0.1,0.00028986,2896,0.00028969,2892.7,-9.5199e-05,0.80956,-9.6295e-05,-7.4292,0.87491
314,10.684,0,0.1,0.00032051,3201.9,0.00032026,3197.4,-0.00010455,5.577,-0.00010723,-14.589,0.7339
315,9.5748,0,0.1,0.00035258,3521.8,0.00035205,3511,-0.00011495,2.1407,-0.00011838,-23.627,0.60074
316,8.4652,0,0.1,0.00037827,3777.5,0.00037603,3719.6,-0.00012379,-35.854,-0.00012961,-79.521,0.47626
317,7.3556,0,0.1,0.0003969,3963.9,0.00040414,4212.8,-9.4883e-05,463.39,-0.00014795,64.653,0.36109
318,6.2459,0,0.1,0.00042243,4211.9,0.00041805,4113.4,-0.00013449,-38.15,-0.00015022,-156.32,0.2557
319,5.1363,0,0.1,0.00033589,3352.2,0.00033531,3354.3,-9.9241e-05,89.217,-0.00012159,-78.676,0.16033
320,4.0267,0,0.1,7.9408e-05,793.53,7.5128e-05,669.51,-2.744e-05,-101.15,-3.3286e-05,-145.07,0.072362
321,3.86,0,0.1,4.1806e-05,417.77,3.8894e-05,344.2,-1.0381e-05,-26.038,-2.1387e-05,-108.73,0.065972
322,2.895,0,0.1,0.00038192,3803.7,0.00037516,3648.2,-0.00011974,-70.295,-0.0001417,-235.32,0.037404
323,1.93,0,0.1,0.00055406,5534.1,0.00055185,5496.9,-0.00015745,167.48,-0.0002092,-221.33,0.015161
324,0.965,0,0.1,0.00064317,6423.5,0.00063383,6171.6,-0.00019896,-85.614,-0.00024161,-406.02,0.0026516
325,0,0,0.1,0.00015282,1527.2,0.00018222,2407.2,-7.7954e-06,979.49,-3.2083e-05,797,0
326,0,6,0.1,0.00015554,1554.3,0.00018661,2476.5,-1.0357e-05,996.61,-2.8917e-05,857.16,0
327,0.965,6,0.1,0.0006505,6493.2,0.00063962,6198.6,-0.00021238,-202.99,-0.00023626,-382.46,0.0026201
328,1.93,6,0.1,0.00054351,5427.5,0.00055118,5670.6,-0.00015629,354.91,-0.0001852,137.68,0.015059
329,2.895,6,0.1,0.00035985,3589.8,0.00035752,3543.6,-0.00011042,27.71,-0.00012953,-115.86,0.037069
330,3.86,6,0.1,4.5859e-05,458.27,3.8962e-05,271.17,-1.4395e-05,-129.74,-2.7525e-05,-228.39,0.065616
331,4.605,3.0466,0,0.00082547,7679.2,0.00028583,413.03,0.00023637,41.397,-0.00076004,-7445.2,0.13703
332,5.1758,2.5475,0,0.00066675,6240.9,0.00024115,306.49,0.0001736,-201.03,-0.00062118,-6172.7,0.17816
333,4.4044,2.6268,0,0.00095521,8875.3,0.00040084,1569,0.00024992,435.01,-0.0008486,-7818.8,0.12314
334,4.6877,2.5757,0.05,0.00079838,103.11,7.9229e-06,59.529,-2.5269e-12,-6.601e-05,-7.9229e-06,-59.529,0.14208
335,4.3572,2.2878,0,0.0012028,10898,0.00044472,851.77,0.0002905,-306.93,-0.0010766,-10579,0.11862
336,4.9431,3.4817,0,0.0007421,7194.2,0.00025645,131.4,0.00021734,-162.48,-0.00071999,-7205.2,0.1607
337,4.2516,3.3199,0,0.00096221,9329.7,0.00034404,428.57,0.00028594,-7.9945,-0.00092569,-9111.7,0.11367
338,4.5222,3.5175,0.05,0.00085256,174.23,1.3388e-05,100.59,3.0294e-12,0.00010627,-1.3388e-05,-100.59,0.13069
339,4.2745,3.7587,0,0.0012573,11522,0.00052523,1437.8,0.00025584,-586.3,-0.0011251,-10962,0.11347
340,5.5662,2.1539,0,0.00050452,4863.4,0.00018074,0.94312,0.00012554,-413.81,-0.00049237,-5056.6,0.20867
341,5.1719,1.4983,0,0.00056448,5280.2,0.00018459,-60.165,0.00015123,-310.84,-0.00053425,-5461.2,0.17411
342,6.0474,1.4895,0,0.00045272,4379.8,0.00015123,-13.602,0.0001321,-157.35,-0.00044101,-4463.5,0.24739
343,5.4687,1.7885,0.05,0.00047391,220.82,1.6968e-05,127.49,-8.9091e-13,3.7203e-06,-1.6968e-05,-127.49,0.19944
344,4.7477,1.8942,0,0.0010406,9722.9,0.00041154,750.82,0.00023078,-607.37,-0.00096337,-9579.7,0.14363
345,3.4561,3.8565,0,0.0010208,9758.8,0.0004354,1250.6,0.00023823,-230.85,-0.00095073,-9164.2,0.069494
346,3.4519,3.0507,0,0.00098041,9336.2,0.000342,623.58,0.00030825,369.96,-0.0009171,-8836.8,0.071175
347,3.1804,3.6602,0,0.00085828,8475.2,0.00033021,775.43,0.0002649,284.72,-0.00082901,-7934.5,0.05916
348,3.4375,3.4988,0.05,0.001021,623.07,4.7877e-05,359.73,7.2575e-12,0.00010134,-4.7877e-05,-359.73,0.070017
349,3.6488,3.7494,0,0.0016556,16378,0.00060198,505.92,0.00048237,-392.81,-0.0016352,-16303,0.078549
350,5.4391,3.8307,0,0.000575,5572.9,0.00020985,-143.68,0.00012491,-781.89,-0.00057067,-6008.3,0.19861
351,5.2839,4.4859,0,0.00056644,5240.4,0.00019134,-76.147,0.00013407,-506.47,-0.00053299,-5518.4,0.1839
352,6.1814,4.4776,0,0.00046465,4479.5,0.00016391,-43.59,0.00011601,-403.44,-0.00045477,-4692.1,0.26005
353,5.5143,4.2154,0.05,0.00051836,240.25,1.8461e-05,138.71,-7.9024e-13,-7.576e-06,-1.8461e-05,-138.71,0.20365
354,4.7705,4.1077,0,0.0010902,10006,0.00044648,921.15,0.00020809,-870.01,-0.00098827,-9859.1,0.14598
355,2.6071,2.8212,0,0.0007235,7123.1,0.00028744,-149.75,0.0001266,-1358.2,-0.00073072,-7799.8,0.039607
356,3.0219,2.0552,0,0.00077217,7568,0.00028965,19.846,0.0001818,-790.49,-0.00076717,-7920.7,0.052114
357,3.3284,2.514,0,0.00091997,8979.4,0.00034163,239.37,0.00024017,-522.97,-0.00090095,-9096.9,0.06517
358,3.0568,3.1234,0,0.00079784,7654.6,0.00029206,107.37,0.00019395,-629.8,-0.0007722,-7889.1,0.055081
359,3.1904,2.4253,0.05,0.0009001,311.36,2.3925e-05,179.76,3.0364e-13,3.5879e-06,-2.3925e-05,-179.76,0.059259
360,3.5252,1.9627,0,0.00095879,7887.3,0.00034032,846.65,0.00019832,-220.29,-0.00077319,-7519.8,0.071104
361,2.3453,0.92956,0,0.000508,5020.3,0.00016671,-97.197,0.0001553,-182.93,-0.00050709,-5159.9,0.028394
362,2.8357,1.254,0,0.00056717,5623.8,0.00019523,138.03,0.00018221,40.195,-0.00055967,-5534.1,0.043077
363,2.8181,0.82286,0.05,0.00049011,85.665,6.5826e-06,49.459,-1.3963e-21,-1.7719e-06,-6.5826e-06,-49.459,0.040445
364,3.339,0.66143,0,0.00037436,2981.2,0.00011474,192.8,8.8144e-05,-7.0209,-0.00029466,-2883.3,0.05517
365,2.8565,0.41143,0,0.00043602,4325.1,0.00016028,242.66,0.00013529,54.859,-0.00042744,-4173.3,0.039165
366,5.3554,0.60807,0,0.00039089,3752.4,0.00013803,137.16,0.00011232,-56.033,-0.00037375,-3708.1,0.18345
367,4.7788,0.68933,0,0.00039727,3561.3,0.00015161,426.83,9.7728e-05,21.988,-0.00034701,-3319.6,0.13751
368,4.9245,0.48238,0.05,0.00039233,161.72,1.2427e-05,93.37,-2.6359e-21,-5.4415e-06,-1.2427e-05,-93.37,0.14727
369,4.4756,0.49119,0,0.00028786,2113.1,7.9735e-05,107.59,6.2565e-05,-21.408,-0.0002097,-2067.1,0.11206
370,5.0304,0.24119,0,0.00036411,3600.2,0.00013248,155.18,0.00010988,-14.587,-0.00035758,-3526.9,0.15383
371,3.0451,4.8958,0,0.00055208,5360.4,0.00019561,232.07,0.00016656,13.778,-0.00053189,-5234.1,0.048694
372,3.3254,4.403,0,0.00082186,7994.4,0.00035674,938.86,0.00018653,-340.03,-0.00078209,-7617.9,0.061163
373,3.0497,4.2067,0,0.00065935,6236.9,0.0002217,239.29,0.00020117,85.026,-0.00061846,-6073.4,0.052378
374,3.1761,4.5919,0.05,0.00062313,223.05,1.7139e-05,128.78,3.6176e-12,3.9148e-05,-1.7139e-05,-128.78,0.054662
375,3.5181,4.7959,0,0.00052044,4734,0.0002011,505.54,0.0001247,-68.469,-0.00046367,-4489.3,0.065101
376,2.5003,4.8642,0,0.00049719,4870.8,0.00017622,-68.642,0.00012772,-433.07,-0.00049492,-5111.4,0.033076
377,2.914,5.1996,0.05,0.00048103,130.89,1.0058e-05,75.572,-2.1335e-21,7.4912e-06,-1.0058e-05,-75.572,0.042923
378,3.387,5.3498,0,0.00036999,3027.2,0.00012533,247.22,7.8411e-05,-105.31,-0.00029897,-2940.8,0.056379
379,2.9045,5.5998,0,0.00042044,4123.9,0.00014746,155.53,0.00013126,33.799,-0.00040932,-4027.9,0.040201
380,4.8557,4.922,0,0.00051191,4598.5,0.00018977,389.43,0.0001216,-122.75,-0.00045349,-4443.7,0.14767
381,4.7714,5.282,0,0.00038922,3504.6,0.0001479,365.41,9.3269e-05,-45.057,-0.00034344,-3326.3,0.13848
382,4.6578,5.0876,0.05,0.0004093,300,2.3052e-05,173.2,-4.5044e-21,4.0275e-06,-2.3052e-05,-173.2,0.13105
383,4.3422,5.0438,0,0.00041346,3273.9,0.00019857,1080.6,3.9393e-05,-115.39,-0.00029437,-2623.2,0.10742
384,5.5139,2.9826,0,0.00058339,5718.2,0.00021343,37.315,0.0001494,-443.79,-0.00057761,-5906.2,0.20554
385,6.107,3.4963,0,0.00051923,5148.6,0.00018462,-92.245,0.0001361,-456.79,-0.00052358,-5413.4,0.25569
386,5.3639,3.446,0.05,0.00063165,324,2.4896e-05,187.06,1.249e-13,-1.7966e-05,-2.4896e-05,-187.06,0.19317
387,6.2584,2.4845,0,0.00048106,4746.3,0.00017968,69.396,0.00012311,-355.7,-0.0004784,-4875.2,0.26885
388,5.6638,2.5193,0.05,0.00053513,319.02,2.4514e-05,184.19,-2.3734e-12,-2.0743e-06,-2.4514e-05,-184.19,0.21747
389,1.5654,4.6302,0,0.00056277,5563.1,0.00026944,405.69,6.1337e-05,-1157.9,-0.00055274,-5771.9,0.01306
390,1.0304,4.1158,0,0.00064139,6367.7,0.00035375,998.75,2.7177e-05,-1455,-0.00060844,-6230.7,0.0058179
391,1.0442,4.7317,0.05,0.0006122,35.418,2.7215e-06,20.448,-2.1995e-14,5.7058e-05,-2.7215e-06,-20.448,0.0055685
392,0.52212,4.7658,0,0.00049712,4856.1,0.00016707,-1336.8,1.8177e-05,-2455.5,-0.00054069,-6654.6,0.001363
393,1.0046,5.3658,0,0.00063135,6215.6,0.00028395,687.34,0.00012794,-484.81,-0.00061019,-6030.9,0.0044296
394,1.4044,1.0917,0,0.00056502,5569.3,0.00025527,382.29,8.9086e-05,-866.34,-0.00055494,-5705.3,0.010089
395,0.9499,1.7279,0,0.00063149,6266.7,0.00035026,973,2.0536e-05,-1504.4,-0.00059824,-6153.7,0.0048491
396,0.93624,1.1472,0.05,0.00060416,33.399,2.5664e-06,19.283,7.9697e-13,-5.072e-05,-2.5664e-06,-19.283,0.0043534
397,0.46812,1.1736,0,0.00049447,4823.9,0.00016449,-1351.1,1.866e-05,-2446.9,-0.0005379,-6628.7,0.0010839
398,0.95062,0.57358,0,0.00062366,6149.3,0.00028473,701.79,0.00012124,-526.6,-0.0006031,-5969,0.0038641
399,5.3308,0.97095,0,0.00052226,4941.8,0.00018122,108.66,0.00014214,-184.95,-0.00049516,-4973.4,0.18395
400,4.7541,1.0522,0,0.00052863,4792.8,0.00019992,436.81,0.00012579,-120.12,-0.00047179,-4610.1,0.13846
401,4.8752,1.2081,0.05,0.00065505,442.33,3.3989e-05,255.38,-2.6502e-12,-5.417e-14,-3.3989e-05,-255.38,0.14879
402,4.4509,1.3541,0,0.00067707,4806.6,0.00029391,1859.3,8.2897e-05,273.88,-0.00042466,-3539.7,0.11808
403,5.4605,5.0163,0,0.00052619,4932.3,0.00017865,107.44,0.00014567,-140.34,-0.00049366,-4944.1,0.19578
404,5.0535,4.7565,0.05,0.00061453,396.55,3.0471e-05,228.95,7.9828e-12,-4.8564e-14,-3.0471e-05,-228.95,0.164
405,4.5401,4.6282,0,0.00059832,4682.4,0.00026274,1500.9,9.8489e-05,266.78,-0.00042612,-3674.9,0.1258
406,1.9054,1.5623,0,0.00054197,5360.8,0.000215,-249.2,8.4156e-05,-1232.3,-0.00055485,-6033.6,0.019889
407,1.8726,1.0363,0.05,0.00052588,39.258,3.0166e-06,22.666,1.4528e-12,-1.8408e-05,-3.0166e-06,-22.666,0.018134
408,1.9013,0.51813,0,0.00053997,5375.1,0.00017403,-170.49,0.00016776,-217.58,-0.00054447,-5569,0.017108
409,2.0552,3.8729,0,0.00053012,5228,0.00021314,-202.37,7.9347e-05,-1207.7,-0.00053984,-5860,0.024174
410,2.5049,4.1751,0,0.00060446,5945.5,0.00021818,57.802,0.00016385,-350.41,-0.00059888,-6081.2,0.035386
411,2.0866,4.5287,0.05,0.00051334,110.89,8.5211e-06,64.024,2.0677e-12,4.6705e-06,-8.5211e-06,-64.024,0.023741
412,2.0083,5.2643,0,0.00052842,5229.4,0.0001807,-275.9,0.00013315,-633.16,-0.00053785,-5674.8,0.019978
413,6.2062,0.96219,0,0.0004105,3949,0.00014398,126.05,0.00011873,-63.63,-0.00039377,-3914.3,0.25892
414,5.7864,0.73376,0.05,0.00038946,163.09,1.2532e-05,94.163,1.3293e-13,8.6315e-06,-1.2532e-05,-94.163,0.22066
415,6.0161,0.36688,0,0.00040594,3831.7,0.00013709,66.696,0.00011457,-102.48,-0.00038376,-3846.8,0.23818
416,5.3762,5.3762,0,0.0004035,3824.1,0.00013859,97.006,0.00011409,-87.073,-0.00038217,-3815.8,0.18655
417,4.885,5.4764,0.05,0.00036914,161.36,1.2399e-05,93.162,-2.63e-21,-1.9761e-14,-1.2399e-05,-93.162,0.14588
418,4.4558,5.4882,0,0.00026224,1991.1,7.8371e-05,107.32,5.3697e-05,-78.068,-0.0001981,-1970,0.11216
419,5.0107,5.7382,0,0.00034852,3402.5,0.00012653,171.01,0.00010381,0.28743,-0.00033725,-3313.7,0.15395
420,0.99007,2.9042,0,0.0006647,6611.8,0.00037266,964.8,6.8966e-06,-1783.4,-0.00063121,-6577.8,0.0054929
421,1.4509,2.1985,0,0.00060844,6042.1,0.00030994,341.1,1.7104e-05,-1859.1,-0.0005996,-6492.8,0.011836
422,0.96357,2.3087,0.05,0.00065883,50.197,3.8572e-06,28.981,2.0929e-13,-6.1473e-15,-3.8572e-06,-28.981,0.0050843
423,0.48179,2.3543,0,0.00052073,5100.3,0.00018627,-1390.7,-2.0534e-06,-2805.6,-0.00056682,-7049.1,0.0012517
424,1.5202,3.3585,0,0.00060874,6032,0.00029741,390.37,4.9748e-05,-1470.5,-0.00060005,-6352.8,0.013309
425,1.0166,3.4998,0.05,0.00067058,10.949,8.4135e-07,6.3216,-8.0882e-13,-1.3409e-15,-8.4135e-07,-6.3216,0.0057777
426,0.50828,3.5499,0,0.00053258,5223.2,0.00018682,-1426.1,6.0205e-06,-2784.6,-0.00058089,-7194.4,0.0014215
427,1.981,2.6527,0,0.00055248,5482.1,0.00023466,-233.59,5.8477e-05,-1557.3,-0.00056693,-6256.4,0.022658
428,2.0238,3.2171,0.05,0.0005469,32.112,2.4675e-06,18.54,-6.7585e-13,-1.0473e-05,-2.4675e-06,-18.54,0.023815
429,7.3813,1.2009,0,0.00041237,4100.1,0.00013862,31.223,0.0001328,-12.443,-0.00040996,-4090.5,0.37098
430,6.7396,1.8202,0,0.00042927,4264.8,0.00014849,42.228,0.00013166,-84.288,-0.00042735,-4284.5,0.31141
431,6.6261,1.1906,0.05,0.00043153,62.907,4.8338e-06,36.319,1.3868e-12,1.2431e-06,-4.8338e-06,-36.319,0.29836
432,6.9908,0.59531,0,0.00041422,4109.1,0.00014414,16.305,0.00012272,-144.68,-0.00041314,-4170.9,0.32956
433,8.7678,1.2059,0,0.00037242,3716.7,0.0001263,-30.113,0.00011389,-123.41,-0.00037445,-3792.6,0.5162
434,8.1012,1.789,0,0.00039115,3904.4,0.00013652,-28.904,0.00011323,-203.94,-0.00039437,-4017.9,0.44665
435,8.1366,1.2112,0.05,0.00039321,30.542,2.3468e-06,17.633,4.5597e-15,2.0457e-06,-2.3468e-06,-17.633,0.44818
436,8.3009,0.60562,0,0.00038574,3848.9,0.00013055,2.0602,0.00012143,-66.487,-0.0003862,-3880.6,0.46258
437,9.9925,1.1996,0,0.00033623,3358,0.00011158,-8.7975,0.00010892,-28.808,-0.00033667,-3376.8,0.65634
438,9.3576,1.7932,0,0.00035105,3505.9,0.00011846,-6.9168,0.00011057,-66.195,-0.00035204,-3542.1,0.58445
439,9.3991,1.2006,0.05,0.00035162,7.6037,5.8427e-07,4.39,1.302e-14,1.0669e-07,-5.8427e-07,-4.39,0.58708
440,9.487,0.6003,0,0.0003521,3516.2,0.00011654,-4.6641,0.00011496,-16.522,-0.00035222,-3526.8,0.5943
441,11.158,1.1932,0,0.00030506,3047.1,0.00010177,4.0082,9.9059e-05,-16.337,-0.00030513,-3053.2,0.79912
442,10.551,1.7879,0,0.00032036,3200.1,0.0001082,6.1912,0.00010196,-40.66,-0.00032079,-3217,0.72558
443,10.586,1.1986,0.05,0.00032083,4.6546,3.5767e-07,2.6874,2.1032e-13,9.8496e-08,-3.5766e-07,-2.6874,0.72791
444,10.635,0.59928,0,0.00032067,3202.9,0.00010605,1.5308,0.00010542,-3.1989,-0.00032054,-3203.7,0.73128
445,12.297,1.1814,0,0.00027446,2741.5,9.0919e-05,0.51062,8.9926e-05,-6.9509,-0.00027445,-2744.7,0.94658
446,11.714,1.7751,0,0.00028902,2886.9,9.6262e-05,-0.76718,9.3691e-05,-20.089,-0.00028924,-2897.3,0.87196
447,11.73,1.1878,0.05,0.00028928,3.2549,2.5011e-07,1.8792,3.4069e-13,-1.6733e-05,-2.5011e-07,-1.8792,0.87228
448,11.762,0.5939,0,0.00028957,2892.6,9.5614e-05,-0.50426,9.5317e-05,-2.7328,-0.00028951,-2894.2,0.87393
449,13.429,1.1737,0,0.000245,2447.2,8.1035e-05,2.6588,8.0678e-05,-0.02476,-0.00024484,-2445.8,1.1003
450,12.859,1.7641,0,0.00025924,2589.1,8.5848e-05,0.74887,8.4979e-05,-5.7807,-0.00025917,-2591.6,1.0237
451,12.863,1.1749,0.05,0.00025963,2.7048,2.0784e-07,1.5616,4.9125e-13,1.4259e-06,-2.0784e-07,-1.5616,1.0226
452,12.883,0.58746,0,0.00025965,2593.7,8.5915e-05,3.2002,8.5503e-05,0.10405,-0.0002595,-2592.1,1.0231
453,14.548,1.1719,0,0.00021642,2161.6,7.2081e-05,8.313,7.0959e-05,-0.11953,-0.00021617,-2157.5,1.2583
454,13.991,1.7615,0,0.0002301,2297.7,7.6112e-05,2.6801,7.5725e-05,-0.23096,-0.00022989,-2296.5,1.1805
455,13.995,1.1725,0.05,0.00023036,2.3301,1.7905e-07,1.3453,3.1593e-13,2.5989e-06,-1.7905e-07,-1.3453,1.1795
456,14.004,0.58624,0,0.00023043,2301.8,7.6599e-05,7.0382,7.5664e-05,0.017605,-0.00023022,-2298.3,1.1788
457,15.659,1.1713,0,0.00018871,1884.6,6.3313e-05,12.906,6.1594e-05,-0.011582,-0.00018837,-1878.1,1.4207
458,15.099,1.7605,0,0.00020221,2018.8,6.7411e-05,8.8638,6.6219e-05,-0.09195,-0.00020187,-2014.4,1.3397
459,15.101,1.1712,0.05,0.00020248,2.1712,1.6684e-07,1.2535,-3.271e-13,1.9918e-06,-1.6684e-07,-1.2536,1.3385
460,15.112,0.58561,0,0.00020225,2020.2,6.7576e-05,10.362,6.6202e-05,0.037891,-0.00020198,-2015,1.3383
461,16.769,1.1724,0,0.00016169,1614.5,5.4729e-05,16.942,5.2471e-05,-0.02392,-0.00016127,-1606,1.5875
462,16.215,1.7613,0,0.00017474,1744.1,5.873e-05,13.597,5.6922e-05,0.013541,-0.0001743,-1737.3,1.5049
463,16.217,1.1714,0.05,0.00017495,2.0185,1.551e-07,1.1654,-2.999e-13,-1.5054e-07,-1.551e-07,-1.1654,1.5039
464,16.225,0.58568,0,0.00017469,1744.8,5.8677e-05,12.73,5.6989e-05,0.044546,-0.00017438,-1738.3,1.5035
465,17.877,1.1755,0,0.00013549,1352.5,4.6462e-05,21.551,4.3591e-05,-0.019462,-0.00013497,-1341.6,1.7579
466,17.321,1.7645,0,0.00014827,1479.4,5.041e-05,18.685,4.7929e-05,0.038661,-0.00014771,-1469.9,1.6729
467,17.322,1.1734,0.05,0.00014844,1.9488,1.4975e-07,1.1251,6.2272e-13,1.4595e-06,-1.4975e-07,-1.1251,1.672
468,17.332,0.58671,0,0.00014797,1477.7,5.0077e-05,15.332,4.8038e-05,0.016269,-0.00014761,-1470,1.6722
469,18.985,1.1808,0,0.00011005,1098.2,3.8567e-05,27.64,3.4884e-05,-0.031666,-0.0001094,-1084.1,1.9316
470,18.431,1.7697,0,0.00012247,1221.3,4.2408e-05,24.89,3.909e-05,-0.041647,-0.00012178,-1208.7,1.8453
471,18.432,1.1777,0.05,0.00012254,2.0014,1.5379e-07,1.1555,-3.2621e-23,4.2647e-07,-1.5379e-07,-1.1555,1.8445
472,18.442,0.58884,0,0.00012194,1217.5,4.1735e-05,18.386,3.9295e-05,0.053926,-0.00012151,-1208.2,1.8449
473,20.093,1.1862,0,8.5452e-05,852.28,3.1168e-05,36.424,2.6323e-05,0.022159,-8.4608e-05,-833.47,2.108
474,19.537,1.7765,0,9.7643e-05,973.06,3.4967e-05,33.958,3.0418e-05,-0.21838,-9.6754e-05,-955.74,2.02
475,19.538,1.184,0.05,9.7554e-05,2.2312,1.7145e-07,1.2882,7.2766e-14,2.1934e-07,-1.7145e-07,-1.2882,2.0193
476,19.55,0.592,0,9.6684e-05,964.91,3.3738e-05,22.562,3.0747e-05,0.085663,-9.6153e-05,-953.39,2.0202
477,21.206,1.1883,0,6.1695e-05,614.71,2.4386e-05,49.502,1.7798e-05,0.00029523,-6.0522e-05,-588.47,2.2871
478,20.647,1.7826,0,7.3754e-05,734.18,2.8189e-05,47.686,2.1846e-05,0.025751,-7.2541e-05,-709.16,2.1977
479,20.648,1.1884,0.05,7.3351e-05,2.3767,1.8263e-07,1.3722,2.4054e-13,-2.0459e-07,-1.8263e-07,-1.3722,2.1971
480,20.66,0.5942,0,7.2125e-05,719.17,2.6085e-05,28.125,2.2342e-05,0.00053072,-7.1446e-05,-704.69,2.1981
481,22.323,1.1916,0,3.9311e-05,390.3,1.8681e-05,71.198,9.1895e-06,-0.12071,-3.7355e-05,-349.84,2.4686
482,21.76,1.7874,0,5.1025e-05,507.09,2.2407e-05,69.134,1.3201e-05,-0.036267,-4.9213e-05,-468.99,2.3776
483,21.763,1.1882,0.05,5.0039e-05,2.785,2.14e-07,1.6079,-1.5953e-22,-3.9612e-17,-2.14e-07,-1.6079,2.3775
484,21.772,0.59411,0,4.8266e-05,479.96,1.8757e-05,35.354,1.4093e-05,0.31106,-4.7326e-05,-461.17,2.3782
485,22.877,1.7939,0,3.0381e-05,301.46,1.8223e-05,104.37,4.3154e-06,-0.12496,-2.7002e-05,-235.43,2.5594
486,22.883,1.1949,0.05,2.8583e-05,4.0696,3.1271e-07,2.3496,-6.633e-23,-9.0231e-07,-3.1271e-07,-2.3496,2.5599
487,23.441,1.1975,0,2.1533e-05,199.87,1.5289e-05,114.46,8.2086e-08,0.20361,-1.5427e-05,-116.33,2.6511
488,22.887,0.59746,0,2.5412e-05,249.61,1.2145e-05,48.2,5.7578e-06,0.21047,-2.3806e-05,-221.92,2.5598
489,22.872,2.9973,0,3.2166e-05,320.03,2.036e-05,124.63,3.7823e-06,0.071893,-2.8029e-05,-238.95,2.5592
490,22.314,2.3897,0,4.2095e-05,417.5,2.2129e-05,103.66,8.3254e-06,-0.050342,-3.9038e-05,-355.92,2.468
491,22.871,2.3929,0.05,3.2178e-05,4.1948,3.2233e-07,2.4219,4.9293e-15,9.8473e-07,-3.2233e-07,-2.4219,2.5587
492,23.435,2.3964,0,2.5309e-05,238.19,1.9412e-05,154.58,-1.1148e-06,0.35398,-1.71e-05,-119.75,2.6509
493,22.876,4.1992,0,3.0441e-05,302.05,1.8271e-05,104.82,4.324e-06,0.026574,-2.7046e-05,-235.68,2.56
494,22.314,3.596,0,4.2127e-05,417.83,2.2185e-05,104.17,8.2954e-06,-0.19063,-3.9053e-05,-355.95,2.4684
495,22.873,3.6018,0.05,3.2154e-05,4.2319,3.2519e-07,2.4433,-9.9835e-15,-6.7825e-08,-3.2519e-07,-2.4433,2.5595
496,23.437,3.6009,0,2.5306e-05,238.16,1.9414e-05,154.7,-1.1123e-06,0.46795,-1.7092e-05,-119.59,2.6515
497,22.321,4.7945,0,3.9426e-05,391.45,1.8769e-05,71.836,9.1952e-06,-0.099693,-3.7452e-05,-350.59,2.4692
498,22.88,4.7966,0.05,2.8729e-05,4.1511,3.1897e-07,2.3966,-3.0961e-14,-3.8958e-07,-3.1897e-07,-2.3966,2.5603
499,22.885,5.3983,0,2.5489e-05,250.34,1.2195e-05,48.469,5.7589e-06,0.11136,-2.3872e-05,-222.52,2.5609
500,23.44,4.7983,0,2.162e-05,200.79,1.5346e-05,114.77,9.2763e-08,0.16809,-1.5511e-05,-117.07,2.6518
501,21.201,4.7914,0,6.1829e-05,616.04,2.4502e-05,50.403,1.7799e-05,0.039588,-6.0633e-05,-589.27,2.2874
502,21.758,4.1913,0,5.1111e-05,507.9,2.2501e-05,69.819,1.3168e-05,-0.30756,-4.9278e-05,-469.5,2.378
503,21.761,4.7923,0.05,5.0122e-05,2.8775,2.2111e-07,1.6613,-9.8906e-14,-7.6842e-07,-2.2111e-07,-1.6613,2.3782
504,21.771,5.3962,0,4.831e-05,480.39,1.8753e-05,35.197,1.4124e-05,0.4226,-4.7371e-05,-461.63,2.3794
505,20.085,4.7647,0,8.5691e-05,854.65,3.1392e-05,38.204,2.6312e-05,0.034054,-8.481e-05,-834.89,2.1077
506,20.643,4.1845,0,7.3857e-05,735.22,2.8278e-05,48.344,2.1847e-05,0.029798,-7.263e-05,-709.84,2.1978
507,20.641,4.7905,0.05,7.3536e-05,2.1957,1.6872e-07,1.2677,-1.0957e-13,4.2111e-07,-1.6872e-07,-1.2677,2.197
508,20.656,5.3952,0,7.2286e-05,720.6,2.6143e-05,28.239,2.2382e-05,-0.022252,-7.1588e-05,-706.08,2.1989
509,18.975,4.7183,0,0.00011032,1101,3.8819e-05,29.576,3.4881e-05,-0.017702,-0.00010964,-1085.9,1.9311
510,19.534,4.1473,0,9.7756e-05,974.25,3.5058e-05,34.873,3.0452e-05,0.26623,-9.6849e-05,-956.22,2.0202
511,19.529,4.7389,0.05,9.7847e-05,2.7489,2.1123e-07,1.5871,-1.1227e-13,4.9744e-07,-2.1123e-07,-1.5871,2.019
512,19.545,5.3694,0,9.6901e-05,966.92,3.3907e-05,23.609,3.0735e-05,-0.22554,-9.6338e-05,-955,2.0208
513,17.868,4.6875,0,0.00013564,1354.1,4.6591e-05,22.498,4.3601e-05,0.034843,-0.00013511,-1342.7,1.7577
514,18.422,4.1142,0,0.00012268,1223.6,4.254e-05,25.637,3.9134e-05,0.045288,-0.00012199,-1210.6,1.8446
515,18.42,4.6978,0.05,0.0001228,3.1658,2.4326e-07,1.8278,-4.9292e-14,-1.8686e-07,-2.4326e-07,-1.8278,1.8439
516,18.436,5.3489,0,0.00012214,1219.3,4.1833e-05,18.772,3.9326e-05,-0.062887,-0.00012169,-1209.8,1.8454
517,16.764,4.6737,0,0.00016172,1614.9,5.4748e-05,17.038,5.2482e-05,0.0089566,-0.0001613,-1606.3,1.5879
518,17.316,4.0974,0,0.00014832,1480,5.0452e-05,18.932,4.7931e-05,-0.010798,-0.00014777,-1470.4,1.6731
519,17.316,4.6773,0.05,0.00014849,3.2817,2.5216e-07,1.8947,-1.1481e-13,5.5527e-07,-2.5216e-07,-1.8947,1.6723
520,17.329,5.3386,0,0.00014807,1478.5,5.01e-05,15.297,4.8065e-05,0.0065779,-0.00014769,-1470.8,1.6732
521,15.659,4.6702,0,0.00018858,1883.3,6.3228e-05,12.361,6.1571e-05,-0.088885,-0.00018825,-1877.1,1.422
522,16.21,4.0902,0,0.0001748,1744.7,5.8759e-05,13.641,5.6932e-05,-0.079051,-0.00017436,-1737.9,1.505
523,16.212,4.6701,0.05,0.00017496,3.4027,2.6147e-07,1.9645,1.6577e-13,-1.6612e-07,-2.6146e-07,-1.9645,1.5044
524,16.222,5.3351,0,0.00017475,1745.1,5.8677e-05,12.594,5.7007e-05,0.042313,-0.00017441,-1738.7,1.5047
525,14.553,4.6712,0,0.00021615,2158.9,7.1909e-05,7.2081,7.0909e-05,-0.30584,-0.00021592,-2155.4,1.2605
526,15.103,4.0891,0,0.00020203,2016.9,6.7295e-05,8.3096,6.62e-05,0.085822,-0.00020169,-2012.7,1.3411
527,15.107,4.6703,0.05,0.0002022,3.6178,2.7799e-07,2.0887,2.2699e-13,-7.7693e-07,-2.7799e-07,-2.0887,1.3407
528,15.115,5.3351,0,0.00020217,2019.2,6.7564e-05,10.546,6.6149e-05,-0.086706,-0.00020188,-2013.9,1.3403
529,13.441,4.6948,0,0.00024449,2442.1,8.0798e-05,1.1068,8.0489e-05,-1.2159,-0.00024438,-2442.2,1.1032
530,13.993,4.0911,0,0.00022995,2296.1,7.6042e-05,2.391,7.5675e-05,-0.36618,-0.00022974,-2295.1,1.1817
531,14,4.672,0.05,0.0002301,4.0214,3.0901e-07,2.3218,-3.0321e-13,-6.8989e-07,-3.0901e-07,-2.3218,1.1815
532,14.006,5.336,0,0.00023027,2300,7.6521e-05,6.8297,7.5617e-05,0.043307,-0.00023004,-2296.6,1.1807
533,12.311,4.7369,0,0.00027393,2736.1,9.0883e-05,0.82428,8.9537e-05,-9.291,-0.00027394,-2740.3,0.9497
534,12.866,4.1206,0,0.00025896,2586,8.5777e-05,0.25404,8.4782e-05,-7.2164,-0.0002589,-2589.5,1.0255
535,12.882,4.7176,0.05,0.00025889,3.7373,2.8718e-07,2.1577,-6.0915e-23,8.2748e-06,-2.8718e-07,-2.1577,1.0264
536,12.893,5.3588,0,0.00025926,2589.7,8.5693e-05,2.1492,8.5424e-05,0.13123,-0.00025911,-2588.6,1.0259
537,11.164,4.7614,0,0.00030453,3041.7,0.00010159,3.2857,9.8807e-05,-17.624,-0.00030462,-3048.8,0.80104
538,11.718,4.1528,0,0.00028892,2885.3,9.626e-05,-0.32899,9.3597e-05,-20.338,-0.00028908,-2895.6,0.87335
539,11.74,4.7561,0.05,0.00028897,3.452,2.6526e-07,1.993,-2.798e-14,-1.3644e-07,-2.6526e-07,-1.993,0.87471
540,11.767,5.378,0,0.00028934,2890.2,9.5618e-05,0.18084,9.5158e-05,-3.2731,-0.00028927,-2891.7,0.87601
541,10,4.7707,0,0.00033556,3351.1,0.00011208,-6.1697,0.0001077,-39.097,-0.00033609,-3373.6,0.65835
542,10.557,4.1623,0,0.00031996,3195.3,0.00010773,2.2938,0.00010199,-40.822,-0.00032039,-3214.4,0.72717
543,10.588,4.7668,0.05,0.0003201,4.8973,3.7631e-07,2.8275,-1.4189e-13,-4.5189e-08,-3.7631e-07,-2.8275,0.72933
544,10.636,5.3834,0,0.00032043,3200.3,0.00010599,1.6801,0.00010532,-3.3369,-0.00032028,-3201.1,0.73283
545,8.7978,4.7796,0,0.00037131,3706.6,0.00012629,-9.2452,0.00011494,-94.492,-0.00037261,-3757.7,0.52054
546,9.3642,4.1746,0,0.00035126,3507.3,0.00011896,-9.8122,0.00010958,-80.34,-0.00035246,-3551.9,0.58593
547,9.4121,4.7747,0.05,0.00035101,2.8494,2.1895e-07,1.6451,-3.5778e-13,-3.0007e-07,-2.1895e-07,-1.6451,0.58963
548,9.4934,5.3873,0,0.00035165,3511.8,0.00011595,-10.168,0.00011507,-16.806,-0.00035188,-3525.3,0.59643
549,7.516,4.7622,0,0.00040127,3986.2,0.00013496,69.433,0.00013236,49.899,-0.00039686,-3926.5,0.38556
550,8.1429,4.1859,0,0.00038863,3879.2,0.00013758,29.282,0.00011454,-143.85,-0.00038985,-3933.6,0.45176
551,8.1836,4.7845,0.05,0.00039161,27.286,2.0967e-06,15.754,-4.4474e-22,-2.1283e-07,-2.0967e-06,-15.754,0.45416
552,8.3244,5.3923,0,0.00038527,3846.2,0.0001298,10.36,0.00012324,-38.89,-0.00038535,-3860.2,0.46641
553,6.3579,5.0079,0,0.0004244,4099.7,0.00014886,122.25,0.00012353,-68.05,-0.000409,-4069.2,0.27378
554,6.8492,4.1432,0,0.00040887,4058.3,0.00013858,7.1623,0.0001269,-80.602,-0.00040729,-4094.3,0.32249
555,6.8485,4.7398,0.05,0.00041093,30.821,2.3683e-06,17.795,1.1058e-13,-4.6356e-07,-2.3683e-06,-17.795,0.3205
556,7.102,5.3699,0,0.00040354,4000,0.00013826,57.886,0.00012691,-27.386,-0.00039969,-3984.1,0.34179
557,5.8674,5.2761,0.05,0.00043786,157.79,1.2125e-05,91.1,-2.5718e-21,4.1686e-07,-1.2125e-05,-91.1,0.22873
558,6.0567,5.638,0,0.00043261,4164.5,0.00014536,-1.7825,0.00012393,-162.81,-0.00041931,-4244.5,0.24306
559,6.8515,2.9982,0,0.00041691,4156.9,0.00014983,-68.03,0.00010913,-373.8,-0.00042265,-4369.4,0.32389
560,7.4595,2.4082,0,0.00040805,4070.9,0.00014595,-21.321,0.00011255,-272.27,-0.00041178,-4211.9,0.38242
561,6.8531,2.4497,0.05,0.000427,92.948,7.1422e-06,53.663,-8.1764e-14,-9.1451e-07,-7.1422e-06,-53.663,0.32348
562,7.4761,3.5669,0,0.00039623,3954.2,0.00014256,-22.796,0.00010771,-284.58,-0.00040027,-4101.4,0.38443
563,6.85,3.5466,0.05,0.00040681,101.89,7.8291e-06,58.825,-5.8561e-13,-3.2484e-06,-7.8291e-06,-58.825,0.32352
564,8.691,2.3763,0,0.00036978,3693.6,0.00012868,-5.6976,0.00010995,-146.45,-0.000372,-3767.6,0.51122
565,8.084,2.977,0,0.00038737,3868,0.00013789,18.005,0.00011192,-177.11,-0.00038941,-3943.9,0.44684
566,8.0659,2.3667,0.05,0.00038909,9.1475,7.029e-07,5.2813,8.0108e-14,5.6e-07,-7.029e-07,-5.2813,0.44428
567,9.9158,2.3815,0,0.00033519,3348.9,0.00011509,8.1222,0.00010367,-77.641,-0.00033622,-3382.8,0.65057
568,9.3163,2.9801,0,0.000351,3505.9,0.00012107,5.1782,0.0001072,-99.048,-0.00035231,-3551.7,0.58161
569,9.3162,2.3858,0.05,0.00035048,10.779,8.2828e-07,6.2234,1.6853e-13,4.7125e-07,-8.2828e-07,-6.2234,0.581
570,11.106,2.3699,0,0.00030433,3040.7,0.0001027,1.4863,9.6659e-05,-43.926,-0.00030497,-3061.6,0.79569
571,10.521,2.9676,0,0.00031986,3195.1,0.00010859,1.3753,0.0001004,-60.216,-0.00032069,-3224.1,0.72374
572,10.515,2.3772,0.05,0.0003199,6.1455,4.7223e-07,3.5481,2.1045e-13,8.0972e-07,-4.7223e-07,-3.5481,0.7225
573,12.276,2.3579,0,0.00027381,2735.6,9.1215e-05,-0.35693,8.8821e-05,-18.343,-0.00027406,-2744.9,0.94672
574,11.697,2.956,0,0.00028882,2884.9,9.6479e-05,-1.3868,9.3086e-05,-26.885,-0.00028916,-2898.9,0.87146
575,11.697,2.3625,0.05,0.00028877,3.1914,2.4523e-07,1.8426,1.8326e-12,3.9304e-07,-2.4523e-07,-1.8426,0.87095
576,13.421,2.352,0,0.00024435,2441.1,8.0845e-05,0.16703,8.0232e-05,-4.4403,-0.00024435,-2443.2,1.1019
577,12.852,2.9385,0,0.00025894,2586.2,8.5883e-05,0.093582,8.4598e-05,-9.5671,-0.00025895,-2590.9,1.0244
578,12.855,2.3534,0.05,0.00025885,2.6182,2.0118e-07,1.5116,-1.8675e-14,-4.6735e-07,-2.0118e-07,-1.5116,1.0243
579,14.543,2.3502,0,0.00021589,2156.6,7.159e-05,4.3433,7.0985e-05,-0.1992,-0.00021574,-2154.5,1.26
580,13.988,2.9304,0,0.00022983,2295.1,7.5856e-05,0.66594,7.5737e-05,-0.23089,-0.00022966,-2294.8,1.1815
581,13.988,2.3506,0.05,0.00022984,2.3606,1.8139e-07,1.3629,-8.0087e-15,-1.4142e-07,-1.8139e-07,-1.3629,1.181
582,15.655,2.3506,0,0.00018824,1880.2,6.2996e-05,10.819,6.1547e-05,-0.070656,-0.00018796,-1874.8,1.4223
583,15.099,2.9289,0,0.0002019,2015.8,6.7161e-05,7.1641,6.6218e-05,0.076841,-0.00020159,-2012.1,1.341
584,15.098,2.3499,0.05,0.00020194,2.0571,1.5807e-07,1.1877,1.1842e-14,3.5076e-07,-1.5807e-07,-1.1877,1.3403
585,16.766,2.3535,0,0.00016133,1611.1,5.4597e-05,16.742,5.2379e-05,0.07119,-0.00016093,-1602.7,1.5889
586,16.211,2.9308,0,0.00017459,1742.8,5.865e-05,13.171,5.6896e-05,-0.0058543,-0.00017417,-1736.1,1.5055
587,16.213,2.3513,0.05,0.00017454,2.0196,1.5519e-07,1.166,3.357e-15,1.4443e-07,-1.5519e-07,-1.166,1.5054
588,17.875,2.3586,0,0.00013526,1350.5,4.656e-05,23.552,4.3427e-05,0.013013,-0.00013473,-1338.6,1.7592
589,17.318,2.9365,0,0.00014813,1478.2,5.0403e-05,19.054,4.7865e-05,-0.0099609,-0.00014759,-1468.5,1.6737
590,17.32,2.3556,0.05,0.00014811,2.0265,1.5571e-07,1.17,1.0874e-14,8.0026e-07,-1.5571e-07,-1.17,1.6735
591,18.983,2.3654,0,0.00011007,1098.7,3.9026e-05,32.853,3.4623e-05,-0.23036,-0.00010935,-1082,1.9328
592,18.426,2.9461,0,0.00012249,1221.7,4.2554e-05,26.537,3.9026e-05,0.029162,-0.00012178,-1208.2,1.8455
593,18.43,2.3617,0.05,0.0001224,2.1409,1.6451e-07,1.2361,-4.4593e-13,-1.7654e-07,-1.6451e-07,-1.2361,1.8457
594,20.092,2.3729,0,8.5944e-05,857.5,3.2219e-05,46.951,2.5941e-05,-0.21624,-8.4917e-05,-833.16,2.109
595,19.538,2.9624,0,9.7699e-05,973.91,3.5255e-05,37.282,3.0303e-05,0.076353,-9.677e-05,-954.7,2.021
596,19.537,2.369,0.05,9.7732e-05,2.4283,1.8659e-07,1.402,3.0906e-14,5.8294e-07,-1.8659e-07,-1.402,2.0205
597,21.202,2.3817,0,6.3084e-05,628.73,2.6436e-05,69.018,1.7248e-05,-0.014753,-6.1458e-05,-591.38,2.2876
598,20.646,2.9777,0,7.4167e-05,738.72,2.8928e-05,54.842,2.1625e-05,-0.026521,-7.2838e-05,-709.79,2.1983
599,20.646,2.3768,0.05,7.4157e-05,2.6741,2.0548e-07,1.5439,2.3713e-13,5.084e-07,-2.0548e-07,-1.5439,2.198
600,21.756,2.9884,0,5.2056e-05,518.03,2.3837e-05,82.325,1.2839e-05,-0.30665,-4.9947e-05,-472.06,2.3777
601,21.757,2.3865,0.05,5.2011e-05,3.5927,2.7607e-07,2.0743,-2.2822e-13,-1.4895e-08,-2.7607e-07,-2.0743,2.3776
602,21.201,3.5844,0,6.3139e-05,629.25,2.6504e-05,69.462,1.7216e-05,-0.3202,-6.1501e-05,-591.77,2.2878
603,21.755,3.5902,0.05,5.21e-05,3.3525,2.5761e-07,1.9356,-4.8289e-16,-2.3078e-08,-2.5761e-07,-1.9356,2.3776
604,20.092,3.5671,0,8.5922e-05,857.24,3.2165e-05,46.677,2.5987e-05,0.26224,-8.4891e-05,-832.83,2.1095
605,20.646,3.5785,0.05,7.4178e-05,2.5384,1.9506e-07,1.4656,-2.3323e-14,-4.8776e-07,-1.9506e-07,-1.4656,2.1983
606,18.981,3.5431,0,0.00011012,1099.2,3.8981e-05,32.459,3.4705e-05,0.32957,-0.0001094,-1082.4,1.9327
607,19.539,3.5557,0.05,9.7666e-05,2.2885,1.7585e-07,1.3213,8.5772e-14,-5.1073e-07,-1.7585e-07,-1.3213,2.0212
608,17.87,3.524,0,0.00013536,1351.5,4.6583e-05,23.442,4.3463e-05,0.00030922,-0.00013483,-1339.6,1.7588
609,18.423,3.5306,0.05,0.00012257,2.4078,1.8501e-07,1.3901,-1.3451e-13,-8.3045e-07,-1.8501e-07,-1.3901,1.845
610,16.763,3.5139,0,0.00016139,1611.7,5.4627e-05,16.772,5.2382e-05,-0.095582,-0.00016099,-1603.3,1.5888
611,17.317,3.5175,0.05,0.00014815,2.3667,1.8186e-07,1.3664,1.4474e-14,-4.9018e-07,-1.8186e-07,-1.3664,1.6735
612,15.655,3.5091,0,0.00018824,1880.1,6.2972e-05,10.696,6.1564e-05,0.1156,-0.00018795,-1874.6,1.4226
613,16.209,3.5104,0.05,0.00017464,2.3696,1.8208e-07,1.3681,-1.0777e-13,-7.4272e-07,-1.8208e-07,-1.3681,1.5052
614,14.544,3.5091,0,0.00021583,2155.8,7.1546e-05,4.3738,7.0987e-05,0.17695,-0.00021565,-2153.5,1.2606
615,15.1,3.5079,0.05,0.00020185,2.7405,2.1058e-07,1.5822,-1.6997e-13,-1.2787e-06,-2.1058e-07,-1.5822,1.3411
616,13.418,3.5169,0,0.00024442,2441.5,8.083e-05,0.10755,8.0286e-05,-3.9814,-0.00024438,-2443.4,1.1019
617,13.987,3.5102,0.05,0.00022981,2.7662,2.1256e-07,1.5971,-5.9416e-14,-5.2437e-07,-2.1256e-07,-1.5971,1.1814
618,12.273,3.5365,0,0.00027395,2736.5,9.1155e-05,-0.88466,8.8953e-05,-17.432,-0.00027415,-2745.6,0.94673
619,12.849,3.5236,0.05,0.00025903,2.8129,2.1614e-07,1.624,-1.2444e-13,-1.5238e-07,-2.1614e-07,-1.624,1.024
620,11.111,3.5537,0,0.00030434,3040,0.0001024,-1.3029,9.6861e-05,-42.899,-0.00030494,-3061.9,0.79672
621,11.696,3.5495,0.05,0.00028887,3.887,2.9868e-07,2.2442,-5.2655e-13,-4.5234e-07,-2.9868e-07,-2.2442,0.87126
622,9.9213,3.5662,0,0.00033567,3352.4,0.0001146,-1.4713,0.00010394,-81.508,-0.00033681,-3393.1,0.65161
623,10.526,3.5579,0.05,0.00031982,7.8812,6.0559e-07,4.5502,-7.2583e-14,-3.0443e-07,-6.0559e-07,-4.5502,0.72422
624,8.7093,3.5809,0,0.00036858,3680.3,0.00013027,28.846,0.0001092,-129.49,-0.00036974,-3728.1,0.51361
625,9.3164,3.5745,0.05,0.00035151,15.826,1.216e-06,9.1369,1.8095e-14,2.0238e-08,-1.216e-06,-9.1369,0.58141
626,8.1022,3.5873,0.05,0.00038564,5.8343,4.4831e-07,3.3684,6.0141e-14,1.2612e-06,-4.4831e-07,-3.3684,0.44849
627,2.3958,1.8867,0,0.00060115,5885.6,0.00023556,-73.846,0.00011331,-992.41,-0.0006017,-6364.7,0.032265
628,2.8533,1.6851,0.05,0.00064423,115.48,8.8735e-06,66.672,3.0384e-14,-1.3837e-05,-8.8735e-06,-66.672,0.045215
629,3.3567,1.3425,0,0.00059303,4960,0.00020792,554.69,0.00013822,30.953,-0.0004843,-4646.4,0.060595
630,3.4747,4.2141,0.05,0.0010206,1016.6,7.8115e-05,586.93,4.7004e-12,-2.7885e-05,-7.8115e-05,-586.93,0.068055
631,3.6674,4.3571,0,0.0010033,7997.6,0.00056342,3968.5,5.9639e-05,183.36,-0.00065936,-5218.9,0.074659
632,4.633,0.89628,0.05,0.00040221,263.12,2.0219e-05,151.91,-4.7824e-12,-1.059e-06,-2.0219e-05,-151.91,0.12781
633,4.3298,0.94814,0,0.00035166,3036,0.00017157,807.48,4.3431e-05,-155.27,-0.00028104,-2593.2,0.1052
634,4.0511,2.9002,0,0.0010919,10459,0.00047737,1722.1,0.00027265,183.89,-0.0010057,-9421.2,0.10183
635,4.1211,2.6779,0.05,0.001112,647.72,4.9771e-05,373.96,-1.6802e-13,-7.9322e-14,-4.9771e-05,-373.96,0.10551
636,3.9906,2.339,0,0.0017475,16310,0.00057498,120.69,0.00048742,-537.27,-0.0016383,-16509,0.096233
637,3.7237,2.8625,0,0.0010058,9798.3,0.00035443,468.59,0.00031403,165.03,-0.00096937,-9478,0.084027
638,3.9811,3.1224,0.05,0.0010719,612,4.7027e-05,353.34,-6.0288e-12,-2.7211e-13,-4.7027e-05,-353.34,0.097865
639,3.9205,3.5612,0,0.001681,16269,0.00056469,-22.652,0.00048824,-597.08,-0.0016378,-16572,0.093315
640,3.4664,2.6026,0.05,0.00093983,662.38,5.0898e-05,382.43,-4.8616e-12,-0.0001204,-5.0898e-05,-382.43,0.071354
641,3.6632,2.3013,0,0.0016614,16234,0.00054998,-396.99,0.00047578,-954.49,-0.0016468,-16903,0.079151
642,1.9382,2.0883,0.05,0.00055806,91.253,7.0119e-06,52.685,4.2895e-13,-5.1246e-14,-7.0119e-06,-52.685,0.021174
643,2.9232,3.8215,0.05,0.00069557,101.66,7.812e-06,58.696,6.3665e-12,-1.0808e-06,-7.812e-06,-58.696,0.049341
644,2.5049,4.1751,0.1,0.00060446,5945.5,0.00059888,6081.2,-0.00016385,350.41,-0.00021818,-57.802,0.035386
645,3.0497,4.2067,0.1,0.00065935,6236.9,0.00061846,6073.4,-0.00020117,-85.026,-0.0002217,-239.29,0.052378
646,3.0568,3.1234,0.1,0.00079784,7654.6,0.0007722,7889.1,-0.00019395,629.8,-0.00029206,-107.37,0.055081
647,3.1804,3.6602,0.1,0.00085828,8475.2,0.00082901,7934.5,-0.0002649,-284.72,-0.00033021,-775.43,0.05916
648,2.3958,1.8867,0.1,0.00060115,5885.6,0.0006017,6364.7,-0.00011331,992.41,-0.00023556,73.846,0.032265
649,1.981,2.6527,0.1,0.00055248,5482.1,0.00056693,6256.4,-5.8477e-05,1557.3,-0.00023466,233.59,0.022658
650,1.4509,2.1985,0.1,0.00060844,6042.1,0.0005996,6492.8,-1.7104e-05,1859.1,-0.00030994,-341.1,0.011836
651,1.9054,1.5623,0.1,0.00054197,5360.8,0.00055485,6033.6,-8.4156e-05,1232.3,-0.000215,249.2,0.019889
652,3.7237,2.8625,0.1,0.0010058,9798.3,0.00096937,9478,-0.00031403,-165.03,-0.00035443,-468.59,0.084027
653,3.3284,2.514,0.1,0.00091997,8979.4,0.00090095,9096.9,-0.00024017,522.97,-0.00034163,-239.37,0.06517
654,3.4519,3.0507,0.1,0.00098041,9336.2,0.0009171,8836.8,-0.00030825,-369.96,-0.000342,-623.58,0.071175
655,3.6632,2.3013,0.1,0.0016614,16234,0.0016468,16903,-0.00047578,954.49,-0.00054998,396.99,0.079151
656,4.0511,2.9002,0.1,0.0010919,10459,0.0010057,9421.2,-0.00027265,-183.89,-0.00047737,-1722.1,0.10183
657,4.2516,3.3199,0.1,0.00096221,9329.7,0.00092569,9111.7,-0.00028594,7.9945,-0.00034404,-428.57,0.11367
658,3.9205,3.5612,0.1,0.001681,16269,0.0016378,16572,-0.00048824,597.08,-0.00056469,22.652,0.093315
659,4.4044,2.6268,0.1,0.00095521,8875.3,0.0008486,7818.8,-0.00024992,-435.01,-0.00040084,-1569,0.12314
660,3.9906,2.339,0.1,0.0017475,16310,0.0016383,16509,-0.00048742,537.27,-0.00057498,-120.69,0.096233
661,4.7541,1.0522,0.1,0.00052863,4792.8,0.00047179,4610.1,-0.00012579,120.12,-0.00019992,-436.81,0.13846
662,4.7788,0.68933,0.1,0.00039727,3561.3,0.00034701,3319.6,-9.7728e-05,-21.988,-0.00015161,-426.83,0.13751
663,4.3298,0.94814,0.1,0.00035166,3036,0.00028104,2593.2,-4.3431e-05,155.27,-0.00017157,-807.48,0.1052
664,3.3254,4.403,0.1,0.00082186,7994.4,0.00078209,7617.9,-0.00018653,340.03,-0.00035674,-938.86,0.061163
665,3.4561,3.8565,0.1,0.0010208,9758.8,0.00095073,9164.2,-0.00023823,230.85,-0.0004354,-1250.6,0.069494
666,3.6674,4.3571,0.1,0.0010033,7997.6,0.00065936,5218.9,-5.9639e-05,-183.36,-0.00056342,-3968.5,0.074659
667,2.8357,1.254,0.1,0.00056717,5623.8,0.00055967,5534.1,-0.00018221,-40.195,-0.00019523,-138.03,0.043077
668,3.0219,2.0552,0.1,0.00077217,7568,0.00076717,7920.7,-0.0001818,790.49,-0.00028965,-19.846,0.052114
669,3.3567,1.3425,0.1,0.00059303,4960,0.0004843,4646.4,-0.00013822,-30.953,-0.00020792,-554.69,0.060595
670,8.7093,3.5809,0.1,0.00036858,3680.3,0.00036974,3728.1,-0.0001092,129.49,-0.00013027,-28.846,0.51361
671,8.084,2.977,0.1,0.00038737,3868,0.00038941,3943.9,-0.00011192,177.11,-0.00013789,-18.005,0.44684
672,7.4761,3.5669,0.1,0.00039623,3954.2,0.00040027,4101.4,-0.00010771,284.58,-0.00014256,22.796,0.38443
673,8.1429,4.1859,0.1,0.00038863,3879.2,0.00038985,3933.6,-0.00011454,143.85,-0.00013758,-29.282,0.45176
674,9.9213,3.5662,0.1,0.00033567,3352.4,0.00033681,3393.1,-0.00010394,81.508,-0.0001146,1.4713,0.65161
675,9.3163,2.9801,0.1,0.000351,3505.9,0.00035231,3551.7,-0.0001072,99.048,-0.00012107,-5.1782,0.58161
676,9.3642,4.1746,0.1,0.00035126,3507.3,0.00035246,3551.9,-0.00010958,80.34,-0.00011896,9.8122,0.58593
677,11.111,3.5537,0.1,0.00030434,3040,0.00030494,3061.9,-9.6861e-05,42.899,-0.0001024,1.3029,0.79672
678,10.521,2.9676,0.1,0.00031986,3195.1,0.00032069,3224.1,-0.0001004,60.216,-0.00010859,-1.3753,0.72374
679,10.557,4.1623,0.1,0.00031996,3195.3,0.00032039,3214.4,-0.00010199,40.822,-0.00010773,-2.2938,0.72717
680,12.273,3.5365,0.1,0.00027395,2736.5,0.00027415,2745.6,-8.8953e-05,17.432,-9.1155e-05,0.88466,0.94673
681,11.697,2.956,0.1,0.00028882,2884.9,0.00028916,2898.9,-9.3086e-05,26.885,-9.6479e-05,1.3868,0.87146
682,11.718,4.1528,0.1,0.00028892,2885.3,0.00028908,2895.6,-9.3597e-05,20.338,-9.626e-05,0.32899,0.87335
683,13.418,3.5169,0.1,0.00024442,2441.5,0.00024438,2443.4,-8.0286e-05,3.9814,-8.083e-05,-0.10755,1.1019
684,12.852,2.9385,0.1,0.00025894,2586.2,0.00025895,2590.9,-8.4598e-05,9.5671,-8.5883e-05,-0.093582,1.0244
685,12.866,4.1206,0.1,0.00025896,2586,0.0002589,2589.5,-8.4782e-05,7.2164,-8.5777e-05,-0.25404,1.0255
686,14.544,3.5091,0.1,0.00021583,2155.8,0.00021565,2153.5,-7.0987e-05,-0.17695,-7.1546e-05,-4.3738,1.2606
687,13.988,2.9304,0.1,0.00022983,2295.1,0.00022966,2294.8,-7.5737e-05,0.23089,-7.5856e-05,-0.66594,1.1815
688,13.993,4.0911,0.1,0.00022995,2296.1,0.00022974,2295.1,-7.5675e-05,0.36618,-7.6042e-05,-2.391,1.1817
689,15.655,3.5091,0.1,0.00018824,1880.1,0.00018795,1874.6,-6.1564e-05,-0.1156,-6.2972e-05,-10.696,1.4226
690,15.099,2.9289,0.1,0.0002019,2015.8,0.00020159,2012.1,-6.6218e-05,-0.076841,-6.7161e-05,-7.1641,1.341
691,15.103,4.0891,0.1,0.00020203,2016.9,0.00020169,2012.7,-6.62e-05,-0.085822,-6.7295e-05,-8.3096,1.3411
692,16.763,3.5139,0.1,0.00016139,1611.7,0.00016099,1603.3,-5.2382e-05,0.095582,-5.4627e-05,-16.772,1.5888
693,16.211,2.9308,0.1,0.00017459,1742.8,0.00017417,1736.1,-5.6896e-05,0.0058545,-5.865e-05,-13.171,1.5055
694,16.21,4.0902,0.1,0.0001748,1744.7,0.00017436,1737.9,-5.6932e-05,0.079051,-5.8759e-05,-13.641,1.505
695,17.87,3.524,0.1,0.00013536,1351.5,0.00013483,1339.6,-4.3463e-05,-0.00030919,-4.6583e-05,-23.442,1.7588
696,17.318,2.9365,0.1,0.00014813,1478.2,0.00014759,1468.5,-4.7865e-05,0.0099614,-5.0403e-05,-19.054,1.6737
697,17.316,4.0974,0.1,0.00014832,1480,0.00014777,1470.4,-4.7931e-05,0.010798,-5.0452e-05,-18.932,1.6731
698,18.981,3.5431,0.1,0.00011012,1099.2,0.0001094,1082.4,-3.4705e-05,-0.32957,-3.8981e-05,-32.459,1.9327
699,18.426,2.9461,0.1,0.00012249,1221.7,0.00012178,1208.2,-3.9026e-05,-0.029162,-4.2554e-05,-26.537,1.8455
700,18.422,4.1142,0.1,0.00012268,1223.6,0.00012199,1210.6,-3.9134e-05,-0.045288,-4.254e-05,-25.637,1.8446
701,20.092,3.5671,0.1,8.5922e-05,857.24,8.4891e-05,832.83,-2.5987e-05,-0.26224,-3.2165e-05,-46.677,2.1095
702,19.538,2.9624,0.1,9.7699e-05,973.91,9.677e-05,954.7,-3.0303e-05,-0.076354,-3.5255e-05,-37.282,2.021
703,19.534,4.1473,0.1,9.7756e-05,974.25,9.6849e-05,956.22,-3.0452e-05,-0.26623,-3.5058e-05,-34.873,2.0202
704,21.201,3.5844,0.1,6.3139e-05,629.25,6.1501e-05,591.77,-1.7216e-05,0.3202,-2.6504e-05,-69.462,2.2878
705,20.646,2.9777,0.1,7.4167e-05,738.72,7.2838e-05,709.79,-2.1625e-05,0.026521,-2.8928e-05,-54.842,2.1983
706,20.643,4.1845,0.1,7.3857e-05,735.22,7.263e-05,709.84,-2.1847e-05,-0.029797,-2.8278e-05,-48.344,2.1978
707,21.756,2.9884,0.1,5.2056e-05,518.03,4.9947e-05,472.06,-1.2839e-05,0.30665,-2.3837e-05,-82.325,2.3777
708,21.758,4.1913,0.1,5.1111e-05,507.9,4.9278e-05,469.5,-1.3168e-05,0.30756,-2.2501e-05,-69.819,2.378
709,22.314,3.596,0.1,4.2127e-05,417.83,3.9053e-05,355.95,-8.2954e-06,0.19063,-2.2185e-05,-104.17,2.4684
710,21.202,2.3817,0.1,6.3084e-05,628.73,6.1458e-05,591.38,-1.7248e-05,0.014753,-2.6436e-05,-69.018,2.2876
711,22.314,2.3897,0.1,4.2095e-05,417.5,3.9038e-05,355.92,-8.3254e-06,0.050342,-2.2129e-05,-103.66,2.468
712,21.76,1.7874,0.1,5.1025e-05,507.09,4.9213e-05,468.99,-1.3201e-05,0.036267,-2.2407e-05,-69.134,2.3776
713,20.092,2.3729,0.1,8.5944e-05,857.5,8.4917e-05,833.16,-2.5941e-05,0.21624,-3.2219e-05,-46.951,2.109
714,20.647,1.7826,0.1,7.3754e-05,734.18,7.2541e-05,709.16,-2.1846e-05,-0.025752,-2.8189e-05,-47.686,2.1977
715,18.983,2.3654,0.1,0.00011007,1098.7,0.00010935,1082,-3.4623e-05,0.23036,-3.9026e-05,-32.853,1.9328
716,19.537,1.7765,0.1,9.7643e-05,973.06,9.6754e-05,955.74,-3.0418e-05,0.21838,-3.4967e-05,-33.958,2.02
717,17.875,2.3586,0.1,0.00013526,1350.5,0.00013473,1338.6,-4.3427e-05,-0.013012,-4.656e-05,-23.552,1.7592
718,18.431,1.7697,0.1,0.00012247,1221.3,0.00012178,1208.7,-3.909e-05,0.041647,-4.2408e-05,-24.89,1.8453
719,16.766,2.3535,0.1,0.00016133,1611.1,0.00016093,1602.7,-5.2379e-05,-0.071189,-5.4597e-05,-16.742,1.5889
720,17.321,1.7645,0.1,0.00014827,1479.4,0.00014771,1469.9,-4.7929e-05,-0.038662,-5.041e-05,-18.685,1.6729
721,15.655,2.3506,0.1,0.00018824,1880.2,0.00018796,1874.8,-6.1547e-05,0.070656,-6.2996e-05,-10.819,1.4223
722,16.215,1.7613,0.1,0.00017474,1744.1,0.0001743,1737.3,-5.6922e-05,-0.013541,-5.873e-05,-13.597,1.5049
723,14.543,2.3502,0.1,0.00021589,2156.6,0.00021574,2154.5,-7.0985e-05,0.1992,-7.159e-05,-4.3433,1.26
724,15.099,1.7605,0.1,0.00020221,2018.8,0.00020187,2014.4,-6.6219e-05,0.09195,-6.7411e-05,-8.8638,1.3397
725,13.421,2.352,0.1,0.00024435,2441.1,0.00024435,2443.2,-8.0232e-05,4.4403,-8.0845e-05,-0.16703,1.1019
726,13.991,1.7615,0.1,0.0002301,2297.7,0.00022989,2296.5,-7.5725e-05,0.23096,-7.6112e-05,-2.6801,1.1805
727,12.276,2.3579,0.1,0.00027381,2735.6,0.00027406,2744.9,-8.8821e-05,18.343,-9.1215e-05,0.35693,0.94672
728,12.859,1.7641,0.1,0.00025924,2589.1,0.00025917,2591.6,-8.4979e-05,5.7807,-8.5848e-05,-0.74887,1.0237
729,11.106,2.3699,0.1,0.00030433,3040.7,0.00030497,3061.6,-9.6659e-05,43.926,-0.0001027,-1.4863,0.79569
730,11.714,1.7751,0.1,0.00028902,2886.9,0.00028924,2897.3,-9.3691e-05,20.089,-9.6262e-05,0.76718,0.87196
731,9.9158,2.3815,0.1,0.00033519,3348.9,0.00033622,3382.8,-0.00010367,77.641,-0.00011509,-8.1222,0.65057
732,10.551,1.7879,0.1,0.00032036,3200.1,0.00032079,3217,-0.00010196,40.66,-0.0001082,-6.1912,0.72558
733,8.691,2.3763,0.1,0.00036978,3693.6,0.000372,3767.6,-0.00010995,146.45,-0.00012868,5.6976,0.51122
734,9.3576,1.7932,0.1,0.00035105,3505.9,0.00035204,3542.1,-0.00011057,66.195,-0.00011846,6.9168,0.58445
735,7.4595,2.4082,0.1,0.00040805,4070.9,0.00041178,4211.9,-0.00011255,272.27,-0.00014595,21.321,0.38242
736,8.1012,1.789,0.1,0.00039115,3904.4,0.00039437,4017.9,-0.00011323,203.94,-0.00013652,28.904,0.44665
737,6.8515,2.9982,0.1,0.00041691,4156.9,0.00042265,4369.4,-0.00010913,373.8,-0.00014983,68.03,0.32389
738,6.8492,4.1432,0.1,0.00040887,4058.3,0.00040729,4094.3,-0.0001269,80.602,-0.00013858,-7.1623,0.32249
739,6.107,3.4963,0.1,0.00051923,5148.6,0.00052358,5413.4,-0.0001361,456.79,-0.00018462,92.245,0.25569
740,6.7396,1.8202,0.1,0.00042927,4264.8,0.00042735,4284.5,-0.00013166,84.288,-0.00014849,-42.228,0.31141
741,6.2584,2.4845,0.1,0.00048106,4746.3,0.0004784,4875.2,-0.00012311,355.7,-0.00017968,-69.396,0.26885
742,6.3579,5.0079,0.1,0.0004244,4099.7,0.000409,4069.2,-0.00012353,68.05,-0.00014886,-122.25,0.27378
743,5.3762,5.3762,0.1,0.0004035,3824.1,0.00038217,3815.8,-0.00011409,87.073,-0.00013859,-97.006,0.18655
744,5.4605,5.0163,0.1,0.00052619,4932.3,0.00049366,4944.1,-0.00014567,140.34,-0.00017865,-107.44,0.19578
745,6.0567,5.638,0.1,0.00043261,4164.5,0.00041931,4244.5,-0.00012393,162.81,-0.00014536,1.7825,0.24306
746,7.516,4.7622,0.1,0.00040127,3986.2,0.00039686,3926.5,-0.00013236,-49.899,-0.00013496,-69.433,0.38556
747,6.1814,4.4776,0.1,0.00046465,4479.5,0.00045477,4692.1,-0.00011601,403.44,-0.00016391,43.59,0.26005
748,7.102,5.3699,0.1,0.00040354,4000,0.00039969,3984.1,-0.00012691,27.386,-0.00013826,-57.886,0.34179
749,8.7978,4.7796,0.1,0.00037131,3706.6,0.00037261,3757.7,-0.00011494,94.492,-0.00012629,9.2452,0.52054
750,8.3244,5.3923,0.1,0.00038527,3846.2,0.00038535,3860.2,-0.00012324,38.89,-0.0001298,-10.36,0.46641
751,10,4.7707,0.1,0.00033556,3351.1,0.00033609,3373.6,-0.0001077,39.097,-0.00011208,6.1697,0.65835
752,9.4934,5.3873,0.1,0.00035165,3511.8,0.00035188,3525.3,-0.00011507,16.806,-0.00011595,10.168,0.59643
753,11.164,4.7614,0.1,0.00030453,3041.7,0.00030462,3048.8,-9.8807e-05,17.624,-0.00010159,-3.2857,0.80104
754,10.636,5.3834,0.1,0.00032043,3200.3,0.00032028,3201.1,-0.00010532,3.3369,-0.00010599,-1.6801,0.73283
755,12.311,4.7369,0.1,0.00027393,2736.1,0.00027394,2740.3,-8.9537e-05,9.291,-9.0883e-05,-0.82428,0.9497
756,11.767,5.378,0.1,0.00028934,2890.2,0.00028927,2891.7,-9.5158e-05,3.2731,-9.5618e-05,-0.18084,0.87601
757,13.441,4.6948,0.1,0.00024449,2442.1,0.00024438,2442.2,-8.0489e-05,1.2159,-8.0798e-05,-1.1068,1.1032
758,12.893,5.3588,0.1,0.00025926,2589.7,0.00025911,2588.6,-8.5424e-05,-0.13123,-8.5693e-05,-2.1492,1.0259
759,14.553,4.6712,0.1,0.00021615,2158.9,0.00021592,2155.4,-7.0909e-05,0.30584,-7.1909e-05,-7.2081,1.2605
760,14.006,5.336,0.1,0.00023027,2300,0.00023004,2296.6,-7.5617e-05,-0.043306,-7.6521e-05,-6.8297,1.1807
761,15.659,4.6702,0.1,0.00018858,1883.3,0.00018825,1877.1,-6.1571e-05,0.088886,-6.3228e-05,-12.361,1.422
762,15.115,5.3351,0.1,0.00020217,2019.2,0.00020188,2013.9,-6.6149e-05,0.086706,-6.7564e-05,-10.546,1.3403
763,16.764,4.6737,0.1,0.00016172,1614.9,0.0001613,1606.3,-5.2482e-05,-0.0089567,-5.4748e-05,-17.038,1.5879
764,16.222,5.3351,0.1,0.00017475,1745.1,0.00017441,1738.7,-5.7007e-05,-0.042313,-5.8677e-05,-12.594,1.5047
765,17.868,4.6875,0.1,0.00013564,1354.1,0.00013511,1342.7,-4.3601e-05,-0.034843,-4.6591e-05,-22.498,1.7577
766,17.329,5.3386,0.1,0.00014807,1478.5,0.00014769,1470.8,-4.8065e-05,-0.0065784,-5.01e-05,-15.297,1.6732
767,18.975,4.7183,0.1,0.00011032,1101,0.00010964,1085.9,-3.4881e-05,0.017702,-3.8819e-05,-29.576,1.9311
768,18.436,5.3489,0.1,0.00012214,1219.3,0.00012169,1209.8,-3.9326e-05,0.062887,-4.1833e-05,-18.772,1.8454
769,20.085,4.7647,0.1,8.5691e-05,854.65,8.481e-05,834.89,-2.6312e-05,-0.034054,-3.1392e-05,-38.204,2.1077
770,19.545,5.3694,0.1,9.6901e-05,966.92,9.6338e-05,955,-3.0735e-05,0.22554,-3.3907e-05,-23.609,2.0208
771,21.201,4.7914,0.1,6.1829e-05,616.04,6.0633e-05,589.27,-1.7799e-05,-0.039589,-2.4502e-05,-50.403,2.2874
772,20.656,5.3952,0.1,7.2286e-05,720.6,7.1588e-05,706.08,-2.2382e-05,0.022253,-2.6143e-05,-28.239,2.1989
773,22.321,4.7945,0.1,3.9426e-05,391.45,3.7452e-05,350.59,-9.1952e-06,0.099693,-1.8769e-05,-71.836,2.4692
774,21.771,5.3962,0.1,4.831e-05,480.39,4.7371e-05,461.63,-1.4124e-05,-0.4226,-1.8753e-05,-35.197,2.3794
775,22.876,4.1992,0.1,3.0441e-05,302.05,2.7046e-05,235.68,-4.324e-06,-0.026574,-1.8271e-05,-104.82,2.56
776,22.885,5.3983,0.1,2.5489e-05,250.34,2.3872e-05,222.52,-5.7589e-06,-0.11136,-1.2195e-05,-48.469,2.5609
777,23.44,4.7983,0.1,2.162e-05,200.79,1.5511e-05,117.07,-9.2763e-08,-0.16809,-1.5346e-05,-114.77,2.6518
778,22.872,2.9973,0.1,3.2166e-05,320.03,2.8029e-05,238.95,-3.7823e-06,-0.071893,-2.036e-05,-124.63,2.5592
779,23.437,3.6009,0.1,2.5306e-05,238.16,1.7092e-05,119.59,1.1123e-06,-0.46795,-1.9414e-05,-154.7,2.6515
780,22.877,1.7939,0.1,3.0381e-05,301.46,2.7002e-05,235.43,-4.3154e-06,0.12496,-1.8223e-05,-104.37,2.5594
781,23.435,2.3964,0.1,2.5309e-05,238.19,1.71e-05,119.75,1.1148e-06,-0.35398,-1.9412e-05,-154.58,2.6509
782,22.323,1.1916,0.1,3.9311e-05,390.3,3.7355e-05,349.84,-9.1895e-06,0.12071,-1.8681e-05,-71.198,2.4686
783,23.441,1.1975,0.1,2.1533e-05,199.87,1.5427e-05,116.33,-8.2086e-08,-0.20361,-1.5289e-05,-114.46,2.6511
784,22.887,0.59746,0.1,2.5412e-05,249.61,2.3806e-05,221.92,-5.7578e-06,-0.21047,-1.2145e-05,-48.2,2.5598
785,21.206,1.1883,0.1,6.1695e-05,614.71,6.0522e-05,588.47,-1.7798e-05,-0.00029679,-2.4386e-05,-49.502,2.2871
786,21.772,0.59411,0.1,4.8266e-05,479.96,4.7326e-05,461.17,-1.4093e-05,-0.31106,-1.8757e-05,-35.354,2.3782
787,20.093,1.1862,0.1,8.5452e-05,852.28,8.4608e-05,833.47,-2.6323e-05,-0.02216,-3.1168e-05,-36.424,2.108
788,20.66,0.5942,0.1,7.2125e-05,719.17,7.1446e-05,704.69,-2.2342e-05,-0.00053113,-2.6085e-05,-28.125,2.1981
789,18.985,1.1808,0.1,0.00011005,1098.2,0.0001094,1084.1,-3.4884e-05,0.031666,-3.8567e-05,-27.64,1.9316
790,19.55,0.592,0.1,9.6684e-05,964.91,9.6153e-05,953.39,-3.0747e-05,-0.085664,-3.3738e-05,-22.562,2.0202
791,17.877,1.1755,0.1,0.00013549,1352.5,0.00013497,1341.6,-4.3591e-05,0.019462,-4.6462e-05,-21.551,1.7579
792,18.442,0.58884,0.1,0.00012194,1217.5,0.00012151,1208.2,-3.9295e-05,-0.053926,-4.1735e-05,-18.386,1.8449
793,16.769,1.1724,0.1,0.00016169,1614.5,0.00016127,1606,-5.2471e-05,0.02392,-5.4729e-05,-16.942,1.5875
794,17.332,0.58671,0.1,0.00014797,1477.7,0.00014761,1470,-4.8038e-05,-0.01627,-5.0077e-05,-15.332,1.6722
795,15.659,1.1713,0.1,0.00018871,1884.6,0.00018837,1878.1,-6.1594e-05,0.011582,-6.3313e-05,-12.906,1.4207
796,16.225,0.58568,0.1,0.00017469,1744.8,0.00017438,1738.3,-5.6989e-05,-0.044545,-5.8677e-05,-12.73,1.5035
797,14.548,1.1719,0.1,0.00021642,2161.6,0.00021617,2157.5,-7.0959e-05,0.11953,-7.2081e-05,-8.313,1.2583
798,15.112,0.58561,0.1,0.00020225,2020.2,0.00020198,2015,-6.6202e-05,-0.037891,-6.7576e-05,-10.362,1.3383
799,13.429,1.1737,0.1,0.000245,2447.2,0.00024484,2445.8,-8.0678e-05,0.024761,-8.1035e-05,-2.6588,1.1003
800,14.004,0.58624,0.1,0.00023043,2301.8,0.00023022,2298.3,-7.5664e-05,-0.017605,-7.6599e-05,-7.0382,1.1788
801,12.297,1.1814,0.1,0.00027446,2741.5,0.00027445,2744.7,-8.9926e-05,6.9509,-9.0919e-05,-0.51062,0.94658
802,12.883,0.58746,0.1,0.00025965,2593.7,0.0002595,2592.1,-8.5503e-05,-0.10405,-8.5915e-05,-3.2002,1.0231
803,11.158,1.1932,0.1,0.00030506,3047.1,0.00030513,3053.2,-9.9059e-05,16.337,-0.00010177,-4.0082,0.79912
804,11.762,0.5939,0.1,0.00028957,2892.6,0.00028951,2894.2,-9.5317e-05,2.7328,-9.5614e-05,0.50426,0.87393
805,9.9925,1.1996,0.1,0.00033623,3358,0.00033667,3376.8,-0.00010892,28.808,-0.00011158,8.7975,0.65634
806,10.635,0.59928,0.1,0.00032067,3202.9,0.00032054,3203.7,-0.00010542,3.1989,-0.00010605,-1.5308,0.73128
807,8.7678,1.2059,0.1,0.00037242,3716.7,0.00037445,3792.6,-0.00011389,123.41,-0.0001263,30.113,0.5162
808,9.487,0.6003,0.1,0.0003521,3516.2,0.00035222,3526.8,-0.00011496,16.522,-0.00011654,4.6641,0.5943
809,7.3813,1.2009,0.1,0.00041237,4100.1,0.00040996,4090.5,-0.0001328,12.443,-0.00013862,-31.223,0.37098
810,8.3009,0.60562,0.1,0.00038574,3848.9,0.0003862,3880.6,-0.00012143,66.487,-0.00013055,-2.0602,0.46258
811,6.2062,0.96219,0.1,0.0004105,3949,0.00039377,3914.3,-0.00011873,63.63,-0.00014398,-126.05,0.25892
812,6.0474,1.4895,0.1,0.00045272,4379.8,0.00044101,4463.5,-0.0001321,157.35,-0.00015123,13.602,0.24739
813,6.9908,0.59531,0.1,0.00041422,4109.1,0.00041314,4170.9,-0.00012272,144.68,-0.00014414,-16.305,0.32956
814,1.5202,3.3585,0.1,0.00060874,6032,0.00060005,6352.8,-4.9748e-05,1470.5,-0.00029741,-390.37,0.013309
815,2.0552,3.8729,0.1,0.00053012,5228,0.00053984,5860,-7.9347e-05,1207.7,-0.00021314,202.37,0.024174
816,2.6071,2.8212,0.1,0.0007235,7123.1,0.00073072,7799.8,-0.0001266,1358.2,-0.00028744,149.75,0.039607
817,0.99007,2.9042,0.1,0.0006647,6611.8,0.00063121,6577.8,-6.8966e-06,1783.4,-0.00037266,-964.8,0.0054929
818,1.0304,4.1158,0.1,0.00064139,6367.7,0.00060844,6230.7,-2.7177e-05,1455,-0.00035375,-998.75,0.0058179
819,0.50828,3.5499,0.1,0.00053258,5223.2,0.00058089,7194.4,-6.0206e-06,2784.6,-0.00018682,1426.1,0.0014215
820,0.9499,1.7279,0.1,0.00063149,6266.7,0.00059824,6153.7,-2.0536e-05,1504.4,-0.00035026,-973,0.0048491
821,0.48179,2.3543,0.1,0.00052073,5100.3,0.00056682,7049.1,2.0534e-06,2805.6,-0.00018627,1390.7,0.0012517
822,4.7714,5.282,0.1,0.00038922,3504.6,0.00034344,3326.3,-9.3269e-05,45.057,-0.0001479,-365.41,0.13848
823,4.4558,5.4882,0.1,0.00026224,1991.1,0.0001981,1970,-5.3697e-05,78.067,-7.8371e-05,-107.32,0.11216
824,5.0107,5.7382,0.1,0.00034852,3402.5,0.00033725,3313.7,-0.00010381,-0.28743,-0.00012653,-171.01,0.15395
825,5.3308,0.97095,0.1,0.00052226,4941.8,0.00049516,4973.4,-0.00014214,184.95,-0.00018122,-108.66,0.18395
826,5.3554,0.60807,0.1,0.00039089,3752.4,0.00037375,3708.1,-0.00011232,56.033,-0.00013803,-137.16,0.18345
827,6.0161,0.36688,0.1,0.00040594,3831.7,0.00038376,3846.8,-0.00011457,102.48,-0.00013709,-66.696,0.23818
828,1.5654,4.6302,0.1,0.00056277,5563.1,0.00055274,5771.9,-6.1337e-05,1157.9,-0.00026944,-405.69,0.01306
829,2.5003,4.8642,0.1,0.00049719,4870.8,0.00049492,5111.4,-0.00012772,433.07,-0.00017622,68.642,0.033076
830,2.0083,5.2643,0.1,0.00052842,5229.4,0.00053785,5674.8,-0.00013315,633.16,-0.0001807,275.9,0.019978
831,1.4044,1.0917,0.1,0.00056502,5569.3,0.00055494,5705.3,-8.9086e-05,866.34,-0.00025527,-382.29,0.010089
832,2.3453,0.92956,0.1,0.000508,5020.3,0.00050709,5159.9,-0.0001553,182.93,-0.00016671,97.197,0.028394
833,1.9013,0.51813,0.1,0.00053997,5375.1,0.00054447,5569,-0.00016776,217.58,-0.00017403,170.49,0.017108
834,4.8557,4.922,0.1,0.00051191,4598.5,0.00045349,4443.7,-0.0001216,122.75,-0.00018977,-389.43,0.14767
835,5.2839,4.4859,0.1,0.00056644,5240.4,0.00053299,5518.4,-0.00013407,506.47,-0.00019134,76.147,0.1839
836,4.5401,4.6282,0.1,0.00059832,4682.4,0.00042612,3674.9,-9.8489e-05,-266.78,-0.00026274,-1500.9,0.1258
837,5.1719,1.4983,0.1,0.00056448,5280.2,0.00053425,5461.2,-0.00015123,310.84,-0.00018459,60.165,0.17411
838,4.4509,1.3541,0.1,0.00067707,4806.6,0.00042466,3539.7,-8.2897e-05,-273.88,-0.00029391,-1859.3,0.11808
839,0.46812,1.1736,0.1,0.00049447,4823.9,0.0005379,6628.7,-1.866e-05,2446.9,-0.00016449,1351.1,0.0010839
840,0.95062,0.57358,0.1,0.00062366,6149.3,0.0006031,5969,-0.00012124,526.6,-0.00028473,-701.79,0.0038641
841,0.52212,4.7658,0.1,0.00049712,4856.1,0.00054069,6654.6,-1.8177e-05,2455.5,-0.00016707,1336.8,0.001363
842,1.0046,5.3658,0.1,0.00063135,6215.6,0.00061019,6030.9,-0.00012794,484.81,-0.00028395,-687.34,0.0044296
843,5.5139,2.9826,0.1,0.00058339,5718.2,0.00057761,5906.2,-0.0001494,443.79,-0.00021343,-37.315,0.20554
844,5.5662,2.1539,0.1,0.00050452,4863.4,0.00049237,5056.6,-0.00012554,413.81,-0.00018074,-0.94312,0.20867
845,5.1758,2.5475,0.1,0.00066675,6240.9,0.00062118,6172.7,-0.0001736,201.03,-0.00024115,-306.49,0.17816
846,5.4391,3.8307,0.1,0.000575,5572.9,0.00057067,6008.3,-0.00012491,781.89,-0.00020985,143.68,0.19861
847,4.9431,3.4817,0.1,0.0007421,7194.2,0.00071999,7205.2,-0.00021734,162.48,-0.00025645,-131.4,0.1607
848,4.3422,5.0438,0.1,0.00041346,3273.9,0.00029437,2623.2,-3.9393e-05,115.39,-0.00019857,-1080.6,0.10742
849,3.0451,4.8958,0.1,0.00055208,5360.4,0.00053189,5234.1,-0.00016656,-13.778,-0.00019561,-232.07,0.048694
850,3.387,5.3498,0.1,0.00036999,3027.2,0.00029897,2940.8,-7.8411e-05,105.31,-0.00012533,-247.22,0.056379
851,2.9045,5.5998,0.1,0.00042044,4123.9,0.00040932,4027.9,-0.00013126,-33.799,-0.00014746,-155.53,0.040201
852,3.5181,4.7959,0.1,0.00052044,4734,0.00046367,4489.3,-0.0001247,68.469,-0.0002011,-505.54,0.065101
853,4.4756,0.49119,0.1,0.00028786,2113.1,0.0002097,2067.1,-6.2565e-05,21.408,-7.9735e-05,-107.59,0.11206
854,5.0304,0.24119,0.1,0.00036411,3600.2,0.00035758,3526.9,-0.00010988,14.587,-0.00013248,-155.18,0.15383
855,3.339,0.66143,0.1,0.00037436,2981.2,0.00029466,2883.3,-8.8144e-05,7.0209,-0.00011474,-192.8,0.05517
856,2.8565,0.41143,0.1,0.00043602,4325.1,0.00042744,4173.3,-0.00013529,-54.859,-0.00016028,-242.66,0.039165
857,3.5252,1.9627,0.1,0.00095879,7887.3,0.00077319,7519.8,-0.00019832,220.29,-0.00034032,-846.65,0.071104
858,4.7705,4.1077,0.1,0.0010902,10006,0.00098827,9859.1,-0.00020809,870.01,-0.00044648,-921.15,0.14598
859,3.6488,3.7494,0.1,0.0016556,16378,0.0016352,16303,-0.00048237,392.81,-0.00060198,-505.92,0.078549
860,4.7477,1.8942,0.1,0.0010406,9722.9,0.00096337,9579.7,-0.00023078,607.37,-0.00041154,-750.82,0.14363
861,4.605,3.0466,0.1,0.00082547,7679.2,0.00076004,7445.2,-0.00023637,-41.397,-0.00028583,-413.03,0.13703
862,4.2745,3.7587,0.1,0.0012573,11522,0.0011251,10962,-0.00025584,586.3,-0.00052523,-1437.8,0.11347
863,4.3572,2.2878,0.1,0.0012028,10898,0.0010766,10579,-0.0002905,306.93,-0.00044472,-851.77,0.11862
864,4.0267,4.25,0,0.001122,10318,0.00061885,3256.8,0.00012352,-464.93,-0.00093338,-8406,0.092891
865,3.9433,4,0,0.0019761,16452,0.00062029,42.954,0.0004124,-1519,-0.0016659,-17134,0.090998
866,4.0267,4,0.05,0.001662,1335.6,0.00010263,771.11,1.4095e-11,7.5338e-05,-0.00010263,-771.11,0.095642
867,4.0267,4.75,0,0.00049986,4885.6,0.00038218,3023.3,7.2898e-06,206.58,-0.00036865,-2618.1,0.086793
868,4.0267,4.5,0.05,0.00058211,283.16,2.1758e-05,163.48,5.9556e-14,-1.2761e-05,-2.1758e-05,-163.48,0.089522
869,4.0267,5.25,0,0.00028648,2636.1,0.00018763,1262.8,8.789e-06,-81.027,-0.00021659,-1774.4,0.081342
870,4.0267,5,0.05,0.00041762,1079.1,8.2922e-05,623.05,-1.7589e-20,-1.3216e-13,-8.2922e-05,-623.05,0.083813
871,4.0267,5.75,0,0.00011319,612.56,3.0288e-05,72.853,8.435e-06,-91.339,-5.9938e-05,-605.07,0.076512
872,4.0267,5.5,0.05,0.00015534,315.48,2.4242e-05,182.14,-4.3832e-15,-7.5559e-06,-2.4242e-05,-182.14,0.078792
873,3.86,4.25,0,0.0016382,12409,0.00061324,2346.6,0.00026226,-290.54,-0.0011856,-11169,0.083857
874,3.86,4,0.05,0.0022902,928.93,7.138e-05,536.32,-1.5141e-20,4.5598e-06,-7.138e-05,-536.32,0.086699
875,3.86,5.25,0,0.00033835,3327.4,0.00020464,1075.4,3.0744e-05,-231.21,-0.00029877,-2707,0.072524
876,3.86,5.75,0,0.00015241,1164.3,7.0019e-05,366.16,1.3347e-05,-59.651,-0.0001053,-951.09,0.06781
877,3.86,5.5,0.05,0.00025895,137.7,1.0581e-05,79.504,-2.2445e-21,-1.6864e-14,-1.0581e-05,-79.504,0.0701
878,3.86,4.75,0,0.00070191,6773.4,0.000552,4618.9,9.6242e-07,478.61,-0.00048833,-3197.7,0.077684
879,3.86,5,0.05,0.00041774,363.67,2.7945e-05,209.97,-5.9275e-21,-4.4537e-14,-2.7945e-05,-209.97,0.075014
880,3.86,4.5,0.05,0.00098609,2265.8,0.0001741,1308.1,2.4905e-15,-6.0952e-05,-0.0001741,-1308.1,0.080569
881,4.0267,1.75,0,0.0011532,9837.7,0.0005842,3146.2,0.00013573,-223.37,-0.00089041,-7933.4,0.092222
882,3.9433,2,0,0.0019951,16867,0.00058358,-861.66,0.00043076,-2009.9,-0.0017337,-18273,0.090505
883,4.0267,2,0.05,0.0016073,352.49,2.7085e-05,203.51,-9.5402e-12,-4.3167e-14,-2.7085e-05,-203.51,0.095099
884,4.0267,1.25,0,0.0005001,4754.6,0.00038567,3132.5,-9.2918e-06,164.9,-0.0003442,-2351.4,0.085711
885,4.0267,1.5,0.05,0.00069909,474.88,3.649e-05,274.17,-1.09e-12,-5.8156e-14,-3.649e-05,-274.17,0.088563
886,4.0267,0.75,0,0.00024225,2224.3,0.00014439,824.08,1.4271e-05,-153.57,-0.00019442,-1721.6,0.080067
887,4.0267,1,0.05,0.0003011,943.89,7.2529e-05,544.96,-1.5385e-20,-1.1559e-13,-7.2529e-05,-544.96,0.082708
888,4.0267,0.25,0,0.0001314,662.41,3.3194e-05,128.17,1.3373e-05,-20.758,-6.3191e-05,-596.03,0.074889
889,4.0267,0.5,0.05,0.0001834,234.3,1.8004e-05,135.28,-3.3853e-13,-2.8694e-14,-1.8004e-05,-135.28,0.077325
890,3.86,1.75,0,0.0017002,15080,0.00059396,550.54,0.00038076,-1051.4,-0.0015112,-15267,0.083542
891,3.86,2,0.05,0.0023829,1734,0.00013324,1001.1,4.4831e-12,-0.00069045,-0.00013324,-1001.1,0.086218
892,3.86,0.75,0,0.00040022,3902.9,0.0002514,1540.9,4.111e-05,-39.085,-0.00034022,-2904.3,0.072779
893,3.86,0.25,0,0.0001502,1113.9,6.5487e-05,343.73,1.5473e-05,-32.05,-0.0001013,-909.42,0.068116
894,3.86,0.5,0.05,0.0002586,135.96,1.0447e-05,78.497,1.8467e-13,7.7455e-07,-1.0447e-05,-78.497,0.070369
895,3.86,1.25,0,0.00077966,7684.4,0.00052078,3351.5,5.4252e-05,-153.85,-0.00065203,-5460.5,0.077995
896,3.86,1,0.05,0.00054184,367.95,2.8274e-05,212.44,7.4892e-13,7.36e-06,-2.8274e-05,-212.44,0.075339
897,3.86,1.5,0.05,0.0010175,1203.7,9.249e-05,694.93,-3.2152e-13,-1.3485e-06,-9.249e-05,-694.93,0.080698
898,4.5815,6,0,0.00019947,1970.4,7.0524e-05,77.02,6.2853e-05,19.377,-0.00019548,-1921.6,0.11745
899,4.0267,6,0.05,7.1046e-05,61.791,4.748e-06,35.675,-1.0071e-21,-2.8956e-14,-4.748e-06,-35.675,0.074024
900,5.6911,6,0,0.00037763,3713.9,0.00012299,-5.2421,0.00012158,-15.878,-0.00037201,-3724.5,0.20846
901,5.1363,6,0.05,0.0003279,57.68,4.4322e-06,33.301,-9.4013e-22,-7.0637e-15,-4.4322e-06,-33.301,0.16195
902,6.8007,6,0,0.00041176,4072.8,0.00014155,-15.162,0.00012101,-169.55,-0.00041048,-4162.9,0.30869
903,6.2459,6,0.05,0.00042737,75.349,5.7899e-06,43.503,-1.2281e-21,-9.2276e-15,-5.7899e-06,-43.503,0.25722
904,7.9104,6,0,0.00038755,3863.5,0.00013444,8.9113,0.00011668,-124.51,-0.00038841,-3919.6,0.41913
905,7.3556,6,0.05,0.00039616,103.41,7.946e-06,59.703,-1.6855e-21,-1.2664e-14,-7.946e-06,-59.703,0.36266
906,9.02,6,0,0.00036561,3652,0.00012342,39.195,0.00011941,9.0259,-0.00036462,-3627.8,0.53902
907,8.4652,6,0.05,0.00037894,11.135,8.5564e-07,6.429,-1.8149e-22,-1.3637e-15,-8.5564e-07,-6.429,0.47787
908,10.13,6,0,0.00033652,3361.7,0.00011274,19.333,0.00010985,-2.4006,-0.00033611,-3353.2,0.66794
909,9.5748,6,0.05,0.00035228,11.44,8.7909e-07,6.6051,2.0545e-13,-1.401e-15,-8.7909e-07,-6.6051,0.60236
910,11.239,6,0,0.00030524,3049.5,0.00010174,11.493,0.00010001,-1.4462,-0.00030499,-3044.5,0.80512
911,10.684,6,0.05,0.00032075,28.196,2.1666e-06,16.279,-1.7425e-12,-3.453e-15,-2.1666e-06,-16.279,0.73552
912,12.349,6,0,0.00027467,2744.4,9.1324e-05,8.2382,9.0204e-05,-0.17402,-0.00027449,-2740.3,0.94978
913,11.794,6,0.05,0.00028972,29.62,2.276e-06,17.101,-4.8278e-22,1.7649e-07,-2.276e-06,-17.101,0.87653
914,13.459,6,0,0.00024503,2448.3,8.163e-05,9.4848,8.04e-05,0.24529,-0.00024483,-2443.4,1.1012
915,12.904,6,0.05,0.00025963,26.951,2.071e-06,15.56,-4.3928e-22,2.376e-07,-2.071e-06,-15.56,1.0247
916,14.568,6,0,0.00021629,2161.1,7.2253e-05,10.75,7.0853e-05,0.23116,-0.00021608,-2155.6,1.2586
917,14.013,6,0.05,0.00023044,25.3,1.944e-06,14.607,-4.1236e-22,-1.4696e-14,-1.944e-06,-14.607,1.1791
918,15.678,6,0,0.00018834,1881.9,6.3092e-05,11.378,6.1587e-05,0.070127,-0.00018812,-1876.2,1.4212
919,15.123,6,0.05,0.00020214,25.399,1.9517e-06,14.664,-1.8155e-12,9.8109e-08,-1.9517e-06,-14.664,1.3393
920,16.787,6,0,0.0001611,1609.7,5.4114e-05,11.49,5.2593e-05,0.064019,-0.00016088,-1603.9,1.5885
921,16.233,6,0.05,0.00017454,24.998,1.9209e-06,14.433,-9.0838e-13,-4.7625e-07,-1.9209e-06,-14.433,1.5043
922,17.897,6,0,0.00013458,1344.7,4.5431e-05,12.24,4.3791e-05,-0.082673,-0.00013435,-1338.6,1.7597
923,17.342,6,0.05,0.00014766,24.003,1.8444e-06,13.858,-3.9123e-22,4.0319e-07,-1.8444e-06,-13.858,1.6737
924,19.007,6,0,0.00010872,1086.3,3.7012e-05,13.493,3.5179e-05,-0.28015,-0.00010847,-1079.6,1.9342
925,18.452,6,0.05,0.00012149,23.066,1.7724e-06,13.317,1.8498e-14,-9.2768e-15,-1.7724e-06,-13.317,1.8466
926,20.116,6,0,8.3496e-05,834.12,2.8768e-05,14.472,2.6796e-05,-0.34052,-8.3219e-05,-826.96,2.1113
927,19.561,6,0.05,9.5955e-05,22.947,1.7633e-06,13.249,2.1479e-16,1.475e-06,-1.7633e-06,-13.249,2.0224
928,21.226,6,0,5.8768e-05,586.95,2.0565e-05,14.32,1.8685e-05,0.19342,-5.8475e-05,-579.56,2.2904
929,20.671,6,0.05,7.1036e-05,22.547,1.7325e-06,13.018,-3.675e-22,-7.6313e-07,-1.7325e-06,-13.018,2.2006
930,22.336,6,0,3.4374e-05,342.87,1.2465e-05,13.989,1.0656e-05,0.39025,-3.4046e-05,-335.48,2.4708
931,21.781,6,0.05,4.6499e-05,18.395,1.4134e-06,10.62,-2.1123e-13,3.6332e-07,-1.4134e-06,-10.62,2.3804
932,23.445,6,0,1.2686e-05,117.68,5.1337e-06,14.76,3.0618e-06,-0.80779,-1.1461e-05,-109.92,2.6521
933,22.89,6,0.05,2.2248e-05,13.496,1.037e-06,7.7917,1.2353e-13,-1.5453e-07,-1.037e-06,-7.7917,2.5614
934,24,5.4,0,8.8173e-06,77.35,7.6998e-06,76.671,-2.0698e-06,3.2653,-3.0497e-06,-4.0975,2.7431
935,24,6,0.05,3.1243e-06,7.037,5.4073e-07,4.0628,-4.5019e-13,-4.0244e-06,-5.4073e-07,-4.0628,2.7428
936,24,4.2,0,1.6484e-05,164.5,1.6451e-05,164.36,-5.0043e-06,3.158,-5.8575e-06,-3.2526,2.7435
937,24,4.8,0.05,1.451e-05,5.7885,4.4479e-07,3.342,-2.2827e-13,-3.8219e-06,-4.4479e-07,-3.342,2.7434
938,24,3,0,1.8449e-05,184.03,1.842e-05,184.31,-5.666e-06,3.3301,-6.4601e-06,-2.6369,2.7435
939,24,3.6,0.05,1.8458e-05,5.1865,3.9853e-07,2.9944,-2.3259e-14,-1.8983e-07,-3.9853e-07,-2.9944,2.7436
940,24,1.8,0,1.6461e-05,164.29,1.6437e-05,164.37,-4.9962e-06,3.3266,-5.8375e-06,-2.9945,2.7429
941,24,2.4,0.05,1.8441e-05,5.1281,3.9405e-07,2.9607,-1.5844e-14,-9.7859e-08,-3.9405e-07,-2.9607,2.7432
942,24,0.6,0,8.8229e-06,77.356,7.7015e-06,76.712,-2.0671e-06,3.3141,-3.0502e-06,-4.0724,2.7418
943,24,1.2,0.05,1.4482e-05,5.7515,4.4195e-07,3.3206,-1.9911e-15,-1.2748e-08,-4.4195e-07,-3.3206,2.7424
944,0,1.8,0,0.0003837,3805.6,6.6271e-06,-3668.8,-9.023e-06,-3786.4,-0.00050751,-7531.9,0
945,0,0.6,0,0.0002688,2475.5,5.1391e-06,-2334.6,-2.4855e-06,-2391.9,-0.00032808,-4838.2,0
946,0,1.2,0.05,0.00038478,212.47,1.6326e-05,122.67,-9.0754e-21,-2.602e-14,-1.6326e-05,-122.67,0
947,0,3,0,0.00038861,3871.1,3.6268e-06,-3757.6,-6.2022e-06,-3831.5,-0.00051642,-7665.1,0
948,0,2.4,0.05,0.00038263,229.86,1.7663e-05,132.71,-1.5823e-20,1.4299e-06,-1.7663e-05,-132.71,0
949,0,4.2,0,0.00038831,3848.1,6.1538e-07,-3758.2,-3.1725e-06,-3786.6,-0.00051341,-7620.4,0
950,0,3.6,0.05,0.00039459,136.29,1.0472e-05,78.684,-1.0365e-13,-8.6947e-07,-1.0472e-05,-78.684,0
951,0,5.4,0,0.00026879,2488.5,4.9674e-06,-2342.2,-1.7277e-06,-2392.5,-0.00032954,-4855.5,0
952,0,4.8,0.05,0.00038203,195.51,1.5023e-05,112.88,-5.0383e-21,6.0552e-05,-1.5023e-05,-112.88,0
953,23.445,0,0,1.2703e-05,117.76,5.1399e-06,14.827,3.0648e-06,-0.76427,-1.1467e-05,-109.95,2.6504
954,24,0,0.05,3.1639e-06,7.0818,5.4417e-07,4.0887,-1.6731e-13,-1.1385e-06,-5.4417e-07,-4.0887,2.7412
955,4.5815,0,0,0.00020765,1980.8,7.0567e-05,60.262,6.2153e-05,-2.9589,-0.00019716,-1951.4,0.11571
956,4.0267,0,0.05,7.9408e-05,114.7,8.8135e-06,66.221,-1.8695e-21,-1.4046e-14,-8.8135e-06,-66.221,0.072256
957,22.336,0,0,3.4367e-05,342.82,1.2504e-05,14.487,1.0631e-05,0.41819,-3.4031e-05,-335.15,2.4692
958,22.89,0,0.05,2.2241e-05,13.606,1.0455e-06,7.8557,-9.7116e-14,-1.0715e-06,-1.0455e-06,-7.8557,2.5597
959,21.226,0,0,5.8696e-05,586.17,2.0608e-05,15.126,1.8616e-05,0.1576,-5.8383e-05,-578.39,2.2887
960,21.781,0,0.05,4.6493e-05,18.434,1.4165e-06,10.643,-3.0046e-22,5.6564e-07,-1.4165e-06,-10.643,2.3788
961,20.116,0,0,8.3356e-05,832.75,2.8744e-05,14.921,2.6757e-05,-0.0077579,-8.3069e-05,-825.19,2.1096
962,20.671,0,0.05,7.0899e-05,21.799,1.6751e-06,12.586,-9.0118e-15,2.8468e-07,-1.6751e-06,-12.586,2.1989
963,19.007,0,0,0.00010858,1084.9,3.6965e-05,13.748,3.5155e-05,0.14998,-0.00010832,-1077.9,1.9325
964,19.561,0,0.05,9.5814e-05,23.678,1.8194e-06,13.67,-9.0949e-13,-6.7055e-07,-1.8194e-06,-13.67,2.0208
965,17.897,0,0,0.00013443,1343.2,4.5394e-05,12.495,4.3744e-05,0.099153,-0.00013419,-1336.9,1.7581
966,18.452,0,0.05,0.00012135,25.264,1.9413e-06,14.586,-4.1177e-22,1.2218e-06,-1.9413e-06,-14.586,1.8449
967,16.787,0,0,0.00016097,1608.4,5.4059e-05,11.38,5.2561e-05,0.11798,-0.00016076,-1602.7,1.5869
968,17.342,0,0.05,0.00014751,26.469,2.0339e-06,15.282,-4.3142e-22,-5.0647e-07,-2.0339e-06,-15.282,1.672
969,15.678,0,0,0.00018823,1880.8,6.297e-05,10.408,6.1604e-05,0.1408,-0.00018802,-1875.5,1.4196
970,16.233,0,0.05,0.00017443,27.383,2.1041e-06,15.809,-1.5949e-21,-4.7643e-07,-2.1041e-06,-15.809,1.5027
971,14.568,0,0,0.00021626,2160.8,7.2123e-05,9.3117,7.0911e-05,0.20186,-0.00021607,-2156,1.2569
972,15.123,0,0.05,0.00020202,28.024,2.1534e-06,16.18,-4.5676e-22,1.7848e-07,-2.1534e-06,-16.18,1.3376
973,13.459,0,0,0.00024508,2448.8,8.1552e-05,8.1309,8.045e-05,-0.15123,-0.00024491,-2444.8,1.0995
974,14.013,0,0.05,0.00023049,28.517,2.1912e-06,16.464,-4.6479e-22,-5.3474e-07,-2.1912e-06,-16.464,1.1775
975,12.349,0,0,0.00027476,2745.2,9.1313e-05,7.4681,9.0228e-05,-0.68779,-0.0002746,-2741.8,0.94813
976,12.904,0,0.05,0.00025967,29.156,2.2403e-06,16.833,-4.7521e-22,2.3701e-07,-2.2403e-06,-16.833,1.023
977,11.239,0,0,0.00030519,3048.9,0.00010176,10.994,9.9872e-05,-3.1951,-0.00030497,-3045,0.80347
978,11.794,0,0.05,0.00028986,29.27,2.2491e-06,16.899,-4.7707e-22,-3.5845e-15,-2.2491e-06,-16.899,0.87489
979,10.13,0,0,0.00033655,3361.8,0.0001128,19.041,0.00010975,-3.8274,-0.00033615,-3354.2,0.66629
980,10.684,0,0.05,0.00032051,28.505,2.1903e-06,16.457,-4.646e-22,-3.4908e-15,-2.1903e-06,-16.457,0.73387
981,9.02,0,0,0.00036542,3647.7,0.00012358,48.491,0.00011961,18.661,-0.00036387,-3614,0.53736
982,9.5748,0,0.05,0.00035258,17.948,1.3791e-06,10.362,-2.9254e-22,-2.4602e-05,-1.3791e-06,-10.362,0.60071
983,7.9104,0,0,0.00038758,3857.3,0.00013597,-13.683,0.00011134,-198.75,-0.00038927,-3960.1,0.41754
984,8.4652,0,0.05,0.00037827,22.96,1.7643e-06,13.256,-3.7423e-22,-1.1973e-14,-1.7643e-06,-13.256,0.47622
985,6.8007,0,0,0.00040967,4014.1,0.00014261,-2.815,0.00011498,-210.39,-0.00040491,-4116.7,0.30711
986,7.3556,0,0.05,0.0003969,101.12,7.7698e-06,58.379,-1.6481e-21,-1.2383e-14,-7.7698e-06,-58.379,0.36105
987,5.6911,0,0,0.00037916,3672.4,0.00012534,38.139,0.00011787,-18.007,-0.00036712,-3662,0.2069
988,6.2459,0,0.05,0.00042243,78.379,6.0227e-06,45.252,-1.2775e-21,-9.5987e-15,-6.0227e-06,-45.252,0.25566
989,5.1363,0,0.05,0.00033589,65.061,4.9993e-06,37.563,-1.0604e-21,-7.9677e-15,-4.9993e-06,-37.563,0.16028
990,0.4825,0,0,0.00039799,3857,0.00012215,-305.88,0.00010811,-411.42,-0.00039806,-4214.6,0.00040478
991,0,0,0.05,0.00015282,673.9,5.1783e-05,389.07,-2.1945e-20,1.0523e-05,-5.1783e-05,-389.07,0
992,3.3775,0,0,0.00021186,1932.2,6.9877e-05,84.365,6.1207e-05,19.225,-0.00019151,-1879.6,0.051202
993,3.86,0,0.05,4.1806e-05,171.54,1.3181e-05,99.036,-2.7959e-21,-2.1007e-14,-1.3181e-05,-99.036,0.065952
994,2.4125,0,0,0.00046799,4665.1,0.00017516,226.13,0.00013859,-48.619,-0.00046321,-4570.3,0.025235
995,2.895,0,0.05,0.00038192,126.38,9.7112e-06,72.966,-2.0599e-21,-1.5477e-14,-9.7112e-06,-72.966,0.037374
996,1.4475,0,0,0.00059861,5969.6,0.00020406,153.28,0.00019946,118.74,-0.00059274,-5833.5,0.0076227
997,1.93,0,0.05,0.00055406,186.12,1.4302e-05,107.46,-3.0336e-21,-1.1641e-05,-1.4302e-05,-107.46,0.015126
998,0.965,0,0.05,0.00064317,88.572,6.8059e-06,51.137,3.6685e-13,-1.0847e-14,-6.8059e-06,-51.137,0.0026119
999,0.4825,6,0,0.00040302,3918,0.00012213,-315.95,0.00011269,-386.86,-0.00040398,-4268.9,0.00040151
1000,0,6,0.05,0.00015554,653.62,5.0225e-05,377.37,-1.6028e-20,-8.0046e-14,-5.0225e-05,-377.37,0
1001,3.3775,6,0,0.00020285,1913.6,6.9144e-05,101.62,6.2402e-05,50.968,-0.00018885,-1836.8,0.050819
1002,3.86,6,0.05,4.5859e-05,273.17,2.099e-05,157.71,-1.0139e-20,-3.3453e-14,-2.099e-05,-157.71,0.065596
1003,1.4475,6,0,0.000597,5955.9,0.00020089,48.429,0.000194,-3.3572,-0.00059522,-5933.2,0.0075577
1004,0.965,6,0.05,0.0006505,100.73,7.7399e-06,58.154,-2.9825e-14,-1.2335e-14,-7.7399e-06,-58.154,0.0025809
1005,2.4125,6,0,0.00045168,4498.5,0.00015476,-30.447,0.00013513,-177.98,-0.00045352,-4600.9,0.02501
1006,1.93,6,0.05,0.00054351,146.52,1.1259e-05,84.594,-2.3882e-21,-1.7944e-14,-1.1259e-05,-84.594,0.015025
1007,2.895,6,0.05,0.00035985,158.97,1.2215e-05,91.781,-2.5911e-21,-1.9468e-14,-1.2215e-05,-91.781,0.037039
1008,4.0267,4.25,0.1,0.001122,10318,0.00093338,8406,-0.00012352,464.93,-0.00061885,-3256.8,0.092891
1009,3.9433,4,0.1,0.0019761,16452,0.0016659,17134,-0.0004124,1519,-0.00062029,-42.954,0.090998
1010,4.0267,4.75,0.1,0.00049986,4885.6,0.00036865,2618.1,-7.2898e-06,-206.58,-0.00038218,-3023.3,0.086793
1011,4.0267,5.25,0.1,0.00028648,2636.1,0.00021659,1774.4,-8.789e-06,81.027,-0.00018763,-1262.8,0.081342
1012,4.0267,5.75,0.1,0.00011319,612.56,5.9938e-05,605.07,-8.435e-06,91.339,-3.0288e-05,-72.853,0.076512
1013,3.86,5.25,0.1,0.00033835,3327.4,0.00029877,2707,-3.0744e-05,231.21,-0.00020464,-1075.4,0.072524
1014,3.86,5.75,0.1,0.00015241,1164.3,0.0001053,951.09,-1.3347e-05,59.651,-7.0019e-05,-366.16,0.06781
1015,3.86,4.75,0.1,0.00070191,6773.4,0.00048833,3197.7,-9.6242e-07,-478.61,-0.000552,-4618.9,0.077684
1016,3.86,4.25,0.1,0.0016382,12409,0.0011856,11169,-0.00026226,290.54,-0.00061324,-2346.6,0.083857
1017,4.0267,1.75,0.1,0.0011532,9837.7,0.00089041,7933.4,-0.00013573,223.37,-0.0005842,-3146.2,0.092222
1018,3.9433,2,0.1,0.0019951,16867,0.0017337,18273,-0.00043076,2009.9,-0.00058358,861.66,0.090505
1019,4.0267,1.25,0.1,0.0005001,4754.6,0.0003442,2351.4,9.2918e-06,-164.9,-0.00038567,-3132.5,0.085711
1020,4.0267,0.75,0.1,0.00024225,2224.3,0.00019442,1721.6,-1.4271e-05,153.57,-0.00014439,-824.08,0.080067
1021,4.0267,0.25,0.1,0.0001314,662.41,6.3191e-05,596.03,-1.3373e-05,20.758,-3.3194e-05,-128.17,0.074889
1022,3.86,0.75,0.1,0.00040022,3902.9,0.00034022,2904.3,-4.111e-05,39.085,-0.0002514,-1540.9,0.072779
1023,3.86,0.25,0.1,0.0001502,1113.9,0.0001013,909.42,-1.5473e-05,32.05,-6.5487e-05,-343.73,0.068116
1024,3.86,1.25,0.1,0.00077966,7684.4,0.00065203,5460.5,-5.4252e-05,153.85,-0.00052078,-3351.5,0.077995
1025,3.86,1.75,0.1,0.0017002,15080,0.0015112,15267,-0.00038076,1051.4,-0.00059396,-550.54,0.083542
1026,4.5815,6,0.1,0.00019947,1970.4,0.00019548,1921.6,-6.2853e-05,-19.377,-7.0524e-05,-77.02,0.11745
1027,5.6911,6,0.1,0.00037763,3713.9,0.00037201,3724.5,-0.00012158,15.878,-0.00012299,5.2421,0.20846
1028,6.8007,6,0.1,0.00041176,4072.8,0.00041048,4162.9,-0.00012101,169.55,-0.00014155,15.162,0.30869
1029,7.9104,6,0.1,0.00038755,3863.5,0.00038841,3919.6,-0.00011668,124.51,-0.00013444,-8.9113,0.41913
1030,9.02,6,0.1,0.00036561,3652,0.00036462,3627.8,-0.00011941,-9.0259,-0.00012342,-39.195,0.53902
1031,10.13,6,0.1,0.00033652,3361.7,0.00033611,3353.2,-0.00010985,2.4006,-0.00011274,-19.333,0.66794
1032,11.239,6,0.1,0.00030524,3049.5,0.00030499,3044.5,-0.00010001,1.4462,-0.00010174,-11.493,0.80512
1033,12.349,6,0.1,0.00027467,2744.4,0.00027449,2740.3,-9.0204e-05,0.17402,-9.1324e-05,-8.2382,0.94978
1034,13.459,6,0.1,0.00024503,2448.3,0.00024483,2443.4,-8.04e-05,-0.24529,-8.163e-05,-9.4848,1.1012
1035,14.568,6,0.1,0.00021629,2161.1,0.00021608,2155.6,-7.0853e-05,-0.23116,-7.2253e-05,-10.75,1.2586
1036,15.678,6,0.1,0.00018834,1881.9,0.00018812,1876.2,-6.1587e-05,-0.070128,-6.3092e-05,-11.378,1.4212
1037,16.787,6,0.1,0.0001611,1609.7,0.00016088,1603.9,-5.2593e-05,-0.06402,-5.4114e-05,-11.49,1.5885
1038,17.897,6,0.1,0.00013458,1344.7,0.00013435,1338.6,-4.3791e-05,0.082672,-4.5431e-05,-12.24,1.7597
1039,19.007,6,0.1,0.00010872,1086.3,0.00010847,1079.6,-3.5179e-05,0.28015,-3.7012e-05,-13.493,1.9342
1040,20.116,6,0.1,8.3496e-05,834.12,8.3219e-05,826.96,-2.6796e-05,0.34052,-2.8768e-05,-14.472,2.1113
1041,21.226,6,0.1,5.8768e-05,586.95,5.8475e-05,579.56,-1.8685e-05,-0.19342,-2.0565e-05,-14.32,2.2904
1042,22.336,6,0.1,3.4374e-05,342.87,3.4046e-05,335.48,-1.0656e-05,-0.39026,-1.2465e-05,-13.989,2.4708
1043,23.445,6,0.1,1.2686e-05,117.68,1.1461e-05,109.92,-3.0618e-06,0.80779,-5.1337e-06,-14.76,2.6521
1044,24,5.4,0.1,8.8173e-06,77.35,3.0497e-06,4.0975,2.0698e-06,-3.2653,-7.6999e-06,-76.671,2.7431
1045,24,4.2,0.1,1.6484e-05,164.5,5.8575e-06,3.2526,5.0043e-06,-3.158,-1.6451e-05,-164.36,2.7435
1046,24,3,0.1,1.8449e-05,184.03,6.4601e-06,2.6369,5.666e-06,-3.3302,-1.842e-05,-184.31,2.7435
1047,24,1.8,0.1,1.6461e-05,164.29,5.8375e-06,2.9945,4.9962e-06,-3.3266,-1.6437e-05,-164.37,2.7429
1048,24,0.6,0.1,8.8229e-06,77.356,3.0502e-06,4.0724,2.0671e-06,-3.3141,-7.7015e-06,-76.712,2.7418
1049,0,1.8,0.1,0.0003837,3805.6,0.00050751,7531.9,9.023e-06,3786.4,-6.6271e-06,3668.8,0
1050,0,0.6,0.1,0.0002688,2475.5,0.00032808,4838.2,2.4855e-06,2391.9,-5.1391e-06,2334.6,0
1051,0,3,0.1,0.00038861,3871.1,0.00051642,7665.1,6.2022e-06,3831.5,-3.6268e-06,3757.6,0
1052,0,4.2,0.1,0.00038831,3848.1,0.00051341,7620.4,3.1725e-06,3786.6,-6.1538e-07,3758.2,0
1053,0,5.4,0.1,0.00026879,2488.5,0.00032954,4855.5,1.7277e-06,2392.5,-4.9674e-06,2342.2,0
1054,23.445,0,0.1,1.2703e-05,117.76,1.1467e-05,109.95,-3.0648e-06,0.76427,-5.1399e-06,-14.827,2.6504
1055,22.336,0,0.1,3.4367e-05,342.82,3.4031e-05,335.15,-1.0631e-05,-0.41819,-1.2504e-05,-14.487,2.4692
1056,21.226,0,0.1,5.8696e-05,586.17,5.8383e-05,578.39,-1.8616e-05,-0.1576,-2.0608e-05,-15.126,2.2887
1057,20.116,0,0.1,8.3356e-05,832.75,8.3069e-05,825.19,-2.6757e-05,0.0077576,-2.8744e-05,-14.921,2.1096
1058,19.007,0,0.1,0.00010858,1084.9,0.00010832,1077.9,-3.5155e-05,-0.14998,-3.6965e-05,-13.748,1.9325
1059,17.897,0,0.1,0.00013443,1343.2,0.00013419,1336.9,-4.3744e-05,-0.099154,-4.5394e-05,-12.495,1.7581
1060,16.787,0,0.1,0.00016097,1608.4,0.00016076,1602.7,-5.2561e-05,-0.11798,-5.4059e-05,-11.38,1.5869
1061,15.678,0,0.1,0.00018823,1880.8,0.00018802,1875.5,-6.1604e-05,-0.1408,-6.297e-05,-10.408,1.4196
1062,14.568,0,0.1,0.00021626,2160.8,0.00021607,2156,-7.0911e-05,-0.20186,-7.2123e-05,-9.3117,1.2569
1063,13.459,0,0.1,0.00024508,2448.8,0.00024491,2444.8,-8.045e-05,0.15123,-8.1552e-05,-8.1309,1.0995
1064,12.349,0,0.1,0.00027476,2745.2,0.0002746,2741.8,-9.0228e-05,0.68779,-9.1313e-05,-7.4681,0.94813
1065,11.239,0,0.1,0.00030519,3048.9,0.00030497,3045,-9.9872e-05,3.1951,-0.00010176,-10.994,0.80347
1066,10.13,0,0.1,0.00033655,3361.8,0.00033615,3354.2,-0.00010975,3.8274,-0.0001128,-19.041,0.66629
1067,9.02,0,0.1,0.00036542,3647.7,0.00036387,3614,-0.00011961,-18.661,-0.00012358,-48.491,0.53736
1068,7.9104,0,0.1,0.00038758,3857.3,0.00038927,3960.1,-0.00011134,198.75,-0.00013597,13.683,0.41754
1069,6.8007,0,0.1,0.00040967,4014.1,0.00040491,4116.7,-0.00011498,210.39,-0.00014261,2.815,0.30711
1070,5.6911,0,0.1,0.00037916,3672.4,0.00036712,3662,-0.00011787,18.007,-0.00012534,-38.139,0.2069
1071,4.5815,0,0.1,0.00020765,1980.8,0.00019716,1951.4,-6.2153e-05,2.9589,-7.0567e-05,-60.262,0.11571
1072,3.3775,0,0.1,0.00021186,1932.2,0.00019151,1879.6,-6.1207e-05,-19.225,-6.9877e-05,-84.365,0.051202
1073,2.4125,0,0.1,0.00046799,4665.1,0.00046321,4570.3,-0.00013859,48.619,-0.00017516,-226.13,0.025235
1074,1.4475,0,0.1,0.00059861,5969.6,0.00059274,5833.5,-0.00019946,-118.74,-0.00020406,-153.28,0.0076227
1075,0.4825,0,0.1,0.00039799,3857,0.00039806,4214.6,-0.00010811,411.42,-0.00012215,305.88,0.00040478
1076,0.4825,6,0.1,0.00040302,3918,0.00040398,4268.9,-0.00011269,386.86,-0.00012213,315.95,0.00040151
1077,1.4475,6,0.1,0.000597,5955.9,0.00059522,5933.2,-0.000194,3.3572,-0.00020089,-48.429,0.0075577
1078,2.4125,6,0.1,0.00045168,4498.5,0.00045352,4600.9,-0.00013513,177.98,-0.00015476,30.447,0.02501
1079,3.3775,6,0.1,0.00020285,1913.6,0.00018885,1836.8,-6.2402e-05,-50.968,-6.9144e-05,-101.62,0.050819
