Node Number	X Location (in)	Y Location (in)	Z Location (in)	Middle Principal Stress (psi)
1	13.8	2.1818	0.	109.53
2	13.8	2.3636	0.	-21.479
3	13.8	2.5455	0.	0.46157
4	13.8	2.7273	0.	-2.4079
5	13.8	2.9091	0.	-1.274
6	13.8	3.0909	0.	-1.274
7	13.8	3.2727	0.	-2.4079
8	13.8	3.4545	0.	0.46157
9	13.8	3.6364	0.	-21.479
10	13.8	3.8182	0.	109.53
11	13.967	2.1818	0.	31.907
12	13.967	2.3636	0.	-23.582
13	13.967	2.5455	0.	0.85829
14	13.967	2.7273	0.	-2.4834
15	13.967	2.9091	0.	-1.1968
16	13.967	3.0909	0.	-1.1968
17	13.967	3.2727	0.	-2.4835
18	13.967	3.4545	0.	0.85829
19	13.967	3.6364	0.	-23.582
20	13.967	3.8182	0.	31.907
21	13.616	5.8182	0.	-11.515
22	13.616	5.6364	0.	-5.2779
23	13.616	5.4545	0.	-4.0759
24	13.616	5.2727	0.	-3.6454
25	13.616	5.0909	0.	-3.5906
26	13.616	4.9091	0.	-4.6655
27	13.616	4.7273	0.	-3.2344
28	13.616	4.5455	0.	-13.894
29	13.616	4.3636	0.	12.073
30	13.616	4.1818	0.	-78.157
31	13.616	4.	0.	-338.02
32	13.616	3.8182	0.	15.396
33	13.616	3.6364	0.	-9.9815
34	13.616	3.4545	0.	3.2489
35	13.616	3.2727	0.	-2.0343
36	13.616	3.0909	0.	-0.44204
37	13.616	2.9091	0.	-0.44204
38	13.616	2.7273	0.	-2.0343
39	13.616	2.5455	0.	3.2489
40	13.616	2.3636	0.	-9.9815
41	13.616	2.1818	0.	15.396
42	13.616	2.	0.	-338.02
43	13.616	1.8182	0.	-78.156
44	13.616	1.6364	0.	12.073
45	13.616	1.4545	0.	-13.894
46	13.616	1.2727	0.	-3.2344
47	13.616	1.0909	0.	-4.6655
48	13.616	0.90909	0.	-3.5906
49	13.616	0.72727	0.	-3.6454
50	13.616	0.54545	0.	-4.0759
51	13.616	0.36364	0.	-5.2779
52	13.616	0.18182	0.	-11.515
53	13.432	5.8182	0.	-1.7702
54	13.432	5.6364	0.	-0.55316
55	13.432	5.4545	0.	4.697e-002
56	13.432	5.2727	0.	0.46103
57	13.432	5.0909	0.	0.62728
58	13.432	4.9091	0.	0.85742
59	13.432	4.7273	0.	0.72598
60	13.432	4.5455	0.	0.5108
61	13.432	4.3636	0.	3.5473
62	13.432	4.1818	0.	10.017
63	13.432	4.	0.	42.015
64	13.432	3.8182	0.	21.455
65	13.432	3.6364	0.	-3.2438
66	13.432	3.4545	0.	0.84553
67	13.432	3.2727	0.	-7.2843e-002
68	13.432	3.0909	0.	-0.13441
69	13.432	2.9091	0.	-0.13441
70	13.432	2.7273	0.	-7.2841e-002
71	13.432	2.5455	0.	0.84553
72	13.432	2.3636	0.	-3.2438
73	13.432	2.1818	0.	21.455
74	13.432	2.	0.	42.015
75	13.432	1.8182	0.	10.017
76	13.432	1.6364	0.	3.5473
77	13.432	1.4545	0.	0.5108
78	13.432	1.2727	0.	0.72599
79	13.432	1.0909	0.	0.85742
80	13.432	0.90909	0.	0.62728
81	13.432	0.72727	0.	0.46104
82	13.432	0.54545	0.	4.6973e-002
83	13.432	0.36364	0.	-0.55315
84	13.432	0.18182	0.	-1.7702
85	13.248	5.8182	0.	-0.40061
86	13.248	5.6364	0.	-0.54132
87	13.248	5.4545	0.	-0.47172
88	13.248	5.2727	0.	-0.49482
89	13.248	5.0909	0.	-0.56156
90	13.248	4.9091	0.	-0.82821
91	13.248	4.7273	0.	-0.99736
92	13.248	4.5455	0.	-1.0091
93	13.248	4.3636	0.	-5.6008
94	13.248	4.1818	0.	-2.8945
95	13.248	4.	0.	-7.7553
96	13.248	3.8182	0.	-5.3003
97	13.248	3.6364	0.	3.3891
98	13.248	3.4545	0.	0.48758
99	13.248	3.2727	0.	0.48562
100	13.248	3.0909	0.	0.31157
101	13.248	2.9091	0.	0.31157
102	13.248	2.7273	0.	0.48563
103	13.248	2.5455	0.	0.48758
104	13.248	2.3636	0.	3.3891
105	13.248	2.1818	0.	-5.3003
106	13.248	2.	0.	-7.7553
107	13.248	1.8182	0.	-2.8945
108	13.248	1.6364	0.	-5.6007
109	13.248	1.4545	0.	-1.0091
110	13.248	1.2727	0.	-0.99736
111	13.248	1.0909	0.	-0.82821
112	13.248	0.90909	0.	-0.56155
113	13.248	0.72727	0.	-0.49482
114	13.248	0.54545	0.	-0.47172
115	13.248	0.36364	0.	-0.54132
116	13.248	0.18182	0.	-0.40061
117	13.064	5.8182	0.	0.45337
118	13.064	5.6364	0.	-1.6364e-002
119	13.064	5.4545	0.	-5.7369e-002
120	13.064	5.2727	0.	-0.16986
121	13.064	5.0909	0.	-0.2699
122	13.064	4.9091	0.	-0.37277
123	13.064	4.7273	0.	-0.59065
124	13.064	4.5455	0.	-0.81959
125	13.064	4.3636	0.	0.16959
126	13.064	4.1818	0.	-0.44079
127	13.064	4.	0.	1.2025
128	13.064	3.8182	0.	2.1147
129	13.064	3.6364	0.	0.34908
130	13.064	3.4545	0.	0.63208
131	13.064	3.2727	0.	0.54497
132	13.064	3.0909	0.	0.45226
133	13.064	2.9091	0.	0.45226
134	13.064	2.7273	0.	0.54497
135	13.064	2.5455	0.	0.63208
136	13.064	2.3636	0.	0.34908
137	13.064	2.1818	0.	2.1147
138	13.064	2.	0.	1.2025
139	13.064	1.8182	0.	-0.44079
140	13.064	1.6364	0.	0.1696
141	13.064	1.4545	0.	-0.81959
142	13.064	1.2727	0.	-0.59065
143	13.064	1.0909	0.	-0.37277
144	13.064	0.90909	0.	-0.2699
145	13.064	0.72727	0.	-0.16986
146	13.064	0.54545	0.	-5.7366e-002
147	13.064	0.36364	0.	-1.6363e-002
148	13.064	0.18182	0.	0.45338
149	12.88	5.8182	0.	0.47324
150	12.88	5.6364	0.	-1.595e-002
151	12.88	5.4545	0.	-1.8781e-002
152	12.88	5.2727	0.	-0.15558
153	12.88	5.0909	0.	-0.2573
154	12.88	4.9091	0.	-0.3633
155	12.88	4.7273	0.	-0.44061
156	12.88	4.5455	0.	-0.54542
157	12.88	4.3636	0.	-0.78265
158	12.88	4.1818	0.	-0.6193
159	12.88	4.	0.	-0.75062
160	12.88	3.8182	0.	-0.59389
161	12.88	3.6364	0.	0.15432
162	12.88	3.4545	0.	0.3863
163	12.88	3.2727	0.	0.41459
164	12.88	3.0909	0.	0.43378
165	12.88	2.9091	0.	0.43378
166	12.88	2.7273	0.	0.41459
167	12.88	2.5455	0.	0.3863
168	12.88	2.3636	0.	0.15432
169	12.88	2.1818	0.	-0.59388
170	12.88	2.	0.	-0.75062
171	12.88	1.8182	0.	-0.6193
172	12.88	1.6364	0.	-0.78265
173	12.88	1.4545	0.	-0.54542
174	12.88	1.2727	0.	-0.4406
175	12.88	1.0909	0.	-0.3633
176	12.88	0.90909	0.	-0.25729
177	12.88	0.72727	0.	-0.15558
178	12.88	0.54545	0.	-1.8779e-002
179	12.88	0.36364	0.	-1.5948e-002
180	12.88	0.18182	0.	0.47324
181	12.696	5.8182	0.	0.36023
182	12.696	5.6364	0.	-3.84e-002
183	12.696	5.4545	0.	2.3356e-002
184	12.696	5.2727	0.	-9.608e-002
185	12.696	5.0909	0.	-0.17065
186	12.696	4.9091	0.	-0.24428
187	12.696	4.7273	0.	-0.30864
188	12.696	4.5455	0.	-0.34715
189	12.696	4.3636	0.	-0.3516
190	12.696	4.1818	0.	-0.39084
191	12.696	4.	0.	-0.30314
192	12.696	3.8182	0.	-0.16258
193	12.696	3.6364	0.	-4.99e-002
194	12.696	3.4545	0.	0.13767
195	12.696	3.2727	0.	0.28651
196	12.696	3.0909	0.	0.34286
197	12.696	2.9091	0.	0.34286
198	12.696	2.7273	0.	0.28651
199	12.696	2.5455	0.	0.13767
200	12.696	2.3636	0.	-4.99e-002
201	12.696	2.1818	0.	-0.16258
202	12.696	2.	0.	-0.30314
203	12.696	1.8182	0.	-0.39084
204	12.696	1.6364	0.	-0.3516
205	12.696	1.4545	0.	-0.34715
206	12.696	1.2727	0.	-0.30864
207	12.696	1.0909	0.	-0.24428
208	12.696	0.90909	0.	-0.17065
209	12.696	0.72727	0.	-9.6078e-002
210	12.696	0.54545	0.	2.3357e-002
211	12.696	0.36364	0.	-3.8398e-002
212	12.696	0.18182	0.	0.36023
213	12.512	5.8182	0.	0.20087
214	12.512	5.6364	0.	-8.2239e-002
215	12.512	5.4545	0.	3.0018e-002
216	12.512	5.2727	0.	-6.312e-002
217	12.512	5.0909	0.	-0.11676
218	12.512	4.9091	0.	-0.17174
219	12.512	4.7273	0.	-0.21899
220	12.512	4.5455	0.	-0.26661
221	12.512	4.3636	0.	-0.3168
222	12.512	4.1818	0.	-0.35022
223	12.512	4.	0.	-0.36489
224	12.512	3.8182	0.	-0.30604
225	12.512	3.6364	0.	-0.15408
226	12.512	3.4545	0.	2.1306e-002
227	12.512	3.2727	0.	0.16748
228	12.512	3.0909	0.	0.24978
229	12.512	2.9091	0.	0.24978
230	12.512	2.7273	0.	0.16748
231	12.512	2.5455	0.	2.1305e-002
232	12.512	2.3636	0.	-0.15408
233	12.512	2.1818	0.	-0.30604
234	12.512	2.	0.	-0.36489
235	12.512	1.8182	0.	-0.35022
236	12.512	1.6364	0.	-0.3168
237	12.512	1.4545	0.	-0.26661
238	12.512	1.2727	0.	-0.21899
239	12.512	1.0909	0.	-0.17174
240	12.512	0.90909	0.	-0.11676
241	12.512	0.72727	0.	-6.3118e-002
242	12.512	0.54545	0.	3.0018e-002
243	12.512	0.36364	0.	-8.2239e-002
244	12.512	0.18182	0.	0.20087
245	12.328	5.8182	0.	6.9313e-002
246	12.328	5.6364	0.	-0.11071
247	12.328	5.4545	0.	3.3192e-002
248	12.328	5.2727	0.	-3.5671e-002
249	12.328	5.0909	0.	-7.1898e-002
250	12.328	4.9091	0.	-0.1148
251	12.328	4.7273	0.	-0.15419
252	12.328	4.5455	0.	-0.19472
253	12.328	4.3636	0.	-0.23569
254	12.328	4.1818	0.	-0.2724
255	12.328	4.	0.	-0.28465
256	12.328	3.8182	0.	-0.25684
257	12.328	3.6364	0.	-0.17811
258	12.328	3.4545	0.	-5.0952e-002
259	12.328	3.2727	0.	8.518e-002
260	12.328	3.0909	0.	0.17386
261	12.328	2.9091	0.	0.17386
262	12.328	2.7273	0.	8.5179e-002
263	12.328	2.5455	0.	-5.0952e-002
264	12.328	2.3636	0.	-0.17811
265	12.328	2.1818	0.	-0.25684
266	12.328	2.	0.	-0.28465
267	12.328	1.8182	0.	-0.2724
268	12.328	1.6364	0.	-0.23569
269	12.328	1.4545	0.	-0.19472
270	12.328	1.2727	0.	-0.15419
271	12.328	1.0909	0.	-0.1148
272	12.328	0.90909	0.	-7.1897e-002
273	12.328	0.72727	0.	-3.5669e-002
274	12.328	0.54545	0.	3.3193e-002
275	12.328	0.36364	0.	-0.11071
276	12.328	0.18182	0.	6.9314e-002
277	12.144	5.8182	0.	-2.357e-002
278	12.144	5.6364	0.	-0.12569
279	12.144	5.4545	0.	3.2536e-002
280	12.144	5.2727	0.	-1.6989e-002
281	12.144	5.0909	0.	-4.0764e-002
282	12.144	4.9091	0.	-7.4679e-002
283	12.144	4.7273	0.	-0.1086
284	12.144	4.5455	0.	-0.1457
285	12.144	4.3636	0.	-0.18461
286	12.144	4.1818	0.	-0.21967
287	12.144	4.	0.	-0.24029
288	12.144	3.8182	0.	-0.23065
289	12.144	3.6364	0.	-0.1784
290	12.144	3.4545	0.	-8.3914e-002
291	12.144	3.2727	0.	3.2018e-002
292	12.144	3.0909	0.	0.11813
293	12.144	2.9091	0.	0.11813
294	12.144	2.7273	0.	3.2018e-002
295	12.144	2.5455	0.	-8.3915e-002
296	12.144	2.3636	0.	-0.1784
297	12.144	2.1818	0.	-0.23065
298	12.144	2.	0.	-0.24028
299	12.144	1.8182	0.	-0.21967
300	12.144	1.6364	0.	-0.1846
301	12.144	1.4545	0.	-0.1457
302	12.144	1.2727	0.	-0.1086
303	12.144	1.0909	0.	-7.4678e-002
304	12.144	0.90909	0.	-4.0761e-002
305	12.144	0.72727	0.	-1.6987e-002
306	12.144	0.54545	0.	3.2537e-002
307	12.144	0.36364	0.	-0.12569
308	12.144	0.18182	0.	-2.357e-002
309	11.96	5.8182	0.	-7.9136e-002
310	11.96	5.6364	0.	-0.1291
311	11.96	5.4545	0.	3.0683e-002
312	11.96	5.2727	0.	-4.15e-003
313	11.96	5.0909	0.	-1.9114e-002
314	11.96	4.9091	0.	-4.6029e-002
315	11.96	4.7273	0.	-7.4637e-002
316	11.96	4.5455	0.	-0.10682
317	11.96	4.3636	0.	-0.14052
318	11.96	4.1818	0.	-0.17164
319	11.96	4.	0.	-0.19233
320	11.96	3.8182	0.	-0.19265
321	11.96	3.6364	0.	-0.16229
322	11.96	3.4545	0.	-9.4785e-002
323	11.96	3.2727	0.	4.0804e-004
324	11.96	3.0909	0.	7.9336e-002
325	11.96	2.9091	0.	7.9336e-002
326	11.96	2.7273	0.	4.0804e-004
327	11.96	2.5455	0.	-9.4785e-002
328	11.96	2.3636	0.	-0.16229
329	11.96	2.1818	0.	-0.19265
330	11.96	2.	0.	-0.19233
331	11.96	1.8182	0.	-0.17164
332	11.96	1.6364	0.	-0.14052
333	11.96	1.4545	0.	-0.10682
334	11.96	1.2727	0.	-7.4636e-002
335	11.96	1.0909	0.	-4.6028e-002
336	11.96	0.90909	0.	-1.9113e-002
337	11.96	0.72727	0.	-4.1484e-003
338	11.96	0.54545	0.	3.0684e-002
339	11.96	0.36364	0.	-0.1291
340	11.96	0.18182	0.	-7.9136e-002
341	11.776	5.8182	0.	-0.10587
342	11.776	5.6364	0.	-0.12487
343	11.776	5.4545	0.	2.8014e-002
344	11.776	5.2727	0.	4.0365e-003
345	11.776	5.0909	0.	-4.7446e-003
346	11.776	4.9091	0.	-2.5964e-002
347	11.776	4.7273	0.	-4.9785e-002
348	11.776	4.5455	0.	-7.7187e-002
349	11.776	4.3636	0.	-0.10606
350	11.776	4.1818	0.	-0.13319
351	11.776	4.	0.	-0.15313
352	11.776	3.8182	0.	-0.15856
353	11.776	3.6364	0.	-0.14104
354	11.776	3.4545	0.	-9.306e-002
355	11.776	3.2727	0.	-1.6751e-002
356	11.776	3.0909	0.	5.3014e-002
357	11.776	2.9091	0.	5.3013e-002
358	11.776	2.7273	0.	-1.675e-002
359	11.776	2.5455	0.	-9.306e-002
360	11.776	2.3636	0.	-0.14104
361	11.776	2.1818	0.	-0.15856
362	11.776	2.	0.	-0.15313
363	11.776	1.8182	0.	-0.13319
364	11.776	1.6364	0.	-0.10606
365	11.776	1.4545	0.	-7.7187e-002
366	11.776	1.2727	0.	-4.9784e-002
367	11.776	1.0909	0.	-2.5963e-002
368	11.776	0.90909	0.	-4.7431e-003
369	11.776	0.72727	0.	4.0376e-003
370	11.776	0.54545	0.	2.8013e-002
371	11.776	0.36364	0.	-0.12487
372	11.776	0.18182	0.	-0.10587
373	11.592	5.8182	0.	-0.11262
374	11.592	5.6364	0.	-0.11597
375	11.592	5.4545	0.	2.5016e-002
376	11.592	5.2727	0.	8.9598e-003
377	11.592	5.0909	0.	4.4759e-003
378	11.592	4.9091	0.	-1.2086e-002
379	11.592	4.7273	0.	-3.1607e-002
380	11.592	4.5455	0.	-5.4523e-002
381	11.592	4.3636	0.	-7.8823e-002
382	11.592	4.1818	0.	-0.10202
383	11.592	4.	0.	-0.1202
384	11.592	3.8182	0.	-0.12811
385	11.592	3.6364	0.	-0.11903
386	11.592	3.4545	0.	-8.541e-002
387	11.592	3.2727	0.	-2.5108e-002
388	11.592	3.0909	0.	3.5341e-002
389	11.592	2.9091	0.	3.5342e-002
390	11.592	2.7273	0.	-2.5108e-002
391	11.592	2.5455	0.	-8.541e-002
392	11.592	2.3636	0.	-0.11903
393	11.592	2.1818	0.	-0.1281
394	11.592	2.	0.	-0.1202
395	11.592	1.8182	0.	-0.10202
396	11.592	1.6364	0.	-7.8821e-002
397	11.592	1.4545	0.	-5.4523e-002
398	11.592	1.2727	0.	-3.1607e-002
399	11.592	1.0909	0.	-1.2085e-002
400	11.592	0.90909	0.	4.4774e-003
401	11.592	0.72727	0.	8.9608e-003
402	11.592	0.54545	0.	2.5016e-002
403	11.592	0.36364	0.	-0.11597
404	11.592	0.18182	0.	-0.11262
405	11.408	5.8182	0.	-0.10694
406	11.408	5.6364	0.	-0.10463
407	11.408	5.4545	0.	2.1956e-002
408	11.408	5.2727	0.	1.1619e-002
409	11.408	5.0909	0.	1.0068e-002
410	11.408	4.9091	0.	-2.7252e-003
411	11.408	4.7273	0.	-1.8555e-002
412	11.408	4.5455	0.	-3.7539e-002
413	11.408	4.3636	0.	-5.7863e-002
414	11.408	4.1818	0.	-7.7598e-002
415	11.408	4.	0.	-9.3878e-002
416	11.408	3.8182	0.	-0.10284
417	11.408	3.6364	0.	-9.9224e-002
418	11.408	3.4545	0.	-7.6134e-002
419	11.408	3.2727	0.	-2.8882e-002
420	11.408	3.0909	0.	2.3394e-002
421	11.408	2.9091	0.	2.3394e-002
422	11.408	2.7273	0.	-2.8882e-002
423	11.408	2.5455	0.	-7.6134e-002
424	11.408	2.3636	0.	-9.9224e-002
425	11.408	2.1818	0.	-0.10284
426	11.408	2.	0.	-9.3878e-002
427	11.408	1.8182	0.	-7.7598e-002
428	11.408	1.6364	0.	-5.7862e-002
429	11.408	1.4545	0.	-3.7539e-002
430	11.408	1.2727	0.	-1.8554e-002
431	11.408	1.0909	0.	-2.724e-003
432	11.408	0.90909	0.	1.0069e-002
433	11.408	0.72727	0.	1.1621e-002
434	11.408	0.54545	0.	2.1957e-002
435	11.408	0.36364	0.	-0.10463
436	11.408	0.18182	0.	-0.10694
437	11.224	5.8182	0.	-9.4499e-002
438	11.224	5.6364	0.	-9.2326e-002
439	11.224	5.4545	0.	1.9033e-002
440	11.224	5.2727	0.	1.278e-002
441	11.224	5.0909	0.	1.3167e-002
442	11.224	4.9091	0.	3.376e-003
443	11.224	4.7273	0.	-9.3781e-003
444	11.224	4.5455	0.	-2.5035e-002
445	11.224	4.3636	0.	-4.2018e-002
446	11.224	4.1818	0.	-5.8822e-002
447	11.224	4.	0.	-7.3341e-002
448	11.224	3.8182	0.	-8.2752e-002
449	11.224	3.6364	0.	-8.3002e-002
450	11.224	3.4545	0.	-6.8027e-002
451	11.224	3.2727	0.	-3.1322e-002
452	11.224	3.0909	0.	1.497e-002
453	11.224	2.9091	0.	1.497e-002
454	11.224	2.7273	0.	-3.1321e-002
455	11.224	2.5455	0.	-6.8026e-002
456	11.224	2.3636	0.	-8.3002e-002
457	11.224	2.1818	0.	-8.2751e-002
458	11.224	2.	0.	-7.334e-002
459	11.224	1.8182	0.	-5.8822e-002
460	11.224	1.6364	0.	-4.2017e-002
461	11.224	1.4545	0.	-2.5035e-002
462	11.224	1.2727	0.	-9.3768e-003
463	11.224	1.0909	0.	3.3764e-003
464	11.224	0.90909	0.	1.3169e-002
465	11.224	0.72727	0.	1.2781e-002
466	11.224	0.54545	0.	1.9034e-002
467	11.224	0.36364	0.	-9.2326e-002
468	11.224	0.18182	0.	-9.4497e-002
469	11.04	5.8182	0.	-7.9207e-002
470	11.04	5.6364	0.	-7.9975e-002
471	11.04	5.4545	0.	1.6369e-002
472	11.04	5.2727	0.	1.2991e-002
473	11.04	5.0909	0.	1.4586e-002
474	11.04	4.9091	0.	7.141e-003
475	11.04	4.7273	0.	-3.1203e-003
476	11.04	4.5455	0.	-1.6054e-002
477	11.04	4.3636	0.	-3.0323e-002
478	11.04	4.1818	0.	-4.4777e-002
479	11.04	4.	0.	-5.7888e-002
480	11.04	3.8182	0.	-6.7671e-002
481	11.04	3.6364	0.	-7.1164e-002
482	11.04	3.4545	0.	-6.3292e-002
483	11.04	3.2727	0.	-3.5831e-002
484	11.04	3.0909	0.	7.9994e-003
485	11.04	2.9091	0.	8.0005e-003
486	11.04	2.7273	0.	-3.5831e-002
487	11.04	2.5455	0.	-6.3292e-002
488	11.04	2.3636	0.	-7.1164e-002
489	11.04	2.1818	0.	-6.767e-002
490	11.04	2.	0.	-5.7888e-002
491	11.04	1.8182	0.	-4.4776e-002
492	11.04	1.6364	0.	-3.0323e-002
493	11.04	1.4545	0.	-1.6054e-002
494	11.04	1.2727	0.	-3.1196e-003
495	11.04	1.0909	0.	7.1418e-003
496	11.04	0.90909	0.	1.4588e-002
497	11.04	0.72727	0.	1.2991e-002
498	11.04	0.54545	0.	1.6369e-002
499	11.04	0.36364	0.	-7.9974e-002
500	11.04	0.18182	0.	-7.9206e-002
501	10.856	5.8182	0.	-6.3546e-002
502	10.856	5.6364	0.	-6.8117e-002
503	10.856	5.4545	0.	1.4028e-002
504	10.856	5.2727	0.	1.2635e-002
505	10.856	5.0909	0.	1.4908e-002
506	10.856	4.9091	0.	9.2567e-003
507	10.856	4.7273	0.	9.622e-004
508	10.856	4.5455	0.	-9.8074e-003
509	10.856	4.3636	0.	-2.1956e-002
510	10.856	4.1818	0.	-3.4643e-002
511	10.856	4.	0.	-4.6857e-002
512	10.856	3.8182	0.	-5.741e-002
513	10.856	3.6364	0.	-6.4638e-002
514	10.856	3.4545	0.	-6.5401e-002
515	10.856	3.2727	0.	-5.124e-002
516	10.856	3.0909	0.	-4.2326e-003
517	10.856	2.9091	0.	-4.2328e-003
518	10.856	2.7273	0.	-5.124e-002
519	10.856	2.5455	0.	-6.5401e-002
520	10.856	2.3636	0.	-6.4638e-002
521	10.856	2.1818	0.	-5.741e-002
522	10.856	2.	0.	-4.6856e-002
523	10.856	1.8182	0.	-3.4643e-002
524	10.856	1.6364	0.	-2.1955e-002
525	10.856	1.4545	0.	-9.8069e-003
526	10.856	1.2727	0.	9.6332e-004
527	10.856	1.0909	0.	9.2574e-003
528	10.856	0.90909	0.	1.491e-002
529	10.856	0.72727	0.	1.2637e-002
530	10.856	0.54545	0.	1.4027e-002
531	10.856	0.36364	0.	-6.8117e-002
532	10.856	0.18182	0.	-6.3544e-002
533	10.672	5.8182	0.	-4.8956e-002
534	10.672	5.6364	0.	-5.7031e-002
535	10.672	5.4545	0.	1.2038e-002
536	10.672	5.2727	0.	1.1982e-002
537	10.672	5.0909	0.	1.4543e-002
538	10.672	4.9091	0.	1.0226e-002
539	10.672	4.7273	0.	3.4337e-003
540	10.672	4.5455	0.	-5.6821e-003
541	10.672	4.3636	0.	-1.6276e-002
542	10.672	4.1818	0.	-2.7823e-002
543	10.672	4.	0.	-3.9882e-002
544	10.672	3.8182	0.	-5.2365e-002
545	10.672	3.6364	0.	-6.6324e-002
546	10.672	3.4545	0.	-8.8485e-002
547	10.672	3.2727	0.	-0.21346
548	10.672	3.0909	0.	-1.4209
549	10.672	2.9091	0.	-1.4208
550	10.672	2.7273	0.	-0.21346
551	10.672	2.5455	0.	-8.8484e-002
552	10.672	2.3636	0.	-6.6323e-002
553	10.672	2.1818	0.	-5.2364e-002
554	10.672	2.	0.	-3.9881e-002
555	10.672	1.8182	0.	-2.7822e-002
556	10.672	1.6364	0.	-1.6274e-002
557	10.672	1.4545	0.	-5.6818e-003
558	10.672	1.2727	0.	3.4354e-003
559	10.672	1.0909	0.	1.0226e-002
560	10.672	0.90909	0.	1.4544e-002
561	10.672	0.72727	0.	1.1983e-002
562	10.672	0.54545	0.	1.2038e-002
563	10.672	0.36364	0.	-5.703e-002
564	10.672	0.18182	0.	-4.8955e-002
565	10.488	5.8182	0.	-3.6166e-002
566	10.488	5.6364	0.	-4.6827e-002
567	10.488	5.4545	0.	1.0402e-002
568	10.488	5.2727	0.	1.1208e-002
569	10.488	5.0909	0.	1.3776e-002
570	10.488	4.9091	0.	1.041e-002
571	10.488	4.7273	0.	4.7102e-003
572	10.488	4.5455	0.	-3.2339e-003
573	10.488	4.3636	0.	-1.2858e-002
574	10.488	4.1818	0.	-2.406e-002
575	10.488	4.	0.	-3.7323e-002
576	10.488	3.8182	0.	-5.5227e-002
577	10.488	3.6364	0.	-9.1801e-002
578	10.488	3.4545	0.	-0.42872
579	10.488	3.2727	0.	-3.0476
580	10.488	3.0909	0.	-4.696
581	10.488	2.9091	0.	-4.696
582	10.488	2.7273	0.	-3.0476
583	10.488	2.5455	0.	-0.42871
584	10.488	2.3636	0.	-9.18e-002
585	10.488	2.1818	0.	-5.5227e-002
586	10.488	2.	0.	-3.7322e-002
587	10.488	1.8182	0.	-2.4059e-002
588	10.488	1.6364	0.	-1.2857e-002
589	10.488	1.4545	0.	-3.2332e-003
590	10.488	1.2727	0.	4.7109e-003
591	10.488	1.0909	0.	1.0411e-002
592	10.488	0.90909	0.	1.3778e-002
593	10.488	0.72727	0.	1.121e-002
594	10.488	0.54545	0.	1.0402e-002
595	10.488	0.36364	0.	-4.6827e-002
596	10.488	0.18182	0.	-3.6165e-002
597	10.304	5.8182	0.	-2.5458e-002
598	10.304	5.6364	0.	-3.751e-002
599	10.304	5.4545	0.	9.1067e-003
600	10.304	5.2727	0.	1.0434e-002
601	10.304	5.0909	0.	1.2802e-002
602	10.304	4.9091	0.	1.006e-002
603	10.304	4.7273	0.	5.0648e-003
604	10.304	4.5455	0.	-2.2175e-003
605	10.304	4.3636	0.	-1.1626e-002
606	10.304	4.1818	0.	-2.3888e-002
607	10.304	4.	0.	-4.2117e-002
608	10.304	3.8182	0.	-8.3367e-002
609	10.304	3.6364	0.	-0.57844
610	10.304	3.4545	0.	-4.0106
611	10.304	3.2727	0.	-6.771
612	10.304	3.0909	0.	-8.2115
613	10.304	2.9091	0.	-8.2115
614	10.304	2.7273	0.	-6.771
615	10.304	2.5455	0.	-4.0106
616	10.304	2.3636	0.	-0.57842
617	10.304	2.1818	0.	-8.3366e-002
618	10.304	2.	0.	-4.2117e-002
619	10.304	1.8182	0.	-2.3887e-002
620	10.304	1.6364	0.	-1.1625e-002
621	10.304	1.4545	0.	-2.217e-003
622	10.304	1.2727	0.	5.0655e-003
623	10.304	1.0909	0.	1.0061e-002
624	10.304	0.90909	0.	1.2804e-002
625	10.304	0.72727	0.	1.0435e-002
626	10.304	0.54545	0.	9.1074e-003
627	10.304	0.36364	0.	-3.7509e-002
628	10.304	0.18182	0.	-2.5456e-002
629	10.12	5.8182	0.	-1.6848e-002
630	10.12	5.6364	0.	-2.9025e-002
631	10.12	5.4545	0.	8.1326e-003
632	10.12	5.2727	0.	9.7314e-003
633	10.12	5.0909	0.	1.1739e-002
634	10.12	4.9091	0.	9.3201e-003
635	10.12	4.7273	0.	4.6045e-003
636	10.12	4.5455	0.	-2.72e-003
637	10.12	4.3636	0.	-1.3368e-002
638	10.12	4.1818	0.	-3.0961e-002
639	10.12	4.	0.	-7.7161e-002
640	10.12	3.8182	0.	-0.96938
641	10.12	3.6364	0.	-4.9175
642	10.12	3.4545	0.	-8.3315
643	10.12	3.2727	0.	-10.757
644	10.12	3.0909	0.	-12.015
645	10.12	2.9091	0.	-12.015
646	10.12	2.7273	0.	-10.757
647	10.12	2.5455	0.	-8.3315
648	10.12	2.3636	0.	-4.9175
649	10.12	2.1818	0.	-0.96936
650	10.12	2.	0.	-7.7159e-002
651	10.12	1.8182	0.	-3.096e-002
652	10.12	1.6364	0.	-1.3368e-002
653	10.12	1.4545	0.	-2.719e-003
654	10.12	1.2727	0.	4.6047e-003
655	10.12	1.0909	0.	9.3207e-003
656	10.12	0.90909	0.	1.1741e-002
657	10.12	0.72727	0.	9.7332e-003
658	10.12	0.54545	0.	8.1329e-003
659	10.12	0.36364	0.	-2.9024e-002
660	10.12	0.18182	0.	-1.6847e-002
661	9.936	5.8182	0.	-1.023e-002
662	9.936	5.6364	0.	-2.1283e-002
663	9.936	5.4545	0.	7.4528e-003
664	9.936	5.2727	0.	9.1422e-003
665	9.936	5.0909	0.	1.0644e-002
666	9.936	4.9091	0.	8.202e-003
667	9.936	4.7273	0.	3.104e-003
668	9.936	4.5455	0.	-5.8701e-003
669	9.936	4.3636	0.	-2.3326e-002
670	9.936	4.1818	0.	-8.7411e-002
671	9.936	4.	0.	-2.0087
672	9.936	3.8182	0.	-6.1227
673	9.936	3.6364	0.	-9.8511
674	9.936	3.4545	0.	-12.89
675	9.936	3.2727	0.	-15.035
676	9.936	3.0909	0.	-16.144
677	9.936	2.9091	0.	-16.144
678	9.936	2.7273	0.	-15.035
679	9.936	2.5455	0.	-12.89
680	9.936	2.3636	0.	-9.851
681	9.936	2.1818	0.	-6.1226
682	9.936	2.	0.	-2.0087
683	9.936	1.8182	0.	-8.7409e-002
684	9.936	1.6364	0.	-2.3325e-002
685	9.936	1.4545	0.	-5.8693e-003
686	9.936	1.2727	0.	3.1049e-003
687	9.936	1.0909	0.	8.2032e-003
688	9.936	0.90909	0.	1.0645e-002
689	9.936	0.72727	0.	9.1434e-003
690	9.936	0.54545	0.	7.4533e-003
691	9.936	0.36364	0.	-2.1282e-002
692	9.936	0.18182	0.	-1.0229e-002
693	9.752	5.8182	0.	-5.4685e-003
694	9.752	5.6364	0.	-1.4186e-002
695	9.752	5.4545	0.	7.0412e-003
696	9.752	5.2727	0.	8.676e-003
697	9.752	5.0909	0.	9.4788e-003
698	9.752	4.9091	0.	6.3817e-003
699	9.752	4.7273	0.	-1.0835e-003
700	9.752	4.5455	0.	-2.1216e-002
701	9.752	4.3636	0.	-0.26312
702	9.752	4.1818	0.	-3.7384
703	9.752	4.	0.	-7.7606
704	9.752	3.8182	0.	-11.587
705	9.752	3.6364	0.	-14.973
706	9.752	3.4545	0.	-17.711
707	9.752	3.2727	0.	-19.635
708	9.752	3.0909	0.	-20.627
709	9.752	2.9091	0.	-20.627
710	9.752	2.7273	0.	-19.635
711	9.752	2.5455	0.	-17.711
712	9.752	2.3636	0.	-14.973
713	9.752	2.1818	0.	-11.587
714	9.752	2.	0.	-7.7605
715	9.752	1.8182	0.	-3.7383
716	9.752	1.6364	0.	-0.26311
717	9.752	1.4545	0.	-2.1216e-002
718	9.752	1.2727	0.	-1.0822e-003
719	9.752	1.0909	0.	6.3816e-003
720	9.752	0.90909	0.	9.4808e-003
721	9.752	0.72727	0.	8.677e-003
722	9.752	0.54545	0.	7.0409e-003
723	9.752	0.36364	0.	-1.4185e-002
724	9.752	0.18182	0.	-5.4675e-003
725	9.568	5.8182	0.	-2.4745e-003
726	9.568	5.6364	0.	-7.6338e-003
727	9.568	5.4545	0.	6.8675e-003
728	9.568	5.2727	0.	8.2967e-003
729	9.568	5.0909	0.	7.8766e-003
730	9.568	4.9091	0.	1.1572e-003
731	9.568	4.7273	0.	-4.4406e-002
732	9.568	4.5455	0.	-2.2386
733	9.568	4.3636	0.	-5.9245
734	9.568	4.1818	0.	-9.7875
735	9.568	4.	0.	-13.61
736	9.568	3.8182	0.	-17.183
737	9.568	3.6364	0.	-20.312
738	9.568	3.4545	0.	-22.825
739	9.568	3.2727	0.	-24.582
740	9.568	3.0909	0.	-25.486
741	9.568	2.9091	0.	-25.486
742	9.568	2.7273	0.	-24.582
743	9.568	2.5455	0.	-22.825
744	9.568	2.3636	0.	-20.312
745	9.568	2.1818	0.	-17.183
746	9.568	2.	0.	-13.61
747	9.568	1.8182	0.	-9.7875
748	9.568	1.6364	0.	-5.9245
749	9.568	1.4545	0.	-2.2386
750	9.568	1.2727	0.	-4.4404e-002
751	9.568	1.0909	0.	1.1582e-003
752	9.568	0.90909	0.	7.8784e-003
753	9.568	0.72727	0.	8.2984e-003
754	9.568	0.54545	0.	6.868e-003
755	9.568	0.36364	0.	-7.6331e-003
756	9.568	0.18182	0.	-2.4735e-003
757	9.384	5.8182	0.	-1.2818e-003
758	9.384	5.6364	0.	-1.5508e-003
759	9.384	5.4545	0.	6.8925e-003
760	9.384	5.2727	0.	7.7084e-003
761	9.384	5.0909	0.	-1.3051e-003
762	9.384	4.9091	0.	-1.5669
763	9.384	4.7273	0.	-4.7345
764	9.384	4.5455	0.	-8.2713
765	9.384	4.3636	0.	-12.029
766	9.384	4.1818	0.	-15.845
767	9.384	4.	0.	-19.545
768	9.384	3.8182	0.	-22.954
769	9.384	3.6364	0.	-25.908
770	9.384	3.4545	0.	-28.263
771	9.384	3.2727	0.	-29.902
772	9.384	3.0909	0.	-30.742
773	9.384	2.9091	0.	-30.742
774	9.384	2.7273	0.	-29.902
775	9.384	2.5455	0.	-28.263
776	9.384	2.3636	0.	-25.908
777	9.384	2.1818	0.	-22.954
778	9.384	2.	0.	-19.545
779	9.384	1.8182	0.	-15.845
780	9.384	1.6364	0.	-12.029
781	9.384	1.4545	0.	-8.2712
782	9.384	1.2727	0.	-4.7345
783	9.384	1.0909	0.	-1.5669
784	9.384	0.90909	0.	-1.3033e-003
785	9.384	0.72727	0.	7.7096e-003
786	9.384	0.54545	0.	6.8931e-003
787	9.384	0.36364	0.	-1.5497e-003
788	9.384	0.18182	0.	-1.2803e-003
789	9.2	5.8182	0.	-2.1692e-003
790	9.2	5.6364	0.	4.0611e-003
791	9.2	5.4545	0.	6.9344e-003
792	9.2	5.2727	0.	-0.81914
793	9.2	5.0909	0.	-3.6568
794	9.2	4.9091	0.	-6.8887
795	9.2	4.7273	0.	-10.445
796	9.2	4.5455	0.	-14.227
797	9.2	4.3636	0.	-18.112
798	9.2	4.1818	0.	-21.958
799	9.2	4.	0.	-25.618
800	9.2	3.8182	0.	-28.944
801	9.2	3.6364	0.	-31.797
802	9.2	3.4545	0.	-34.054
803	9.2	3.2727	0.	-35.616
804	9.2	3.0909	0.	-36.415
805	9.2	2.9091	0.	-36.415
806	9.2	2.7273	0.	-35.616
807	9.2	2.5455	0.	-34.054
808	9.2	2.3636	0.	-31.797
809	9.2	2.1818	0.	-28.944
810	9.2	2.	0.	-25.618
811	9.2	1.8182	0.	-21.958
812	9.2	1.6364	0.	-18.112
813	9.2	1.4545	0.	-14.227
814	9.2	1.2727	0.	-10.445
815	9.2	1.0909	0.	-6.8886
816	9.2	0.90909	0.	-3.6568
817	9.2	0.72727	0.	-0.81913
818	9.2	0.54545	0.	6.935e-003
819	9.2	0.36364	0.	4.0624e-003
820	9.2	0.18182	0.	-2.1682e-003
821	9.016	5.8182	0.	-5.9187e-003
822	9.016	5.6364	0.	8.5632e-003
823	9.016	5.4545	0.	-1.5397
824	9.016	5.2727	0.	-4.7817
825	9.016	5.0909	0.	-8.3118
826	9.016	4.9091	0.	-12.098
827	9.016	4.7273	0.	-16.076
828	9.016	4.5455	0.	-20.158
829	9.016	4.3636	0.	-24.236
830	9.016	4.1818	0.	-28.187
831	9.016	4.	0.	-31.884
832	9.016	3.8182	0.	-35.2
833	9.016	3.6364	0.	-38.016
834	9.016	3.4545	0.	-40.228
835	9.016	3.2727	0.	-41.751
836	9.016	3.0909	0.	-42.528
837	9.016	2.9091	0.	-42.528
838	9.016	2.7273	0.	-41.751
839	9.016	2.5455	0.	-40.228
840	9.016	2.3636	0.	-38.016
841	9.016	2.1818	0.	-35.2
842	9.016	2.	0.	-31.884
843	9.016	1.8182	0.	-28.187
844	9.016	1.6364	0.	-24.236
845	9.016	1.4545	0.	-20.158
846	9.016	1.2727	0.	-16.076
847	9.016	1.0909	0.	-12.098
848	9.016	0.90909	0.	-8.3118
849	9.016	0.72727	0.	-4.7817
850	9.016	0.54545	0.	-1.5396
851	9.016	0.36364	0.	8.5649e-003
852	9.016	0.18182	0.	-5.9177e-003
853	8.832	5.8182	0.	-1.4523e-002
854	8.832	5.6364	0.	-0.68424
855	8.832	5.4545	0.	-4.5992
856	8.832	5.2727	0.	-8.6578
857	8.832	5.0909	0.	-12.888
858	8.832	4.9091	0.	-17.254
859	8.832	4.7273	0.	-21.696
860	8.832	4.5455	0.	-26.132
861	8.832	4.3636	0.	-30.466
862	8.832	4.1818	0.	-34.59
863	8.832	4.	0.	-38.394
864	8.832	3.8182	0.	-41.765
865	8.832	3.6364	0.	-44.603
866	8.832	3.4545	0.	-46.816
867	8.832	3.2727	0.	-48.334
868	8.832	3.0909	0.	-49.106
869	8.832	2.9091	0.	-49.106
870	8.832	2.7273	0.	-48.334
871	8.832	2.5455	0.	-46.816
872	8.832	2.3636	0.	-44.603
873	8.832	2.1818	0.	-41.765
874	8.832	2.	0.	-38.394
875	8.832	1.8182	0.	-34.59
876	8.832	1.6364	0.	-30.466
877	8.832	1.4545	0.	-26.132
878	8.832	1.2727	0.	-21.696
879	8.832	1.0909	0.	-17.254
880	8.832	0.90909	0.	-12.888
881	8.832	0.72727	0.	-8.6578
882	8.832	0.54545	0.	-4.5992
883	8.832	0.36364	0.	-0.6842
884	8.832	0.18182	0.	-1.4521e-002
885	8.648	5.8182	0.	-3.367e-002
886	8.648	5.6364	0.	-2.7931
887	8.648	5.4545	0.	-7.623
888	8.648	5.2727	0.	-12.499
889	8.648	5.0909	0.	-17.445
890	8.648	4.9091	0.	-22.422
891	8.648	4.7273	0.	-27.371
892	8.648	4.5455	0.	-32.214
893	8.648	4.3636	0.	-36.864
894	8.648	4.1818	0.	-41.225
895	8.648	4.	0.	-45.197
896	8.648	3.8182	0.	-48.684
897	8.648	3.6364	0.	-51.595
898	8.648	3.4545	0.	-53.853
899	8.648	3.2727	0.	-55.395
900	8.648	3.0909	0.	-56.177
901	8.648	2.9091	0.	-56.177
902	8.648	2.7273	0.	-55.395
903	8.648	2.5455	0.	-53.853
904	8.648	2.3636	0.	-51.595
905	8.648	2.1818	0.	-48.684
906	8.648	2.	0.	-45.197
907	8.648	1.8182	0.	-41.225
908	8.648	1.6364	0.	-36.864
909	8.648	1.4545	0.	-32.214
910	8.648	1.2727	0.	-27.371
911	8.648	1.0909	0.	-22.422
912	8.648	0.90909	0.	-17.445
913	8.648	0.72727	0.	-12.499
914	8.648	0.54545	0.	-7.623
915	8.648	0.36364	0.	-2.793
916	8.648	0.18182	0.	-3.3668e-002
917	8.464	5.8182	0.	-8.5182e-002
918	8.464	5.6364	0.	-4.9095
919	8.464	5.4545	0.	-10.65
920	8.464	5.2727	0.	-16.355
921	8.464	5.0909	0.	-22.041
922	8.464	4.9091	0.	-27.663
923	8.464	4.7273	0.	-33.162
924	8.464	4.5455	0.	-38.465
925	8.464	4.3636	0.	-43.489
926	8.464	4.1818	0.	-48.146
927	8.464	4.	0.	-52.346
928	8.464	3.8182	0.	-56.003
929	8.464	3.6364	0.	-59.036
930	8.464	3.4545	0.	-61.376
931	8.464	3.2727	0.	-62.968
932	8.464	3.0909	0.	-63.774
933	8.464	2.9091	0.	-63.774
934	8.464	2.7273	0.	-62.968
935	8.464	2.5455	0.	-61.376
936	8.464	2.3636	0.	-59.036
937	8.464	2.1818	0.	-56.003
938	8.464	2.	0.	-52.346
939	8.464	1.8182	0.	-48.146
940	8.464	1.6364	0.	-43.489
941	8.464	1.4545	0.	-38.465
942	8.464	1.2727	0.	-33.162
943	8.464	1.0909	0.	-27.663
944	8.464	0.90909	0.	-22.041
945	8.464	0.72727	0.	-16.355
946	8.464	0.54545	0.	-10.65
947	8.464	0.36364	0.	-4.9095
948	8.464	0.18182	0.	-8.5179e-002
949	8.28	5.8182	0.	-0.30732
950	8.28	5.6364	0.	-7.0549
951	8.28	5.4545	0.	-13.717
952	8.28	5.2727	0.	-20.27
953	8.28	5.0909	0.	-26.725
954	8.28	4.9091	0.	-33.031
955	8.28	4.7273	0.	-39.128
956	8.28	4.5455	0.	-44.942
957	8.28	4.3636	0.	-50.396
958	8.28	4.1818	0.	-55.406
959	8.28	4.	0.	-59.89
960	8.28	3.8182	0.	-63.768
961	8.28	3.6364	0.	-66.967
962	8.28	3.4545	0.	-69.425
963	8.28	3.2727	0.	-71.093
964	8.28	3.0909	0.	-71.935
965	8.28	2.9091	0.	-71.935
966	8.28	2.7273	0.	-71.093
967	8.28	2.5455	0.	-69.425
968	8.28	2.3636	0.	-66.967
969	8.28	2.1818	0.	-63.768
970	8.28	2.	0.	-59.89
971	8.28	1.8182	0.	-55.406
972	8.28	1.6364	0.	-50.396
973	8.28	1.4545	0.	-44.942
974	8.28	1.2727	0.	-39.128
975	8.28	1.0909	0.	-33.031
976	8.28	0.90909	0.	-26.725
977	8.28	0.72727	0.	-20.27
978	8.28	0.54545	0.	-13.717
979	8.28	0.36364	0.	-7.0549
980	8.28	0.18182	0.	-0.30731
981	8.096	5.8182	0.	-1.1434
982	8.096	5.6364	0.	-9.2507
983	8.096	5.4545	0.	-16.854
984	8.096	5.2727	0.	-24.285
985	8.096	5.0909	0.	-31.546
986	8.096	4.9091	0.	-38.58
987	8.096	4.7273	0.	-45.324
988	8.096	4.5455	0.	-51.703
989	8.096	4.3636	0.	-57.642
990	8.096	4.1818	0.	-63.061
991	8.096	4.	0.	-67.882
992	8.096	3.8182	0.	-72.029
993	8.096	3.6364	0.	-75.437
994	8.096	3.4545	0.	-78.046
995	8.096	3.2727	0.	-79.812
996	8.096	3.0909	0.	-80.703
997	8.096	2.9091	0.	-80.703
998	8.096	2.7273	0.	-79.812
999	8.096	2.5455	0.	-78.046
1000	8.096	2.3636	0.	-75.437
1001	8.096	2.1818	0.	-72.029
1002	8.096	2.	0.	-67.882
1003	8.096	1.8182	0.	-63.061
1004	8.096	1.6364	0.	-57.642
1005	8.096	1.4545	0.	-51.703
1006	8.096	1.2727	0.	-45.324
1007	8.096	1.0909	0.	-38.58
1008	8.096	0.90909	0.	-31.546
1009	8.096	0.72727	0.	-24.285
1010	8.096	0.54545	0.	-16.854
1011	8.096	0.36364	0.	-9.2507
1012	8.096	0.18182	0.	-1.1434
1013	7.912	5.8182	0.	-2.3362
1014	7.912	5.6364	0.	-11.517
1015	7.912	5.4545	0.	-20.093
1016	7.912	5.2727	0.	-28.439
1017	7.912	5.0909	0.	-36.549
1018	7.912	4.9091	0.	-44.359
1019	7.912	4.7273	0.	-51.802
1020	7.912	4.5455	0.	-58.802
1021	7.912	4.3636	0.	-65.283
1022	7.912	4.1818	0.	-71.166
1023	7.912	4.	0.	-76.375
1024	7.912	3.8182	0.	-80.84
1025	7.912	3.6364	0.	-84.495
1026	7.912	3.4545	0.	-87.288
1027	7.912	3.2727	0.	-89.174
1028	7.912	3.0909	0.	-90.124
1029	7.912	2.9091	0.	-90.124
1030	7.912	2.7273	0.	-89.174
1031	7.912	2.5455	0.	-87.288
1032	7.912	2.3636	0.	-84.495
1033	7.912	2.1818	0.	-80.84
1034	7.912	2.	0.	-76.375
1035	7.912	1.8182	0.	-71.166
1036	7.912	1.6364	0.	-65.283
1037	7.912	1.4545	0.	-58.802
1038	7.912	1.2727	0.	-51.802
1039	7.912	1.0909	0.	-44.359
1040	7.912	0.90909	0.	-36.549
1041	7.912	0.72727	0.	-28.439
1042	7.912	0.54545	0.	-20.093
1043	7.912	0.36364	0.	-11.517
1044	7.912	0.18182	0.	-2.3362
1045	7.728	5.8182	0.	-3.6365
1046	7.728	5.6364	0.	-13.871
1047	7.728	5.4545	0.	-23.461
1048	7.728	5.2727	0.	-32.768
1049	7.728	5.0909	0.	-41.777
1050	7.728	4.9091	0.	-50.417
1051	7.728	4.7273	0.	-58.615
1052	7.728	4.5455	0.	-66.293
1053	7.728	4.3636	0.	-73.373
1054	7.728	4.1818	0.	-79.776
1055	7.728	4.	0.	-85.426
1056	7.728	3.8182	0.	-90.254
1057	7.728	3.6364	0.	-94.198
1058	7.728	3.4545	0.	-97.204
1059	7.728	3.2727	0.	-99.232
1060	7.728	3.0909	0.	-100.25
1061	7.728	2.9091	0.	-100.25
1062	7.728	2.7273	0.	-99.232
1063	7.728	2.5455	0.	-97.204
1064	7.728	2.3636	0.	-94.198
1065	7.728	2.1818	0.	-90.254
1066	7.728	2.	0.	-85.426
1067	7.728	1.8182	0.	-79.776
1068	7.728	1.6364	0.	-73.373
1069	7.728	1.4545	0.	-66.293
1070	7.728	1.2727	0.	-58.615
1071	7.728	1.0909	0.	-50.417
1072	7.728	0.90909	0.	-41.777
1073	7.728	0.72727	0.	-32.768
1074	7.728	0.54545	0.	-23.461
1075	7.728	0.36364	0.	-13.87
1076	7.728	0.18182	0.	-3.6365
1077	7.544	5.8182	0.	-5.0112
1078	7.544	5.6364	0.	-16.329
1079	7.544	5.4545	0.	-26.985
1080	7.544	5.2727	0.	-37.306
1081	7.544	5.0909	0.	-47.27
1082	7.544	4.9091	0.	-56.8
1083	7.544	4.7273	0.	-65.814
1084	7.544	4.5455	0.	-74.232
1085	7.544	4.3636	0.	-81.97
1086	7.544	4.1818	0.	-88.95
1087	7.544	4.	0.	-95.094
1088	7.544	3.8182	0.	-100.33
1089	7.544	3.6364	0.	-104.6
1090	7.544	3.4545	0.	-107.85
1091	7.544	3.2727	0.	-110.04
1092	7.544	3.0909	0.	-111.15
1093	7.544	2.9091	0.	-111.15
1094	7.544	2.7273	0.	-110.04
1095	7.544	2.5455	0.	-107.85
1096	7.544	2.3636	0.	-104.6
1097	7.544	2.1818	0.	-100.33
1098	7.544	2.	0.	-95.094
1099	7.544	1.8182	0.	-88.95
1100	7.544	1.6364	0.	-81.97
1101	7.544	1.4545	0.	-74.232
1102	7.544	1.2727	0.	-65.814
1103	7.544	1.0909	0.	-56.8
1104	7.544	0.90909	0.	-47.27
1105	7.544	0.72727	0.	-37.306
1106	7.544	0.54545	0.	-26.985
1107	7.544	0.36364	0.	-16.329
1108	7.544	0.18182	0.	-5.0112
1109	7.36	5.8182	0.	-6.4567
1110	7.36	5.6364	0.	-18.909
1111	7.36	5.4545	0.	-30.689
1112	7.36	5.2727	0.	-42.086
1113	7.36	5.0909	0.	-53.07
1114	7.36	4.9091	0.	-63.554
1115	7.36	4.7273	0.	-73.451
1116	7.36	4.5455	0.	-82.673
1117	7.36	4.3636	0.	-91.133
1118	7.36	4.1818	0.	-98.749
1119	7.36	4.	0.	-105.44
1120	7.36	3.8182	0.	-111.14
1121	7.36	3.6364	0.	-115.78
1122	7.36	3.4545	0.	-119.3
1123	7.36	3.2727	0.	-121.68
1124	7.36	3.0909	0.	-122.87
1125	7.36	2.9091	0.	-122.87
1126	7.36	2.7273	0.	-121.68
1127	7.36	2.5455	0.	-119.3
1128	7.36	2.3636	0.	-115.78
1129	7.36	2.1818	0.	-111.14
1130	7.36	2.	0.	-105.44
1131	7.36	1.8182	0.	-98.749
1132	7.36	1.6364	0.	-91.133
1133	7.36	1.4545	0.	-82.673
1134	7.36	1.2727	0.	-73.451
1135	7.36	1.0909	0.	-63.554
1136	7.36	0.90909	0.	-53.07
1137	7.36	0.72727	0.	-42.086
1138	7.36	0.54545	0.	-30.689
1139	7.36	0.36364	0.	-18.909
1140	7.36	0.18182	0.	-6.4567
1141	7.176	5.8182	0.	-7.9747
1142	7.176	5.6364	0.	-21.624
1143	7.176	5.4545	0.	-34.597
1144	7.176	5.2727	0.	-47.142
1145	7.176	5.0909	0.	-59.217
1146	7.176	4.9091	0.	-70.727
1147	7.176	4.7273	0.	-81.577
1148	7.176	4.5455	0.	-91.673
1149	7.176	4.3636	0.	-100.92
1150	7.176	4.1818	0.	-109.24
1151	7.176	4.	0.	-116.53
1152	7.176	3.8182	0.	-122.74
1153	7.176	3.6364	0.	-127.78
1154	7.176	3.4545	0.	-131.62
1155	7.176	3.2727	0.	-134.2
1156	7.176	3.0909	0.	-135.5
1157	7.176	2.9091	0.	-135.5
1158	7.176	2.7273	0.	-134.2
1159	7.176	2.5455	0.	-131.62
1160	7.176	2.3636	0.	-127.78
1161	7.176	2.1818	0.	-122.74
1162	7.176	2.	0.	-116.53
1163	7.176	1.8182	0.	-109.24
1164	7.176	1.6364	0.	-100.92
1165	7.176	1.4545	0.	-91.673
1166	7.176	1.2727	0.	-81.577
1167	7.176	1.0909	0.	-70.727
1168	7.176	0.90909	0.	-59.217
1169	7.176	0.72727	0.	-47.142
1170	7.176	0.54545	0.	-34.597
1171	7.176	0.36364	0.	-21.624
1172	7.176	0.18182	0.	-7.9746
1173	6.992	5.8182	0.	-9.5678
1174	6.992	5.6364	0.	-24.489
1175	6.992	5.4545	0.	-38.734
1176	6.992	5.2727	0.	-52.504
1177	6.992	5.0909	0.	-65.75
1178	6.992	4.9091	0.	-78.365
1179	6.992	4.7273	0.	-90.247
1180	6.992	4.5455	0.	-101.29
1181	6.992	4.3636	0.	-111.4
1182	6.992	4.1818	0.	-120.48
1183	6.992	4.	0.	-128.44
1184	6.992	3.8182	0.	-135.21
1185	6.992	3.6364	0.	-140.7
1186	6.992	3.4545	0.	-144.88
1187	6.992	3.2727	0.	-147.69
1188	6.992	3.0909	0.	-149.1
1189	6.992	2.9091	0.	-149.1
1190	6.992	2.7273	0.	-147.69
1191	6.992	2.5455	0.	-144.88
1192	6.992	2.3636	0.	-140.7
1193	6.992	2.1818	0.	-135.21
1194	6.992	2.	0.	-128.44
1195	6.992	1.8182	0.	-120.48
1196	6.992	1.6364	0.	-111.4
1197	6.992	1.4545	0.	-101.29
1198	6.992	1.2727	0.	-90.247
1199	6.992	1.0909	0.	-78.365
1200	6.992	0.90909	0.	-65.75
1201	6.992	0.72727	0.	-52.504
1202	6.992	0.54545	0.	-38.734
1203	6.992	0.36364	0.	-24.489
1204	6.992	0.18182	0.	-9.5677
1205	6.808	5.8182	0.	-11.239
1206	6.808	5.6364	0.	-27.518
1207	6.808	5.4545	0.	-43.121
1208	6.808	5.2727	0.	-58.205
1209	6.808	5.0909	0.	-72.709
1210	6.808	4.9091	0.	-86.517
1211	6.808	4.7273	0.	-99.514
1212	6.808	4.5455	0.	-111.59
1213	6.808	4.3636	0.	-122.64
1214	6.808	4.1818	0.	-132.55
1215	6.808	4.	0.	-141.24
1216	6.808	3.8182	0.	-148.62
1217	6.808	3.6364	0.	-154.62
1218	6.808	3.4545	0.	-159.17
1219	6.808	3.2727	0.	-162.23
1220	6.808	3.0909	0.	-163.77
1221	6.808	2.9091	0.	-163.77
1222	6.808	2.7273	0.	-162.23
1223	6.808	2.5455	0.	-159.17
1224	6.808	2.3636	0.	-154.62
1225	6.808	2.1818	0.	-148.62
1226	6.808	2.	0.	-141.24
1227	6.808	1.8182	0.	-132.55
1228	6.808	1.6364	0.	-122.64
1229	6.808	1.4545	0.	-111.59
1230	6.808	1.2727	0.	-99.514
1231	6.808	1.0909	0.	-86.517
1232	6.808	0.90909	0.	-72.709
1233	6.808	0.72727	0.	-58.205
1234	6.808	0.54545	0.	-43.121
1235	6.808	0.36364	0.	-27.518
1236	6.808	0.18182	0.	-11.239
1237	6.624	5.8182	0.	-12.989
1238	6.624	5.6364	0.	-30.723
1239	6.624	5.4545	0.	-47.783
1240	6.624	5.2727	0.	-64.277
1241	6.624	5.0909	0.	-80.136
1242	6.624	4.9091	0.	-95.231
1243	6.624	4.7273	0.	-109.44
1244	6.624	4.5455	0.	-122.63
1245	6.624	4.3636	0.	-134.7
1246	6.624	4.1818	0.	-145.52
1247	6.624	4.	0.	-155.01
1248	6.624	3.8182	0.	-163.07
1249	6.624	3.6364	0.	-169.61
1250	6.624	3.4545	0.	-174.58
1251	6.624	3.2727	0.	-177.91
1252	6.624	3.0909	0.	-179.59
1253	6.624	2.9091	0.	-179.59
1254	6.624	2.7273	0.	-177.91
1255	6.624	2.5455	0.	-174.58
1256	6.624	2.3636	0.	-169.61
1257	6.624	2.1818	0.	-163.07
1258	6.624	2.	0.	-155.01
1259	6.624	1.8182	0.	-145.52
1260	6.624	1.6364	0.	-134.7
1261	6.624	1.4545	0.	-122.63
1262	6.624	1.2727	0.	-109.44
1263	6.624	1.0909	0.	-95.231
1264	6.624	0.90909	0.	-80.136
1265	6.624	0.72727	0.	-64.277
1266	6.624	0.54545	0.	-47.783
1267	6.624	0.36364	0.	-30.723
1268	6.624	0.18182	0.	-12.989
1269	6.44	5.8182	0.	-14.82
1270	6.44	5.6364	0.	-34.117
1271	6.44	5.4545	0.	-52.74
1272	6.44	5.2727	0.	-70.752
1273	6.44	5.0909	0.	-88.073
1274	6.44	4.9091	0.	-104.56
1275	6.44	4.7273	0.	-120.07
1276	6.44	4.5455	0.	-134.48
1277	6.44	4.3636	0.	-147.66
1278	6.44	4.1818	0.	-159.48
1279	6.44	4.	0.	-169.84
1280	6.44	3.8182	0.	-178.63
1281	6.44	3.6364	0.	-185.77
1282	6.44	3.4545	0.	-191.19
1283	6.44	3.2727	0.	-194.84
1284	6.44	3.0909	0.	-196.67
1285	6.44	2.9091	0.	-196.67
1286	6.44	2.7273	0.	-194.84
1287	6.44	2.5455	0.	-191.19
1288	6.44	2.3636	0.	-185.77
1289	6.44	2.1818	0.	-178.63
1290	6.44	2.	0.	-169.84
1291	6.44	1.8182	0.	-159.48
1292	6.44	1.6364	0.	-147.66
1293	6.44	1.4545	0.	-134.48
1294	6.44	1.2727	0.	-120.07
1295	6.44	1.0909	0.	-104.56
1296	6.44	0.90909	0.	-88.073
1297	6.44	0.72727	0.	-70.752
1298	6.44	0.54545	0.	-52.74
1299	6.44	0.36364	0.	-34.117
1300	6.44	0.18182	0.	-14.82
1301	6.256	5.8182	0.	-16.733
1302	6.256	5.6364	0.	-37.711
1303	6.256	5.4545	0.	-58.017
1304	6.256	5.2727	0.	-77.664
1305	6.256	5.0909	0.	-96.562
1306	6.256	4.9091	0.	-114.55
1307	6.256	4.7273	0.	-131.49
1308	6.256	4.5455	0.	-147.22
1309	6.256	4.3636	0.	-161.6
1310	6.256	4.1818	0.	-174.51
1311	6.256	4.	0.	-185.81
1312	6.256	3.8182	0.	-195.41
1313	6.256	3.6364	0.	-203.21
1314	6.256	3.4545	0.	-209.13
1315	6.256	3.2727	0.	-213.11
1316	6.256	3.0909	0.	-215.11
1317	6.256	2.9091	0.	-215.11
1318	6.256	2.7273	0.	-213.11
1319	6.256	2.5455	0.	-209.13
1320	6.256	2.3636	0.	-203.21
1321	6.256	2.1818	0.	-195.41
1322	6.256	2.	0.	-185.81
1323	6.256	1.8182	0.	-174.51
1324	6.256	1.6364	0.	-161.6
1325	6.256	1.4545	0.	-147.22
1326	6.256	1.2727	0.	-131.49
1327	6.256	1.0909	0.	-114.55
1328	6.256	0.90909	0.	-96.562
1329	6.256	0.72727	0.	-77.664
1330	6.256	0.54545	0.	-58.017
1331	6.256	0.36364	0.	-37.711
1332	6.256	0.18182	0.	-16.733
1333	6.072	5.8182	0.	-18.725
1334	6.072	5.6364	0.	-41.518
1335	6.072	5.4545	0.	-63.634
1336	6.072	5.2727	0.	-85.046
1337	6.072	5.0909	0.	-105.65
1338	6.072	4.9091	0.	-125.27
1339	6.072	4.7273	0.	-143.74
1340	6.072	4.5455	0.	-160.9
1341	6.072	4.3636	0.	-176.6
1342	6.072	4.1818	0.	-190.69
1343	6.072	4.	0.	-203.04
1344	6.072	3.8182	0.	-213.52
1345	6.072	3.6364	0.	-222.04
1346	6.072	3.4545	0.	-228.5
1347	6.072	3.2727	0.	-232.85
1348	6.072	3.0909	0.	-235.03
1349	6.072	2.9091	0.	-235.03
1350	6.072	2.7273	0.	-232.85
1351	6.072	2.5455	0.	-228.5
1352	6.072	2.3636	0.	-222.04
1353	6.072	2.1818	0.	-213.52
1354	6.072	2.	0.	-203.04
1355	6.072	1.8182	0.	-190.69
1356	6.072	1.6364	0.	-176.6
1357	6.072	1.4545	0.	-160.9
1358	6.072	1.2727	0.	-143.74
1359	6.072	1.0909	0.	-125.27
1360	6.072	0.90909	0.	-105.65
1361	6.072	0.72727	0.	-85.046
1362	6.072	0.54545	0.	-63.634
1363	6.072	0.36364	0.	-41.518
1364	6.072	0.18182	0.	-18.725
1365	5.888	5.8182	0.	-20.795
1366	5.888	5.6364	0.	-45.546
1367	5.888	5.4545	0.	-69.615
1368	5.888	5.2727	0.	-92.931
1369	5.888	5.0909	0.	-115.38
1370	5.888	4.9091	0.	-136.76
1371	5.888	4.7273	0.	-156.91
1372	5.888	4.5455	0.	-175.63
1373	5.888	4.3636	0.	-192.76
1374	5.888	4.1818	0.	-208.14
1375	5.888	4.	0.	-221.62
1376	5.888	3.8182	0.	-233.06
1377	5.888	3.6364	0.	-242.37
1378	5.888	3.4545	0.	-249.43
1379	5.888	3.2727	0.	-254.18
1380	5.888	3.0909	0.	-256.56
1381	5.888	2.9091	0.	-256.56
1382	5.888	2.7273	0.	-254.18
1383	5.888	2.5455	0.	-249.43
1384	5.888	2.3636	0.	-242.37
1385	5.888	2.1818	0.	-233.06
1386	5.888	2.	0.	-221.62
1387	5.888	1.8182	0.	-208.14
1388	5.888	1.6364	0.	-192.76
1389	5.888	1.4545	0.	-175.63
1390	5.888	1.2727	0.	-156.91
1391	5.888	1.0909	0.	-136.76
1392	5.888	0.90909	0.	-115.38
1393	5.888	0.72727	0.	-92.931
1394	5.888	0.54545	0.	-69.615
1395	5.888	0.36364	0.	-45.546
1396	5.888	0.18182	0.	-20.795
1397	5.704	5.8182	0.	-22.938
1398	5.704	5.6364	0.	-49.807
1399	5.704	5.4545	0.	-75.982
1400	5.704	5.2727	0.	-101.36
1401	5.704	5.0909	0.	-125.8
1402	5.704	4.9091	0.	-149.1
1403	5.704	4.7273	0.	-171.05
1404	5.704	4.5455	0.	-191.47
1405	5.704	4.3636	0.	-210.16
1406	5.704	4.1818	0.	-226.95
1407	5.704	4.	0.	-241.66
1408	5.704	3.8182	0.	-254.16
1409	5.704	3.6364	0.	-264.32
1410	5.704	3.4545	0.	-272.04
1411	5.704	3.2727	0.	-277.23
1412	5.704	3.0909	0.	-279.83
1413	5.704	2.9091	0.	-279.83
1414	5.704	2.7273	0.	-277.23
1415	5.704	2.5455	0.	-272.04
1416	5.704	2.3636	0.	-264.32
1417	5.704	2.1818	0.	-254.16
1418	5.704	2.	0.	-241.66
1419	5.704	1.8182	0.	-226.95
1420	5.704	1.6364	0.	-210.16
1421	5.704	1.4545	0.	-191.47
1422	5.704	1.2727	0.	-171.05
1423	5.704	1.0909	0.	-149.1
1424	5.704	0.90909	0.	-125.8
1425	5.704	0.72727	0.	-101.36
1426	5.704	0.54545	0.	-75.982
1427	5.704	0.36364	0.	-49.807
1428	5.704	0.18182	0.	-22.938
1429	5.52	5.8182	0.	-25.147
1430	5.52	5.6364	0.	-54.307
1431	5.52	5.4545	0.	-82.757
1432	5.52	5.2727	0.	-110.35
1433	5.52	5.0909	0.	-136.96
1434	5.52	4.9091	0.	-162.33
1435	5.52	4.7273	0.	-186.26
1436	5.52	4.5455	0.	-208.53
1437	5.52	4.3636	0.	-228.91
1438	5.52	4.1818	0.	-247.23
1439	5.52	4.	0.	-263.3
1440	5.52	3.8182	0.	-276.95
1441	5.52	3.6364	0.	-288.05
1442	5.52	3.4545	0.	-296.48
1443	5.52	3.2727	0.	-302.15
1444	5.52	3.0909	0.	-305.
1445	5.52	2.9091	0.	-305.
1446	5.52	2.7273	0.	-302.15
1447	5.52	2.5455	0.	-296.48
1448	5.52	2.3636	0.	-288.05
1449	5.52	2.1818	0.	-276.95
1450	5.52	2.	0.	-263.3
1451	5.52	1.8182	0.	-247.23
1452	5.52	1.6364	0.	-228.91
1453	5.52	1.4545	0.	-208.53
1454	5.52	1.2727	0.	-186.26
1455	5.52	1.0909	0.	-162.33
1456	5.52	0.90909	0.	-136.96
1457	5.52	0.72727	0.	-110.35
1458	5.52	0.54545	0.	-82.757
1459	5.52	0.36364	0.	-54.307
1460	5.52	0.18182	0.	-25.147
1461	5.336	5.8182	0.	-27.413
1462	5.336	5.6364	0.	-59.055
1463	5.336	5.4545	0.	-89.96
1464	5.336	5.2727	0.	-119.97
1465	5.336	5.0909	0.	-148.91
1466	5.336	4.9091	0.	-176.54
1467	5.336	4.7273	0.	-202.61
1468	5.336	4.5455	0.	-226.88
1469	5.336	4.3636	0.	-249.12
1470	5.336	4.1818	0.	-269.11
1471	5.336	4.	0.	-286.66
1472	5.336	3.8182	0.	-301.56
1473	5.336	3.6364	0.	-313.69
1474	5.336	3.4545	0.	-322.9
1475	5.336	3.2727	0.	-329.09
1476	5.336	3.0909	0.	-332.21
1477	5.336	2.9091	0.	-332.21
1478	5.336	2.7273	0.	-329.09
1479	5.336	2.5455	0.	-322.9
1480	5.336	2.3636	0.	-313.69
1481	5.336	2.1818	0.	-301.56
1482	5.336	2.	0.	-286.66
1483	5.336	1.8182	0.	-269.11
1484	5.336	1.6364	0.	-249.12
1485	5.336	1.4545	0.	-226.88
1486	5.336	1.2727	0.	-202.61
1487	5.336	1.0909	0.	-176.54
1488	5.336	0.90909	0.	-148.91
1489	5.336	0.72727	0.	-119.97
1490	5.336	0.54545	0.	-89.96
1491	5.336	0.36364	0.	-59.055
1492	5.336	0.18182	0.	-27.413
1493	5.152	5.8182	0.	-29.726
1494	5.152	5.6364	0.	-64.055
1495	5.152	5.4545	0.	-97.614
1496	5.152	5.2727	0.	-130.22
1497	5.152	5.0909	0.	-161.71
1498	5.152	4.9091	0.	-191.79
1499	5.152	4.7273	0.	-220.19
1500	5.152	4.5455	0.	-246.65
1501	5.152	4.3636	0.	-270.91
1502	5.152	4.1818	0.	-292.72
1503	5.152	4.	0.	-311.87
1504	5.152	3.8182	0.	-328.16
1505	5.152	3.6364	0.	-341.4
1506	5.152	3.4545	0.	-351.46
1507	5.152	3.2727	0.	-358.23
1508	5.152	3.0909	0.	-361.63
1509	5.152	2.9091	0.	-361.63
1510	5.152	2.7273	0.	-358.23
1511	5.152	2.5455	0.	-351.46
1512	5.152	2.3636	0.	-341.4
1513	5.152	2.1818	0.	-328.16
1514	5.152	2.	0.	-311.87
1515	5.152	1.8182	0.	-292.72
1516	5.152	1.6364	0.	-270.91
1517	5.152	1.4545	0.	-246.65
1518	5.152	1.2727	0.	-220.19
1519	5.152	1.0909	0.	-191.79
1520	5.152	0.90909	0.	-161.71
1521	5.152	0.72727	0.	-130.22
1522	5.152	0.54545	0.	-97.614
1523	5.152	0.36364	0.	-64.055
1524	5.152	0.18182	0.	-29.726
1525	4.968	5.8182	0.	-32.07
1526	4.968	5.6364	0.	-69.311
1527	4.968	5.4545	0.	-105.74
1528	4.968	5.2727	0.	-141.17
1529	4.968	5.0909	0.	-175.41
1530	4.968	4.9091	0.	-208.15
1531	4.968	4.7273	0.	-239.09
1532	4.968	4.5455	0.	-267.93
1533	4.968	4.3636	0.	-294.39
1534	4.968	4.1818	0.	-318.19
1535	4.968	4.	0.	-339.1
1536	4.968	3.8182	0.	-356.88
1537	4.968	3.6364	0.	-371.35
1538	4.968	3.4545	0.	-382.34
1539	4.968	3.2727	0.	-389.74
1540	4.968	3.0909	0.	-393.46
1541	4.968	2.9091	0.	-393.46
1542	4.968	2.7273	0.	-389.74
1543	4.968	2.5455	0.	-382.34
1544	4.968	2.3636	0.	-371.35
1545	4.968	2.1818	0.	-356.88
1546	4.968	2.	0.	-339.1
1547	4.968	1.8182	0.	-318.19
1548	4.968	1.6364	0.	-294.39
1549	4.968	1.4545	0.	-267.93
1550	4.968	1.2727	0.	-239.09
1551	4.968	1.0909	0.	-208.15
1552	4.968	0.90909	0.	-175.41
1553	4.968	0.72727	0.	-141.17
1554	4.968	0.54545	0.	-105.74
1555	4.968	0.36364	0.	-69.311
1556	4.968	0.18182	0.	-32.07
1557	4.784	5.8182	0.	-34.425
1558	4.784	5.6364	0.	-74.825
1559	4.784	5.4545	0.	-114.36
1560	4.784	5.2727	0.	-152.85
1561	4.784	5.0909	0.	-190.08
1562	4.784	4.9091	0.	-225.71
1563	4.784	4.7273	0.	-259.41
1564	4.784	4.5455	0.	-290.84
1565	4.784	4.3636	0.	-319.7
1566	4.784	4.1818	0.	-345.68
1567	4.784	4.	0.	-368.5
1568	4.784	3.8182	0.	-387.92
1569	4.784	3.6364	0.	-403.72
1570	4.784	3.4545	0.	-415.73
1571	4.784	3.2727	0.	-423.82
1572	4.784	3.0909	0.	-427.88
1573	4.784	2.9091	0.	-427.88
1574	4.784	2.7273	0.	-423.82
1575	4.784	2.5455	0.	-415.73
1576	4.784	2.3636	0.	-403.72
1577	4.784	2.1818	0.	-387.92
1578	4.784	2.	0.	-368.5
1579	4.784	1.8182	0.	-345.68
1580	4.784	1.6364	0.	-319.7
1581	4.784	1.4545	0.	-290.84
1582	4.784	1.2727	0.	-259.41
1583	4.784	1.0909	0.	-225.71
1584	4.784	0.90909	0.	-190.08
1585	4.784	0.72727	0.	-152.85
1586	4.784	0.54545	0.	-114.36
1587	4.784	0.36364	0.	-74.825
1588	4.784	0.18182	0.	-34.425
1589	4.6	5.8182	0.	-36.77
1590	4.6	5.6364	0.	-80.596
1591	4.6	5.4545	0.	-123.49
1592	4.6	5.2727	0.	-165.29
1593	4.6	5.0909	0.	-205.77
1594	4.6	4.9091	0.	-244.54
1595	4.6	4.7273	0.	-281.25
1596	4.6	4.5455	0.	-315.52
1597	4.6	4.3636	0.	-346.99
1598	4.6	4.1818	0.	-375.34
1599	4.6	4.	0.	-400.25
1600	4.6	3.8182	0.	-421.45
1601	4.6	3.6364	0.	-438.71
1602	4.6	3.4545	0.	-451.83
1603	4.6	3.2727	0.	-460.66
1604	4.6	3.0909	0.	-465.1
1605	4.6	2.9091	0.	-465.1
1606	4.6	2.7273	0.	-460.66
1607	4.6	2.5455	0.	-451.83
1608	4.6	2.3636	0.	-438.71
1609	4.6	2.1818	0.	-421.45
1610	4.6	2.	0.	-400.25
1611	4.6	1.8182	0.	-375.34
1612	4.6	1.6364	0.	-346.99
1613	4.6	1.4545	0.	-315.52
1614	4.6	1.2727	0.	-281.25
1615	4.6	1.0909	0.	-244.54
1616	4.6	0.90909	0.	-205.77
1617	4.6	0.72727	0.	-165.29
1618	4.6	0.54545	0.	-123.49
1619	4.6	0.36364	0.	-80.596
1620	4.6	0.18182	0.	-36.77
1621	4.416	5.8182	0.	-39.076
1622	4.416	5.6364	0.	-86.621
1623	4.416	5.4545	0.	-133.15
1624	4.416	5.2727	0.	-178.54
1625	4.416	5.0909	0.	-222.55
1626	4.416	4.9091	0.	-264.75
1627	4.416	4.7273	0.	-304.73
1628	4.416	4.5455	0.	-342.08
1629	4.416	4.3636	0.	-376.41
1630	4.416	4.1818	0.	-407.34
1631	4.416	4.	0.	-434.53
1632	4.416	3.8182	0.	-457.68
1633	4.416	3.6364	0.	-476.52
1634	4.416	3.4545	0.	-490.85
1635	4.416	3.2727	0.	-500.49
1636	4.416	3.0909	0.	-505.34
1637	4.416	2.9091	0.	-505.34
1638	4.416	2.7273	0.	-500.49
1639	4.416	2.5455	0.	-490.85
1640	4.416	2.3636	0.	-476.52
1641	4.416	2.1818	0.	-457.68
1642	4.416	2.	0.	-434.53
1643	4.416	1.8182	0.	-407.34
1644	4.416	1.6364	0.	-376.41
1645	4.416	1.4545	0.	-342.08
1646	4.416	1.2727	0.	-304.73
1647	4.416	1.0909	0.	-264.75
1648	4.416	0.90909	0.	-222.55
1649	4.416	0.72727	0.	-178.54
1650	4.416	0.54545	0.	-133.15
1651	4.416	0.36364	0.	-86.621
1652	4.416	0.18182	0.	-39.076
1653	4.232	5.8182	0.	-41.31
1654	4.232	5.6364	0.	-92.894
1655	4.232	5.4545	0.	-143.36
1656	4.232	5.2727	0.	-192.65
1657	4.232	5.0909	0.	-240.5
1658	4.232	4.9091	0.	-286.43
1659	4.232	4.7273	0.	-329.98
1660	4.232	4.5455	0.	-370.69
1661	4.232	4.3636	0.	-408.13
1662	4.232	4.1818	0.	-441.87
1663	4.232	4.	0.	-471.54
1664	4.232	3.8182	0.	-496.8
1665	4.232	3.6364	0.	-517.37
1666	4.232	3.4545	0.	-533.
1667	4.232	3.2727	0.	-543.53
1668	4.232	3.0909	0.	-548.82
1669	4.232	2.9091	0.	-548.82
1670	4.232	2.7273	0.	-543.53
1671	4.232	2.5455	0.	-533.
1672	4.232	2.3636	0.	-517.37
1673	4.232	2.1818	0.	-496.8
1674	4.232	2.	0.	-471.54
1675	4.232	1.8182	0.	-441.87
1676	4.232	1.6364	0.	-408.13
1677	4.232	1.4545	0.	-370.69
1678	4.232	1.2727	0.	-329.98
1679	4.232	1.0909	0.	-286.43
1680	4.232	0.90909	0.	-240.5
1681	4.232	0.72727	0.	-192.65
1682	4.232	0.54545	0.	-143.36
1683	4.232	0.36364	0.	-92.894
1684	4.232	0.18182	0.	-41.31
1685	4.048	5.8182	0.	-43.431
1686	4.048	5.6364	0.	-99.405
1687	4.048	5.4545	0.	-154.14
1688	4.048	5.2727	0.	-207.68
1689	4.048	5.0909	0.	-259.7
1690	4.048	4.9091	0.	-309.7
1691	4.048	4.7273	0.	-357.14
1692	4.048	4.5455	0.	-401.51
1693	4.048	4.3636	0.	-442.33
1694	4.048	4.1818	0.	-479.13
1695	4.048	4.	0.	-511.49
1696	4.048	3.8182	0.	-539.05
1697	4.048	3.6364	0.	-561.48
1698	4.048	3.4545	0.	-578.53
1699	4.048	3.2727	0.	-590.
1700	4.048	3.0909	0.	-595.78
1701	4.048	2.9091	0.	-595.78
1702	4.048	2.7273	0.	-590.
1703	4.048	2.5455	0.	-578.53
1704	4.048	2.3636	0.	-561.48
1705	4.048	2.1818	0.	-539.05
1706	4.048	2.	0.	-511.49
1707	4.048	1.8182	0.	-479.13
1708	4.048	1.6364	0.	-442.33
1709	4.048	1.4545	0.	-401.51
1710	4.048	1.2727	0.	-357.14
1711	4.048	1.0909	0.	-309.7
1712	4.048	0.90909	0.	-259.7
1713	4.048	0.72727	0.	-207.68
1714	4.048	0.54545	0.	-154.14
1715	4.048	0.36364	0.	-99.405
1716	4.048	0.18182	0.	-43.431
1717	3.864	5.8182	0.	-45.395
1718	3.864	5.6364	0.	-106.14
1719	3.864	5.4545	0.	-165.51
1720	3.864	5.2727	0.	-223.66
1721	3.864	5.0909	0.	-280.25
1722	3.864	4.9091	0.	-334.67
1723	3.864	4.7273	0.	-386.35
1724	3.864	4.5455	0.	-434.72
1725	3.864	4.3636	0.	-479.21
1726	3.864	4.1818	0.	-519.34
1727	3.864	4.	0.	-554.62
1728	3.864	3.8182	0.	-584.65
1729	3.864	3.6364	0.	-609.09
1730	3.864	3.4545	0.	-627.67
1731	3.864	3.2727	0.	-640.17
1732	3.864	3.0909	0.	-646.46
1733	3.864	2.9091	0.	-646.46
1734	3.864	2.7273	0.	-640.17
1735	3.864	2.5455	0.	-627.67
1736	3.864	2.3636	0.	-609.09
1737	3.864	2.1818	0.	-584.65
1738	3.864	2.	0.	-554.62
1739	3.864	1.8182	0.	-519.34
1740	3.864	1.6364	0.	-479.21
1741	3.864	1.4545	0.	-434.72
1742	3.864	1.2727	0.	-386.35
1743	3.864	1.0909	0.	-334.67
1744	3.864	0.90909	0.	-280.25
1745	3.864	0.72727	0.	-223.66
1746	3.864	0.54545	0.	-165.51
1747	3.864	0.36364	0.	-106.14
1748	3.864	0.18182	0.	-45.395
1749	3.68	5.8182	0.	-47.147
1750	3.68	5.6364	0.	-113.1
1751	3.68	5.4545	0.	-177.5
1752	3.68	5.2727	0.	-240.68
1753	3.68	5.0909	0.	-302.23
1754	3.68	4.9091	0.	-361.49
1755	3.68	4.7273	0.	-417.8
1756	3.68	4.5455	0.	-470.51
1757	3.68	4.3636	0.	-519.01
1758	3.68	4.1818	0.	-562.73
1759	3.68	4.	0.	-601.16
1760	3.68	3.8182	0.	-633.86
1761	3.68	3.6364	0.	-660.46
1762	3.68	3.4545	0.	-680.67
1763	3.68	3.2727	0.	-694.27
1764	3.68	3.0909	0.	-701.1
1765	3.68	2.9091	0.	-701.1
1766	3.68	2.7273	0.	-694.27
1767	3.68	2.5455	0.	-680.67
1768	3.68	2.3636	0.	-660.46
1769	3.68	2.1818	0.	-633.86
1770	3.68	2.	0.	-601.16
1771	3.68	1.8182	0.	-562.73
1772	3.68	1.6364	0.	-519.01
1773	3.68	1.4545	0.	-470.51
1774	3.68	1.2727	0.	-417.8
1775	3.68	1.0909	0.	-361.49
1776	3.68	0.90909	0.	-302.23
1777	3.68	0.72727	0.	-240.68
1778	3.68	0.54545	0.	-177.5
1779	3.68	0.36364	0.	-113.1
1780	3.68	0.18182	0.	-47.147
1781	3.496	5.8182	0.	-48.626
1782	3.496	5.6364	0.	-120.25
1783	3.496	5.4545	0.	-190.14
1784	3.496	5.2727	0.	-258.81
1785	3.496	5.0909	0.	-325.79
1786	3.496	4.9091	0.	-390.34
1787	3.496	4.7273	0.	-451.69
1788	3.496	4.5455	0.	-509.13
1789	3.496	4.3636	0.	-561.96
1790	3.496	4.1818	0.	-609.57
1791	3.496	4.	0.	-651.38
1792	3.496	3.8182	0.	-686.94
1793	3.496	3.6364	0.	-715.85
1794	3.496	3.4545	0.	-737.79
1795	3.496	3.2727	0.	-752.54
1796	3.496	3.0909	0.	-759.96
1797	3.496	2.9091	0.	-759.96
1798	3.496	2.7273	0.	-752.54
1799	3.496	2.5455	0.	-737.79
1800	3.496	2.3636	0.	-715.85
1801	3.496	2.1818	0.	-686.94
1802	3.496	2.	0.	-651.38
1803	3.496	1.8182	0.	-609.57
1804	3.496	1.6364	0.	-561.96
1805	3.496	1.4545	0.	-509.13
1806	3.496	1.2727	0.	-451.69
1807	3.496	1.0909	0.	-390.34
1808	3.496	0.90909	0.	-325.79
1809	3.496	0.72727	0.	-258.81
1810	3.496	0.54545	0.	-190.14
1811	3.496	0.36364	0.	-120.25
1812	3.496	0.18182	0.	-48.626
1813	3.312	5.8182	0.	-49.762
1814	3.312	5.6364	0.	-127.58
1815	3.312	5.4545	0.	-203.47
1816	3.312	5.2727	0.	-278.14
1817	3.312	5.0909	0.	-351.07
1818	3.312	4.9091	0.	-421.4
1819	3.312	4.7273	0.	-488.26
1820	3.312	4.5455	0.	-550.84
1821	3.312	4.3636	0.	-608.36
1822	3.312	4.1818	0.	-660.14
1823	3.312	4.	0.	-705.57
1824	3.312	3.8182	0.	-744.16
1825	3.312	3.6364	0.	-775.5
1826	3.312	3.4545	0.	-799.26
1827	3.312	3.2727	0.	-815.23
1828	3.312	3.0909	0.	-823.25
1829	3.312	2.9091	0.	-823.25
1830	3.312	2.7273	0.	-815.23
1831	3.312	2.5455	0.	-799.26
1832	3.312	2.3636	0.	-775.5
1833	3.312	2.1818	0.	-744.16
1834	3.312	2.	0.	-705.57
1835	3.312	1.8182	0.	-660.14
1836	3.312	1.6364	0.	-608.36
1837	3.312	1.4545	0.	-550.84
1838	3.312	1.2727	0.	-488.26
1839	3.312	1.0909	0.	-421.4
1840	3.312	0.90909	0.	-351.07
1841	3.312	0.72727	0.	-278.14
1842	3.312	0.54545	0.	-203.47
1843	3.312	0.36364	0.	-127.58
1844	3.312	0.18182	0.	-49.763
1845	3.128	5.8182	0.	-50.477
1846	3.128	5.6364	0.	-135.08
1847	3.128	5.4545	0.	-217.53
1848	3.128	5.2727	0.	-298.8
1849	3.128	5.0909	0.	-378.26
1850	3.128	4.9091	0.	-454.93
1851	3.128	4.7273	0.	-527.8
1852	3.128	4.5455	0.	-595.95
1853	3.128	4.3636	0.	-658.52
1854	3.128	4.1818	0.	-714.76
1855	3.128	4.	0.	-764.03
1856	3.128	3.8182	0.	-805.8
1857	3.128	3.6364	0.	-839.68
1858	3.128	3.4545	0.	-865.34
1859	3.128	3.2727	0.	-882.56
1860	3.128	3.0909	0.	-891.2
1861	3.128	2.9091	0.	-891.2
1862	3.128	2.7273	0.	-882.56
1863	3.128	2.5455	0.	-865.34
1864	3.128	2.3636	0.	-839.68
1865	3.128	2.1818	0.	-805.8
1866	3.128	2.	0.	-764.03
1867	3.128	1.8182	0.	-714.76
1868	3.128	1.6364	0.	-658.52
1869	3.128	1.4545	0.	-595.95
1870	3.128	1.2727	0.	-527.8
1871	3.128	1.0909	0.	-454.93
1872	3.128	0.90909	0.	-378.26
1873	3.128	0.72727	0.	-298.8
1874	3.128	0.54545	0.	-217.53
1875	3.128	0.36364	0.	-135.08
1876	3.128	0.18182	0.	-50.477
1877	2.944	5.8182	0.	-50.684
1878	2.944	5.6364	0.	-142.74
1879	2.944	5.4545	0.	-232.42
1880	2.944	5.2727	0.	-320.95
1881	2.944	5.0909	0.	-407.61
1882	2.944	4.9091	0.	-491.22
1883	2.944	4.7273	0.	-570.65
1884	2.944	4.5455	0.	-644.83
1885	2.944	4.3636	0.	-712.81
1886	2.944	4.1818	0.	-773.78
1887	2.944	4.	0.	-827.08
1888	2.944	3.8182	0.	-872.16
1889	2.944	3.6364	0.	-908.64
1890	2.944	3.4545	0.	-936.22
1891	2.944	3.2727	0.	-954.71
1892	2.944	3.0909	0.	-963.99
1893	2.944	2.9091	0.	-963.99
1894	2.944	2.7273	0.	-954.71
1895	2.944	2.5455	0.	-936.23
1896	2.944	2.3636	0.	-908.64
1897	2.944	2.1818	0.	-872.16
1898	2.944	2.	0.	-827.08
1899	2.944	1.8182	0.	-773.78
1900	2.944	1.6364	0.	-712.81
1901	2.944	1.4545	0.	-644.83
1902	2.944	1.2727	0.	-570.65
1903	2.944	1.0909	0.	-491.22
1904	2.944	0.90909	0.	-407.61
1905	2.944	0.72727	0.	-320.95
1906	2.944	0.54545	0.	-232.42
1907	2.944	0.36364	0.	-142.74
1908	2.944	0.18182	0.	-50.684
1909	2.76	5.8182	0.	-50.288
1910	2.76	5.6364	0.	-150.56
1911	2.76	5.4545	0.	-248.22
1912	2.76	5.2727	0.	-344.81
1913	2.76	5.0909	0.	-439.42
1914	2.76	4.9091	0.	-530.68
1915	2.76	4.7273	0.	-617.25
1916	2.76	4.5455	0.	-697.93
1917	2.76	4.3636	0.	-771.68
1918	2.76	4.1818	0.	-837.61
1919	2.76	4.	0.	-895.07
1920	2.76	3.8182	0.	-943.52
1921	2.76	3.6364	0.	-982.62
1922	2.76	3.4545	0.	-1012.1
1923	2.76	3.2727	0.	-1031.9
1924	2.76	3.0909	0.	-1041.7
1925	2.76	2.9091	0.	-1041.7
1926	2.76	2.7273	0.	-1031.9
1927	2.76	2.5455	0.	-1012.1
1928	2.76	2.3636	0.	-982.62
1929	2.76	2.1818	0.	-943.52
1930	2.76	2.	0.	-895.07
1931	2.76	1.8182	0.	-837.61
1932	2.76	1.6364	0.	-771.68
1933	2.76	1.4545	0.	-697.93
1934	2.76	1.2727	0.	-617.25
1935	2.76	1.0909	0.	-530.68
1936	2.76	0.90909	0.	-439.42
1937	2.76	0.72727	0.	-344.81
1938	2.76	0.54545	0.	-248.22
1939	2.76	0.36364	0.	-150.56
1940	2.76	0.18182	0.	-50.289
1941	2.576	5.8182	0.	-49.191
1942	2.576	5.6364	0.	-158.55
1943	2.576	5.4545	0.	-265.11
1944	2.576	5.2727	0.	-370.66
1945	2.576	5.0909	0.	-474.11
1946	2.576	4.9091	0.	-573.79
1947	2.576	4.7273	0.	-668.15
1948	2.576	4.5455	0.	-755.81
1949	2.576	4.3636	0.	-835.62
1950	2.576	4.1818	0.	-906.7
1951	2.576	4.	0.	-968.37
1952	2.576	3.8182	0.	-1020.2
1953	2.576	3.6364	0.	-1061.8
1954	2.576	3.4545	0.	-1093.2
1955	2.576	3.2727	0.	-1114.1
1956	2.576	3.0909	0.	-1124.5
1957	2.576	2.9091	0.	-1124.5
1958	2.576	2.7273	0.	-1114.1
1959	2.576	2.5455	0.	-1093.2
1960	2.576	2.3636	0.	-1061.8
1961	2.576	2.1818	0.	-1020.2
1962	2.576	2.	0.	-968.37
1963	2.576	1.8182	0.	-906.7
1964	2.576	1.6364	0.	-835.62
1965	2.576	1.4545	0.	-755.81
1966	2.576	1.2727	0.	-668.15
1967	2.576	1.0909	0.	-573.79
1968	2.576	0.90909	0.	-474.11
1969	2.576	0.72727	0.	-370.66
1970	2.576	0.54545	0.	-265.11
1971	2.576	0.36364	0.	-158.55
1972	2.576	0.18182	0.	-49.191
1973	2.392	5.8182	0.	-47.294
1974	2.392	5.6364	0.	-166.75
1975	2.392	5.4545	0.	-283.29
1976	2.392	5.2727	0.	-398.93
1977	2.392	5.0909	0.	-512.23
1978	2.392	4.9091	0.	-621.21
1979	2.392	4.7273	0.	-724.03
1980	2.392	4.5455	0.	-819.12
1981	2.392	4.3636	0.	-905.25
1982	2.392	4.1818	0.	-981.53
1983	2.392	4.	0.	-1047.4
1984	2.392	3.8182	0.	-1102.4
1985	2.392	3.6364	0.	-1146.4
1986	2.392	3.4545	0.	-1179.4
1987	2.392	3.2727	0.	-1201.4
1988	2.392	3.0909	0.	-1212.4
1989	2.392	2.9091	0.	-1212.4
1990	2.392	2.7273	0.	-1201.4
1991	2.392	2.5455	0.	-1179.4
1992	2.392	2.3636	0.	-1146.4
1993	2.392	2.1818	0.	-1102.4
1994	2.392	2.	0.	-1047.4
1995	2.392	1.8182	0.	-981.53
1996	2.392	1.6364	0.	-905.25
1997	2.392	1.4545	0.	-819.12
1998	2.392	1.2727	0.	-724.03
1999	2.392	1.0909	0.	-621.21
2000	2.392	0.90909	0.	-512.23
2001	2.392	0.72727	0.	-398.93
2002	2.392	0.54545	0.	-283.29
2003	2.392	0.36364	0.	-166.75
2004	2.392	0.18182	0.	-47.294
2005	2.208	5.8182	0.	-44.51
2006	2.208	5.6364	0.	-175.25
2007	2.208	5.4545	0.	-303.12
2008	2.208	5.2727	0.	-430.16
2009	2.208	5.0909	0.	-554.55
2010	2.208	4.9091	0.	-673.8
2011	2.208	4.7273	0.	-785.77
2012	2.208	4.5455	0.	-888.68
2013	2.208	4.3636	0.	-981.26
2014	2.208	4.1818	0.	-1062.7
2015	2.208	4.	0.	-1132.4
2016	2.208	3.8182	0.	-1190.4
2017	2.208	3.6364	0.	-1236.5
2018	2.208	3.4545	0.	-1270.9
2019	2.208	3.2727	0.	-1293.7
2020	2.208	3.0909	0.	-1305.1
2021	2.208	2.9091	0.	-1305.1
2022	2.208	2.7273	0.	-1293.7
2023	2.208	2.5455	0.	-1270.9
2024	2.208	2.3636	0.	-1236.5
2025	2.208	2.1818	0.	-1190.4
2026	2.208	2.	0.	-1132.4
2027	2.208	1.8182	0.	-1062.7
2028	2.208	1.6364	0.	-981.26
2029	2.208	1.4545	0.	-888.68
2030	2.208	1.2727	0.	-785.77
2031	2.208	1.0909	0.	-673.8
2032	2.208	0.90909	0.	-554.55
2033	2.208	0.72727	0.	-430.16
2034	2.208	0.54545	0.	-303.12
2035	2.208	0.36364	0.	-175.25
2036	2.208	0.18182	0.	-44.51
2037	2.024	5.8182	0.	-40.79
2038	2.024	5.6364	0.	-184.19
2039	2.024	5.4545	0.	-325.07
2040	2.024	5.2727	0.	-465.19
2041	2.024	5.0909	0.	-602.08
2042	2.024	4.9091	0.	-732.71
2043	2.024	4.7273	0.	-854.49
2044	2.024	4.5455	0.	-965.5
2045	2.024	4.3636	0.	-1064.5
2046	2.024	4.1818	0.	-1150.7
2047	2.024	4.	0.	-1223.9
2048	2.024	3.8182	0.	-1284.3
2049	2.024	3.6364	0.	-1332.
2050	2.024	3.4545	0.	-1367.4
2051	2.024	3.2727	0.	-1390.8
2052	2.024	3.0909	0.	-1402.4
2053	2.024	2.9091	0.	-1402.4
2054	2.024	2.7273	0.	-1390.8
2055	2.024	2.5455	0.	-1367.4
2056	2.024	2.3636	0.	-1332.
2057	2.024	2.1818	0.	-1284.3
2058	2.024	2.	0.	-1223.9
2059	2.024	1.8182	0.	-1150.7
2060	2.024	1.6364	0.	-1064.5
2061	2.024	1.4545	0.	-965.5
2062	2.024	1.2727	0.	-854.49
2063	2.024	1.0909	0.	-732.71
2064	2.024	0.90909	0.	-602.08
2065	2.024	0.72727	0.	-465.19
2066	2.024	0.54545	0.	-325.07
2067	2.024	0.36364	0.	-184.19
2068	2.024	0.18182	0.	-40.79
2069	1.84	5.8182	0.	-36.177
2070	1.84	5.6364	0.	-193.82
2071	1.84	5.4545	0.	-349.88
2072	1.84	5.2727	0.	-505.15
2073	1.84	5.0909	0.	-656.28
2074	1.84	4.9091	0.	-799.44
2075	1.84	4.7273	0.	-931.62
2076	1.84	4.5455	0.	-1050.8
2077	1.84	4.3636	0.	-1155.7
2078	1.84	4.1818	0.	-1246.2
2079	1.84	4.	0.	-1322.2
2080	1.84	3.8182	0.	-1384.2
2081	1.84	3.6364	0.	-1432.8
2082	1.84	3.4545	0.	-1468.7
2083	1.84	3.2727	0.	-1492.3
2084	1.84	3.0909	0.	-1504.
2085	1.84	2.9091	0.	-1504.
2086	1.84	2.7273	0.	-1492.3
2087	1.84	2.5455	0.	-1468.7
2088	1.84	2.3636	0.	-1432.8
2089	1.84	2.1818	0.	-1384.2
2090	1.84	2.	0.	-1322.2
2091	1.84	1.8182	0.	-1246.2
2092	1.84	1.6364	0.	-1155.7
2093	1.84	1.4545	0.	-1050.8
2094	1.84	1.2727	0.	-931.62
2095	1.84	1.0909	0.	-799.44
2096	1.84	0.90909	0.	-656.28
2097	1.84	0.72727	0.	-505.15
2098	1.84	0.54545	0.	-349.88
2099	1.84	0.36364	0.	-193.82
2100	1.84	0.18182	0.	-36.177
2101	1.656	5.8182	0.	-30.891
2102	1.656	5.6364	0.	-204.57
2103	1.656	5.4545	0.	-378.68
2104	1.656	5.2727	0.	-551.74
2105	1.656	5.0909	0.	-719.12
2106	1.656	4.9091	0.	-876.
2107	1.656	4.7273	0.	-1018.9
2108	1.656	4.5455	0.	-1145.8
2109	1.656	4.3636	0.	-1256.
2110	1.656	4.1818	0.	-1349.6
2111	1.656	4.	0.	-1427.3
2112	1.656	3.8182	0.	-1489.9
2113	1.656	3.6364	0.	-1538.7
2114	1.656	3.4545	0.	-1574.3
2115	1.656	3.2727	0.	-1597.7
2116	1.656	3.0909	0.	-1609.2
2117	1.656	2.9091	0.	-1609.2
2118	1.656	2.7273	0.	-1597.7
2119	1.656	2.5455	0.	-1574.3
2120	1.656	2.3636	0.	-1538.7
2121	1.656	2.1818	0.	-1489.9
2122	1.656	2.	0.	-1427.3
2123	1.656	1.8182	0.	-1349.6
2124	1.656	1.6364	0.	-1256.
2125	1.656	1.4545	0.	-1145.8
2126	1.656	1.2727	0.	-1018.9
2127	1.656	1.0909	0.	-876.
2128	1.656	0.90909	0.	-719.12
2129	1.656	0.72727	0.	-551.74
2130	1.656	0.54545	0.	-378.68
2131	1.656	0.36364	0.	-204.57
2132	1.656	0.18182	0.	-30.892
2133	1.472	5.8182	0.	-25.486
2134	1.472	5.6364	0.	-217.18
2135	1.472	5.4545	0.	-413.23
2136	1.472	5.2727	0.	-607.51
2137	1.472	5.0909	0.	-793.46
2138	1.472	4.9091	0.	-965.05
2139	1.472	4.7273	0.	-1118.5
2140	1.472	4.5455	0.	-1252.3
2141	1.472	4.3636	0.	-1366.2
2142	1.472	4.1818	0.	-1461.4
2143	1.472	4.	0.	-1539.2
2144	1.472	3.8182	0.	-1601.2
2145	1.472	3.6364	0.	-1648.9
2146	1.472	3.4545	0.	-1683.6
2147	1.472	3.2727	0.	-1706.2
2148	1.472	3.0909	0.	-1717.3
2149	1.472	2.9091	0.	-1717.3
2150	1.472	2.7273	0.	-1706.2
2151	1.472	2.5455	0.	-1683.6
2152	1.472	2.3636	0.	-1648.9
2153	1.472	2.1818	0.	-1601.2
2154	1.472	2.	0.	-1539.2
2155	1.472	1.8182	0.	-1461.4
2156	1.472	1.6364	0.	-1366.2
2157	1.472	1.4545	0.	-1252.3
2158	1.472	1.2727	0.	-1118.5
2159	1.472	1.0909	0.	-965.05
2160	1.472	0.90909	0.	-793.46
2161	1.472	0.72727	0.	-607.51
2162	1.472	0.54545	0.	-413.23
2163	1.472	0.36364	0.	-217.18
2164	1.472	0.18182	0.	-25.486
2165	1.288	5.8182	0.	-20.668
2166	1.288	5.6364	0.	-232.82
2167	1.288	5.4545	0.	-456.22
2168	1.288	5.2727	0.	-676.06
2169	1.288	5.0909	0.	-883.01
2170	1.288	4.9091	0.	-1069.7
2171	1.288	4.7273	0.	-1232.7
2172	1.288	4.5455	0.	-1371.2
2173	1.288	4.3636	0.	-1486.7
2174	1.288	4.1818	0.	-1581.2
2175	1.288	4.	0.	-1657.2
2176	1.288	3.8182	0.	-1717.
2177	1.288	3.6364	0.	-1762.6
2178	1.288	3.4545	0.	-1795.4
2179	1.288	3.2727	0.	-1816.7
2180	1.288	3.0909	0.	-1827.1
2181	1.288	2.9091	0.	-1827.1
2182	1.288	2.7273	0.	-1816.7
2183	1.288	2.5455	0.	-1795.4
2184	1.288	2.3636	0.	-1762.6
2185	1.288	2.1818	0.	-1717.
2186	1.288	2.	0.	-1657.2
2187	1.288	1.8182	0.	-1581.2
2188	1.288	1.6364	0.	-1486.7
2189	1.288	1.4545	0.	-1371.2
2190	1.288	1.2727	0.	-1232.7
2191	1.288	1.0909	0.	-1069.8
2192	1.288	0.90909	0.	-883.01
2193	1.288	0.72727	0.	-676.06
2194	1.288	0.54545	0.	-456.22
2195	1.288	0.36364	0.	-232.82
2196	1.288	0.18182	0.	-20.668
2197	1.104	5.8182	0.	-17.475
2198	1.104	5.6364	0.	-254.17
2199	1.104	5.4545	0.	-512.83
2200	1.104	5.2727	0.	-763.76
2201	1.104	5.0909	0.	-993.77
2202	1.104	4.9091	0.	-1194.7
2203	1.104	4.7273	0.	-1364.4
2204	1.104	4.5455	0.	-1504.4
2205	1.104	4.3636	0.	-1618.1
2206	1.104	4.1818	0.	-1709.2
2207	1.104	4.	0.	-1781.2
2208	1.104	3.8182	0.	-1837.1
2209	1.104	3.6364	0.	-1879.3
2210	1.104	3.4545	0.	-1909.4
2211	1.104	3.2727	0.	-1928.9
2212	1.104	3.0909	0.	-1938.4
2213	1.104	2.9091	0.	-1938.4
2214	1.104	2.7273	0.	-1928.9
2215	1.104	2.5455	0.	-1909.4
2216	1.104	2.3636	0.	-1879.3
2217	1.104	2.1818	0.	-1837.1
2218	1.104	2.	0.	-1781.2
2219	1.104	1.8182	0.	-1709.2
2220	1.104	1.6364	0.	-1618.1
2221	1.104	1.4545	0.	-1504.4
2222	1.104	1.2727	0.	-1364.4
2223	1.104	1.0909	0.	-1194.7
2224	1.104	0.90909	0.	-993.77
2225	1.104	0.72727	0.	-763.76
2226	1.104	0.54545	0.	-512.83
2227	1.104	0.36364	0.	-254.17
2228	1.104	0.18182	0.	-17.475
2229	0.92	5.8182	0.	-14.315
2230	0.92	5.6364	0.	-284.08
2231	0.92	5.4545	0.	-589.
2232	0.92	5.2727	0.	-876.91
2233	0.92	5.0909	0.	-1130.
2234	0.92	4.9091	0.	-1341.3
2235	0.92	4.7273	0.	-1512.4
2236	0.92	4.5455	0.	-1648.7
2237	0.92	4.3636	0.	-1756.3
2238	0.92	4.1818	0.	-1840.7
2239	0.92	4.	0.	-1906.3
2240	0.92	3.8182	0.	-1956.7
2241	0.92	3.6364	0.	-1994.4
2242	0.92	3.4545	0.	-2021.2
2243	0.92	3.2727	0.	-2038.4
2244	0.92	3.0909	0.	-2046.8
2245	0.92	2.9091	0.	-2046.8
2246	0.92	2.7273	0.	-2038.4
2247	0.92	2.5455	0.	-2021.2
2248	0.92	2.3636	0.	-1994.4
2249	0.92	2.1818	0.	-1956.7
2250	0.92	2.	0.	-1906.3
2251	0.92	1.8182	0.	-1840.7
2252	0.92	1.6364	0.	-1756.3
2253	0.92	1.4545	0.	-1648.7
2254	0.92	1.2727	0.	-1512.4
2255	0.92	1.0909	0.	-1341.3
2256	0.92	0.90909	0.	-1130.
2257	0.92	0.72727	0.	-876.91
2258	0.92	0.54545	0.	-589.
2259	0.92	0.36364	0.	-284.08
2260	0.92	0.18182	0.	-14.316
2261	0.736	5.8182	0.	-18.401
2262	0.736	5.6364	0.	-337.77
2263	0.736	5.4545	0.	-707.39
2264	0.736	5.2727	0.	-1037.8
2265	0.736	5.0909	0.	-1309.3
2266	0.736	4.9091	0.	-1522.6
2267	0.736	4.7273	0.	-1686.9
2268	0.736	4.5455	0.	-1813.1
2269	0.736	4.3636	0.	-1910.1
2270	0.736	4.1818	0.	-1984.8
2271	0.736	4.	0.	-2042.3
2272	0.736	3.8182	0.	-2086.
2273	0.736	3.6364	0.	-2118.5
2274	0.736	3.4545	0.	-2141.6
2275	0.736	3.2727	0.	-2156.3
2276	0.736	3.0909	0.	-2163.6
2277	0.736	2.9091	0.	-2163.6
2278	0.736	2.7273	0.	-2156.3
2279	0.736	2.5455	0.	-2141.6
2280	0.736	2.3636	0.	-2118.5
2281	0.736	2.1818	0.	-2086.
2282	0.736	2.	0.	-2042.3
2283	0.736	1.8182	0.	-1984.8
2284	0.736	1.6364	0.	-1910.1
2285	0.736	1.4545	0.	-1813.1
2286	0.736	1.2727	0.	-1686.9
2287	0.736	1.0909	0.	-1522.6
2288	0.736	0.90909	0.	-1309.3
2289	0.736	0.72727	0.	-1037.8
2290	0.736	0.54545	0.	-707.39
2291	0.736	0.36364	0.	-337.77
2292	0.736	0.18182	0.	-18.401
2293	0.552	5.8182	0.	-0.73135
2294	0.552	5.6364	0.	-412.29
2295	0.552	5.4545	0.	-860.67
2296	0.552	5.2727	0.	-1223.9
2297	0.552	5.0909	0.	-1495.1
2298	0.552	4.9091	0.	-1693.
2299	0.552	4.7273	0.	-1838.2
2300	0.552	4.5455	0.	-1946.4
2301	0.552	4.3636	0.	-2028.2
2302	0.552	4.1818	0.	-2090.6
2303	0.552	4.	0.	-2138.3
2304	0.552	3.8182	0.	-2174.5
2305	0.552	3.6364	0.	-2201.4
2306	0.552	3.4545	0.	-2220.5
2307	0.552	3.2727	0.	-2232.7
2308	0.552	3.0909	0.	-2238.7
2309	0.552	2.9091	0.	-2238.7
2310	0.552	2.7273	0.	-2232.7
2311	0.552	2.5455	0.	-2220.5
2312	0.552	2.3636	0.	-2201.4
2313	0.552	2.1818	0.	-2174.5
2314	0.552	2.	0.	-2138.3
2315	0.552	1.8182	0.	-2090.6
2316	0.552	1.6364	0.	-2028.2
2317	0.552	1.4545	0.	-1946.4
2318	0.552	1.2727	0.	-1838.2
2319	0.552	1.0909	0.	-1693.
2320	0.552	0.90909	0.	-1495.1
2321	0.552	0.72727	0.	-1223.9
2322	0.552	0.54545	0.	-860.67
2323	0.552	0.36364	0.	-412.29
2324	0.552	0.18182	0.	-0.73137
2325	0.368	5.8182	0.	-81.691
2326	0.368	5.6364	0.	-660.06
2327	0.368	5.4545	0.	-1219.2
2328	0.368	5.2727	0.	-1592.5
2329	0.368	5.0909	0.	-1840.5
2330	0.368	4.9091	0.	-2010.5
2331	0.368	4.7273	0.	-2132.
2332	0.368	4.5455	0.	-2221.6
2333	0.368	4.3636	0.	-2289.3
2334	0.368	4.1818	0.	-2341.1
2335	0.368	4.	0.	-2380.8
2336	0.368	3.8182	0.	-2411.1
2337	0.368	3.6364	0.	-2433.6
2338	0.368	3.4545	0.	-2449.7
2339	0.368	3.2727	0.	-2459.9
2340	0.368	3.0909	0.	-2465.
2341	0.368	2.9091	0.	-2465.
2342	0.368	2.7273	0.	-2459.9
2343	0.368	2.5455	0.	-2449.7
2344	0.368	2.3636	0.	-2433.6
2345	0.368	2.1818	0.	-2411.1
2346	0.368	2.	0.	-2380.8
2347	0.368	1.8182	0.	-2341.1
2348	0.368	1.6364	0.	-2289.3
2349	0.368	1.4545	0.	-2221.6
2350	0.368	1.2727	0.	-2132.
2351	0.368	1.0909	0.	-2010.5
2352	0.368	0.90909	0.	-1840.5
2353	0.368	0.72727	0.	-1592.5
2354	0.368	0.54545	0.	-1219.2
2355	0.368	0.36364	0.	-660.06
2356	0.368	0.18182	0.	-81.691
2357	0.184	5.8182	0.	0.59792
2358	0.184	5.6364	0.	-821.26
2359	0.184	5.4545	0.	-1257.5
2360	0.184	5.2727	0.	-1507.3
2361	0.184	5.0909	0.	-1664.7
2362	0.184	4.9091	0.	-1773.3
2363	0.184	4.7273	0.	-1852.1
2364	0.184	4.5455	0.	-1911.2
2365	0.184	4.3636	0.	-1956.4
2366	0.184	4.1818	0.	-1991.4
2367	0.184	4.	0.	-2018.4
2368	0.184	3.8182	0.	-2039.1
2369	0.184	3.6364	0.	-2054.6
2370	0.184	3.4545	0.	-2065.7
2371	0.184	3.2727	0.	-2072.8
2372	0.184	3.0909	0.	-2076.2
2373	0.184	2.9091	0.	-2076.2
2374	0.184	2.7273	0.	-2072.8
2375	0.184	2.5455	0.	-2065.7
2376	0.184	2.3636	0.	-2054.6
2377	0.184	2.1818	0.	-2039.1
2378	0.184	2.	0.	-2018.4
2379	0.184	1.8182	0.	-1991.4
2380	0.184	1.6364	0.	-1956.4
2381	0.184	1.4545	0.	-1911.2
2382	0.184	1.2727	0.	-1852.1
2383	0.184	1.0909	0.	-1773.3
2384	0.184	0.90909	0.	-1664.7
2385	0.184	0.72727	0.	-1507.3
2386	0.184	0.54545	0.	-1257.5
2387	0.184	0.36364	0.	-821.26
2388	0.184	0.18182	0.	0.59773
2389	14.149	0.18182	0.	-13.055
2390	14.149	0.36364	0.	-6.5327
2391	14.149	0.54545	0.	-4.9521
2392	14.149	0.72727	0.	-4.3968
2393	14.149	0.90909	0.	-4.4169
2394	14.149	1.0909	0.	-5.5391
2395	14.149	1.2727	0.	-4.9549
2396	14.149	1.4545	0.	-14.631
2397	14.149	1.6364	0.	4.2461
2398	14.149	1.8182	0.	-90.707
2399	14.149	2.	0.	-320.59
2400	14.149	2.1818	0.	-18.353
2401	14.149	2.3636	0.	-10.871
2402	14.149	2.5455	0.	2.5696
2403	14.149	2.7273	0.	-1.837
2404	14.149	2.9091	0.	-0.20655
2405	14.149	3.0909	0.	-0.20654
2406	14.149	3.2727	0.	-1.837
2407	14.149	3.4545	0.	2.5696
2408	14.149	3.6364	0.	-10.871
2409	14.149	3.8182	0.	-18.353
2410	14.149	4.	0.	-320.59
2411	14.149	4.1818	0.	-90.707
2412	14.149	4.3636	0.	4.2461
2413	14.149	4.5455	0.	-14.631
2414	14.149	4.7273	0.	-4.9549
2415	14.149	4.9091	0.	-5.5391
2416	14.149	5.0909	0.	-4.4169
2417	14.149	5.2727	0.	-4.3968
2418	14.149	5.4545	0.	-4.9521
2419	14.149	5.6364	0.	-6.5327
2420	14.149	5.8182	0.	-13.055
2421	14.332	0.18182	0.	-4.7346
2422	14.332	0.36364	0.	-3.6194
2423	14.332	0.54545	0.	-2.1619
2424	14.332	0.72727	0.	-1.3233
2425	14.332	0.90909	0.	-1.0374
2426	14.332	1.0909	0.	-0.88359
2427	14.332	1.2727	0.	-1.1557
2428	14.332	1.4545	0.	-1.9746
2429	14.332	1.6364	0.	-0.60937
2430	14.332	1.8182	0.	3.4313
2431	14.332	2.	0.	45.834
2432	14.332	2.1818	0.	19.59
2433	14.332	2.3636	0.	-6.8697
2434	14.332	2.5455	0.	-8.4301e-002
2435	14.332	2.7273	0.	-9.4184e-002
2436	14.332	2.9091	0.	2.3223e-002
2437	14.332	3.0909	0.	2.3224e-002
2438	14.332	3.2727	0.	-9.4183e-002
2439	14.332	3.4545	0.	-8.4299e-002
2440	14.332	3.6364	0.	-6.8697
2441	14.332	3.8182	0.	19.59
2442	14.332	4.	0.	45.834
2443	14.332	4.1818	0.	3.4314
2444	14.332	4.3636	0.	-0.60936
2445	14.332	4.5455	0.	-1.9746
2446	14.332	4.7273	0.	-1.1557
2447	14.332	4.9091	0.	-0.88359
2448	14.332	5.0909	0.	-1.0374
2449	14.332	5.2727	0.	-1.3233
2450	14.332	5.4545	0.	-2.1619
2451	14.332	5.6364	0.	-3.6193
2452	14.332	5.8182	0.	-4.7346
2453	14.514	0.18182	0.	-2.3753
2454	14.514	0.36364	0.	-2.6736
2455	14.514	0.54545	0.	-2.3786
2456	14.514	0.72727	0.	-2.0663
2457	14.514	0.90909	0.	-1.9879
2458	14.514	1.0909	0.	-2.2232
2459	14.514	1.2727	0.	-2.561
2460	14.514	1.4545	0.	-2.9638
2461	14.514	1.6364	0.	-7.1823
2462	14.514	1.8182	0.	-5.9091
2463	14.514	2.	0.	-10.716
2464	14.514	2.1818	0.	-4.1519
2465	14.514	2.3636	0.	-0.76694
2466	14.514	2.5455	0.	-0.95463
2467	14.514	2.7273	0.	0.34258
2468	14.514	2.9091	0.	0.58453
2469	14.514	3.0909	0.	0.58453
2470	14.514	3.2727	0.	0.34259
2471	14.514	3.4545	0.	-0.95462
2472	14.514	3.6364	0.	-0.7669
2473	14.514	3.8182	0.	-4.1519
2474	14.514	4.	0.	-10.716
2475	14.514	4.1818	0.	-5.9091
2476	14.514	4.3636	0.	-7.1823
2477	14.514	4.5455	0.	-2.9638
2478	14.514	4.7273	0.	-2.561
2479	14.514	4.9091	0.	-2.2232
2480	14.514	5.0909	0.	-1.9879
2481	14.514	5.2727	0.	-2.0663
2482	14.514	5.4545	0.	-2.3786
2483	14.514	5.6364	0.	-2.6736
2484	14.514	5.8182	0.	-2.3753
2485	14.696	0.18182	0.	-0.90099
2486	14.696	0.36364	0.	-1.3582
2487	14.696	0.54545	0.	-1.5834
2488	14.696	0.72727	0.	-1.6356
2489	14.696	0.90909	0.	-1.7148
2490	14.696	1.0909	0.	-1.8798
2491	14.696	1.2727	0.	-2.2842
2492	14.696	1.4545	0.	-2.9743
2493	14.696	1.6364	0.	-3.4238
2494	14.696	1.8182	0.	-8.0416
2495	14.696	2.	0.	-45.77
2496	14.696	2.1818	0.	-85.724
2497	14.696	2.3636	0.	-86.72
2498	14.696	2.5455	0.	-64.072
2499	14.696	2.7273	0.	-39.948
2500	14.696	2.9091	0.	-25.894
2501	14.696	3.0909	0.	-25.894
2502	14.696	3.2727	0.	-39.948
2503	14.696	3.4545	0.	-64.072
2504	14.696	3.6364	0.	-86.72
2505	14.696	3.8182	0.	-85.723
2506	14.696	4.	0.	-45.77
2507	14.696	4.1818	0.	-8.0415
2508	14.696	4.3636	0.	-3.4237
2509	14.696	4.5455	0.	-2.9743
2510	14.696	4.7273	0.	-2.2842
2511	14.696	4.9091	0.	-1.8798
2512	14.696	5.0909	0.	-1.7148
2513	14.696	5.2727	0.	-1.6356
2514	14.696	5.4545	0.	-1.5834
2515	14.696	5.6364	0.	-1.3582
2516	14.696	5.8182	0.	-0.90099
2517	14.879	0.18182	0.	-0.36761
2518	14.879	0.36364	0.	-0.8073
2519	14.879	0.54545	0.	-1.1174
2520	14.879	0.72727	0.	-1.3902
2521	14.879	0.90909	0.	-1.6593
2522	14.879	1.0909	0.	-2.0237
2523	14.879	1.2727	0.	-2.6438
2524	14.879	1.4545	0.	-4.1746
2525	14.879	1.6364	0.	-11.81
2526	14.879	1.8182	0.	-54.103
2527	14.879	2.	0.	-108.02
2528	14.879	2.1818	0.	-143.34
2529	14.879	2.3636	0.	-153.34
2530	14.879	2.5455	0.	-145.85
2531	14.879	2.7273	0.	-133.16
2532	14.879	2.9091	0.	-124.68
2533	14.879	3.0909	0.	-124.68
2534	14.879	3.2727	0.	-133.16
2535	14.879	3.4545	0.	-145.85
2536	14.879	3.6364	0.	-153.34
2537	14.879	3.8182	0.	-143.34
2538	14.879	4.	0.	-108.02
2539	14.879	4.1818	0.	-54.102
2540	14.879	4.3636	0.	-11.81
2541	14.879	4.5455	0.	-4.1746
2542	14.879	4.7273	0.	-2.6438
2543	14.879	4.9091	0.	-2.0237
2544	14.879	5.0909	0.	-1.6592
2545	14.879	5.2727	0.	-1.3902
2546	14.879	5.4545	0.	-1.1174
2547	14.879	5.6364	0.	-0.80729
2548	14.879	5.8182	0.	-0.36761
2549	15.061	0.18182	0.	-0.11861
2550	15.061	0.36364	0.	-0.50995
2551	15.061	0.54545	0.	-0.77563
2552	15.061	0.72727	0.	-1.1313
2553	15.061	0.90909	0.	-1.5698
2554	15.061	1.0909	0.	-2.2972
2555	15.061	1.2727	0.	-4.1395
2556	15.061	1.4545	0.	-13.862
2557	15.061	1.6364	0.	-49.682
2558	15.061	1.8182	0.	-97.725
2559	15.061	2.	0.	-142.96
2560	15.061	2.1818	0.	-175.45
2561	15.061	2.3636	0.	-191.53
2562	15.061	2.5455	0.	-194.48
2563	15.061	2.7273	0.	-191.17
2564	15.061	2.9091	0.	-187.81
2565	15.061	3.0909	0.	-187.81
2566	15.061	3.2727	0.	-191.17
2567	15.061	3.4545	0.	-194.48
2568	15.061	3.6364	0.	-191.53
2569	15.061	3.8182	0.	-175.45
2570	15.061	4.	0.	-142.96
2571	15.061	4.1818	0.	-97.724
2572	15.061	4.3636	0.	-49.682
2573	15.061	4.5455	0.	-13.861
2574	15.061	4.7273	0.	-4.1395
2575	15.061	4.9091	0.	-2.2972
2576	15.061	5.0909	0.	-1.5698
2577	15.061	5.2727	0.	-1.1313
2578	15.061	5.4545	0.	-0.77563
2579	15.061	5.6364	0.	-0.50995
2580	15.061	5.8182	0.	-0.11861
2581	15.244	0.18182	0.	-2.5003e-002
2582	15.244	0.36364	0.	-0.35809
2583	15.244	0.54545	0.	-0.56429
2584	15.244	0.72727	0.	-0.93967
2585	15.244	0.90909	0.	-1.5562
2586	15.244	1.0909	0.	-3.1341
2587	15.244	1.2727	0.	-11.421
2588	15.244	1.4545	0.	-39.472
2589	15.244	1.6364	0.	-78.724
2590	15.244	1.8182	0.	-121.44
2591	15.244	2.	0.	-160.96
2592	15.244	2.1818	0.	-191.63
2593	15.244	2.3636	0.	-210.99
2594	15.244	2.5455	0.	-220.36
2595	15.244	2.7273	0.	-223.36
2596	15.244	2.9091	0.	-223.75
2597	15.244	3.0909	0.	-223.75
2598	15.244	3.2727	0.	-223.36
2599	15.244	3.4545	0.	-220.36
2600	15.244	3.6364	0.	-210.99
2601	15.244	3.8182	0.	-191.63
2602	15.244	4.	0.	-160.96
2603	15.244	4.1818	0.	-121.44
2604	15.244	4.3636	0.	-78.724
2605	15.244	4.5455	0.	-39.472
2606	15.244	4.7273	0.	-11.421
2607	15.244	4.9091	0.	-3.134
2608	15.244	5.0909	0.	-1.5562
2609	15.244	5.2727	0.	-0.93967
2610	15.244	5.4545	0.	-0.56429
2611	15.244	5.6364	0.	-0.35809
2612	15.244	5.8182	0.	-2.5001e-002
2613	15.426	0.18182	0.	7.9757e-003
2614	15.426	0.36364	0.	-0.26621
2615	15.426	0.54545	0.	-0.42446
2616	15.426	0.72727	0.	-0.80059
2617	15.426	0.90909	0.	-1.6491
2618	15.426	1.0909	0.	-5.7813
2619	15.426	1.2727	0.	-25.811
2620	15.426	1.4545	0.	-57.448
2621	15.426	1.6364	0.	-94.338
2622	15.426	1.8182	0.	-132.63
2623	15.426	2.	0.	-168.13
2624	15.426	2.1818	0.	-197.21
2625	15.426	2.3636	0.	-218.06
2626	15.426	2.5455	0.	-230.99
2627	15.426	2.7273	0.	-237.78
2628	15.426	2.9091	0.	-240.51
2629	15.426	3.0909	0.	-240.51
2630	15.426	3.2727	0.	-237.78
2631	15.426	3.4545	0.	-230.99
2632	15.426	3.6364	0.	-218.06
2633	15.426	3.8182	0.	-197.21
2634	15.426	4.	0.	-168.13
2635	15.426	4.1818	0.	-132.63
2636	15.426	4.3636	0.	-94.338
2637	15.426	4.5455	0.	-57.447
2638	15.426	4.7273	0.	-25.811
2639	15.426	4.9091	0.	-5.7812
2640	15.426	5.0909	0.	-1.6491
2641	15.426	5.2727	0.	-0.80059
2642	15.426	5.4545	0.	-0.42446
2643	15.426	5.6364	0.	-0.26621
2644	15.426	5.8182	0.	7.9772e-003
2645	15.608	0.18182	0.	1.4432e-002
2646	15.608	0.36364	0.	-0.20586
2647	15.608	0.54545	0.	-0.33235
2648	15.608	0.72727	0.	-0.71423
2649	15.608	0.90909	0.	-1.9924
2650	15.608	1.0909	0.	-12.094
2651	15.608	1.2727	0.	-36.782
2652	15.608	1.4545	0.	-67.565
2653	15.608	1.6364	0.	-101.62
2654	15.608	1.8182	0.	-136.24
2655	15.608	2.	0.	-168.52
2656	15.608	2.1818	0.	-195.93
2657	15.608	2.3636	0.	-217.02
2658	15.608	2.5455	0.	-231.58
2659	15.608	2.7273	0.	-240.36
2660	15.608	2.9091	0.	-244.39
2661	15.608	3.0909	0.	-244.39
2662	15.608	3.2727	0.	-240.36
2663	15.608	3.4545	0.	-231.58
2664	15.608	3.6364	0.	-217.02
2665	15.608	3.8182	0.	-195.93
2666	15.608	4.	0.	-168.52
2667	15.608	4.1818	0.	-136.24
2668	15.608	4.3636	0.	-101.62
2669	15.608	4.5455	0.	-67.565
2670	15.608	4.7273	0.	-36.782
2671	15.608	4.9091	0.	-12.093
2672	15.608	5.0909	0.	-1.9924
2673	15.608	5.2727	0.	-0.71423
2674	15.608	5.4545	0.	-0.33235
2675	15.608	5.6364	0.	-0.20586
2676	15.608	5.8182	0.	1.4431e-002
2677	15.791	0.18182	0.	1.1761e-002
2678	15.791	0.36364	0.	-0.16236
2679	15.791	0.54545	0.	-0.2714
2680	15.791	0.72727	0.	-0.68269
2681	15.791	0.90909	0.	-3.0852
2682	15.791	1.0909	0.	-18.977
2683	15.791	1.2727	0.	-43.75
2684	15.791	1.4545	0.	-72.666
2685	15.791	1.6364	0.	-103.85
2686	15.791	1.8182	0.	-135.23
2687	15.791	2.	0.	-164.65
2688	15.791	2.1818	0.	-190.22
2689	15.791	2.3636	0.	-210.73
2690	15.791	2.5455	0.	-225.69
2691	15.791	2.7273	0.	-235.28
2692	15.791	2.9091	0.	-239.91
2693	15.791	3.0909	0.	-239.91
2694	15.791	3.2727	0.	-235.28
2695	15.791	3.4545	0.	-225.69
2696	15.791	3.6364	0.	-210.73
2697	15.791	3.8182	0.	-190.22
2698	15.791	4.	0.	-164.65
2699	15.791	4.1818	0.	-135.23
2700	15.791	4.3636	0.	-103.85
2701	15.791	4.5455	0.	-72.666
2702	15.791	4.7273	0.	-43.75
2703	15.791	4.9091	0.	-18.977
2704	15.791	5.0909	0.	-3.0851
2705	15.791	5.2727	0.	-0.68268
2706	15.791	5.4545	0.	-0.27139
2707	15.791	5.6364	0.	-0.16236
2708	15.791	5.8182	0.	1.1759e-002
2709	15.973	0.18182	0.	6.7011e-003
2710	15.973	0.36364	0.	-0.12948
2711	15.973	0.54545	0.	-0.23316
2712	15.973	0.72727	0.	-0.73117
2713	15.973	0.90909	0.	-6.0644
2714	15.973	1.0909	0.	-24.387
2715	15.973	1.2727	0.	-47.925
2716	15.973	1.4545	0.	-74.626
2717	15.973	1.6364	0.	-103.
2718	15.973	1.8182	0.	-131.41
2719	15.973	2.	0.	-158.15
2720	15.973	2.1818	0.	-181.76
2721	15.973	2.3636	0.	-201.16
2722	15.973	2.5455	0.	-215.77
2723	15.973	2.7273	0.	-225.43
2724	15.973	2.9091	0.	-230.2
2725	15.973	3.0909	0.	-230.2
2726	15.973	3.2727	0.	-225.43
2727	15.973	3.4545	0.	-215.77
2728	15.973	3.6364	0.	-201.16
2729	15.973	3.8182	0.	-181.76
2730	15.973	4.	0.	-158.15
2731	15.973	4.1818	0.	-131.41
2732	15.973	4.3636	0.	-103.
2733	15.973	4.5455	0.	-74.626
2734	15.973	4.7273	0.	-47.925
2735	15.973	4.9091	0.	-24.387
2736	15.973	5.0909	0.	-6.0643
2737	15.973	5.2727	0.	-0.73117
2738	15.973	5.4545	0.	-0.23316
2739	15.973	5.6364	0.	-0.12948
2740	15.973	5.8182	0.	6.7017e-003
2741	16.156	0.18182	0.	1.7931e-003
2742	16.156	0.36364	0.	-0.10403
2743	16.156	0.54545	0.	-0.2139
2744	16.156	0.72727	0.	-0.9715
2745	16.156	0.90909	0.	-10.225
2746	16.156	1.0909	0.	-28.318
2747	16.156	1.2727	0.	-50.185
2748	16.156	1.4545	0.	-74.579
2749	16.156	1.6364	0.	-100.26
2750	16.156	1.8182	0.	-125.89
2751	16.156	2.	0.	-150.1
2752	16.156	2.1818	0.	-171.67
2753	16.156	2.3636	0.	-189.67
2754	16.156	2.5455	0.	-203.47
2755	16.156	2.7273	0.	-212.76
2756	16.156	2.9091	0.	-217.41
2757	16.156	3.0909	0.	-217.41
2758	16.156	3.2727	0.	-212.76
2759	16.156	3.4545	0.	-203.47
2760	16.156	3.6364	0.	-189.67
2761	16.156	3.8182	0.	-171.67
2762	16.156	4.	0.	-150.1
2763	16.156	4.1818	0.	-125.89
2764	16.156	4.3636	0.	-100.26
2765	16.156	4.5455	0.	-74.579
2766	16.156	4.7273	0.	-50.185
2767	16.156	4.9091	0.	-28.318
2768	16.156	5.0909	0.	-10.225
2769	16.156	5.2727	0.	-0.97148
2770	16.156	5.4545	0.	-0.2139
2771	16.156	5.6364	0.	-0.10403
2772	16.156	5.8182	0.	1.7941e-003
2773	16.338	0.18182	0.	-2.3709e-003
2774	16.338	0.36364	0.	-8.4322e-002
2775	16.338	0.54545	0.	-0.21548
2776	16.338	0.72727	0.	-1.9699
2777	16.338	0.90909	0.	-13.979
2778	16.338	1.0909	0.	-31.019
2779	16.338	1.2727	0.	-51.083
2780	16.338	1.4545	0.	-73.206
2781	16.338	1.6364	0.	-96.342
2782	16.338	1.8182	0.	-119.37
2783	16.338	2.	0.	-141.16
2784	16.338	2.1818	0.	-160.71
2785	16.338	2.3636	0.	-177.16
2786	16.338	2.5455	0.	-189.91
2787	16.338	2.7273	0.	-198.58
2788	16.338	2.9091	0.	-202.96
2789	16.338	3.0909	0.	-202.96
2790	16.338	3.2727	0.	-198.58
2791	16.338	3.4545	0.	-189.91
2792	16.338	3.6364	0.	-177.16
2793	16.338	3.8182	0.	-160.71
2794	16.338	4.	0.	-141.16
2795	16.338	4.1818	0.	-119.37
2796	16.338	4.3636	0.	-96.342
2797	16.338	4.5455	0.	-73.206
2798	16.338	4.7273	0.	-51.083
2799	16.338	4.9091	0.	-31.019
2800	16.338	5.0909	0.	-13.978
2801	16.338	5.2727	0.	-1.9699
2802	16.338	5.4545	0.	-0.21548
2803	16.338	5.6364	0.	-8.432e-002
2804	16.338	5.8182	0.	-2.3726e-003
2805	16.521	0.18182	0.	-5.8924e-003
2806	16.521	0.36364	0.	-6.9358e-002
2807	16.521	0.54545	0.	-0.25281
2808	16.521	0.72727	0.	-4.51
2809	16.521	0.90909	0.	-16.917
2810	16.521	1.0909	0.	-32.698
2811	16.521	1.2727	0.	-50.967
2812	16.521	1.4545	0.	-70.923
2813	16.521	1.6364	0.	-91.676
2814	16.521	1.8182	0.	-112.28
2815	16.521	2.	0.	-131.8
2816	16.521	2.1818	0.	-149.37
2817	16.521	2.3636	0.	-164.24
2818	16.521	2.5455	0.	-175.84
2819	16.521	2.7273	0.	-183.78
2820	16.521	2.9091	0.	-187.8
2821	16.521	3.0909	0.	-187.8
2822	16.521	3.2727	0.	-183.78
2823	16.521	3.4545	0.	-175.84
2824	16.521	3.6364	0.	-164.24
2825	16.521	3.8182	0.	-149.37
2826	16.521	4.	0.	-131.8
2827	16.521	4.1818	0.	-112.28
2828	16.521	4.3636	0.	-91.676
2829	16.521	4.5455	0.	-70.922
2830	16.521	4.7273	0.	-50.967
2831	16.521	4.9091	0.	-32.698
2832	16.521	5.0909	0.	-16.917
2833	16.521	5.2727	0.	-4.5099
2834	16.521	5.4545	0.	-0.25281
2835	16.521	5.6364	0.	-6.9358e-002
2836	16.521	5.8182	0.	-5.8925e-003
2837	16.703	0.18182	0.	-8.9314e-003
2838	16.703	0.36364	0.	-5.84e-002
2839	16.703	0.54545	0.	-0.40325
2840	16.703	0.72727	0.	-7.1957
2841	16.703	0.90909	0.	-19.019
2842	16.703	1.0909	0.	-33.515
2843	16.703	1.2727	0.	-50.065
2844	16.703	1.4545	0.	-67.992
2845	16.703	1.6364	0.	-86.541
2846	16.703	1.8182	0.	-104.91
2847	16.703	2.	0.	-122.32
2848	16.703	2.1818	0.	-138.
2849	16.703	2.3636	0.	-151.32
2850	16.703	2.5455	0.	-161.75
2851	16.703	2.7273	0.	-168.92
2852	16.703	2.9091	0.	-172.56
2853	16.703	3.0909	0.	-172.56
2854	16.703	3.2727	0.	-168.92
2855	16.703	3.4545	0.	-161.75
2856	16.703	3.6364	0.	-151.32
2857	16.703	3.8182	0.	-138.
2858	16.703	4.	0.	-122.32
2859	16.703	4.1818	0.	-104.91
2860	16.703	4.3636	0.	-86.541
2861	16.703	4.5455	0.	-67.992
2862	16.703	4.7273	0.	-50.065
2863	16.703	4.9091	0.	-33.515
2864	16.703	5.0909	0.	-19.019
2865	16.703	5.2727	0.	-7.1956
2866	16.703	5.4545	0.	-0.40325
2867	16.703	5.6364	0.	-5.84e-002
2868	16.703	5.8182	0.	-8.9304e-003
2869	16.885	0.18182	0.	-1.1505e-002
2870	16.885	0.36364	0.	-5.076e-002
2871	16.885	0.54545	0.	-1.1376
2872	16.885	0.72727	0.	-9.2764
2873	16.885	0.90909	0.	-20.344
2874	16.885	1.0909	0.	-33.596
2875	16.885	1.2727	0.	-48.537
2876	16.885	1.4545	0.	-64.59
2877	16.885	1.6364	0.	-81.118
2878	16.885	1.8182	0.	-97.443
2879	16.885	2.	0.	-112.89
2880	16.885	2.1818	0.	-126.82
2881	16.885	2.3636	0.	-138.67
2882	16.885	2.5455	0.	-147.97
2883	16.885	2.7273	0.	-154.36
2884	16.885	2.9091	0.	-157.62
2885	16.885	3.0909	0.	-157.62
2886	16.885	3.2727	0.	-154.36
2887	16.885	3.4545	0.	-147.97
2888	16.885	3.6364	0.	-138.67
2889	16.885	3.8182	0.	-126.82
2890	16.885	4.	0.	-112.89
2891	16.885	4.1818	0.	-97.443
2892	16.885	4.3636	0.	-81.118
2893	16.885	4.5455	0.	-64.59
2894	16.885	4.7273	0.	-48.536
2895	16.885	4.9091	0.	-33.596
2896	16.885	5.0909	0.	-20.344
2897	16.885	5.2727	0.	-9.2763
2898	16.885	5.4545	0.	-1.1375
2899	16.885	5.6364	0.	-5.076e-002
2900	16.885	5.8182	0.	-1.1506e-002
2901	17.068	0.18182	0.	-1.3566e-002
2902	17.068	0.36364	0.	-4.5596e-002
2903	17.068	0.54545	0.	-2.5518
2904	17.068	0.72727	0.	-10.682
2905	17.068	0.90909	0.	-20.973
2906	17.068	1.0909	0.	-33.05
2907	17.068	1.2727	0.	-46.501
2908	17.068	1.4545	0.	-60.84
2909	17.068	1.6364	0.	-75.527
2910	17.068	1.8182	0.	-89.989
2911	17.068	2.	0.	-103.65
2912	17.068	2.1818	0.	-115.97
2913	17.068	2.3636	0.	-126.45
2914	17.068	2.5455	0.	-134.68
2915	17.068	2.7273	0.	-140.35
2916	17.068	2.9091	0.	-143.24
2917	17.068	3.0909	0.	-143.24
2918	17.068	3.2727	0.	-140.35
2919	17.068	3.4545	0.	-134.68
2920	17.068	3.6364	0.	-126.45
2921	17.068	3.8182	0.	-115.97
2922	17.068	4.	0.	-103.65
2923	17.068	4.1818	0.	-89.989
2924	17.068	4.3636	0.	-75.527
2925	17.068	4.5455	0.	-60.84
2926	17.068	4.7273	0.	-46.501
2927	17.068	4.9091	0.	-33.05
2928	17.068	5.0909	0.	-20.973
2929	17.068	5.2727	0.	-10.682
2930	17.068	5.4545	0.	-2.5518
2931	17.068	5.6364	0.	-4.5594e-002
2932	17.068	5.8182	0.	-1.3567e-002
2933	17.25	0.18182	0.	-1.4911e-002
2934	17.25	0.36364	0.	-4.1141e-002
2935	17.25	0.54545	0.	-3.6524
2936	17.25	0.72727	0.	-11.461
2937	17.25	0.90909	0.	-20.991
2938	17.25	1.0909	0.	-31.97
2939	17.25	1.2727	0.	-44.054
2940	17.25	1.4545	0.	-56.835
2941	17.25	1.6364	0.	-69.856
2942	17.25	1.8182	0.	-82.633
2943	17.25	2.	0.	-94.677
2944	17.25	2.1818	0.	-105.52
2945	17.25	2.3636	0.	-114.75
2946	17.25	2.5455	0.	-122.
2947	17.25	2.7273	0.	-126.99
2948	17.25	2.9091	0.	-129.54
2949	17.25	3.0909	0.	-129.54
2950	17.25	3.2727	0.	-126.99
2951	17.25	3.4545	0.	-122.
2952	17.25	3.6364	0.	-114.75
2953	17.25	3.8182	0.	-105.52
2954	17.25	4.	0.	-94.677
2955	17.25	4.1818	0.	-82.632
2956	17.25	4.3636	0.	-69.856
2957	17.25	4.5455	0.	-56.835
2958	17.25	4.7273	0.	-44.054
2959	17.25	4.9091	0.	-31.97
2960	17.25	5.0909	0.	-20.991
2961	17.25	5.2727	0.	-11.461
2962	17.25	5.4545	0.	-3.6524
2963	17.25	5.6364	0.	-4.1142e-002
2964	17.25	5.8182	0.	-1.4909e-002
2965	17.433	0.18182	0.	-1.5329e-002
2966	17.433	0.36364	0.	-3.4055e-002
2967	17.433	0.54545	0.	-4.2666
2968	17.433	0.72727	0.	-11.685
2969	17.433	0.90909	0.	-20.482
2970	17.433	1.0909	0.	-30.441
2971	17.433	1.2727	0.	-41.276
2972	17.433	1.4545	0.	-52.647
2973	17.433	1.6364	0.	-64.167
2974	17.433	1.8182	0.	-75.427
2975	17.433	2.	0.	-86.016
2976	17.433	2.1818	0.	-95.537
2977	17.433	2.3636	0.	-103.63
2978	17.433	2.5455	0.	-109.99
2979	17.433	2.7273	0.	-114.36
2980	17.433	2.9091	0.	-116.59
2981	17.433	3.0909	0.	-116.59
2982	17.433	3.2727	0.	-114.36
2983	17.433	3.4545	0.	-109.99
2984	17.433	3.6364	0.	-103.63
2985	17.433	3.8182	0.	-95.537
2986	17.433	4.	0.	-86.016
2987	17.433	4.1818	0.	-75.427
2988	17.433	4.3636	0.	-64.166
2989	17.433	4.5455	0.	-52.647
2990	17.433	4.7273	0.	-41.276
2991	17.433	4.9091	0.	-30.441
2992	17.433	5.0909	0.	-20.482
2993	17.433	5.2727	0.	-11.685
2994	17.433	5.4545	0.	-4.2666
2995	17.433	5.6364	0.	-3.4054e-002
2996	17.433	5.8182	0.	-1.5328e-002
2997	17.615	0.18182	0.	-1.486e-002
2998	17.615	0.36364	0.	-2.1213e-002
2999	17.615	0.54545	0.	-4.4318
3000	17.615	0.72727	0.	-11.431
3001	17.615	0.90909	0.	-19.525
3002	17.615	1.0909	0.	-28.539
3003	17.615	1.2727	0.	-38.237
3004	17.615	1.4545	0.	-48.334
3005	17.615	1.6364	0.	-58.505
3006	17.615	1.8182	0.	-68.407
3007	17.615	2.	0.	-77.692
3008	17.615	2.1818	0.	-86.025
3009	17.615	2.3636	0.	-93.1
3010	17.615	2.5455	0.	-98.652
3011	17.615	2.7273	0.	-102.47
3012	17.615	2.9091	0.	-104.42
3013	17.615	3.0909	0.	-104.42
3014	17.615	3.2727	0.	-102.47
3015	17.615	3.4545	0.	-98.652
3016	17.615	3.6364	0.	-93.1
3017	17.615	3.8182	0.	-86.025
3018	17.615	4.	0.	-77.692
3019	17.615	4.1818	0.	-68.407
3020	17.615	4.3636	0.	-58.505
3021	17.615	4.5455	0.	-48.334
3022	17.615	4.7273	0.	-38.237
3023	17.615	4.9091	0.	-28.539
3024	17.615	5.0909	0.	-19.525
3025	17.615	5.2727	0.	-11.431
3026	17.615	5.4545	0.	-4.4318
3027	17.615	5.6364	0.	-2.1216e-002
3028	17.615	5.8182	0.	-1.486e-002
3029	17.798	0.18182	0.	-1.3702e-002
3030	17.798	0.36364	0.	-5.277e-003
3031	17.798	0.54545	0.	-4.209
3032	17.798	0.72727	0.	-10.772
3033	17.798	0.90909	0.	-18.194
3034	17.798	1.0909	0.	-26.334
3035	17.798	1.2727	0.	-34.996
3036	17.798	1.4545	0.	-43.943
3037	17.798	1.6364	0.	-52.905
3038	17.798	1.8182	0.	-61.593
3039	17.798	2.	0.	-69.715
3040	17.798	2.1818	0.	-76.988
3041	17.798	2.3636	0.	-83.153
3042	17.798	2.5455	0.	-87.987
3043	17.798	2.7273	0.	-91.313
3044	17.798	2.9091	0.	-93.007
3045	17.798	3.0909	0.	-93.007
3046	17.798	3.2727	0.	-91.313
3047	17.798	3.4545	0.	-87.987
3048	17.798	3.6364	0.	-83.153
3049	17.798	3.8182	0.	-76.988
3050	17.798	4.	0.	-69.715
3051	17.798	4.1818	0.	-61.593
3052	17.798	4.3636	0.	-52.905
3053	17.798	4.5455	0.	-43.943
3054	17.798	4.7273	0.	-34.996
3055	17.798	4.9091	0.	-26.334
3056	17.798	5.0909	0.	-18.194
3057	17.798	5.2727	0.	-10.772
3058	17.798	5.4545	0.	-4.209
3059	17.798	5.6364	0.	-5.2759e-003
3060	17.798	5.8182	0.	-1.3701e-002
3061	17.98	0.18182	0.	-1.2097e-002
3062	17.98	0.36364	0.	6.7817e-003
3063	17.98	0.54545	0.	-3.659
3064	17.98	0.72727	0.	-9.7758
3065	17.98	0.90909	0.	-16.555
3066	17.98	1.0909	0.	-23.885
3067	17.98	1.2727	0.	-31.603
3068	17.98	1.4545	0.	-39.514
3069	17.98	1.6364	0.	-47.391
3070	17.98	1.8182	0.	-54.995
3071	17.98	2.	0.	-62.081
3072	17.98	2.1818	0.	-68.412
3073	17.98	2.3636	0.	-73.769
3074	17.98	2.5455	0.	-77.964
3075	17.98	2.7273	0.	-80.848
3076	17.98	2.9091	0.	-82.317
3077	17.98	3.0909	0.	-82.317
3078	17.98	3.2727	0.	-80.848
3079	17.98	3.4545	0.	-77.964
3080	17.98	3.6364	0.	-73.769
3081	17.98	3.8182	0.	-68.412
3082	17.98	4.	0.	-62.081
3083	17.98	4.1818	0.	-54.995
3084	17.98	4.3636	0.	-47.391
3085	17.98	4.5455	0.	-39.514
3086	17.98	4.7273	0.	-31.603
3087	17.98	4.9091	0.	-23.885
3088	17.98	5.0909	0.	-16.555
3089	17.98	5.2727	0.	-9.7758
3090	17.98	5.4545	0.	-3.659
3091	17.98	5.6364	0.	6.7828e-003
3092	17.98	5.8182	0.	-1.2096e-002
3093	18.162	0.18182	0.	-1.0319e-002
3094	18.162	0.36364	0.	1.2659e-002
3095	18.162	0.54545	0.	-2.8381
3096	18.162	0.72727	0.	-8.5023
3097	18.162	0.90909	0.	-14.668
3098	18.162	1.0909	0.	-21.245
3099	18.162	1.2727	0.	-28.102
3100	18.162	1.4545	0.	-35.076
3101	18.162	1.6364	0.	-41.981
3102	18.162	1.8182	0.	-48.618
3103	18.162	2.	0.	-54.782
3104	18.162	2.1818	0.	-60.275
3105	18.162	2.3636	0.	-64.915
3106	18.162	2.5455	0.	-68.544
3107	18.162	2.7273	0.	-71.036
3108	18.162	2.9091	0.	-72.305
3109	18.162	3.0909	0.	-72.305
3110	18.162	3.2727	0.	-71.036
3111	18.162	3.4545	0.	-68.544
3112	18.162	3.6364	0.	-64.915
3113	18.162	3.8182	0.	-60.275
3114	18.162	4.	0.	-54.782
3115	18.162	4.1818	0.	-48.618
3116	18.162	4.3636	0.	-41.981
3117	18.162	4.5455	0.	-35.076
3118	18.162	4.7273	0.	-28.102
3119	18.162	4.9091	0.	-21.245
3120	18.162	5.0909	0.	-14.668
3121	18.162	5.2727	0.	-8.5023
3122	18.162	5.4545	0.	-2.8381
3123	18.162	5.6364	0.	1.2661e-002
3124	18.162	5.8182	0.	-1.0317e-002
3125	18.345	0.18182	0.	-8.5678e-003
3126	18.345	0.36364	0.	1.4287e-002
3127	18.345	0.54545	0.	-1.7959
3128	18.345	0.72727	0.	-7.0047
3129	18.345	0.90909	0.	-12.583
3130	18.345	1.0909	0.	-18.459
3131	18.345	1.2727	0.	-24.527
3132	18.345	1.4545	0.	-30.654
3133	18.345	1.6364	0.	-36.685
3134	18.345	1.8182	0.	-42.457
3135	18.345	2.	0.	-47.799
3136	18.345	2.1818	0.	-52.549
3137	18.345	2.3636	0.	-56.553
3138	18.345	2.5455	0.	-59.68
3139	18.345	2.7273	0.	-61.826
3140	18.345	2.9091	0.	-62.918
3141	18.345	3.0909	0.	-62.918
3142	18.345	3.2727	0.	-61.826
3143	18.345	3.4545	0.	-59.68
3144	18.345	3.6364	0.	-56.553
3145	18.345	3.8182	0.	-52.549
3146	18.345	4.	0.	-47.799
3147	18.345	4.1818	0.	-42.457
3148	18.345	4.3636	0.	-36.685
3149	18.345	4.5455	0.	-30.654
3150	18.345	4.7273	0.	-24.527
3151	18.345	4.9091	0.	-18.459
3152	18.345	5.0909	0.	-12.583
3153	18.345	5.2727	0.	-7.0047
3154	18.345	5.4545	0.	-1.7959
3155	18.345	5.6364	0.	1.4287e-002
3156	18.345	5.8182	0.	-8.5677e-003
3157	18.527	0.18182	0.	-6.9985e-003
3158	18.527	0.36364	0.	1.3654e-002
3159	18.527	0.54545	0.	-0.57581
3160	18.527	0.72727	0.	-5.3286
3161	18.527	0.90909	0.	-10.343
3162	18.527	1.0909	0.	-15.565
3163	18.527	1.2727	0.	-20.908
3164	18.527	1.4545	0.	-26.264
3165	18.527	1.6364	0.	-31.508
3166	18.527	1.8182	0.	-36.505
3167	18.527	2.	0.	-41.115
3168	18.527	2.1818	0.	-45.202
3169	18.527	2.3636	0.	-48.642
3170	18.527	2.5455	0.	-51.325
3171	18.527	2.7273	0.	-53.164
3172	18.527	2.9091	0.	-54.099
3173	18.527	3.0909	0.	-54.099
3174	18.527	3.2727	0.	-53.164
3175	18.527	3.4545	0.	-51.325
3176	18.527	3.6364	0.	-48.642
3177	18.527	3.8182	0.	-45.202
3178	18.527	4.	0.	-41.115
3179	18.527	4.1818	0.	-36.505
3180	18.527	4.3636	0.	-31.508
3181	18.527	4.5455	0.	-26.264
3182	18.527	4.7273	0.	-20.908
3183	18.527	4.9091	0.	-15.565
3184	18.527	5.0909	0.	-10.343
3185	18.527	5.2727	0.	-5.3286
3186	18.527	5.4545	0.	-0.57582
3187	18.527	5.6364	0.	1.3656e-002
3188	18.527	5.8182	0.	-6.9977e-003
3189	18.71	0.18182	0.	-5.6492e-003
3190	18.71	0.36364	0.	1.1917e-002
3191	18.71	0.54545	0.	7.3462e-003
3192	18.71	0.72727	0.	-3.5124
3193	18.71	0.90909	0.	-7.9851
3194	18.71	1.0909	0.	-12.592
3195	18.71	1.2727	0.	-17.266
3196	18.71	1.4545	0.	-21.92
3197	18.71	1.6364	0.	-26.451
3198	18.71	1.8182	0.	-30.751
3199	18.71	2.	0.	-34.704
3200	18.71	2.1818	0.	-38.201
3201	18.71	2.3636	0.	-41.138
3202	18.71	2.5455	0.	-43.426
3203	18.71	2.7273	0.	-44.993
3204	18.71	2.9091	0.	-45.79
3205	18.71	3.0909	0.	-45.79
3206	18.71	3.2727	0.	-44.993
3207	18.71	3.4545	0.	-43.426
3208	18.71	3.6364	0.	-41.138
3209	18.71	3.8182	0.	-38.201
3210	18.71	4.	0.	-34.704
3211	18.71	4.1818	0.	-30.751
3212	18.71	4.3636	0.	-26.451
3213	18.71	4.5455	0.	-21.92
3214	18.71	4.7273	0.	-17.266
3215	18.71	4.9091	0.	-12.592
3216	18.71	5.0909	0.	-7.9851
3217	18.71	5.2727	0.	-3.5124
3218	18.71	5.4545	0.	7.3459e-003
3219	18.71	5.6364	0.	1.1918e-002
3220	18.71	5.8182	0.	-5.6488e-003
3221	18.892	0.18182	0.	-4.5138e-003
3222	18.892	0.36364	0.	9.6489e-003
3223	18.892	0.54545	0.	6.0838e-003
3224	18.892	0.72727	0.	-1.5904
3225	18.892	0.90909	0.	-5.5382
3226	18.892	1.0909	0.	-9.5657
3227	18.892	1.2727	0.	-13.618
3228	18.892	1.4545	0.	-17.626
3229	18.892	1.6364	0.	-21.51
3230	18.892	1.8182	0.	-25.179
3231	18.892	2.	0.	-28.543
3232	18.892	2.1818	0.	-31.511
3233	18.892	2.3636	0.	-33.999
3234	18.892	2.5455	0.	-35.935
3235	18.892	2.7273	0.	-37.259
3236	18.892	2.9091	0.	-37.932
3237	18.892	3.0909	0.	-37.932
3238	18.892	3.2727	0.	-37.259
3239	18.892	3.4545	0.	-35.935
3240	18.892	3.6364	0.	-33.999
3241	18.892	3.8182	0.	-31.511
3242	18.892	4.	0.	-28.543
3243	18.892	4.1818	0.	-25.179
3244	18.892	4.3636	0.	-21.51
3245	18.892	4.5455	0.	-17.626
3246	18.892	4.7273	0.	-13.618
3247	18.892	4.9091	0.	-9.5657
3248	18.892	5.0909	0.	-5.5382
3249	18.892	5.2727	0.	-1.5904
3250	18.892	5.4545	0.	6.0835e-003
3251	18.892	5.6364	0.	9.6488e-003
3252	18.892	5.8182	0.	-4.5122e-003
3253	19.075	0.18182	0.	-3.6199e-003
3254	19.075	0.36364	0.	7.0695e-003
3255	19.075	0.54545	0.	4.6121e-003
3256	19.075	0.72727	0.	-2.2518e-002
3257	19.075	0.90909	0.	-3.0272
3258	19.075	1.0909	0.	-6.5037
3259	19.075	1.2727	0.	-9.9752
3260	19.075	1.4545	0.	-13.388
3261	19.075	1.6364	0.	-16.677
3262	19.075	1.8182	0.	-19.773
3263	19.075	2.	0.	-22.603
3264	19.075	2.1818	0.	-25.095
3265	19.075	2.3636	0.	-27.18
3266	19.075	2.5455	0.	-28.8
3267	19.075	2.7273	0.	-29.908
3268	19.075	2.9091	0.	-30.47
3269	19.075	3.0909	0.	-30.47
3270	19.075	3.2727	0.	-29.908
3271	19.075	3.4545	0.	-28.8
3272	19.075	3.6364	0.	-27.18
3273	19.075	3.8182	0.	-25.095
3274	19.075	4.	0.	-22.603
3275	19.075	4.1818	0.	-19.773
3276	19.075	4.3636	0.	-16.677
3277	19.075	4.5455	0.	-13.388
3278	19.075	4.7273	0.	-9.9752
3279	19.075	4.9091	0.	-6.5037
3280	19.075	5.0909	0.	-3.0272
3281	19.075	5.2727	0.	-2.2517e-002
3282	19.075	5.4545	0.	4.6122e-003
3283	19.075	5.6364	0.	7.0712e-003
3284	19.075	5.8182	0.	-3.618e-003
3285	19.257	0.18182	0.	-2.9468e-003
3286	19.257	0.36364	0.	4.3133e-003
3287	19.257	0.54545	0.	3.253e-003
3288	19.257	0.72727	0.	5.6235e-004
3289	19.257	0.90909	0.	-0.50147
3290	19.257	1.0909	0.	-3.4209
3291	19.257	1.2727	0.	-6.3445
3292	19.257	1.4545	0.	-9.2019
3293	19.257	1.6364	0.	-11.944
3294	19.257	1.8182	0.	-14.515
3295	19.257	2.	0.	-16.859
3296	19.257	2.1818	0.	-18.918
3297	19.257	2.3636	0.	-20.638
3298	19.257	2.5455	0.	-21.974
3299	19.257	2.7273	0.	-22.886
3300	19.257	2.9091	0.	-23.349
3301	19.257	3.0909	0.	-23.349
3302	19.257	3.2727	0.	-22.886
3303	19.257	3.4545	0.	-21.974
3304	19.257	3.6364	0.	-20.638
3305	19.257	3.8182	0.	-18.918
3306	19.257	4.	0.	-16.859
3307	19.257	4.1818	0.	-14.515
3308	19.257	4.3636	0.	-11.944
3309	19.257	4.5455	0.	-9.2019
3310	19.257	4.7273	0.	-6.3444
3311	19.257	4.9091	0.	-3.4208
3312	19.257	5.0909	0.	-0.50148
3313	19.257	5.2727	0.	5.62e-004
3314	19.257	5.4545	0.	3.2517e-003
3315	19.257	5.6364	0.	4.3127e-003
3316	19.257	5.8182	0.	-2.9485e-003
3317	19.439	0.18182	0.	-2.4428e-003
3318	19.439	0.36364	0.	1.4743e-003
3319	19.439	0.54545	0.	2.0312e-003
3320	19.439	0.72727	0.	1.999e-003
3321	19.439	0.90909	0.	-2.7774e-003
3322	19.439	1.0909	0.	-0.37852
3323	19.439	1.2727	0.	-2.7312
3324	19.439	1.4545	0.	-5.0655
3325	19.439	1.6364	0.	-7.2971
3326	19.439	1.8182	0.	-9.3833
3327	19.439	2.	0.	-11.28
3328	19.439	2.1818	0.	-12.943
3329	19.439	2.3636	0.	-14.332
3330	19.439	2.5455	0.	-15.408
3331	19.439	2.7273	0.	-16.144
3332	19.439	2.9091	0.	-16.517
3333	19.439	3.0909	0.	-16.517
3334	19.439	3.2727	0.	-16.144
3335	19.439	3.4545	0.	-15.408
3336	19.439	3.6364	0.	-14.332
3337	19.439	3.8182	0.	-12.943
3338	19.439	4.	0.	-11.28
3339	19.439	4.1818	0.	-9.3833
3340	19.439	4.3636	0.	-7.2971
3341	19.439	4.5455	0.	-5.0655
3342	19.439	4.7273	0.	-2.7312
3343	19.439	4.9091	0.	-0.37851
3344	19.439	5.0909	0.	-2.7775e-003
3345	19.439	5.2727	0.	1.9976e-003
3346	19.439	5.4545	0.	2.0352e-003
3347	19.439	5.6364	0.	1.4754e-003
3348	19.439	5.8182	0.	-2.4451e-003
3349	19.622	0.18182	0.	-2.1123e-003
3350	19.622	0.36364	0.	-1.4369e-003
3351	19.622	0.54545	0.	9.1921e-004
3352	19.622	0.72727	0.	2.0348e-003
3353	19.622	0.90909	0.	2.5114e-003
3354	19.622	1.0909	0.	8.0947e-004
3355	19.622	1.2727	0.	-1.5001e-002
3356	19.622	1.4545	0.	-0.98486
3357	19.622	1.6364	0.	-2.7254
3358	19.622	1.8182	0.	-4.3573
3359	19.622	2.	0.	-5.8393
3360	19.622	2.1818	0.	-7.1374
3361	19.622	2.3636	0.	-8.2201
3362	19.622	2.5455	0.	-9.0593
3363	19.622	2.7273	0.	-9.6322
3364	19.622	2.9091	0.	-9.9228
3365	19.622	3.0909	0.	-9.9228
3366	19.622	3.2727	0.	-9.6322
3367	19.622	3.4545	0.	-9.0593
3368	19.622	3.6364	0.	-8.2201
3369	19.622	3.8182	0.	-7.1374
3370	19.622	4.	0.	-5.8393
3371	19.622	4.1818	0.	-4.3573
3372	19.622	4.3636	0.	-2.7254
3373	19.622	4.5455	0.	-0.98486
3374	19.622	4.7273	0.	-1.5001e-002
3375	19.622	4.9091	0.	8.0904e-004
3376	19.622	5.0909	0.	2.5095e-003
3377	19.622	5.2727	0.	2.0323e-003
3378	19.622	5.4545	0.	9.2269e-004
3379	19.622	5.6364	0.	-1.4358e-003
3380	19.622	5.8182	0.	-2.1157e-003
3381	19.804	0.18182	0.	-1.958e-003
3382	19.804	0.36364	0.	-4.4174e-003
3383	19.804	0.54545	0.	-1.1708e-004
3384	19.804	0.72727	0.	1.7252e-003
3385	19.804	0.90909	0.	3.801e-003
3386	19.804	1.0909	0.	5.4658e-003
3387	19.804	1.2727	0.	6.7133e-003
3388	19.804	1.4545	0.	7.2386e-003
3389	19.804	1.6364	0.	6.129e-003
3390	19.804	1.8182	0.	-4.2633e-003
3391	19.804	2.	0.	-0.52045
3392	19.804	2.1818	0.	-1.467
3393	19.804	2.3636	0.	-2.264
3394	19.804	2.5455	0.	-2.8828
3395	19.804	2.7273	0.	-3.3055
3396	19.804	2.9091	0.	-3.52
3397	19.804	3.0909	0.	-3.52
3398	19.804	3.2727	0.	-3.3055
3399	19.804	3.4545	0.	-2.8828
3400	19.804	3.6364	0.	-2.264
3401	19.804	3.8182	0.	-1.467
3402	19.804	4.	0.	-0.52045
3403	19.804	4.1818	0.	-4.2632e-003
3404	19.804	4.3636	0.	6.1252e-003
3405	19.804	4.5455	0.	7.2391e-003
3406	19.804	4.7273	0.	6.717e-003
3407	19.804	4.9091	0.	5.4636e-003
3408	19.804	5.0909	0.	3.7992e-003
3409	19.804	5.2727	0.	1.7243e-003
3410	19.804	5.4545	0.	-1.1899e-004
3411	19.804	5.6364	0.	-4.4169e-003
3412	19.804	5.8182	0.	-1.9525e-003
3413	19.987	0.18182	0.	-1.9345e-003
3414	19.987	0.36364	0.	-7.4433e-003
3415	19.987	0.54545	0.	-1.0814e-003
3416	19.987	0.72727	0.	1.3334e-003
3417	19.987	0.90909	0.	4.329e-003
3418	19.987	1.0909	0.	6.9307e-003
3419	19.987	1.2727	0.	9.3111e-003
3420	19.987	1.4545	0.	1.1389e-002
3421	19.987	1.6364	0.	1.3175e-002
3422	19.987	1.8182	0.	1.4687e-002
3423	19.987	2.	0.	1.5948e-002
3424	19.987	2.1818	0.	1.6991e-002
3425	19.987	2.3636	0.	1.7841e-002
3426	19.987	2.5455	0.	1.851e-002
3427	19.987	2.7273	0.	1.8981e-002
3428	19.987	2.9091	0.	1.923e-002
3429	19.987	3.0909	0.	1.923e-002
3430	19.987	3.2727	0.	1.8982e-002
3431	19.987	3.4545	0.	1.851e-002
3432	19.987	3.6364	0.	1.784e-002
3433	19.987	3.8182	0.	1.6991e-002
3434	19.987	4.	0.	1.5947e-002
3435	19.987	4.1818	0.	1.4687e-002
3436	19.987	4.3636	0.	1.3176e-002
3437	19.987	4.5455	0.	1.1387e-002
3438	19.987	4.7273	0.	9.3103e-003
3439	19.987	4.9091	0.	6.9299e-003
3440	19.987	5.0909	0.	4.3259e-003
3441	19.987	5.2727	0.	1.3331e-003
3442	19.987	5.4545	0.	-1.0786e-003
3443	19.987	5.6364	0.	-7.4422e-003
3444	19.987	5.8182	0.	-1.9365e-003
3445	20.169	0.18182	0.	-2.0628e-003
3446	20.169	0.36364	0.	-1.0521e-002
3447	20.169	0.54545	0.	-1.9743e-003
3448	20.169	0.72727	0.	9.3557e-004
3449	20.169	0.90909	0.	4.6379e-003
3450	20.169	1.0909	0.	7.7587e-003
3451	20.169	1.2727	0.	1.0556e-002
3452	20.169	1.4545	0.	1.2926e-002
3453	20.169	1.6364	0.	1.4905e-002
3454	20.169	1.8182	0.	1.6502e-002
3455	20.169	2.	0.	1.7762e-002
3456	20.169	2.1818	0.	1.8726e-002
3457	20.169	2.3636	0.	1.9437e-002
3458	20.169	2.5455	0.	1.9934e-002
3459	20.169	2.7273	0.	2.0248e-002
3460	20.169	2.9091	0.	2.0399e-002
3461	20.169	3.0909	0.	2.0397e-002
3462	20.169	3.2727	0.	2.0247e-002
3463	20.169	3.4545	0.	1.9934e-002
3464	20.169	3.6364	0.	1.9437e-002
3465	20.169	3.8182	0.	1.8726e-002
3466	20.169	4.	0.	1.7761e-002
3467	20.169	4.1818	0.	1.6502e-002
3468	20.169	4.3636	0.	1.4905e-002
3469	20.169	4.5455	0.	1.2931e-002
3470	20.169	4.7273	0.	1.0555e-002
3471	20.169	4.9091	0.	7.7575e-003
3472	20.169	5.0909	0.	4.6366e-003
3473	20.169	5.2727	0.	9.3491e-004
3474	20.169	5.4545	0.	-1.9732e-003
3475	20.169	5.6364	0.	-1.052e-002
3476	20.169	5.8182	0.	-2.0605e-003
3477	20.352	0.18182	0.	-2.3343e-003
3478	20.352	0.36364	0.	-1.3659e-002
3479	20.352	0.54545	0.	-2.8078e-003
3480	20.352	0.72727	0.	5.7378e-004
3481	20.352	0.90909	0.	4.9026e-003
3482	20.352	1.0909	0.	8.4216e-003
3483	20.352	1.2727	0.	1.1508e-002
3484	20.352	1.4545	0.	1.4062e-002
3485	20.352	1.6364	0.	1.6138e-002
3486	20.352	1.8182	0.	1.7787e-002
3487	20.352	2.	0.	1.9064e-002
3488	20.352	2.1818	0.	2.0028e-002
3489	20.352	2.3636	0.	2.0733e-002
3490	20.352	2.5455	0.	2.1219e-002
3491	20.352	2.7273	0.	2.1524e-002
3492	20.352	2.9091	0.	2.1671e-002
3493	20.352	3.0909	0.	2.1671e-002
3494	20.352	3.2727	0.	2.1524e-002
3495	20.352	3.4545	0.	2.1218e-002
3496	20.352	3.6364	0.	2.0734e-002
3497	20.352	3.8182	0.	2.0028e-002
3498	20.352	4.	0.	1.9065e-002
3499	20.352	4.1818	0.	1.7786e-002
3500	20.352	4.3636	0.	1.6138e-002
3501	20.352	4.5455	0.	1.4058e-002
3502	20.352	4.7273	0.	1.1506e-002
3503	20.352	4.9091	0.	8.4218e-003
3504	20.352	5.0909	0.	4.9025e-003
3505	20.352	5.2727	0.	5.7377e-004
3506	20.352	5.4545	0.	-2.8096e-003
3507	20.352	5.6364	0.	-1.3656e-002
3508	20.352	5.8182	0.	-2.3334e-003
3509	20.534	0.18182	0.	-2.7801e-003
3510	20.534	0.36364	0.	-1.6882e-002
3511	20.534	0.54545	0.	-3.6047e-003
3512	20.534	0.72727	0.	2.5233e-004
3513	20.534	0.90909	0.	5.1832e-003
3514	20.534	1.0909	0.	9.065e-003
3515	20.534	1.2727	0.	1.2406e-002
3516	20.534	1.4545	0.	1.5123e-002
3517	20.534	1.6364	0.	1.7308e-002
3518	20.534	1.8182	0.	1.9027e-002
3519	20.534	2.	0.	2.0352e-002
3520	20.534	2.1818	0.	2.135e-002
3521	20.534	2.3636	0.	2.2081e-002
3522	20.534	2.5455	0.	2.2585e-002
3523	20.534	2.7273	0.	2.2902e-002
3524	20.534	2.9091	0.	2.3057e-002
3525	20.534	3.0909	0.	2.3054e-002
3526	20.534	3.2727	0.	2.2903e-002
3527	20.534	3.4545	0.	2.2586e-002
3528	20.534	3.6364	0.	2.2078e-002
3529	20.534	3.8182	0.	2.135e-002
3530	20.534	4.	0.	2.0352e-002
3531	20.534	4.1818	0.	1.9026e-002
3532	20.534	4.3636	0.	1.7307e-002
3533	20.534	4.5455	0.	1.5123e-002
3534	20.534	4.7273	0.	1.2406e-002
3535	20.534	4.9091	0.	9.065e-003
3536	20.534	5.0909	0.	5.1808e-003
3537	20.534	5.2727	0.	2.5049e-004
3538	20.534	5.4545	0.	-3.606e-003
3539	20.534	5.6364	0.	-1.6878e-002
3540	20.534	5.8182	0.	-2.7791e-003
3541	20.716	0.18182	0.	-3.4068e-003
3542	20.716	0.36364	0.	-2.0189e-002
3543	20.716	0.54545	0.	-4.3504e-003
3544	20.716	0.72727	0.	-5.4436e-006
3545	20.716	0.90909	0.	5.533e-003
3546	20.716	1.0909	0.	9.7699e-003
3547	20.716	1.2727	0.	1.3365e-002
3548	20.716	1.4545	0.	1.625e-002
3549	20.716	1.6364	0.	1.855e-002
3550	20.716	1.8182	0.	2.0351e-002
3551	20.716	2.	0.	2.1739e-002
3552	20.716	2.1818	0.	2.2785e-002
3553	20.716	2.3636	0.	2.3551e-002
3554	20.716	2.5455	0.	2.4083e-002
3555	20.716	2.7273	0.	2.442e-002
3556	20.716	2.9091	0.	2.4581e-002
3557	20.716	3.0909	0.	2.458e-002
3558	20.716	3.2727	0.	2.4418e-002
3559	20.716	3.4545	0.	2.4082e-002
3560	20.716	3.6364	0.	2.3548e-002
3561	20.716	3.8182	0.	2.2784e-002
3562	20.716	4.	0.	2.174e-002
3563	20.716	4.1818	0.	2.0353e-002
3564	20.716	4.3636	0.	1.855e-002
3565	20.716	4.5455	0.	1.6249e-002
3566	20.716	4.7273	0.	1.3366e-002
3567	20.716	4.9091	0.	9.7695e-003
3568	20.716	5.0909	0.	5.5328e-003
3569	20.716	5.2727	0.	-7.3666e-006
3570	20.716	5.4545	0.	-4.352e-003
3571	20.716	5.6364	0.	-2.0187e-002
3572	20.716	5.8182	0.	-3.4037e-003
3573	20.899	0.18182	0.	-4.2171e-003
3574	20.899	0.36364	0.	-2.3591e-002
3575	20.899	0.54545	0.	-5.0305e-003
3576	20.899	0.72727	0.	-1.6493e-004
3577	20.899	0.90909	0.	6.0018e-003
3578	20.899	1.0909	0.	1.0603e-002
3579	20.899	1.2727	0.	1.4461e-002
3580	20.899	1.4545	0.	1.7523e-002
3581	20.899	1.6364	0.	1.9946e-002
3582	20.899	1.8182	0.	2.1838e-002
3583	20.899	2.	0.	2.3294e-002
3584	20.899	2.1818	0.	2.4393e-002
3585	20.899	2.3636	0.	2.5197e-002
3586	20.899	2.5455	0.	2.576e-002
3587	20.899	2.7273	0.	2.6116e-002
3588	20.899	2.9091	0.	2.6287e-002
3589	20.899	3.0909	0.	2.6286e-002
3590	20.899	3.2727	0.	2.6116e-002
3591	20.899	3.4545	0.	2.5759e-002
3592	20.899	3.6364	0.	2.5197e-002
3593	20.899	3.8182	0.	2.4391e-002
3594	20.899	4.	0.	2.3295e-002
3595	20.899	4.1818	0.	2.1837e-002
3596	20.899	4.3636	0.	1.9947e-002
3597	20.899	4.5455	0.	1.7519e-002
3598	20.899	4.7273	0.	1.4461e-002
3599	20.899	4.9091	0.	1.0603e-002
3600	20.899	5.0909	0.	6.0013e-003
3601	20.899	5.2727	0.	-1.6688e-004
3602	20.899	5.4545	0.	-5.0305e-003
3603	20.899	5.6364	0.	-2.3589e-002
3604	20.899	5.8182	0.	-4.2164e-003
3605	21.081	0.18182	0.	-5.2757e-003
3606	21.081	0.36364	0.	-2.7125e-002
3607	21.081	0.54545	0.	-5.6579e-003
3608	21.081	0.72727	0.	-2.2777e-004
3609	21.081	0.90909	0.	6.6003e-003
3610	21.081	1.0909	0.	1.1581e-002
3611	21.081	1.2727	0.	1.5712e-002
3612	21.081	1.4545	0.	1.8959e-002
3613	21.081	1.6364	0.	2.1516e-002
3614	21.081	1.8182	0.	2.3504e-002
3615	21.081	2.	0.	2.503e-002
3616	21.081	2.1818	0.	2.6186e-002
3617	21.081	2.3636	0.	2.7029e-002
3618	21.081	2.5455	0.	2.7621e-002
3619	21.081	2.7273	0.	2.7996e-002
3620	21.081	2.9091	0.	2.8178e-002
3621	21.081	3.0909	0.	2.8178e-002
3622	21.081	3.2727	0.	2.7997e-002
3623	21.081	3.4545	0.	2.7622e-002
3624	21.081	3.6364	0.	2.703e-002
3625	21.081	3.8182	0.	2.6185e-002
3626	21.081	4.	0.	2.503e-002
3627	21.081	4.1818	0.	2.3504e-002
3628	21.081	4.3636	0.	2.1515e-002
3629	21.081	4.5455	0.	1.8958e-002
3630	21.081	4.7273	0.	1.5713e-002
3631	21.081	4.9091	0.	1.1581e-002
3632	21.081	5.0909	0.	6.5984e-003
3633	21.081	5.2727	0.	-2.2784e-004
3634	21.081	5.4545	0.	-5.6586e-003
3635	21.081	5.6364	0.	-2.7123e-002
3636	21.081	5.8182	0.	-5.2786e-003
3637	21.264	0.18182	0.	-6.6253e-003
3638	21.264	0.36364	0.	-3.0814e-002
3639	21.264	0.54545	0.	-6.2177e-003
3640	21.264	0.72727	0.	-1.6447e-004
3641	21.264	0.90909	0.	7.3667e-003
3642	21.264	1.0909	0.	1.2754e-002
3643	21.264	1.2727	0.	1.7172e-002
3644	21.264	1.4545	0.	2.0614e-002
3645	21.264	1.6364	0.	2.3309e-002
3646	21.264	1.8182	0.	2.5397e-002
3647	21.264	2.	0.	2.6997e-002
3648	21.264	2.1818	0.	2.8203e-002
3649	21.264	2.3636	0.	2.909e-002
3650	21.264	2.5455	0.	2.971e-002
3651	21.264	2.7273	0.	3.0102e-002
3652	21.264	2.9091	0.	3.0294e-002
3653	21.264	3.0909	0.	3.0295e-002
3654	21.264	3.2727	0.	3.0103e-002
3655	21.264	3.4545	0.	2.971e-002
3656	21.264	3.6364	0.	2.909e-002
3657	21.264	3.8182	0.	2.8204e-002
3658	21.264	4.	0.	2.6997e-002
3659	21.264	4.1818	0.	2.5396e-002
3660	21.264	4.3636	0.	2.331e-002
3661	21.264	4.5455	0.	2.0613e-002
3662	21.264	4.7273	0.	1.7173e-002
3663	21.264	4.9091	0.	1.2753e-002
3664	21.264	5.0909	0.	7.3663e-003
3665	21.264	5.2727	0.	-1.6284e-004
3666	21.264	5.4545	0.	-6.2164e-003
3667	21.264	5.6364	0.	-3.081e-002
3668	21.264	5.8182	0.	-6.6259e-003
3669	21.446	0.18182	0.	-8.3015e-003
3670	21.446	0.36364	0.	-3.4654e-002
3671	21.446	0.54545	0.	-6.6677e-003
3672	21.446	0.72727	0.	8.6479e-005
3673	21.446	0.90909	0.	8.3751e-003
3674	21.446	1.0909	0.	1.4188e-002
3675	21.446	1.2727	0.	1.8918e-002
3676	21.446	1.4545	0.	2.2562e-002
3677	21.446	1.6364	0.	2.5403e-002
3678	21.446	1.8182	0.	2.7591e-002
3679	21.446	2.	0.	2.9265e-002
3680	21.446	2.1818	0.	3.0524e-002
3681	21.446	2.3636	0.	3.1448e-002
3682	21.446	2.5455	0.	3.2096e-002
3683	21.446	2.7273	0.	3.2505e-002
3684	21.446	2.9091	0.	3.2706e-002
3685	21.446	3.0909	0.	3.2701e-002
3686	21.446	3.2727	0.	3.2507e-002
3687	21.446	3.4545	0.	3.2094e-002
3688	21.446	3.6364	0.	3.1449e-002
3689	21.446	3.8182	0.	3.0525e-002
3690	21.446	4.	0.	2.9264e-002
3691	21.446	4.1818	0.	2.759e-002
3692	21.446	4.3636	0.	2.5402e-002
3693	21.446	4.5455	0.	2.2564e-002
3694	21.446	4.7273	0.	1.8918e-002
3695	21.446	4.9091	0.	1.4188e-002
3696	21.446	5.0909	0.	8.3725e-003
3697	21.446	5.2727	0.	8.2774e-005
3698	21.446	5.4545	0.	-6.6651e-003
3699	21.446	5.6364	0.	-3.4651e-002
3700	21.446	5.8182	0.	-8.3019e-003
3701	21.628	0.18182	0.	-1.0389e-002
3702	21.628	0.36364	0.	-3.8679e-002
3703	21.628	0.54545	0.	-6.9795e-003
3704	21.628	0.72727	0.	5.5809e-004
3705	21.628	0.90909	0.	9.6739e-003
3706	21.628	1.0909	0.	1.5951e-002
3707	21.628	1.2727	0.	2.1007e-002
3708	21.628	1.4545	0.	2.4867e-002
3709	21.628	1.6364	0.	2.7854e-002
3710	21.628	1.8182	0.	3.0143e-002
3711	21.628	2.	0.	3.1889e-002
3712	21.628	2.1818	0.	3.3202e-002
3713	21.628	2.3636	0.	3.4161e-002
3714	21.628	2.5455	0.	3.4834e-002
3715	21.628	2.7273	0.	3.5262e-002
3716	21.628	2.9091	0.	3.5466e-002
3717	21.628	3.0909	0.	3.5468e-002
3718	21.628	3.2727	0.	3.5261e-002
3719	21.628	3.4545	0.	3.4835e-002
3720	21.628	3.6364	0.	3.4159e-002
3721	21.628	3.8182	0.	3.3202e-002
3722	21.628	4.	0.	3.1889e-002
3723	21.628	4.1818	0.	3.0144e-002
3724	21.628	4.3636	0.	2.7854e-002
3725	21.628	4.5455	0.	2.4868e-002
3726	21.628	4.7273	0.	2.1007e-002
3727	21.628	4.9091	0.	1.5951e-002
3728	21.628	5.0909	0.	9.6686e-003
3729	21.628	5.2727	0.	5.5874e-004
3730	21.628	5.4545	0.	-6.9783e-003
3731	21.628	5.6364	0.	-3.8675e-002
3732	21.628	5.8182	0.	-1.0387e-002
3733	21.811	0.18182	0.	-1.2987e-002
3734	21.811	0.36364	0.	-4.2915e-002
3735	21.811	0.54545	0.	-7.1142e-003
3736	21.811	0.72727	0.	1.3242e-003
3737	21.811	0.90909	0.	1.1339e-002
3738	21.811	1.0909	0.	1.8124e-002
3739	21.811	1.2727	0.	2.3525e-002
3740	21.811	1.4545	0.	2.7609e-002
3741	21.811	1.6364	0.	3.0748e-002
3742	21.811	1.8182	0.	3.314e-002
3743	21.811	2.	0.	3.4955e-002
3744	21.811	2.1818	0.	3.6316e-002
3745	21.811	2.3636	0.	3.7313e-002
3746	21.811	2.5455	0.	3.8008e-002
3747	21.811	2.7273	0.	3.8449e-002
3748	21.811	2.9091	0.	3.8663e-002
3749	21.811	3.0909	0.	3.8663e-002
3750	21.811	3.2727	0.	3.8449e-002
3751	21.811	3.4545	0.	3.8008e-002
3752	21.811	3.6364	0.	3.7312e-002
3753	21.811	3.8182	0.	3.6316e-002
3754	21.811	4.	0.	3.4955e-002
3755	21.811	4.1818	0.	3.3141e-002
3756	21.811	4.3636	0.	3.0747e-002
3757	21.811	4.5455	0.	2.7609e-002
3758	21.811	4.7273	0.	2.3527e-002
3759	21.811	4.9091	0.	1.8122e-002
3760	21.811	5.0909	0.	1.1339e-002
3761	21.811	5.2727	0.	1.3216e-003
3762	21.811	5.4545	0.	-7.1117e-003
3763	21.811	5.6364	0.	-4.2914e-002
3764	21.811	5.8182	0.	-1.2985e-002
3765	21.993	0.18182	0.	-1.6213e-002
3766	21.993	0.36364	0.	-4.737e-002
3767	21.993	0.54545	0.	-6.9768e-003
3768	21.993	0.72727	0.	2.4986e-003
3769	21.993	0.90909	0.	1.3508e-002
3770	21.993	1.0909	0.	2.0838e-002
3771	21.993	1.2727	0.	2.661e-002
3772	21.993	1.4545	0.	3.0923e-002
3773	21.993	1.6364	0.	3.4216e-002
3774	21.993	1.8182	0.	3.6711e-002
3775	21.993	2.	0.	3.8595e-002
3776	21.993	2.1818	0.	4.0004e-002
3777	21.993	2.3636	0.	4.1031e-002
3778	21.993	2.5455	0.	4.1756e-002
3779	21.993	2.7273	0.	4.2208e-002
3780	21.993	2.9091	0.	4.2429e-002
3781	21.993	3.0909	0.	4.2429e-002
3782	21.993	3.2727	0.	4.2208e-002
3783	21.993	3.4545	0.	4.1753e-002
3784	21.993	3.6364	0.	4.1035e-002
3785	21.993	3.8182	0.	4.0006e-002
3786	21.993	4.	0.	3.8596e-002
3787	21.993	4.1818	0.	3.6707e-002
3788	21.993	4.3636	0.	3.4217e-002
3789	21.993	4.5455	0.	3.0925e-002
3790	21.993	4.7273	0.	2.6609e-002
3791	21.993	4.9091	0.	2.0838e-002
3792	21.993	5.0909	0.	1.3508e-002
3793	21.993	5.2727	0.	2.4954e-003
3794	21.993	5.4545	0.	-6.9786e-003
3795	21.993	5.6364	0.	-4.7369e-002
3796	21.993	5.8182	0.	-1.6212e-002
3797	22.176	0.18182	0.	-2.0239e-002
3798	22.176	0.36364	0.	-5.204e-002
3799	22.176	0.54545	0.	-6.4494e-003
3800	22.176	0.72727	0.	4.2357e-003
3801	22.176	0.90909	0.	1.6351e-002
3802	22.176	1.0909	0.	2.427e-002
3803	22.176	1.2727	0.	3.0431e-002
3804	22.176	1.4545	0.	3.4984e-002
3805	22.176	1.6364	0.	3.8433e-002
3806	22.176	1.8182	0.	4.1029e-002
3807	22.176	2.	0.	4.2982e-002
3808	22.176	2.1818	0.	4.4442e-002
3809	22.176	2.3636	0.	4.5505e-002
3810	22.176	2.5455	0.	4.6247e-002
3811	22.176	2.7273	0.	4.6717e-002
3812	22.176	2.9091	0.	4.6944e-002
3813	22.176	3.0909	0.	4.6943e-002
3814	22.176	3.2727	0.	4.6716e-002
3815	22.176	3.4545	0.	4.6246e-002
3816	22.176	3.6364	0.	4.5504e-002
3817	22.176	3.8182	0.	4.444e-002
3818	22.176	4.	0.	4.2984e-002
3819	22.176	4.1818	0.	4.1027e-002
3820	22.176	4.3636	0.	3.8432e-002
3821	22.176	4.5455	0.	3.4986e-002
3822	22.176	4.7273	0.	3.043e-002
3823	22.176	4.9091	0.	2.427e-002
3824	22.176	5.0909	0.	1.6348e-002
3825	22.176	5.2727	0.	4.2319e-003
3826	22.176	5.4545	0.	-6.452e-003
3827	22.176	5.6364	0.	-5.2036e-002
3828	22.176	5.8182	0.	-2.0237e-002
3829	22.358	0.18182	0.	-2.5294e-002
3830	22.358	0.36364	0.	-5.6909e-002
3831	22.358	0.54545	0.	-5.3553e-003
3832	22.358	0.72727	0.	6.7467e-003
3833	22.358	0.90909	0.	2.0098e-002
3834	22.358	1.0909	0.	2.8652e-002
3835	22.358	1.2727	0.	3.5226e-002
3836	22.358	1.4545	0.	4.0028e-002
3837	22.358	1.6364	0.	4.3631e-002
3838	22.358	1.8182	0.	4.6332e-002
3839	22.358	2.	0.	4.8358e-002
3840	22.358	2.1818	0.	4.9867e-002
3841	22.358	2.3636	0.	5.0967e-002
3842	22.358	2.5455	0.	5.1737e-002
3843	22.358	2.7273	0.	5.2223e-002
3844	22.358	2.9091	0.	5.2458e-002
3845	22.358	3.0909	0.	5.2458e-002
3846	22.358	3.2727	0.	5.2223e-002
3847	22.358	3.4545	0.	5.1738e-002
3848	22.358	3.6364	0.	5.0966e-002
3849	22.358	3.8182	0.	4.9867e-002
3850	22.358	4.	0.	4.836e-002
3851	22.358	4.1818	0.	4.6332e-002
3852	22.358	4.3636	0.	4.3632e-002
3853	22.358	4.5455	0.	4.0027e-002
3854	22.358	4.7273	0.	3.5225e-002
3855	22.358	4.9091	0.	2.8654e-002
3856	22.358	5.0909	0.	2.0094e-002
3857	22.358	5.2727	0.	6.7448e-003
3858	22.358	5.4545	0.	-5.356e-003
3859	22.358	5.6364	0.	-5.6908e-002
3860	22.358	5.8182	0.	-2.5291e-002
3861	22.541	0.18182	0.	-3.1665e-002
3862	22.541	0.36364	0.	-6.1883e-002
3863	22.541	0.54545	0.	-3.3623e-003
3864	22.541	0.72727	0.	1.0412e-002
3865	22.541	0.90909	0.	2.5138e-002
3866	22.541	1.0909	0.	3.4384e-002
3867	22.541	1.2727	0.	4.1389e-002
3868	22.541	1.4545	0.	4.6445e-002
3869	22.541	1.6364	0.	5.0216e-002
3870	22.541	1.8182	0.	5.3027e-002
3871	22.541	2.	0.	5.5133e-002
3872	22.541	2.1818	0.	5.6701e-002
3873	22.541	2.3636	0.	5.7845e-002
3874	22.541	2.5455	0.	5.8642e-002
3875	22.541	2.7273	0.	5.915e-002
3876	22.541	2.9091	0.	5.9397e-002
3877	22.541	3.0909	0.	5.9396e-002
3878	22.541	3.2727	0.	5.9151e-002
3879	22.541	3.4545	0.	5.8643e-002
3880	22.541	3.6364	0.	5.7844e-002
3881	22.541	3.8182	0.	5.6699e-002
3882	22.541	4.	0.	5.5133e-002
3883	22.541	4.1818	0.	5.3025e-002
3884	22.541	4.3636	0.	5.0216e-002
3885	22.541	4.5455	0.	4.6443e-002
3886	22.541	4.7273	0.	4.1386e-002
3887	22.541	4.9091	0.	3.4385e-002
3888	22.541	5.0909	0.	2.5138e-002
3889	22.541	5.2727	0.	1.0409e-002
3890	22.541	5.4545	0.	-3.3604e-003
3891	22.541	5.6364	0.	-6.188e-002
3892	22.541	5.8182	0.	-3.1665e-002
3893	22.723	0.18182	0.	-3.9896e-002
3894	22.723	0.36364	0.	-6.6909e-002
3895	22.723	0.54545	0.	-1.171e-004
3896	22.723	0.72727	0.	1.5622e-002
3897	22.723	0.90909	0.	3.1888e-002
3898	22.723	1.0909	0.	4.1873e-002
3899	22.723	1.2727	0.	4.9334e-002
3900	22.723	1.4545	0.	5.4663e-002
3901	22.723	1.6364	0.	5.8613e-002
3902	22.723	1.8182	0.	6.1554e-002
3903	22.723	2.	0.	6.3753e-002
3904	22.723	2.1818	0.	6.5396e-002
3905	22.723	2.3636	0.	6.6595e-002
3906	22.723	2.5455	0.	6.7434e-002
3907	22.723	2.7273	0.	6.7969e-002
3908	22.723	2.9091	0.	6.8228e-002
3909	22.723	3.0909	0.	6.8228e-002
3910	22.723	3.2727	0.	6.7968e-002
3911	22.723	3.4545	0.	6.7434e-002
3912	22.723	3.6364	0.	6.6596e-002
3913	22.723	3.8182	0.	6.5394e-002
3914	22.723	4.	0.	6.3755e-002
3915	22.723	4.1818	0.	6.1555e-002
3916	22.723	4.3636	0.	5.8615e-002
3917	22.723	4.5455	0.	5.4663e-002
3918	22.723	4.7273	0.	4.9334e-002
3919	22.723	4.9091	0.	4.1875e-002
3920	22.723	5.0909	0.	3.1887e-002
3921	22.723	5.2727	0.	1.5622e-002
3922	22.723	5.4545	0.	-1.1884e-004
3923	22.723	5.6364	0.	-6.6905e-002
3924	22.723	5.8182	0.	-3.9895e-002
3925	22.905	0.18182	0.	-5.0194e-002
3926	22.905	0.36364	0.	-7.1089e-002
3927	22.905	0.54545	0.	5.7659e-003
3928	22.905	0.72727	0.	2.3861e-002
3929	22.905	0.90909	0.	4.1855e-002
3930	22.905	1.0909	0.	5.2647e-002
3931	22.905	1.2727	0.	6.0608e-002
3932	22.905	1.4545	0.	6.6251e-002
3933	22.905	1.6364	0.	7.042e-002
3934	22.905	1.8182	0.	7.3522e-002
3935	22.905	2.	0.	7.5852e-002
3936	22.905	2.1818	0.	7.759e-002
3937	22.905	2.3636	0.	7.8866e-002
3938	22.905	2.5455	0.	7.9761e-002
3939	22.905	2.7273	0.	8.033e-002
3940	22.905	2.9091	0.	8.0608e-002
3941	22.905	3.0909	0.	8.0606e-002
3942	22.905	3.2727	0.	8.033e-002
3943	22.905	3.4545	0.	7.9761e-002
3944	22.905	3.6364	0.	7.8865e-002
3945	22.905	3.8182	0.	7.759e-002
3946	22.905	4.	0.	7.5854e-002
3947	22.905	4.1818	0.	7.3522e-002
3948	22.905	4.3636	0.	7.042e-002
3949	22.905	4.5455	0.	6.6247e-002
3950	22.905	4.7273	0.	6.0607e-002
3951	22.905	4.9091	0.	5.2646e-002
3952	22.905	5.0909	0.	4.1855e-002
3953	22.905	5.2727	0.	2.386e-002
3954	22.905	5.4545	0.	5.7636e-003
3955	22.905	5.6364	0.	-7.1086e-002
3956	22.905	5.8182	0.	-5.0192e-002
3957	23.088	0.18182	0.	-6.5003e-002
3958	23.088	0.36364	0.	-7.5594e-002
3959	23.088	0.54545	0.	1.354e-002
3960	23.088	0.72727	0.	3.4332e-002
3961	23.088	0.90909	0.	5.4292e-002
3962	23.088	1.0909	0.	6.5969e-002
3963	23.088	1.2727	0.	7.4502e-002
3964	23.088	1.4545	0.	8.0528e-002
3965	23.088	1.6364	0.	8.4986e-002
3966	23.088	1.8182	0.	8.8311e-002
3967	23.088	2.	0.	9.0814e-002
3968	23.088	2.1818	0.	9.2689e-002
3969	23.088	2.3636	0.	9.4071e-002
3970	23.088	2.5455	0.	9.5042e-002
3971	23.088	2.7273	0.	9.5661e-002
3972	23.088	2.9091	0.	9.5961e-002
3973	23.088	3.0909	0.	9.5962e-002
3974	23.088	3.2727	0.	9.5662e-002
3975	23.088	3.4545	0.	9.5042e-002
3976	23.088	3.6364	0.	9.407e-002
3977	23.088	3.8182	0.	9.2691e-002
3978	23.088	4.	0.	9.0814e-002
3979	23.088	4.1818	0.	8.8311e-002
3980	23.088	4.3636	0.	8.4986e-002
3981	23.088	4.5455	0.	8.053e-002
3982	23.088	4.7273	0.	7.4503e-002
3983	23.088	4.9091	0.	6.5966e-002
3984	23.088	5.0909	0.	5.429e-002
3985	23.088	5.2727	0.	3.433e-002
3986	23.088	5.4545	0.	1.3541e-002
3987	23.088	5.6364	0.	-7.5593e-002
3988	23.088	5.8182	0.	-6.5007e-002
3989	23.27	0.18182	0.	-7.9712e-002
3990	23.27	0.36364	0.	-7.0794e-002
3991	23.27	0.54545	0.	3.5133e-002
3992	23.27	0.72727	0.	5.9307e-002
3993	23.27	0.90909	0.	8.1646e-002
3994	23.27	1.0909	0.	9.4515e-002
3995	23.27	1.2727	0.	0.10387
3996	23.27	1.4545	0.	0.11049
3997	23.27	1.6364	0.	0.1154
3998	23.27	1.8182	0.	0.11907
3999	23.27	2.	0.	0.12186
4000	23.27	2.1818	0.	0.12395
4001	23.27	2.3636	0.	0.12549
4002	23.27	2.5455	0.	0.12658
4003	23.27	2.7273	0.	0.12728
4004	23.27	2.9091	0.	0.12761
4005	23.27	3.0909	0.	0.12761
4006	23.27	3.2727	0.	0.12728
4007	23.27	3.4545	0.	0.12658
4008	23.27	3.6364	0.	0.12549
4009	23.27	3.8182	0.	0.12395
4010	23.27	4.	0.	0.12186
4011	23.27	4.1818	0.	0.11908
4012	23.27	4.3636	0.	0.11539
4013	23.27	4.5455	0.	0.11048
4014	23.27	4.7273	0.	0.10387
4015	23.27	4.9091	0.	9.4514e-002
4016	23.27	5.0909	0.	8.1642e-002
4017	23.27	5.2727	0.	5.9308e-002
4018	23.27	5.4545	0.	3.5139e-002
4019	23.27	5.6364	0.	-7.0792e-002
4020	23.27	5.8182	0.	-7.9713e-002
4021	23.453	0.18182	0.	-0.11833
4022	23.453	0.36364	0.	-8.2265e-002
4023	23.453	0.54545	0.	4.016e-002
4024	23.453	0.72727	0.	6.953e-002
4025	23.453	0.90909	0.	9.4627e-002
4026	23.453	1.0909	0.	0.10886
4027	23.453	1.2727	0.	0.11931
4028	23.453	1.4545	0.	0.12672
4029	23.453	1.6364	0.	0.13226
4030	23.453	1.8182	0.	0.13643
4031	23.453	2.	0.	0.1396
4032	23.453	2.1818	0.	0.14199
4033	23.453	2.3636	0.	0.14377
4034	23.453	2.5455	0.	0.14502
4035	23.453	2.7273	0.	0.14582
4036	23.453	2.9091	0.	0.14621
4037	23.453	3.0909	0.	0.14621
4038	23.453	3.2727	0.	0.14582
4039	23.453	3.4545	0.	0.14502
4040	23.453	3.6364	0.	0.14377
4041	23.453	3.8182	0.	0.14199
4042	23.453	4.	0.	0.1396
4043	23.453	4.1818	0.	0.13643
4044	23.453	4.3636	0.	0.13226
4045	23.453	4.5455	0.	0.12672
4046	23.453	4.7273	0.	0.11931
4047	23.453	4.9091	0.	0.10886
4048	23.453	5.0909	0.	9.4626e-002
4049	23.453	5.2727	0.	6.9527e-002
4050	23.453	5.4545	0.	4.0164e-002
4051	23.453	5.6364	0.	-8.2263e-002
4052	23.453	5.8182	0.	-0.11833
4053	23.635	0.18182	0.	-0.1028
4054	23.635	0.36364	0.	2.0935e-002
4055	23.635	0.54545	0.	0.19291
4056	23.635	0.72727	0.	0.22832
4057	23.635	0.90909	0.	0.26099
4058	23.635	1.0909	0.	0.27964
4059	23.635	1.2727	0.	0.29345
4060	23.635	1.4545	0.	0.30338
4061	23.635	1.6364	0.	0.31087
4062	23.635	1.8182	0.	0.31656
4063	23.635	2.	0.	0.32091
4064	23.635	2.1818	0.	0.32421
4065	23.635	2.3636	0.	0.32666
4066	23.635	2.5455	0.	0.3284
4067	23.635	2.7273	0.	0.32951
4068	23.635	2.9091	0.	0.33006
4069	23.635	3.0909	0.	0.33006
4070	23.635	3.2727	0.	0.32951
4071	23.635	3.4545	0.	0.3284
4072	23.635	3.6364	0.	0.32666
4073	23.635	3.8182	0.	0.32421
4074	23.635	4.	0.	0.32091
4075	23.635	4.1818	0.	0.31656
4076	23.635	4.3636	0.	0.31087
4077	23.635	4.5455	0.	0.30338
4078	23.635	4.7273	0.	0.29345
4079	23.635	4.9091	0.	0.27964
4080	23.635	5.0909	0.	0.26099
4081	23.635	5.2727	0.	0.22832
4082	23.635	5.4545	0.	0.19291
4083	23.635	5.6364	0.	2.0941e-002
4084	23.635	5.8182	0.	-0.1028
4085	23.818	0.18182	0.	-0.48761
4086	23.818	0.36364	0.	-0.25148
4087	23.818	0.54545	0.	-7.0569e-003
4088	23.818	0.72727	0.	4.5413e-002
4089	23.818	0.90909	0.	9.5012e-002
4090	23.818	1.0909	0.	0.1255
4091	23.818	1.2727	0.	0.14899
4092	23.818	1.4545	0.	0.16669
4093	23.818	1.6364	0.	0.18056
4094	23.818	1.8182	0.	0.19145
4095	23.818	2.	0.	0.20003
4096	23.818	2.1818	0.	0.2067
4097	23.818	2.3636	0.	0.21175
4098	23.818	2.5455	0.	0.21539
4099	23.818	2.7273	0.	0.21775
4100	23.818	2.9091	0.	0.21891
4101	23.818	3.0909	0.	0.21891
4102	23.818	3.2727	0.	0.21775
4103	23.818	3.4545	0.	0.21539
4104	23.818	3.6364	0.	0.21175
4105	23.818	3.8182	0.	0.2067
4106	23.818	4.	0.	0.20003
4107	23.818	4.1818	0.	0.19146
4108	23.818	4.3636	0.	0.18056
4109	23.818	4.5455	0.	0.1667
4110	23.818	4.7273	0.	0.14899
4111	23.818	4.9091	0.	0.1255
4112	23.818	5.0909	0.	9.5013e-002
4113	23.818	5.2727	0.	4.5412e-002
4114	23.818	5.4545	0.	-7.0589e-003
4115	23.818	5.6364	0.	-0.25148
4116	23.818	5.8182	0.	-0.48761
4117	23.818	5.8182	0.1	0.48761
4118	23.818	5.6364	0.1	0.25148
4119	23.818	5.4545	0.1	7.0572e-003
4120	23.818	5.2727	0.1	-4.5413e-002
4121	23.818	5.0909	0.1	-9.5014e-002
4122	23.818	4.9091	0.1	-0.1255
4123	23.818	4.7273	0.1	-0.14899
4124	23.818	4.5455	0.1	-0.1667
4125	23.818	4.3636	0.1	-0.18056
4126	23.818	4.1818	0.1	-0.19146
4127	23.818	4.	0.1	-0.20003
4128	23.818	3.8182	0.1	-0.2067
4129	23.818	3.6364	0.1	-0.21175
4130	23.818	3.4545	0.1	-0.21539
4131	23.818	3.2727	0.1	-0.21775
4132	23.818	3.0909	0.1	-0.21891
4133	23.818	2.9091	0.1	-0.21891
4134	23.818	2.7273	0.1	-0.21775
4135	23.818	2.5455	0.1	-0.21539
4136	23.818	2.3636	0.1	-0.21175
4137	23.818	2.1818	0.1	-0.2067
4138	23.818	2.	0.1	-0.20003
4139	23.818	1.8182	0.1	-0.19146
4140	23.818	1.6364	0.1	-0.18056
4141	23.818	1.4545	0.1	-0.1667
4142	23.818	1.2727	0.1	-0.14899
4143	23.818	1.0909	0.1	-0.1255
4144	23.818	0.90909	0.1	-9.5016e-002
4145	23.818	0.72727	0.1	-4.5413e-002
4146	23.818	0.54545	0.1	7.0565e-003
4147	23.818	0.36364	0.1	0.25148
4148	23.818	0.18182	0.1	0.48761
4149	23.635	5.8182	0.1	0.1028
4150	23.635	5.6364	0.1	-2.094e-002
4151	23.635	5.4545	0.1	-0.19291
4152	23.635	5.2727	0.1	-0.22832
4153	23.635	5.0909	0.1	-0.26099
4154	23.635	4.9091	0.1	-0.27964
4155	23.635	4.7273	0.1	-0.29345
4156	23.635	4.5455	0.1	-0.30338
4157	23.635	4.3636	0.1	-0.31087
4158	23.635	4.1818	0.1	-0.31656
4159	23.635	4.	0.1	-0.32091
4160	23.635	3.8182	0.1	-0.32421
4161	23.635	3.6364	0.1	-0.32666
4162	23.635	3.4545	0.1	-0.3284
4163	23.635	3.2727	0.1	-0.32951
4164	23.635	3.0909	0.1	-0.33006
4165	23.635	2.9091	0.1	-0.33006
4166	23.635	2.7273	0.1	-0.32951
4167	23.635	2.5455	0.1	-0.3284
4168	23.635	2.3636	0.1	-0.32666
4169	23.635	2.1818	0.1	-0.32421
4170	23.635	2.	0.1	-0.32091
4171	23.635	1.8182	0.1	-0.31656
4172	23.635	1.6364	0.1	-0.31087
4173	23.635	1.4545	0.1	-0.30338
4174	23.635	1.2727	0.1	-0.29345
4175	23.635	1.0909	0.1	-0.27964
4176	23.635	0.90909	0.1	-0.26099
4177	23.635	0.72727	0.1	-0.22832
4178	23.635	0.54545	0.1	-0.19291
4179	23.635	0.36364	0.1	-2.0937e-002
4180	23.635	0.18182	0.1	0.1028
4181	23.453	5.8182	0.1	0.11833
4182	23.453	5.6364	0.1	8.2264e-002
4183	23.453	5.4545	0.1	-4.0166e-002
4184	23.453	5.2727	0.1	-6.9529e-002
4185	23.453	5.0909	0.1	-9.4626e-002
4186	23.453	4.9091	0.1	-0.10886
4187	23.453	4.7273	0.1	-0.11931
4188	23.453	4.5455	0.1	-0.12672
4189	23.453	4.3636	0.1	-0.13226
4190	23.453	4.1818	0.1	-0.13643
4191	23.453	4.	0.1	-0.1396
4192	23.453	3.8182	0.1	-0.14199
4193	23.453	3.6364	0.1	-0.14377
4194	23.453	3.4545	0.1	-0.14502
4195	23.453	3.2727	0.1	-0.14582
4196	23.453	3.0909	0.1	-0.14621
4197	23.453	2.9091	0.1	-0.14621
4198	23.453	2.7273	0.1	-0.14582
4199	23.453	2.5455	0.1	-0.14502
4200	23.453	2.3636	0.1	-0.14377
4201	23.453	2.1818	0.1	-0.14199
4202	23.453	2.	0.1	-0.1396
4203	23.453	1.8182	0.1	-0.13643
4204	23.453	1.6364	0.1	-0.13226
4205	23.453	1.4545	0.1	-0.12672
4206	23.453	1.2727	0.1	-0.11932
4207	23.453	1.0909	0.1	-0.10886
4208	23.453	0.90909	0.1	-9.4628e-002
4209	23.453	0.72727	0.1	-6.953e-002
4210	23.453	0.54545	0.1	-4.0159e-002
4211	23.453	0.36364	0.1	8.2268e-002
4212	23.453	0.18182	0.1	0.11833
4213	23.27	5.8182	0.1	7.9712e-002
4214	23.27	5.6364	0.1	7.0793e-002
4215	23.27	5.4545	0.1	-3.5137e-002
4216	23.27	5.2727	0.1	-5.9306e-002
4217	23.27	5.0909	0.1	-8.1644e-002
4218	23.27	4.9091	0.1	-9.4511e-002
4219	23.27	4.7273	0.1	-0.10387
4220	23.27	4.5455	0.1	-0.11048
4221	23.27	4.3636	0.1	-0.11539
4222	23.27	4.1818	0.1	-0.11908
4223	23.27	4.	0.1	-0.12186
4224	23.27	3.8182	0.1	-0.12395
4225	23.27	3.6364	0.1	-0.12549
4226	23.27	3.4545	0.1	-0.12658
4227	23.27	3.2727	0.1	-0.12728
4228	23.27	3.0909	0.1	-0.12762
4229	23.27	2.9091	0.1	-0.12762
4230	23.27	2.7273	0.1	-0.12728
4231	23.27	2.5455	0.1	-0.12658
4232	23.27	2.3636	0.1	-0.12549
4233	23.27	2.1818	0.1	-0.12395
4234	23.27	2.	0.1	-0.12186
4235	23.27	1.8182	0.1	-0.11908
4236	23.27	1.6364	0.1	-0.1154
4237	23.27	1.4545	0.1	-0.11048
4238	23.27	1.2727	0.1	-0.10387
4239	23.27	1.0909	0.1	-9.4513e-002
4240	23.27	0.90909	0.1	-8.1645e-002
4241	23.27	0.72727	0.1	-5.9307e-002
4242	23.27	0.54545	0.1	-3.5133e-002
4243	23.27	0.36364	0.1	7.0794e-002
4244	23.27	0.18182	0.1	7.9711e-002
4245	23.088	5.8182	0.1	6.5007e-002
4246	23.088	5.6364	0.1	7.5592e-002
4247	23.088	5.4545	0.1	-1.3543e-002
4248	23.088	5.2727	0.1	-3.4332e-002
4249	23.088	5.0909	0.1	-5.4292e-002
4250	23.088	4.9091	0.1	-6.5966e-002
4251	23.088	4.7273	0.1	-7.4503e-002
4252	23.088	4.5455	0.1	-8.0529e-002
4253	23.088	4.3636	0.1	-8.4986e-002
4254	23.088	4.1818	0.1	-8.831e-002
4255	23.088	4.	0.1	-9.0816e-002
4256	23.088	3.8182	0.1	-9.2691e-002
4257	23.088	3.6364	0.1	-9.4072e-002
4258	23.088	3.4545	0.1	-9.5043e-002
4259	23.088	3.2727	0.1	-9.5661e-002
4260	23.088	3.0909	0.1	-9.5962e-002
4261	23.088	2.9091	0.1	-9.5963e-002
4262	23.088	2.7273	0.1	-9.5661e-002
4263	23.088	2.5455	0.1	-9.5041e-002
4264	23.088	2.3636	0.1	-9.4071e-002
4265	23.088	2.1818	0.1	-9.269e-002
4266	23.088	2.	0.1	-9.0814e-002
4267	23.088	1.8182	0.1	-8.8311e-002
4268	23.088	1.6364	0.1	-8.4985e-002
4269	23.088	1.4545	0.1	-8.0526e-002
4270	23.088	1.2727	0.1	-7.4504e-002
4271	23.088	1.0909	0.1	-6.5968e-002
4272	23.088	0.90909	0.1	-5.4292e-002
4273	23.088	0.72727	0.1	-3.4335e-002
4274	23.088	0.54545	0.1	-1.3539e-002
4275	23.088	0.36364	0.1	7.5594e-002
4276	23.088	0.18182	0.1	6.5004e-002
4277	22.905	5.8182	0.1	5.0192e-002
4278	22.905	5.6364	0.1	7.1087e-002
4279	22.905	5.4545	0.1	-5.7635e-003
4280	22.905	5.2727	0.1	-2.386e-002
4281	22.905	5.0909	0.1	-4.1855e-002
4282	22.905	4.9091	0.1	-5.2646e-002
4283	22.905	4.7273	0.1	-6.0606e-002
4284	22.905	4.5455	0.1	-6.6248e-002
4285	22.905	4.3636	0.1	-7.0418e-002
4286	22.905	4.1818	0.1	-7.3522e-002
4287	22.905	4.	0.1	-7.5852e-002
4288	22.905	3.8182	0.1	-7.759e-002
4289	22.905	3.6364	0.1	-7.8864e-002
4290	22.905	3.4545	0.1	-7.9761e-002
4291	22.905	3.2727	0.1	-8.0328e-002
4292	22.905	3.0909	0.1	-8.0607e-002
4293	22.905	2.9091	0.1	-8.0607e-002
4294	22.905	2.7273	0.1	-8.0329e-002
4295	22.905	2.5455	0.1	-7.976e-002
4296	22.905	2.3636	0.1	-7.8865e-002
4297	22.905	2.1818	0.1	-7.759e-002
4298	22.905	2.	0.1	-7.5851e-002
4299	22.905	1.8182	0.1	-7.3523e-002
4300	22.905	1.6364	0.1	-7.0419e-002
4301	22.905	1.4545	0.1	-6.6249e-002
4302	22.905	1.2727	0.1	-6.0607e-002
4303	22.905	1.0909	0.1	-5.2647e-002
4304	22.905	0.90909	0.1	-4.1855e-002
4305	22.905	0.72727	0.1	-2.386e-002
4306	22.905	0.54545	0.1	-5.7637e-003
4307	22.905	0.36364	0.1	7.1089e-002
4308	22.905	0.18182	0.1	5.0195e-002
4309	22.723	5.8182	0.1	3.9893e-002
4310	22.723	5.6364	0.1	6.6906e-002
4311	22.723	5.4545	0.1	1.1889e-004
4312	22.723	5.2727	0.1	-1.5622e-002
4313	22.723	5.0909	0.1	-3.1888e-002
4314	22.723	4.9091	0.1	-4.1875e-002
4315	22.723	4.7273	0.1	-4.9333e-002
4316	22.723	4.5455	0.1	-5.4663e-002
4317	22.723	4.3636	0.1	-5.8615e-002
4318	22.723	4.1818	0.1	-6.1556e-002
4319	22.723	4.	0.1	-6.3756e-002
4320	22.723	3.8182	0.1	-6.5395e-002
4321	22.723	3.6364	0.1	-6.6597e-002
4322	22.723	3.4545	0.1	-6.7436e-002
4323	22.723	3.2727	0.1	-6.7968e-002
4324	22.723	3.0909	0.1	-6.8228e-002
4325	22.723	2.9091	0.1	-6.8227e-002
4326	22.723	2.7273	0.1	-6.797e-002
4327	22.723	2.5455	0.1	-6.7437e-002
4328	22.723	2.3636	0.1	-6.6597e-002
4329	22.723	2.1818	0.1	-6.5397e-002
4330	22.723	2.	0.1	-6.3755e-002
4331	22.723	1.8182	0.1	-6.1555e-002
4332	22.723	1.6364	0.1	-5.8614e-002
4333	22.723	1.4545	0.1	-5.4663e-002
4334	22.723	1.2727	0.1	-4.9333e-002
4335	22.723	1.0909	0.1	-4.1876e-002
4336	22.723	0.90909	0.1	-3.1887e-002
4337	22.723	0.72727	0.1	-1.5624e-002
4338	22.723	0.54545	0.1	1.1595e-004
4339	22.723	0.36364	0.1	6.6908e-002
4340	22.723	0.18182	0.1	3.9894e-002
4341	22.541	5.8182	0.1	3.1666e-002
4342	22.541	5.6364	0.1	6.1879e-002
4343	22.541	5.4545	0.1	3.3593e-003
4344	22.541	5.2727	0.1	-1.041e-002
4345	22.541	5.0909	0.1	-2.5138e-002
4346	22.541	4.9091	0.1	-3.4385e-002
4347	22.541	4.7273	0.1	-4.1389e-002
4348	22.541	4.5455	0.1	-4.6445e-002
4349	22.541	4.3636	0.1	-5.0216e-002
4350	22.541	4.1818	0.1	-5.3026e-002
4351	22.541	4.	0.1	-5.5134e-002
4352	22.541	3.8182	0.1	-5.6699e-002
4353	22.541	3.6364	0.1	-5.7845e-002
4354	22.541	3.4545	0.1	-5.8643e-002
4355	22.541	3.2727	0.1	-5.9151e-002
4356	22.541	3.0909	0.1	-5.9397e-002
4357	22.541	2.9091	0.1	-5.9396e-002
4358	22.541	2.7273	0.1	-5.915e-002
4359	22.541	2.5455	0.1	-5.8643e-002
4360	22.541	2.3636	0.1	-5.7846e-002
4361	22.541	2.1818	0.1	-5.6701e-002
4362	22.541	2.	0.1	-5.5135e-002
4363	22.541	1.8182	0.1	-5.3028e-002
4364	22.541	1.6364	0.1	-5.0217e-002
4365	22.541	1.4545	0.1	-4.6446e-002
4366	22.541	1.2727	0.1	-4.1389e-002
4367	22.541	1.0909	0.1	-3.4386e-002
4368	22.541	0.90909	0.1	-2.5139e-002
4369	22.541	0.72727	0.1	-1.041e-002
4370	22.541	0.54545	0.1	3.3626e-003
4371	22.541	0.36364	0.1	6.1882e-002
4372	22.541	0.18182	0.1	3.1667e-002
4373	22.358	5.8182	0.1	2.5291e-002
4374	22.358	5.6364	0.1	5.6907e-002
4375	22.358	5.4545	0.1	5.3543e-003
4376	22.358	5.2727	0.1	-6.7459e-003
4377	22.358	5.0909	0.1	-2.0096e-002
4378	22.358	4.9091	0.1	-2.8654e-002
4379	22.358	4.7273	0.1	-3.5226e-002
4380	22.358	4.5455	0.1	-4.0028e-002
4381	22.358	4.3636	0.1	-4.3634e-002
4382	22.358	4.1818	0.1	-4.6332e-002
4383	22.358	4.	0.1	-4.8359e-002
4384	22.358	3.8182	0.1	-4.9869e-002
4385	22.358	3.6364	0.1	-5.0968e-002
4386	22.358	3.4545	0.1	-5.1737e-002
4387	22.358	3.2727	0.1	-5.2223e-002
4388	22.358	3.0909	0.1	-5.2458e-002
4389	22.358	2.9091	0.1	-5.2459e-002
4390	22.358	2.7273	0.1	-5.2224e-002
4391	22.358	2.5455	0.1	-5.1736e-002
4392	22.358	2.3636	0.1	-5.0969e-002
4393	22.358	2.1818	0.1	-4.9867e-002
4394	22.358	2.	0.1	-4.8359e-002
4395	22.358	1.8182	0.1	-4.6333e-002
4396	22.358	1.6364	0.1	-4.3632e-002
4397	22.358	1.4545	0.1	-4.003e-002
4398	22.358	1.2727	0.1	-3.5226e-002
4399	22.358	1.0909	0.1	-2.8654e-002
4400	22.358	0.90909	0.1	-2.0097e-002
4401	22.358	0.72727	0.1	-6.7465e-003
4402	22.358	0.54545	0.1	5.3544e-003
4403	22.358	0.36364	0.1	5.6909e-002
4404	22.358	0.18182	0.1	2.5293e-002
4405	22.176	5.8182	0.1	2.0236e-002
4406	22.176	5.6364	0.1	5.2036e-002
4407	22.176	5.4545	0.1	6.4512e-003
4408	22.176	5.2727	0.1	-4.2318e-003
4409	22.176	5.0909	0.1	-1.6349e-002
4410	22.176	4.9091	0.1	-2.4271e-002
4411	22.176	4.7273	0.1	-3.0431e-002
4412	22.176	4.5455	0.1	-3.4987e-002
4413	22.176	4.3636	0.1	-3.8433e-002
4414	22.176	4.1818	0.1	-4.1029e-002
4415	22.176	4.	0.1	-4.2983e-002
4416	22.176	3.8182	0.1	-4.444e-002
4417	22.176	3.6364	0.1	-4.5504e-002
4418	22.176	3.4545	0.1	-4.6246e-002
4419	22.176	3.2727	0.1	-4.6717e-002
4420	22.176	3.0909	0.1	-4.6944e-002
4421	22.176	2.9091	0.1	-4.6946e-002
4422	22.176	2.7273	0.1	-4.6717e-002
4423	22.176	2.5455	0.1	-4.6248e-002
4424	22.176	2.3636	0.1	-4.5504e-002
4425	22.176	2.1818	0.1	-4.4441e-002
4426	22.176	2.	0.1	-4.2982e-002
4427	22.176	1.8182	0.1	-4.1029e-002
4428	22.176	1.6364	0.1	-3.8433e-002
4429	22.176	1.4545	0.1	-3.4986e-002
4430	22.176	1.2727	0.1	-3.0431e-002
4431	22.176	1.0909	0.1	-2.427e-002
4432	22.176	0.90909	0.1	-1.6351e-002
4433	22.176	0.72727	0.1	-4.235e-003
4434	22.176	0.54545	0.1	6.4501e-003
4435	22.176	0.36364	0.1	5.2039e-002
4436	22.176	0.18182	0.1	2.0238e-002
4437	21.993	5.8182	0.1	1.6212e-002
4438	21.993	5.6364	0.1	4.7367e-002
4439	21.993	5.4545	0.1	6.9781e-003
4440	21.993	5.2727	0.1	-2.4965e-003
4441	21.993	5.0909	0.1	-1.3509e-002
4442	21.993	4.9091	0.1	-2.0838e-002
4443	21.993	4.7273	0.1	-2.661e-002
4444	21.993	4.5455	0.1	-3.0926e-002
4445	21.993	4.3636	0.1	-3.4217e-002
4446	21.993	4.1818	0.1	-3.6709e-002
4447	21.993	4.	0.1	-3.8596e-002
4448	21.993	3.8182	0.1	-4.0006e-002
4449	21.993	3.6364	0.1	-4.1034e-002
4450	21.993	3.4545	0.1	-4.1753e-002
4451	21.993	3.2727	0.1	-4.2208e-002
4452	21.993	3.0909	0.1	-4.2429e-002
4453	21.993	2.9091	0.1	-4.2429e-002
4454	21.993	2.7273	0.1	-4.2207e-002
4455	21.993	2.5455	0.1	-4.1754e-002
4456	21.993	2.3636	0.1	-4.1033e-002
4457	21.993	2.1818	0.1	-4.0005e-002
4458	21.993	2.	0.1	-3.8595e-002
4459	21.993	1.8182	0.1	-3.671e-002
4460	21.993	1.6364	0.1	-3.4217e-002
4461	21.993	1.4545	0.1	-3.0925e-002
4462	21.993	1.2727	0.1	-2.661e-002
4463	21.993	1.0909	0.1	-2.0838e-002
4464	21.993	0.90909	0.1	-1.3508e-002
4465	21.993	0.72727	0.1	-2.4975e-003
4466	21.993	0.54545	0.1	6.9779e-003
4467	21.993	0.36364	0.1	4.7369e-002
4468	21.993	0.18182	0.1	1.6214e-002
4469	21.811	5.8182	0.1	1.2984e-002
4470	21.811	5.6364	0.1	4.2915e-002
4471	21.811	5.4545	0.1	7.1137e-003
4472	21.811	5.2727	0.1	-1.3224e-003
4473	21.811	5.0909	0.1	-1.134e-002
4474	21.811	4.9091	0.1	-1.8122e-002
4475	21.811	4.7273	0.1	-2.3526e-002
4476	21.811	4.5455	0.1	-2.7609e-002
4477	21.811	4.3636	0.1	-3.0747e-002
4478	21.811	4.1818	0.1	-3.3141e-002
4479	21.811	4.	0.1	-3.4956e-002
4480	21.811	3.8182	0.1	-3.6316e-002
4481	21.811	3.6364	0.1	-3.7312e-002
4482	21.811	3.4545	0.1	-3.8008e-002
4483	21.811	3.2727	0.1	-3.845e-002
4484	21.811	3.0909	0.1	-3.8663e-002
4485	21.811	2.9091	0.1	-3.8662e-002
4486	21.811	2.7273	0.1	-3.8449e-002
4487	21.811	2.5455	0.1	-3.8008e-002
4488	21.811	2.3636	0.1	-3.7312e-002
4489	21.811	2.1818	0.1	-3.6317e-002
4490	21.811	2.	0.1	-3.4955e-002
4491	21.811	1.8182	0.1	-3.314e-002
4492	21.811	1.6364	0.1	-3.0747e-002
4493	21.811	1.4545	0.1	-2.7609e-002
4494	21.811	1.2727	0.1	-2.3525e-002
4495	21.811	1.0909	0.1	-1.8123e-002
4496	21.811	0.90909	0.1	-1.1339e-002
4497	21.811	0.72727	0.1	-1.3248e-003
4498	21.811	0.54545	0.1	7.1144e-003
4499	21.811	0.36364	0.1	4.2915e-002
4500	21.811	0.18182	0.1	1.2986e-002
4501	21.628	5.8182	0.1	1.0386e-002
4502	21.628	5.6364	0.1	3.8678e-002
4503	21.628	5.4545	0.1	6.9785e-003
4504	21.628	5.2727	0.1	-5.5645e-004
4505	21.628	5.0909	0.1	-9.6705e-003
4506	21.628	4.9091	0.1	-1.5951e-002
4507	21.628	4.7273	0.1	-2.1007e-002
4508	21.628	4.5455	0.1	-2.4868e-002
4509	21.628	4.3636	0.1	-2.7854e-002
4510	21.628	4.1818	0.1	-3.0145e-002
4511	21.628	4.	0.1	-3.1889e-002
4512	21.628	3.8182	0.1	-3.3201e-002
4513	21.628	3.6364	0.1	-3.4162e-002
4514	21.628	3.4545	0.1	-3.4834e-002
4515	21.628	3.2727	0.1	-3.5261e-002
4516	21.628	3.0909	0.1	-3.5469e-002
4517	21.628	2.9091	0.1	-3.5467e-002
4518	21.628	2.7273	0.1	-3.526e-002
4519	21.628	2.5455	0.1	-3.4835e-002
4520	21.628	2.3636	0.1	-3.4162e-002
4521	21.628	2.1818	0.1	-3.3202e-002
4522	21.628	2.	0.1	-3.1889e-002
4523	21.628	1.8182	0.1	-3.0145e-002
4524	21.628	1.6364	0.1	-2.7855e-002
4525	21.628	1.4545	0.1	-2.4867e-002
4526	21.628	1.2727	0.1	-2.1007e-002
4527	21.628	1.0909	0.1	-1.5951e-002
4528	21.628	0.90909	0.1	-9.6717e-003
4529	21.628	0.72727	0.1	-5.582e-004
4530	21.628	0.54545	0.1	6.9784e-003
4531	21.628	0.36364	0.1	3.8678e-002
4532	21.628	0.18182	0.1	1.0388e-002
4533	21.446	5.8182	0.1	8.3017e-003
4534	21.446	5.6364	0.1	3.4651e-002
4535	21.446	5.4545	0.1	6.6635e-003
4536	21.446	5.2727	0.1	-8.2919e-005
4537	21.446	5.0909	0.1	-8.3735e-003
4538	21.446	4.9091	0.1	-1.4189e-002
4539	21.446	4.7273	0.1	-1.8919e-002
4540	21.446	4.5455	0.1	-2.2564e-002
4541	21.446	4.3636	0.1	-2.5403e-002
4542	21.446	4.1818	0.1	-2.7592e-002
4543	21.446	4.	0.1	-2.9264e-002
4544	21.446	3.8182	0.1	-3.0523e-002
4545	21.446	3.6364	0.1	-3.1449e-002
4546	21.446	3.4545	0.1	-3.2095e-002
4547	21.446	3.2727	0.1	-3.2506e-002
4548	21.446	3.0909	0.1	-3.2703e-002
4549	21.446	2.9091	0.1	-3.2705e-002
4550	21.446	2.7273	0.1	-3.2508e-002
4551	21.446	2.5455	0.1	-3.2096e-002
4552	21.446	2.3636	0.1	-3.1449e-002
4553	21.446	2.1818	0.1	-3.0524e-002
4554	21.446	2.	0.1	-2.9265e-002
4555	21.446	1.8182	0.1	-2.7591e-002
4556	21.446	1.6364	0.1	-2.5402e-002
4557	21.446	1.4545	0.1	-2.2564e-002
4558	21.446	1.2727	0.1	-1.8918e-002
4559	21.446	1.0909	0.1	-1.4189e-002
4560	21.446	0.90909	0.1	-8.3756e-003
4561	21.446	0.72727	0.1	-8.412e-005
4562	21.446	0.54545	0.1	6.6655e-003
4563	21.446	0.36364	0.1	3.4655e-002
4564	21.446	0.18182	0.1	8.3019e-003
4565	21.264	5.8182	0.1	6.6261e-003
4566	21.264	5.6364	0.1	3.0813e-002
4567	21.264	5.4545	0.1	6.2156e-003
4568	21.264	5.2727	0.1	1.6596e-004
4569	21.264	5.0909	0.1	-7.3664e-003
4570	21.264	4.9091	0.1	-1.2749e-002
4571	21.264	4.7273	0.1	-1.7173e-002
4572	21.264	4.5455	0.1	-2.061e-002
4573	21.264	4.3636	0.1	-2.3309e-002
4574	21.264	4.1818	0.1	-2.5395e-002
4575	21.264	4.	0.1	-2.6996e-002
4576	21.264	3.8182	0.1	-2.8203e-002
4577	21.264	3.6364	0.1	-2.9089e-002
4578	21.264	3.4545	0.1	-2.9711e-002
4579	21.264	3.2727	0.1	-3.0102e-002
4580	21.264	3.0909	0.1	-3.0294e-002
4581	21.264	2.9091	0.1	-3.0292e-002
4582	21.264	2.7273	0.1	-3.0103e-002
4583	21.264	2.5455	0.1	-2.9709e-002
4584	21.264	2.3636	0.1	-2.9089e-002
4585	21.264	2.1818	0.1	-2.8203e-002
4586	21.264	2.	0.1	-2.6996e-002
4587	21.264	1.8182	0.1	-2.5397e-002
4588	21.264	1.6364	0.1	-2.3309e-002
4589	21.264	1.4545	0.1	-2.0613e-002
4590	21.264	1.2727	0.1	-1.7173e-002
4591	21.264	1.0909	0.1	-1.2753e-002
4592	21.264	0.90909	0.1	-7.3678e-003
4593	21.264	0.72727	0.1	1.6489e-004
4594	21.264	0.54545	0.1	6.2187e-003
4595	21.264	0.36364	0.1	3.0814e-002
4596	21.264	0.18182	0.1	6.6267e-003
4597	21.081	5.8182	0.1	5.2786e-003
4598	21.081	5.6364	0.1	2.7123e-002
4599	21.081	5.4545	0.1	5.6563e-003
4600	21.081	5.2727	0.1	2.2821e-004
4601	21.081	5.0909	0.1	-6.5993e-003
4602	21.081	4.9091	0.1	-1.1581e-002
4603	21.081	4.7273	0.1	-1.5713e-002
4604	21.081	4.5455	0.1	-1.8959e-002
4605	21.081	4.3636	0.1	-2.1516e-002
4606	21.081	4.1818	0.1	-2.3504e-002
4607	21.081	4.	0.1	-2.5032e-002
4608	21.081	3.8182	0.1	-2.6183e-002
4609	21.081	3.6364	0.1	-2.7031e-002
4610	21.081	3.4545	0.1	-2.7621e-002
4611	21.081	3.2727	0.1	-2.7997e-002
4612	21.081	3.0909	0.1	-2.8178e-002
4613	21.081	2.9091	0.1	-2.8179e-002
4614	21.081	2.7273	0.1	-2.7996e-002
4615	21.081	2.5455	0.1	-2.7622e-002
4616	21.081	2.3636	0.1	-2.703e-002
4617	21.081	2.1818	0.1	-2.6184e-002
4618	21.081	2.	0.1	-2.5031e-002
4619	21.081	1.8182	0.1	-2.3504e-002
4620	21.081	1.6364	0.1	-2.1516e-002
4621	21.081	1.4545	0.1	-1.8959e-002
4622	21.081	1.2727	0.1	-1.5713e-002
4623	21.081	1.0909	0.1	-1.1581e-002
4624	21.081	0.90909	0.1	-6.5996e-003
4625	21.081	0.72727	0.1	2.2871e-004
4626	21.081	0.54545	0.1	5.6579e-003
4627	21.081	0.36364	0.1	2.7126e-002
4628	21.081	0.18182	0.1	5.2761e-003
4629	20.899	5.8182	0.1	4.2164e-003
4630	20.899	5.6364	0.1	2.359e-002
4631	20.899	5.4545	0.1	5.0301e-003
4632	20.899	5.2727	0.1	1.6706e-004
4633	20.899	5.0909	0.1	-6.0021e-003
4634	20.899	4.9091	0.1	-1.0602e-002
4635	20.899	4.7273	0.1	-1.4461e-002
4636	20.899	4.5455	0.1	-1.7519e-002
4637	20.899	4.3636	0.1	-1.9947e-002
4638	20.899	4.1818	0.1	-2.1837e-002
4639	20.899	4.	0.1	-2.3294e-002
4640	20.899	3.8182	0.1	-2.4392e-002
4641	20.899	3.6364	0.1	-2.5197e-002
4642	20.899	3.4545	0.1	-2.576e-002
4643	20.899	3.2727	0.1	-2.6115e-002
4644	20.899	3.0909	0.1	-2.6287e-002
4645	20.899	2.9091	0.1	-2.6286e-002
4646	20.899	2.7273	0.1	-2.6115e-002
4647	20.899	2.5455	0.1	-2.5761e-002
4648	20.899	2.3636	0.1	-2.5197e-002
4649	20.899	2.1818	0.1	-2.4391e-002
4650	20.899	2.	0.1	-2.3295e-002
4651	20.899	1.8182	0.1	-2.1838e-002
4652	20.899	1.6364	0.1	-1.9945e-002
4653	20.899	1.4545	0.1	-1.7522e-002
4654	20.899	1.2727	0.1	-1.446e-002
4655	20.899	1.0909	0.1	-1.0603e-002
4656	20.899	0.90909	0.1	-6.0029e-003
4657	20.899	0.72727	0.1	1.6558e-004
4658	20.899	0.54545	0.1	5.0309e-003
4659	20.899	0.36364	0.1	2.359e-002
4660	20.899	0.18182	0.1	4.2174e-003
4661	20.716	5.8182	0.1	3.4038e-003
4662	20.716	5.6364	0.1	2.0187e-002
4663	20.716	5.4545	0.1	4.3528e-003
4664	20.716	5.2727	0.1	6.901e-006
4665	20.716	5.0909	0.1	-5.5333e-003
4666	20.716	4.9091	0.1	-9.77e-003
4667	20.716	4.7273	0.1	-1.3366e-002
4668	20.716	4.5455	0.1	-1.6251e-002
4669	20.716	4.3636	0.1	-1.8551e-002
4670	20.716	4.1818	0.1	-2.0353e-002
4671	20.716	4.	0.1	-2.174e-002
4672	20.716	3.8182	0.1	-2.2785e-002
4673	20.716	3.6364	0.1	-2.355e-002
4674	20.716	3.4545	0.1	-2.4083e-002
4675	20.716	3.2727	0.1	-2.4419e-002
4676	20.716	3.0909	0.1	-2.4581e-002
4677	20.716	2.9091	0.1	-2.4582e-002
4678	20.716	2.7273	0.1	-2.4419e-002
4679	20.716	2.5455	0.1	-2.4084e-002
4680	20.716	2.3636	0.1	-2.355e-002
4681	20.716	2.1818	0.1	-2.2787e-002
4682	20.716	2.	0.1	-2.1739e-002
4683	20.716	1.8182	0.1	-2.0351e-002
4684	20.716	1.6364	0.1	-1.8551e-002
4685	20.716	1.4545	0.1	-1.625e-002
4686	20.716	1.2727	0.1	-1.3366e-002
4687	20.716	1.0909	0.1	-9.7706e-003
4688	20.716	0.90909	0.1	-5.533e-003
4689	20.716	0.72727	0.1	4.8591e-006
4690	20.716	0.54545	0.1	4.3501e-003
4691	20.716	0.36364	0.1	2.0189e-002
4692	20.716	0.18182	0.1	3.4052e-003
4693	20.534	5.8182	0.1	2.779e-003
4694	20.534	5.6364	0.1	1.6877e-002
4695	20.534	5.4545	0.1	3.6048e-003
4696	20.534	5.2727	0.1	-2.4967e-004
4697	20.534	5.0909	0.1	-5.1819e-003
4698	20.534	4.9091	0.1	-9.0655e-003
4699	20.534	4.7273	0.1	-1.2405e-002
4700	20.534	4.5455	0.1	-1.5122e-002
4701	20.534	4.3636	0.1	-1.7308e-002
4702	20.534	4.1818	0.1	-1.9025e-002
4703	20.534	4.	0.1	-2.0351e-002
4704	20.534	3.8182	0.1	-2.1351e-002
4705	20.534	3.6364	0.1	-2.2079e-002
4706	20.534	3.4545	0.1	-2.2584e-002
4707	20.534	3.2727	0.1	-2.2903e-002
4708	20.534	3.0909	0.1	-2.3055e-002
4709	20.534	2.9091	0.1	-2.3056e-002
4710	20.534	2.7273	0.1	-2.2903e-002
4711	20.534	2.5455	0.1	-2.2584e-002
4712	20.534	2.3636	0.1	-2.208e-002
4713	20.534	2.1818	0.1	-2.135e-002
4714	20.534	2.	0.1	-2.0352e-002
4715	20.534	1.8182	0.1	-1.9026e-002
4716	20.534	1.6364	0.1	-1.7308e-002
4717	20.534	1.4545	0.1	-1.5122e-002
4718	20.534	1.2727	0.1	-1.2406e-002
4719	20.534	1.0909	0.1	-9.065e-003
4720	20.534	0.90909	0.1	-5.1832e-003
4721	20.534	0.72727	0.1	-2.52e-004
4722	20.534	0.54545	0.1	3.6037e-003
4723	20.534	0.36364	0.1	1.6881e-002
4724	20.534	0.18182	0.1	2.7808e-003
4725	20.352	5.8182	0.1	2.333e-003
4726	20.352	5.6364	0.1	1.3655e-002
4727	20.352	5.4545	0.1	2.8099e-003
4728	20.352	5.2727	0.1	-5.7394e-004
4729	20.352	5.0909	0.1	-4.9022e-003
4730	20.352	4.9091	0.1	-8.4225e-003
4731	20.352	4.7273	0.1	-1.1506e-002
4732	20.352	4.5455	0.1	-1.4059e-002
4733	20.352	4.3636	0.1	-1.6139e-002
4734	20.352	4.1818	0.1	-1.7787e-002
4735	20.352	4.	0.1	-1.9064e-002
4736	20.352	3.8182	0.1	-2.0029e-002
4737	20.352	3.6364	0.1	-2.0732e-002
4738	20.352	3.4545	0.1	-2.1219e-002
4739	20.352	3.2727	0.1	-2.1524e-002
4740	20.352	3.0909	0.1	-2.1671e-002
4741	20.352	2.9091	0.1	-2.167e-002
4742	20.352	2.7273	0.1	-2.1524e-002
4743	20.352	2.5455	0.1	-2.1219e-002
4744	20.352	2.3636	0.1	-2.0732e-002
4745	20.352	2.1818	0.1	-2.0029e-002
4746	20.352	2.	0.1	-1.9065e-002
4747	20.352	1.8182	0.1	-1.7788e-002
4748	20.352	1.6364	0.1	-1.6137e-002
4749	20.352	1.4545	0.1	-1.406e-002
4750	20.352	1.2727	0.1	-1.1508e-002
4751	20.352	1.0909	0.1	-8.4225e-003
4752	20.352	0.90909	0.1	-4.9028e-003
4753	20.352	0.72727	0.1	-5.7487e-004
4754	20.352	0.54545	0.1	2.8083e-003
4755	20.352	0.36364	0.1	1.3659e-002
4756	20.352	0.18182	0.1	2.3342e-003
4757	20.169	5.8182	0.1	2.0604e-003
4758	20.169	5.6364	0.1	1.052e-002
4759	20.169	5.4545	0.1	1.9733e-003
4760	20.169	5.2727	0.1	-9.3541e-004
4761	20.169	5.0909	0.1	-4.6359e-003
4762	20.169	4.9091	0.1	-7.7582e-003
4763	20.169	4.7273	0.1	-1.0556e-002
4764	20.169	4.5455	0.1	-1.293e-002
4765	20.169	4.3636	0.1	-1.4904e-002
4766	20.169	4.1818	0.1	-1.6502e-002
4767	20.169	4.	0.1	-1.7762e-002
4768	20.169	3.8182	0.1	-1.8725e-002
4769	20.169	3.6364	0.1	-1.9436e-002
4770	20.169	3.4545	0.1	-1.9933e-002
4771	20.169	3.2727	0.1	-2.0247e-002
4772	20.169	3.0909	0.1	-2.0398e-002
4773	20.169	2.9091	0.1	-2.0399e-002
4774	20.169	2.7273	0.1	-2.0246e-002
4775	20.169	2.5455	0.1	-1.9935e-002
4776	20.169	2.3636	0.1	-1.9436e-002
4777	20.169	2.1818	0.1	-1.8724e-002
4778	20.169	2.	0.1	-1.7762e-002
4779	20.169	1.8182	0.1	-1.6503e-002
4780	20.169	1.6364	0.1	-1.4905e-002
4781	20.169	1.4545	0.1	-1.2928e-002
4782	20.169	1.2727	0.1	-1.0556e-002
4783	20.169	1.0909	0.1	-7.7581e-003
4784	20.169	0.90909	0.1	-4.6361e-003
4785	20.169	0.72727	0.1	-9.3742e-004
4786	20.169	0.54545	0.1	1.9734e-003
4787	20.169	0.36364	0.1	1.0522e-002
4788	20.169	0.18182	0.1	2.0622e-003
4789	19.987	5.8182	0.1	1.9361e-003
4790	19.987	5.6364	0.1	7.4426e-003
4791	19.987	5.4545	0.1	1.0793e-003
4792	19.987	5.2727	0.1	-1.3324e-003
4793	19.987	5.0909	0.1	-4.3253e-003
4794	19.987	4.9091	0.1	-6.9301e-003
4795	19.987	4.7273	0.1	-9.3098e-003
4796	19.987	4.5455	0.1	-1.1389e-002
4797	19.987	4.3636	0.1	-1.3177e-002
4798	19.987	4.1818	0.1	-1.4687e-002
4799	19.987	4.	0.1	-1.5949e-002
4800	19.987	3.8182	0.1	-1.6991e-002
4801	19.987	3.6364	0.1	-1.7841e-002
4802	19.987	3.4545	0.1	-1.8509e-002
4803	19.987	3.2727	0.1	-1.898e-002
4804	19.987	3.0909	0.1	-1.923e-002
4805	19.987	2.9091	0.1	-1.923e-002
4806	19.987	2.7273	0.1	-1.8981e-002
4807	19.987	2.5455	0.1	-1.8507e-002
4808	19.987	2.3636	0.1	-1.7842e-002
4809	19.987	2.1818	0.1	-1.699e-002
4810	19.987	2.	0.1	-1.5948e-002
4811	19.987	1.8182	0.1	-1.4687e-002
4812	19.987	1.6364	0.1	-1.3176e-002
4813	19.987	1.4545	0.1	-1.1388e-002
4814	19.987	1.2727	0.1	-9.31e-003
4815	19.987	1.0909	0.1	-6.9304e-003
4816	19.987	0.90909	0.1	-4.3283e-003
4817	19.987	0.72727	0.1	-1.3324e-003
4818	19.987	0.54545	0.1	1.0804e-003
4819	19.987	0.36364	0.1	7.4444e-003
4820	19.987	0.18182	0.1	1.9363e-003
4821	19.804	5.8182	0.1	1.9523e-003
4822	19.804	5.6364	0.1	4.4171e-003
4823	19.804	5.4545	0.1	1.1729e-004
4824	19.804	5.2727	0.1	-1.7234e-003
4825	19.804	5.0909	0.1	-3.7999e-003
4826	19.804	4.9091	0.1	-5.4641e-003
4827	19.804	4.7273	0.1	-6.7162e-003
4828	19.804	4.5455	0.1	-7.2407e-003
4829	19.804	4.3636	0.1	-6.1279e-003
4830	19.804	4.1818	0.1	4.2628e-003
4831	19.804	4.	0.1	0.52047
4832	19.804	3.8182	0.1	1.467
4833	19.804	3.6364	0.1	2.264
4834	19.804	3.4545	0.1	2.8828
4835	19.804	3.2727	0.1	3.3055
4836	19.804	3.0909	0.1	3.52
4837	19.804	2.9091	0.1	3.52
4838	19.804	2.7273	0.1	3.3055
4839	19.804	2.5455	0.1	2.8828
4840	19.804	2.3636	0.1	2.264
4841	19.804	2.1818	0.1	1.467
4842	19.804	2.	0.1	0.52046
4843	19.804	1.8182	0.1	4.2634e-003
4844	19.804	1.6364	0.1	-6.1289e-003
4845	19.804	1.4545	0.1	-7.2396e-003
4846	19.804	1.2727	0.1	-6.716e-003
4847	19.804	1.0909	0.1	-5.4657e-003
4848	19.804	0.90909	0.1	-3.8027e-003
4849	19.804	0.72727	0.1	-1.7264e-003
4850	19.804	0.54545	0.1	1.1639e-004
4851	19.804	0.36364	0.1	4.418e-003
4852	19.804	0.18182	0.1	1.9561e-003
4853	19.622	5.8182	0.1	2.1143e-003
4854	19.622	5.6364	0.1	1.4351e-003
4855	19.622	5.4545	0.1	-9.2252e-004
4856	19.622	5.2727	0.1	-2.0332e-003
4857	19.622	5.0909	0.1	-2.5104e-003
4858	19.622	4.9091	0.1	-8.0984e-004
4859	19.622	4.7273	0.1	1.5e-002
4860	19.622	4.5455	0.1	0.98487
4861	19.622	4.3636	0.1	2.7254
4862	19.622	4.1818	0.1	4.3574
4863	19.622	4.	0.1	5.8393
4864	19.622	3.8182	0.1	7.1374
4865	19.622	3.6364	0.1	8.2201
4866	19.622	3.4545	0.1	9.0593
4867	19.622	3.2727	0.1	9.6322
4868	19.622	3.0909	0.1	9.9228
4869	19.622	2.9091	0.1	9.9228
4870	19.622	2.7273	0.1	9.6322
4871	19.622	2.5455	0.1	9.0593
4872	19.622	2.3636	0.1	8.2201
4873	19.622	2.1818	0.1	7.1374
4874	19.622	2.	0.1	5.8393
4875	19.622	1.8182	0.1	4.3574
4876	19.622	1.6364	0.1	2.7254
4877	19.622	1.4545	0.1	0.98487
4878	19.622	1.2727	0.1	1.5002e-002
4879	19.622	1.0909	0.1	-8.0947e-004
4880	19.622	0.90909	0.1	-2.512e-003
4881	19.622	0.72727	0.1	-2.035e-003
4882	19.622	0.54545	0.1	-9.2088e-004
4883	19.622	0.36364	0.1	1.4379e-003
4884	19.622	0.18182	0.1	2.1117e-003
4885	19.439	5.8182	0.1	2.4448e-003
4886	19.439	5.6364	0.1	-1.4738e-003
4887	19.439	5.4545	0.1	-2.0344e-003
4888	19.439	5.2727	0.1	-1.9973e-003
4889	19.439	5.0909	0.1	2.7773e-003
4890	19.439	4.9091	0.1	0.37852
4891	19.439	4.7273	0.1	2.7312
4892	19.439	4.5455	0.1	5.0656
4893	19.439	4.3636	0.1	7.2971
4894	19.439	4.1818	0.1	9.3833
4895	19.439	4.	0.1	11.28
4896	19.439	3.8182	0.1	12.944
4897	19.439	3.6364	0.1	14.332
4898	19.439	3.4545	0.1	15.408
4899	19.439	3.2727	0.1	16.144
4900	19.439	3.0909	0.1	16.517
4901	19.439	2.9091	0.1	16.517
4902	19.439	2.7273	0.1	16.144
4903	19.439	2.5455	0.1	15.408
4904	19.439	2.3636	0.1	14.332
4905	19.439	2.1818	0.1	12.944
4906	19.439	2.	0.1	11.28
4907	19.439	1.8182	0.1	9.3833
4908	19.439	1.6364	0.1	7.2971
4909	19.439	1.4545	0.1	5.0656
4910	19.439	1.2727	0.1	2.7312
4911	19.439	1.0909	0.1	0.37853
4912	19.439	0.90909	0.1	2.7769e-003
4913	19.439	0.72727	0.1	-1.9983e-003
4914	19.439	0.54545	0.1	-2.0318e-003
4915	19.439	0.36364	0.1	-1.4746e-003
4916	19.439	0.18182	0.1	2.4421e-003
4917	19.257	5.8182	0.1	2.9482e-003
4918	19.257	5.6364	0.1	-4.3129e-003
4919	19.257	5.4545	0.1	-3.2514e-003
4920	19.257	5.2727	0.1	-5.6009e-004
4921	19.257	5.0909	0.1	0.50149
4922	19.257	4.9091	0.1	3.4209
4923	19.257	4.7273	0.1	6.3445
4924	19.257	4.5455	0.1	9.2019
4925	19.257	4.3636	0.1	11.944
4926	19.257	4.1818	0.1	14.515
4927	19.257	4.	0.1	16.859
4928	19.257	3.8182	0.1	18.918
4929	19.257	3.6364	0.1	20.638
4930	19.257	3.4545	0.1	21.974
4931	19.257	3.2727	0.1	22.886
4932	19.257	3.0909	0.1	23.349
4933	19.257	2.9091	0.1	23.349
4934	19.257	2.7273	0.1	22.886
4935	19.257	2.5455	0.1	21.974
4936	19.257	2.3636	0.1	20.638
4937	19.257	2.1818	0.1	18.918
4938	19.257	2.	0.1	16.859
4939	19.257	1.8182	0.1	14.515
4940	19.257	1.6364	0.1	11.944
4941	19.257	1.4545	0.1	9.2019
4942	19.257	1.2727	0.1	6.3445
4943	19.257	1.0909	0.1	3.4209
4944	19.257	0.90909	0.1	0.50149
4945	19.257	0.72727	0.1	-5.6228e-004
4946	19.257	0.54545	0.1	-3.2499e-003
4947	19.257	0.36364	0.1	-4.3131e-003
4948	19.257	0.18182	0.1	2.9482e-003
4949	19.075	5.8182	0.1	3.6179e-003
4950	19.075	5.6364	0.1	-7.0715e-003
4951	19.075	5.4545	0.1	-4.613e-003
4952	19.075	5.2727	0.1	2.2518e-002
4953	19.075	5.0909	0.1	3.0272
4954	19.075	4.9091	0.1	6.5037
4955	19.075	4.7273	0.1	9.9752
4956	19.075	4.5455	0.1	13.388
4957	19.075	4.3636	0.1	16.677
4958	19.075	4.1818	0.1	19.773
4959	19.075	4.	0.1	22.603
4960	19.075	3.8182	0.1	25.095
4961	19.075	3.6364	0.1	27.18
4962	19.075	3.4545	0.1	28.8
4963	19.075	3.2727	0.1	29.908
4964	19.075	3.0909	0.1	30.47
4965	19.075	2.9091	0.1	30.47
4966	19.075	2.7273	0.1	29.908
4967	19.075	2.5455	0.1	28.8
4968	19.075	2.3636	0.1	27.18
4969	19.075	2.1818	0.1	25.095
4970	19.075	2.	0.1	22.603
4971	19.075	1.8182	0.1	19.773
4972	19.075	1.6364	0.1	16.677
4973	19.075	1.4545	0.1	13.388
4974	19.075	1.2727	0.1	9.9752
4975	19.075	1.0909	0.1	6.5037
4976	19.075	0.90909	0.1	3.0272
4977	19.075	0.72727	0.1	2.2515e-002
4978	19.075	0.54545	0.1	-4.6134e-003
4979	19.075	0.36364	0.1	-7.0686e-003
4980	19.075	0.18182	0.1	3.6194e-003
4981	18.892	5.8182	0.1	4.5106e-003
4982	18.892	5.6364	0.1	-9.6494e-003
4983	18.892	5.4545	0.1	-6.084e-003
4984	18.892	5.2727	0.1	1.5904
4985	18.892	5.0909	0.1	5.5382
4986	18.892	4.9091	0.1	9.5657
4987	18.892	4.7273	0.1	13.618
4988	18.892	4.5455	0.1	17.626
4989	18.892	4.3636	0.1	21.51
4990	18.892	4.1818	0.1	25.179
4991	18.892	4.	0.1	28.543
4992	18.892	3.8182	0.1	31.511
4993	18.892	3.6364	0.1	33.999
4994	18.892	3.4545	0.1	35.935
4995	18.892	3.2727	0.1	37.259
4996	18.892	3.0909	0.1	37.932
4997	18.892	2.9091	0.1	37.932
4998	18.892	2.7273	0.1	37.259
4999	18.892	2.5455	0.1	35.935
5000	18.892	2.3636	0.1	33.999
5001	18.892	2.1818	0.1	31.511
5002	18.892	2.	0.1	28.543
5003	18.892	1.8182	0.1	25.179
5004	18.892	1.6364	0.1	21.51
5005	18.892	1.4545	0.1	17.626
5006	18.892	1.2727	0.1	13.618
5007	18.892	1.0909	0.1	9.5657
5008	18.892	0.90909	0.1	5.5382
5009	18.892	0.72727	0.1	1.5904
5010	18.892	0.54545	0.1	-6.0825e-003
5011	18.892	0.36364	0.1	-9.6494e-003
5012	18.892	0.18182	0.1	4.5133e-003
5013	18.71	5.8182	0.1	5.6474e-003
5014	18.71	5.6364	0.1	-1.1918e-002
5015	18.71	5.4545	0.1	-7.3452e-003
5016	18.71	5.2727	0.1	3.5124
5017	18.71	5.0909	0.1	7.9851
5018	18.71	4.9091	0.1	12.592
5019	18.71	4.7273	0.1	17.266
5020	18.71	4.5455	0.1	21.92
5021	18.71	4.3636	0.1	26.451
5022	18.71	4.1818	0.1	30.751
5023	18.71	4.	0.1	34.704
5024	18.71	3.8182	0.1	38.201
5025	18.71	3.6364	0.1	41.138
5026	18.71	3.4545	0.1	43.426
5027	18.71	3.2727	0.1	44.993
5028	18.71	3.0909	0.1	45.79
5029	18.71	2.9091	0.1	45.79
5030	18.71	2.7273	0.1	44.993
5031	18.71	2.5455	0.1	43.426
5032	18.71	2.3636	0.1	41.138
5033	18.71	2.1818	0.1	38.201
5034	18.71	2.	0.1	34.704
5035	18.71	1.8182	0.1	30.751
5036	18.71	1.6364	0.1	26.451
5037	18.71	1.4545	0.1	21.92
5038	18.71	1.2727	0.1	17.266
5039	18.71	1.0909	0.1	12.592
5040	18.71	0.90909	0.1	7.9851
5041	18.71	0.72727	0.1	3.5124
5042	18.71	0.54545	0.1	-7.3469e-003
5043	18.71	0.36364	0.1	-1.1916e-002
5044	18.71	0.18182	0.1	5.649e-003
5045	18.527	5.8182	0.1	6.997e-003
5046	18.527	5.6364	0.1	-1.3655e-002
5047	18.527	5.4545	0.1	0.57584
5048	18.527	5.2727	0.1	5.3286
5049	18.527	5.0909	0.1	10.343
5050	18.527	4.9091	0.1	15.565
5051	18.527	4.7273	0.1	20.908
5052	18.527	4.5455	0.1	26.264
5053	18.527	4.3636	0.1	31.508
5054	18.527	4.1818	0.1	36.505
5055	18.527	4.	0.1	41.115
5056	18.527	3.8182	0.1	45.202
5057	18.527	3.6364	0.1	48.642
5058	18.527	3.4545	0.1	51.325
5059	18.527	3.2727	0.1	53.164
5060	18.527	3.0909	0.1	54.099
5061	18.527	2.9091	0.1	54.099
5062	18.527	2.7273	0.1	53.164
5063	18.527	2.5455	0.1	51.325
5064	18.527	2.3636	0.1	48.642
5065	18.527	2.1818	0.1	45.202
5066	18.527	2.	0.1	41.115
5067	18.527	1.8182	0.1	36.505
5068	18.527	1.6364	0.1	31.509
5069	18.527	1.4545	0.1	26.264
5070	18.527	1.2727	0.1	20.908
5071	18.527	1.0909	0.1	15.565
5072	18.527	0.90909	0.1	10.343
5073	18.527	0.72727	0.1	5.3286
5074	18.527	0.54545	0.1	0.57582
5075	18.527	0.36364	0.1	-1.3655e-002
5076	18.527	0.18182	0.1	6.9984e-003
5077	18.345	5.8182	0.1	8.5671e-003
5078	18.345	5.6364	0.1	-1.4286e-002
5079	18.345	5.4545	0.1	1.7959
5080	18.345	5.2727	0.1	7.0047
5081	18.345	5.0909	0.1	12.583
5082	18.345	4.9091	0.1	18.459
5083	18.345	4.7273	0.1	24.527
5084	18.345	4.5455	0.1	30.654
5085	18.345	4.3636	0.1	36.685
5086	18.345	4.1818	0.1	42.457
5087	18.345	4.	0.1	47.799
5088	18.345	3.8182	0.1	52.549
5089	18.345	3.6364	0.1	56.553
5090	18.345	3.4545	0.1	59.68
5091	18.345	3.2727	0.1	61.826
5092	18.345	3.0909	0.1	62.918
5093	18.345	2.9091	0.1	62.918
5094	18.345	2.7273	0.1	61.826
5095	18.345	2.5455	0.1	59.68
5096	18.345	2.3636	0.1	56.553
5097	18.345	2.1818	0.1	52.549
5098	18.345	2.	0.1	47.799
5099	18.345	1.8182	0.1	42.457
5100	18.345	1.6364	0.1	36.685
5101	18.345	1.4545	0.1	30.654
5102	18.345	1.2727	0.1	24.527
5103	18.345	1.0909	0.1	18.459
5104	18.345	0.90909	0.1	12.583
5105	18.345	0.72727	0.1	7.0047
5106	18.345	0.54545	0.1	1.7959
5107	18.345	0.36364	0.1	-1.4286e-002
5108	18.345	0.18182	0.1	8.5693e-003
5109	18.162	5.8182	0.1	1.0316e-002
5110	18.162	5.6364	0.1	-1.2659e-002
5111	18.162	5.4545	0.1	2.8381
5112	18.162	5.2727	0.1	8.5023
5113	18.162	5.0909	0.1	14.668
5114	18.162	4.9091	0.1	21.245
5115	18.162	4.7273	0.1	28.102
5116	18.162	4.5455	0.1	35.076
5117	18.162	4.3636	0.1	41.981
5118	18.162	4.1818	0.1	48.618
5119	18.162	4.	0.1	54.782
5120	18.162	3.8182	0.1	60.275
5121	18.162	3.6364	0.1	64.915
5122	18.162	3.4545	0.1	68.544
5123	18.162	3.2727	0.1	71.036
5124	18.162	3.0909	0.1	72.305
5125	18.162	2.9091	0.1	72.305
5126	18.162	2.7273	0.1	71.036
5127	18.162	2.5455	0.1	68.544
5128	18.162	2.3636	0.1	64.915
5129	18.162	2.1818	0.1	60.275
5130	18.162	2.	0.1	54.782
5131	18.162	1.8182	0.1	48.618
5132	18.162	1.6364	0.1	41.981
5133	18.162	1.4545	0.1	35.076
5134	18.162	1.2727	0.1	28.102
5135	18.162	1.0909	0.1	21.245
5136	18.162	0.90909	0.1	14.668
5137	18.162	0.72727	0.1	8.5023
5138	18.162	0.54545	0.1	2.8381
5139	18.162	0.36364	0.1	-1.266e-002
5140	18.162	0.18182	0.1	1.0318e-002
5141	17.98	5.8182	0.1	1.2095e-002
5142	17.98	5.6364	0.1	-6.7833e-003
5143	17.98	5.4545	0.1	3.659
5144	17.98	5.2727	0.1	9.7758
5145	17.98	5.0909	0.1	16.555
5146	17.98	4.9091	0.1	23.885
5147	17.98	4.7273	0.1	31.603
5148	17.98	4.5455	0.1	39.514
5149	17.98	4.3636	0.1	47.391
5150	17.98	4.1818	0.1	54.995
5151	17.98	4.	0.1	62.081
5152	17.98	3.8182	0.1	68.412
5153	17.98	3.6364	0.1	73.769
5154	17.98	3.4545	0.1	77.964
5155	17.98	3.2727	0.1	80.848
5156	17.98	3.0909	0.1	82.317
5157	17.98	2.9091	0.1	82.317
5158	17.98	2.7273	0.1	80.848
5159	17.98	2.5455	0.1	77.964
5160	17.98	2.3636	0.1	73.769
5161	17.98	2.1818	0.1	68.412
5162	17.98	2.	0.1	62.081
5163	17.98	1.8182	0.1	54.995
5164	17.98	1.6364	0.1	47.391
5165	17.98	1.4545	0.1	39.514
5166	17.98	1.2727	0.1	31.603
5167	17.98	1.0909	0.1	23.885
5168	17.98	0.90909	0.1	16.555
5169	17.98	0.72727	0.1	9.7758
5170	17.98	0.54545	0.1	3.659
5171	17.98	0.36364	0.1	-6.7814e-003
5172	17.98	0.18182	0.1	1.2097e-002
5173	17.798	5.8182	0.1	1.3701e-002
5174	17.798	5.6364	0.1	5.2759e-003
5175	17.798	5.4545	0.1	4.209
5176	17.798	5.2727	0.1	10.772
5177	17.798	5.0909	0.1	18.194
5178	17.798	4.9091	0.1	26.334
5179	17.798	4.7273	0.1	34.996
5180	17.798	4.5455	0.1	43.943
5181	17.798	4.3636	0.1	52.905
5182	17.798	4.1818	0.1	61.593
5183	17.798	4.	0.1	69.715
5184	17.798	3.8182	0.1	76.988
5185	17.798	3.6364	0.1	83.153
5186	17.798	3.4545	0.1	87.987
5187	17.798	3.2727	0.1	91.313
5188	17.798	3.0909	0.1	93.007
5189	17.798	2.9091	0.1	93.007
5190	17.798	2.7273	0.1	91.313
5191	17.798	2.5455	0.1	87.987
5192	17.798	2.3636	0.1	83.153
5193	17.798	2.1818	0.1	76.988
5194	17.798	2.	0.1	69.715
5195	17.798	1.8182	0.1	61.593
5196	17.798	1.6364	0.1	52.905
5197	17.798	1.4545	0.1	43.943
5198	17.798	1.2727	0.1	34.996
5199	17.798	1.0909	0.1	26.334
5200	17.798	0.90909	0.1	18.194
5201	17.798	0.72727	0.1	10.772
5202	17.798	0.54545	0.1	4.209
5203	17.798	0.36364	0.1	5.2766e-003
5204	17.798	0.18182	0.1	1.3701e-002
5205	17.615	5.8182	0.1	1.4859e-002
5206	17.615	5.6364	0.1	2.1215e-002
5207	17.615	5.4545	0.1	4.4318
5208	17.615	5.2727	0.1	11.431
5209	17.615	5.0909	0.1	19.525
5210	17.615	4.9091	0.1	28.539
5211	17.615	4.7273	0.1	38.237
5212	17.615	4.5455	0.1	48.334
5213	17.615	4.3636	0.1	58.505
5214	17.615	4.1818	0.1	68.407
5215	17.615	4.	0.1	77.692
5216	17.615	3.8182	0.1	86.025
5217	17.615	3.6364	0.1	93.1
5218	17.615	3.4545	0.1	98.652
5219	17.615	3.2727	0.1	102.47
5220	17.615	3.0909	0.1	104.42
5221	17.615	2.9091	0.1	104.42
5222	17.615	2.7273	0.1	102.47
5223	17.615	2.5455	0.1	98.652
5224	17.615	2.3636	0.1	93.1
5225	17.615	2.1818	0.1	86.025
5226	17.615	2.	0.1	77.692
5227	17.615	1.8182	0.1	68.407
5228	17.615	1.6364	0.1	58.505
5229	17.615	1.4545	0.1	48.334
5230	17.615	1.2727	0.1	38.237
5231	17.615	1.0909	0.1	28.539
5232	17.615	0.90909	0.1	19.525
5233	17.615	0.72727	0.1	11.431
5234	17.615	0.54545	0.1	4.4318
5235	17.615	0.36364	0.1	2.1214e-002
5236	17.615	0.18182	0.1	1.486e-002
5237	17.433	5.8182	0.1	1.5328e-002
5238	17.433	5.6364	0.1	3.4055e-002
5239	17.433	5.4545	0.1	4.2666
5240	17.433	5.2727	0.1	11.685
5241	17.433	5.0909	0.1	20.482
5242	17.433	4.9091	0.1	30.441
5243	17.433	4.7273	0.1	41.276
5244	17.433	4.5455	0.1	52.647
5245	17.433	4.3636	0.1	64.167
5246	17.433	4.1818	0.1	75.427
5247	17.433	4.	0.1	86.016
5248	17.433	3.8182	0.1	95.537
5249	17.433	3.6364	0.1	103.63
5250	17.433	3.4545	0.1	109.99
5251	17.433	3.2727	0.1	114.36
5252	17.433	3.0909	0.1	116.59
5253	17.433	2.9091	0.1	116.59
5254	17.433	2.7273	0.1	114.36
5255	17.433	2.5455	0.1	109.99
5256	17.433	2.3636	0.1	103.63
5257	17.433	2.1818	0.1	95.537
5258	17.433	2.	0.1	86.016
5259	17.433	1.8182	0.1	75.427
5260	17.433	1.6364	0.1	64.167
5261	17.433	1.4545	0.1	52.647
5262	17.433	1.2727	0.1	41.276
5263	17.433	1.0909	0.1	30.441
5264	17.433	0.90909	0.1	20.482
5265	17.433	0.72727	0.1	11.685
5266	17.433	0.54545	0.1	4.2666
5267	17.433	0.36364	0.1	3.4055e-002
5268	17.433	0.18182	0.1	1.5328e-002
5269	17.25	5.8182	0.1	1.4909e-002
5270	17.25	5.6364	0.1	4.1143e-002
5271	17.25	5.4545	0.1	3.6524
5272	17.25	5.2727	0.1	11.461
5273	17.25	5.0909	0.1	20.991
5274	17.25	4.9091	0.1	31.97
5275	17.25	4.7273	0.1	44.054
5276	17.25	4.5455	0.1	56.835
5277	17.25	4.3636	0.1	69.856
5278	17.25	4.1818	0.1	82.632
5279	17.25	4.	0.1	94.677
5280	17.25	3.8182	0.1	105.52
5281	17.25	3.6364	0.1	114.75
5282	17.25	3.4545	0.1	122.
5283	17.25	3.2727	0.1	126.99
5284	17.25	3.0909	0.1	129.54
5285	17.25	2.9091	0.1	129.54
5286	17.25	2.7273	0.1	126.99
5287	17.25	2.5455	0.1	122.
5288	17.25	2.3636	0.1	114.75
5289	17.25	2.1818	0.1	105.52
5290	17.25	2.	0.1	94.677
5291	17.25	1.8182	0.1	82.633
5292	17.25	1.6364	0.1	69.856
5293	17.25	1.4545	0.1	56.835
5294	17.25	1.2727	0.1	44.054
5295	17.25	1.0909	0.1	31.97
5296	17.25	0.90909	0.1	20.991
5297	17.25	0.72727	0.1	11.461
5298	17.25	0.54545	0.1	3.6524
5299	17.25	0.36364	0.1	4.1143e-002
5300	17.25	0.18182	0.1	1.491e-002
5301	17.068	5.8182	0.1	1.3567e-002
5302	17.068	5.6364	0.1	4.5594e-002
5303	17.068	5.4545	0.1	2.5519
5304	17.068	5.2727	0.1	10.682
5305	17.068	5.0909	0.1	20.973
5306	17.068	4.9091	0.1	33.05
5307	17.068	4.7273	0.1	46.501
5308	17.068	4.5455	0.1	60.84
5309	17.068	4.3636	0.1	75.527
5310	17.068	4.1818	0.1	89.989
5311	17.068	4.	0.1	103.65
5312	17.068	3.8182	0.1	115.97
5313	17.068	3.6364	0.1	126.45
5314	17.068	3.4545	0.1	134.68
5315	17.068	3.2727	0.1	140.35
5316	17.068	3.0909	0.1	143.24
5317	17.068	2.9091	0.1	143.24
5318	17.068	2.7273	0.1	140.35
5319	17.068	2.5455	0.1	134.68
5320	17.068	2.3636	0.1	126.45
5321	17.068	2.1818	0.1	115.97
5322	17.068	2.	0.1	103.65
5323	17.068	1.8182	0.1	89.989
5324	17.068	1.6364	0.1	75.527
5325	17.068	1.4545	0.1	60.84
5326	17.068	1.2727	0.1	46.501
5327	17.068	1.0909	0.1	33.05
5328	17.068	0.90909	0.1	20.973
5329	17.068	0.72727	0.1	10.682
5330	17.068	0.54545	0.1	2.5519
5331	17.068	0.36364	0.1	4.5595e-002
5332	17.068	0.18182	0.1	1.3567e-002
5333	16.885	5.8182	0.1	1.1506e-002
5334	16.885	5.6364	0.1	5.0759e-002
5335	16.885	5.4545	0.1	1.1376
5336	16.885	5.2727	0.1	9.2764
5337	16.885	5.0909	0.1	20.344
5338	16.885	4.9091	0.1	33.596
5339	16.885	4.7273	0.1	48.536
5340	16.885	4.5455	0.1	64.59
5341	16.885	4.3636	0.1	81.118
5342	16.885	4.1818	0.1	97.443
5343	16.885	4.	0.1	112.89
5344	16.885	3.8182	0.1	126.82
5345	16.885	3.6364	0.1	138.67
5346	16.885	3.4545	0.1	147.97
5347	16.885	3.2727	0.1	154.36
5348	16.885	3.0909	0.1	157.62
5349	16.885	2.9091	0.1	157.62
5350	16.885	2.7273	0.1	154.36
5351	16.885	2.5455	0.1	147.97
5352	16.885	2.3636	0.1	138.67
5353	16.885	2.1818	0.1	126.82
5354	16.885	2.	0.1	112.89
5355	16.885	1.8182	0.1	97.443
5356	16.885	1.6364	0.1	81.118
5357	16.885	1.4545	0.1	64.59
5358	16.885	1.2727	0.1	48.537
5359	16.885	1.0909	0.1	33.596
5360	16.885	0.90909	0.1	20.344
5361	16.885	0.72727	0.1	9.2764
5362	16.885	0.54545	0.1	1.1376
5363	16.885	0.36364	0.1	5.0761e-002
5364	16.885	0.18182	0.1	1.1505e-002
5365	16.703	5.8182	0.1	8.93e-003
5366	16.703	5.6364	0.1	5.84e-002
5367	16.703	5.4545	0.1	0.40325
5368	16.703	5.2727	0.1	7.1956
5369	16.703	5.0909	0.1	19.019
5370	16.703	4.9091	0.1	33.515
5371	16.703	4.7273	0.1	50.065
5372	16.703	4.5455	0.1	67.992
5373	16.703	4.3636	0.1	86.541
5374	16.703	4.1818	0.1	104.91
5375	16.703	4.	0.1	122.32
5376	16.703	3.8182	0.1	138.
5377	16.703	3.6364	0.1	151.32
5378	16.703	3.4545	0.1	161.75
5379	16.703	3.2727	0.1	168.92
5380	16.703	3.0909	0.1	172.56
5381	16.703	2.9091	0.1	172.56
5382	16.703	2.7273	0.1	168.92
5383	16.703	2.5455	0.1	161.75
5384	16.703	2.3636	0.1	151.32
5385	16.703	2.1818	0.1	138.
5386	16.703	2.	0.1	122.32
5387	16.703	1.8182	0.1	104.91
5388	16.703	1.6364	0.1	86.541
5389	16.703	1.4545	0.1	67.992
5390	16.703	1.2727	0.1	50.065
5391	16.703	1.0909	0.1	33.515
5392	16.703	0.90909	0.1	19.019
5393	16.703	0.72727	0.1	7.1957
5394	16.703	0.54545	0.1	0.40325
5395	16.703	0.36364	0.1	5.84e-002
5396	16.703	0.18182	0.1	8.9303e-003
5397	16.521	5.8182	0.1	5.8927e-003
5398	16.521	5.6364	0.1	6.9358e-002
5399	16.521	5.4545	0.1	0.25281
5400	16.521	5.2727	0.1	4.5099
5401	16.521	5.0909	0.1	16.917
5402	16.521	4.9091	0.1	32.698
5403	16.521	4.7273	0.1	50.967
5404	16.521	4.5455	0.1	70.922
5405	16.521	4.3636	0.1	91.676
5406	16.521	4.1818	0.1	112.28
5407	16.521	4.	0.1	131.8
5408	16.521	3.8182	0.1	149.37
5409	16.521	3.6364	0.1	164.24
5410	16.521	3.4545	0.1	175.84
5411	16.521	3.2727	0.1	183.78
5412	16.521	3.0909	0.1	187.8
5413	16.521	2.9091	0.1	187.8
5414	16.521	2.7273	0.1	183.78
5415	16.521	2.5455	0.1	175.84
5416	16.521	2.3636	0.1	164.24
5417	16.521	2.1818	0.1	149.37
5418	16.521	2.	0.1	131.8
5419	16.521	1.8182	0.1	112.28
5420	16.521	1.6364	0.1	91.676
5421	16.521	1.4545	0.1	70.923
5422	16.521	1.2727	0.1	50.967
5423	16.521	1.0909	0.1	32.698
5424	16.521	0.90909	0.1	16.917
5425	16.521	0.72727	0.1	4.51
5426	16.521	0.54545	0.1	0.25281
5427	16.521	0.36364	0.1	6.9358e-002
5428	16.521	0.18182	0.1	5.8921e-003
5429	16.338	5.8182	0.1	2.3713e-003
5430	16.338	5.6364	0.1	8.4322e-002
5431	16.338	5.4545	0.1	0.21548
5432	16.338	5.2727	0.1	1.9699
5433	16.338	5.0909	0.1	13.979
5434	16.338	4.9091	0.1	31.019
5435	16.338	4.7273	0.1	51.083
5436	16.338	4.5455	0.1	73.206
5437	16.338	4.3636	0.1	96.342
5438	16.338	4.1818	0.1	119.37
5439	16.338	4.	0.1	141.16
5440	16.338	3.8182	0.1	160.71
5441	16.338	3.6364	0.1	177.16
5442	16.338	3.4545	0.1	189.91
5443	16.338	3.2727	0.1	198.58
5444	16.338	3.0909	0.1	202.96
5445	16.338	2.9091	0.1	202.96
5446	16.338	2.7273	0.1	198.58
5447	16.338	2.5455	0.1	189.91
5448	16.338	2.3636	0.1	177.16
5449	16.338	2.1818	0.1	160.71
5450	16.338	2.	0.1	141.16
5451	16.338	1.8182	0.1	119.37
5452	16.338	1.6364	0.1	96.342
5453	16.338	1.4545	0.1	73.206
5454	16.338	1.2727	0.1	51.083
5455	16.338	1.0909	0.1	31.019
5456	16.338	0.90909	0.1	13.979
5457	16.338	0.72727	0.1	1.9699
5458	16.338	0.54545	0.1	0.21548
5459	16.338	0.36364	0.1	8.4322e-002
5460	16.338	0.18182	0.1	2.3718e-003
5461	16.156	5.8182	0.1	-1.7946e-003
5462	16.156	5.6364	0.1	0.10403
5463	16.156	5.4545	0.1	0.2139
5464	16.156	5.2727	0.1	0.97149
5465	16.156	5.0909	0.1	10.225
5466	16.156	4.9091	0.1	28.318
5467	16.156	4.7273	0.1	50.185
5468	16.156	4.5455	0.1	74.579
5469	16.156	4.3636	0.1	100.26
5470	16.156	4.1818	0.1	125.89
5471	16.156	4.	0.1	150.1
5472	16.156	3.8182	0.1	171.67
5473	16.156	3.6364	0.1	189.67
5474	16.156	3.4545	0.1	203.47
5475	16.156	3.2727	0.1	212.76
5476	16.156	3.0909	0.1	217.41
5477	16.156	2.9091	0.1	217.41
5478	16.156	2.7273	0.1	212.76
5479	16.156	2.5455	0.1	203.47
5480	16.156	2.3636	0.1	189.67
5481	16.156	2.1818	0.1	171.67
5482	16.156	2.	0.1	150.1
5483	16.156	1.8182	0.1	125.89
5484	16.156	1.6364	0.1	100.26
5485	16.156	1.4545	0.1	74.579
5486	16.156	1.2727	0.1	50.185
5487	16.156	1.0909	0.1	28.318
5488	16.156	0.90909	0.1	10.225
5489	16.156	0.72727	0.1	0.9715
5490	16.156	0.54545	0.1	0.2139
5491	16.156	0.36364	0.1	0.10403
5492	16.156	0.18182	0.1	-1.7944e-003
5493	15.973	5.8182	0.1	-6.7028e-003
5494	15.973	5.6364	0.1	0.12948
5495	15.973	5.4545	0.1	0.23316
5496	15.973	5.2727	0.1	0.73117
5497	15.973	5.0909	0.1	6.0643
5498	15.973	4.9091	0.1	24.387
5499	15.973	4.7273	0.1	47.925
5500	15.973	4.5455	0.1	74.626
5501	15.973	4.3636	0.1	103.
5502	15.973	4.1818	0.1	131.41
5503	15.973	4.	0.1	158.15
5504	15.973	3.8182	0.1	181.76
5505	15.973	3.6364	0.1	201.16
5506	15.973	3.4545	0.1	215.77
5507	15.973	3.2727	0.1	225.43
5508	15.973	3.0909	0.1	230.2
5509	15.973	2.9091	0.1	230.2
5510	15.973	2.7273	0.1	225.43
5511	15.973	2.5455	0.1	215.77
5512	15.973	2.3636	0.1	201.16
5513	15.973	2.1818	0.1	181.76
5514	15.973	2.	0.1	158.15
5515	15.973	1.8182	0.1	131.41
5516	15.973	1.6364	0.1	103.
5517	15.973	1.4545	0.1	74.626
5518	15.973	1.2727	0.1	47.925
5519	15.973	1.0909	0.1	24.387
5520	15.973	0.90909	0.1	6.0644
5521	15.973	0.72727	0.1	0.73118
5522	15.973	0.54545	0.1	0.23316
5523	15.973	0.36364	0.1	0.12948
5524	15.973	0.18182	0.1	-6.7009e-003
5525	15.791	5.8182	0.1	-1.1759e-002
5526	15.791	5.6364	0.1	0.16236
5527	15.791	5.4545	0.1	0.27139
5528	15.791	5.2727	0.1	0.68268
5529	15.791	5.0909	0.1	3.0851
5530	15.791	4.9091	0.1	18.977
5531	15.791	4.7273	0.1	43.75
5532	15.791	4.5455	0.1	72.666
5533	15.791	4.3636	0.1	103.85
5534	15.791	4.1818	0.1	135.23
5535	15.791	4.	0.1	164.65
5536	15.791	3.8182	0.1	190.22
5537	15.791	3.6364	0.1	210.73
5538	15.791	3.4545	0.1	225.69
5539	15.791	3.2727	0.1	235.28
5540	15.791	3.0909	0.1	239.91
5541	15.791	2.9091	0.1	239.91
5542	15.791	2.7273	0.1	235.28
5543	15.791	2.5455	0.1	225.69
5544	15.791	2.3636	0.1	210.73
5545	15.791	2.1818	0.1	190.22
5546	15.791	2.	0.1	164.65
5547	15.791	1.8182	0.1	135.23
5548	15.791	1.6364	0.1	103.85
5549	15.791	1.4545	0.1	72.666
5550	15.791	1.2727	0.1	43.75
5551	15.791	1.0909	0.1	18.977
5552	15.791	0.90909	0.1	3.0852
5553	15.791	0.72727	0.1	0.68269
5554	15.791	0.54545	0.1	0.2714
5555	15.791	0.36364	0.1	0.16236
5556	15.791	0.18182	0.1	-1.176e-002
5557	15.608	5.8182	0.1	-1.4431e-002
5558	15.608	5.6364	0.1	0.20586
5559	15.608	5.4545	0.1	0.33235
5560	15.608	5.2727	0.1	0.71423
5561	15.608	5.0909	0.1	1.9924
5562	15.608	4.9091	0.1	12.093
5563	15.608	4.7273	0.1	36.782
5564	15.608	4.5455	0.1	67.565
5565	15.608	4.3636	0.1	101.62
5566	15.608	4.1818	0.1	136.24
5567	15.608	4.	0.1	168.52
5568	15.608	3.8182	0.1	195.93
5569	15.608	3.6364	0.1	217.02
5570	15.608	3.4545	0.1	231.58
5571	15.608	3.2727	0.1	240.36
5572	15.608	3.0909	0.1	244.39
5573	15.608	2.9091	0.1	244.39
5574	15.608	2.7273	0.1	240.36
5575	15.608	2.5455	0.1	231.58
5576	15.608	2.3636	0.1	217.02
5577	15.608	2.1818	0.1	195.93
5578	15.608	2.	0.1	168.52
5579	15.608	1.8182	0.1	136.24
5580	15.608	1.6364	0.1	101.62
5581	15.608	1.4545	0.1	67.565
5582	15.608	1.2727	0.1	36.782
5583	15.608	1.0909	0.1	12.094
5584	15.608	0.90909	0.1	1.9924
5585	15.608	0.72727	0.1	0.71423
5586	15.608	0.54545	0.1	0.33235
5587	15.608	0.36364	0.1	0.20586
5588	15.608	0.18182	0.1	-1.4432e-002
5589	15.426	5.8182	0.1	-7.977e-003
5590	15.426	5.6364	0.1	0.26621
5591	15.426	5.4545	0.1	0.42446
5592	15.426	5.2727	0.1	0.80059
5593	15.426	5.0909	0.1	1.6491
5594	15.426	4.9091	0.1	5.7812
5595	15.426	4.7273	0.1	25.811
5596	15.426	4.5455	0.1	57.447
5597	15.426	4.3636	0.1	94.338
5598	15.426	4.1818	0.1	132.63
5599	15.426	4.	0.1	168.13
5600	15.426	3.8182	0.1	197.21
5601	15.426	3.6364	0.1	218.06
5602	15.426	3.4545	0.1	230.99
5603	15.426	3.2727	0.1	237.78
5604	15.426	3.0909	0.1	240.51
5605	15.426	2.9091	0.1	240.51
5606	15.426	2.7273	0.1	237.78
5607	15.426	2.5455	0.1	230.99
5608	15.426	2.3636	0.1	218.06
5609	15.426	2.1818	0.1	197.21
5610	15.426	2.	0.1	168.13
5611	15.426	1.8182	0.1	132.63
5612	15.426	1.6364	0.1	94.338
5613	15.426	1.4545	0.1	57.448
5614	15.426	1.2727	0.1	25.811
5615	15.426	1.0909	0.1	5.7813
5616	15.426	0.90909	0.1	1.6491
5617	15.426	0.72727	0.1	0.80059
5618	15.426	0.54545	0.1	0.42446
5619	15.426	0.36364	0.1	0.26621
5620	15.426	0.18182	0.1	-7.9761e-003
5621	15.244	5.8182	0.1	2.5e-002
5622	15.244	5.6364	0.1	0.35809
5623	15.244	5.4545	0.1	0.56429
5624	15.244	5.2727	0.1	0.93967
5625	15.244	5.0909	0.1	1.5562
5626	15.244	4.9091	0.1	3.134
5627	15.244	4.7273	0.1	11.421
5628	15.244	4.5455	0.1	39.472
5629	15.244	4.3636	0.1	78.724
5630	15.244	4.1818	0.1	121.44
5631	15.244	4.	0.1	160.96
5632	15.244	3.8182	0.1	191.63
5633	15.244	3.6364	0.1	210.99
5634	15.244	3.4545	0.1	220.36
5635	15.244	3.2727	0.1	223.36
5636	15.244	3.0909	0.1	223.75
5637	15.244	2.9091	0.1	223.75
5638	15.244	2.7273	0.1	223.36
5639	15.244	2.5455	0.1	220.36
5640	15.244	2.3636	0.1	210.99
5641	15.244	2.1818	0.1	191.63
5642	15.244	2.	0.1	160.96
5643	15.244	1.8182	0.1	121.44
5644	15.244	1.6364	0.1	78.724
5645	15.244	1.4545	0.1	39.472
5646	15.244	1.2727	0.1	11.421
5647	15.244	1.0909	0.1	3.1341
5648	15.244	0.90909	0.1	1.5562
5649	15.244	0.72727	0.1	0.93967
5650	15.244	0.54545	0.1	0.56429
5651	15.244	0.36364	0.1	0.35809
5652	15.244	0.18182	0.1	2.5002e-002
5653	15.061	5.8182	0.1	0.11861
5654	15.061	5.6364	0.1	0.50995
5655	15.061	5.4545	0.1	0.77563
5656	15.061	5.2727	0.1	1.1313
5657	15.061	5.0909	0.1	1.5698
5658	15.061	4.9091	0.1	2.2972
5659	15.061	4.7273	0.1	4.1395
5660	15.061	4.5455	0.1	13.861
5661	15.061	4.3636	0.1	49.682
5662	15.061	4.1818	0.1	97.724
5663	15.061	4.	0.1	142.96
5664	15.061	3.8182	0.1	175.45
5665	15.061	3.6364	0.1	191.53
5666	15.061	3.4545	0.1	194.48
5667	15.061	3.2727	0.1	191.17
5668	15.061	3.0909	0.1	187.81
5669	15.061	2.9091	0.1	187.81
5670	15.061	2.7273	0.1	191.17
5671	15.061	2.5455	0.1	194.48
5672	15.061	2.3636	0.1	191.53
5673	15.061	2.1818	0.1	175.45
5674	15.061	2.	0.1	142.96
5675	15.061	1.8182	0.1	97.725
5676	15.061	1.6364	0.1	49.682
5677	15.061	1.4545	0.1	13.862
5678	15.061	1.2727	0.1	4.1395
5679	15.061	1.0909	0.1	2.2972
5680	15.061	0.90909	0.1	1.5698
5681	15.061	0.72727	0.1	1.1313
5682	15.061	0.54545	0.1	0.77563
5683	15.061	0.36364	0.1	0.50995
5684	15.061	0.18182	0.1	0.11861
5685	14.879	5.8182	0.1	0.36761
5686	14.879	5.6364	0.1	0.80729
5687	14.879	5.4545	0.1	1.1174
5688	14.879	5.2727	0.1	1.3902
5689	14.879	5.0909	0.1	1.6592
5690	14.879	4.9091	0.1	2.0237
5691	14.879	4.7273	0.1	2.6438
5692	14.879	4.5455	0.1	4.1746
5693	14.879	4.3636	0.1	11.81
5694	14.879	4.1818	0.1	54.102
5695	14.879	4.	0.1	108.02
5696	14.879	3.8182	0.1	143.34
5697	14.879	3.6364	0.1	153.34
5698	14.879	3.4545	0.1	145.85
5699	14.879	3.2727	0.1	133.16
5700	14.879	3.0909	0.1	124.68
5701	14.879	2.9091	0.1	124.68
5702	14.879	2.7273	0.1	133.16
5703	14.879	2.5455	0.1	145.85
5704	14.879	2.3636	0.1	153.34
5705	14.879	2.1818	0.1	143.34
5706	14.879	2.	0.1	108.02
5707	14.879	1.8182	0.1	54.103
5708	14.879	1.6364	0.1	11.81
5709	14.879	1.4545	0.1	4.1746
5710	14.879	1.2727	0.1	2.6438
5711	14.879	1.0909	0.1	2.0237
5712	14.879	0.90909	0.1	1.6593
5713	14.879	0.72727	0.1	1.3902
5714	14.879	0.54545	0.1	1.1174
5715	14.879	0.36364	0.1	0.8073
5716	14.879	0.18182	0.1	0.36761
5717	14.696	5.8182	0.1	0.90099
5718	14.696	5.6364	0.1	1.3582
5719	14.696	5.4545	0.1	1.5834
5720	14.696	5.2727	0.1	1.6356
5721	14.696	5.0909	0.1	1.7148
5722	14.696	4.9091	0.1	1.8798
5723	14.696	4.7273	0.1	2.2842
5724	14.696	4.5455	0.1	2.9743
5725	14.696	4.3636	0.1	3.4237
5726	14.696	4.1818	0.1	8.0415
5727	14.696	4.	0.1	45.77
5728	14.696	3.8182	0.1	85.723
5729	14.696	3.6364	0.1	86.72
5730	14.696	3.4545	0.1	64.072
5731	14.696	3.2727	0.1	39.948
5732	14.696	3.0909	0.1	25.894
5733	14.696	2.9091	0.1	25.894
5734	14.696	2.7273	0.1	39.948
5735	14.696	2.5455	0.1	64.072
5736	14.696	2.3636	0.1	86.72
5737	14.696	2.1818	0.1	85.724
5738	14.696	2.	0.1	45.77
5739	14.696	1.8182	0.1	8.0416
5740	14.696	1.6364	0.1	3.4238
5741	14.696	1.4545	0.1	2.9743
5742	14.696	1.2727	0.1	2.2842
5743	14.696	1.0909	0.1	1.8798
5744	14.696	0.90909	0.1	1.7148
5745	14.696	0.72727	0.1	1.6356
5746	14.696	0.54545	0.1	1.5834
5747	14.696	0.36364	0.1	1.3582
5748	14.696	0.18182	0.1	0.901
5749	14.514	5.8182	0.1	2.3753
5750	14.514	5.6364	0.1	2.6736
5751	14.514	5.4545	0.1	2.3786
5752	14.514	5.2727	0.1	2.0663
5753	14.514	5.0909	0.1	1.9879
5754	14.514	4.9091	0.1	2.2232
5755	14.514	4.7273	0.1	2.561
5756	14.514	4.5455	0.1	2.9638
5757	14.514	4.3636	0.1	7.1823
5758	14.514	4.1818	0.1	5.9091
5759	14.514	4.	0.1	10.716
5760	14.514	3.8182	0.1	4.1519
5761	14.514	3.6364	0.1	0.76689
5762	14.514	3.4545	0.1	0.95462
5763	14.514	3.2727	0.1	-0.34259
5764	14.514	3.0909	0.1	-0.58453
5765	14.514	2.9091	0.1	-0.58453
5766	14.514	2.7273	0.1	-0.34258
5767	14.514	2.5455	0.1	0.95463
5768	14.514	2.3636	0.1	0.76694
5769	14.514	2.1818	0.1	4.1519
5770	14.514	2.	0.1	10.716
5771	14.514	1.8182	0.1	5.9091
5772	14.514	1.6364	0.1	7.1823
5773	14.514	1.4545	0.1	2.9638
5774	14.514	1.2727	0.1	2.561
5775	14.514	1.0909	0.1	2.2232
5776	14.514	0.90909	0.1	1.9879
5777	14.514	0.72727	0.1	2.0663
5778	14.514	0.54545	0.1	2.3786
5779	14.514	0.36364	0.1	2.6736
5780	14.514	0.18182	0.1	2.3753
5781	14.332	5.8182	0.1	4.7346
5782	14.332	5.6364	0.1	3.6193
5783	14.332	5.4545	0.1	2.1619
5784	14.332	5.2727	0.1	1.3233
5785	14.332	5.0909	0.1	1.0374
5786	14.332	4.9091	0.1	0.88359
5787	14.332	4.7273	0.1	1.1557
5788	14.332	4.5455	0.1	1.9746
5789	14.332	4.3636	0.1	0.60937
5790	14.332	4.1818	0.1	-3.4314
5791	14.332	4.	0.1	-45.834
5792	14.332	3.8182	0.1	-19.59
5793	14.332	3.6364	0.1	6.8697
5794	14.332	3.4545	0.1	8.4297e-002
5795	14.332	3.2727	0.1	9.4183e-002
5796	14.332	3.0909	0.1	-2.3223e-002
5797	14.332	2.9091	0.1	-2.3224e-002
5798	14.332	2.7273	0.1	9.4184e-002
5799	14.332	2.5455	0.1	8.4302e-002
5800	14.332	2.3636	0.1	6.8697
5801	14.332	2.1818	0.1	-19.59
5802	14.332	2.	0.1	-45.834
5803	14.332	1.8182	0.1	-3.4313
5804	14.332	1.6364	0.1	0.60937
5805	14.332	1.4545	0.1	1.9746
5806	14.332	1.2727	0.1	1.1557
5807	14.332	1.0909	0.1	0.88359
5808	14.332	0.90909	0.1	1.0374
5809	14.332	0.72727	0.1	1.3233
5810	14.332	0.54545	0.1	2.1619
5811	14.332	0.36364	0.1	3.6194
5812	14.332	0.18182	0.1	4.7346
5813	14.149	5.8182	0.1	13.055
5814	14.149	5.6364	0.1	6.5327
5815	14.149	5.4545	0.1	4.9521
5816	14.149	5.2727	0.1	4.3968
5817	14.149	5.0909	0.1	4.4169
5818	14.149	4.9091	0.1	5.5391
5819	14.149	4.7273	0.1	4.9549
5820	14.149	4.5455	0.1	14.631
5821	14.149	4.3636	0.1	-4.2461
5822	14.149	4.1818	0.1	90.707
5823	14.149	4.	0.1	320.59
5824	14.149	3.8182	0.1	18.353
5825	14.149	3.6364	0.1	10.871
5826	14.149	3.4545	0.1	-2.5696
5827	14.149	3.2727	0.1	1.837
5828	14.149	3.0909	0.1	0.20655
5829	14.149	2.9091	0.1	0.20655
5830	14.149	2.7273	0.1	1.837
5831	14.149	2.5455	0.1	-2.5696
5832	14.149	2.3636	0.1	10.871
5833	14.149	2.1818	0.1	18.353
5834	14.149	2.	0.1	320.59
5835	14.149	1.8182	0.1	90.707
5836	14.149	1.6364	0.1	-4.2461
5837	14.149	1.4545	0.1	14.631
5838	14.149	1.2727	0.1	4.9549
5839	14.149	1.0909	0.1	5.5391
5840	14.149	0.90909	0.1	4.4169
5841	14.149	0.72727	0.1	4.3968
5842	14.149	0.54545	0.1	4.9521
5843	14.149	0.36364	0.1	6.5327
5844	14.149	0.18182	0.1	13.055
5845	0.184	0.18182	0.1	-0.59771
5846	0.184	0.36364	0.1	821.26
5847	0.184	0.54545	0.1	1257.5
5848	0.184	0.72727	0.1	1507.3
5849	0.184	0.90909	0.1	1664.7
5850	0.184	1.0909	0.1	1773.3
5851	0.184	1.2727	0.1	1852.1
5852	0.184	1.4545	0.1	1911.2
5853	0.184	1.6364	0.1	1956.4
5854	0.184	1.8182	0.1	1991.4
5855	0.184	2.	0.1	2018.4
5856	0.184	2.1818	0.1	2039.1
5857	0.184	2.3636	0.1	2054.6
5858	0.184	2.5455	0.1	2065.7
5859	0.184	2.7273	0.1	2072.8
5860	0.184	2.9091	0.1	2076.2
5861	0.184	3.0909	0.1	2076.2
5862	0.184	3.2727	0.1	2072.8
5863	0.184	3.4545	0.1	2065.7
5864	0.184	3.6364	0.1	2054.6
5865	0.184	3.8182	0.1	2039.1
5866	0.184	4.	0.1	2018.4
5867	0.184	4.1818	0.1	1991.4
5868	0.184	4.3636	0.1	1956.4
5869	0.184	4.5455	0.1	1911.2
5870	0.184	4.7273	0.1	1852.1
5871	0.184	4.9091	0.1	1773.3
5872	0.184	5.0909	0.1	1664.7
5873	0.184	5.2727	0.1	1507.3
5874	0.184	5.4545	0.1	1257.5
5875	0.184	5.6364	0.1	821.26
5876	0.184	5.8182	0.1	-0.59796
5877	0.368	0.18182	0.1	81.691
5878	0.368	0.36364	0.1	660.06
5879	0.368	0.54545	0.1	1219.2
5880	0.368	0.72727	0.1	1592.5
5881	0.368	0.90909	0.1	1840.5
5882	0.368	1.0909	0.1	2010.5
5883	0.368	1.2727	0.1	2132.
5884	0.368	1.4545	0.1	2221.6
5885	0.368	1.6364	0.1	2289.3
5886	0.368	1.8182	0.1	2341.1
5887	0.368	2.	0.1	2380.8
5888	0.368	2.1818	0.1	2411.1
5889	0.368	2.3636	0.1	2433.6
5890	0.368	2.5455	0.1	2449.7
5891	0.368	2.7273	0.1	2459.9
5892	0.368	2.9091	0.1	2465.
5893	0.368	3.0909	0.1	2465.
5894	0.368	3.2727	0.1	2459.9
5895	0.368	3.4545	0.1	2449.7
5896	0.368	3.6364	0.1	2433.6
5897	0.368	3.8182	0.1	2411.1
5898	0.368	4.	0.1	2380.8
5899	0.368	4.1818	0.1	2341.1
5900	0.368	4.3636	0.1	2289.3
5901	0.368	4.5455	0.1	2221.6
5902	0.368	4.7273	0.1	2132.
5903	0.368	4.9091	0.1	2010.5
5904	0.368	5.0909	0.1	1840.5
5905	0.368	5.2727	0.1	1592.5
5906	0.368	5.4545	0.1	1219.2
5907	0.368	5.6364	0.1	660.06
5908	0.368	5.8182	0.1	81.691
5909	0.552	0.18182	0.1	0.73138
5910	0.552	0.36364	0.1	412.29
5911	0.552	0.54545	0.1	860.67
5912	0.552	0.72727	0.1	1223.9
5913	0.552	0.90909	0.1	1495.1
5914	0.552	1.0909	0.1	1693.
5915	0.552	1.2727	0.1	1838.2
5916	0.552	1.4545	0.1	1946.4
5917	0.552	1.6364	0.1	2028.2
5918	0.552	1.8182	0.1	2090.6
5919	0.552	2.	0.1	2138.3
5920	0.552	2.1818	0.1	2174.5
5921	0.552	2.3636	0.1	2201.4
5922	0.552	2.5455	0.1	2220.5
5923	0.552	2.7273	0.1	2232.7
5924	0.552	2.9091	0.1	2238.7
5925	0.552	3.0909	0.1	2238.7
5926	0.552	3.2727	0.1	2232.7
5927	0.552	3.4545	0.1	2220.5
5928	0.552	3.6364	0.1	2201.4
5929	0.552	3.8182	0.1	2174.5
5930	0.552	4.	0.1	2138.3
5931	0.552	4.1818	0.1	2090.6
5932	0.552	4.3636	0.1	2028.2
5933	0.552	4.5455	0.1	1946.4
5934	0.552	4.7273	0.1	1838.2
5935	0.552	4.9091	0.1	1693.
5936	0.552	5.0909	0.1	1495.1
5937	0.552	5.2727	0.1	1223.9
5938	0.552	5.4545	0.1	860.67
5939	0.552	5.6364	0.1	412.29
5940	0.552	5.8182	0.1	0.73134
5941	0.736	0.18182	0.1	18.401
5942	0.736	0.36364	0.1	337.77
5943	0.736	0.54545	0.1	707.39
5944	0.736	0.72727	0.1	1037.8
5945	0.736	0.90909	0.1	1309.3
5946	0.736	1.0909	0.1	1522.6
5947	0.736	1.2727	0.1	1686.9
5948	0.736	1.4545	0.1	1813.1
5949	0.736	1.6364	0.1	1910.1
5950	0.736	1.8182	0.1	1984.8
5951	0.736	2.	0.1	2042.3
5952	0.736	2.1818	0.1	2086.
5953	0.736	2.3636	0.1	2118.5
5954	0.736	2.5455	0.1	2141.6
5955	0.736	2.7273	0.1	2156.3
5956	0.736	2.9091	0.1	2163.6
5957	0.736	3.0909	0.1	2163.6
5958	0.736	3.2727	0.1	2156.3
5959	0.736	3.4545	0.1	2141.6
5960	0.736	3.6364	0.1	2118.5
5961	0.736	3.8182	0.1	2086.
5962	0.736	4.	0.1	2042.3
5963	0.736	4.1818	0.1	1984.8
5964	0.736	4.3636	0.1	1910.1
5965	0.736	4.5455	0.1	1813.1
5966	0.736	4.7273	0.1	1686.9
5967	0.736	4.9091	0.1	1522.6
5968	0.736	5.0909	0.1	1309.3
5969	0.736	5.2727	0.1	1037.8
5970	0.736	5.4545	0.1	707.39
5971	0.736	5.6364	0.1	337.77
5972	0.736	5.8182	0.1	18.401
5973	0.92	0.18182	0.1	14.316
5974	0.92	0.36364	0.1	284.08
5975	0.92	0.54545	0.1	589.
5976	0.92	0.72727	0.1	876.91
5977	0.92	0.90909	0.1	1130.
5978	0.92	1.0909	0.1	1341.3
5979	0.92	1.2727	0.1	1512.4
5980	0.92	1.4545	0.1	1648.7
5981	0.92	1.6364	0.1	1756.3
5982	0.92	1.8182	0.1	1840.7
5983	0.92	2.	0.1	1906.3
5984	0.92	2.1818	0.1	1956.7
5985	0.92	2.3636	0.1	1994.4
5986	0.92	2.5455	0.1	2021.2
5987	0.92	2.7273	0.1	2038.4
5988	0.92	2.9091	0.1	2046.8
5989	0.92	3.0909	0.1	2046.8
5990	0.92	3.2727	0.1	2038.4
5991	0.92	3.4545	0.1	2021.2
5992	0.92	3.6364	0.1	1994.4
5993	0.92	3.8182	0.1	1956.7
5994	0.92	4.	0.1	1906.3
5995	0.92	4.1818	0.1	1840.7
5996	0.92	4.3636	0.1	1756.3
5997	0.92	4.5455	0.1	1648.7
5998	0.92	4.7273	0.1	1512.4
5999	0.92	4.9091	0.1	1341.3
6000	0.92	5.0909	0.1	1130.
6001	0.92	5.2727	0.1	876.91
6002	0.92	5.4545	0.1	589.
6003	0.92	5.6364	0.1	284.08
6004	0.92	5.8182	0.1	14.315
6005	1.104	0.18182	0.1	17.475
6006	1.104	0.36364	0.1	254.17
6007	1.104	0.54545	0.1	512.83
6008	1.104	0.72727	0.1	763.76
6009	1.104	0.90909	0.1	993.77
6010	1.104	1.0909	0.1	1194.7
6011	1.104	1.2727	0.1	1364.4
6012	1.104	1.4545	0.1	1504.4
6013	1.104	1.6364	0.1	1618.1
6014	1.104	1.8182	0.1	1709.2
6015	1.104	2.	0.1	1781.2
6016	1.104	2.1818	0.1	1837.1
6017	1.104	2.3636	0.1	1879.3
6018	1.104	2.5455	0.1	1909.4
6019	1.104	2.7273	0.1	1928.9
6020	1.104	2.9091	0.1	1938.4
6021	1.104	3.0909	0.1	1938.4
6022	1.104	3.2727	0.1	1928.9
6023	1.104	3.4545	0.1	1909.4
6024	1.104	3.6364	0.1	1879.3
6025	1.104	3.8182	0.1	1837.1
6026	1.104	4.	0.1	1781.2
6027	1.104	4.1818	0.1	1709.2
6028	1.104	4.3636	0.1	1618.1
6029	1.104	4.5455	0.1	1504.4
6030	1.104	4.7273	0.1	1364.4
6031	1.104	4.9091	0.1	1194.7
6032	1.104	5.0909	0.1	993.77
6033	1.104	5.2727	0.1	763.76
6034	1.104	5.4545	0.1	512.83
6035	1.104	5.6364	0.1	254.17
6036	1.104	5.8182	0.1	17.475
6037	1.288	0.18182	0.1	20.668
6038	1.288	0.36364	0.1	232.82
6039	1.288	0.54545	0.1	456.22
6040	1.288	0.72727	0.1	676.06
6041	1.288	0.90909	0.1	883.01
6042	1.288	1.0909	0.1	1069.8
6043	1.288	1.2727	0.1	1232.7
6044	1.288	1.4545	0.1	1371.2
6045	1.288	1.6364	0.1	1486.7
6046	1.288	1.8182	0.1	1581.2
6047	1.288	2.	0.1	1657.2
6048	1.288	2.1818	0.1	1717.
6049	1.288	2.3636	0.1	1762.6
6050	1.288	2.5455	0.1	1795.4
6051	1.288	2.7273	0.1	1816.7
6052	1.288	2.9091	0.1	1827.1
6053	1.288	3.0909	0.1	1827.1
6054	1.288	3.2727	0.1	1816.7
6055	1.288	3.4545	0.1	1795.4
6056	1.288	3.6364	0.1	1762.6
6057	1.288	3.8182	0.1	1717.
6058	1.288	4.	0.1	1657.2
6059	1.288	4.1818	0.1	1581.2
6060	1.288	4.3636	0.1	1486.7
6061	1.288	4.5455	0.1	1371.2
6062	1.288	4.7273	0.1	1232.7
6063	1.288	4.9091	0.1	1069.7
6064	1.288	5.0909	0.1	883.01
6065	1.288	5.2727	0.1	676.06
6066	1.288	5.4545	0.1	456.22
6067	1.288	5.6364	0.1	232.82
6068	1.288	5.8182	0.1	20.668
6069	1.472	0.18182	0.1	25.486
6070	1.472	0.36364	0.1	217.18
6071	1.472	0.54545	0.1	413.23
6072	1.472	0.72727	0.1	607.51
6073	1.472	0.90909	0.1	793.46
6074	1.472	1.0909	0.1	965.05
6075	1.472	1.2727	0.1	1118.5
6076	1.472	1.4545	0.1	1252.3
6077	1.472	1.6364	0.1	1366.2
6078	1.472	1.8182	0.1	1461.4
6079	1.472	2.	0.1	1539.2
6080	1.472	2.1818	0.1	1601.2
6081	1.472	2.3636	0.1	1648.9
6082	1.472	2.5455	0.1	1683.6
6083	1.472	2.7273	0.1	1706.2
6084	1.472	2.9091	0.1	1717.3
6085	1.472	3.0909	0.1	1717.3
6086	1.472	3.2727	0.1	1706.2
6087	1.472	3.4545	0.1	1683.6
6088	1.472	3.6364	0.1	1648.9
6089	1.472	3.8182	0.1	1601.2
6090	1.472	4.	0.1	1539.2
6091	1.472	4.1818	0.1	1461.4
6092	1.472	4.3636	0.1	1366.2
6093	1.472	4.5455	0.1	1252.3
6094	1.472	4.7273	0.1	1118.5
6095	1.472	4.9091	0.1	965.05
6096	1.472	5.0909	0.1	793.46
6097	1.472	5.2727	0.1	607.51
6098	1.472	5.4545	0.1	413.23
6099	1.472	5.6364	0.1	217.18
6100	1.472	5.8182	0.1	25.486
6101	1.656	0.18182	0.1	30.892
6102	1.656	0.36364	0.1	204.57
6103	1.656	0.54545	0.1	378.68
6104	1.656	0.72727	0.1	551.74
6105	1.656	0.90909	0.1	719.12
6106	1.656	1.0909	0.1	876.
6107	1.656	1.2727	0.1	1018.9
6108	1.656	1.4545	0.1	1145.8
6109	1.656	1.6364	0.1	1256.
6110	1.656	1.8182	0.1	1349.6
6111	1.656	2.	0.1	1427.3
6112	1.656	2.1818	0.1	1489.9
6113	1.656	2.3636	0.1	1538.7
6114	1.656	2.5455	0.1	1574.3
6115	1.656	2.7273	0.1	1597.7
6116	1.656	2.9091	0.1	1609.2
6117	1.656	3.0909	0.1	1609.2
6118	1.656	3.2727	0.1	1597.7
6119	1.656	3.4545	0.1	1574.3
6120	1.656	3.6364	0.1	1538.7
6121	1.656	3.8182	0.1	1489.9
6122	1.656	4.	0.1	1427.3
6123	1.656	4.1818	0.1	1349.6
6124	1.656	4.3636	0.1	1256.
6125	1.656	4.5455	0.1	1145.8
6126	1.656	4.7273	0.1	1018.9
6127	1.656	4.9091	0.1	876.
6128	1.656	5.0909	0.1	719.12
6129	1.656	5.2727	0.1	551.74
6130	1.656	5.4545	0.1	378.68
6131	1.656	5.6364	0.1	204.57
6132	1.656	5.8182	0.1	30.891
6133	1.84	0.18182	0.1	36.177
6134	1.84	0.36364	0.1	193.82
6135	1.84	0.54545	0.1	349.88
6136	1.84	0.72727	0.1	505.15
6137	1.84	0.90909	0.1	656.28
6138	1.84	1.0909	0.1	799.44
6139	1.84	1.2727	0.1	931.62
6140	1.84	1.4545	0.1	1050.8
6141	1.84	1.6364	0.1	1155.7
6142	1.84	1.8182	0.1	1246.2
6143	1.84	2.	0.1	1322.2
6144	1.84	2.1818	0.1	1384.2
6145	1.84	2.3636	0.1	1432.8
6146	1.84	2.5455	0.1	1468.7
6147	1.84	2.7273	0.1	1492.3
6148	1.84	2.9091	0.1	1504.
6149	1.84	3.0909	0.1	1504.
6150	1.84	3.2727	0.1	1492.3
6151	1.84	3.4545	0.1	1468.7
6152	1.84	3.6364	0.1	1432.8
6153	1.84	3.8182	0.1	1384.2
6154	1.84	4.	0.1	1322.2
6155	1.84	4.1818	0.1	1246.2
6156	1.84	4.3636	0.1	1155.7
6157	1.84	4.5455	0.1	1050.8
6158	1.84	4.7273	0.1	931.62
6159	1.84	4.9091	0.1	799.44
6160	1.84	5.0909	0.1	656.28
6161	1.84	5.2727	0.1	505.15
6162	1.84	5.4545	0.1	349.88
6163	1.84	5.6364	0.1	193.82
6164	1.84	5.8182	0.1	36.177
6165	2.024	0.18182	0.1	40.79
6166	2.024	0.36364	0.1	184.19
6167	2.024	0.54545	0.1	325.07
6168	2.024	0.72727	0.1	465.19
6169	2.024	0.90909	0.1	602.08
6170	2.024	1.0909	0.1	732.71
6171	2.024	1.2727	0.1	854.49
6172	2.024	1.4545	0.1	965.5
6173	2.024	1.6364	0.1	1064.5
6174	2.024	1.8182	0.1	1150.7
6175	2.024	2.	0.1	1223.9
6176	2.024	2.1818	0.1	1284.3
6177	2.024	2.3636	0.1	1332.
6178	2.024	2.5455	0.1	1367.4
6179	2.024	2.7273	0.1	1390.8
6180	2.024	2.9091	0.1	1402.4
6181	2.024	3.0909	0.1	1402.4
6182	2.024	3.2727	0.1	1390.8
6183	2.024	3.4545	0.1	1367.4
6184	2.024	3.6364	0.1	1332.
6185	2.024	3.8182	0.1	1284.3
6186	2.024	4.	0.1	1223.9
6187	2.024	4.1818	0.1	1150.7
6188	2.024	4.3636	0.1	1064.5
6189	2.024	4.5455	0.1	965.5
6190	2.024	4.7273	0.1	854.49
6191	2.024	4.9091	0.1	732.71
6192	2.024	5.0909	0.1	602.08
6193	2.024	5.2727	0.1	465.19
6194	2.024	5.4545	0.1	325.07
6195	2.024	5.6364	0.1	184.19
6196	2.024	5.8182	0.1	40.79
6197	2.208	0.18182	0.1	44.51
6198	2.208	0.36364	0.1	175.25
6199	2.208	0.54545	0.1	303.12
6200	2.208	0.72727	0.1	430.16
6201	2.208	0.90909	0.1	554.55
6202	2.208	1.0909	0.1	673.8
6203	2.208	1.2727	0.1	785.77
6204	2.208	1.4545	0.1	888.68
6205	2.208	1.6364	0.1	981.26
6206	2.208	1.8182	0.1	1062.7
6207	2.208	2.	0.1	1132.4
6208	2.208	2.1818	0.1	1190.4
6209	2.208	2.3636	0.1	1236.5
6210	2.208	2.5455	0.1	1270.9
6211	2.208	2.7273	0.1	1293.7
6212	2.208	2.9091	0.1	1305.1
6213	2.208	3.0909	0.1	1305.1
6214	2.208	3.2727	0.1	1293.7
6215	2.208	3.4545	0.1	1270.9
6216	2.208	3.6364	0.1	1236.5
6217	2.208	3.8182	0.1	1190.4
6218	2.208	4.	0.1	1132.4
6219	2.208	4.1818	0.1	1062.7
6220	2.208	4.3636	0.1	981.26
6221	2.208	4.5455	0.1	888.68
6222	2.208	4.7273	0.1	785.77
6223	2.208	4.9091	0.1	673.8
6224	2.208	5.0909	0.1	554.55
6225	2.208	5.2727	0.1	430.16
6226	2.208	5.4545	0.1	303.12
6227	2.208	5.6364	0.1	175.25
6228	2.208	5.8182	0.1	44.51
6229	2.392	0.18182	0.1	47.294
6230	2.392	0.36364	0.1	166.75
6231	2.392	0.54545	0.1	283.29
6232	2.392	0.72727	0.1	398.93
6233	2.392	0.90909	0.1	512.23
6234	2.392	1.0909	0.1	621.21
6235	2.392	1.2727	0.1	724.03
6236	2.392	1.4545	0.1	819.12
6237	2.392	1.6364	0.1	905.25
6238	2.392	1.8182	0.1	981.53
6239	2.392	2.	0.1	1047.4
6240	2.392	2.1818	0.1	1102.4
6241	2.392	2.3636	0.1	1146.4
6242	2.392	2.5455	0.1	1179.4
6243	2.392	2.7273	0.1	1201.4
6244	2.392	2.9091	0.1	1212.4
6245	2.392	3.0909	0.1	1212.4
6246	2.392	3.2727	0.1	1201.4
6247	2.392	3.4545	0.1	1179.4
6248	2.392	3.6364	0.1	1146.4
6249	2.392	3.8182	0.1	1102.4
6250	2.392	4.	0.1	1047.4
6251	2.392	4.1818	0.1	981.53
6252	2.392	4.3636	0.1	905.25
6253	2.392	4.5455	0.1	819.12
6254	2.392	4.7273	0.1	724.03
6255	2.392	4.9091	0.1	621.21
6256	2.392	5.0909	0.1	512.23
6257	2.392	5.2727	0.1	398.93
6258	2.392	5.4545	0.1	283.29
6259	2.392	5.6364	0.1	166.75
6260	2.392	5.8182	0.1	47.294
6261	2.576	0.18182	0.1	49.191
6262	2.576	0.36364	0.1	158.55
6263	2.576	0.54545	0.1	265.11
6264	2.576	0.72727	0.1	370.66
6265	2.576	0.90909	0.1	474.11
6266	2.576	1.0909	0.1	573.79
6267	2.576	1.2727	0.1	668.15
6268	2.576	1.4545	0.1	755.81
6269	2.576	1.6364	0.1	835.62
6270	2.576	1.8182	0.1	906.7
6271	2.576	2.	0.1	968.37
6272	2.576	2.1818	0.1	1020.2
6273	2.576	2.3636	0.1	1061.8
6274	2.576	2.5455	0.1	1093.2
6275	2.576	2.7273	0.1	1114.1
6276	2.576	2.9091	0.1	1124.5
6277	2.576	3.0909	0.1	1124.5
6278	2.576	3.2727	0.1	1114.1
6279	2.576	3.4545	0.1	1093.2
6280	2.576	3.6364	0.1	1061.8
6281	2.576	3.8182	0.1	1020.2
6282	2.576	4.	0.1	968.37
6283	2.576	4.1818	0.1	906.7
6284	2.576	4.3636	0.1	835.62
6285	2.576	4.5455	0.1	755.81
6286	2.576	4.7273	0.1	668.15
6287	2.576	4.9091	0.1	573.79
6288	2.576	5.0909	0.1	474.11
6289	2.576	5.2727	0.1	370.66
6290	2.576	5.4545	0.1	265.11
6291	2.576	5.6364	0.1	158.55
6292	2.576	5.8182	0.1	49.191
6293	2.76	0.18182	0.1	50.289
6294	2.76	0.36364	0.1	150.56
6295	2.76	0.54545	0.1	248.22
6296	2.76	0.72727	0.1	344.81
6297	2.76	0.90909	0.1	439.42
6298	2.76	1.0909	0.1	530.68
6299	2.76	1.2727	0.1	617.25
6300	2.76	1.4545	0.1	697.93
6301	2.76	1.6364	0.1	771.68
6302	2.76	1.8182	0.1	837.61
6303	2.76	2.	0.1	895.07
6304	2.76	2.1818	0.1	943.52
6305	2.76	2.3636	0.1	982.62
6306	2.76	2.5455	0.1	1012.1
6307	2.76	2.7273	0.1	1031.9
6308	2.76	2.9091	0.1	1041.7
6309	2.76	3.0909	0.1	1041.7
6310	2.76	3.2727	0.1	1031.9
6311	2.76	3.4545	0.1	1012.1
6312	2.76	3.6364	0.1	982.62
6313	2.76	3.8182	0.1	943.52
6314	2.76	4.	0.1	895.07
6315	2.76	4.1818	0.1	837.61
6316	2.76	4.3636	0.1	771.68
6317	2.76	4.5455	0.1	697.93
6318	2.76	4.7273	0.1	617.25
6319	2.76	4.9091	0.1	530.68
6320	2.76	5.0909	0.1	439.42
6321	2.76	5.2727	0.1	344.81
6322	2.76	5.4545	0.1	248.22
6323	2.76	5.6364	0.1	150.56
6324	2.76	5.8182	0.1	50.288
6325	2.944	0.18182	0.1	50.684
6326	2.944	0.36364	0.1	142.74
6327	2.944	0.54545	0.1	232.42
6328	2.944	0.72727	0.1	320.95
6329	2.944	0.90909	0.1	407.61
6330	2.944	1.0909	0.1	491.22
6331	2.944	1.2727	0.1	570.65
6332	2.944	1.4545	0.1	644.83
6333	2.944	1.6364	0.1	712.81
6334	2.944	1.8182	0.1	773.78
6335	2.944	2.	0.1	827.08
6336	2.944	2.1818	0.1	872.16
6337	2.944	2.3636	0.1	908.64
6338	2.944	2.5455	0.1	936.23
6339	2.944	2.7273	0.1	954.71
6340	2.944	2.9091	0.1	963.99
6341	2.944	3.0909	0.1	963.99
6342	2.944	3.2727	0.1	954.71
6343	2.944	3.4545	0.1	936.22
6344	2.944	3.6364	0.1	908.64
6345	2.944	3.8182	0.1	872.16
6346	2.944	4.	0.1	827.08
6347	2.944	4.1818	0.1	773.78
6348	2.944	4.3636	0.1	712.81
6349	2.944	4.5455	0.1	644.83
6350	2.944	4.7273	0.1	570.65
6351	2.944	4.9091	0.1	491.22
6352	2.944	5.0909	0.1	407.61
6353	2.944	5.2727	0.1	320.95
6354	2.944	5.4545	0.1	232.42
6355	2.944	5.6364	0.1	142.74
6356	2.944	5.8182	0.1	50.684
6357	3.128	0.18182	0.1	50.477
6358	3.128	0.36364	0.1	135.08
6359	3.128	0.54545	0.1	217.53
6360	3.128	0.72727	0.1	298.8
6361	3.128	0.90909	0.1	378.26
6362	3.128	1.0909	0.1	454.93
6363	3.128	1.2727	0.1	527.8
6364	3.128	1.4545	0.1	595.95
6365	3.128	1.6364	0.1	658.52
6366	3.128	1.8182	0.1	714.76
6367	3.128	2.	0.1	764.03
6368	3.128	2.1818	0.1	805.8
6369	3.128	2.3636	0.1	839.68
6370	3.128	2.5455	0.1	865.34
6371	3.128	2.7273	0.1	882.56
6372	3.128	2.9091	0.1	891.2
6373	3.128	3.0909	0.1	891.2
6374	3.128	3.2727	0.1	882.56
6375	3.128	3.4545	0.1	865.34
6376	3.128	3.6364	0.1	839.68
6377	3.128	3.8182	0.1	805.8
6378	3.128	4.	0.1	764.03
6379	3.128	4.1818	0.1	714.76
6380	3.128	4.3636	0.1	658.52
6381	3.128	4.5455	0.1	595.95
6382	3.128	4.7273	0.1	527.8
6383	3.128	4.9091	0.1	454.93
6384	3.128	5.0909	0.1	378.26
6385	3.128	5.2727	0.1	298.8
6386	3.128	5.4545	0.1	217.53
6387	3.128	5.6364	0.1	135.08
6388	3.128	5.8182	0.1	50.477
6389	3.312	0.18182	0.1	49.763
6390	3.312	0.36364	0.1	127.58
6391	3.312	0.54545	0.1	203.47
6392	3.312	0.72727	0.1	278.14
6393	3.312	0.90909	0.1	351.07
6394	3.312	1.0909	0.1	421.4
6395	3.312	1.2727	0.1	488.26
6396	3.312	1.4545	0.1	550.84
6397	3.312	1.6364	0.1	608.36
6398	3.312	1.8182	0.1	660.14
6399	3.312	2.	0.1	705.57
6400	3.312	2.1818	0.1	744.16
6401	3.312	2.3636	0.1	775.5
6402	3.312	2.5455	0.1	799.26
6403	3.312	2.7273	0.1	815.23
6404	3.312	2.9091	0.1	823.25
6405	3.312	3.0909	0.1	823.25
6406	3.312	3.2727	0.1	815.23
6407	3.312	3.4545	0.1	799.26
6408	3.312	3.6364	0.1	775.5
6409	3.312	3.8182	0.1	744.16
6410	3.312	4.	0.1	705.57
6411	3.312	4.1818	0.1	660.14
6412	3.312	4.3636	0.1	608.36
6413	3.312	4.5455	0.1	550.84
6414	3.312	4.7273	0.1	488.26
6415	3.312	4.9091	0.1	421.4
6416	3.312	5.0909	0.1	351.07
6417	3.312	5.2727	0.1	278.14
6418	3.312	5.4545	0.1	203.47
6419	3.312	5.6364	0.1	127.58
6420	3.312	5.8182	0.1	49.762
6421	3.496	0.18182	0.1	48.626
6422	3.496	0.36364	0.1	120.25
6423	3.496	0.54545	0.1	190.14
6424	3.496	0.72727	0.1	258.81
6425	3.496	0.90909	0.1	325.79
6426	3.496	1.0909	0.1	390.34
6427	3.496	1.2727	0.1	451.69
6428	3.496	1.4545	0.1	509.13
6429	3.496	1.6364	0.1	561.96
6430	3.496	1.8182	0.1	609.57
6431	3.496	2.	0.1	651.38
6432	3.496	2.1818	0.1	686.94
6433	3.496	2.3636	0.1	715.85
6434	3.496	2.5455	0.1	737.79
6435	3.496	2.7273	0.1	752.54
6436	3.496	2.9091	0.1	759.96
6437	3.496	3.0909	0.1	759.96
6438	3.496	3.2727	0.1	752.54
6439	3.496	3.4545	0.1	737.79
6440	3.496	3.6364	0.1	715.85
6441	3.496	3.8182	0.1	686.94
6442	3.496	4.	0.1	651.38
6443	3.496	4.1818	0.1	609.57
6444	3.496	4.3636	0.1	561.96
6445	3.496	4.5455	0.1	509.13
6446	3.496	4.7273	0.1	451.69
6447	3.496	4.9091	0.1	390.34
6448	3.496	5.0909	0.1	325.79
6449	3.496	5.2727	0.1	258.81
6450	3.496	5.4545	0.1	190.14
6451	3.496	5.6364	0.1	120.25
6452	3.496	5.8182	0.1	48.626
6453	3.68	0.18182	0.1	47.147
6454	3.68	0.36364	0.1	113.1
6455	3.68	0.54545	0.1	177.5
6456	3.68	0.72727	0.1	240.68
6457	3.68	0.90909	0.1	302.23
6458	3.68	1.0909	0.1	361.49
6459	3.68	1.2727	0.1	417.8
6460	3.68	1.4545	0.1	470.51
6461	3.68	1.6364	0.1	519.01
6462	3.68	1.8182	0.1	562.73
6463	3.68	2.	0.1	601.16
6464	3.68	2.1818	0.1	633.86
6465	3.68	2.3636	0.1	660.46
6466	3.68	2.5455	0.1	680.67
6467	3.68	2.7273	0.1	694.27
6468	3.68	2.9091	0.1	701.1
6469	3.68	3.0909	0.1	701.1
6470	3.68	3.2727	0.1	694.27
6471	3.68	3.4545	0.1	680.67
6472	3.68	3.6364	0.1	660.46
6473	3.68	3.8182	0.1	633.86
6474	3.68	4.	0.1	601.16
6475	3.68	4.1818	0.1	562.73
6476	3.68	4.3636	0.1	519.01
6477	3.68	4.5455	0.1	470.51
6478	3.68	4.7273	0.1	417.8
6479	3.68	4.9091	0.1	361.49
6480	3.68	5.0909	0.1	302.23
6481	3.68	5.2727	0.1	240.68
6482	3.68	5.4545	0.1	177.5
6483	3.68	5.6364	0.1	113.1
6484	3.68	5.8182	0.1	47.147
6485	3.864	0.18182	0.1	45.395
6486	3.864	0.36364	0.1	106.14
6487	3.864	0.54545	0.1	165.51
6488	3.864	0.72727	0.1	223.66
6489	3.864	0.90909	0.1	280.25
6490	3.864	1.0909	0.1	334.67
6491	3.864	1.2727	0.1	386.35
6492	3.864	1.4545	0.1	434.72
6493	3.864	1.6364	0.1	479.21
6494	3.864	1.8182	0.1	519.34
6495	3.864	2.	0.1	554.62
6496	3.864	2.1818	0.1	584.65
6497	3.864	2.3636	0.1	609.09
6498	3.864	2.5455	0.1	627.67
6499	3.864	2.7273	0.1	640.17
6500	3.864	2.9091	0.1	646.46
6501	3.864	3.0909	0.1	646.46
6502	3.864	3.2727	0.1	640.17
6503	3.864	3.4545	0.1	627.67
6504	3.864	3.6364	0.1	609.09
6505	3.864	3.8182	0.1	584.65
6506	3.864	4.	0.1	554.62
6507	3.864	4.1818	0.1	519.34
6508	3.864	4.3636	0.1	479.21
6509	3.864	4.5455	0.1	434.72
6510	3.864	4.7273	0.1	386.35
6511	3.864	4.9091	0.1	334.67
6512	3.864	5.0909	0.1	280.25
6513	3.864	5.2727	0.1	223.66
6514	3.864	5.4545	0.1	165.51
6515	3.864	5.6364	0.1	106.14
6516	3.864	5.8182	0.1	45.395
6517	4.048	0.18182	0.1	43.431
6518	4.048	0.36364	0.1	99.405
6519	4.048	0.54545	0.1	154.14
6520	4.048	0.72727	0.1	207.68
6521	4.048	0.90909	0.1	259.7
6522	4.048	1.0909	0.1	309.7
6523	4.048	1.2727	0.1	357.14
6524	4.048	1.4545	0.1	401.51
6525	4.048	1.6364	0.1	442.33
6526	4.048	1.8182	0.1	479.13
6527	4.048	2.	0.1	511.49
6528	4.048	2.1818	0.1	539.05
6529	4.048	2.3636	0.1	561.48
6530	4.048	2.5455	0.1	578.53
6531	4.048	2.7273	0.1	590.
6532	4.048	2.9091	0.1	595.78
6533	4.048	3.0909	0.1	595.78
6534	4.048	3.2727	0.1	590.
6535	4.048	3.4545	0.1	578.53
6536	4.048	3.6364	0.1	561.48
6537	4.048	3.8182	0.1	539.05
6538	4.048	4.	0.1	511.49
6539	4.048	4.1818	0.1	479.13
6540	4.048	4.3636	0.1	442.33
6541	4.048	4.5455	0.1	401.51
6542	4.048	4.7273	0.1	357.14
6543	4.048	4.9091	0.1	309.7
6544	4.048	5.0909	0.1	259.7
6545	4.048	5.2727	0.1	207.68
6546	4.048	5.4545	0.1	154.14
6547	4.048	5.6364	0.1	99.405
6548	4.048	5.8182	0.1	43.431
6549	4.232	0.18182	0.1	41.31
6550	4.232	0.36364	0.1	92.894
6551	4.232	0.54545	0.1	143.36
6552	4.232	0.72727	0.1	192.65
6553	4.232	0.90909	0.1	240.5
6554	4.232	1.0909	0.1	286.43
6555	4.232	1.2727	0.1	329.98
6556	4.232	1.4545	0.1	370.69
6557	4.232	1.6364	0.1	408.13
6558	4.232	1.8182	0.1	441.87
6559	4.232	2.	0.1	471.54
6560	4.232	2.1818	0.1	496.8
6561	4.232	2.3636	0.1	517.37
6562	4.232	2.5455	0.1	533.
6563	4.232	2.7273	0.1	543.53
6564	4.232	2.9091	0.1	548.82
6565	4.232	3.0909	0.1	548.82
6566	4.232	3.2727	0.1	543.53
6567	4.232	3.4545	0.1	533.
6568	4.232	3.6364	0.1	517.37
6569	4.232	3.8182	0.1	496.8
6570	4.232	4.	0.1	471.54
6571	4.232	4.1818	0.1	441.87
6572	4.232	4.3636	0.1	408.13
6573	4.232	4.5455	0.1	370.69
6574	4.232	4.7273	0.1	329.98
6575	4.232	4.9091	0.1	286.43
6576	4.232	5.0909	0.1	240.5
6577	4.232	5.2727	0.1	192.65
6578	4.232	5.4545	0.1	143.36
6579	4.232	5.6364	0.1	92.894
6580	4.232	5.8182	0.1	41.31
6581	4.416	0.18182	0.1	39.076
6582	4.416	0.36364	0.1	86.621
6583	4.416	0.54545	0.1	133.15
6584	4.416	0.72727	0.1	178.54
6585	4.416	0.90909	0.1	222.55
6586	4.416	1.0909	0.1	264.75
6587	4.416	1.2727	0.1	304.73
6588	4.416	1.4545	0.1	342.08
6589	4.416	1.6364	0.1	376.41
6590	4.416	1.8182	0.1	407.34
6591	4.416	2.	0.1	434.53
6592	4.416	2.1818	0.1	457.68
6593	4.416	2.3636	0.1	476.52
6594	4.416	2.5455	0.1	490.85
6595	4.416	2.7273	0.1	500.49
6596	4.416	2.9091	0.1	505.34
6597	4.416	3.0909	0.1	505.34
6598	4.416	3.2727	0.1	500.49
6599	4.416	3.4545	0.1	490.85
6600	4.416	3.6364	0.1	476.52
6601	4.416	3.8182	0.1	457.68
6602	4.416	4.	0.1	434.53
6603	4.416	4.1818	0.1	407.34
6604	4.416	4.3636	0.1	376.41
6605	4.416	4.5455	0.1	342.08
6606	4.416	4.7273	0.1	304.73
6607	4.416	4.9091	0.1	264.75
6608	4.416	5.0909	0.1	222.55
6609	4.416	5.2727	0.1	178.54
6610	4.416	5.4545	0.1	133.15
6611	4.416	5.6364	0.1	86.621
6612	4.416	5.8182	0.1	39.076
6613	4.6	0.18182	0.1	36.77
6614	4.6	0.36364	0.1	80.596
6615	4.6	0.54545	0.1	123.49
6616	4.6	0.72727	0.1	165.29
6617	4.6	0.90909	0.1	205.77
6618	4.6	1.0909	0.1	244.54
6619	4.6	1.2727	0.1	281.25
6620	4.6	1.4545	0.1	315.52
6621	4.6	1.6364	0.1	346.99
6622	4.6	1.8182	0.1	375.34
6623	4.6	2.	0.1	400.25
6624	4.6	2.1818	0.1	421.45
6625	4.6	2.3636	0.1	438.71
6626	4.6	2.5455	0.1	451.83
6627	4.6	2.7273	0.1	460.66
6628	4.6	2.9091	0.1	465.1
6629	4.6	3.0909	0.1	465.1
6630	4.6	3.2727	0.1	460.66
6631	4.6	3.4545	0.1	451.83
6632	4.6	3.6364	0.1	438.71
6633	4.6	3.8182	0.1	421.45
6634	4.6	4.	0.1	400.25
6635	4.6	4.1818	0.1	375.34
6636	4.6	4.3636	0.1	346.99
6637	4.6	4.5455	0.1	315.52
6638	4.6	4.7273	0.1	281.25
6639	4.6	4.9091	0.1	244.54
6640	4.6	5.0909	0.1	205.77
6641	4.6	5.2727	0.1	165.29
6642	4.6	5.4545	0.1	123.49
6643	4.6	5.6364	0.1	80.596
6644	4.6	5.8182	0.1	36.77
6645	4.784	0.18182	0.1	34.425
6646	4.784	0.36364	0.1	74.825
6647	4.784	0.54545	0.1	114.36
6648	4.784	0.72727	0.1	152.85
6649	4.784	0.90909	0.1	190.08
6650	4.784	1.0909	0.1	225.71
6651	4.784	1.2727	0.1	259.41
6652	4.784	1.4545	0.1	290.84
6653	4.784	1.6364	0.1	319.7
6654	4.784	1.8182	0.1	345.68
6655	4.784	2.	0.1	368.5
6656	4.784	2.1818	0.1	387.92
6657	4.784	2.3636	0.1	403.72
6658	4.784	2.5455	0.1	415.73
6659	4.784	2.7273	0.1	423.82
6660	4.784	2.9091	0.1	427.88
6661	4.784	3.0909	0.1	427.88
6662	4.784	3.2727	0.1	423.82
6663	4.784	3.4545	0.1	415.73
6664	4.784	3.6364	0.1	403.72
6665	4.784	3.8182	0.1	387.92
6666	4.784	4.	0.1	368.5
6667	4.784	4.1818	0.1	345.68
6668	4.784	4.3636	0.1	319.7
6669	4.784	4.5455	0.1	290.84
6670	4.784	4.7273	0.1	259.41
6671	4.784	4.9091	0.1	225.71
6672	4.784	5.0909	0.1	190.08
6673	4.784	5.2727	0.1	152.85
6674	4.784	5.4545	0.1	114.36
6675	4.784	5.6364	0.1	74.825
6676	4.784	5.8182	0.1	34.425
6677	4.968	0.18182	0.1	32.07
6678	4.968	0.36364	0.1	69.311
6679	4.968	0.54545	0.1	105.74
6680	4.968	0.72727	0.1	141.17
6681	4.968	0.90909	0.1	175.41
6682	4.968	1.0909	0.1	208.15
6683	4.968	1.2727	0.1	239.09
6684	4.968	1.4545	0.1	267.93
6685	4.968	1.6364	0.1	294.39
6686	4.968	1.8182	0.1	318.19
6687	4.968	2.	0.1	339.1
6688	4.968	2.1818	0.1	356.88
6689	4.968	2.3636	0.1	371.35
6690	4.968	2.5455	0.1	382.34
6691	4.968	2.7273	0.1	389.74
6692	4.968	2.9091	0.1	393.46
6693	4.968	3.0909	0.1	393.46
6694	4.968	3.2727	0.1	389.74
6695	4.968	3.4545	0.1	382.34
6696	4.968	3.6364	0.1	371.35
6697	4.968	3.8182	0.1	356.88
6698	4.968	4.	0.1	339.1
6699	4.968	4.1818	0.1	318.19
6700	4.968	4.3636	0.1	294.39
6701	4.968	4.5455	0.1	267.93
6702	4.968	4.7273	0.1	239.09
6703	4.968	4.9091	0.1	208.15
6704	4.968	5.0909	0.1	175.41
6705	4.968	5.2727	0.1	141.17
6706	4.968	5.4545	0.1	105.74
6707	4.968	5.6364	0.1	69.311
6708	4.968	5.8182	0.1	32.07
6709	5.152	0.18182	0.1	29.726
6710	5.152	0.36364	0.1	64.055
6711	5.152	0.54545	0.1	97.614
6712	5.152	0.72727	0.1	130.22
6713	5.152	0.90909	0.1	161.71
6714	5.152	1.0909	0.1	191.79
6715	5.152	1.2727	0.1	220.19
6716	5.152	1.4545	0.1	246.65
6717	5.152	1.6364	0.1	270.91
6718	5.152	1.8182	0.1	292.72
6719	5.152	2.	0.1	311.87
6720	5.152	2.1818	0.1	328.16
6721	5.152	2.3636	0.1	341.4
6722	5.152	2.5455	0.1	351.46
6723	5.152	2.7273	0.1	358.23
6724	5.152	2.9091	0.1	361.63
6725	5.152	3.0909	0.1	361.63
6726	5.152	3.2727	0.1	358.23
6727	5.152	3.4545	0.1	351.46
6728	5.152	3.6364	0.1	341.4
6729	5.152	3.8182	0.1	328.16
6730	5.152	4.	0.1	311.87
6731	5.152	4.1818	0.1	292.72
6732	5.152	4.3636	0.1	270.91
6733	5.152	4.5455	0.1	246.65
6734	5.152	4.7273	0.1	220.19
6735	5.152	4.9091	0.1	191.79
6736	5.152	5.0909	0.1	161.71
6737	5.152	5.2727	0.1	130.22
6738	5.152	5.4545	0.1	97.614
6739	5.152	5.6364	0.1	64.055
6740	5.152	5.8182	0.1	29.726
6741	5.336	0.18182	0.1	27.413
6742	5.336	0.36364	0.1	59.055
6743	5.336	0.54545	0.1	89.96
6744	5.336	0.72727	0.1	119.97
6745	5.336	0.90909	0.1	148.91
6746	5.336	1.0909	0.1	176.54
6747	5.336	1.2727	0.1	202.61
6748	5.336	1.4545	0.1	226.88
6749	5.336	1.6364	0.1	249.12
6750	5.336	1.8182	0.1	269.11
6751	5.336	2.	0.1	286.66
6752	5.336	2.1818	0.1	301.56
6753	5.336	2.3636	0.1	313.69
6754	5.336	2.5455	0.1	322.9
6755	5.336	2.7273	0.1	329.09
6756	5.336	2.9091	0.1	332.21
6757	5.336	3.0909	0.1	332.21
6758	5.336	3.2727	0.1	329.09
6759	5.336	3.4545	0.1	322.9
6760	5.336	3.6364	0.1	313.69
6761	5.336	3.8182	0.1	301.56
6762	5.336	4.	0.1	286.66
6763	5.336	4.1818	0.1	269.11
6764	5.336	4.3636	0.1	249.12
6765	5.336	4.5455	0.1	226.88
6766	5.336	4.7273	0.1	202.61
6767	5.336	4.9091	0.1	176.54
6768	5.336	5.0909	0.1	148.91
6769	5.336	5.2727	0.1	119.97
6770	5.336	5.4545	0.1	89.96
6771	5.336	5.6364	0.1	59.055
6772	5.336	5.8182	0.1	27.413
6773	5.52	0.18182	0.1	25.147
6774	5.52	0.36364	0.1	54.307
6775	5.52	0.54545	0.1	82.757
6776	5.52	0.72727	0.1	110.35
6777	5.52	0.90909	0.1	136.96
6778	5.52	1.0909	0.1	162.33
6779	5.52	1.2727	0.1	186.26
6780	5.52	1.4545	0.1	208.53
6781	5.52	1.6364	0.1	228.91
6782	5.52	1.8182	0.1	247.23
6783	5.52	2.	0.1	263.3
6784	5.52	2.1818	0.1	276.95
6785	5.52	2.3636	0.1	288.05
6786	5.52	2.5455	0.1	296.48
6787	5.52	2.7273	0.1	302.15
6788	5.52	2.9091	0.1	305.
6789	5.52	3.0909	0.1	305.
6790	5.52	3.2727	0.1	302.15
6791	5.52	3.4545	0.1	296.48
6792	5.52	3.6364	0.1	288.05
6793	5.52	3.8182	0.1	276.95
6794	5.52	4.	0.1	263.3
6795	5.52	4.1818	0.1	247.23
6796	5.52	4.3636	0.1	228.91
6797	5.52	4.5455	0.1	208.53
6798	5.52	4.7273	0.1	186.26
6799	5.52	4.9091	0.1	162.33
6800	5.52	5.0909	0.1	136.96
6801	5.52	5.2727	0.1	110.35
6802	5.52	5.4545	0.1	82.757
6803	5.52	5.6364	0.1	54.307
6804	5.52	5.8182	0.1	25.147
6805	5.704	0.18182	0.1	22.938
6806	5.704	0.36364	0.1	49.807
6807	5.704	0.54545	0.1	75.982
6808	5.704	0.72727	0.1	101.36
6809	5.704	0.90909	0.1	125.8
6810	5.704	1.0909	0.1	149.1
6811	5.704	1.2727	0.1	171.05
6812	5.704	1.4545	0.1	191.47
6813	5.704	1.6364	0.1	210.16
6814	5.704	1.8182	0.1	226.95
6815	5.704	2.	0.1	241.66
6816	5.704	2.1818	0.1	254.16
6817	5.704	2.3636	0.1	264.32
6818	5.704	2.5455	0.1	272.04
6819	5.704	2.7273	0.1	277.23
6820	5.704	2.9091	0.1	279.83
6821	5.704	3.0909	0.1	279.83
6822	5.704	3.2727	0.1	277.23
6823	5.704	3.4545	0.1	272.04
6824	5.704	3.6364	0.1	264.32
6825	5.704	3.8182	0.1	254.16
6826	5.704	4.	0.1	241.66
6827	5.704	4.1818	0.1	226.95
6828	5.704	4.3636	0.1	210.16
6829	5.704	4.5455	0.1	191.47
6830	5.704	4.7273	0.1	171.05
6831	5.704	4.9091	0.1	149.1
6832	5.704	5.0909	0.1	125.8
6833	5.704	5.2727	0.1	101.36
6834	5.704	5.4545	0.1	75.982
6835	5.704	5.6364	0.1	49.807
6836	5.704	5.8182	0.1	22.938
6837	5.888	0.18182	0.1	20.795
6838	5.888	0.36364	0.1	45.546
6839	5.888	0.54545	0.1	69.615
6840	5.888	0.72727	0.1	92.931
6841	5.888	0.90909	0.1	115.38
6842	5.888	1.0909	0.1	136.76
6843	5.888	1.2727	0.1	156.91
6844	5.888	1.4545	0.1	175.63
6845	5.888	1.6364	0.1	192.76
6846	5.888	1.8182	0.1	208.14
6847	5.888	2.	0.1	221.62
6848	5.888	2.1818	0.1	233.06
6849	5.888	2.3636	0.1	242.37
6850	5.888	2.5455	0.1	249.43
6851	5.888	2.7273	0.1	254.18
6852	5.888	2.9091	0.1	256.56
6853	5.888	3.0909	0.1	256.56
6854	5.888	3.2727	0.1	254.18
6855	5.888	3.4545	0.1	249.43
6856	5.888	3.6364	0.1	242.37
6857	5.888	3.8182	0.1	233.06
6858	5.888	4.	0.1	221.62
6859	5.888	4.1818	0.1	208.14
6860	5.888	4.3636	0.1	192.76
6861	5.888	4.5455	0.1	175.63
6862	5.888	4.7273	0.1	156.91
6863	5.888	4.9091	0.1	136.76
6864	5.888	5.0909	0.1	115.38
6865	5.888	5.2727	0.1	92.931
6866	5.888	5.4545	0.1	69.615
6867	5.888	5.6364	0.1	45.546
6868	5.888	5.8182	0.1	20.795
6869	6.072	0.18182	0.1	18.725
6870	6.072	0.36364	0.1	41.518
6871	6.072	0.54545	0.1	63.634
6872	6.072	0.72727	0.1	85.046
6873	6.072	0.90909	0.1	105.65
6874	6.072	1.0909	0.1	125.27
6875	6.072	1.2727	0.1	143.74
6876	6.072	1.4545	0.1	160.9
6877	6.072	1.6364	0.1	176.6
6878	6.072	1.8182	0.1	190.69
6879	6.072	2.	0.1	203.04
6880	6.072	2.1818	0.1	213.52
6881	6.072	2.3636	0.1	222.04
6882	6.072	2.5455	0.1	228.5
6883	6.072	2.7273	0.1	232.85
6884	6.072	2.9091	0.1	235.03
6885	6.072	3.0909	0.1	235.03
6886	6.072	3.2727	0.1	232.85
6887	6.072	3.4545	0.1	228.5
6888	6.072	3.6364	0.1	222.04
6889	6.072	3.8182	0.1	213.52
6890	6.072	4.	0.1	203.04
6891	6.072	4.1818	0.1	190.69
6892	6.072	4.3636	0.1	176.6
6893	6.072	4.5455	0.1	160.9
6894	6.072	4.7273	0.1	143.74
6895	6.072	4.9091	0.1	125.27
6896	6.072	5.0909	0.1	105.65
6897	6.072	5.2727	0.1	85.046
6898	6.072	5.4545	0.1	63.634
6899	6.072	5.6364	0.1	41.518
6900	6.072	5.8182	0.1	18.725
6901	6.256	0.18182	0.1	16.733
6902	6.256	0.36364	0.1	37.711
6903	6.256	0.54545	0.1	58.017
6904	6.256	0.72727	0.1	77.664
6905	6.256	0.90909	0.1	96.562
6906	6.256	1.0909	0.1	114.55
6907	6.256	1.2727	0.1	131.49
6908	6.256	1.4545	0.1	147.22
6909	6.256	1.6364	0.1	161.6
6910	6.256	1.8182	0.1	174.51
6911	6.256	2.	0.1	185.81
6912	6.256	2.1818	0.1	195.41
6913	6.256	2.3636	0.1	203.21
6914	6.256	2.5455	0.1	209.13
6915	6.256	2.7273	0.1	213.11
6916	6.256	2.9091	0.1	215.11
6917	6.256	3.0909	0.1	215.11
6918	6.256	3.2727	0.1	213.11
6919	6.256	3.4545	0.1	209.13
6920	6.256	3.6364	0.1	203.21
6921	6.256	3.8182	0.1	195.41
6922	6.256	4.	0.1	185.81
6923	6.256	4.1818	0.1	174.51
6924	6.256	4.3636	0.1	161.6
6925	6.256	4.5455	0.1	147.22
6926	6.256	4.7273	0.1	131.49
6927	6.256	4.9091	0.1	114.55
6928	6.256	5.0909	0.1	96.562
6929	6.256	5.2727	0.1	77.664
6930	6.256	5.4545	0.1	58.017
6931	6.256	5.6364	0.1	37.711
6932	6.256	5.8182	0.1	16.733
6933	6.44	0.18182	0.1	14.82
6934	6.44	0.36364	0.1	34.117
6935	6.44	0.54545	0.1	52.74
6936	6.44	0.72727	0.1	70.752
6937	6.44	0.90909	0.1	88.073
6938	6.44	1.0909	0.1	104.56
6939	6.44	1.2727	0.1	120.07
6940	6.44	1.4545	0.1	134.48
6941	6.44	1.6364	0.1	147.66
6942	6.44	1.8182	0.1	159.48
6943	6.44	2.	0.1	169.84
6944	6.44	2.1818	0.1	178.63
6945	6.44	2.3636	0.1	185.77
6946	6.44	2.5455	0.1	191.19
6947	6.44	2.7273	0.1	194.84
6948	6.44	2.9091	0.1	196.67
6949	6.44	3.0909	0.1	196.67
6950	6.44	3.2727	0.1	194.84
6951	6.44	3.4545	0.1	191.19
6952	6.44	3.6364	0.1	185.77
6953	6.44	3.8182	0.1	178.63
6954	6.44	4.	0.1	169.84
6955	6.44	4.1818	0.1	159.48
6956	6.44	4.3636	0.1	147.66
6957	6.44	4.5455	0.1	134.48
6958	6.44	4.7273	0.1	120.07
6959	6.44	4.9091	0.1	104.56
6960	6.44	5.0909	0.1	88.073
6961	6.44	5.2727	0.1	70.752
6962	6.44	5.4545	0.1	52.74
6963	6.44	5.6364	0.1	34.117
6964	6.44	5.8182	0.1	14.82
6965	6.624	0.18182	0.1	12.989
6966	6.624	0.36364	0.1	30.723
6967	6.624	0.54545	0.1	47.783
6968	6.624	0.72727	0.1	64.277
6969	6.624	0.90909	0.1	80.136
6970	6.624	1.0909	0.1	95.231
6971	6.624	1.2727	0.1	109.44
6972	6.624	1.4545	0.1	122.63
6973	6.624	1.6364	0.1	134.7
6974	6.624	1.8182	0.1	145.52
6975	6.624	2.	0.1	155.01
6976	6.624	2.1818	0.1	163.07
6977	6.624	2.3636	0.1	169.61
6978	6.624	2.5455	0.1	174.58
6979	6.624	2.7273	0.1	177.91
6980	6.624	2.9091	0.1	179.59
6981	6.624	3.0909	0.1	179.59
6982	6.624	3.2727	0.1	177.91
6983	6.624	3.4545	0.1	174.58
6984	6.624	3.6364	0.1	169.61
6985	6.624	3.8182	0.1	163.07
6986	6.624	4.	0.1	155.01
6987	6.624	4.1818	0.1	145.52
6988	6.624	4.3636	0.1	134.7
6989	6.624	4.5455	0.1	122.63
6990	6.624	4.7273	0.1	109.44
6991	6.624	4.9091	0.1	95.231
6992	6.624	5.0909	0.1	80.136
6993	6.624	5.2727	0.1	64.277
6994	6.624	5.4545	0.1	47.783
6995	6.624	5.6364	0.1	30.723
6996	6.624	5.8182	0.1	12.989
6997	6.808	0.18182	0.1	11.239
6998	6.808	0.36364	0.1	27.518
6999	6.808	0.54545	0.1	43.121
7000	6.808	0.72727	0.1	58.205
7001	6.808	0.90909	0.1	72.709
7002	6.808	1.0909	0.1	86.517
7003	6.808	1.2727	0.1	99.514
7004	6.808	1.4545	0.1	111.59
7005	6.808	1.6364	0.1	122.64
7006	6.808	1.8182	0.1	132.55
7007	6.808	2.	0.1	141.24
7008	6.808	2.1818	0.1	148.62
7009	6.808	2.3636	0.1	154.62
7010	6.808	2.5455	0.1	159.17
7011	6.808	2.7273	0.1	162.23
7012	6.808	2.9091	0.1	163.77
7013	6.808	3.0909	0.1	163.77
7014	6.808	3.2727	0.1	162.23
7015	6.808	3.4545	0.1	159.17
7016	6.808	3.6364	0.1	154.62
7017	6.808	3.8182	0.1	148.62
7018	6.808	4.	0.1	141.24
7019	6.808	4.1818	0.1	132.55
7020	6.808	4.3636	0.1	122.64
7021	6.808	4.5455	0.1	111.59
7022	6.808	4.7273	0.1	99.514
7023	6.808	4.9091	0.1	86.517
7024	6.808	5.0909	0.1	72.709
7025	6.808	5.2727	0.1	58.205
7026	6.808	5.4545	0.1	43.121
7027	6.808	5.6364	0.1	27.518
7028	6.808	5.8182	0.1	11.239
7029	6.992	0.18182	0.1	9.5677
7030	6.992	0.36364	0.1	24.489
7031	6.992	0.54545	0.1	38.734
7032	6.992	0.72727	0.1	52.504
7033	6.992	0.90909	0.1	65.75
7034	6.992	1.0909	0.1	78.365
7035	6.992	1.2727	0.1	90.247
7036	6.992	1.4545	0.1	101.29
7037	6.992	1.6364	0.1	111.4
7038	6.992	1.8182	0.1	120.48
7039	6.992	2.	0.1	128.44
7040	6.992	2.1818	0.1	135.21
7041	6.992	2.3636	0.1	140.7
7042	6.992	2.5455	0.1	144.88
7043	6.992	2.7273	0.1	147.69
7044	6.992	2.9091	0.1	149.1
7045	6.992	3.0909	0.1	149.1
7046	6.992	3.2727	0.1	147.69
7047	6.992	3.4545	0.1	144.88
7048	6.992	3.6364	0.1	140.7
7049	6.992	3.8182	0.1	135.21
7050	6.992	4.	0.1	128.44
7051	6.992	4.1818	0.1	120.48
7052	6.992	4.3636	0.1	111.4
7053	6.992	4.5455	0.1	101.29
7054	6.992	4.7273	0.1	90.247
7055	6.992	4.9091	0.1	78.365
7056	6.992	5.0909	0.1	65.75
7057	6.992	5.2727	0.1	52.504
7058	6.992	5.4545	0.1	38.734
7059	6.992	5.6364	0.1	24.489
7060	6.992	5.8182	0.1	9.5678
7061	7.176	0.18182	0.1	7.9746
7062	7.176	0.36364	0.1	21.624
7063	7.176	0.54545	0.1	34.597
7064	7.176	0.72727	0.1	47.142
7065	7.176	0.90909	0.1	59.217
7066	7.176	1.0909	0.1	70.727
7067	7.176	1.2727	0.1	81.577
7068	7.176	1.4545	0.1	91.673
7069	7.176	1.6364	0.1	100.92
7070	7.176	1.8182	0.1	109.24
7071	7.176	2.	0.1	116.53
7072	7.176	2.1818	0.1	122.74
7073	7.176	2.3636	0.1	127.78
7074	7.176	2.5455	0.1	131.62
7075	7.176	2.7273	0.1	134.2
7076	7.176	2.9091	0.1	135.5
7077	7.176	3.0909	0.1	135.5
7078	7.176	3.2727	0.1	134.2
7079	7.176	3.4545	0.1	131.62
7080	7.176	3.6364	0.1	127.78
7081	7.176	3.8182	0.1	122.74
7082	7.176	4.	0.1	116.53
7083	7.176	4.1818	0.1	109.24
7084	7.176	4.3636	0.1	100.92
7085	7.176	4.5455	0.1	91.673
7086	7.176	4.7273	0.1	81.577
7087	7.176	4.9091	0.1	70.727
7088	7.176	5.0909	0.1	59.217
7089	7.176	5.2727	0.1	47.142
7090	7.176	5.4545	0.1	34.597
7091	7.176	5.6364	0.1	21.624
7092	7.176	5.8182	0.1	7.9747
7093	7.36	0.18182	0.1	6.4567
7094	7.36	0.36364	0.1	18.909
7095	7.36	0.54545	0.1	30.689
7096	7.36	0.72727	0.1	42.086
7097	7.36	0.90909	0.1	53.07
7098	7.36	1.0909	0.1	63.554
7099	7.36	1.2727	0.1	73.451
7100	7.36	1.4545	0.1	82.673
7101	7.36	1.6364	0.1	91.133
7102	7.36	1.8182	0.1	98.749
7103	7.36	2.	0.1	105.44
7104	7.36	2.1818	0.1	111.14
7105	7.36	2.3636	0.1	115.78
7106	7.36	2.5455	0.1	119.3
7107	7.36	2.7273	0.1	121.68
7108	7.36	2.9091	0.1	122.87
7109	7.36	3.0909	0.1	122.87
7110	7.36	3.2727	0.1	121.68
7111	7.36	3.4545	0.1	119.3
7112	7.36	3.6364	0.1	115.78
7113	7.36	3.8182	0.1	111.14
7114	7.36	4.	0.1	105.44
7115	7.36	4.1818	0.1	98.749
7116	7.36	4.3636	0.1	91.133
7117	7.36	4.5455	0.1	82.673
7118	7.36	4.7273	0.1	73.451
7119	7.36	4.9091	0.1	63.554
7120	7.36	5.0909	0.1	53.07
7121	7.36	5.2727	0.1	42.086
7122	7.36	5.4545	0.1	30.689
7123	7.36	5.6364	0.1	18.909
7124	7.36	5.8182	0.1	6.4567
7125	7.544	0.18182	0.1	5.0112
7126	7.544	0.36364	0.1	16.329
7127	7.544	0.54545	0.1	26.985
7128	7.544	0.72727	0.1	37.306
7129	7.544	0.90909	0.1	47.27
7130	7.544	1.0909	0.1	56.8
7131	7.544	1.2727	0.1	65.814
7132	7.544	1.4545	0.1	74.232
7133	7.544	1.6364	0.1	81.97
7134	7.544	1.8182	0.1	88.95
7135	7.544	2.	0.1	95.094
7136	7.544	2.1818	0.1	100.33
7137	7.544	2.3636	0.1	104.6
7138	7.544	2.5455	0.1	107.85
7139	7.544	2.7273	0.1	110.04
7140	7.544	2.9091	0.1	111.15
7141	7.544	3.0909	0.1	111.15
7142	7.544	3.2727	0.1	110.04
7143	7.544	3.4545	0.1	107.85
7144	7.544	3.6364	0.1	104.6
7145	7.544	3.8182	0.1	100.33
7146	7.544	4.	0.1	95.094
7147	7.544	4.1818	0.1	88.95
7148	7.544	4.3636	0.1	81.97
7149	7.544	4.5455	0.1	74.232
7150	7.544	4.7273	0.1	65.814
7151	7.544	4.9091	0.1	56.8
7152	7.544	5.0909	0.1	47.27
7153	7.544	5.2727	0.1	37.306
7154	7.544	5.4545	0.1	26.985
7155	7.544	5.6364	0.1	16.329
7156	7.544	5.8182	0.1	5.0112
7157	7.728	0.18182	0.1	3.6365
7158	7.728	0.36364	0.1	13.87
7159	7.728	0.54545	0.1	23.461
7160	7.728	0.72727	0.1	32.768
7161	7.728	0.90909	0.1	41.777
7162	7.728	1.0909	0.1	50.417
7163	7.728	1.2727	0.1	58.615
7164	7.728	1.4545	0.1	66.293
7165	7.728	1.6364	0.1	73.373
7166	7.728	1.8182	0.1	79.776
7167	7.728	2.	0.1	85.426
7168	7.728	2.1818	0.1	90.254
7169	7.728	2.3636	0.1	94.198
7170	7.728	2.5455	0.1	97.204
7171	7.728	2.7273	0.1	99.232
7172	7.728	2.9091	0.1	100.25
7173	7.728	3.0909	0.1	100.25
7174	7.728	3.2727	0.1	99.232
7175	7.728	3.4545	0.1	97.204
7176	7.728	3.6364	0.1	94.198
7177	7.728	3.8182	0.1	90.254
7178	7.728	4.	0.1	85.426
7179	7.728	4.1818	0.1	79.776
7180	7.728	4.3636	0.1	73.373
7181	7.728	4.5455	0.1	66.293
7182	7.728	4.7273	0.1	58.615
7183	7.728	4.9091	0.1	50.417
7184	7.728	5.0909	0.1	41.777
7185	7.728	5.2727	0.1	32.768
7186	7.728	5.4545	0.1	23.461
7187	7.728	5.6364	0.1	13.871
7188	7.728	5.8182	0.1	3.6365
7189	7.912	0.18182	0.1	2.3362
7190	7.912	0.36364	0.1	11.517
7191	7.912	0.54545	0.1	20.093
7192	7.912	0.72727	0.1	28.439
7193	7.912	0.90909	0.1	36.549
7194	7.912	1.0909	0.1	44.359
7195	7.912	1.2727	0.1	51.802
7196	7.912	1.4545	0.1	58.802
7197	7.912	1.6364	0.1	65.283
7198	7.912	1.8182	0.1	71.166
7199	7.912	2.	0.1	76.375
7200	7.912	2.1818	0.1	80.84
7201	7.912	2.3636	0.1	84.495
7202	7.912	2.5455	0.1	87.288
7203	7.912	2.7273	0.1	89.174
7204	7.912	2.9091	0.1	90.124
7205	7.912	3.0909	0.1	90.124
7206	7.912	3.2727	0.1	89.174
7207	7.912	3.4545	0.1	87.288
7208	7.912	3.6364	0.1	84.495
7209	7.912	3.8182	0.1	80.84
7210	7.912	4.	0.1	76.375
7211	7.912	4.1818	0.1	71.166
7212	7.912	4.3636	0.1	65.283
7213	7.912	4.5455	0.1	58.802
7214	7.912	4.7273	0.1	51.802
7215	7.912	4.9091	0.1	44.359
7216	7.912	5.0909	0.1	36.549
7217	7.912	5.2727	0.1	28.439
7218	7.912	5.4545	0.1	20.093
7219	7.912	5.6364	0.1	11.517
7220	7.912	5.8182	0.1	2.3362
7221	8.096	0.18182	0.1	1.1434
7222	8.096	0.36364	0.1	9.2507
7223	8.096	0.54545	0.1	16.854
7224	8.096	0.72727	0.1	24.285
7225	8.096	0.90909	0.1	31.546
7226	8.096	1.0909	0.1	38.58
7227	8.096	1.2727	0.1	45.324
7228	8.096	1.4545	0.1	51.703
7229	8.096	1.6364	0.1	57.642
7230	8.096	1.8182	0.1	63.061
7231	8.096	2.	0.1	67.882
7232	8.096	2.1818	0.1	72.029
7233	8.096	2.3636	0.1	75.437
7234	8.096	2.5455	0.1	78.046
7235	8.096	2.7273	0.1	79.812
7236	8.096	2.9091	0.1	80.703
7237	8.096	3.0909	0.1	80.703
7238	8.096	3.2727	0.1	79.812
7239	8.096	3.4545	0.1	78.046
7240	8.096	3.6364	0.1	75.437
7241	8.096	3.8182	0.1	72.029
7242	8.096	4.	0.1	67.882
7243	8.096	4.1818	0.1	63.061
7244	8.096	4.3636	0.1	57.642
7245	8.096	4.5455	0.1	51.703
7246	8.096	4.7273	0.1	45.324
7247	8.096	4.9091	0.1	38.58
7248	8.096	5.0909	0.1	31.546
7249	8.096	5.2727	0.1	24.285
7250	8.096	5.4545	0.1	16.854
7251	8.096	5.6364	0.1	9.2508
7252	8.096	5.8182	0.1	1.1434
7253	8.28	0.18182	0.1	0.30731
7254	8.28	0.36364	0.1	7.0549
7255	8.28	0.54545	0.1	13.717
7256	8.28	0.72727	0.1	20.27
7257	8.28	0.90909	0.1	26.725
7258	8.28	1.0909	0.1	33.031
7259	8.28	1.2727	0.1	39.128
7260	8.28	1.4545	0.1	44.942
7261	8.28	1.6364	0.1	50.396
7262	8.28	1.8182	0.1	55.406
7263	8.28	2.	0.1	59.89
7264	8.28	2.1818	0.1	63.768
7265	8.28	2.3636	0.1	66.967
7266	8.28	2.5455	0.1	69.425
7267	8.28	2.7273	0.1	71.093
7268	8.28	2.9091	0.1	71.935
7269	8.28	3.0909	0.1	71.935
7270	8.28	3.2727	0.1	71.093
7271	8.28	3.4545	0.1	69.425
7272	8.28	3.6364	0.1	66.967
7273	8.28	3.8182	0.1	63.768
7274	8.28	4.	0.1	59.89
7275	8.28	4.1818	0.1	55.406
7276	8.28	4.3636	0.1	50.396
7277	8.28	4.5455	0.1	44.942
7278	8.28	4.7273	0.1	39.128
7279	8.28	4.9091	0.1	33.031
7280	8.28	5.0909	0.1	26.725
7281	8.28	5.2727	0.1	20.27
7282	8.28	5.4545	0.1	13.717
7283	8.28	5.6364	0.1	7.0549
7284	8.28	5.8182	0.1	0.30732
7285	8.464	0.18182	0.1	8.5179e-002
7286	8.464	0.36364	0.1	4.9095
7287	8.464	0.54545	0.1	10.65
7288	8.464	0.72727	0.1	16.355
7289	8.464	0.90909	0.1	22.041
7290	8.464	1.0909	0.1	27.663
7291	8.464	1.2727	0.1	33.162
7292	8.464	1.4545	0.1	38.465
7293	8.464	1.6364	0.1	43.489
7294	8.464	1.8182	0.1	48.146
7295	8.464	2.	0.1	52.346
7296	8.464	2.1818	0.1	56.003
7297	8.464	2.3636	0.1	59.036
7298	8.464	2.5455	0.1	61.376
7299	8.464	2.7273	0.1	62.968
7300	8.464	2.9091	0.1	63.774
7301	8.464	3.0909	0.1	63.774
7302	8.464	3.2727	0.1	62.968
7303	8.464	3.4545	0.1	61.376
7304	8.464	3.6364	0.1	59.036
7305	8.464	3.8182	0.1	56.003
7306	8.464	4.	0.1	52.346
7307	8.464	4.1818	0.1	48.146
7308	8.464	4.3636	0.1	43.489
7309	8.464	4.5455	0.1	38.465
7310	8.464	4.7273	0.1	33.162
7311	8.464	4.9091	0.1	27.663
7312	8.464	5.0909	0.1	22.041
7313	8.464	5.2727	0.1	16.355
7314	8.464	5.4545	0.1	10.65
7315	8.464	5.6364	0.1	4.9095
7316	8.464	5.8182	0.1	8.5182e-002
7317	8.648	0.18182	0.1	3.3668e-002
7318	8.648	0.36364	0.1	2.793
7319	8.648	0.54545	0.1	7.623
7320	8.648	0.72727	0.1	12.499
7321	8.648	0.90909	0.1	17.445
7322	8.648	1.0909	0.1	22.422
7323	8.648	1.2727	0.1	27.371
7324	8.648	1.4545	0.1	32.214
7325	8.648	1.6364	0.1	36.864
7326	8.648	1.8182	0.1	41.225
7327	8.648	2.	0.1	45.197
7328	8.648	2.1818	0.1	48.684
7329	8.648	2.3636	0.1	51.595
7330	8.648	2.5455	0.1	53.853
7331	8.648	2.7273	0.1	55.395
7332	8.648	2.9091	0.1	56.177
7333	8.648	3.0909	0.1	56.177
7334	8.648	3.2727	0.1	55.395
7335	8.648	3.4545	0.1	53.853
7336	8.648	3.6364	0.1	51.595
7337	8.648	3.8182	0.1	48.684
7338	8.648	4.	0.1	45.197
7339	8.648	4.1818	0.1	41.225
7340	8.648	4.3636	0.1	36.864
7341	8.648	4.5455	0.1	32.214
7342	8.648	4.7273	0.1	27.371
7343	8.648	4.9091	0.1	22.422
7344	8.648	5.0909	0.1	17.445
7345	8.648	5.2727	0.1	12.499
7346	8.648	5.4545	0.1	7.623
7347	8.648	5.6364	0.1	2.7931
7348	8.648	5.8182	0.1	3.367e-002
7349	8.832	0.18182	0.1	1.4521e-002
7350	8.832	0.36364	0.1	0.68421
7351	8.832	0.54545	0.1	4.5992
7352	8.832	0.72727	0.1	8.6578
7353	8.832	0.90909	0.1	12.888
7354	8.832	1.0909	0.1	17.254
7355	8.832	1.2727	0.1	21.696
7356	8.832	1.4545	0.1	26.132
7357	8.832	1.6364	0.1	30.466
7358	8.832	1.8182	0.1	34.59
7359	8.832	2.	0.1	38.394
7360	8.832	2.1818	0.1	41.765
7361	8.832	2.3636	0.1	44.603
7362	8.832	2.5455	0.1	46.816
7363	8.832	2.7273	0.1	48.334
7364	8.832	2.9091	0.1	49.106
7365	8.832	3.0909	0.1	49.106
7366	8.832	3.2727	0.1	48.334
7367	8.832	3.4545	0.1	46.816
7368	8.832	3.6364	0.1	44.603
7369	8.832	3.8182	0.1	41.765
7370	8.832	4.	0.1	38.394
7371	8.832	4.1818	0.1	34.59
7372	8.832	4.3636	0.1	30.466
7373	8.832	4.5455	0.1	26.132
7374	8.832	4.7273	0.1	21.696
7375	8.832	4.9091	0.1	17.254
7376	8.832	5.0909	0.1	12.888
7377	8.832	5.2727	0.1	8.6578
7378	8.832	5.4545	0.1	4.5992
7379	8.832	5.6364	0.1	0.68424
7380	8.832	5.8182	0.1	1.4523e-002
7381	9.016	0.18182	0.1	5.9177e-003
7382	9.016	0.36364	0.1	-8.5647e-003
7383	9.016	0.54545	0.1	1.5397
7384	9.016	0.72727	0.1	4.7817
7385	9.016	0.90909	0.1	8.3118
7386	9.016	1.0909	0.1	12.098
7387	9.016	1.2727	0.1	16.076
7388	9.016	1.4545	0.1	20.158
7389	9.016	1.6364	0.1	24.236
7390	9.016	1.8182	0.1	28.187
7391	9.016	2.	0.1	31.884
7392	9.016	2.1818	0.1	35.2
7393	9.016	2.3636	0.1	38.016
7394	9.016	2.5455	0.1	40.228
7395	9.016	2.7273	0.1	41.751
7396	9.016	2.9091	0.1	42.528
7397	9.016	3.0909	0.1	42.528
7398	9.016	3.2727	0.1	41.751
7399	9.016	3.4545	0.1	40.228
7400	9.016	3.6364	0.1	38.016
7401	9.016	3.8182	0.1	35.2
7402	9.016	4.	0.1	31.884
7403	9.016	4.1818	0.1	28.187
7404	9.016	4.3636	0.1	24.236
7405	9.016	4.5455	0.1	20.158
7406	9.016	4.7273	0.1	16.076
7407	9.016	4.9091	0.1	12.098
7408	9.016	5.0909	0.1	8.3118
7409	9.016	5.2727	0.1	4.7817
7410	9.016	5.4545	0.1	1.5397
7411	9.016	5.6364	0.1	-8.5637e-003
7412	9.016	5.8182	0.1	5.9187e-003
7413	9.2	0.18182	0.1	2.1681e-003
7414	9.2	0.36364	0.1	-4.0623e-003
7415	9.2	0.54545	0.1	-6.9348e-003
7416	9.2	0.72727	0.1	0.81913
7417	9.2	0.90909	0.1	3.6568
7418	9.2	1.0909	0.1	6.8886
7419	9.2	1.2727	0.1	10.445
7420	9.2	1.4545	0.1	14.227
7421	9.2	1.6364	0.1	18.112
7422	9.2	1.8182	0.1	21.958
7423	9.2	2.	0.1	25.618
7424	9.2	2.1818	0.1	28.944
7425	9.2	2.3636	0.1	31.797
7426	9.2	2.5455	0.1	34.054
7427	9.2	2.7273	0.1	35.616
7428	9.2	2.9091	0.1	36.415
7429	9.2	3.0909	0.1	36.415
7430	9.2	3.2727	0.1	35.616
7431	9.2	3.4545	0.1	34.054
7432	9.2	3.6364	0.1	31.797
7433	9.2	3.8182	0.1	28.944
7434	9.2	4.	0.1	25.618
7435	9.2	4.1818	0.1	21.958
7436	9.2	4.3636	0.1	18.112
7437	9.2	4.5455	0.1	14.227
7438	9.2	4.7273	0.1	10.445
7439	9.2	4.9091	0.1	6.8887
7440	9.2	5.0909	0.1	3.6568
7441	9.2	5.2727	0.1	0.81915
7442	9.2	5.4545	0.1	-6.9344e-003
7443	9.2	5.6364	0.1	-4.061e-003
7444	9.2	5.8182	0.1	2.1695e-003
7445	9.384	0.18182	0.1	1.2806e-003
7446	9.384	0.36364	0.1	1.5498e-003
7447	9.384	0.54545	0.1	-6.893e-003
7448	9.384	0.72727	0.1	-7.7097e-003
7449	9.384	0.90909	0.1	1.3037e-003
7450	9.384	1.0909	0.1	1.5669
7451	9.384	1.2727	0.1	4.7345
7452	9.384	1.4545	0.1	8.2712
7453	9.384	1.6364	0.1	12.029
7454	9.384	1.8182	0.1	15.845
7455	9.384	2.	0.1	19.545
7456	9.384	2.1818	0.1	22.954
7457	9.384	2.3636	0.1	25.908
7458	9.384	2.5455	0.1	28.263
7459	9.384	2.7273	0.1	29.902
7460	9.384	2.9091	0.1	30.742
7461	9.384	3.0909	0.1	30.742
7462	9.384	3.2727	0.1	29.902
7463	9.384	3.4545	0.1	28.263
7464	9.384	3.6364	0.1	25.908
7465	9.384	3.8182	0.1	22.954
7466	9.384	4.	0.1	19.545
7467	9.384	4.1818	0.1	15.845
7468	9.384	4.3636	0.1	12.029
7469	9.384	4.5455	0.1	8.2713
7470	9.384	4.7273	0.1	4.7345
7471	9.384	4.9091	0.1	1.5669
7472	9.384	5.0909	0.1	1.305e-003
7473	9.384	5.2727	0.1	-7.7084e-003
7474	9.384	5.4545	0.1	-6.8925e-003
7475	9.384	5.6364	0.1	1.5509e-003
7476	9.384	5.8182	0.1	1.2817e-003
7477	9.568	0.18182	0.1	2.4733e-003
7478	9.568	0.36364	0.1	7.6328e-003
7479	9.568	0.54545	0.1	-6.8678e-003
7480	9.568	0.72727	0.1	-8.2986e-003
7481	9.568	0.90909	0.1	-7.8782e-003
7482	9.568	1.0909	0.1	-1.1582e-003
7483	9.568	1.2727	0.1	4.4404e-002
7484	9.568	1.4545	0.1	2.2386
7485	9.568	1.6364	0.1	5.9245
7486	9.568	1.8182	0.1	9.7875
7487	9.568	2.	0.1	13.61
7488	9.568	2.1818	0.1	17.183
7489	9.568	2.3636	0.1	20.312
7490	9.568	2.5455	0.1	22.825
7491	9.568	2.7273	0.1	24.582
7492	9.568	2.9091	0.1	25.486
7493	9.568	3.0909	0.1	25.486
7494	9.568	3.2727	0.1	24.582
7495	9.568	3.4545	0.1	22.825
7496	9.568	3.6364	0.1	20.312
7497	9.568	3.8182	0.1	17.183
7498	9.568	4.	0.1	13.61
7499	9.568	4.1818	0.1	9.7875
7500	9.568	4.3636	0.1	5.9246
7501	9.568	4.5455	0.1	2.2386
7502	9.568	4.7273	0.1	4.4406e-002
7503	9.568	4.9091	0.1	-1.1573e-003
7504	9.568	5.0909	0.1	-7.8766e-003
7505	9.568	5.2727	0.1	-8.2969e-003
7506	9.568	5.4545	0.1	-6.8675e-003
7507	9.568	5.6364	0.1	7.6339e-003
7508	9.568	5.8182	0.1	2.4745e-003
7509	9.752	0.18182	0.1	5.4674e-003
7510	9.752	0.36364	0.1	1.4185e-002
7511	9.752	0.54545	0.1	-7.0411e-003
7512	9.752	0.72727	0.1	-8.6773e-003
7513	9.752	0.90909	0.1	-9.4805e-003
7514	9.752	1.0909	0.1	-6.3823e-003
7515	9.752	1.2727	0.1	1.0824e-003
7516	9.752	1.4545	0.1	2.1215e-002
7517	9.752	1.6364	0.1	0.26311
7518	9.752	1.8182	0.1	3.7383
7519	9.752	2.	0.1	7.7605
7520	9.752	2.1818	0.1	11.587
7521	9.752	2.3636	0.1	14.973
7522	9.752	2.5455	0.1	17.711
7523	9.752	2.7273	0.1	19.635
7524	9.752	2.9091	0.1	20.627
7525	9.752	3.0909	0.1	20.627
7526	9.752	3.2727	0.1	19.635
7527	9.752	3.4545	0.1	17.711
7528	9.752	3.6364	0.1	14.973
7529	9.752	3.8182	0.1	11.587
7530	9.752	4.	0.1	7.7606
7531	9.752	4.1818	0.1	3.7384
7532	9.752	4.3636	0.1	0.26312
7533	9.752	4.5455	0.1	2.1216e-002
7534	9.752	4.7273	0.1	1.0833e-003
7535	9.752	4.9091	0.1	-6.3817e-003
7536	9.752	5.0909	0.1	-9.479e-003
7537	9.752	5.2727	0.1	-8.6761e-003
7538	9.752	5.4545	0.1	-7.0409e-003
7539	9.752	5.6364	0.1	1.4186e-002
7540	9.752	5.8182	0.1	5.4685e-003
7541	9.936	0.18182	0.1	1.0229e-002
7542	9.936	0.36364	0.1	2.1282e-002
7543	9.936	0.54545	0.1	-7.4536e-003
7544	9.936	0.72727	0.1	-9.1432e-003
7545	9.936	0.90909	0.1	-1.0645e-002
7546	9.936	1.0909	0.1	-8.2027e-003
7547	9.936	1.2727	0.1	-3.1053e-003
7548	9.936	1.4545	0.1	5.869e-003
7549	9.936	1.6364	0.1	2.3325e-002
7550	9.936	1.8182	0.1	8.7409e-002
7551	9.936	2.	0.1	2.0087
7552	9.936	2.1818	0.1	6.1226
7553	9.936	2.3636	0.1	9.851
7554	9.936	2.5455	0.1	12.89
7555	9.936	2.7273	0.1	15.035
7556	9.936	2.9091	0.1	16.144
7557	9.936	3.0909	0.1	16.144
7558	9.936	3.2727	0.1	15.035
7559	9.936	3.4545	0.1	12.89
7560	9.936	3.6364	0.1	9.8511
7561	9.936	3.8182	0.1	6.1227
7562	9.936	4.	0.1	2.0087
7563	9.936	4.1818	0.1	8.7411e-002
7564	9.936	4.3636	0.1	2.3326e-002
7565	9.936	4.5455	0.1	5.8702e-003
7566	9.936	4.7273	0.1	-3.1042e-003
7567	9.936	4.9091	0.1	-8.2023e-003
7568	9.936	5.0909	0.1	-1.0644e-002
7569	9.936	5.2727	0.1	-9.1423e-003
7570	9.936	5.4545	0.1	-7.4527e-003
7571	9.936	5.6364	0.1	2.1283e-002
7572	9.936	5.8182	0.1	1.023e-002
7573	10.12	0.18182	0.1	1.6847e-002
7574	10.12	0.36364	0.1	2.9024e-002
7575	10.12	0.54545	0.1	-8.1329e-003
7576	10.12	0.72727	0.1	-9.733e-003
7577	10.12	0.90909	0.1	-1.1741e-002
7578	10.12	1.0909	0.1	-9.3204e-003
7579	10.12	1.2727	0.1	-4.6051e-003
7580	10.12	1.4545	0.1	2.7194e-003
7581	10.12	1.6364	0.1	1.3367e-002
7582	10.12	1.8182	0.1	3.096e-002
7583	10.12	2.	0.1	7.716e-002
7584	10.12	2.1818	0.1	0.96936
7585	10.12	2.3636	0.1	4.9175
7586	10.12	2.5455	0.1	8.3315
7587	10.12	2.7273	0.1	10.757
7588	10.12	2.9091	0.1	12.015
7589	10.12	3.0909	0.1	12.015
7590	10.12	3.2727	0.1	10.757
7591	10.12	3.4545	0.1	8.3315
7592	10.12	3.6364	0.1	4.9176
7593	10.12	3.8182	0.1	0.96939
7594	10.12	4.	0.1	7.7161e-002
7595	10.12	4.1818	0.1	3.0961e-002
7596	10.12	4.3636	0.1	1.3368e-002
7597	10.12	4.5455	0.1	2.72e-003
7598	10.12	4.7273	0.1	-4.6043e-003
7599	10.12	4.9091	0.1	-9.32e-003
7600	10.12	5.0909	0.1	-1.1739e-002
7601	10.12	5.2727	0.1	-9.7318e-003
7602	10.12	5.4545	0.1	-8.1323e-003
7603	10.12	5.6364	0.1	2.9025e-002
7604	10.12	5.8182	0.1	1.6847e-002
7605	10.304	0.18182	0.1	2.5457e-002
7606	10.304	0.36364	0.1	3.7509e-002
7607	10.304	0.54545	0.1	-9.1072e-003
7608	10.304	0.72727	0.1	-1.0435e-002
7609	10.304	0.90909	0.1	-1.2804e-002
7610	10.304	1.0909	0.1	-1.0061e-002
7611	10.304	1.2727	0.1	-5.0657e-003
7612	10.304	1.4545	0.1	2.2167e-003
7613	10.304	1.6364	0.1	1.1625e-002
7614	10.304	1.8182	0.1	2.3887e-002
7615	10.304	2.	0.1	4.2117e-002
7616	10.304	2.1818	0.1	8.3366e-002
7617	10.304	2.3636	0.1	0.57842
7618	10.304	2.5455	0.1	4.0106
7619	10.304	2.7273	0.1	6.771
7620	10.304	2.9091	0.1	8.2115
7621	10.304	3.0909	0.1	8.2115
7622	10.304	3.2727	0.1	6.771
7623	10.304	3.4545	0.1	4.0106
7624	10.304	3.6364	0.1	0.57845
7625	10.304	3.8182	0.1	8.3367e-002
7626	10.304	4.	0.1	4.2117e-002
7627	10.304	4.1818	0.1	2.3888e-002
7628	10.304	4.3636	0.1	1.1626e-002
7629	10.304	4.5455	0.1	2.2181e-003
7630	10.304	4.7273	0.1	-5.065e-003
7631	10.304	4.9091	0.1	-1.006e-002
7632	10.304	5.0909	0.1	-1.2802e-002
7633	10.304	5.2727	0.1	-1.0434e-002
7634	10.304	5.4545	0.1	-9.107e-003
7635	10.304	5.6364	0.1	3.7511e-002
7636	10.304	5.8182	0.1	2.5458e-002
7637	10.488	0.18182	0.1	3.6166e-002
7638	10.488	0.36364	0.1	4.6827e-002
7639	10.488	0.54545	0.1	-1.0402e-002
7640	10.488	0.72727	0.1	-1.121e-002
7641	10.488	0.90909	0.1	-1.3778e-002
7642	10.488	1.0909	0.1	-1.0411e-002
7643	10.488	1.2727	0.1	-4.7108e-003
7644	10.488	1.4545	0.1	3.2333e-003
7645	10.488	1.6364	0.1	1.2857e-002
7646	10.488	1.8182	0.1	2.406e-002
7647	10.488	2.	0.1	3.7322e-002
7648	10.488	2.1818	0.1	5.5227e-002
7649	10.488	2.3636	0.1	9.18e-002
7650	10.488	2.5455	0.1	0.42871
7651	10.488	2.7273	0.1	3.0476
7652	10.488	2.9091	0.1	4.696
7653	10.488	3.0909	0.1	4.696
7654	10.488	3.2727	0.1	3.0476
7655	10.488	3.4545	0.1	0.42873
7656	10.488	3.6364	0.1	9.1802e-002
7657	10.488	3.8182	0.1	5.5228e-002
7658	10.488	4.	0.1	3.7324e-002
7659	10.488	4.1818	0.1	2.406e-002
7660	10.488	4.3636	0.1	1.2858e-002
7661	10.488	4.5455	0.1	3.2339e-003
7662	10.488	4.7273	0.1	-4.7102e-003
7663	10.488	4.9091	0.1	-1.041e-002
7664	10.488	5.0909	0.1	-1.3776e-002
7665	10.488	5.2727	0.1	-1.1208e-002
7666	10.488	5.4545	0.1	-1.0401e-002
7667	10.488	5.6364	0.1	4.6827e-002
7668	10.488	5.8182	0.1	3.6166e-002
7669	10.672	0.18182	0.1	4.8955e-002
7670	10.672	0.36364	0.1	5.7031e-002
7671	10.672	0.54545	0.1	-1.2038e-002
7672	10.672	0.72727	0.1	-1.1983e-002
7673	10.672	0.90909	0.1	-1.4544e-002
7674	10.672	1.0909	0.1	-1.0226e-002
7675	10.672	1.2727	0.1	-3.4348e-003
7676	10.672	1.4545	0.1	5.681e-003
7677	10.672	1.6364	0.1	1.6274e-002
7678	10.672	1.8182	0.1	2.7823e-002
7679	10.672	2.	0.1	3.9881e-002
7680	10.672	2.1818	0.1	5.2364e-002
7681	10.672	2.3636	0.1	6.6323e-002
7682	10.672	2.5455	0.1	8.8484e-002
7683	10.672	2.7273	0.1	0.21346
7684	10.672	2.9091	0.1	1.4209
7685	10.672	3.0909	0.1	1.4209
7686	10.672	3.2727	0.1	0.21346
7687	10.672	3.4545	0.1	8.8485e-002
7688	10.672	3.6364	0.1	6.6324e-002
7689	10.672	3.8182	0.1	5.2365e-002
7690	10.672	4.	0.1	3.9882e-002
7691	10.672	4.1818	0.1	2.7823e-002
7692	10.672	4.3636	0.1	1.6276e-002
7693	10.672	4.5455	0.1	5.6819e-003
7694	10.672	4.7273	0.1	-3.4341e-003
7695	10.672	4.9091	0.1	-1.0226e-002
7696	10.672	5.0909	0.1	-1.4543e-002
7697	10.672	5.2727	0.1	-1.1981e-002
7698	10.672	5.4545	0.1	-1.2037e-002
7699	10.672	5.6364	0.1	5.7031e-002
7700	10.672	5.8182	0.1	4.8956e-002
7701	10.856	0.18182	0.1	6.3544e-002
7702	10.856	0.36364	0.1	6.8116e-002
7703	10.856	0.54545	0.1	-1.4027e-002
7704	10.856	0.72727	0.1	-1.2636e-002
7705	10.856	0.90909	0.1	-1.491e-002
7706	10.856	1.0909	0.1	-9.2574e-003
7707	10.856	1.2727	0.1	-9.6328e-004
7708	10.856	1.4545	0.1	9.807e-003
7709	10.856	1.6364	0.1	2.1955e-002
7710	10.856	1.8182	0.1	3.4643e-002
7711	10.856	2.	0.1	4.6856e-002
7712	10.856	2.1818	0.1	5.7409e-002
7713	10.856	2.3636	0.1	6.4638e-002
7714	10.856	2.5455	0.1	6.5401e-002
7715	10.856	2.7273	0.1	5.124e-002
7716	10.856	2.9091	0.1	4.2328e-003
7717	10.856	3.0909	0.1	4.2325e-003
7718	10.856	3.2727	0.1	5.1241e-002
7719	10.856	3.4545	0.1	6.5402e-002
7720	10.856	3.6364	0.1	6.4639e-002
7721	10.856	3.8182	0.1	5.741e-002
7722	10.856	4.	0.1	4.6857e-002
7723	10.856	4.1818	0.1	3.4643e-002
7724	10.856	4.3636	0.1	2.1956e-002
7725	10.856	4.5455	0.1	9.8073e-003
7726	10.856	4.7273	0.1	-9.6224e-004
7727	10.856	4.9091	0.1	-9.2566e-003
7728	10.856	5.0909	0.1	-1.4908e-002
7729	10.856	5.2727	0.1	-1.2636e-002
7730	10.856	5.4545	0.1	-1.4027e-002
7731	10.856	5.6364	0.1	6.8117e-002
7732	10.856	5.8182	0.1	6.3546e-002
7733	11.04	0.18182	0.1	7.9206e-002
7734	11.04	0.36364	0.1	7.9974e-002
7735	11.04	0.54545	0.1	-1.6369e-002
7736	11.04	0.72727	0.1	-1.2991e-002
7737	11.04	0.90909	0.1	-1.4588e-002
7738	11.04	1.0909	0.1	-7.1424e-003
7739	11.04	1.2727	0.1	3.1196e-003
7740	11.04	1.4545	0.1	1.6053e-002
7741	11.04	1.6364	0.1	3.0323e-002
7742	11.04	1.8182	0.1	4.4776e-002
7743	11.04	2.	0.1	5.7888e-002
7744	11.04	2.1818	0.1	6.767e-002
7745	11.04	2.3636	0.1	7.1164e-002
7746	11.04	2.5455	0.1	6.3292e-002
7747	11.04	2.7273	0.1	3.5831e-002
7748	11.04	2.9091	0.1	-8.e-003
7749	11.04	3.0909	0.1	-7.9997e-003
7750	11.04	3.2727	0.1	3.5831e-002
7751	11.04	3.4545	0.1	6.3293e-002
7752	11.04	3.6364	0.1	7.1164e-002
7753	11.04	3.8182	0.1	6.7671e-002
7754	11.04	4.	0.1	5.7888e-002
7755	11.04	4.1818	0.1	4.4777e-002
7756	11.04	4.3636	0.1	3.0324e-002
7757	11.04	4.5455	0.1	1.6054e-002
7758	11.04	4.7273	0.1	3.12e-003
7759	11.04	4.9091	0.1	-7.1414e-003
7760	11.04	5.0909	0.1	-1.4587e-002
7761	11.04	5.2727	0.1	-1.2991e-002
7762	11.04	5.4545	0.1	-1.6369e-002
7763	11.04	5.6364	0.1	7.9975e-002
7764	11.04	5.8182	0.1	7.9207e-002
7765	11.224	0.18182	0.1	9.4497e-002
7766	11.224	0.36364	0.1	9.2326e-002
7767	11.224	0.54545	0.1	-1.9035e-002
7768	11.224	0.72727	0.1	-1.2781e-002
7769	11.224	0.90909	0.1	-1.3169e-002
7770	11.224	1.0909	0.1	-3.3768e-003
7771	11.224	1.2727	0.1	9.3772e-003
7772	11.224	1.4545	0.1	2.5035e-002
7773	11.224	1.6364	0.1	4.2016e-002
7774	11.224	1.8182	0.1	5.8821e-002
7775	11.224	2.	0.1	7.334e-002
7776	11.224	2.1818	0.1	8.2751e-002
7777	11.224	2.3636	0.1	8.3001e-002
7778	11.224	2.5455	0.1	6.8026e-002
7779	11.224	2.7273	0.1	3.1321e-002
7780	11.224	2.9091	0.1	-1.497e-002
7781	11.224	3.0909	0.1	-1.497e-002
7782	11.224	3.2727	0.1	3.1321e-002
7783	11.224	3.4545	0.1	6.8026e-002
7784	11.224	3.6364	0.1	8.3002e-002
7785	11.224	3.8182	0.1	8.2752e-002
7786	11.224	4.	0.1	7.3341e-002
7787	11.224	4.1818	0.1	5.8822e-002
7788	11.224	4.3636	0.1	4.2017e-002
7789	11.224	4.5455	0.1	2.5036e-002
7790	11.224	4.7273	0.1	9.3781e-003
7791	11.224	4.9091	0.1	-3.376e-003
7792	11.224	5.0909	0.1	-1.3167e-002
7793	11.224	5.2727	0.1	-1.278e-002
7794	11.224	5.4545	0.1	-1.9034e-002
7795	11.224	5.6364	0.1	9.2326e-002
7796	11.224	5.8182	0.1	9.4498e-002
7797	11.408	0.18182	0.1	0.10694
7798	11.408	0.36364	0.1	0.10463
7799	11.408	0.54545	0.1	-2.1956e-002
7800	11.408	0.72727	0.1	-1.1621e-002
7801	11.408	0.90909	0.1	-1.0069e-002
7802	11.408	1.0909	0.1	2.7239e-003
7803	11.408	1.2727	0.1	1.8555e-002
7804	11.408	1.4545	0.1	3.7538e-002
7805	11.408	1.6364	0.1	5.7862e-002
7806	11.408	1.8182	0.1	7.7598e-002
7807	11.408	2.	0.1	9.3878e-002
7808	11.408	2.1818	0.1	0.10284
7809	11.408	2.3636	0.1	9.9224e-002
7810	11.408	2.5455	0.1	7.6134e-002
7811	11.408	2.7273	0.1	2.8882e-002
7812	11.408	2.9091	0.1	-2.3394e-002
7813	11.408	3.0909	0.1	-2.3394e-002
7814	11.408	3.2727	0.1	2.8883e-002
7815	11.408	3.4545	0.1	7.6134e-002
7816	11.408	3.6364	0.1	9.9225e-002
7817	11.408	3.8182	0.1	0.10284
7818	11.408	4.	0.1	9.3878e-002
7819	11.408	4.1818	0.1	7.7598e-002
7820	11.408	4.3636	0.1	5.7864e-002
7821	11.408	4.5455	0.1	3.7539e-002
7822	11.408	4.7273	0.1	1.8555e-002
7823	11.408	4.9091	0.1	2.725e-003
7824	11.408	5.0909	0.1	-1.0068e-002
7825	11.408	5.2727	0.1	-1.162e-002
7826	11.408	5.4545	0.1	-2.1956e-002
7827	11.408	5.6364	0.1	0.10463
7828	11.408	5.8182	0.1	0.10694
7829	11.592	0.18182	0.1	0.11262
7830	11.592	0.36364	0.1	0.11597
7831	11.592	0.54545	0.1	-2.5016e-002
7832	11.592	0.72727	0.1	-8.9607e-003
7833	11.592	0.90909	0.1	-4.4771e-003
7834	11.592	1.0909	0.1	1.2085e-002
7835	11.592	1.2727	0.1	3.1607e-002
7836	11.592	1.4545	0.1	5.4523e-002
7837	11.592	1.6364	0.1	7.8821e-002
7838	11.592	1.8182	0.1	0.10202
7839	11.592	2.	0.1	0.1202
7840	11.592	2.1818	0.1	0.1281
7841	11.592	2.3636	0.1	0.11903
7842	11.592	2.5455	0.1	8.541e-002
7843	11.592	2.7273	0.1	2.5108e-002
7844	11.592	2.9091	0.1	-3.5341e-002
7845	11.592	3.0909	0.1	-3.5342e-002
7846	11.592	3.2727	0.1	2.5108e-002
7847	11.592	3.4545	0.1	8.541e-002
7848	11.592	3.6364	0.1	0.11903
7849	11.592	3.8182	0.1	0.12811
7850	11.592	4.	0.1	0.1202
7851	11.592	4.1818	0.1	0.10202
7852	11.592	4.3636	0.1	7.8823e-002
7853	11.592	4.5455	0.1	5.4524e-002
7854	11.592	4.7273	0.1	3.1607e-002
7855	11.592	4.9091	0.1	1.2086e-002
7856	11.592	5.0909	0.1	-4.4755e-003
7857	11.592	5.2727	0.1	-8.9595e-003
7858	11.592	5.4545	0.1	-2.5015e-002
7859	11.592	5.6364	0.1	0.11597
7860	11.592	5.8182	0.1	0.11262
7861	11.776	0.18182	0.1	0.10587
7862	11.776	0.36364	0.1	0.12487
7863	11.776	0.54545	0.1	-2.8014e-002
7864	11.776	0.72727	0.1	-4.038e-003
7865	11.776	0.90909	0.1	4.7427e-003
7866	11.776	1.0909	0.1	2.5963e-002
7867	11.776	1.2727	0.1	4.9784e-002
7868	11.776	1.4545	0.1	7.7187e-002
7869	11.776	1.6364	0.1	0.10606
7870	11.776	1.8182	0.1	0.13319
7871	11.776	2.	0.1	0.15313
7872	11.776	2.1818	0.1	0.15856
7873	11.776	2.3636	0.1	0.14104
7874	11.776	2.5455	0.1	9.306e-002
7875	11.776	2.7273	0.1	1.6751e-002
7876	11.776	2.9091	0.1	-5.3014e-002
7877	11.776	3.0909	0.1	-5.3013e-002
7878	11.776	3.2727	0.1	1.675e-002
7879	11.776	3.4545	0.1	9.306e-002
7880	11.776	3.6364	0.1	0.14104
7881	11.776	3.8182	0.1	0.15856
7882	11.776	4.	0.1	0.15313
7883	11.776	4.1818	0.1	0.13319
7884	11.776	4.3636	0.1	0.10606
7885	11.776	4.5455	0.1	7.7188e-002
7886	11.776	4.7273	0.1	4.9784e-002
7887	11.776	4.9091	0.1	2.5964e-002
7888	11.776	5.0909	0.1	4.7444e-003
7889	11.776	5.2727	0.1	-4.0366e-003
7890	11.776	5.4545	0.1	-2.8013e-002
7891	11.776	5.6364	0.1	0.12487
7892	11.776	5.8182	0.1	0.10587
7893	11.96	0.18182	0.1	7.9136e-002
7894	11.96	0.36364	0.1	0.1291
7895	11.96	0.54545	0.1	-3.0684e-002
7896	11.96	0.72727	0.1	4.1481e-003
7897	11.96	0.90909	0.1	1.9113e-002
7898	11.96	1.0909	0.1	4.6028e-002
7899	11.96	1.2727	0.1	7.4636e-002
7900	11.96	1.4545	0.1	0.10682
7901	11.96	1.6364	0.1	0.14052
7902	11.96	1.8182	0.1	0.17164
7903	11.96	2.	0.1	0.19233
7904	11.96	2.1818	0.1	0.19265
7905	11.96	2.3636	0.1	0.16229
7906	11.96	2.5455	0.1	9.4784e-002
7907	11.96	2.7273	0.1	-4.0819e-004
7908	11.96	2.9091	0.1	-7.9335e-002
7909	11.96	3.0909	0.1	-7.9336e-002
7910	11.96	3.2727	0.1	-4.0818e-004
7911	11.96	3.4545	0.1	9.4785e-002
7912	11.96	3.6364	0.1	0.16229
7913	11.96	3.8182	0.1	0.19265
7914	11.96	4.	0.1	0.19233
7915	11.96	4.1818	0.1	0.17164
7916	11.96	4.3636	0.1	0.14052
7917	11.96	4.5455	0.1	0.10682
7918	11.96	4.7273	0.1	7.4637e-002
7919	11.96	4.9091	0.1	4.6028e-002
7920	11.96	5.0909	0.1	1.9114e-002
7921	11.96	5.2727	0.1	4.15e-003
7922	11.96	5.4545	0.1	-3.0683e-002
7923	11.96	5.6364	0.1	0.1291
7924	11.96	5.8182	0.1	7.9136e-002
7925	12.144	0.18182	0.1	2.357e-002
7926	12.144	0.36364	0.1	0.12569
7927	12.144	0.54545	0.1	-3.2537e-002
7928	12.144	0.72727	0.1	1.6987e-002
7929	12.144	0.90909	0.1	4.0762e-002
7930	12.144	1.0909	0.1	7.4677e-002
7931	12.144	1.2727	0.1	0.1086
7932	12.144	1.4545	0.1	0.1457
7933	12.144	1.6364	0.1	0.1846
7934	12.144	1.8182	0.1	0.21967
7935	12.144	2.	0.1	0.24028
7936	12.144	2.1818	0.1	0.23065
7937	12.144	2.3636	0.1	0.1784
7938	12.144	2.5455	0.1	8.3915e-002
7939	12.144	2.7273	0.1	-3.2018e-002
7940	12.144	2.9091	0.1	-0.11813
7941	12.144	3.0909	0.1	-0.11813
7942	12.144	3.2727	0.1	-3.2018e-002
7943	12.144	3.4545	0.1	8.3915e-002
7944	12.144	3.6364	0.1	0.1784
7945	12.144	3.8182	0.1	0.23065
7946	12.144	4.	0.1	0.24029
7947	12.144	4.1818	0.1	0.21967
7948	12.144	4.3636	0.1	0.18461
7949	12.144	4.5455	0.1	0.1457
7950	12.144	4.7273	0.1	0.1086
7951	12.144	4.9091	0.1	7.4678e-002
7952	12.144	5.0909	0.1	4.0764e-002
7953	12.144	5.2727	0.1	1.6988e-002
7954	12.144	5.4545	0.1	-3.2537e-002
7955	12.144	5.6364	0.1	0.12569
7956	12.144	5.8182	0.1	2.357e-002
7957	12.328	0.18182	0.1	-6.9314e-002
7958	12.328	0.36364	0.1	0.11071
7959	12.328	0.54545	0.1	-3.3193e-002
7960	12.328	0.72727	0.1	3.5669e-002
7961	12.328	0.90909	0.1	7.1897e-002
7962	12.328	1.0909	0.1	0.1148
7963	12.328	1.2727	0.1	0.15419
7964	12.328	1.4545	0.1	0.19472
7965	12.328	1.6364	0.1	0.23569
7966	12.328	1.8182	0.1	0.2724
7967	12.328	2.	0.1	0.28465
7968	12.328	2.1818	0.1	0.25684
7969	12.328	2.3636	0.1	0.17811
7970	12.328	2.5455	0.1	5.0952e-002
7971	12.328	2.7273	0.1	-8.518e-002
7972	12.328	2.9091	0.1	-0.17386
7973	12.328	3.0909	0.1	-0.17386
7974	12.328	3.2727	0.1	-8.518e-002
7975	12.328	3.4545	0.1	5.0953e-002
7976	12.328	3.6364	0.1	0.17811
7977	12.328	3.8182	0.1	0.25684
7978	12.328	4.	0.1	0.28465
7979	12.328	4.1818	0.1	0.2724
7980	12.328	4.3636	0.1	0.23569
7981	12.328	4.5455	0.1	0.19472
7982	12.328	4.7273	0.1	0.15419
7983	12.328	4.9091	0.1	0.1148
7984	12.328	5.0909	0.1	7.1899e-002
7985	12.328	5.2727	0.1	3.5671e-002
7986	12.328	5.4545	0.1	-3.3192e-002
7987	12.328	5.6364	0.1	0.11071
7988	12.328	5.8182	0.1	-6.9313e-002
7989	12.512	0.18182	0.1	-0.20087
7990	12.512	0.36364	0.1	8.2239e-002
7991	12.512	0.54545	0.1	-3.0018e-002
7992	12.512	0.72727	0.1	6.3118e-002
7993	12.512	0.90909	0.1	0.11676
7994	12.512	1.0909	0.1	0.17174
7995	12.512	1.2727	0.1	0.21899
7996	12.512	1.4545	0.1	0.26661
7997	12.512	1.6364	0.1	0.3168
7998	12.512	1.8182	0.1	0.35021
7999	12.512	2.	0.1	0.36489
8000	12.512	2.1818	0.1	0.30604
8001	12.512	2.3636	0.1	0.15408
8002	12.512	2.5455	0.1	-2.1305e-002
8003	12.512	2.7273	0.1	-0.16748
8004	12.512	2.9091	0.1	-0.24978
8005	12.512	3.0909	0.1	-0.24978
8006	12.512	3.2727	0.1	-0.16748
8007	12.512	3.4545	0.1	-2.1306e-002
8008	12.512	3.6364	0.1	0.15408
8009	12.512	3.8182	0.1	0.30604
8010	12.512	4.	0.1	0.36489
8011	12.512	4.1818	0.1	0.35022
8012	12.512	4.3636	0.1	0.3168
8013	12.512	4.5455	0.1	0.26661
8014	12.512	4.7273	0.1	0.21899
8015	12.512	4.9091	0.1	0.17174
8016	12.512	5.0909	0.1	0.11676
8017	12.512	5.2727	0.1	6.312e-002
8018	12.512	5.4545	0.1	-3.0017e-002
8019	12.512	5.6364	0.1	8.224e-002
8020	12.512	5.8182	0.1	-0.20087
8021	12.696	0.18182	0.1	-0.36023
8022	12.696	0.36364	0.1	3.8399e-002
8023	12.696	0.54545	0.1	-2.3358e-002
8024	12.696	0.72727	0.1	9.6079e-002
8025	12.696	0.90909	0.1	0.17065
8026	12.696	1.0909	0.1	0.24428
8027	12.696	1.2727	0.1	0.30864
8028	12.696	1.4545	0.1	0.34714
8029	12.696	1.6364	0.1	0.3516
8030	12.696	1.8182	0.1	0.39084
8031	12.696	2.	0.1	0.30314
8032	12.696	2.1818	0.1	0.16258
8033	12.696	2.3636	0.1	4.99e-002
8034	12.696	2.5455	0.1	-0.13767
8035	12.696	2.7273	0.1	-0.28651
8036	12.696	2.9091	0.1	-0.34286
8037	12.696	3.0909	0.1	-0.34286
8038	12.696	3.2727	0.1	-0.28651
8039	12.696	3.4545	0.1	-0.13767
8040	12.696	3.6364	0.1	4.99e-002
8041	12.696	3.8182	0.1	0.16258
8042	12.696	4.	0.1	0.30314
8043	12.696	4.1818	0.1	0.39084
8044	12.696	4.3636	0.1	0.3516
8045	12.696	4.5455	0.1	0.34715
8046	12.696	4.7273	0.1	0.30864
8047	12.696	4.9091	0.1	0.24428
8048	12.696	5.0909	0.1	0.17065
8049	12.696	5.2727	0.1	9.608e-002
8050	12.696	5.4545	0.1	-2.3357e-002
8051	12.696	5.6364	0.1	3.8399e-002
8052	12.696	5.8182	0.1	-0.36023
8053	12.88	0.18182	0.1	-0.47324
8054	12.88	0.36364	0.1	1.5948e-002
8055	12.88	0.54545	0.1	1.8779e-002
8056	12.88	0.72727	0.1	0.15558
8057	12.88	0.90909	0.1	0.25729
8058	12.88	1.0909	0.1	0.3633
8059	12.88	1.2727	0.1	0.4406
8060	12.88	1.4545	0.1	0.54542
8061	12.88	1.6364	0.1	0.78265
8062	12.88	1.8182	0.1	0.6193
8063	12.88	2.	0.1	0.75062
8064	12.88	2.1818	0.1	0.59388
8065	12.88	2.3636	0.1	-0.15432
8066	12.88	2.5455	0.1	-0.3863
8067	12.88	2.7273	0.1	-0.41458
8068	12.88	2.9091	0.1	-0.43378
8069	12.88	3.0909	0.1	-0.43378
8070	12.88	3.2727	0.1	-0.41459
8071	12.88	3.4545	0.1	-0.3863
8072	12.88	3.6364	0.1	-0.15432
8073	12.88	3.8182	0.1	0.59388
8074	12.88	4.	0.1	0.75062
8075	12.88	4.1818	0.1	0.6193
8076	12.88	4.3636	0.1	0.78265
8077	12.88	4.5455	0.1	0.54542
8078	12.88	4.7273	0.1	0.44061
8079	12.88	4.9091	0.1	0.3633
8080	12.88	5.0909	0.1	0.2573
8081	12.88	5.2727	0.1	0.15558
8082	12.88	5.4545	0.1	1.8781e-002
8083	12.88	5.6364	0.1	1.5949e-002
8084	12.88	5.8182	0.1	-0.47324
8085	13.064	0.18182	0.1	-0.45338
8086	13.064	0.36364	0.1	1.6363e-002
8087	13.064	0.54545	0.1	5.7366e-002
8088	13.064	0.72727	0.1	0.16986
8089	13.064	0.90909	0.1	0.2699
8090	13.064	1.0909	0.1	0.37277
8091	13.064	1.2727	0.1	0.59065
8092	13.064	1.4545	0.1	0.81959
8093	13.064	1.6364	0.1	-0.1696
8094	13.064	1.8182	0.1	0.44079
8095	13.064	2.	0.1	-1.2025
8096	13.064	2.1818	0.1	-2.1147
8097	13.064	2.3636	0.1	-0.34908
8098	13.064	2.5455	0.1	-0.63208
8099	13.064	2.7273	0.1	-0.54497
8100	13.064	2.9091	0.1	-0.45226
8101	13.064	3.0909	0.1	-0.45226
8102	13.064	3.2727	0.1	-0.54497
8103	13.064	3.4545	0.1	-0.63208
8104	13.064	3.6364	0.1	-0.34908
8105	13.064	3.8182	0.1	-2.1147
8106	13.064	4.	0.1	-1.2025
8107	13.064	4.1818	0.1	0.44079
8108	13.064	4.3636	0.1	-0.16959
8109	13.064	4.5455	0.1	0.81959
8110	13.064	4.7273	0.1	0.59065
8111	13.064	4.9091	0.1	0.37277
8112	13.064	5.0909	0.1	0.2699
8113	13.064	5.2727	0.1	0.16986
8114	13.064	5.4545	0.1	5.7368e-002
8115	13.064	5.6364	0.1	1.6365e-002
8116	13.064	5.8182	0.1	-0.45337
8117	13.248	0.18182	0.1	0.40061
8118	13.248	0.36364	0.1	0.54132
8119	13.248	0.54545	0.1	0.47172
8120	13.248	0.72727	0.1	0.49482
8121	13.248	0.90909	0.1	0.56155
8122	13.248	1.0909	0.1	0.82821
8123	13.248	1.2727	0.1	0.99736
8124	13.248	1.4545	0.1	1.0091
8125	13.248	1.6364	0.1	5.6007
8126	13.248	1.8182	0.1	2.8945
8127	13.248	2.	0.1	7.7553
8128	13.248	2.1818	0.1	5.3003
8129	13.248	2.3636	0.1	-3.3891
8130	13.248	2.5455	0.1	-0.48758
8131	13.248	2.7273	0.1	-0.48563
8132	13.248	2.9091	0.1	-0.31157
8133	13.248	3.0909	0.1	-0.31157
8134	13.248	3.2727	0.1	-0.48563
8135	13.248	3.4545	0.1	-0.48758
8136	13.248	3.6364	0.1	-3.3891
8137	13.248	3.8182	0.1	5.3003
8138	13.248	4.	0.1	7.7553
8139	13.248	4.1818	0.1	2.8945
8140	13.248	4.3636	0.1	5.6007
8141	13.248	4.5455	0.1	1.0091
8142	13.248	4.7273	0.1	0.99736
8143	13.248	4.9091	0.1	0.82821
8144	13.248	5.0909	0.1	0.56156
8145	13.248	5.2727	0.1	0.49482
8146	13.248	5.4545	0.1	0.47172
8147	13.248	5.6364	0.1	0.54132
8148	13.248	5.8182	0.1	0.40061
8149	13.432	0.18182	0.1	1.7702
8150	13.432	0.36364	0.1	0.55315
8151	13.432	0.54545	0.1	-4.6974e-002
8152	13.432	0.72727	0.1	-0.46104
8153	13.432	0.90909	0.1	-0.62728
8154	13.432	1.0909	0.1	-0.85742
8155	13.432	1.2727	0.1	-0.72599
8156	13.432	1.4545	0.1	-0.5108
8157	13.432	1.6364	0.1	-3.5473
8158	13.432	1.8182	0.1	-10.017
8159	13.432	2.	0.1	-42.015
8160	13.432	2.1818	0.1	-21.455
8161	13.432	2.3636	0.1	3.2438
8162	13.432	2.5455	0.1	-0.84553
8163	13.432	2.7273	0.1	7.2842e-002
8164	13.432	2.9091	0.1	0.13441
8165	13.432	3.0909	0.1	0.13441
8166	13.432	3.2727	0.1	7.2842e-002
8167	13.432	3.4545	0.1	-0.84553
8168	13.432	3.6364	0.1	3.2438
8169	13.432	3.8182	0.1	-21.455
8170	13.432	4.	0.1	-42.015
8171	13.432	4.1818	0.1	-10.017
8172	13.432	4.3636	0.1	-3.5473
8173	13.432	4.5455	0.1	-0.5108
8174	13.432	4.7273	0.1	-0.72598
8175	13.432	4.9091	0.1	-0.85741
8176	13.432	5.0909	0.1	-0.62728
8177	13.432	5.2727	0.1	-0.46103
8178	13.432	5.4545	0.1	-4.697e-002
8179	13.432	5.6364	0.1	0.55316
8180	13.432	5.8182	0.1	1.7702
8181	13.616	0.18182	0.1	11.515
8182	13.616	0.36364	0.1	5.2779
8183	13.616	0.54545	0.1	4.0759
8184	13.616	0.72727	0.1	3.6454
8185	13.616	0.90909	0.1	3.5906
8186	13.616	1.0909	0.1	4.6655
8187	13.616	1.2727	0.1	3.2344
8188	13.616	1.4545	0.1	13.894
8189	13.616	1.6364	0.1	-12.073
8190	13.616	1.8182	0.1	78.156
8191	13.616	2.	0.1	338.02
8192	13.616	2.1818	0.1	-15.396
8193	13.616	2.3636	0.1	9.9815
8194	13.616	2.5455	0.1	-3.2489
8195	13.616	2.7273	0.1	2.0343
8196	13.616	2.9091	0.1	0.44204
8197	13.616	3.0909	0.1	0.44204
8198	13.616	3.2727	0.1	2.0343
8199	13.616	3.4545	0.1	-3.2489
8200	13.616	3.6364	0.1	9.9815
8201	13.616	3.8182	0.1	-15.396
8202	13.616	4.	0.1	338.02
8203	13.616	4.1818	0.1	78.156
8204	13.616	4.3636	0.1	-12.073
8205	13.616	4.5455	0.1	13.894
8206	13.616	4.7273	0.1	3.2344
8207	13.616	4.9091	0.1	4.6655
8208	13.616	5.0909	0.1	3.5906
8209	13.616	5.2727	0.1	3.6454
8210	13.616	5.4545	0.1	4.0759
8211	13.616	5.6364	0.1	5.2779
8212	13.616	5.8182	0.1	11.515
8213	13.967	3.8182	0.1	-31.907
8214	13.967	3.6364	0.1	23.582
8215	13.967	3.4545	0.1	-0.85829
8216	13.967	3.2727	0.1	2.4834
8217	13.967	3.0909	0.1	1.1968
8218	13.967	2.9091	0.1	1.1968
8219	13.967	2.7273	0.1	2.4834
8220	13.967	2.5455	0.1	-0.85829
8221	13.967	2.3636	0.1	23.582
8222	13.967	2.1818	0.1	-31.907
8223	13.8	3.8182	0.1	-109.53
8224	13.8	3.6364	0.1	21.479
8225	13.8	3.4545	0.1	-0.46157
8226	13.8	3.2727	0.1	2.4079
8227	13.8	3.0909	0.1	1.274
8228	13.8	2.9091	0.1	1.274
8229	13.8	2.7273	0.1	2.4079
8230	13.8	2.5455	0.1	-0.46157
8231	13.8	2.3636	0.1	21.479
8232	13.8	2.1818	0.1	-109.53
8233	13.967	5.8182	0.1	-5.5426
8234	13.967	5.6364	0.1	-8.1788
8235	13.967	5.4545	0.1	-8.3226
8236	13.967	5.2727	0.1	-9.3084
8237	13.967	5.0909	0.1	-10.911
8238	13.967	4.9091	0.1	-12.356
8239	13.967	4.7273	0.1	-18.238
8240	13.967	4.5455	0.1	-16.448
8241	13.967	4.3636	0.1	-64.709
8242	13.967	4.1818	0.1	11.424
8243	13.967	4.	0.1	761.38
8244	13.8	4.	0.1	434.69
8245	13.8	4.1818	0.1	10.267
8246	13.8	4.3636	0.1	-70.796
8247	13.8	4.5455	0.1	-18.286
8248	13.8	4.7273	0.1	-21.415
8249	13.8	4.9091	0.1	-14.837
8250	13.8	5.0909	0.1	-13.455
8251	13.8	5.2727	0.1	-11.724
8252	13.8	5.4545	0.1	-10.672
8253	13.8	5.6364	0.1	-10.467
8254	13.8	5.8182	0.1	-7.9334
8255	13.967	0.18182	0.1	-5.5426
8256	13.967	0.36364	0.1	-8.1788
8257	13.967	0.54545	0.1	-8.3226
8258	13.967	0.72727	0.1	-9.3084
8259	13.967	0.90909	0.1	-10.911
8260	13.967	1.0909	0.1	-12.356
8261	13.967	1.2727	0.1	-18.238
8262	13.967	1.4545	0.1	-16.448
8263	13.967	1.6364	0.1	-64.709
8264	13.967	1.8182	0.1	11.423
8265	13.967	2.	0.1	761.38
8266	13.8	2.	0.1	434.69
8267	13.8	1.8182	0.1	10.266
8268	13.8	1.6364	0.1	-70.796
8269	13.8	1.4545	0.1	-18.286
8270	13.8	1.2727	0.1	-21.415
8271	13.8	1.0909	0.1	-14.837
8272	13.8	0.90909	0.1	-13.455
8273	13.8	0.72727	0.1	-11.724
8274	13.8	0.54545	0.1	-10.672
8275	13.8	0.36364	0.1	-10.467
8276	13.8	0.18182	0.1	-7.9334
8277	13.967	6.	0.1	17.876
8278	14.149	6.	0.1	1.8104
8279	14.332	6.	0.1	-1.7217
8280	14.514	6.	0.1	-0.54089
8281	14.696	6.	0.1	-0.24804
8282	14.879	6.	0.1	0.12138
8283	15.061	6.	0.1	0.31388
8284	15.244	6.	0.1	0.41484
8285	15.426	6.	0.1	0.43825
8286	15.608	6.	0.1	0.41423
8287	15.791	6.	0.1	0.36261
8288	15.973	6.	0.1	0.29835
8289	16.156	6.	0.1	0.23124
8290	16.338	6.	0.1	0.16735
8291	16.521	6.	0.1	0.11011
8292	16.703	6.	0.1	6.1077e-002
8293	16.885	6.	0.1	2.0662e-002
8294	17.068	6.	0.1	-1.1371e-002
8295	17.25	6.	0.1	-3.5687e-002
8296	17.433	6.	0.1	-5.3186e-002
8297	17.615	6.	0.1	-6.4757e-002
8298	17.798	6.	0.1	-7.1268e-002
8299	17.98	6.	0.1	-7.3566e-002
8300	18.162	6.	0.1	-7.2374e-002
8301	18.345	6.	0.1	-6.8333e-002
8302	18.527	6.	0.1	-6.1955e-002
8303	18.71	6.	0.1	-5.3707e-002
8304	18.892	6.	0.1	-4.3976e-002
8305	19.075	6.	0.1	-3.303e-002
8306	19.257	6.	0.1	-2.11e-002
8307	19.439	6.	0.1	-8.3992e-003
8308	19.622	6.	0.1	4.9587e-003
8309	19.804	6.	0.1	1.8894e-002
8310	19.987	6.	0.1	3.3332e-002
8311	20.169	6.	0.1	4.8248e-002
8312	20.352	6.	0.1	6.3644e-002
8313	20.534	6.	0.1	7.9557e-002
8314	20.716	6.	0.1	9.6025e-002
8315	20.899	6.	0.1	0.11311
8316	21.081	6.	0.1	0.13092
8317	21.264	6.	0.1	0.14957
8318	21.446	6.	0.1	0.1692
8319	21.628	6.	0.1	0.18998
8320	21.811	6.	0.1	0.21216
8321	21.993	6.	0.1	0.23599
8322	22.176	6.	0.1	0.26184
8323	22.358	6.	0.1	0.29018
8324	22.541	6.	0.1	0.32161
8325	22.723	6.	0.1	0.35706
8326	22.905	6.	0.1	0.3975
8327	23.088	6.	0.1	0.44574
8328	23.27	6.	0.1	0.50067
8329	23.453	6.	0.1	0.58583
8330	23.635	6.	0.1	0.65844
8331	23.818	6.	0.1	1.019
8332	24.	6.	0.1	-1.0763
8333	24.	5.8182	0.1	-2.1876
8334	24.	5.6364	0.1	-2.2202
8335	24.	5.4545	0.1	-2.4152
8336	24.	5.2727	0.1	-2.4452
8337	24.	5.0909	0.1	-2.4792
8338	24.	4.9091	0.1	-2.4983
8339	24.	4.7273	0.1	-2.5132
8340	24.	4.5455	0.1	-2.524
8341	24.	4.3636	0.1	-2.5322
8342	24.	4.1818	0.1	-2.5384
8343	24.	4.	0.1	-2.5431
8344	24.	3.8182	0.1	-2.5466
8345	24.	3.6364	0.1	-2.5492
8346	24.	3.4545	0.1	-2.5511
8347	24.	3.2727	0.1	-2.5523
8348	24.	3.0909	0.1	-2.5528
8349	24.	2.9091	0.1	-2.5528
8350	24.	2.7273	0.1	-2.5523
8351	24.	2.5455	0.1	-2.5511
8352	24.	2.3636	0.1	-2.5492
8353	24.	2.1818	0.1	-2.5466
8354	24.	2.	0.1	-2.5431
8355	24.	1.8182	0.1	-2.5384
8356	24.	1.6364	0.1	-2.5322
8357	24.	1.4545	0.1	-2.524
8358	24.	1.2727	0.1	-2.5132
8359	24.	1.0909	0.1	-2.4983
8360	24.	0.90909	0.1	-2.4792
8361	24.	0.72727	0.1	-2.4452
8362	24.	0.54545	0.1	-2.4152
8363	24.	0.36364	0.1	-2.2202
8364	24.	0.18182	0.1	-2.1876
8365	1.5894e-015	0.18182	0.1	1193.7
8366	3.1789e-015	0.36364	0.1	2308.2
8367	4.7683e-015	0.54545	0.1	2825.2
8368	6.3578e-015	0.72727	0.1	3134.7
8369	7.9472e-015	0.90909	0.1	3342.1
8370	9.5366e-015	1.0909	0.1	3490.9
8371	1.1126e-014	1.2727	0.1	3601.3
8372	1.2716e-014	1.4545	0.1	3685.2
8373	1.4305e-014	1.6364	0.1	3749.8
8374	1.5894e-014	1.8182	0.1	3800.
8375	1.7484e-014	2.	0.1	3838.9
8376	1.9073e-014	2.1818	0.1	3868.7
8377	2.0663e-014	2.3636	0.1	3891.
8378	2.2252e-014	2.5455	0.1	3906.9
8379	2.3842e-014	2.7273	0.1	3917.
8380	2.5431e-014	2.9091	0.1	3921.9
8381	2.702e-014	3.0909	0.1	3921.9
8382	2.861e-014	3.2727	0.1	3917.
8383	3.0199e-014	3.4545	0.1	3906.9
8384	3.1789e-014	3.6364	0.1	3891.
8385	3.3378e-014	3.8182	0.1	3868.7
8386	3.4968e-014	4.	0.1	3838.9
8387	3.6557e-014	4.1818	0.1	3800.
8388	3.8147e-014	4.3636	0.1	3749.8
8389	3.9736e-014	4.5455	0.1	3685.2
8390	4.1325e-014	4.7273	0.1	3601.3
8391	4.2915e-014	4.9091	0.1	3490.9
8392	4.4504e-014	5.0909	0.1	3342.1
8393	4.6094e-014	5.2727	0.1	3134.7
8394	4.7683e-014	5.4545	0.1	2825.2
8395	4.9273e-014	5.6364	0.1	2308.2
8396	5.0862e-014	5.8182	0.1	1193.7
8397	24.	0.	0.1	-1.0763
8398	23.818	0.	0.1	1.019
8399	23.635	0.	0.1	0.65844
8400	23.453	0.	0.1	0.58583
8401	23.27	0.	0.1	0.50068
8402	23.088	0.	0.1	0.44575
8403	22.905	0.	0.1	0.3975
8404	22.723	0.	0.1	0.35706
8405	22.541	0.	0.1	0.32161
8406	22.358	0.	0.1	0.29018
8407	22.176	0.	0.1	0.26184
8408	21.993	0.	0.1	0.236
8409	21.811	0.	0.1	0.21216
8410	21.628	0.	0.1	0.18998
8411	21.446	0.	0.1	0.16919
8412	21.264	0.	0.1	0.14957
8413	21.081	0.	0.1	0.13092
8414	20.899	0.	0.1	0.11311
8415	20.716	0.	0.1	9.6027e-002
8416	20.534	0.	0.1	7.9557e-002
8417	20.352	0.	0.1	6.3645e-002
8418	20.169	0.	0.1	4.8251e-002
8419	19.987	0.	0.1	3.3334e-002
8420	19.804	0.	0.1	1.8895e-002
8421	19.622	0.	0.1	4.9584e-003
8422	19.439	0.	0.1	-8.3965e-003
8423	19.257	0.	0.1	-2.1098e-002
8424	19.075	0.	0.1	-3.303e-002
8425	18.892	0.	0.1	-4.3976e-002
8426	18.71	0.	0.1	-5.3706e-002
8427	18.527	0.	0.1	-6.1954e-002
8428	18.345	0.	0.1	-6.833e-002
8429	18.162	0.	0.1	-7.2374e-002
8430	17.98	0.	0.1	-7.3565e-002
8431	17.798	0.	0.1	-7.1266e-002
8432	17.615	0.	0.1	-6.4755e-002
8433	17.433	0.	0.1	-5.3187e-002
8434	17.25	0.	0.1	-3.5687e-002
8435	17.068	0.	0.1	-1.1372e-002
8436	16.885	0.	0.1	2.0662e-002
8437	16.703	0.	0.1	6.1078e-002
8438	16.521	0.	0.1	0.11011
8439	16.338	0.	0.1	0.16735
8440	16.156	0.	0.1	0.23124
8441	15.973	0.	0.1	0.29835
8442	15.791	0.	0.1	0.3626
8443	15.608	0.	0.1	0.41423
8444	15.426	0.	0.1	0.43825
8445	15.244	0.	0.1	0.41484
8446	15.061	0.	0.1	0.31388
8447	14.879	0.	0.1	0.12138
8448	14.696	0.	0.1	-0.24805
8449	14.514	0.	0.1	-0.54089
8450	14.332	0.	0.1	-1.7217
8451	14.149	0.	0.1	1.8104
8452	13.967	0.	0.1	17.876
8453	13.8	0.	0.1	20.738
8454	13.616	-5.985e-030	0.1	2.7557
8455	13.432	-5.9042e-030	0.1	-1.0968
8456	13.248	-5.8233e-030	0.1	0.3215
8457	13.064	-5.7424e-030	0.1	0.66645
8458	12.88	-5.6615e-030	0.1	1.1103
8459	12.696	-5.5806e-030	0.1	1.3326
8460	12.512	-5.4998e-030	0.1	1.4363
8461	12.328	-5.4189e-030	0.1	1.4366
8462	12.144	-5.338e-030	0.1	1.3702
8463	11.96	-5.2571e-030	0.1	1.2625
8464	11.776	-5.1763e-030	0.1	1.1338
8465	11.592	-5.0954e-030	0.1	0.99821
8466	11.408	-5.0145e-030	0.1	0.86503
8467	11.224	-4.9336e-030	0.1	0.73972
8468	11.04	-4.8527e-030	0.1	0.62509
8469	10.856	-4.7719e-030	0.1	0.52216
8470	10.672	-4.691e-030	0.1	0.43079
8471	10.488	-4.6101e-030	0.1	0.35023
8472	10.304	-4.5292e-030	0.1	0.27937
8473	10.12	-4.4483e-030	0.1	0.21699
8474	9.936	-4.3675e-030	0.1	0.16184
8475	9.752	-4.2866e-030	0.1	0.11275
8476	9.568	-4.2057e-030	0.1	6.8633e-002
8477	9.384	-4.1248e-030	0.1	2.8501e-002
8478	9.2	-4.0439e-030	0.1	-8.5136e-003
8479	9.016	-3.9631e-030	0.1	-4.3181e-002
8480	8.832	-3.8822e-030	0.1	-7.618e-002
8481	8.648	-3.8013e-030	0.1	-0.10811
8482	8.464	-3.7204e-030	0.1	-0.1395
8483	8.28	-3.6396e-030	0.1	-0.17082
8484	8.096	-3.5587e-030	0.1	-0.2025
8485	7.912	-3.4778e-030	0.1	-0.23493
8486	7.728	-3.3969e-030	0.1	-0.26846
8487	7.544	-3.316e-030	0.1	-0.30343
8488	7.36	-3.2352e-030	0.1	-0.34016
8489	7.176	-3.1543e-030	0.1	-0.37894
8490	6.992	-3.0734e-030	0.1	-0.39444
8491	6.808	-2.9925e-030	0.1	-6.231e-002
8492	6.624	-2.9116e-030	0.1	0.27867
8493	6.44	-2.8308e-030	0.1	0.6249
8494	6.256	-2.7499e-030	0.1	0.97349
8495	6.072	-2.669e-030	0.1	1.3209
8496	5.888	-2.5881e-030	0.1	1.6629
8497	5.704	-2.5072e-030	0.1	1.9942
8498	5.52	-2.4264e-030	0.1	2.3084
8499	5.336	-2.3455e-030	0.1	2.598
8500	5.152	-2.2646e-030	0.1	2.8539
8501	4.968	-2.1837e-030	0.1	3.0653
8502	4.784	-2.1029e-030	0.1	3.2195
8503	4.6	-2.022e-030	0.1	3.3014
8504	4.416	-1.9411e-030	0.1	3.2936
8505	4.232	-1.8602e-030	0.1	3.1754
8506	4.048	-1.7793e-030	0.1	2.9233
8507	3.864	-1.6985e-030	0.1	2.5105
8508	3.68	-1.6176e-030	0.1	1.9072
8509	3.496	-1.5367e-030	0.1	1.0841
8510	3.312	-1.4558e-030	0.1	2.6915e-002
8511	3.128	-1.3749e-030	0.1	-1.1834
8512	2.944	-1.2941e-030	0.1	-2.1198
8513	2.76	-1.2132e-030	0.1	-2.5978
8514	2.576	-1.1323e-030	0.1	-2.9311
8515	2.392	-1.0514e-030	0.1	-3.2387
8516	2.208	-9.7055e-031	0.1	-3.5542
8517	2.024	-8.8967e-031	0.1	-3.8927
8518	1.84	-8.0879e-031	0.1	-4.2639
8519	1.656	-7.2791e-031	0.1	-4.6826
8520	1.472	-6.4703e-031	0.1	-5.149
8521	1.288	-5.6615e-031	0.1	-5.7264
8522	1.104	-4.8527e-031	0.1	-6.2855
8523	0.92	-4.0439e-031	0.1	-7.3554
8524	0.736	-3.2352e-031	0.1	-7.5224
8525	0.552	-2.4264e-031	0.1	-10.27
8526	0.368	-1.6176e-031	0.1	-16.547
8527	0.184	-8.0879e-032	0.1	51.887
8528	0.	0.	0.1	-354.28
8529	3.937e-014	6.	0.1	-354.28
8530	0.184	6.	0.1	51.887
8531	0.368	6.	0.1	-16.547
8532	0.552	6.	0.1	-10.27
8533	0.736	6.	0.1	-7.5224
8534	0.92	6.	0.1	-7.3554
8535	1.104	6.	0.1	-6.2855
8536	1.288	6.	0.1	-5.7264
8537	1.472	6.	0.1	-5.149
8538	1.656	6.	0.1	-4.6826
8539	1.84	6.	0.1	-4.2639
8540	2.024	6.	0.1	-3.8927
8541	2.208	6.	0.1	-3.5542
8542	2.392	6.	0.1	-3.2387
8543	2.576	6.	0.1	-2.9311
8544	2.76	6.	0.1	-2.5978
8545	2.944	6.	0.1	-2.1199
8546	3.128	6.	0.1	-1.1834
8547	3.312	6.	0.1	2.6897e-002
8548	3.496	6.	0.1	1.0841
8549	3.68	6.	0.1	1.9071
8550	3.864	6.	0.1	2.5105
8551	4.048	6.	0.1	2.9233
8552	4.232	6.	0.1	3.1754
8553	4.416	6.	0.1	3.2936
8554	4.6	6.	0.1	3.3014
8555	4.784	6.	0.1	3.2195
8556	4.968	6.	0.1	3.0653
8557	5.152	6.	0.1	2.8539
8558	5.336	6.	0.1	2.598
8559	5.52	6.	0.1	2.3084
8560	5.704	6.	0.1	1.9942
8561	5.888	6.	0.1	1.6629
8562	6.072	6.	0.1	1.3209
8563	6.256	6.	0.1	0.9735
8564	6.44	6.	0.1	0.62491
8565	6.624	6.	0.1	0.27868
8566	6.808	6.	0.1	-6.2299e-002
8567	6.992	6.	0.1	-0.39443
8568	7.176	6.	0.1	-0.37894
8569	7.36	6.	0.1	-0.34016
8570	7.544	6.	0.1	-0.30343
8571	7.728	6.	0.1	-0.26846
8572	7.912	6.	0.1	-0.23493
8573	8.096	6.	0.1	-0.2025
8574	8.28	6.	0.1	-0.17082
8575	8.464	6.	0.1	-0.1395
8576	8.648	6.	0.1	-0.10811
8577	8.832	6.	0.1	-7.618e-002
8578	9.016	6.	0.1	-4.318e-002
8579	9.2	6.	0.1	-8.5131e-003
8580	9.384	6.	0.1	2.8501e-002
8581	9.568	6.	0.1	6.8633e-002
8582	9.752	6.	0.1	0.11275
8583	9.936	6.	0.1	0.16184
8584	10.12	6.	0.1	0.21699
8585	10.304	6.	0.1	0.27937
8586	10.488	6.	0.1	0.35023
8587	10.672	6.	0.1	0.43079
8588	10.856	6.	0.1	0.52216
8589	11.04	6.	0.1	0.6251
8590	11.224	6.	0.1	0.73972
8591	11.408	6.	0.1	0.86503
8592	11.592	6.	0.1	0.99821
8593	11.776	6.	0.1	1.1338
8594	11.96	6.	0.1	1.2625
8595	12.144	6.	0.1	1.3702
8596	12.328	6.	0.1	1.4366
8597	12.512	6.	0.1	1.4363
8598	12.696	6.	0.1	1.3326
8599	12.88	6.	0.1	1.1103
8600	13.064	6.	0.1	0.66644
8601	13.248	6.	0.1	0.3215
8602	13.432	6.	0.1	-1.0968
8603	13.616	6.	0.1	2.7557
8604	13.8	6.	0.1	20.738
8605	13.616	6.	0.	-2.7557
8606	13.432	6.	0.	1.0968
8607	13.248	6.	0.	-0.3215
8608	13.064	6.	0.	-0.66644
8609	12.88	6.	0.	-1.1103
8610	12.696	6.	0.	-1.3326
8611	12.512	6.	0.	-1.4363
8612	12.328	6.	0.	-1.4366
8613	12.144	6.	0.	-1.3702
8614	11.96	6.	0.	-1.2625
8615	11.776	6.	0.	-1.1338
8616	11.592	6.	0.	-0.99821
8617	11.408	6.	0.	-0.86503
8618	11.224	6.	0.	-0.73972
8619	11.04	6.	0.	-0.62509
8620	10.856	6.	0.	-0.52216
8621	10.672	6.	0.	-0.43079
8622	10.488	6.	0.	-0.35023
8623	10.304	6.	0.	-0.27937
8624	10.12	6.	0.	-0.21699
8625	9.936	6.	0.	-0.16184
8626	9.752	6.	0.	-0.11275
8627	9.568	6.	0.	-6.8633e-002
8628	9.384	6.	0.	-2.8501e-002
8629	9.2	6.	0.	8.5133e-003
8630	9.016	6.	0.	4.318e-002
8631	8.832	6.	0.	7.618e-002
8632	8.648	6.	0.	0.10811
8633	8.464	6.	0.	0.1395
8634	8.28	6.	0.	0.17082
8635	8.096	6.	0.	0.2025
8636	7.912	6.	0.	0.23493
8637	7.728	6.	0.	0.26846
8638	7.544	6.	0.	0.30343
8639	7.36	6.	0.	0.34016
8640	7.176	6.	0.	0.37894
8641	6.992	6.	0.	0.39443
8642	6.808	6.	0.	6.2301e-002
8643	6.624	6.	0.	-0.27868
8644	6.44	6.	0.	-0.6249
8645	6.256	6.	0.	-0.97349
8646	6.072	6.	0.	-1.3209
8647	5.888	6.	0.	-1.6629
8648	5.704	6.	0.	-1.9942
8649	5.52	6.	0.	-2.3084
8650	5.336	6.	0.	-2.598
8651	5.152	6.	0.	-2.8539
8652	4.968	6.	0.	-3.0653
8653	4.784	6.	0.	-3.2195
8654	4.6	6.	0.	-3.3014
8655	4.416	6.	0.	-3.2936
8656	4.232	6.	0.	-3.1754
8657	4.048	6.	0.	-2.9233
8658	3.864	6.	0.	-2.5105
8659	3.68	6.	0.	-1.9071
8660	3.496	6.	0.	-1.0841
8661	3.312	6.	0.	-2.6897e-002
8662	3.128	6.	0.	1.1834
8663	2.944	6.	0.	2.1199
8664	2.76	6.	0.	2.5978
8665	2.576	6.	0.	2.9311
8666	2.392	6.	0.	3.2387
8667	2.208	6.	0.	3.5542
8668	2.024	6.	0.	3.8927
8669	1.84	6.	0.	4.2639
8670	1.656	6.	0.	4.6826
8671	1.472	6.	0.	5.149
8672	1.288	6.	0.	5.7264
8673	1.104	6.	0.	6.2855
8674	0.92	6.	0.	7.3554
8675	0.736	6.	0.	7.5224
8676	0.552	6.	0.	10.27
8677	0.368	6.	0.	16.547
8678	0.184	6.	0.	-51.887
8679	13.8	6.	0.	-20.738
8680	3.937e-014	6.	0.	354.28
8681	0.184	-8.0879e-032	0.	-51.887
8682	0.368	-1.6176e-031	0.	16.547
8683	0.552	-2.4264e-031	0.	10.27
8684	0.736	-3.2352e-031	0.	7.5224
8685	0.92	-4.0439e-031	0.	7.3554
8686	1.104	-4.8527e-031	0.	6.2855
8687	1.288	-5.6615e-031	0.	5.7264
8688	1.472	-6.4703e-031	0.	5.149
8689	1.656	-7.2791e-031	0.	4.6826
8690	1.84	-8.0879e-031	0.	4.2639
8691	2.024	-8.8967e-031	0.	3.8927
8692	2.208	-9.7055e-031	0.	3.5542
8693	2.392	-1.0514e-030	0.	3.2387
8694	2.576	-1.1323e-030	0.	2.9311
8695	2.76	-1.2132e-030	0.	2.5978
8696	2.944	-1.2941e-030	0.	2.1198
8697	3.128	-1.3749e-030	0.	1.1834
8698	3.312	-1.4558e-030	0.	-2.6915e-002
8699	3.496	-1.5367e-030	0.	-1.0841
8700	3.68	-1.6176e-030	0.	-1.9072
8701	3.864	-1.6985e-030	0.	-2.5105
8702	4.048	-1.7793e-030	0.	-2.9233
8703	4.232	-1.8602e-030	0.	-3.1754
8704	4.416	-1.9411e-030	0.	-3.2936
8705	4.6	-2.022e-030	0.	-3.3014
8706	4.784	-2.1029e-030	0.	-3.2195
8707	4.968	-2.1837e-030	0.	-3.0653
8708	5.152	-2.2646e-030	0.	-2.8539
8709	5.336	-2.3455e-030	0.	-2.598
8710	5.52	-2.4264e-030	0.	-2.3084
8711	5.704	-2.5072e-030	0.	-1.9942
8712	5.888	-2.5881e-030	0.	-1.6629
8713	6.072	-2.669e-030	0.	-1.3209
8714	6.256	-2.7499e-030	0.	-0.97349
8715	6.44	-2.8308e-030	0.	-0.6249
8716	6.624	-2.9116e-030	0.	-0.27867
8717	6.808	-2.9925e-030	0.	6.2312e-002
8718	6.992	-3.0734e-030	0.	0.39445
8719	7.176	-3.1543e-030	0.	0.37894
8720	7.36	-3.2352e-030	0.	0.34016
8721	7.544	-3.316e-030	0.	0.30343
8722	7.728	-3.3969e-030	0.	0.26846
8723	7.912	-3.4778e-030	0.	0.23493
8724	8.096	-3.5587e-030	0.	0.2025
8725	8.28	-3.6396e-030	0.	0.17082
8726	8.464	-3.7204e-030	0.	0.1395
8727	8.648	-3.8013e-030	0.	0.10811
8728	8.832	-3.8822e-030	0.	7.6181e-002
8729	9.016	-3.9631e-030	0.	4.3181e-002
8730	9.2	-4.0439e-030	0.	8.5141e-003
8731	9.384	-4.1248e-030	0.	-2.8501e-002
8732	9.568	-4.2057e-030	0.	-6.8632e-002
8733	9.752	-4.2866e-030	0.	-0.11275
8734	9.936	-4.3675e-030	0.	-0.16184
8735	10.12	-4.4483e-030	0.	-0.21699
8736	10.304	-4.5292e-030	0.	-0.27937
8737	10.488	-4.6101e-030	0.	-0.35023
8738	10.672	-4.691e-030	0.	-0.43079
8739	10.856	-4.7719e-030	0.	-0.52216
8740	11.04	-4.8527e-030	0.	-0.62509
8741	11.224	-4.9336e-030	0.	-0.73972
8742	11.408	-5.0145e-030	0.	-0.86503
8743	11.592	-5.0954e-030	0.	-0.99821
8744	11.776	-5.1763e-030	0.	-1.1338
8745	11.96	-5.2571e-030	0.	-1.2625
8746	12.144	-5.338e-030	0.	-1.3702
8747	12.328	-5.4189e-030	0.	-1.4366
8748	12.512	-5.4998e-030	0.	-1.4363
8749	12.696	-5.5806e-030	0.	-1.3326
8750	12.88	-5.6615e-030	0.	-1.1103
8751	13.064	-5.7424e-030	0.	-0.66645
8752	13.248	-5.8233e-030	0.	-0.3215
8753	13.432	-5.9042e-030	0.	1.0968
8754	13.616	-5.985e-030	0.	-2.7557
8755	13.8	0.	0.	-20.738
8756	0.	0.	0.	354.28
8757	14.149	0.	0.	-1.8104
8758	14.332	0.	0.	1.7217
8759	14.514	0.	0.	0.54089
8760	14.696	0.	0.	0.24805
8761	14.879	0.	0.	-0.12138
8762	15.061	0.	0.	-0.31388
8763	15.244	0.	0.	-0.41484
8764	15.426	0.	0.	-0.43825
8765	15.608	0.	0.	-0.41423
8766	15.791	0.	0.	-0.3626
8767	15.973	0.	0.	-0.29835
8768	16.156	0.	0.	-0.23124
8769	16.338	0.	0.	-0.16735
8770	16.521	0.	0.	-0.11011
8771	16.703	0.	0.	-6.1077e-002
8772	16.885	0.	0.	-2.0662e-002
8773	17.068	0.	0.	1.1371e-002
8774	17.25	0.	0.	3.5687e-002
8775	17.433	0.	0.	5.3186e-002
8776	17.615	0.	0.	6.4757e-002
8777	17.798	0.	0.	7.1268e-002
8778	17.98	0.	0.	7.3566e-002
8779	18.162	0.	0.	7.2376e-002
8780	18.345	0.	0.	6.8332e-002
8781	18.527	0.	0.	6.1955e-002
8782	18.71	0.	0.	5.3706e-002
8783	18.892	0.	0.	4.3977e-002
8784	19.075	0.	0.	3.3032e-002
8785	19.257	0.	0.	2.1101e-002
8786	19.439	0.	0.	8.3958e-003
8787	19.622	0.	0.	-4.9599e-003
8788	19.804	0.	0.	-1.8895e-002
8789	19.987	0.	0.	-3.3333e-002
8790	20.169	0.	0.	-4.825e-002
8791	20.352	0.	0.	-6.3642e-002
8792	20.534	0.	0.	-7.9557e-002
8793	20.716	0.	0.	-9.6026e-002
8794	20.899	0.	0.	-0.11311
8795	21.081	0.	0.	-0.13092
8796	21.264	0.	0.	-0.14957
8797	21.446	0.	0.	-0.16919
8798	21.628	0.	0.	-0.18998
8799	21.811	0.	0.	-0.21216
8800	21.993	0.	0.	-0.23599
8801	22.176	0.	0.	-0.26184
8802	22.358	0.	0.	-0.29018
8803	22.541	0.	0.	-0.32161
8804	22.723	0.	0.	-0.35706
8805	22.905	0.	0.	-0.3975
8806	23.088	0.	0.	-0.44575
8807	23.27	0.	0.	-0.50067
8808	23.453	0.	0.	-0.58582
8809	23.635	0.	0.	-0.65844
8810	23.818	0.	0.	-1.019
8811	13.967	0.	0.	-17.877
8812	24.	0.	0.	1.0763
8813	5.0862e-014	5.8182	0.	-1193.7
8814	4.9273e-014	5.6364	0.	-2308.2
8815	4.7683e-014	5.4545	0.	-2825.2
8816	4.6094e-014	5.2727	0.	-3134.7
8817	4.4504e-014	5.0909	0.	-3342.1
8818	4.2915e-014	4.9091	0.	-3490.9
8819	4.1325e-014	4.7273	0.	-3601.3
8820	3.9736e-014	4.5455	0.	-3685.2
8821	3.8147e-014	4.3636	0.	-3749.8
8822	3.6557e-014	4.1818	0.	-3800.
8823	3.4968e-014	4.	0.	-3838.9
8824	3.3378e-014	3.8182	0.	-3868.7
8825	3.1789e-014	3.6364	0.	-3891.
8826	3.0199e-014	3.4545	0.	-3906.9
8827	2.861e-014	3.2727	0.	-3917.
8828	2.702e-014	3.0909	0.	-3921.9
8829	2.5431e-014	2.9091	0.	-3921.9
8830	2.3842e-014	2.7273	0.	-3917.
8831	2.2252e-014	2.5455	0.	-3906.9
8832	2.0663e-014	2.3636	0.	-3891.
8833	1.9073e-014	2.1818	0.	-3868.7
8834	1.7484e-014	2.	0.	-3838.9
8835	1.5894e-014	1.8182	0.	-3800.
8836	1.4305e-014	1.6364	0.	-3749.8
8837	1.2716e-014	1.4545	0.	-3685.2
8838	1.1126e-014	1.2727	0.	-3601.3
8839	9.5366e-015	1.0909	0.	-3490.9
8840	7.9472e-015	0.90909	0.	-3342.1
8841	6.3578e-015	0.72727	0.	-3134.7
8842	4.7683e-015	0.54545	0.	-2825.2
8843	3.1789e-015	0.36364	0.	-2308.2
8844	1.5894e-015	0.18182	0.	-1193.7
8845	24.	0.18182	0.	2.1876
8846	24.	0.36364	0.	2.2202
8847	24.	0.54545	0.	2.4152
8848	24.	0.72727	0.	2.4452
8849	24.	0.90909	0.	2.4792
8850	24.	1.0909	0.	2.4983
8851	24.	1.2727	0.	2.5132
8852	24.	1.4545	0.	2.524
8853	24.	1.6364	0.	2.5322
8854	24.	1.8182	0.	2.5384
8855	24.	2.	0.	2.5431
8856	24.	2.1818	0.	2.5466
8857	24.	2.3636	0.	2.5493
8858	24.	2.5455	0.	2.5511
8859	24.	2.7273	0.	2.5523
8860	24.	2.9091	0.	2.5528
8861	24.	3.0909	0.	2.5528
8862	24.	3.2727	0.	2.5523
8863	24.	3.4545	0.	2.5511
8864	24.	3.6364	0.	2.5493
8865	24.	3.8182	0.	2.5466
8866	24.	4.	0.	2.5431
8867	24.	4.1818	0.	2.5384
8868	24.	4.3636	0.	2.5322
8869	24.	4.5455	0.	2.524
8870	24.	4.7273	0.	2.5132
8871	24.	4.9091	0.	2.4983
8872	24.	5.0909	0.	2.4792
8873	24.	5.2727	0.	2.4452
8874	24.	5.4545	0.	2.4152
8875	24.	5.6364	0.	2.2203
8876	24.	5.8182	0.	2.1876
8877	24.	6.	0.	1.0763
8878	23.818	6.	0.	-1.019
8879	23.635	6.	0.	-0.65844
8880	23.453	6.	0.	-0.58583
8881	23.27	6.	0.	-0.50067
8882	23.088	6.	0.	-0.44574
8883	22.905	6.	0.	-0.3975
8884	22.723	6.	0.	-0.35706
8885	22.541	6.	0.	-0.32161
8886	22.358	6.	0.	-0.29018
8887	22.176	6.	0.	-0.26184
8888	21.993	6.	0.	-0.23599
8889	21.811	6.	0.	-0.21216
8890	21.628	6.	0.	-0.18998
8891	21.446	6.	0.	-0.1692
8892	21.264	6.	0.	-0.14957
8893	21.081	6.	0.	-0.13092
8894	20.899	6.	0.	-0.11311
8895	20.716	6.	0.	-9.6026e-002
8896	20.534	6.	0.	-7.9555e-002
8897	20.352	6.	0.	-6.3643e-002
8898	20.169	6.	0.	-4.8247e-002
8899	19.987	6.	0.	-3.333e-002
8900	19.804	6.	0.	-1.8895e-002
8901	19.622	6.	0.	-4.9576e-003
8902	19.439	6.	0.	8.4001e-003
8903	19.257	6.	0.	2.1102e-002
8904	19.075	6.	0.	3.303e-002
8905	18.892	6.	0.	4.3978e-002
8906	18.71	6.	0.	5.3707e-002
8907	18.527	6.	0.	6.1956e-002
8908	18.345	6.	0.	6.8334e-002
8909	18.162	6.	0.	7.2375e-002
8910	17.98	6.	0.	7.3566e-002
8911	17.798	6.	0.	7.1267e-002
8912	17.615	6.	0.	6.4758e-002
8913	17.433	6.	0.	5.3188e-002
8914	17.25	6.	0.	3.5688e-002
8915	17.068	6.	0.	1.1371e-002
8916	16.885	6.	0.	-2.066e-002
8917	16.703	6.	0.	-6.1078e-002
8918	16.521	6.	0.	-0.11011
8919	16.338	6.	0.	-0.16735
8920	16.156	6.	0.	-0.23124
8921	15.973	6.	0.	-0.29835
8922	15.791	6.	0.	-0.36261
8923	15.608	6.	0.	-0.41423
8924	15.426	6.	0.	-0.43825
8925	15.244	6.	0.	-0.41484
8926	15.061	6.	0.	-0.31388
8927	14.879	6.	0.	-0.12138
8928	14.696	6.	0.	0.24804
8929	14.514	6.	0.	0.54089
8930	14.332	6.	0.	1.7217
8931	14.149	6.	0.	-1.8104
8932	13.967	6.	0.	-17.876
8933	13.8	1.8182	0.	-10.267
8934	13.8	1.6364	0.	70.796
8935	13.8	1.4545	0.	18.286
8936	13.8	1.2727	0.	21.415
8937	13.8	1.0909	0.	14.837
8938	13.8	0.90909	0.	13.455
8939	13.8	0.72727	0.	11.724
8940	13.8	0.54545	0.	10.672
8941	13.8	0.36364	0.	10.467
8942	13.8	0.18182	0.	7.9334
8943	13.8	2.	0.	-434.69
8944	13.967	0.18182	0.	5.5426
8945	13.967	0.36364	0.	8.1788
8946	13.967	0.54545	0.	8.3226
8947	13.967	0.72727	0.	9.3084
8948	13.967	0.90909	0.	10.911
8949	13.967	1.0909	0.	12.356
8950	13.967	1.2727	0.	18.238
8951	13.967	1.4545	0.	16.448
8952	13.967	1.6364	0.	64.709
8953	13.967	1.8182	0.	-11.423
8954	13.967	2.	0.	-761.38
8955	13.8	4.1818	0.	-10.266
8956	13.8	4.3636	0.	70.796
8957	13.8	4.5455	0.	18.286
8958	13.8	4.7273	0.	21.415
8959	13.8	4.9091	0.	14.837
8960	13.8	5.0909	0.	13.455
8961	13.8	5.2727	0.	11.724
8962	13.8	5.4545	0.	10.672
8963	13.8	5.6364	0.	10.467
8964	13.8	5.8182	0.	7.9334
8965	13.8	4.	0.	-434.69
8966	13.967	5.8182	0.	5.5426
8967	13.967	5.6364	0.	8.1788
8968	13.967	5.4545	0.	8.3226
8969	13.967	5.2727	0.	9.3084
8970	13.967	5.0909	0.	10.911
8971	13.967	4.9091	0.	12.356
8972	13.967	4.7273	0.	18.238
8973	13.967	4.5455	0.	16.448
8974	13.967	4.3636	0.	64.709
8975	13.967	4.1818	0.	-11.423
8976	13.967	4.	0.	-761.38
8977	13.8	2.2727	0.	42.149
8978	13.883	2.1818	0.	73.239
8979	13.708	2.1818	0.	62.203
8980	13.8	2.1818	5.e-002	2.5866e-004
8981	13.8	2.0909	0.	-185.49
8982	13.8	2.4545	0.	-10.361
8983	13.883	2.3636	0.	-22.444
8984	13.708	2.3636	0.	-15.722
8985	13.8	2.3636	5.e-002	2.0243e-004
8986	13.8	2.6364	0.	-0.97038
8987	13.883	2.5455	0.	0.63049
8988	13.708	2.5455	0.	1.8502
8989	13.8	2.5455	5.e-002	9.0854e-005
8990	13.8	2.8182	0.	-1.8294
8991	13.883	2.7273	0.	-2.4597
8992	13.708	2.7273	0.	-2.2328
8993	13.8	2.7273	5.e-002	3.3002e-005
8994	13.8	3.	0.	-1.2658
8995	13.883	2.9091	0.	-1.2474
8996	13.708	2.9091	0.	-0.86802
8997	13.8	2.9091	5.e-002	3.8042e-006
8998	13.8	3.1818	0.	-1.8294
8999	13.883	3.0909	0.	-1.2474
9000	13.708	3.0909	0.	-0.86802
9001	13.8	3.0909	5.e-002	-3.7842e-005
9002	13.8	3.3636	0.	-0.97038
9003	13.883	3.2727	0.	-2.4597
9004	13.708	3.2727	0.	-2.2328
9005	13.8	3.2727	5.e-002	-1.3206e-004
9006	13.8	3.5455	0.	-10.361
9007	13.883	3.4545	0.	0.63049
9008	13.708	3.4545	0.	1.8502
9009	13.8	3.4545	5.e-002	-1.563e-004
9010	13.8	3.7273	0.	42.149
9011	13.883	3.6364	0.	-22.444
9012	13.708	3.6364	0.	-15.722
9013	13.8	3.6364	5.e-002	-2.5286e-004
9014	13.883	3.8182	0.	73.239
9015	13.708	3.8182	0.	62.203
9016	13.8	3.8182	5.e-002	-3.5358e-004
9017	13.8	3.9091	0.	-185.49
9018	13.967	2.2727	0.	8.1488
9019	14.058	2.1818	0.	5.2981
9020	13.967	2.1818	5.e-002	1.5649e-004
9021	13.967	2.0909	0.	-382.66
9022	13.967	2.4545	0.	-11.096
9023	14.058	2.3636	0.	-17.118
9024	13.967	2.3636	5.e-002	1.2774e-004
9025	13.967	2.6364	0.	-0.7906
9026	14.058	2.5455	0.	1.8415
9027	13.967	2.5455	5.e-002	2.5531e-005
9028	13.967	2.8182	0.	-1.8216
9029	14.058	2.7273	0.	-2.1645
9030	13.967	2.7273	5.e-002	-2.9286e-005
9031	13.967	3.	0.	-1.1837
9032	14.058	2.9091	0.	-0.71302
9033	13.967	2.9091	5.e-002	-2.5702e-005
9034	13.967	3.1818	0.	-1.8216
9035	14.058	3.0909	0.	-0.71302
9036	13.967	3.0909	5.e-002	-2.1452e-005
9037	13.967	3.3636	0.	-0.7906
9038	14.058	3.2727	0.	-2.1645
9039	13.967	3.2727	5.e-002	-2.9019e-005
9040	13.967	3.5455	0.	-11.096
9041	14.058	3.4545	0.	1.8415
9042	13.967	3.4545	5.e-002	-9.6023e-005
9043	13.967	3.7273	0.	8.1489
9044	14.058	3.6364	0.	-17.118
9045	13.967	3.6364	5.e-002	-2.2394e-004
9046	14.058	3.8182	0.	5.2981
9047	13.967	3.8182	5.e-002	-2.9393e-004
9048	13.967	3.9091	0.	-382.66
9049	13.616	5.7273	0.	-7.6027
9050	13.524	5.8182	0.	-7.0464
9051	13.616	5.8182	5.e-002	4.6464e-006
9052	13.616	5.9091	0.	-7.5379
9053	13.708	5.8182	0.	1.3937
9054	13.616	5.5455	0.	-4.437
9055	13.524	5.6364	0.	-3.2384
9056	13.616	5.6364	5.e-002	3.8147e-006
9057	13.708	5.6364	0.	1.9424
9058	13.616	5.3636	0.	-3.7943
9059	13.524	5.4545	0.	-2.1473
9060	13.616	5.4545	5.e-002	6.0789e-006
9061	13.708	5.4545	0.	1.2614
9062	13.616	5.1818	0.	-3.5939
9063	13.524	5.2727	0.	-1.654
9064	13.616	5.2727	5.e-002	8.5857e-007
9065	13.708	5.2727	0.	1.2306
9066	13.616	5.	0.	-4.1179
9067	13.524	5.0909	0.	-1.5048
9068	13.616	5.0909	5.e-002	-1.8482e-006
9069	13.708	5.0909	0.	1.4538
9070	13.616	4.8182	0.	-3.9486
9071	13.524	4.9091	0.	-1.8971
9072	13.616	4.9091	5.e-002	-2.4001e-005
9073	13.708	4.9091	0.	0.46947
9074	13.616	4.6364	0.	-8.5661
9075	13.524	4.7273	0.	-1.1917
9076	13.616	4.7273	5.e-002	-3.6264e-005
9077	13.708	4.7273	0.	4.0143
9078	13.616	4.4545	0.	-0.88854
9079	13.524	4.5455	0.	-6.6419
9080	13.616	4.5455	5.e-002	-4.5178e-005
9081	13.708	4.5455	0.	-10.731
9082	13.616	4.2727	0.	-33.499
9083	13.524	4.3636	0.	8.0675
9084	13.616	4.3636	5.e-002	-1.431e-004
9085	13.708	4.3636	0.	43.787
9086	13.616	4.0909	0.	-212.69
9087	13.524	4.1818	0.	-34.518
9088	13.616	4.1818	5.e-002	-3.7873e-004
9089	13.708	4.1818	0.	-194.52
9090	13.616	3.9091	0.	-150.66
9091	13.524	4.	0.	-148.66
9092	13.616	4.	5.e-002	-1.8846e-004
9093	13.708	4.	0.	-210.83
9094	13.616	3.7273	0.	2.8988
9095	13.524	3.8182	0.	19.898
9096	13.616	3.8182	5.e-002	-9.0702e-005
9097	13.616	3.5455	0.	-3.3985
9098	13.524	3.6364	0.	-6.5734
9099	13.616	3.6364	5.e-002	-1.318e-004
9100	13.616	3.3636	0.	0.63654
9101	13.524	3.4545	0.	2.0623
9102	13.616	3.4545	5.e-002	-7.8616e-005
9103	13.616	3.1818	0.	-1.2315
9104	13.524	3.2727	0.	-1.0572
9105	13.616	3.2727	5.e-002	-6.9745e-005
9106	13.616	3.	0.	-0.43444
9107	13.524	3.0909	0.	-0.2923
9108	13.616	3.0909	5.e-002	-3.9494e-005
9109	13.616	2.8182	0.	-1.2315
9110	13.524	2.9091	0.	-0.2923
9111	13.616	2.9091	5.e-002	-1.3803e-005
9112	13.616	2.6364	0.	0.63654
9113	13.524	2.7273	0.	-1.0572
9114	13.616	2.7273	5.e-002	1.6781e-005
9115	13.616	2.4545	0.	-3.3985
9116	13.524	2.5455	0.	2.0623
9117	13.616	2.5455	5.e-002	4.2394e-005
9118	13.616	2.2727	0.	2.8988
9119	13.524	2.3636	0.	-6.5734
9120	13.616	2.3636	5.e-002	8.4703e-005
9121	13.616	2.0909	0.	-150.66
9122	13.524	2.1818	0.	19.898
9123	13.616	2.1818	5.e-002	8.0934e-005
9124	13.616	1.9091	0.	-212.69
9125	13.524	2.	0.	-148.66
9126	13.616	2.	5.e-002	2.1168e-004
9127	13.708	2.	0.	-210.83
9128	13.616	1.7273	0.	-33.499
9129	13.524	1.8182	0.	-34.518
9130	13.616	1.8182	5.e-002	2.6044e-004
9131	13.708	1.8182	0.	-194.52
9132	13.616	1.5455	0.	-0.88853
9133	13.524	1.6364	0.	8.0675
9134	13.616	1.6364	5.e-002	9.7324e-005
9135	13.708	1.6364	0.	43.787
9136	13.616	1.3636	0.	-8.5661
9137	13.524	1.4545	0.	-6.6419
9138	13.616	1.4545	5.e-002	4.2344e-005
9139	13.708	1.4545	0.	-10.731
9140	13.616	1.1818	0.	-3.9486
9141	13.524	1.2727	0.	-1.1917
9142	13.616	1.2727	5.e-002	2.7821e-005
9143	13.708	1.2727	0.	4.0143
9144	13.616	1.	0.	-4.1179
9145	13.524	1.0909	0.	-1.8971
9146	13.616	1.0909	5.e-002	4.1976e-005
9147	13.708	1.0909	0.	0.46947
9148	13.616	0.81818	0.	-3.5939
9149	13.524	0.90909	0.	-1.5048
9150	13.616	0.90909	5.e-002	8.7697e-006
9151	13.708	0.90909	0.	1.4538
9152	13.616	0.63636	0.	-3.7943
9153	13.524	0.72727	0.	-1.654
9154	13.616	0.72727	5.e-002	8.2489e-006
9155	13.708	0.72727	0.	1.2306
9156	13.616	0.45455	0.	-4.437
9157	13.524	0.54545	0.	-2.1473
9158	13.616	0.54545	5.e-002	3.1011e-006
9159	13.708	0.54545	0.	1.2614
9160	13.616	0.27273	0.	-7.6027
9161	13.524	0.36364	0.	-3.2384
9162	13.616	0.36364	5.e-002	3.8147e-006
9163	13.708	0.36364	0.	1.9424
9164	13.524	0.18182	0.	-7.0463
9165	13.616	0.18182	5.e-002	5.3058e-007
9166	13.616	9.0909e-002	0.	-7.5379
9167	13.708	0.18182	0.	1.3937
9168	13.432	5.7273	0.	-1.0632
9169	13.34	5.8182	0.	-0.88852
9170	13.432	5.8182	5.e-002	3.0504e-006
9171	13.432	5.9091	0.	-0.10904
9172	13.432	5.5455	0.	-0.15005
9173	13.34	5.6364	0.	-0.48992
9174	13.432	5.6364	5.e-002	4.7213e-007
9175	13.432	5.3636	0.	0.29085
9176	13.34	5.4545	0.	-0.19831
9177	13.432	5.4545	5.e-002	-5.2195e-006
9178	13.432	5.1818	0.	0.5585
9179	13.34	5.2727	0.	-9.621e-003
9180	13.432	5.2727	5.e-002	-1.0682e-005
9181	13.432	5.	0.	0.74817
9182	13.34	5.0909	0.	3.8944e-002
9183	13.432	5.0909	5.e-002	-1.9768e-005
9184	13.432	4.8182	0.	0.7948
9185	13.34	4.9091	0.	2.0326e-002
9186	13.432	4.9091	5.e-002	-3.3775e-005
9187	13.432	4.6364	0.	0.6186
9188	13.34	4.7273	0.	-0.13435
9189	13.432	4.7273	5.e-002	-5.725e-005
9190	13.432	4.4545	0.	2.0033
9191	13.34	4.5455	0.	-0.25631
9192	13.432	4.5455	5.e-002	-8.4829e-005
9193	13.432	4.2727	0.	6.957
9194	13.34	4.3636	0.	-1.026
9195	13.432	4.3636	5.e-002	-1.7841e-004
9196	13.432	4.0909	0.	26.043
9197	13.34	4.1818	0.	3.6493
9198	13.432	4.1818	5.e-002	-2.7358e-004
9199	13.432	3.9091	0.	31.761
9200	13.34	4.	0.	17.087
9201	13.432	4.	5.e-002	-9.752e-005
9202	13.432	3.7273	0.	9.2088
9203	13.34	3.8182	0.	8.0032
9204	13.432	3.8182	5.e-002	-6.1792e-005
9205	13.432	3.5455	0.	-1.2069
9206	13.34	3.6364	0.	0.12265
9207	13.432	3.6364	5.e-002	-5.6093e-005
9208	13.432	3.3636	0.	0.38365
9209	13.34	3.4545	0.	0.68487
9210	13.432	3.4545	5.e-002	-4.5794e-005
9211	13.432	3.1818	0.	-9.8656e-002
9212	13.34	3.2727	0.	0.21015
9213	13.432	3.2727	5.e-002	-3.0876e-005
9214	13.432	3.	0.	-0.12953
9215	13.34	3.0909	0.	8.8238e-002
9216	13.432	3.0909	5.e-002	-2.2241e-005
9217	13.432	2.8182	0.	-9.8656e-002
9218	13.34	2.9091	0.	8.8238e-002
9219	13.432	2.9091	5.e-002	-8.3266e-006
9220	13.432	2.6364	0.	0.38365
9221	13.34	2.7273	0.	0.21016
9222	13.432	2.7273	5.e-002	5.0645e-006
9223	13.432	2.4545	0.	-1.2069
9224	13.34	2.5455	0.	0.68487
9225	13.432	2.5455	5.e-002	1.1839e-005
9226	13.432	2.2727	0.	9.2088
9227	13.34	2.3636	0.	0.12265
9228	13.432	2.3636	5.e-002	3.6235e-005
9229	13.432	2.0909	0.	31.761
9230	13.34	2.1818	0.	8.0032
9231	13.432	2.1818	5.e-002	3.9315e-005
9232	13.432	1.9091	0.	26.043
9233	13.34	2.	0.	17.087
9234	13.432	2.	5.e-002	9.9198e-005
9235	13.432	1.7273	0.	6.957
9236	13.34	1.8182	0.	3.6493
9237	13.432	1.8182	5.e-002	1.8449e-004
9238	13.432	1.5455	0.	2.0033
9239	13.34	1.6364	0.	-1.026
9240	13.432	1.6364	5.e-002	1.0429e-004
9241	13.432	1.3636	0.	0.6186
9242	13.34	1.4545	0.	-0.25631
9243	13.432	1.4545	5.e-002	7.3609e-005
9244	13.432	1.1818	0.	0.79481
9245	13.34	1.2727	0.	-0.13435
9246	13.432	1.2727	5.e-002	3.9927e-005
9247	13.432	1.	0.	0.74817
9248	13.34	1.0909	0.	2.0328e-002
9249	13.432	1.0909	5.e-002	2.809e-005
9250	13.432	0.81818	0.	0.55851
9251	13.34	0.90909	0.	3.8948e-002
9252	13.432	0.90909	5.e-002	2.0796e-005
9253	13.432	0.63636	0.	0.29085
9254	13.34	0.72727	0.	-9.6173e-003
9255	13.432	0.72727	5.e-002	1.4632e-005
9256	13.432	0.45455	0.	-0.15005
9257	13.34	0.54545	0.	-0.19831
9258	13.432	0.54545	5.e-002	7.1944e-006
9259	13.432	0.27273	0.	-1.0632
9260	13.34	0.36364	0.	-0.48992
9261	13.432	0.36364	5.e-002	4.0589e-006
9262	13.34	0.18182	0.	-0.88851
9263	13.432	0.18182	5.e-002	2.9875e-006
9264	13.432	9.0909e-002	0.	-0.10903
9265	13.248	5.7273	0.	-0.46933
9266	13.156	5.8182	0.	0.10878
9267	13.248	5.8182	5.e-002	1.5492e-006
9268	13.248	5.9091	0.	-0.21481
9269	13.248	5.5455	0.	-0.49191
9270	13.156	5.6364	0.	-0.23669
9271	13.248	5.6364	5.e-002	-2.061e-006
9272	13.248	5.3636	0.	-0.47403
9273	13.156	5.4545	0.	-0.24749
9274	13.248	5.4545	5.e-002	-6.1956e-006
9275	13.248	5.1818	0.	-0.52378
9276	13.156	5.2727	0.	-0.32536
9277	13.248	5.2727	5.e-002	-1.5953e-005
9278	13.248	5.	0.	-0.69322
9279	13.156	5.0909	0.	-0.4129
9280	13.248	5.0909	5.e-002	-2.5184e-005
9281	13.248	4.8182	0.	-0.91395
9282	13.156	4.9091	0.	-0.60023
9283	13.248	4.9091	5.e-002	-3.5239e-005
9284	13.248	4.6364	0.	-1.0072
9285	13.156	4.7273	0.	-0.79506
9286	13.248	4.7273	5.e-002	-5.8737e-005
9287	13.248	4.4545	0.	-3.3062
9288	13.156	4.5455	0.	-0.91535
9289	13.248	4.5455	5.e-002	-9.4473e-005
9290	13.248	4.2727	0.	-4.2715
9291	13.156	4.3636	0.	-2.7163
9292	13.248	4.3636	5.e-002	-1.5674e-004
9293	13.248	4.0909	0.	-5.3348
9294	13.156	4.1818	0.	-1.6751
9295	13.248	4.1818	5.e-002	-1.7466e-004
9296	13.248	3.9091	0.	-6.5251
9297	13.156	4.	0.	-3.304
9298	13.248	4.	5.e-002	-1.1654e-004
9299	13.248	3.7273	0.	-0.87433
9300	13.156	3.8182	0.	-1.614
9301	13.248	3.8182	5.e-002	-9.5944e-005
9302	13.248	3.5455	0.	1.9488
9303	13.156	3.6364	0.	1.8801
9304	13.248	3.6364	5.e-002	-3.2033e-005
9305	13.248	3.3636	0.	0.4855
9306	13.156	3.4545	0.	0.57185
9307	13.248	3.4545	5.e-002	-2.0997e-005
9308	13.248	3.1818	0.	0.39863
9309	13.156	3.2727	0.	0.51937
9310	13.248	3.2727	5.e-002	-1.7049e-005
9311	13.248	3.	0.	0.31279
9312	13.156	3.0909	0.	0.3823
9313	13.248	3.0909	5.e-002	-1.4767e-005
9314	13.248	2.8182	0.	0.39863
9315	13.156	2.9091	0.	0.3823
9316	13.248	2.9091	5.e-002	-4.3077e-006
9317	13.248	2.6364	0.	0.4855
9318	13.156	2.7273	0.	0.51937
9319	13.248	2.7273	5.e-002	-5.6597e-006
9320	13.248	2.4545	0.	1.9488
9321	13.156	2.5455	0.	0.57185
9322	13.248	2.5455	5.e-002	8.1036e-006
9323	13.248	2.2727	0.	-0.87433
9324	13.156	2.3636	0.	1.8801
9325	13.248	2.3636	5.e-002	1.7736e-005
9326	13.248	2.0909	0.	-6.5251
9327	13.156	2.1818	0.	-1.614
9328	13.248	2.1818	5.e-002	4.3374e-005
9329	13.248	1.9091	0.	-5.3348
9330	13.156	2.	0.	-3.304
9331	13.248	2.	5.e-002	8.0705e-005
9332	13.248	1.7273	0.	-4.2715
9333	13.156	1.8182	0.	-1.6751
9334	13.248	1.8182	5.e-002	1.7035e-004
9335	13.248	1.5455	0.	-3.3062
9336	13.156	1.6364	0.	-2.7163
9337	13.248	1.6364	5.e-002	1.279e-004
9338	13.248	1.3636	0.	-1.0072
9339	13.156	1.4545	0.	-0.91534
9340	13.248	1.4545	5.e-002	6.785e-005
9341	13.248	1.1818	0.	-0.91395
9342	13.156	1.2727	0.	-0.79506
9343	13.248	1.2727	5.e-002	4.2585e-005
9344	13.248	1.	0.	-0.69322
9345	13.156	1.0909	0.	-0.60023
9346	13.248	1.0909	5.e-002	3.0532e-005
9347	13.248	0.81818	0.	-0.52378
9348	13.156	0.90909	0.	-0.41289
9349	13.248	0.90909	5.e-002	2.1375e-005
9350	13.248	0.63636	0.	-0.47402
9351	13.156	0.72727	0.	-0.32535
9352	13.248	0.72727	5.e-002	1.5711e-005
9353	13.248	0.45455	0.	-0.49191
9354	13.156	0.54545	0.	-0.24749
9355	13.248	0.54545	5.e-002	9.1873e-006
9356	13.248	0.27273	0.	-0.46933
9357	13.156	0.36364	0.	-0.23668
9358	13.248	0.36364	5.e-002	4.5983e-006
9359	13.156	0.18182	0.	0.10879
9360	13.248	0.18182	5.e-002	2.451e-006
9361	13.248	9.0909e-002	0.	-0.21481
9362	13.064	5.7273	0.	0.20864
9363	12.972	5.8182	0.	0.49458
9364	13.064	5.8182	5.e-002	2.0546e-006
9365	13.064	5.9091	0.	0.10217
9366	13.064	5.5455	0.	-3.8909e-002
9367	12.972	5.6364	0.	1.4083e-004
9368	13.064	5.6364	5.e-002	-2.1092e-006
9369	13.064	5.3636	0.	-0.11411
9370	12.972	5.4545	0.	-2.953e-002
9371	13.064	5.4545	5.e-002	-6.3695e-006
9372	13.064	5.1818	0.	-0.22041
9373	12.972	5.2727	0.	-0.159
9374	13.064	5.2727	5.e-002	-1.4715e-005
9375	13.064	5.	0.	-0.32262
9376	12.972	5.0909	0.	-0.26246
9377	13.064	5.0909	5.e-002	-2.3802e-005
9378	13.064	4.8182	0.	-0.48394
9379	12.972	4.9091	0.	-0.3681
9380	13.064	4.9091	5.e-002	-4.1079e-005
9381	13.064	4.6364	0.	-0.70804
9382	12.972	4.7273	0.	-0.51592
9383	13.064	4.7273	5.e-002	-6.0772e-005
9384	13.064	4.4545	0.	-0.32774
9385	12.972	4.5455	0.	-0.68239
9386	13.064	4.5455	5.e-002	-1.0935e-004
9387	13.064	4.2727	0.	-0.13577
9388	12.972	4.3636	0.	-0.30748
9389	13.064	4.3636	5.e-002	-1.7408e-004
9390	13.064	4.0909	0.	0.38134
9391	12.972	4.1818	0.	-0.53457
9392	13.064	4.1818	5.e-002	-1.6835e-004
9393	13.064	3.9091	0.	1.6598
9394	12.972	4.	0.	0.21588
9395	13.064	4.	5.e-002	-1.6169e-004
9396	13.064	3.7273	0.	1.2441
9397	12.972	3.8182	0.	0.75117
9398	13.064	3.8182	5.e-002	-6.7156e-005
9399	13.064	3.5455	0.	0.50662
9400	12.972	3.6364	0.	0.25063
9401	13.064	3.6364	5.e-002	-4.159e-005
9402	13.064	3.3636	0.	0.59274
9403	12.972	3.4545	0.	0.51442
9404	13.064	3.4545	5.e-002	-1.4737e-005
9405	13.064	3.1818	0.	0.49905
9406	12.972	3.2727	0.	0.48252
9407	13.064	3.2727	5.e-002	-1.293e-005
9408	13.064	3.	0.	0.45235
9409	12.972	3.0909	0.	0.44286
9410	13.064	3.0909	5.e-002	-7.343e-006
9411	13.064	2.8182	0.	0.49905
9412	12.972	2.9091	0.	0.44286
9413	13.064	2.9091	5.e-002	-2.2054e-006
9414	13.064	2.6364	0.	0.59274
9415	12.972	2.7273	0.	0.48252
9416	13.064	2.7273	5.e-002	8.7004e-007
9417	13.064	2.4545	0.	0.50662
9418	12.972	2.5455	0.	0.51442
9419	13.064	2.5455	5.e-002	1.4352e-005
9420	13.064	2.2727	0.	1.2441
9421	12.972	2.3636	0.	0.25063
9422	13.064	2.3636	5.e-002	1.88e-005
9423	13.064	2.0909	0.	1.6598
9424	12.972	2.1818	0.	0.75117
9425	13.064	2.1818	5.e-002	3.4335e-005
9426	13.064	1.9091	0.	0.38134
9427	12.972	2.	0.	0.21588
9428	13.064	2.	5.e-002	7.2884e-005
9429	13.064	1.7273	0.	-0.13577
9430	12.972	1.8182	0.	-0.53457
9431	13.064	1.8182	5.e-002	1.3181e-004
9432	13.064	1.5455	0.	-0.32774
9433	12.972	1.6364	0.	-0.30748
9434	13.064	1.6364	5.e-002	1.1974e-004
9435	13.064	1.3636	0.	-0.70803
9436	12.972	1.4545	0.	-0.68239
9437	13.064	1.4545	5.e-002	6.0878e-005
9438	13.064	1.1818	0.	-0.48394
9439	12.972	1.2727	0.	-0.51592
9440	13.064	1.2727	5.e-002	4.7348e-005
9441	13.064	1.	0.	-0.32262
9442	12.972	1.0909	0.	-0.3681
9443	13.064	1.0909	5.e-002	2.9139e-005
9444	13.064	0.81818	0.	-0.22041
9445	12.972	0.90909	0.	-0.26246
9446	13.064	0.90909	5.e-002	2.0588e-005
9447	13.064	0.63636	0.	-0.11411
9448	12.972	0.72727	0.	-0.15899
9449	13.064	0.72727	5.e-002	1.564e-005
9450	13.064	0.45455	0.	-3.8907e-002
9451	12.972	0.54545	0.	-2.9528e-002
9452	13.064	0.54545	5.e-002	9.2292e-006
9453	13.064	0.27273	0.	0.20864
9454	12.972	0.36364	0.	1.4232e-004
9455	13.064	0.36364	5.e-002	5.4592e-006
9456	12.972	0.18182	0.	0.49458
9457	13.064	0.18182	5.e-002	3.1328e-006
9458	13.064	9.0909e-002	0.	0.10218
9459	12.88	5.7273	0.	0.22546
9460	12.788	5.8182	0.	0.42616
9461	12.88	5.8182	5.e-002	3.4845e-006
9462	12.88	5.9091	0.	4.3739e-002
9463	12.88	5.5455	0.	-1.8995e-002
9464	12.788	5.6364	0.	-2.2243e-002
9465	12.88	5.6364	5.e-002	-1.4453e-006
9466	12.88	5.3636	0.	-8.8767e-002
9467	12.788	5.4545	0.	5.3238e-003
9468	12.88	5.4545	5.e-002	-4.173e-006
9469	12.88	5.1818	0.	-0.20796
9470	12.788	5.2727	0.	-0.1244
9471	12.88	5.2727	5.e-002	-1.4017e-005
9472	12.88	5.	0.	-0.312
9473	12.788	5.0909	0.	-0.21358
9474	12.88	5.0909	5.e-002	-2.4712e-005
9475	12.88	4.8182	0.	-0.40384
9476	12.788	4.9091	0.	-0.30382
9477	12.88	4.9091	5.e-002	-3.8226e-005
9478	12.88	4.6364	0.	-0.49466
9479	12.788	4.7273	0.	-0.37464
9480	12.88	4.7273	5.e-002	-5.8594e-005
9481	12.88	4.4545	0.	-0.6643
9482	12.788	4.5455	0.	-0.44634
9483	12.88	4.5455	5.e-002	-9.4194e-005
9484	12.88	4.2727	0.	-0.69935
9485	12.788	4.3636	0.	-0.56816
9486	12.88	4.3636	5.e-002	-1.5547e-004
9487	12.88	4.0909	0.	-0.68383
9488	12.788	4.1818	0.	-0.5085
9489	12.88	4.1818	5.e-002	-1.628e-004
9490	12.88	3.9091	0.	-0.67246
9491	12.788	4.	0.	-0.53257
9492	12.88	4.	5.e-002	-9.9192e-005
9493	12.88	3.7273	0.	-0.21585
9494	12.788	3.8182	0.	-0.38397
9495	12.88	3.8182	5.e-002	-8.6494e-005
9496	12.88	3.5455	0.	0.27927
9497	12.788	3.6364	0.	4.9914e-002
9498	12.88	3.6364	5.e-002	-3.5389e-005
9499	12.88	3.3636	0.	0.40721
9500	12.788	3.4545	0.	0.26348
9501	12.88	3.4545	5.e-002	-1.5428e-005
9502	12.88	3.1818	0.	0.42757
9503	12.788	3.2727	0.	0.3518
9504	12.88	3.2727	5.e-002	-1.081e-005
9505	12.88	3.	0.	0.43611
9506	12.788	3.0909	0.	0.38771
9507	12.88	3.0909	5.e-002	-4.1716e-006
9508	12.88	2.8182	0.	0.42756
9509	12.788	2.9091	0.	0.38771
9510	12.88	2.9091	5.e-002	-1.5525e-006
9511	12.88	2.6364	0.	0.40721
9512	12.788	2.7273	0.	0.3518
9513	12.88	2.7273	5.e-002	6.2238e-006
9514	12.88	2.4545	0.	0.27927
9515	12.788	2.5455	0.	0.26348
9516	12.88	2.5455	5.e-002	9.6415e-006
9517	12.88	2.2727	0.	-0.21585
9518	12.788	2.3636	0.	4.9914e-002
9519	12.88	2.3636	5.e-002	2.5943e-005
9520	12.88	2.0909	0.	-0.67246
9521	12.788	2.1818	0.	-0.38397
9522	12.88	2.1818	5.e-002	6.0062e-005
9523	12.88	1.9091	0.	-0.68383
9524	12.788	2.	0.	-0.53257
9525	12.88	2.	5.e-002	5.903e-005
9526	12.88	1.7273	0.	-0.69935
9527	12.788	1.8182	0.	-0.5085
9528	12.88	1.8182	5.e-002	1.2955e-004
9529	12.88	1.5455	0.	-0.66429
9530	12.788	1.6364	0.	-0.56816
9531	12.88	1.6364	5.e-002	8.3023e-005
9532	12.88	1.3636	0.	-0.49466
9533	12.788	1.4545	0.	-0.44634
9534	12.88	1.4545	5.e-002	6.7831e-005
9535	12.88	1.1818	0.	-0.40384
9536	12.788	1.2727	0.	-0.37463
9537	12.88	1.2727	5.e-002	3.2679e-005
9538	12.88	1.	0.	-0.31199
9539	12.788	1.0909	0.	-0.30382
9540	12.88	1.0909	5.e-002	2.9139e-005
9541	12.88	0.81818	0.	-0.20796
9542	12.788	0.90909	0.	-0.21357
9543	12.88	0.90909	5.e-002	1.8229e-005
9544	12.88	0.63636	0.	-8.8764e-002
9545	12.788	0.72727	0.	-0.1244
9546	12.88	0.72727	5.e-002	1.0383e-005
9547	12.88	0.45455	0.	-1.8993e-002
9548	12.788	0.54545	0.	5.325e-003
9549	12.88	0.54545	5.e-002	8.0764e-006
9550	12.88	0.27273	0.	0.22546
9551	12.788	0.36364	0.	-2.2242e-002
9552	12.88	0.36364	5.e-002	5.4952e-006
9553	12.788	0.18182	0.	0.42616
9554	12.88	0.18182	5.e-002	2.7919e-006
9555	12.88	9.0909e-002	0.	4.374e-002
9556	12.696	5.7273	0.	0.17181
9557	12.604	5.8182	0.	0.28125
9558	12.696	5.8182	5.e-002	4.5788e-006
9559	12.696	5.9091	0.	2.5693e-002
9560	12.696	5.5455	0.	-6.3082e-003
9561	12.604	5.6364	0.	-5.9486e-002
9562	12.696	5.6364	5.e-002	2.0223e-006
9563	12.696	5.3636	0.	-3.6782e-002
9564	12.604	5.4545	0.	2.7401e-002
9565	12.696	5.4545	5.e-002	-2.045e-006
9566	12.696	5.1818	0.	-0.13425
9567	12.604	5.2727	0.	-7.9195e-002
9568	12.696	5.2727	5.e-002	-1.1775e-005
9569	12.696	5.	0.	-0.20851
9570	12.604	5.0909	0.	-0.14356
9571	12.696	5.0909	5.e-002	-2.4772e-005
9572	12.696	4.8182	0.	-0.27741
9573	12.604	4.9091	0.	-0.20797
9574	12.696	4.9091	5.e-002	-3.581e-005
9575	12.696	4.6364	0.	-0.32829
9576	12.604	4.7273	0.	-0.26382
9577	12.696	4.7273	5.e-002	-6.274e-005
9578	12.696	4.4545	0.	-0.34871
9579	12.604	4.5455	0.	-0.30715
9580	12.696	4.5455	5.e-002	-1.092e-004
9581	12.696	4.2727	0.	-0.36955
9582	12.604	4.3636	0.	-0.33523
9583	12.696	4.3636	5.e-002	-1.3968e-004
9584	12.696	4.0909	0.	-0.34558
9585	12.604	4.1818	0.	-0.37277
9586	12.696	4.1818	5.e-002	-1.9313e-004
9587	12.696	3.9091	0.	-0.23275
9588	12.604	4.	0.	-0.33739
9589	12.696	4.	5.e-002	-1.4987e-004
9590	12.696	3.7273	0.	-0.10548
9591	12.604	3.8182	0.	-0.23791
9592	12.696	3.8182	5.e-002	-9.5126e-005
9593	12.696	3.5455	0.	4.8071e-002
9594	12.604	3.6364	0.	-0.10417
9595	12.696	3.6364	5.e-002	-4.2303e-005
9596	12.696	3.3636	0.	0.21861
9597	12.604	3.4545	0.	7.9401e-002
9598	12.696	3.4545	5.e-002	-1.7603e-005
9599	12.696	3.1818	0.	0.32095
9600	12.604	3.2727	0.	0.22733
9601	12.696	3.2727	5.e-002	-7.9145e-006
9602	12.696	3.	0.	0.34865
9603	12.604	3.0909	0.	0.2956
9604	12.696	3.0909	5.e-002	-1.3293e-006
9605	12.696	2.8182	0.	0.32095
9606	12.604	2.9091	0.	0.2956
9607	12.696	2.9091	5.e-002	1.6297e-006
9608	12.696	2.6364	0.	0.21861
9609	12.604	2.7273	0.	0.22733
9610	12.696	2.7273	5.e-002	6.4532e-006
9611	12.696	2.4545	0.	4.8071e-002
9612	12.604	2.5455	0.	7.9401e-002
9613	12.696	2.5455	5.e-002	1.3101e-005
9614	12.696	2.2727	0.	-0.10548
9615	12.604	2.3636	0.	-0.10417
9616	12.696	2.3636	5.e-002	2.7011e-005
9617	12.696	2.0909	0.	-0.23275
9618	12.604	2.1818	0.	-0.23791
9619	12.696	2.1818	5.e-002	7.4403e-005
9620	12.696	1.9091	0.	-0.34558
9621	12.604	2.	0.	-0.33739
9622	12.696	2.	5.e-002	1.0292e-004
9623	12.696	1.7273	0.	-0.36955
9624	12.604	1.8182	0.	-0.37277
9625	12.696	1.8182	5.e-002	9.8e-005
9626	12.696	1.5455	0.	-0.34871
9627	12.604	1.6364	0.	-0.33523
9628	12.696	1.6364	5.e-002	7.6904e-005
9629	12.696	1.3636	0.	-0.32829
9630	12.604	1.4545	0.	-0.30714
9631	12.696	1.4545	5.e-002	5.1465e-005
9632	12.696	1.1818	0.	-0.27741
9633	12.604	1.2727	0.	-0.26382
9634	12.696	1.2727	5.e-002	3.7699e-005
9635	12.696	1.	0.	-0.2085
9636	12.604	1.0909	0.	-0.20797
9637	12.696	1.0909	5.e-002	2.8651e-005
9638	12.696	0.81818	0.	-0.13425
9639	12.604	0.90909	0.	-0.14356
9640	12.696	0.90909	5.e-002	1.5062e-005
9641	12.696	0.63636	0.	-3.678e-002
9642	12.604	0.72727	0.	-7.9193e-002
9643	12.696	0.72727	5.e-002	8.7681e-006
9644	12.696	0.45455	0.	-6.3069e-003
9645	12.604	0.54545	0.	2.7402e-002
9646	12.696	0.54545	5.e-002	4.8603e-006
9647	12.696	0.27273	0.	0.17181
9648	12.604	0.36364	0.	-5.9485e-002
9649	12.696	0.36364	5.e-002	1.2532e-006
9650	12.604	0.18182	0.	0.28125
9651	12.696	0.18182	5.e-002	9.9029e-007
9652	12.696	9.0909e-002	0.	2.5693e-002
9653	12.512	5.7273	0.	8.4344e-002
9654	12.42	5.8182	0.	0.1327
9655	12.512	5.8182	5.e-002	4.0425e-006
9656	12.512	5.9091	0.	-2.2696e-003
9657	12.512	5.5455	0.	-2.2463e-002
9658	12.42	5.6364	0.	-9.6928e-002
9659	12.512	5.6364	5.e-002	2.2516e-006
9660	12.512	5.3636	0.	-1.5706e-002
9661	12.42	5.4545	0.	3.1526e-002
9662	12.512	5.4545	5.e-002	3.2863e-007
9663	12.512	5.1818	0.	-8.9933e-002
9664	12.42	5.2727	0.	-4.9359e-002
9665	12.512	5.2727	5.e-002	-1.0971e-005
9666	12.512	5.	0.	-0.14448
9667	12.42	5.0909	0.	-9.4262e-002
9668	12.512	5.0909	5.e-002	-1.9322e-005
9669	12.512	4.8182	0.	-0.19549
9670	12.42	4.9091	0.	-0.1432
9671	12.512	4.9091	5.e-002	-3.733e-005
9672	12.512	4.6364	0.	-0.2425
9673	12.42	4.7273	0.	-0.18659
9674	12.512	4.7273	5.e-002	-6.8539e-005
9675	12.512	4.4545	0.	-0.2907
9676	12.42	4.5455	0.	-0.23091
9677	12.512	4.5455	5.e-002	-8.8266e-005
9678	12.512	4.2727	0.	-0.33194
9679	12.42	4.3636	0.	-0.27699
9680	12.512	4.3636	5.e-002	-1.3042e-004
9681	12.512	4.0909	0.	-0.35614
9682	12.42	4.1818	0.	-0.31274
9683	12.512	4.1818	5.e-002	-1.6211e-004
9684	12.512	3.9091	0.	-0.33498
9685	12.42	4.	0.	-0.32685
9686	12.512	4.	5.e-002	-1.0949e-004
9687	12.512	3.7273	0.	-0.23003
9688	12.42	3.8182	0.	-0.28376
9689	12.512	3.8182	5.e-002	-7.6911e-005
9690	12.512	3.5455	0.	-6.4672e-002
9691	12.42	3.6364	0.	-0.16787
9692	12.512	3.6364	5.e-002	-4.6406e-005
9693	12.512	3.3636	0.	9.9531e-002
9694	12.42	3.4545	0.	-1.544e-002
9695	12.512	3.4545	5.e-002	-2.4647e-005
9696	12.512	3.1818	0.	0.21656
9697	12.42	3.2727	0.	0.12623
9698	12.512	3.2727	5.e-002	-1.1233e-005
9699	12.512	3.	0.	0.25865
9700	12.42	3.0909	0.	0.21119
9701	12.512	3.0909	5.e-002	-1.4164e-006
9702	12.512	2.8182	0.	0.21656
9703	12.42	2.9091	0.	0.21119
9704	12.512	2.9091	5.e-002	3.4929e-006
9705	12.512	2.6364	0.	9.9531e-002
9706	12.42	2.7273	0.	0.12623
9707	12.512	2.7273	5.e-002	9.7833e-006
9708	12.512	2.4545	0.	-6.4672e-002
9709	12.42	2.5455	0.	-1.5441e-002
9710	12.512	2.5455	5.e-002	1.0779e-005
9711	12.512	2.2727	0.	-0.23003
9712	12.42	2.3636	0.	-0.16787
9713	12.512	2.3636	5.e-002	4.8306e-005
9714	12.512	2.0909	0.	-0.33497
9715	12.42	2.1818	0.	-0.28376
9716	12.512	2.1818	5.e-002	1.8902e-005
9717	12.512	1.9091	0.	-0.35614
9718	12.42	2.	0.	-0.32685
9719	12.512	2.	5.e-002	2.5382e-005
9720	12.512	1.7273	0.	-0.33194
9721	12.42	1.8182	0.	-0.31274
9722	12.512	1.8182	5.e-002	9.5931e-005
9723	12.512	1.5455	0.	-0.2907
9724	12.42	1.6364	0.	-0.27698
9725	12.512	1.6364	5.e-002	8.6433e-005
9726	12.512	1.3636	0.	-0.2425
9727	12.42	1.4545	0.	-0.23091
9728	12.512	1.4545	5.e-002	5.3347e-005
9729	12.512	1.1818	0.	-0.19549
9730	12.42	1.2727	0.	-0.18659
9731	12.512	1.2727	5.e-002	2.3162e-005
9732	12.512	1.	0.	-0.14448
9733	12.42	1.0909	0.	-0.1432
9734	12.512	1.0909	5.e-002	2.2562e-005
9735	12.512	0.81818	0.	-8.9931e-002
9736	12.42	0.90909	0.	-9.426e-002
9737	12.512	0.90909	5.e-002	1.1308e-005
9738	12.512	0.63636	0.	-1.5704e-002
9739	12.42	0.72727	0.	-4.9357e-002
9740	12.512	0.72727	5.e-002	5.5998e-006
9741	12.512	0.45455	0.	-2.2463e-002
9742	12.42	0.54545	0.	3.1527e-002
9743	12.512	0.54545	5.e-002	7.3454e-007
9744	12.512	0.27273	0.	8.4344e-002
9745	12.42	0.36364	0.	-9.6928e-002
9746	12.512	0.36364	5.e-002	8.8227e-007
9747	12.42	0.18182	0.	0.1327
9748	12.512	0.18182	5.e-002	-4.7345e-007
9749	12.512	9.0909e-002	0.	-2.2685e-003
9750	12.328	5.7273	0.	1.4455e-002
9751	12.236	5.8182	0.	1.9823e-002
9752	12.328	5.8182	5.e-002	4.8475e-006
9753	12.328	5.9091	0.	-1.7184e-002
9754	12.328	5.5455	0.	-3.3552e-002
9755	12.236	5.6364	0.	-0.11892
9756	12.328	5.6364	5.e-002	5.2544e-006
9757	12.328	5.3636	0.	4.7373e-004
9758	12.236	5.4545	0.	3.2587e-002
9759	12.328	5.4545	5.e-002	7.3063e-007
9760	12.328	5.1818	0.	-5.3103e-002
9761	12.236	5.2727	0.	-2.6397e-002
9762	12.328	5.2727	5.e-002	-5.0024e-006
9763	12.328	5.	0.	-9.2981e-002
9764	12.236	5.0909	0.	-5.6287e-002
9765	12.328	5.0909	5.e-002	-1.3411e-005
9766	12.328	4.8182	0.	-0.1341
9767	12.236	4.9091	0.	-9.4658e-002
9768	12.328	4.9091	5.e-002	-3.0272e-005
9769	12.328	4.6364	0.	-0.17379
9770	12.236	4.7273	0.	-0.13137
9771	12.328	4.7273	5.e-002	-5.3272e-005
9772	12.328	4.4545	0.	-0.21412
9773	12.236	4.5455	0.	-0.17036
9774	12.328	4.5455	5.e-002	-8.8194e-005
9775	12.328	4.2727	0.	-0.25262
9776	12.236	4.3636	0.	-0.21061
9777	12.328	4.3636	5.e-002	-9.6697e-005
9778	12.328	4.0909	0.	-0.27716
9779	12.236	4.1818	0.	-0.2469
9780	12.328	4.1818	5.e-002	-1.2803e-004
9781	12.328	3.9091	0.	-0.26998
9782	12.236	4.	0.	-0.26373
9783	12.328	4.	5.e-002	-1.2067e-004
9784	12.328	3.7273	0.	-0.21742
9785	12.236	3.8182	0.	-0.24523
9786	12.328	3.8182	5.e-002	-9.5804e-005
9787	12.328	3.5455	0.	-0.11398
9788	12.236	3.6364	0.	-0.17956
9789	12.328	3.6364	5.e-002	-6.2635e-005
9790	12.328	3.3636	0.	2.0742e-002
9791	12.236	3.4545	0.	-6.8126e-002
9792	12.328	3.4545	5.e-002	-2.6325e-005
9793	12.328	3.1818	0.	0.13791
9794	12.236	3.2727	0.	5.835e-002
9795	12.328	3.2727	5.e-002	-1.2793e-005
9796	12.328	3.	0.	0.1847
9797	12.236	3.0909	0.	0.14552
9798	12.328	3.0909	5.e-002	-9.9105e-007
9799	12.328	2.8182	0.	0.13791
9800	12.236	2.9091	0.	0.14552
9801	12.328	2.9091	5.e-002	6.1728e-006
9802	12.328	2.6364	0.	2.0742e-002
9803	12.236	2.7273	0.	5.835e-002
9804	12.328	2.7273	5.e-002	1.2522e-005
9805	12.328	2.4545	0.	-0.11398
9806	12.236	2.5455	0.	-6.8126e-002
9807	12.328	2.5455	5.e-002	1.2033e-005
9808	12.328	2.2727	0.	-0.21742
9809	12.236	2.3636	0.	-0.17956
9810	12.328	2.3636	5.e-002	2.4583e-005
9811	12.328	2.0909	0.	-0.26998
9812	12.236	2.1818	0.	-0.24523
9813	12.328	2.1818	5.e-002	5.06e-005
9814	12.328	1.9091	0.	-0.27716
9815	12.236	2.	0.	-0.26373
9816	12.328	2.	5.e-002	6.0579e-005
9817	12.328	1.7273	0.	-0.25262
9818	12.236	1.8182	0.	-0.2469
9819	12.328	1.8182	5.e-002	1.058e-005
9820	12.328	1.5455	0.	-0.21412
9821	12.236	1.6364	0.	-0.21061
9822	12.328	1.6364	5.e-002	5.7105e-005
9823	12.328	1.3636	0.	-0.17379
9824	12.236	1.4545	0.	-0.17036
9825	12.328	1.4545	5.e-002	4.4812e-005
9826	12.328	1.1818	0.	-0.1341
9827	12.236	1.2727	0.	-0.13137
9828	12.328	1.2727	5.e-002	2.4631e-005
9829	12.328	1.	0.	-9.298e-002
9830	12.236	1.0909	0.	-9.4657e-002
9831	12.328	1.0909	5.e-002	1.8928e-005
9832	12.328	0.81818	0.	-5.3101e-002
9833	12.236	0.90909	0.	-5.6285e-002
9834	12.328	0.90909	5.e-002	8.4601e-006
9835	12.328	0.63636	0.	4.7534e-004
9836	12.236	0.72727	0.	-2.6394e-002
9837	12.328	0.72727	5.e-002	3.2868e-006
9838	12.328	0.45455	0.	-3.3551e-002
9839	12.236	0.54545	0.	3.2587e-002
9840	12.328	0.54545	5.e-002	2.2432e-006
9841	12.328	0.27273	0.	1.4455e-002
9842	12.236	0.36364	0.	-0.11892
9843	12.328	0.36364	5.e-002	7.1148e-007
9844	12.236	0.18182	0.	1.9823e-002
9845	12.328	0.18182	5.e-002	-1.7784e-007
9846	12.328	9.0909e-002	0.	-1.7183e-002
9847	12.144	5.7273	0.	-3.4543e-002
9848	12.052	5.8182	0.	-5.4091e-002
9849	12.144	5.8182	5.e-002	6.8392e-006
9850	12.144	5.9091	0.	-2.4913e-002
9851	12.144	5.5455	0.	-4.0608e-002
9852	12.052	5.6364	0.	-0.12805
9853	12.144	5.6364	5.e-002	7.4791e-006
9854	12.144	5.3636	0.	9.9482e-003
9855	12.052	5.4545	0.	3.1334e-002
9856	12.144	5.4545	5.e-002	5.0567e-006
9857	12.144	5.1818	0.	-2.7808e-002
9858	12.052	5.2727	0.	-1.0648e-002
9859	12.144	5.2727	5.e-002	-1.3746e-006
9860	12.144	5.	0.	-5.7012e-002
9861	12.052	5.0909	0.	-2.9906e-002
9862	12.144	5.0909	5.e-002	-1.1858e-005
9863	12.144	4.8182	0.	-9.0974e-002
9864	12.052	4.9091	0.	-6.0275e-002
9865	12.144	4.9091	5.e-002	-2.266e-005
9866	12.144	4.6364	0.	-0.12633
9867	12.052	4.7273	0.	-9.1569e-002
9868	12.144	4.7273	5.e-002	-4.6813e-005
9869	12.144	4.4545	0.	-0.16409
9870	12.052	4.5455	0.	-0.12632
9871	12.144	4.5455	5.e-002	-6.0131e-005
9872	12.144	4.2727	0.	-0.20086
9873	12.052	4.3636	0.	-0.16281
9874	12.144	4.3636	5.e-002	-8.082e-005
9875	12.144	4.0909	0.	-0.2287
9876	12.052	4.1818	0.	-0.19615
9877	12.144	4.1818	5.e-002	-9.518e-005
9878	12.144	3.9091	0.	-0.23456
9879	12.052	4.	0.	-0.21705
9880	12.144	4.	5.e-002	-1.2551e-004
9881	12.144	3.7273	0.	-0.20427
9882	12.052	3.8182	0.	-0.21257
9883	12.144	3.8182	5.e-002	-8.3933e-005
9884	12.144	3.5455	0.	-0.13105
9885	12.052	3.6364	0.	-0.17124
9886	12.144	3.6364	5.e-002	-8.6195e-005
9887	12.144	3.3636	0.	-2.3577e-002
9888	12.052	3.4545	0.	-8.9937e-002
9889	12.144	3.4545	5.e-002	-3.8069e-005
9890	12.144	3.1818	0.	8.306e-002
9891	12.052	3.2727	0.	1.595e-002
9892	12.144	3.2727	5.e-002	-1.685e-005
9893	12.144	3.	0.	0.12981
9894	12.052	3.0909	0.	9.8396e-002
9895	12.144	3.0909	5.e-002	8.1015e-007
9896	12.144	2.8182	0.	8.306e-002
9897	12.052	2.9091	0.	9.8396e-002
9898	12.144	2.9091	5.e-002	7.9182e-006
9899	12.144	2.6364	0.	-2.3577e-002
9900	12.052	2.7273	0.	1.595e-002
9901	12.144	2.7273	5.e-002	1.3585e-005
9902	12.144	2.4545	0.	-0.13105
9903	12.052	2.5455	0.	-8.9937e-002
9904	12.144	2.5455	5.e-002	1.4329e-005
9905	12.144	2.2727	0.	-0.20427
9906	12.052	2.3636	0.	-0.17124
9907	12.144	2.3636	5.e-002	7.2632e-005
9908	12.144	2.0909	0.	-0.23455
9909	12.052	2.1818	0.	-0.21257
9910	12.144	2.1818	5.e-002	6.2986e-007
9911	12.144	1.9091	0.	-0.22869
9912	12.052	2.	0.	-0.21705
9913	12.144	2.	5.e-002	3.1605e-005
9914	12.144	1.7273	0.	-0.20086
9915	12.052	1.8182	0.	-0.19615
9916	12.144	1.8182	5.e-002	8.1682e-005
9917	12.144	1.5455	0.	-0.16409
9918	12.052	1.6364	0.	-0.16281
9919	12.144	1.6364	5.e-002	4.8345e-005
9920	12.144	1.3636	0.	-0.12633
9921	12.052	1.4545	0.	-0.12632
9922	12.144	1.4545	5.e-002	3.0888e-005
9923	12.144	1.1818	0.	-9.0973e-002
9924	12.052	1.2727	0.	-9.1569e-002
9925	12.144	1.2727	5.e-002	2.442e-005
9926	12.144	1.	0.	-5.701e-002
9927	12.052	1.0909	0.	-6.0274e-002
9928	12.144	1.0909	5.e-002	1.3104e-005
9929	12.144	0.81818	0.	-2.7806e-002
9930	12.052	0.90909	0.	-2.9904e-002
9931	12.144	0.90909	5.e-002	3.4469e-006
9932	12.144	0.63636	0.	9.9497e-003
9933	12.052	0.72727	0.	-1.0646e-002
9934	12.144	0.72727	5.e-002	3.3333e-006
9935	12.144	0.45455	0.	-4.0607e-002
9936	12.052	0.54545	0.	3.1335e-002
9937	12.144	0.54545	5.e-002	-6.3172e-009
9938	12.144	0.27273	0.	-3.4543e-002
9939	12.052	0.36364	0.	-0.12805
9940	12.144	0.36364	5.e-002	-2.6937e-006
9941	12.052	0.18182	0.	-5.4091e-002
9942	12.144	0.18182	5.e-002	-6.8587e-007
9943	12.144	9.0909e-002	0.	-2.4913e-002
9944	11.96	5.7273	0.	-6.3761e-002
9945	11.868	5.8182	0.	-9.4636e-002
9946	11.96	5.8182	5.e-002	4.9345e-006
9947	11.96	5.9091	0.	-2.6642e-002
9948	11.96	5.5455	0.	-4.3083e-002
9949	11.868	5.6364	0.	-0.1275
9950	11.96	5.6364	5.e-002	7.8976e-006
9951	11.96	5.3636	0.	1.5599e-002
9952	11.868	5.4545	0.	2.9129e-002
9953	11.96	5.4545	5.e-002	8.3413e-006
9954	11.96	5.1818	0.	-1.0402e-002
9955	11.868	5.2727	0.	-1.2175e-004
9956	11.96	5.2727	5.e-002	-3.1494e-007
9957	11.96	5.	0.	-3.1714e-002
9958	11.868	5.0909	0.	-1.1903e-002
9959	11.96	5.0909	5.e-002	-6.2152e-006
9960	11.96	4.8182	0.	-5.9563e-002
9961	11.868	4.9091	0.	-3.5928e-002
9962	11.96	4.9091	5.e-002	-1.61e-005
9963	11.96	4.6364	0.	-8.9888e-002
9964	11.868	4.7273	0.	-6.2152e-002
9965	11.96	4.7273	5.e-002	-3.5987e-005
9966	11.96	4.4545	0.	-0.12268
9967	11.868	4.5455	0.	-9.2005e-002
9968	11.96	4.5455	5.e-002	-4.9951e-005
9969	11.96	4.2727	0.	-0.15494
9970	11.868	4.3636	0.	-0.12341
9971	11.96	4.3636	5.e-002	-8.3622e-005
9972	11.96	4.0909	0.	-0.18081
9973	11.868	4.1818	0.	-0.15268
9974	11.96	4.1818	5.e-002	-1.0354e-004
9975	11.96	3.9091	0.	-0.19153
9976	11.868	4.	0.	-0.17315
9977	11.96	4.	5.e-002	-6.3388e-005
9978	11.96	3.7273	0.	-0.17703
9979	11.868	3.8182	0.	-0.17616
9980	11.96	3.8182	5.e-002	-1.2265e-004
9981	11.96	3.5455	0.	-0.12854
9982	11.868	3.6364	0.	-0.15224
9983	11.96	3.6364	5.e-002	-5.4262e-005
9984	11.96	3.3636	0.	-4.5738e-002
9985	11.868	3.4545	0.	-9.4352e-002
9986	11.96	3.4545	5.e-002	-7.9262e-005
9987	11.96	3.1818	0.	4.6971e-002
9988	11.868	3.2727	0.	-8.3857e-003
9989	11.96	3.2727	5.e-002	-1.9909e-005
9990	11.96	3.	0.	9.0962e-002
9991	11.868	3.0909	0.	6.5949e-002
9992	11.96	3.0909	5.e-002	1.4026e-007
9993	11.96	2.8182	0.	4.6971e-002
9994	11.868	2.9091	0.	6.5948e-002
9995	11.96	2.9091	5.e-002	8.5258e-006
9996	11.96	2.6364	0.	-4.5738e-002
9997	11.868	2.7273	0.	-8.3855e-003
9998	11.96	2.7273	5.e-002	5.6774e-006
9999	11.96	2.4545	0.	-0.12854
10000	11.868	2.5455	0.	-9.4352e-002
10001	11.96	2.5455	5.e-002	1.0534e-005
10002	11.96	2.2727	0.	-0.17703
10003	11.868	2.3636	0.	-0.15224
10004	11.96	2.3636	5.e-002	3.9006e-006
10005	11.96	2.0909	0.	-0.19153
10006	11.868	2.1818	0.	-0.17616
10007	11.96	2.1818	5.e-002	3.0117e-005
10008	11.96	1.9091	0.	-0.18081
10009	11.868	2.	0.	-0.17315
10010	11.96	2.	5.e-002	5.5743e-005
10011	11.96	1.7273	0.	-0.15494
10012	11.868	1.8182	0.	-0.15268
10013	11.96	1.8182	5.e-002	2.5911e-005
10014	11.96	1.5455	0.	-0.12268
10015	11.868	1.6364	0.	-0.12341
10016	11.96	1.6364	5.e-002	9.9501e-006
10017	11.96	1.3636	0.	-8.9887e-002
10018	11.868	1.4545	0.	-9.2004e-002
10019	11.96	1.4545	5.e-002	1.824e-005
10020	11.96	1.1818	0.	-5.9562e-002
10021	11.868	1.2727	0.	-6.2151e-002
10022	11.96	1.2727	5.e-002	1.2336e-005
10023	11.96	1.	0.	-3.1713e-002
10024	11.868	1.0909	0.	-3.5927e-002
10025	11.96	1.0909	5.e-002	1.3177e-005
10026	11.96	0.81818	0.	-1.04e-002
10027	11.868	0.90909	0.	-1.1901e-002
10028	11.96	0.90909	5.e-002	3.2297e-006
10029	11.96	0.63636	0.	1.56e-002
10030	11.868	0.72727	0.	-1.2037e-004
10031	11.96	0.72727	5.e-002	-3.6978e-008
10032	11.96	0.45455	0.	-4.3083e-002
10033	11.868	0.54545	0.	2.9129e-002
10034	11.96	0.54545	5.e-002	-3.0532e-006
10035	11.96	0.27273	0.	-6.3761e-002
10036	11.868	0.36364	0.	-0.1275
10037	11.96	0.36364	5.e-002	-3.5813e-006
10038	11.868	0.18182	0.	-9.4636e-002
10039	11.96	0.18182	5.e-002	6.9385e-008
10040	11.96	9.0909e-002	0.	-2.6641e-002
10041	11.776	5.7273	0.	-7.8128e-002
10042	11.684	5.8182	0.	-0.11076
10043	11.776	5.8182	5.e-002	3.2634e-006
10044	11.776	5.9091	0.	-2.4787e-002
10045	11.776	5.5455	0.	-4.255e-002
10046	11.684	5.6364	0.	-0.1208
10047	11.776	5.6364	5.e-002	6.3385e-006
10048	11.776	5.3636	0.	1.8318e-002
10049	11.684	5.4545	0.	2.6355e-002
10050	11.776	5.4545	5.e-002	7.4438e-006
10051	11.776	5.1818	0.	8.9337e-004
10052	11.684	5.2727	0.	6.4508e-003
10053	11.776	5.2727	5.e-002	3.6627e-006
10054	11.776	5.	0.	-1.4472e-002
10055	11.684	5.0909	0.	-1.1302e-004
10056	11.776	5.0909	5.e-002	-1.4961e-006
10057	11.776	4.8182	0.	-3.7102e-002
10058	11.684	4.9091	0.	-1.8969e-002
10059	11.776	4.9091	5.e-002	-8.6638e-006
10060	11.776	4.6364	0.	-6.2692e-002
10061	11.684	4.7273	0.	-4.064e-002
10062	11.776	4.7273	5.e-002	-2.6828e-005
10063	11.776	4.4545	0.	-9.0738e-002
10064	11.684	4.5455	0.	-6.5832e-002
10065	11.776	4.5455	5.e-002	-4.2307e-005
10066	11.776	4.2727	0.	-0.11863
10067	11.684	4.3636	0.	-9.2484e-002
10068	11.776	4.3636	5.e-002	-3.9151e-005
10069	11.776	4.0909	0.	-0.14211
10070	11.684	4.1818	0.	-0.11773
10071	11.776	4.1818	5.e-002	-6.5123e-005
10072	11.776	3.9091	0.	-0.1549
10073	11.684	4.	0.	-0.13689
10074	11.776	4.	5.e-002	-9.8006e-005
10075	11.776	3.7273	0.	-0.14924
10076	11.684	3.8182	0.	-0.14365
10077	11.776	3.8182	5.e-002	-8.5635e-005
10078	11.776	3.5455	0.	-0.11702
10079	11.684	3.6364	0.	-0.13039
10080	11.776	3.6364	5.e-002	-1.2154e-004
10081	11.776	3.3636	0.	-5.4078e-002
10082	11.684	3.4545	0.	-8.9517e-002
10083	11.776	3.4545	5.e-002	-8.7449e-005
10084	11.776	3.1818	0.	2.4164e-002
10085	11.684	3.2727	0.	-2.1071e-002
10086	11.776	3.2727	5.e-002	-6.1159e-005
10087	11.776	3.	0.	6.4008e-002
10088	11.684	3.0909	0.	4.4036e-002
10089	11.776	3.0909	5.e-002	-4.1933e-006
10090	11.776	2.8182	0.	2.4164e-002
10091	11.684	2.9091	0.	4.4036e-002
10092	11.776	2.9091	5.e-002	8.9261e-006
10093	11.776	2.6364	0.	-5.4078e-002
10094	11.684	2.7273	0.	-2.107e-002
10095	11.776	2.7273	5.e-002	1.2932e-005
10096	11.776	2.4545	0.	-0.11702
10097	11.684	2.5455	0.	-8.9517e-002
10098	11.776	2.5455	5.e-002	4.8628e-006
10099	11.776	2.2727	0.	-0.14924
10100	11.684	2.3636	0.	-0.13039
10101	11.776	2.3636	5.e-002	2.9276e-005
10102	11.776	2.0909	0.	-0.1549
10103	11.684	2.1818	0.	-0.14365
10104	11.776	2.1818	5.e-002	2.5791e-005
10105	11.776	1.9091	0.	-0.14211
10106	11.684	2.	0.	-0.13689
10107	11.776	2.	5.e-002	2.3093e-005
10108	11.776	1.7273	0.	-0.11863
10109	11.684	1.8182	0.	-0.11773
10110	11.776	1.8182	5.e-002	5.4427e-005
10111	11.776	1.5455	0.	-9.0738e-002
10112	11.684	1.6364	0.	-9.2483e-002
10113	11.776	1.6364	5.e-002	4.1113e-005
10114	11.776	1.3636	0.	-6.2692e-002
10115	11.684	1.4545	0.	-6.5832e-002
10116	11.776	1.4545	5.e-002	2.2848e-005
10117	11.776	1.1818	0.	-3.7101e-002
10118	11.684	1.2727	0.	-4.0639e-002
10119	11.776	1.2727	5.e-002	1.1921e-005
10120	11.776	1.	0.	-1.4471e-002
10121	11.684	1.0909	0.	-1.8968e-002
10122	11.776	1.0909	5.e-002	5.4185e-006
10123	11.776	0.81818	0.	8.9471e-004
10124	11.684	0.90909	0.	-1.1148e-004
10125	11.776	0.90909	5.e-002	3.7249e-006
10126	11.776	0.63636	0.	1.8318e-002
10127	11.684	0.72727	0.	6.4519e-003
10128	11.776	0.72727	5.e-002	-1.8214e-006
10129	11.776	0.45455	0.	-4.2549e-002
10130	11.684	0.54545	0.	2.6355e-002
10131	11.776	0.54545	5.e-002	-3.0845e-006
10132	11.776	0.27273	0.	-7.8127e-002
10133	11.684	0.36364	0.	-0.12079
10134	11.776	0.36364	5.e-002	-5.8323e-008
10135	11.684	0.18182	0.	-0.11076
10136	11.776	0.18182	5.e-002	1.5886e-006
10137	11.776	9.0909e-002	0.	-2.4787e-002
10138	11.592	5.7273	0.	-8.2179e-002
10139	11.5	5.8182	0.	-0.11078
10140	11.592	5.8182	5.e-002	4.937e-006
10141	11.592	5.9091	0.	-2.0906e-002
10142	11.592	5.5455	0.	-4.0091e-002
10143	11.5	5.6364	0.	-0.11057
10144	11.592	5.6364	5.e-002	6.9766e-006
10145	11.592	5.3636	0.	1.9128e-002
10146	11.5	5.4545	0.	2.3374e-002
10147	11.592	5.4545	5.e-002	8.5412e-006
10148	11.592	5.1818	0.	7.8999e-003
10149	11.5	5.2727	0.	1.0257e-002
10150	11.592	5.2727	5.e-002	4.4306e-006
10151	11.592	5.	0.	-2.9656e-003
10152	11.5	5.0909	0.	7.2884e-003
10153	11.592	5.0909	5.e-002	-2.2082e-006
10154	11.592	4.8182	0.	-2.1124e-002
10155	11.5	4.9091	0.	-7.3628e-003
10156	11.592	4.9091	5.e-002	-5.4919e-006
10157	11.592	4.6364	0.	-4.2347e-002
10158	11.5	4.7273	0.	-2.5034e-002
10159	11.592	4.7273	5.e-002	-1.7403e-005
10160	11.592	4.4545	0.	-6.5896e-002
10161	11.5	4.5455	0.	-4.6001e-002
10162	11.592	4.5455	5.e-002	-2.6518e-005
10163	11.592	4.2727	0.	-8.9559e-002
10164	11.5	4.3636	0.	-6.835e-002
10165	11.592	4.3636	5.e-002	-4.5944e-005
10166	11.592	4.0909	0.	-0.11018
10167	11.5	4.1818	0.	-8.9869e-002
10168	11.592	4.1818	5.e-002	-3.4828e-005
10169	11.592	3.9091	0.	-0.12327
10170	11.5	4.	0.	-0.10716
10171	11.592	4.	5.e-002	-5.6494e-005
10172	11.592	3.7273	0.	-0.12295
10173	11.5	3.8182	0.	-0.11565
10174	11.592	3.8182	5.e-002	-6.4479e-005
10175	11.592	3.5455	0.	-0.10211
10176	11.5	3.6364	0.	-0.10933
10177	11.592	3.6364	5.e-002	-2.3933e-005
10178	11.592	3.3636	0.	-5.4834e-002
10179	11.5	3.4545	0.	-8.0934e-002
10180	11.592	3.4545	5.e-002	-5.242e-005
10181	11.592	3.1818	0.	1.0089e-002
10182	11.5	3.2727	0.	-2.7052e-002
10183	11.592	3.2727	5.e-002	-2.7456e-005
10184	11.592	3.	0.	4.5451e-002
10185	11.5	3.0909	0.	2.9292e-002
10186	11.592	3.0909	5.e-002	-6.172e-005
10187	11.592	2.8182	0.	1.0089e-002
10188	11.5	2.9091	0.	2.9292e-002
10189	11.592	2.9091	5.e-002	-5.9832e-005
10190	11.592	2.6364	0.	-5.4834e-002
10191	11.5	2.7273	0.	-2.7052e-002
10192	11.592	2.7273	5.e-002	-3.0986e-006
10193	11.592	2.4545	0.	-0.10211
10194	11.5	2.5455	0.	-8.0934e-002
10195	11.592	2.5455	5.e-002	-4.7284e-006
10196	11.592	2.2727	0.	-0.12295
10197	11.5	2.3636	0.	-0.10933
10198	11.592	2.3636	5.e-002	-4.481e-006
10199	11.592	2.0909	0.	-0.12327
10200	11.5	2.1818	0.	-0.11565
10201	11.592	2.1818	5.e-002	-2.9633e-006
10202	11.592	1.9091	0.	-0.11018
10203	11.5	2.	0.	-0.10716
10204	11.592	2.	5.e-002	3.3064e-005
10205	11.592	1.7273	0.	-8.9558e-002
10206	11.5	1.8182	0.	-8.9869e-002
10207	11.592	1.8182	5.e-002	3.9013e-005
10208	11.592	1.5455	0.	-6.5895e-002
10209	11.5	1.6364	0.	-6.8349e-002
10210	11.592	1.6364	5.e-002	2.0317e-005
10211	11.592	1.3636	0.	-4.2346e-002
10212	11.5	1.4545	0.	-4.6001e-002
10213	11.592	1.4545	5.e-002	9.696e-006
10214	11.592	1.1818	0.	-2.1123e-002
10215	11.5	1.2727	0.	-2.5033e-002
10216	11.592	1.2727	5.e-002	8.624e-006
10217	11.592	1.	0.	-2.9645e-003
10218	11.5	1.0909	0.	-7.362e-003
10219	11.592	1.0909	5.e-002	2.7328e-006
10220	11.592	0.81818	0.	7.9011e-003
10221	11.5	0.90909	0.	7.2897e-003
10222	11.592	0.90909	5.e-002	1.0109e-006
10223	11.592	0.63636	0.	1.9128e-002
10224	11.5	0.72727	0.	1.0259e-002
10225	11.592	0.72727	5.e-002	-1.449e-006
10226	11.592	0.45455	0.	-4.009e-002
10227	11.5	0.54545	0.	2.3375e-002
10228	11.592	0.54545	5.e-002	-2.1482e-006
10229	11.592	0.27273	0.	-8.2178e-002
10230	11.5	0.36364	0.	-0.11056
10231	11.592	0.36364	5.e-002	-2.1888e-006
10232	11.5	0.18182	0.	-0.11078
10233	11.592	0.18182	5.e-002	-1.2162e-006
10234	11.592	9.0909e-002	0.	-2.0906e-002
10235	11.408	5.7273	0.	-7.965e-002
10236	11.316	5.8182	0.	-0.10134
10237	11.408	5.8182	5.e-002	1.4135e-006
10238	11.408	5.9091	0.	-1.615e-002
10239	11.408	5.5455	0.	-3.6565e-002
10240	11.316	5.6364	0.	-9.8659e-002
10241	11.408	5.6364	5.e-002	7.078e-006
10242	11.408	5.3636	0.	1.8718e-002
10243	11.316	5.4545	0.	2.0419e-002
10244	11.408	5.4545	5.e-002	8.092e-006
10245	11.408	5.1818	0.	1.1919e-002
10246	11.316	5.2727	0.	1.2178e-002
10247	11.408	5.2727	5.e-002	6.0603e-006
10248	11.408	5.	0.	4.4356e-003
10249	11.316	5.0909	0.	1.163e-002
10250	11.408	5.0909	5.e-002	3.4523e-006
10251	11.408	4.8182	0.	-9.9901e-003
10252	11.316	4.9091	0.	3.5605e-004
10253	11.408	4.9091	5.e-002	-4.9885e-006
10254	11.408	4.6364	0.	-2.7414e-002
10255	11.316	4.7273	0.	-1.3932e-002
10256	11.408	4.7273	5.e-002	-1.3543e-005
10257	11.408	4.4545	0.	-4.7028e-002
10258	11.316	4.5455	0.	-3.1261e-002
10259	11.408	4.5455	5.e-002	-1.8745e-005
10260	11.408	4.2727	0.	-6.6988e-002
10261	11.316	4.3636	0.	-4.9936e-002
10262	11.408	4.3636	5.e-002	-2.6764e-005
10263	11.408	4.0909	0.	-8.4926e-002
10264	11.316	4.1818	0.	-6.8239e-002
10265	11.408	4.1818	5.e-002	-4.1667e-005
10266	11.408	3.9091	0.	-9.7538e-002
10267	11.316	4.	0.	-8.3678e-002
10268	11.408	4.	5.e-002	-4.917e-005
10269	11.408	3.7273	0.	-0.10038
10270	11.316	3.8182	0.	-9.29e-002
10271	11.408	3.8182	5.e-002	-2.8159e-005
10272	11.408	3.5455	0.	-8.747e-002
10273	11.316	3.6364	0.	-9.1226e-002
10274	11.408	3.6364	5.e-002	-2.6855e-005
10275	11.408	3.3636	0.	-5.2341e-002
10276	11.316	3.4545	0.	-7.2133e-002
10277	11.408	3.4545	5.e-002	5.7553e-006
10278	11.408	3.1818	0.	1.2705e-003
10279	11.316	3.2727	0.	-3.0034e-002
10280	11.408	3.2727	5.e-002	-1.3318e-005
10281	11.408	3.	0.	3.268e-002
10282	11.316	3.0909	0.	1.9176e-002
10283	11.408	3.0909	5.e-002	7.4811e-006
10284	11.408	2.8182	0.	1.2706e-003
10285	11.316	2.9091	0.	1.9176e-002
10286	11.408	2.9091	5.e-002	-7.7691e-007
10287	11.408	2.6364	0.	-5.2341e-002
10288	11.316	2.7273	0.	-3.0034e-002
10289	11.408	2.7273	5.e-002	-2.6395e-005
10290	11.408	2.4545	0.	-8.747e-002
10291	11.316	2.5455	0.	-7.2133e-002
10292	11.408	2.5455	5.e-002	-5.0799e-006
10293	11.408	2.2727	0.	-0.10038
10294	11.316	2.3636	0.	-9.1226e-002
10295	11.408	2.3636	5.e-002	1.0791e-005
10296	11.408	2.0909	0.	-9.7538e-002
10297	11.316	2.1818	0.	-9.2899e-002
10298	11.408	2.1818	5.e-002	2.4253e-005
10299	11.408	1.9091	0.	-8.4925e-002
10300	11.316	2.	0.	-8.3677e-002
10301	11.408	2.	5.e-002	1.0719e-005
10302	11.408	1.7273	0.	-6.6987e-002
10303	11.316	1.8182	0.	-6.8238e-002
10304	11.408	1.8182	5.e-002	9.9746e-006
10305	11.408	1.5455	0.	-4.7028e-002
10306	11.316	1.6364	0.	-4.9935e-002
10307	11.408	1.6364	5.e-002	3.3814e-006
10308	11.408	1.3636	0.	-2.7413e-002
10309	11.316	1.4545	0.	-3.126e-002
10310	11.408	1.4545	5.e-002	6.9237e-006
10311	11.408	1.1818	0.	-9.9888e-003
10312	11.316	1.2727	0.	-1.393e-002
10313	11.408	1.2727	5.e-002	4.9061e-006
10314	11.408	1.	0.	4.4366e-003
10315	11.316	1.0909	0.	3.5683e-004
10316	11.408	1.0909	5.e-002	5.953e-006
10317	11.408	0.81818	0.	1.1921e-002
10318	11.316	0.90909	0.	1.1631e-002
10319	11.408	0.90909	5.e-002	-2.9154e-006
10320	11.408	0.63636	0.	1.8719e-002
10321	11.316	0.72727	0.	1.218e-002
10322	11.408	0.72727	5.e-002	-2.8732e-006
10323	11.408	0.45455	0.	-3.6564e-002
10324	11.316	0.54545	0.	2.042e-002
10325	11.408	0.54545	5.e-002	-1.1554e-006
10326	11.408	0.27273	0.	-7.9649e-002
10327	11.316	0.36364	0.	-9.8659e-002
10328	11.408	0.36364	5.e-002	-1.4173e-006
10329	11.316	0.18182	0.	-0.10134
10330	11.408	0.18182	5.e-002	3.6119e-006
10331	11.408	9.0909e-002	0.	-1.6149e-002
10332	11.224	5.7273	0.	-7.3268e-002
10333	11.132	5.8182	0.	-8.7197e-002
10334	11.224	5.8182	5.e-002	1.5717e-006
10335	11.224	5.9091	0.	-1.1252e-002
10336	11.224	5.5455	0.	-3.2525e-002
10337	11.132	5.6364	0.	-8.6271e-002
10338	11.224	5.6364	5.e-002	5.2772e-006
10339	11.224	5.3636	0.	1.7607e-002
10340	11.132	5.4545	0.	1.7651e-002
10341	11.224	5.4545	5.e-002	6.5483e-006
10342	11.224	5.1818	0.	1.3928e-002
10343	11.132	5.2727	0.	1.2872e-002
10344	11.224	5.2727	5.e-002	5.6362e-006
10345	11.224	5.	0.	8.9498e-003
10346	11.132	5.0909	0.	1.3885e-002
10347	11.224	5.0909	5.e-002	1.5182e-006
10348	11.224	4.8182	0.	-2.4282e-003
10349	11.132	4.9091	0.	5.2788e-003
10350	11.224	4.9091	5.e-002	-1.5973e-006
10351	11.224	4.6364	0.	-1.6655e-002
10352	11.132	4.7273	0.	-6.2258e-003
10353	11.224	4.7273	5.e-002	-7.7645e-006
10354	11.224	4.4545	0.	-3.2945e-002
10355	11.132	4.5455	0.	-2.0527e-002
10356	11.224	4.5455	5.e-002	-8.3735e-006
10357	11.224	4.2727	0.	-4.9775e-002
10358	11.132	4.3636	0.	-3.6167e-002
10359	11.224	4.3636	5.e-002	-1.7629e-005
10360	11.224	4.0909	0.	-6.536e-002
10361	11.132	4.1818	0.	-5.1817e-002
10362	11.224	4.1818	5.e-002	-1.5852e-005
10363	11.224	3.9091	0.	-7.7274e-002
10364	11.132	4.	0.	-6.5655e-002
10365	11.224	4.	5.e-002	-3.0873e-005
10366	11.224	3.7273	0.	-8.2174e-002
10367	11.132	3.8182	0.	-7.5266e-002
10368	11.224	3.8182	5.e-002	-7.8476e-006
10369	11.224	3.5455	0.	-7.5167e-002
10370	11.132	3.6364	0.	-7.7109e-002
10371	11.224	3.6364	5.e-002	3.5412e-006
10372	11.224	3.3636	0.	-4.9661e-002
10373	11.132	3.4545	0.	-6.5539e-002
10374	11.224	3.4545	5.e-002	-8.8622e-007
10375	11.224	3.1818	0.	-5.0124e-003
10376	11.132	3.2727	0.	-3.317e-002
10377	11.224	3.2727	5.e-002	3.5064e-006
10378	11.224	3.	0.	2.3861e-002
10379	11.132	3.0909	0.	1.1651e-002
10380	11.224	3.0909	5.e-002	6.6935e-006
10381	11.224	2.8182	0.	-5.0122e-003
10382	11.132	2.9091	0.	1.1652e-002
10383	11.224	2.9091	5.e-002	3.8775e-006
10384	11.224	2.6364	0.	-4.9661e-002
10385	11.132	2.7273	0.	-3.317e-002
10386	11.224	2.7273	5.e-002	-3.1047e-006
10387	11.224	2.4545	0.	-7.5167e-002
10388	11.132	2.5455	0.	-6.5539e-002
10389	11.224	2.5455	5.e-002	-1.1701e-006
10390	11.224	2.2727	0.	-8.2173e-002
10391	11.132	2.3636	0.	-7.7109e-002
10392	11.224	2.3636	5.e-002	-1.1967e-006
10393	11.224	2.0909	0.	-7.7272e-002
10394	11.132	2.1818	0.	-7.5265e-002
10395	11.224	2.1818	5.e-002	-2.878e-008
10396	11.224	1.9091	0.	-6.5359e-002
10397	11.132	2.	0.	-6.5655e-002
10398	11.224	2.	5.e-002	1.4202e-005
10399	11.224	1.7273	0.	-4.9775e-002
10400	11.132	1.8182	0.	-5.1816e-002
10401	11.224	1.8182	5.e-002	1.0129e-006
10402	11.224	1.5455	0.	-3.2944e-002
10403	11.132	1.6364	0.	-3.6166e-002
10404	11.224	1.6364	5.e-002	5.9598e-006
10405	11.224	1.3636	0.	-1.6654e-002
10406	11.132	1.4545	0.	-2.0527e-002
10407	11.224	1.4545	5.e-002	5.803e-006
10408	11.224	1.1818	0.	-2.4274e-003
10409	11.132	1.2727	0.	-6.2248e-003
10410	11.224	1.2727	5.e-002	1.3904e-006
10411	11.224	1.	0.	8.9508e-003
10412	11.132	1.0909	0.	5.2794e-003
10413	11.224	1.0909	5.e-002	7.3349e-007
10414	11.224	0.81818	0.	1.393e-002
10415	11.132	0.90909	0.	1.3887e-002
10416	11.224	0.90909	5.e-002	-9.3558e-007
10417	11.224	0.63636	0.	1.7608e-002
10418	11.132	0.72727	0.	1.2872e-002
10419	11.224	0.72727	5.e-002	-4.1177e-006
10420	11.224	0.45455	0.	-3.2524e-002
10421	11.132	0.54545	0.	1.7651e-002
10422	11.224	0.54545	5.e-002	-3.1892e-006
10423	11.224	0.27273	0.	-7.3268e-002
10424	11.132	0.36364	0.	-8.627e-002
10425	11.224	0.36364	5.e-002	-1.8735e-006
10426	11.132	0.18182	0.	-8.7196e-002
10427	11.224	0.18182	5.e-002	3.2383e-006
10428	11.224	9.0909e-002	0.	-1.125e-002
10429	11.04	5.7273	0.	-6.4921e-002
10430	10.948	5.8182	0.	-7.1534e-002
10431	11.04	5.8182	5.e-002	-6.5083e-007
10432	11.04	5.9091	0.	-6.6506e-003
10433	11.04	5.5455	0.	-2.8322e-002
10434	10.948	5.6364	0.	-7.4125e-002
10435	11.04	5.6364	5.e-002	6.0614e-006
10436	11.04	5.3636	0.	1.6151e-002
10437	10.948	5.4545	0.	1.5166e-002
10438	11.04	5.4545	5.e-002	7.3029e-006
10439	11.04	5.1818	0.	1.4622e-002
10440	10.948	5.2727	0.	1.2804e-002
10441	11.04	5.2727	5.e-002	4.5918e-006
10442	11.04	5.	0.	1.1457e-002
10443	10.948	5.0909	0.	1.4752e-002
10444	11.04	5.0909	5.e-002	3.5279e-006
10445	11.04	4.8182	0.	2.5105e-003
10446	10.948	4.9091	0.	8.2106e-003
10447	11.04	4.9091	5.e-002	-1.4508e-006
10448	11.04	4.6364	0.	-9.107e-003
10449	10.948	4.7273	0.	-1.0662e-003
10450	11.04	4.7273	5.e-002	-5.9571e-006
10451	11.04	4.4545	0.	-2.2681e-002
10452	10.948	4.5455	0.	-1.2922e-002
10453	11.04	4.5455	5.e-002	-4.8861e-006
10454	11.04	4.2727	0.	-3.6979e-002
10455	10.948	4.3636	0.	-2.614e-002
10456	11.04	4.3636	5.e-002	-1.0924e-005
10457	11.04	4.0909	0.	-5.0669e-002
10458	10.948	4.1818	0.	-3.9722e-002
10459	11.04	4.1818	5.e-002	-1.703e-005
10460	11.04	3.9091	0.	-6.2013e-002
10461	10.948	4.	0.	-5.2391e-002
10462	11.04	4.	5.e-002	-1.3721e-005
10463	11.04	3.7273	0.	-6.8602e-002
10464	10.948	3.8182	0.	-6.2534e-002
10465	11.04	3.8182	5.e-002	-1.2792e-005
10466	11.04	3.5455	0.	-6.6609e-002
10467	10.948	3.6364	0.	-6.7757e-002
10468	11.04	3.6364	5.e-002	-8.5916e-006
10469	11.04	3.3636	0.	-4.9538e-002
10470	10.948	3.4545	0.	-6.3671e-002
10471	11.04	3.4545	5.e-002	-5.9754e-007
10472	11.04	3.1818	0.	-1.1653e-002
10473	10.948	3.2727	0.	-4.1264e-002
10474	11.04	3.2727	5.e-002	4.7201e-006
10475	11.04	3.	0.	1.7735e-002
10476	10.948	3.0909	0.	3.8585e-003
10477	11.04	3.0909	5.e-002	6.2904e-006
10478	11.04	2.8182	0.	-1.1653e-002
10479	10.948	2.9091	0.	3.8589e-003
10480	11.04	2.9091	5.e-002	5.1776e-006
10481	11.04	2.6364	0.	-4.9538e-002
10482	10.948	2.7273	0.	-4.1264e-002
10483	11.04	2.7273	5.e-002	3.1438e-006
10484	11.04	2.4545	0.	-6.6609e-002
10485	10.948	2.5455	0.	-6.3671e-002
10486	11.04	2.5455	5.e-002	1.5484e-006
10487	11.04	2.2727	0.	-6.8601e-002
10488	10.948	2.3636	0.	-6.7757e-002
10489	11.04	2.3636	5.e-002	4.8495e-006
10490	11.04	2.0909	0.	-6.2013e-002
10491	10.948	2.1818	0.	-6.2533e-002
10492	11.04	2.1818	5.e-002	7.4386e-007
10493	11.04	1.9091	0.	-5.0669e-002
10494	10.948	2.	0.	-5.239e-002
10495	11.04	2.	5.e-002	5.3157e-006
10496	11.04	1.7273	0.	-3.6978e-002
10497	10.948	1.8182	0.	-3.9722e-002
10498	11.04	1.8182	5.e-002	1.2037e-006
10499	11.04	1.5455	0.	-2.2681e-002
10500	10.948	1.6364	0.	-2.614e-002
10501	11.04	1.6364	5.e-002	4.1382e-006
10502	11.04	1.3636	0.	-9.1065e-003
10503	10.948	1.4545	0.	-1.2922e-002
10504	11.04	1.4545	5.e-002	1.3822e-006
10505	11.04	1.1818	0.	2.5112e-003
10506	10.948	1.2727	0.	-1.0653e-003
10507	11.04	1.2727	5.e-002	3.4416e-006
10508	11.04	1.	0.	1.1458e-002
10509	10.948	1.0909	0.	8.2113e-003
10510	11.04	1.0909	5.e-002	1.4078e-006
10511	11.04	0.81818	0.	1.4623e-002
10512	10.948	0.90909	0.	1.4754e-002
10513	11.04	0.90909	5.e-002	-9.7488e-007
10514	11.04	0.63636	0.	1.6151e-002
10515	10.948	0.72727	0.	1.2805e-002
10516	11.04	0.72727	5.e-002	-2.4485e-006
10517	11.04	0.45455	0.	-2.8322e-002
10518	10.948	0.54545	0.	1.5165e-002
10519	11.04	0.54545	5.e-002	-3.0579e-006
10520	11.04	0.27273	0.	-6.492e-002
10521	10.948	0.36364	0.	-7.4125e-002
10522	11.04	0.36364	5.e-002	-1.9892e-006
10523	10.948	0.18182	0.	-7.1532e-002
10524	11.04	0.18182	5.e-002	3.2874e-006
10525	11.04	9.0909e-002	0.	-6.649e-003
10526	10.856	5.7273	0.	-5.5838e-002
10527	10.764	5.8182	0.	-5.6287e-002
10528	10.856	5.8182	5.e-002	3.0817e-006
10529	10.856	5.9091	0.	-2.5819e-003
10530	10.856	5.5455	0.	-2.4162e-002
10531	10.764	5.6364	0.	-6.2626e-002
10532	10.856	5.6364	5.e-002	4.7189e-006
10533	10.856	5.3636	0.	1.4588e-002
10534	10.764	5.4545	0.	1.3011e-002
10535	10.856	5.4545	5.e-002	7.5257e-006
10536	10.856	5.1818	0.	1.4492e-002
10537	10.764	5.2727	0.	1.2302e-002
10538	10.856	5.2727	5.e-002	5.3397e-006
10539	10.856	5.	0.	1.2598e-002
10540	10.764	5.0909	0.	1.4727e-002
10541	10.856	5.0909	5.e-002	4.0599e-006
10542	10.856	4.8182	0.	5.5463e-003
10543	10.764	4.9091	0.	9.7463e-003
10544	10.856	4.9091	5.e-002	1.3897e-006
10545	10.856	4.6364	0.	-4.0001e-003
10546	10.764	4.7273	0.	2.2026e-003
10547	10.856	4.7273	5.e-002	-1.1457e-006
10548	10.856	4.4545	0.	-1.5428e-002
10549	10.764	4.5455	0.	-7.7432e-003
10550	10.856	4.5455	5.e-002	-3.5719e-006
10551	10.856	4.2727	0.	-2.7773e-002
10552	10.764	4.3636	0.	-1.9118e-002
10553	10.856	4.3636	5.e-002	-4.6397e-006
10554	10.856	4.0909	0.	-4.01e-002
10555	10.764	4.1818	0.	-3.1232e-002
10556	10.856	4.1818	5.e-002	-7.1855e-006
10557	10.856	3.9091	0.	-5.1293e-002
10558	10.764	4.	0.	-4.3338e-002
10559	10.856	4.	5.e-002	-4.357e-006
10560	10.856	3.7273	0.	-5.9914e-002
10561	10.764	3.8182	0.	-5.4719e-002
10562	10.856	3.8182	5.e-002	-5.6731e-006
10563	10.856	3.5455	0.	-6.3619e-002
10564	10.764	3.6364	0.	-6.4725e-002
10565	10.856	3.6364	5.e-002	5.8247e-008
10566	10.856	3.3636	0.	-5.7177e-002
10567	10.764	3.4545	0.	-7.2855e-002
10568	10.856	3.4545	5.e-002	4.3607e-006
10569	10.856	3.1818	0.	-2.7395e-002
10570	10.764	3.2727	0.	-7.903e-002
10571	10.856	3.2727	5.e-002	4.8281e-006
10572	10.856	3.	0.	1.345e-002
10573	10.764	3.0909	0.	-8.8176e-002
10574	10.856	3.0909	5.e-002	6.1382e-006
10575	10.856	2.8182	0.	-2.7395e-002
10576	10.764	2.9091	0.	-8.8174e-002
10577	10.856	2.9091	5.e-002	5.6436e-006
10578	10.856	2.6364	0.	-5.7177e-002
10579	10.764	2.7273	0.	-7.903e-002
10580	10.856	2.7273	5.e-002	3.5234e-006
10581	10.856	2.4545	0.	-6.3619e-002
10582	10.764	2.5455	0.	-7.2854e-002
10583	10.856	2.5455	5.e-002	2.7309e-006
10584	10.856	2.2727	0.	-5.9914e-002
10585	10.764	2.3636	0.	-6.4725e-002
10586	10.856	2.3636	5.e-002	2.2567e-006
10587	10.856	2.0909	0.	-5.1293e-002
10588	10.764	2.1818	0.	-5.4719e-002
10589	10.856	2.1818	5.e-002	4.5224e-006
10590	10.856	1.9091	0.	-4.0099e-002
10591	10.764	2.	0.	-4.3337e-002
10592	10.856	2.	5.e-002	8.9342e-007
10593	10.856	1.7273	0.	-2.7772e-002
10594	10.764	1.8182	0.	-3.1232e-002
10595	10.856	1.8182	5.e-002	3.8802e-006
10596	10.856	1.5455	0.	-1.5428e-002
10597	10.764	1.6364	0.	-1.9117e-002
10598	10.856	1.6364	5.e-002	3.7291e-006
10599	10.856	1.3636	0.	-3.9993e-003
10600	10.764	1.4545	0.	-7.7429e-003
10601	10.856	1.4545	5.e-002	2.272e-006
10602	10.856	1.1818	0.	5.5473e-003
10603	10.764	1.2727	0.	2.204e-003
10604	10.856	1.2727	5.e-002	2.6369e-006
10605	10.856	1.	0.	1.26e-002
10606	10.764	1.0909	0.	9.7467e-003
10607	10.856	1.0909	5.e-002	2.9342e-007
10608	10.856	0.81818	0.	1.4494e-002
10609	10.764	0.90909	0.	1.4729e-002
10610	10.856	0.90909	5.e-002	-8.0346e-007
10611	10.856	0.63636	0.	1.4588e-002
10612	10.764	0.72727	0.	1.2303e-002
10613	10.856	0.72727	5.e-002	-1.1821e-006
10614	10.856	0.45455	0.	-2.4162e-002
10615	10.764	0.54545	0.	1.3011e-002
10616	10.856	0.54545	5.e-002	-1.8599e-006
10617	10.856	0.27273	0.	-5.5837e-002
10618	10.764	0.36364	0.	-6.2625e-002
10619	10.856	0.36364	5.e-002	-7.8039e-007
10620	10.764	0.18182	0.	-5.6286e-002
10621	10.856	0.18182	5.e-002	-4.4935e-007
10622	10.856	9.0909e-002	0.	-2.5805e-003
10623	10.672	5.7273	0.	-4.678e-002
10624	10.58	5.8182	0.	-4.2522e-002
10625	10.672	5.8182	5.e-002	-4.0938e-007
10626	10.672	5.9091	0.	8.5681e-004
10627	10.672	5.5455	0.	-2.0155e-002
10628	10.58	5.6364	0.	-5.1963e-002
10629	10.672	5.6364	5.e-002	4.2848e-006
10630	10.672	5.3636	0.	1.3071e-002
10631	10.58	5.4545	0.	1.1206e-002
10632	10.672	5.4545	5.e-002	5.843e-006
10633	10.672	5.1818	0.	1.3882e-002
10634	10.58	5.2727	0.	1.159e-002
10635	10.672	5.2727	5.e-002	4.9935e-006
10636	10.672	5.	0.	1.2834e-002
10637	10.58	5.0909	0.	1.4159e-002
10638	10.672	5.0909	5.e-002	4.101e-006
10639	10.672	4.8182	0.	7.2157e-003
10640	10.58	4.9091	0.	1.0318e-002
10641	10.672	4.9091	5.e-002	2.4255e-006
10642	10.672	4.6364	0.	-7.4324e-004
10643	10.58	4.7273	0.	4.0717e-003
10644	10.672	4.7273	5.e-002	-1.8296e-006
10645	10.672	4.4545	0.	-1.0556e-002
10646	10.58	4.5455	0.	-4.4572e-003
10647	10.672	4.5455	5.e-002	-6.9512e-007
10648	10.672	4.2727	0.	-2.1528e-002
10649	10.58	4.3636	0.	-1.4556e-002
10650	10.672	4.3636	5.e-002	-2.0683e-006
10651	10.672	4.0909	0.	-3.3141e-002
10652	10.58	4.1818	0.	-2.5892e-002
10653	10.672	4.1818	5.e-002	-7.6254e-007
10654	10.672	3.9091	0.	-4.5028e-002
10655	10.58	4.	0.	-3.8407e-002
10656	10.672	4.	5.e-002	-1.7162e-006
10657	10.672	3.7273	0.	-5.7321e-002
10658	10.58	3.8182	0.	-5.2986e-002
10659	10.672	3.8182	5.e-002	-1.6062e-007
10660	10.672	3.5455	0.	-7.2004e-002
10661	10.58	3.6364	0.	-7.4301e-002
10662	10.672	3.6364	5.e-002	9.1096e-007
10663	10.672	3.3636	0.	-0.10352
10664	10.58	3.4545	0.	-0.13879
10665	10.672	3.4545	5.e-002	4.1287e-006
10666	10.672	3.1818	0.	-0.56325
10667	10.58	3.2727	0.	-1.3321
10668	10.672	3.2727	5.e-002	5.056e-006
10669	10.672	3.	0.	-1.41
10670	10.58	3.0909	0.	-3.0554
10671	10.672	3.0909	5.e-002	6.0726e-006
10672	10.672	2.8182	0.	-0.56324
10673	10.58	2.9091	0.	-3.0554
10674	10.672	2.9091	5.e-002	5.8706e-006
10675	10.672	2.6364	0.	-0.10352
10676	10.58	2.7273	0.	-1.3321
10677	10.672	2.7273	5.e-002	4.5031e-006
10678	10.672	2.4545	0.	-7.2004e-002
10679	10.58	2.5455	0.	-0.13879
10680	10.672	2.5455	5.e-002	3.8852e-006
10681	10.672	2.2727	0.	-5.732e-002
10682	10.58	2.3636	0.	-7.43e-002
10683	10.672	2.3636	5.e-002	3.1102e-006
10684	10.672	2.0909	0.	-4.5027e-002
10685	10.58	2.1818	0.	-5.2985e-002
10686	10.672	2.1818	5.e-002	2.4918e-006
10687	10.672	1.9091	0.	-3.314e-002
10688	10.58	2.	0.	-3.8406e-002
10689	10.672	2.	5.e-002	3.6682e-006
10690	10.672	1.7273	0.	-2.1527e-002
10691	10.58	1.8182	0.	-2.5891e-002
10692	10.672	1.8182	5.e-002	3.794e-006
10693	10.672	1.5455	0.	-1.0555e-002
10694	10.58	1.6364	0.	-1.4556e-002
10695	10.672	1.6364	5.e-002	3.9108e-006
10696	10.672	1.3636	0.	-7.4226e-004
10697	10.58	1.4545	0.	-4.4567e-003
10698	10.672	1.4545	5.e-002	4.3074e-006
10699	10.672	1.1818	0.	7.2166e-003
10700	10.58	1.2727	0.	4.0729e-003
10701	10.672	1.2727	5.e-002	1.8817e-006
10702	10.672	1.	0.	1.2835e-002
10703	10.58	1.0909	0.	1.0319e-002
10704	10.672	1.0909	5.e-002	-8.1904e-008
10705	10.672	0.81818	0.	1.3883e-002
10706	10.58	0.90909	0.	1.416e-002
10707	10.672	0.90909	5.e-002	-3.1317e-007
10708	10.672	0.63636	0.	1.3072e-002
10709	10.58	0.72727	0.	1.1591e-002
10710	10.672	0.72727	5.e-002	-8.0066e-007
10711	10.672	0.45455	0.	-2.0154e-002
10712	10.58	0.54545	0.	1.1206e-002
10713	10.672	0.54545	5.e-002	-5.6728e-007
10714	10.672	0.27273	0.	-4.6779e-002
10715	10.58	0.36364	0.	-5.1962e-002
10716	10.672	0.36364	5.e-002	3.2077e-007
10717	10.58	0.18182	0.	-4.2521e-002
10718	10.672	0.18182	5.e-002	6.9932e-006
10719	10.672	9.0909e-002	0.	8.5734e-004
10720	10.488	5.7273	0.	-3.8183e-002
10721	10.396	5.8182	0.	-3.0727e-002
10722	10.488	5.8182	5.e-002	1.4572e-007
10723	10.488	5.9091	0.	3.6493e-003
10724	10.488	5.5455	0.	-1.6349e-002
10725	10.396	5.6364	0.	-4.219e-002
10726	10.488	5.6364	5.e-002	3.5809e-006
10727	10.488	5.3636	0.	1.1693e-002
10728	10.396	5.4545	0.	9.7452e-003
10729	10.488	5.4545	5.e-002	5.446e-006
10730	10.488	5.1818	0.	1.3024e-002
10731	10.396	5.2727	0.	1.0817e-002
10732	10.488	5.2727	5.e-002	4.5423e-006
10733	10.488	5.	0.	1.2488e-002
10734	10.396	5.0909	0.	1.3286e-002
10735	10.488	5.0909	5.e-002	4.1287e-006
10736	10.488	4.8182	0.	7.9089e-003
10737	10.396	4.9091	0.	1.0233e-002
10738	10.488	4.9091	5.e-002	2.7146e-006
10739	10.488	4.6364	0.	1.0972e-003
10740	10.396	4.7273	0.	4.8885e-003
10741	10.488	4.7273	5.e-002	9.592e-007
10742	10.488	4.4545	0.	-7.6202e-003
10743	10.396	4.5455	0.	-2.7104e-003
10744	10.488	4.5455	5.e-002	7.4313e-007
10745	10.488	4.2727	0.	-1.7877e-002
10746	10.396	4.3636	0.	-1.2178e-002
10747	10.488	4.3636	5.e-002	3.8085e-007
10748	10.488	4.0909	0.	-2.9751e-002
10749	10.396	4.1818	0.	-2.3743e-002
10750	10.488	4.1818	5.e-002	1.5119e-006
10751	10.488	3.9091	0.	-4.4315e-002
10752	10.396	4.	0.	-3.8801e-002
10753	10.488	4.	5.e-002	3.1276e-006
10754	10.488	3.7273	0.	-6.6729e-002
10755	10.396	3.8182	0.	-6.3753e-002
10756	10.488	3.8182	5.e-002	2.8717e-006
10757	10.488	3.5455	0.	-0.13639
10758	10.396	3.6364	0.	-0.15146
10759	10.488	3.6364	5.e-002	3.7769e-006
10760	10.488	3.3636	0.	-1.5189
10761	10.396	3.4545	0.	-1.9856
10762	10.488	3.4545	5.e-002	4.7026e-006
10763	10.488	3.1818	0.	-3.8688
10764	10.396	3.2727	0.	-4.9042
10765	10.488	3.2727	5.e-002	5.3438e-006
10766	10.488	3.	0.	-4.6971
10767	10.396	3.0909	0.	-6.4535
10768	10.488	3.0909	5.e-002	5.9226e-006
10769	10.488	2.8182	0.	-3.8688
10770	10.396	2.9091	0.	-6.4535
10771	10.488	2.9091	5.e-002	5.9528e-006
10772	10.488	2.6364	0.	-1.5189
10773	10.396	2.7273	0.	-4.9042
10774	10.488	2.7273	5.e-002	5.2795e-006
10775	10.488	2.4545	0.	-0.13639
10776	10.396	2.5455	0.	-1.9856
10777	10.488	2.5455	5.e-002	4.3773e-006
10778	10.488	2.2727	0.	-6.6728e-002
10779	10.396	2.3636	0.	-0.15146
10780	10.488	2.3636	5.e-002	3.9959e-006
10781	10.488	2.0909	0.	-4.4314e-002
10782	10.396	2.1818	0.	-6.3752e-002
10783	10.488	2.1818	5.e-002	2.9785e-006
10784	10.488	1.9091	0.	-2.975e-002
10785	10.396	2.	0.	-3.8801e-002
10786	10.488	2.	5.e-002	2.5619e-006
10787	10.488	1.7273	0.	-1.7877e-002
10788	10.396	1.8182	0.	-2.3742e-002
10789	10.488	1.8182	5.e-002	2.7849e-006
10790	10.488	1.5455	0.	-7.6197e-003
10791	10.396	1.6364	0.	-1.2177e-002
10792	10.488	1.6364	5.e-002	2.9194e-006
10793	10.488	1.3636	0.	1.0979e-003
10794	10.396	1.4545	0.	-2.7098e-003
10795	10.488	1.4545	5.e-002	3.8278e-006
10796	10.488	1.1818	0.	7.9098e-003
10797	10.396	1.2727	0.	4.8892e-003
10798	10.488	1.2727	5.e-002	9.2842e-007
10799	10.488	1.	0.	1.2489e-002
10800	10.396	1.0909	0.	1.0234e-002
10801	10.488	1.0909	5.e-002	1.2928e-006
10802	10.488	0.81818	0.	1.3025e-002
10803	10.396	0.90909	0.	1.3288e-002
10804	10.488	0.90909	5.e-002	3.883e-007
10805	10.488	0.63636	0.	1.1694e-002
10806	10.396	0.72727	0.	1.0818e-002
10807	10.488	0.72727	5.e-002	-8.6583e-008
10808	10.488	0.45455	0.	-1.6349e-002
10809	10.396	0.54545	0.	9.7454e-003
10810	10.488	0.54545	5.e-002	9.9554e-008
10811	10.488	0.27273	0.	-3.8182e-002
10812	10.396	0.36364	0.	-4.2189e-002
10813	10.488	0.36364	5.e-002	4.2357e-007
10814	10.396	0.18182	0.	-3.0726e-002
10815	10.488	0.18182	5.e-002	3.7377e-006
10816	10.488	9.0909e-002	0.	3.6505e-003
10817	10.304	5.7273	0.	-3.027e-002
10818	10.212	5.8182	0.	-2.1039e-002
10819	10.304	5.8182	5.e-002	-2.7212e-006
10820	10.304	5.9091	0.	5.8218e-003
10821	10.304	5.5455	0.	-1.2753e-002
10822	10.212	5.6364	0.	-3.3281e-002
10823	10.304	5.6364	5.e-002	3.0828e-006
10824	10.304	5.3636	0.	1.0507e-002
10825	10.212	5.4545	0.	8.6135e-003
10826	10.304	5.4545	5.e-002	4.872e-006
10827	10.304	5.1818	0.	1.2076e-002
10828	10.212	5.2727	0.	1.0079e-002
10829	10.304	5.2727	5.e-002	3.8287e-006
10830	10.304	5.	0.	1.1785e-002
10831	10.212	5.0909	0.	1.2267e-002
10832	10.304	5.0909	5.e-002	3.5988e-006
10833	10.304	4.8182	0.	7.8918e-003
10834	10.212	4.9091	0.	9.6904e-003
10835	10.304	4.9091	5.e-002	2.9949e-006
10836	10.304	4.6364	0.	1.7898e-003
10837	10.212	4.7273	0.	4.8524e-003
10838	10.304	4.7273	5.e-002	1.4489e-006
10839	10.304	4.4545	0.	-6.4337e-003
10840	10.212	4.5455	0.	-2.3915e-003
10841	10.304	4.5455	5.e-002	2.2902e-006
10842	10.304	4.2727	0.	-1.6955e-002
10843	10.212	4.3636	0.	-1.2215e-002
10844	10.304	4.3636	5.e-002	3.6173e-007
10845	10.304	4.0909	0.	-3.1222e-002
10846	10.212	4.1818	0.	-2.6275e-002
10847	10.304	4.1818	5.e-002	-4.4332e-007
10848	10.304	3.9091	0.	-5.5683e-002
10849	10.212	4.	0.	-5.1939e-002
10850	10.304	4.	5.e-002	1.3742e-006
10851	10.304	3.7273	0.	-0.14444
10852	10.212	3.8182	0.	-0.15887
10853	10.304	3.8182	5.e-002	2.6307e-006
10854	10.304	3.5455	0.	-2.1163
10855	10.212	3.6364	0.	-2.5531
10856	10.304	3.6364	5.e-002	3.5767e-006
10857	10.304	3.3636	0.	-5.3891
10858	10.212	3.4545	0.	-6.1653
10859	10.304	3.4545	5.e-002	5.1978e-006
10860	10.304	3.1818	0.	-7.494
10861	10.212	3.2727	0.	-8.7634
10862	10.304	3.2727	5.e-002	5.3638e-006
10863	10.304	3.	0.	-8.2148
10864	10.212	3.0909	0.	-10.113
10865	10.304	3.0909	5.e-002	5.6285e-006
10866	10.304	2.8182	0.	-7.4939
10867	10.212	2.9091	0.	-10.113
10868	10.304	2.9091	5.e-002	6.0202e-006
10869	10.304	2.6364	0.	-5.3891
10870	10.212	2.7273	0.	-8.7634
10871	10.304	2.7273	5.e-002	5.4179e-006
10872	10.304	2.4545	0.	-2.1162
10873	10.212	2.5455	0.	-6.1652
10874	10.304	2.5455	5.e-002	4.7059e-006
10875	10.304	2.2727	0.	-0.14444
10876	10.212	2.3636	0.	-2.5531
10877	10.304	2.3636	5.e-002	4.0359e-006
10878	10.304	2.0909	0.	-5.5682e-002
10879	10.212	2.1818	0.	-0.15887
10880	10.304	2.1818	5.e-002	4.108e-006
10881	10.304	1.9091	0.	-3.1222e-002
10882	10.212	2.	0.	-5.1939e-002
10883	10.304	2.	5.e-002	3.1775e-006
10884	10.304	1.7273	0.	-1.6954e-002
10885	10.212	1.8182	0.	-2.6274e-002
10886	10.304	1.8182	5.e-002	4.7189e-006
10887	10.304	1.5455	0.	-6.4331e-003
10888	10.212	1.6364	0.	-1.2214e-002
10889	10.304	1.6364	5.e-002	2.4832e-006
10890	10.304	1.3636	0.	1.7903e-003
10891	10.212	1.4545	0.	-2.3908e-003
10892	10.304	1.4545	5.e-002	3.0326e-006
10893	10.304	1.1818	0.	7.8925e-003
10894	10.212	1.2727	0.	4.8529e-003
10895	10.304	1.2727	5.e-002	2.1805e-006
10896	10.304	1.	0.	1.1786e-002
10897	10.212	1.0909	0.	9.6911e-003
10898	10.304	1.0909	5.e-002	1.5111e-006
10899	10.304	0.81818	0.	1.2078e-002
10900	10.212	0.90909	0.	1.2269e-002
10901	10.304	0.90909	5.e-002	5.3361e-007
10902	10.304	0.63636	0.	1.0508e-002
10903	10.212	0.72727	0.	1.008e-002
10904	10.304	0.72727	5.e-002	3.9942e-007
10905	10.304	0.45455	0.	-1.2752e-002
10906	10.212	0.54545	0.	8.614e-003
10907	10.304	0.54545	5.e-002	5.6353e-007
10908	10.304	0.27273	0.	-3.0269e-002
10909	10.212	0.36364	0.	-3.3279e-002
10910	10.304	0.36364	5.e-002	3.1217e-007
10911	10.212	0.18182	0.	-2.1038e-002
10912	10.304	0.18182	5.e-002	6.4325e-006
10913	10.304	9.0909e-002	0.	5.8228e-003
10914	10.12	5.7273	0.	-2.3131e-002
10915	10.028	5.8182	0.	-1.3405e-002
10916	10.12	5.8182	5.e-002	-2.6835e-006
10917	10.12	5.9091	0.	7.4128e-003
10918	10.12	5.5455	0.	-9.3538e-003
10919	10.028	5.6364	0.	-2.5162e-002
10920	10.12	5.6364	5.e-002	3.0591e-006
10921	10.12	5.3636	0.	9.5383e-003
10922	10.028	5.4545	0.	7.7883e-003
10923	10.12	5.4545	5.e-002	3.7231e-006
10924	10.12	5.1818	0.	1.1135e-002
10925	10.028	5.2727	0.	9.433e-003
10926	10.12	5.2727	5.e-002	3.268e-006
10927	10.12	5.	0.	1.086e-002
10928	10.028	5.0909	0.	1.1191e-002
10929	10.12	5.0909	5.e-002	2.7429e-006
10930	10.12	4.8182	0.	7.3004e-003
10931	10.028	4.9091	0.	8.7788e-003
10932	10.12	4.9091	5.e-002	2.3015e-006
10933	10.12	4.6364	0.	1.3752e-003
10934	10.028	4.7273	0.	3.9447e-003
10935	10.12	4.7273	5.e-002	1.4944e-006
10936	10.12	4.4545	0.	-7.3249e-003
10937	10.028	4.5455	0.	-3.9305e-003
10938	10.12	4.5455	5.e-002	1.6849e-006
10939	10.12	4.2727	0.	-2.0449e-002
10940	10.028	4.3636	0.	-1.6666e-002
10941	10.12	4.3636	5.e-002	8.831e-007
10942	10.12	4.0909	0.	-4.585e-002
10943	10.028	4.1818	0.	-4.364e-002
10944	10.12	4.1818	5.e-002	1.21e-006
10945	10.12	3.9091	0.	-0.16826
10946	10.028	4.	0.	-0.22013
10947	10.12	4.	5.e-002	2.3444e-006
10948	10.12	3.7273	0.	-2.8617
10949	10.028	3.8182	0.	-3.4483
10950	10.12	3.8182	5.e-002	2.242e-006
10951	10.12	3.5455	0.	-6.6246
10952	10.028	3.6364	0.	-7.3792
10953	10.12	3.6364	5.e-002	3.6068e-006
10954	10.12	3.3636	0.	-9.5478
10955	10.028	3.4545	0.	-10.61
10956	10.12	3.4545	5.e-002	4.7182e-006
10957	10.12	3.1818	0.	-11.39
10958	10.028	3.2727	0.	-12.896
10959	10.12	3.2727	5.e-002	4.7986e-006
10960	10.12	3.	0.	-12.019
10961	10.028	3.0909	0.	-14.079
10962	10.12	3.0909	5.e-002	4.9907e-006
10963	10.12	2.8182	0.	-11.39
10964	10.028	2.9091	0.	-14.079
10965	10.12	2.9091	5.e-002	5.3584e-006
10966	10.12	2.6364	0.	-9.5478
10967	10.028	2.7273	0.	-12.896
10968	10.12	2.7273	5.e-002	4.8864e-006
10969	10.12	2.4545	0.	-6.6246
10970	10.028	2.5455	0.	-10.61
10971	10.12	2.5455	5.e-002	4.3893e-006
10972	10.12	2.2727	0.	-2.8617
10973	10.028	2.3636	0.	-7.3792
10974	10.12	2.3636	5.e-002	3.9787e-006
10975	10.12	2.0909	0.	-0.16826
10976	10.028	2.1818	0.	-3.4483
10977	10.12	2.1818	5.e-002	3.5094e-006
10978	10.12	1.9091	0.	-4.5849e-002
10979	10.028	2.	0.	-0.22012
10980	10.12	2.	5.e-002	2.8307e-006
10981	10.12	1.7273	0.	-2.0449e-002
10982	10.028	1.8182	0.	-4.364e-002
10983	10.12	1.8182	5.e-002	3.1292e-006
10984	10.12	1.5455	0.	-7.3241e-003
10985	10.028	1.6364	0.	-1.6665e-002
10986	10.12	1.6364	5.e-002	2.3208e-006
10987	10.12	1.3636	0.	1.3759e-003
10988	10.028	1.4545	0.	-3.9296e-003
10989	10.12	1.4545	5.e-002	2.9584e-006
10990	10.12	1.1818	0.	7.3009e-003
10991	10.028	1.2727	0.	3.9453e-003
10992	10.12	1.2727	5.e-002	2.3347e-006
10993	10.12	1.	0.	1.0861e-002
10994	10.028	1.0909	0.	8.7797e-003
10995	10.12	1.0909	5.e-002	1.0825e-006
10996	10.12	0.81818	0.	1.1137e-002
10997	10.028	0.90909	0.	1.1192e-002
10998	10.12	0.90909	5.e-002	9.5396e-007
10999	10.12	0.63636	0.	9.5394e-003
11000	10.028	0.72727	0.	9.4345e-003
11001	10.12	0.72727	5.e-002	-3.1627e-007
11002	10.12	0.45455	0.	-9.353e-003
11003	10.028	0.54545	0.	7.7887e-003
11004	10.12	0.54545	5.e-002	1.2506e-007
11005	10.12	0.27273	0.	-2.313e-002
11006	10.028	0.36364	0.	-2.5161e-002
11007	10.12	0.36364	5.e-002	4.4853e-008
11008	10.028	0.18182	0.	-1.3404e-002
11009	10.12	0.18182	5.e-002	5.4425e-006
11010	10.12	9.0909e-002	0.	7.4133e-003
11011	9.936	5.7273	0.	-1.678e-002
11012	9.844	5.8182	0.	-7.6964e-003
11013	9.936	5.8182	5.e-002	-2.3833e-006
11014	9.936	5.9091	0.	8.4526e-003
11015	9.936	5.5455	0.	-6.1249e-003
11016	9.844	5.6364	0.	-1.7738e-002
11017	9.936	5.6364	5.e-002	2.5673e-006
11018	9.936	5.3636	0.	8.7941e-003
11019	9.844	5.4545	0.	7.2438e-003
11020	9.936	5.4545	5.e-002	3.5506e-006
11021	9.936	5.1818	0.	1.0254e-002
11022	9.844	5.2727	0.	8.9069e-003
11023	9.936	5.2727	5.e-002	2.4571e-006
11024	9.936	5.	0.	9.7598e-003
11025	9.844	5.0909	0.	1.0075e-002
11026	9.936	5.0909	5.e-002	2.2616e-006
11027	9.936	4.8182	0.	6.0665e-003
11028	9.844	4.9091	0.	7.394e-003
11029	9.936	4.9091	5.e-002	1.629e-006
11030	9.936	4.6364	0.	-6.7707e-004
11031	9.844	4.7273	0.	1.5304e-003
11032	9.936	4.7273	5.e-002	9.6577e-007
11033	9.936	4.4545	0.	-1.2673e-002
11034	9.844	4.5455	0.	-1.0262e-002
11035	9.936	4.5455	5.e-002	1.3859e-006
11036	9.936	4.2727	0.	-4.1345e-002
11037	9.844	4.3636	0.	-4.394e-002
11038	9.936	4.3636	5.e-002	1.4805e-006
11039	9.936	4.0909	0.	-0.36283
11040	9.844	4.1818	0.	-0.84775
11041	9.936	4.1818	5.e-002	1.2129e-006
11042	9.936	3.9091	0.	-4.0483
11043	9.844	4.	0.	-4.856
11044	9.936	4.	5.e-002	1.6017e-006
11045	9.936	3.7273	0.	-7.9889
11046	9.844	3.8182	0.	-8.8513
11047	9.936	3.8182	5.e-002	2.1264e-006
11048	9.936	3.5455	0.	-11.374
11049	9.844	3.6364	0.	-12.411
11050	9.936	3.6364	5.e-002	3.7652e-006
11051	9.936	3.3636	0.	-13.967
11052	9.844	3.4545	0.	-15.3
11053	9.936	3.4545	5.e-002	4.0175e-006
11054	9.936	3.1818	0.	-15.594
11055	9.844	3.2727	0.	-17.335
11056	9.936	3.2727	5.e-002	4.2036e-006
11057	9.936	3.	0.	-16.149
11058	9.844	3.0909	0.	-18.385
11059	9.936	3.0909	5.e-002	4.3404e-006
11060	9.936	2.8182	0.	-15.594
11061	9.844	2.9091	0.	-18.385
11062	9.936	2.9091	5.e-002	4.3422e-006
11063	9.936	2.6364	0.	-13.967
11064	9.844	2.7273	0.	-17.335
11065	9.936	2.7273	5.e-002	4.1473e-006
11066	9.936	2.4545	0.	-11.374
11067	9.844	2.5455	0.	-15.3
11068	9.936	2.5455	5.e-002	3.9477e-006
11069	9.936	2.2727	0.	-7.9889
11070	9.844	2.3636	0.	-12.411
11071	9.936	2.3636	5.e-002	3.6734e-006
11072	9.936	2.0909	0.	-4.0483
11073	9.844	2.1818	0.	-8.8512
11074	9.936	2.1818	5.e-002	3.2644e-006
11075	9.936	1.9091	0.	-0.36282
11076	9.844	2.	0.	-4.8559
11077	9.936	2.	5.e-002	2.9551e-006
11078	9.936	1.7273	0.	-4.1344e-002
11079	9.844	1.8182	0.	-0.84773
11080	9.936	1.8182	5.e-002	3.048e-006
11081	9.936	1.5455	0.	-1.2672e-002
11082	9.844	1.6364	0.	-4.3938e-002
11083	9.936	1.6364	5.e-002	2.2055e-006
11084	9.936	1.3636	0.	-6.7618e-004
11085	9.844	1.4545	0.	-1.0261e-002
11086	9.936	1.4545	5.e-002	2.9137e-006
11087	9.936	1.1818	0.	6.0676e-003
11088	9.844	1.2727	0.	1.5315e-003
11089	9.936	1.2727	5.e-002	1.5766e-006
11090	9.936	1.	0.	9.761e-003
11091	9.844	1.0909	0.	7.3946e-003
11092	9.936	1.0909	5.e-002	1.2569e-006
11093	9.936	0.81818	0.	1.0255e-002
11094	9.844	0.90909	0.	1.0077e-002
11095	9.936	0.90909	5.e-002	1.0621e-006
11096	9.936	0.63636	0.	8.7949e-003
11097	9.844	0.72727	0.	8.9079e-003
11098	9.936	0.72727	5.e-002	3.5144e-007
11099	9.936	0.45455	0.	-6.1243e-003
11100	9.844	0.54545	0.	7.2439e-003
11101	9.936	0.54545	5.e-002	-1.5825e-007
11102	9.936	0.27273	0.	-1.6779e-002
11103	9.844	0.36364	0.	-1.7737e-002
11104	9.936	0.36364	5.e-002	2.1096e-007
11105	9.844	0.18182	0.	-7.6952e-003
11106	9.936	0.18182	5.e-002	2.2358e-006
11107	9.936	9.0909e-002	0.	8.4536e-003
11108	9.752	5.7273	0.	-1.1206e-002
11109	9.66	5.8182	0.	-3.7927e-003
11110	9.752	5.8182	5.e-002	-5.2929e-007
11111	9.752	5.9091	0.	8.9421e-003
11112	9.752	5.5455	0.	-3.035e-003
11113	9.66	5.6364	0.	-1.0909e-002
11114	9.752	5.6364	5.e-002	2.1182e-006
11115	9.752	5.3636	0.	8.2674e-003
11116	9.66	5.4545	0.	6.9522e-003
11117	9.752	5.4545	5.e-002	2.9387e-006
11118	9.752	5.1818	0.	9.4315e-003
11119	9.66	5.2727	0.	8.4926e-003
11120	9.752	5.2727	5.e-002	1.8985e-006
11121	9.752	5.	0.	8.3565e-003
11122	9.66	5.0909	0.	8.7903e-003
11123	9.752	5.0909	5.e-002	1.5335e-006
11124	9.752	4.8182	0.	3.4442e-003
11125	9.66	4.9091	0.	4.6716e-003
11126	9.752	4.9091	5.e-002	1.3967e-006
11127	9.752	4.6364	0.	-8.1738e-003
11128	9.66	4.7273	0.	-7.5966e-003
11129	9.752	4.7273	5.e-002	4.4717e-007
11130	9.752	4.4545	0.	-5.4092e-002
11131	9.66	4.5455	0.	-9.7928e-002
11132	9.752	4.5455	5.e-002	1.256e-006
11133	9.752	4.2727	0.	-1.7822
11134	9.66	4.3636	0.	-2.8398
11135	9.752	4.3636	5.e-002	6.3043e-007
11136	9.752	4.0909	0.	-5.7494
11137	9.66	4.1818	0.	-6.7554
11138	9.752	4.1818	5.e-002	6.9601e-007
11139	9.752	3.9091	0.	-9.6769
11140	9.66	4.	0.	-10.683
11141	9.752	4.	5.e-002	1.4587e-006
11142	9.752	3.7273	0.	-13.284
11143	9.66	3.8182	0.	-14.384
11144	9.752	3.8182	5.e-002	1.9832e-006
11145	9.752	3.5455	0.	-16.346
11146	9.66	3.6364	0.	-17.642
11147	9.752	3.6364	5.e-002	3.1407e-006
11148	9.752	3.3636	0.	-18.677
11149	9.66	3.4545	0.	-20.268
11150	9.752	3.4545	5.e-002	3.2417e-006
11151	9.752	3.1818	0.	-20.135
11152	9.66	3.2727	0.	-22.109
11153	9.752	3.2727	5.e-002	3.3943e-006
11154	9.752	3.	0.	-20.631
11155	9.66	3.0909	0.	-23.056
11156	9.752	3.0909	5.e-002	3.6902e-006
11157	9.752	2.8182	0.	-20.135
11158	9.66	2.9091	0.	-23.056
11159	9.752	2.9091	5.e-002	4.1655e-006
11160	9.752	2.6364	0.	-18.677
11161	9.66	2.7273	0.	-22.109
11162	9.752	2.7273	5.e-002	4.3317e-006
11163	9.752	2.4545	0.	-16.346
11164	9.66	2.5455	0.	-20.268
11165	9.752	2.5455	5.e-002	3.5034e-006
11166	9.752	2.2727	0.	-13.284
11167	9.66	2.3636	0.	-17.642
11168	9.752	2.3636	5.e-002	3.4164e-006
11169	9.752	2.0909	0.	-9.6769
11170	9.66	2.1818	0.	-14.384
11171	9.752	2.1818	5.e-002	3.2074e-006
11172	9.752	1.9091	0.	-5.7493
11173	9.66	2.	0.	-10.683
11174	9.752	2.	5.e-002	2.6226e-006
11175	9.752	1.7273	0.	-1.7822
11176	9.66	1.8182	0.	-6.7553
11177	9.752	1.8182	5.e-002	2.4807e-006
11178	9.752	1.5455	0.	-5.409e-002
11179	9.66	1.6364	0.	-2.8397
11180	9.752	1.6364	5.e-002	2.2927e-006
11181	9.752	1.3636	0.	-8.1728e-003
11182	9.66	1.4545	0.	-9.7924e-002
11183	9.752	1.4545	5.e-002	2.4655e-006
11184	9.752	1.1818	0.	3.4448e-003
11185	9.66	1.2727	0.	-7.5955e-003
11186	9.752	1.2727	5.e-002	2.071e-006
11187	9.752	1.	0.	8.3574e-003
11188	9.66	1.0909	0.	4.672e-003
11189	9.752	1.0909	5.e-002	1.6159e-006
11190	9.752	0.81818	0.	9.433e-003
11191	9.66	0.90909	0.	8.7904e-003
11192	9.752	0.90909	5.e-002	1.6169e-006
11193	9.752	0.63636	0.	8.2678e-003
11194	9.66	0.72727	0.	8.494e-003
11195	9.752	0.72727	5.e-002	6.9457e-007
11196	9.752	0.45455	0.	-3.0346e-003
11197	9.66	0.54545	0.	6.9523e-003
11198	9.752	0.54545	5.e-002	2.8723e-007
11199	9.752	0.27273	0.	-1.1205e-002
11200	9.66	0.36364	0.	-1.0908e-002
11201	9.752	0.36364	5.e-002	2.6802e-007
11202	9.66	0.18182	0.	-3.7917e-003
11203	9.752	0.18182	5.e-002	1.9858e-006
11204	9.752	9.0909e-002	0.	8.9431e-003
11205	9.568	5.7273	0.	-6.4104e-003
11206	9.476	5.8182	0.	-1.6561e-003
11207	9.568	5.8182	5.e-002	1.5315e-006
11208	9.568	5.9091	0.	8.8333e-003
11209	9.568	5.5455	0.	-5.2052e-005
11210	9.476	5.6364	0.	-4.5847e-003
11211	9.568	5.6364	5.e-002	2.2035e-006
11212	9.568	5.3636	0.	7.9361e-003
11213	9.476	5.4545	0.	6.8814e-003
11214	9.568	5.4545	5.e-002	2.7081e-006
11215	9.568	5.1818	0.	8.5441e-003
11216	9.476	5.2727	0.	8.0895e-003
11217	9.568	5.2727	5.e-002	1.5603e-006
11218	9.568	5.	0.	5.648e-003
11219	9.476	5.0909	0.	6.1733e-003
11220	9.568	5.0909	5.e-002	1.5853e-006
11221	9.568	4.8182	0.	-9.021e-003
11222	9.476	4.9091	0.	-1.6942e-002
11223	9.568	4.9091	5.e-002	8.878e-007
11224	9.568	4.6364	0.	-0.64433
11225	9.476	4.7273	0.	-1.8146
11226	9.568	4.7273	5.e-002	3.5512e-007
11227	9.568	4.4545	0.	-4.081
11228	9.476	4.5455	0.	-5.2455
11229	9.568	4.5455	5.e-002	1.0602e-006
11230	9.568	4.2727	0.	-7.8596
11231	9.476	4.3636	0.	-8.9749
11232	9.568	4.3636	5.e-002	8.7211e-007
11233	9.568	4.0909	0.	-11.703
11234	9.476	4.1818	0.	-12.815
11235	9.568	4.1818	5.e-002	6.1863e-007
11236	9.568	3.9091	0.	-15.401
11237	9.476	4.	0.	-16.577
11238	9.568	4.	5.e-002	1.5449e-006
11239	9.568	3.7273	0.	-18.752
11240	9.476	3.8182	0.	-20.068
11241	9.568	3.8182	5.e-002	1.9148e-006
11242	9.568	3.5455	0.	-21.573
11243	9.476	3.6364	0.	-23.11
11244	9.568	3.6364	5.e-002	3.4079e-006
11245	9.568	3.3636	0.	-23.708
11246	9.476	3.4545	0.	-25.544
11247	9.568	3.4545	5.e-002	3.164e-006
11248	9.568	3.1818	0.	-25.039
11249	9.476	3.2727	0.	-27.242
11250	9.568	3.2727	5.e-002	3.2878e-006
11251	9.568	3.	0.	-25.491
11252	9.476	3.0909	0.	-28.114
11253	9.568	3.0909	5.e-002	3.7295e-006
11254	9.568	2.8182	0.	-25.039
11255	9.476	2.9091	0.	-28.114
11256	9.568	2.9091	5.e-002	4.1179e-006
11257	9.568	2.6364	0.	-23.708
11258	9.476	2.7273	0.	-27.242
11259	9.568	2.7273	5.e-002	3.9785e-006
11260	9.568	2.4545	0.	-21.573
11261	9.476	2.5455	0.	-25.544
11262	9.568	2.5455	5.e-002	3.7781e-006
11263	9.568	2.2727	0.	-18.752
11264	9.476	2.3636	0.	-23.11
11265	9.568	2.3636	5.e-002	3.7121e-006
11266	9.568	2.0909	0.	-15.401
11267	9.476	2.1818	0.	-20.068
11268	9.568	2.1818	5.e-002	3.4134e-006
11269	9.568	1.9091	0.	-11.703
11270	9.476	2.	0.	-16.577
11271	9.568	2.	5.e-002	3.1921e-006
11272	9.568	1.7273	0.	-7.8596
11273	9.476	1.8182	0.	-12.815
11274	9.568	1.8182	5.e-002	3.5481e-006
11275	9.568	1.5455	0.	-4.081
11276	9.476	1.6364	0.	-8.9749
11277	9.568	1.6364	5.e-002	2.6608e-006
11278	9.568	1.3636	0.	-0.64431
11279	9.476	1.4545	0.	-5.2455
11280	9.568	1.4545	5.e-002	3.1304e-006
11281	9.568	1.1818	0.	-9.0199e-003
11282	9.476	1.2727	0.	-1.8146
11283	9.568	1.2727	5.e-002	2.1863e-006
11284	9.568	1.	0.	5.6493e-003
11285	9.476	1.0909	0.	-1.694e-002
11286	9.568	1.0909	5.e-002	2.1376e-006
11287	9.568	0.81818	0.	8.5458e-003
11288	9.476	0.90909	0.	6.175e-003
11289	9.568	0.90909	5.e-002	1.6682e-006
11290	9.568	0.63636	0.	7.9372e-003
11291	9.476	0.72727	0.	8.0909e-003
11292	9.568	0.72727	5.e-002	1.3249e-006
11293	9.568	0.45455	0.	-5.1416e-005
11294	9.476	0.54545	0.	6.882e-003
11295	9.568	0.54545	5.e-002	8.7992e-007
11296	9.568	0.27273	0.	-6.4095e-003
11297	9.476	0.36364	0.	-4.5838e-003
11298	9.568	0.36364	5.e-002	7.2409e-007
11299	9.476	0.18182	0.	-1.6549e-003
11300	9.568	0.18182	5.e-002	1.654e-006
11301	9.568	9.0909e-002	0.	8.8343e-003
11302	9.384	5.7273	0.	-2.4761e-003
11303	9.292	5.8182	0.	-1.4232e-003
11304	9.384	5.8182	5.e-002	1.7796e-006
11305	9.384	5.9091	0.	8.0003e-003
11306	9.384	5.5455	0.	2.8467e-003
11307	9.292	5.6364	0.	1.287e-003
11308	9.384	5.6364	5.e-002	1.8378e-006
11309	9.384	5.3636	0.	7.7242e-003
11310	9.292	5.4545	0.	6.9655e-003
11311	9.384	5.4545	5.e-002	2.4115e-006
11312	9.384	5.1818	0.	6.2607e-003
11313	9.292	5.2727	0.	6.1289e-003
11314	9.384	5.2727	5.e-002	1.1989e-006
11315	9.384	5.	0.	-0.2742
11316	9.292	5.0909	0.	-1.2607
11317	9.384	5.0909	5.e-002	1.4608e-006
11318	9.384	4.8182	0.	-3.1538
11319	9.292	4.9091	0.	-4.2232
11320	9.384	4.9091	5.e-002	8.3618e-007
11321	9.384	4.6364	0.	-6.5075
11322	9.292	4.7273	0.	-7.5887
11323	9.384	4.7273	5.e-002	3.2389e-007
11324	9.384	4.4545	0.	-10.155
11325	9.292	4.5455	0.	-11.249
11326	9.384	4.5455	5.e-002	1.3255e-006
11327	9.384	4.2727	0.	-13.942
11328	9.292	4.3636	0.	-15.07
11329	9.384	4.3636	5.e-002	8.2004e-007
11330	9.384	4.0909	0.	-17.699
11331	9.292	4.1818	0.	-18.901
11332	9.384	4.1818	5.e-002	3.8029e-007
11333	9.384	3.9091	0.	-21.253
11334	9.292	4.	0.	-22.581
11335	9.384	4.	5.e-002	7.3963e-007
11336	9.384	3.7273	0.	-24.435
11337	9.292	3.8182	0.	-25.949
11338	9.384	3.8182	5.e-002	1.8786e-006
11339	9.384	3.5455	0.	-27.09
11340	9.292	3.6364	0.	-28.853
11341	9.384	3.6364	5.e-002	2.8129e-006
11342	9.384	3.3636	0.	-29.087
11343	9.292	3.4545	0.	-31.159
11344	9.384	3.4545	5.e-002	3.1572e-006
11345	9.384	3.1818	0.	-30.326
11346	9.292	3.2727	0.	-32.759
11347	9.384	3.2727	5.e-002	3.4443e-006
11348	9.384	3.	0.	-30.747
11349	9.292	3.0909	0.	-33.579
11350	9.384	3.0909	5.e-002	3.5278e-006
11351	9.384	2.8182	0.	-30.326
11352	9.292	2.9091	0.	-33.579
11353	9.384	2.9091	5.e-002	3.8497e-006
11354	9.384	2.6364	0.	-29.087
11355	9.292	2.7273	0.	-32.759
11356	9.384	2.7273	5.e-002	3.6508e-006
11357	9.384	2.4545	0.	-27.09
11358	9.292	2.5455	0.	-31.159
11359	9.384	2.5455	5.e-002	4.1083e-006
11360	9.384	2.2727	0.	-24.435
11361	9.292	2.3636	0.	-28.853
11362	9.384	2.3636	5.e-002	3.984e-006
11363	9.384	2.0909	0.	-21.253
11364	9.292	2.1818	0.	-25.949
11365	9.384	2.1818	5.e-002	3.5177e-006
11366	9.384	1.9091	0.	-17.699
11367	9.292	2.	0.	-22.581
11368	9.384	2.	5.e-002	3.4791e-006
11369	9.384	1.7273	0.	-13.942
11370	9.292	1.8182	0.	-18.901
11371	9.384	1.8182	5.e-002	3.9664e-006
11372	9.384	1.5455	0.	-10.155
11373	9.292	1.6364	0.	-15.07
11374	9.384	1.6364	5.e-002	2.9815e-006
11375	9.384	1.3636	0.	-6.5075
11376	9.292	1.4545	0.	-11.249
11377	9.384	1.4545	5.e-002	3.1167e-006
11378	9.384	1.1818	0.	-3.1538
11379	9.292	1.2727	0.	-7.5887
11380	9.384	1.2727	5.e-002	2.7461e-006
11381	9.384	1.	0.	-0.27418
11382	9.292	1.0909	0.	-4.2232
11383	9.384	1.0909	5.e-002	2.3602e-006
11384	9.384	0.81818	0.	6.262e-003
11385	9.292	0.90909	0.	-1.2607
11386	9.384	0.90909	5.e-002	2.0944e-006
11387	9.384	0.63636	0.	7.7251e-003
11388	9.292	0.72727	0.	6.1301e-003
11389	9.384	0.72727	5.e-002	1.6992e-006
11390	9.384	0.45455	0.	2.8475e-003
11391	9.292	0.54545	0.	6.9661e-003
11392	9.384	0.54545	5.e-002	1.2669e-006
11393	9.384	0.27273	0.	-2.4748e-003
11394	9.292	0.36364	0.	1.2882e-003
11395	9.384	0.36364	5.e-002	1.1346e-006
11396	9.292	0.18182	0.	-1.4219e-003
11397	9.384	0.18182	5.e-002	1.1948e-006
11398	9.384	9.0909e-002	0.	8.0012e-003
11399	9.2	5.7273	0.	2.7049e-004
11400	9.108	5.8182	0.	-3.5764e-003
11401	9.2	5.8182	5.e-002	1.1882e-006
11402	9.2	5.9091	0.	6.1831e-003
11403	9.2	5.5455	0.	5.6267e-003
11404	9.108	5.6364	0.	6.5645e-003
11405	9.2	5.6364	5.e-002	1.7121e-006
11406	9.2	5.3636	0.	5.0586e-003
11407	9.108	5.4545	0.	-7.9087e-003
11408	9.2	5.4545	5.e-002	1.9051e-006
11409	9.2	5.1818	0.	-2.2444
11410	9.108	5.2727	0.	-2.7996
11411	9.2	5.2727	5.e-002	9.3052e-007
11412	9.2	5.	0.	-5.2788
11413	9.108	5.0909	0.	-5.9842
11414	9.2	5.0909	5.e-002	7.1049e-007
11415	9.2	4.8182	0.	-8.6724
11416	9.108	4.9091	0.	-9.4932
11417	9.2	4.9091	5.e-002	1.9994e-007
11418	9.2	4.6364	0.	-12.341
11419	9.108	4.7273	0.	-13.261
11420	9.2	4.7273	5.e-002	-7.3982e-008
11421	9.2	4.4545	0.	-16.174
11422	9.108	4.5455	0.	-17.193
11423	9.2	4.5455	5.e-002	6.8443e-007
11424	9.2	4.2727	0.	-20.039
11425	9.108	4.3636	0.	-21.174
11426	9.2	4.3636	5.e-002	4.7739e-007
11427	9.2	4.0909	0.	-23.793
11428	9.108	4.1818	0.	-25.073
11429	9.2	4.1818	5.e-002	7.7228e-007
11430	9.2	3.9091	0.	-27.286
11431	9.108	4.	0.	-28.751
11432	9.2	4.	5.e-002	1.1246e-006
11433	9.2	3.7273	0.	-30.375
11434	9.108	3.8182	0.	-32.072
11435	9.2	3.8182	5.e-002	1.5573e-006
11436	9.2	3.5455	0.	-32.93
11437	9.108	3.6364	0.	-34.907
11438	9.2	3.6364	5.e-002	2.1164e-006
11439	9.2	3.3636	0.	-34.839
11440	9.108	3.4545	0.	-37.141
11441	9.2	3.4545	5.e-002	2.515e-006
11442	9.2	3.1818	0.	-36.02
11443	9.108	3.2727	0.	-38.684
11444	9.2	3.2727	5.e-002	2.551e-006
11445	9.2	3.	0.	-36.42
11446	9.108	3.0909	0.	-39.472
11447	9.2	3.0909	5.e-002	3.5593e-006
11448	9.2	2.8182	0.	-36.02
11449	9.108	2.9091	0.	-39.472
11450	9.2	2.9091	5.e-002	4.0618e-006
11451	9.2	2.6364	0.	-34.839
11452	9.108	2.7273	0.	-38.684
11453	9.2	2.7273	5.e-002	4.0499e-006
11454	9.2	2.4545	0.	-32.93
11455	9.108	2.5455	0.	-37.141
11456	9.2	2.5455	5.e-002	3.9739e-006
11457	9.2	2.2727	0.	-30.375
11458	9.108	2.3636	0.	-34.907
11459	9.2	2.3636	5.e-002	3.367e-006
11460	9.2	2.0909	0.	-27.286
11461	9.108	2.1818	0.	-32.072
11462	9.2	2.1818	5.e-002	3.1042e-006
11463	9.2	1.9091	0.	-23.792
11464	9.108	2.	0.	-28.751
11465	9.2	2.	5.e-002	3.2567e-006
11466	9.2	1.7273	0.	-20.039
11467	9.108	1.8182	0.	-25.072
11468	9.2	1.8182	5.e-002	3.6164e-006
11469	9.2	1.5455	0.	-16.174
11470	9.108	1.6364	0.	-21.174
11471	9.2	1.6364	5.e-002	3.2737e-006
11472	9.2	1.3636	0.	-12.341
11473	9.108	1.4545	0.	-17.193
11474	9.2	1.4545	5.e-002	3.3905e-006
11475	9.2	1.1818	0.	-8.6724
11476	9.108	1.2727	0.	-13.261
11477	9.2	1.2727	5.e-002	2.8962e-006
11478	9.2	1.	0.	-5.2788
11479	9.108	1.0909	0.	-9.4932
11480	9.2	1.0909	5.e-002	2.5564e-006
11481	9.2	0.81818	0.	-2.2444
11482	9.108	0.90909	0.	-5.9842
11483	9.2	0.90909	5.e-002	2.3877e-006
11484	9.2	0.63636	0.	5.0598e-003
11485	9.108	0.72727	0.	-2.7996
11486	9.2	0.72727	5.e-002	1.8038e-006
11487	9.2	0.45455	0.	5.6277e-003
11488	9.108	0.54545	0.	-7.9016e-003
11489	9.2	0.54545	5.e-002	1.5363e-006
11490	9.2	0.27273	0.	2.717e-004
11491	9.108	0.36364	0.	6.566e-003
11492	9.2	0.36364	5.e-002	1.5319e-006
11493	9.108	0.18182	0.	-3.5754e-003
11494	9.2	0.18182	5.e-002	1.8626e-006
11495	9.2	9.0909e-002	0.	6.1844e-003
11496	9.016	5.7273	0.	6.2032e-004
11497	8.924	5.8182	0.	-9.3619e-003
11498	9.016	5.8182	5.e-002	2.7105e-008
11499	9.016	5.9091	0.	2.8804e-003
11500	9.016	5.5455	0.	-6.2708e-002
11501	8.924	5.6364	0.	5.718e-003
11502	9.016	5.6364	5.e-002	8.6427e-007
11503	9.016	5.3636	0.	-3.1687
11504	8.924	5.4545	0.	-3.0698
11505	9.016	5.4545	5.e-002	1.4263e-006
11506	9.016	5.1818	0.	-6.5538
11507	8.924	5.2727	0.	-6.7201
11508	9.016	5.2727	5.e-002	2.926e-007
11509	9.016	5.	0.	-10.211
11510	8.924	5.0909	0.	-10.6
11511	9.016	5.0909	5.e-002	1.6098e-007
11512	9.016	4.8182	0.	-14.092
11513	8.924	4.9091	0.	-14.676
11514	9.016	4.9091	5.e-002	-5.5532e-007
11515	9.016	4.6364	0.	-18.122
11516	8.924	4.7273	0.	-18.886
11517	9.016	4.7273	5.e-002	-8.4241e-007
11518	9.016	4.4545	0.	-22.202
11519	8.924	4.5455	0.	-23.145
11520	9.016	4.5455	5.e-002	2.3585e-007
11521	9.016	4.2727	0.	-26.216
11522	8.924	4.3636	0.	-27.351
11523	9.016	4.3636	5.e-002	1.4607e-008
11524	9.016	4.0909	0.	-30.04
11525	8.924	4.1818	0.	-31.389
11526	9.016	4.1818	5.e-002	-1.5487e-007
11527	9.016	3.9091	0.	-33.546
11528	8.924	4.	0.	-35.139
11529	9.016	4.	5.e-002	-1.4188e-007
11530	9.016	3.7273	0.	-36.612
11531	8.924	3.8182	0.	-38.483
11532	9.016	3.8182	5.e-002	4.265e-007
11533	9.016	3.5455	0.	-39.126
11534	8.924	3.6364	0.	-41.309
11535	9.016	3.6364	5.e-002	2.1724e-006
11536	9.016	3.3636	0.	-40.994
11537	8.924	3.4545	0.	-43.522
11538	9.016	3.4545	5.e-002	1.7072e-006
11539	9.016	3.1818	0.	-42.144
11540	8.924	3.2727	0.	-45.043
11541	9.016	3.2727	5.e-002	2.6235e-006
11542	9.016	3.	0.	-42.532
11543	8.924	3.0909	0.	-45.817
11544	9.016	3.0909	5.e-002	2.1497e-006
11545	9.016	2.8182	0.	-42.144
11546	8.924	2.9091	0.	-45.817
11547	9.016	2.9091	5.e-002	3.5674e-006
11548	9.016	2.6364	0.	-40.994
11549	8.924	2.7273	0.	-45.043
11550	9.016	2.7273	5.e-002	3.0503e-006
11551	9.016	2.4545	0.	-39.126
11552	8.924	2.5455	0.	-43.522
11553	9.016	2.5455	5.e-002	2.9615e-006
11554	9.016	2.2727	0.	-36.612
11555	8.924	2.3636	0.	-41.309
11556	9.016	2.3636	5.e-002	3.2975e-006
11557	9.016	2.0909	0.	-33.546
11558	8.924	2.1818	0.	-38.483
11559	9.016	2.1818	5.e-002	3.0399e-006
11560	9.016	1.9091	0.	-30.04
11561	8.924	2.	0.	-35.139
11562	9.016	2.	5.e-002	2.5963e-006
11563	9.016	1.7273	0.	-26.216
11564	8.924	1.8182	0.	-31.389
11565	9.016	1.8182	5.e-002	3.5158e-006
11566	9.016	1.5455	0.	-22.202
11567	8.924	1.6364	0.	-27.351
11568	9.016	1.6364	5.e-002	3.3581e-006
11569	9.016	1.3636	0.	-18.122
11570	8.924	1.4545	0.	-23.145
11571	9.016	1.4545	5.e-002	2.6302e-006
11572	9.016	1.1818	0.	-14.092
11573	8.924	1.2727	0.	-18.886
11574	9.016	1.2727	5.e-002	2.8127e-006
11575	9.016	1.	0.	-10.211
11576	8.924	1.0909	0.	-14.676
11577	9.016	1.0909	5.e-002	2.941e-006
11578	9.016	0.81818	0.	-6.5537
11579	8.924	0.90909	0.	-10.6
11580	9.016	0.90909	5.e-002	2.4314e-006
11581	9.016	0.63636	0.	-3.1686
11582	8.924	0.72727	0.	-6.7201
11583	9.016	0.72727	5.e-002	1.6078e-006
11584	9.016	0.45455	0.	-6.2684e-002
11585	8.924	0.54545	0.	-3.0698
11586	9.016	0.54545	5.e-002	1.4007e-006
11587	9.016	0.27273	0.	6.2167e-004
11588	8.924	0.36364	0.	5.7203e-003
11589	9.016	0.36364	5.e-002	1.1871e-006
11590	8.924	0.18182	0.	-9.3607e-003
11591	9.016	0.18182	5.e-002	2.5693e-006
11592	9.016	9.0909e-002	0.	2.8815e-003
11593	8.832	5.7273	0.	-8.127e-003
11594	8.74	5.8182	0.	-2.2077e-002
11595	8.832	5.8182	5.e-002	-2.4145e-006
11596	8.832	5.9091	0.	-2.9037e-003
11597	8.832	5.5455	0.	-2.6494
11598	8.74	5.6364	0.	-1.7385
11599	8.832	5.6364	5.e-002	6.8596e-007
11600	8.832	5.3636	0.	-6.6364
11601	8.74	5.4545	0.	-6.1118
11602	8.832	5.4545	5.e-002	1.2575e-006
11603	8.832	5.1818	0.	-10.78
11604	8.74	5.2727	0.	-10.579
11605	8.832	5.2727	5.e-002	-1.9949e-007
11606	8.832	5.	0.	-15.077
11607	8.74	5.0909	0.	-15.167
11608	8.832	5.0909	5.e-002	-1.2897e-007
11609	8.832	4.8182	0.	-19.48
11610	8.74	4.9091	0.	-19.839
11611	8.832	4.9091	5.e-002	-6.363e-007
11612	8.832	4.6364	0.	-23.919
11613	8.74	4.7273	0.	-24.534
11614	8.832	4.7273	5.e-002	-5.8441e-007
11615	8.832	4.4545	0.	-28.304
11616	8.74	4.5455	0.	-29.173
11617	8.832	4.5455	5.e-002	-4.8008e-007
11618	8.832	4.2727	0.	-32.533
11619	8.74	4.3636	0.	-33.665
11620	8.832	4.3636	5.e-002	-8.2538e-007
11621	8.832	4.0909	0.	-36.496
11622	8.74	4.1818	0.	-37.908
11623	8.832	4.1818	5.e-002	-3.4563e-007
11624	8.832	3.9091	0.	-40.083
11625	8.74	4.	0.	-41.796
11626	8.832	4.	5.e-002	1.2758e-007
11627	8.832	3.7273	0.	-43.188
11628	8.74	3.8182	0.	-45.225
11629	8.832	3.8182	5.e-002	4.8155e-007
11630	8.832	3.5455	0.	-45.713
11631	8.74	3.6364	0.	-48.099
11632	8.832	3.6364	5.e-002	1.3071e-006
11633	8.832	3.3636	0.	-47.579
11634	8.74	3.4545	0.	-50.335
11635	8.832	3.4545	5.e-002	1.2812e-006
11636	8.832	3.1818	0.	-48.724
11637	8.74	3.2727	0.	-51.864
11638	8.832	3.2727	5.e-002	2.1937e-006
11639	8.832	3.	0.	-49.11
11640	8.74	3.0909	0.	-52.641
11641	8.832	3.0909	5.e-002	1.6855e-006
11642	8.832	2.8182	0.	-48.724
11643	8.74	2.9091	0.	-52.641
11644	8.832	2.9091	5.e-002	3.0783e-006
11645	8.832	2.6364	0.	-47.579
11646	8.74	2.7273	0.	-51.864
11647	8.832	2.7273	5.e-002	4.4415e-006
11648	8.832	2.4545	0.	-45.713
11649	8.74	2.5455	0.	-50.335
11650	8.832	2.5455	5.e-002	2.9186e-006
11651	8.832	2.2727	0.	-43.188
11652	8.74	2.3636	0.	-48.099
11653	8.832	2.3636	5.e-002	3.6657e-006
11654	8.832	2.0909	0.	-40.083
11655	8.74	2.1818	0.	-45.225
11656	8.832	2.1818	5.e-002	3.5271e-006
11657	8.832	1.9091	0.	-36.496
11658	8.74	2.	0.	-41.796
11659	8.832	2.	5.e-002	3.88e-006
11660	8.832	1.7273	0.	-32.533
11661	8.74	1.8182	0.	-37.908
11662	8.832	1.8182	5.e-002	3.2431e-006
11663	8.832	1.5455	0.	-28.304
11664	8.74	1.6364	0.	-33.665
11665	8.832	1.6364	5.e-002	3.3896e-006
11666	8.832	1.3636	0.	-23.919
11667	8.74	1.4545	0.	-29.173
11668	8.832	1.4545	5.e-002	3.229e-006
11669	8.832	1.1818	0.	-19.48
11670	8.74	1.2727	0.	-24.534
11671	8.832	1.2727	5.e-002	3.5997e-006
11672	8.832	1.	0.	-15.077
11673	8.74	1.0909	0.	-19.839
11674	8.832	1.0909	5.e-002	2.9438e-006
11675	8.832	0.81818	0.	-10.78
11676	8.74	0.90909	0.	-15.167
11677	8.832	0.90909	5.e-002	2.7377e-006
11678	8.832	0.63636	0.	-6.6364
11679	8.74	0.72727	0.	-10.579
11680	8.832	0.72727	5.e-002	2.0391e-006
11681	8.832	0.45455	0.	-2.6494
11682	8.74	0.54545	0.	-6.1117
11683	8.832	0.54545	5.e-002	1.5107e-006
11684	8.832	0.27273	0.	-8.1253e-003
11685	8.74	0.36364	0.	-1.7384
11686	8.832	0.36364	5.e-002	1.2603e-006
11687	8.74	0.18182	0.	-2.2076e-002
11688	8.832	0.18182	5.e-002	3.6271e-006
11689	8.832	9.0909e-002	0.	-2.9023e-003
11690	8.648	5.7273	0.	-0.25617
11691	8.556	5.8182	0.	-5.2366e-002
11692	8.648	5.8182	5.e-002	-5.8665e-006
11693	8.648	5.9091	0.	-1.3335e-002
11694	8.648	5.5455	0.	-5.2169
11695	8.556	5.6364	0.	-3.8522
11696	8.648	5.6364	5.e-002	3.2125e-007
11697	8.648	5.3636	0.	-10.069
11698	8.556	5.4545	0.	-9.1375
11699	8.648	5.4545	5.e-002	3.6218e-007
11700	8.648	5.1818	0.	-14.979
11701	8.556	5.2727	0.	-14.428
11702	8.648	5.2727	5.e-002	-7.6216e-007
11703	8.648	5.	0.	-19.94
11704	8.556	5.0909	0.	-19.744
11705	8.648	5.0909	5.e-002	-8.867e-007
11706	8.648	4.8182	0.	-24.902
11707	8.556	4.9091	0.	-25.043
11708	8.648	4.9091	5.e-002	-1.3268e-006
11709	8.648	4.6364	0.	-29.797
11710	8.556	4.7273	0.	-30.267
11711	8.648	4.7273	5.e-002	-1.2217e-006
11712	8.648	4.4545	0.	-34.544
11713	8.556	4.5455	0.	-35.34
11714	8.648	4.5455	5.e-002	-1.3133e-006
11715	8.648	4.2727	0.	-39.049
11716	8.556	4.3636	0.	-40.177
11717	8.648	4.3636	5.e-002	-1.0922e-006
11718	8.648	4.0909	0.	-43.215
11719	8.556	4.1818	0.	-44.686
11720	8.648	4.1818	5.e-002	-4.2251e-007
11721	8.648	3.9091	0.	-46.944
11722	8.556	4.	0.	-48.772
11723	8.648	4.	5.e-002	-8.0632e-007
11724	8.648	3.7273	0.	-50.143
11725	8.556	3.8182	0.	-52.343
11726	8.648	3.8182	5.e-002	3.8521e-008
11727	8.648	3.5455	0.	-52.728
11728	8.556	3.6364	0.	-55.316
11729	8.648	3.6364	5.e-002	4.6275e-007
11730	8.648	3.3636	0.	-54.627
11731	8.556	3.4545	0.	-57.615
11732	8.648	3.4545	5.e-002	1.817e-006
11733	8.648	3.1818	0.	-55.789
11734	8.556	3.2727	0.	-59.182
11735	8.648	3.2727	5.e-002	1.2576e-006
11736	8.648	3.	0.	-56.18
11737	8.556	3.0909	0.	-59.975
11738	8.648	3.0909	5.e-002	2.1676e-006
11739	8.648	2.8182	0.	-55.789
11740	8.556	2.9091	0.	-59.975
11741	8.648	2.9091	5.e-002	3.0725e-006
11742	8.648	2.6364	0.	-54.627
11743	8.556	2.7273	0.	-59.182
11744	8.648	2.7273	5.e-002	3.0003e-006
11745	8.648	2.4545	0.	-52.728
11746	8.556	2.5455	0.	-57.615
11747	8.648	2.5455	5.e-002	2.89e-006
11748	8.648	2.2727	0.	-50.143
11749	8.556	2.3636	0.	-55.316
11750	8.648	2.3636	5.e-002	2.7421e-006
11751	8.648	2.0909	0.	-46.944
11752	8.556	2.1818	0.	-52.343
11753	8.648	2.1818	5.e-002	3.0723e-006
11754	8.648	1.9091	0.	-43.215
11755	8.556	2.	0.	-48.772
11756	8.648	2.	5.e-002	2.7585e-006
11757	8.648	1.7273	0.	-39.049
11758	8.556	1.8182	0.	-44.686
11759	8.648	1.8182	5.e-002	3.3169e-006
11760	8.648	1.5455	0.	-34.544
11761	8.556	1.6364	0.	-40.177
11762	8.648	1.6364	5.e-002	3.1392e-006
11763	8.648	1.3636	0.	-29.797
11764	8.556	1.4545	0.	-35.34
11765	8.648	1.4545	5.e-002	2.5475e-006
11766	8.648	1.1818	0.	-24.902
11767	8.556	1.2727	0.	-30.267
11768	8.648	1.2727	5.e-002	2.8827e-006
11769	8.648	1.	0.	-19.94
11770	8.556	1.0909	0.	-25.043
11771	8.648	1.0909	5.e-002	3.2667e-006
11772	8.648	0.81818	0.	-14.979
11773	8.556	0.90909	0.	-19.744
11774	8.648	0.90909	5.e-002	2.7075e-006
11775	8.648	0.63636	0.	-10.069
11776	8.556	0.72727	0.	-14.428
11777	8.648	0.72727	5.e-002	2.048e-006
11778	8.648	0.45455	0.	-5.2169
11779	8.556	0.54545	0.	-9.1375
11780	8.648	0.54545	5.e-002	1.4546e-006
11781	8.648	0.27273	0.	-0.25614
11782	8.556	0.36364	0.	-3.8522
11783	8.648	0.36364	5.e-002	1.4892e-006
11784	8.556	0.18182	0.	-5.2364e-002
11785	8.648	0.18182	5.e-002	5.2789e-006
11786	8.648	9.0909e-002	0.	-1.3334e-002
11787	8.464	5.7273	0.	-1.7754
11788	8.372	5.8182	0.	-0.15237
11789	8.464	5.8182	5.e-002	-7.3997e-006
11790	8.464	5.9091	0.	-3.3879e-002
11791	8.464	5.5455	0.	-7.7886
11792	8.372	5.6364	0.	-5.9834
11793	8.464	5.6364	5.e-002	-1.3203e-007
11794	8.464	5.3636	0.	-13.51
11795	8.372	5.4545	0.	-12.185
11796	8.464	5.4545	5.e-002	-7.5981e-008
11797	8.464	5.1818	0.	-19.205
11798	8.372	5.2727	0.	-18.314
11799	8.464	5.2727	5.e-002	-1.377e-006
11800	8.464	5.	0.	-24.858
11801	8.372	5.0909	0.	-24.384
11802	8.464	5.0909	5.e-002	-1.0649e-006
11803	8.464	4.8182	0.	-30.418
11804	8.372	4.9091	0.	-30.348
11805	8.464	4.9091	5.e-002	-1.1796e-006
11806	8.464	4.6364	0.	-35.818
11807	8.372	4.7273	0.	-36.146
11808	8.464	4.7273	5.e-002	-1.6708e-006
11809	8.464	4.4545	0.	-40.981
11810	8.372	4.5455	0.	-41.704
11811	8.464	4.5455	5.e-002	-8.6574e-007
11812	8.464	4.2727	0.	-45.821
11813	8.372	4.3636	0.	-46.943
11814	8.464	4.3636	5.e-002	-2.6992e-006
11815	8.464	4.0909	0.	-50.249
11816	8.372	4.1818	0.	-51.776
11817	8.464	4.1818	5.e-002	-1.5721e-006
11818	8.464	3.9091	0.	-54.178
11819	8.372	4.	0.	-56.118
11820	8.464	4.	5.e-002	-1.2168e-006
11821	8.464	3.7273	0.	-57.522
11822	8.372	3.8182	0.	-59.885
11823	8.464	3.8182	5.e-002	-5.2939e-007
11824	8.464	3.5455	0.	-60.209
11825	8.372	3.6364	0.	-63.001
11826	8.464	3.6364	5.e-002	9.5684e-007
11827	8.464	3.3636	0.	-62.175
11828	8.372	3.4545	0.	-65.401
11829	8.464	3.4545	5.e-002	1.2763e-006
11830	8.464	3.1818	0.	-63.374
11831	8.372	3.2727	0.	-67.03
11832	8.464	3.2727	5.e-002	2.2157e-006
11833	8.464	3.	0.	-63.777
11834	8.372	3.0909	0.	-67.855
11835	8.464	3.0909	5.e-002	1.6916e-006
11836	8.464	2.8182	0.	-63.374
11837	8.372	2.9091	0.	-67.855
11838	8.464	2.9091	5.e-002	2.1188e-006
11839	8.464	2.6364	0.	-62.175
11840	8.372	2.7273	0.	-67.03
11841	8.464	2.7273	5.e-002	3.4813e-006
11842	8.464	2.4545	0.	-60.209
11843	8.372	2.5455	0.	-65.401
11844	8.464	2.5455	5.e-002	1.4853e-006
11845	8.464	2.2727	0.	-57.522
11846	8.372	2.3636	0.	-63.001
11847	8.464	2.3636	5.e-002	3.2193e-006
11848	8.464	2.0909	0.	-54.178
11849	8.372	2.1818	0.	-59.885
11850	8.464	2.1818	5.e-002	2.6094e-006
11851	8.464	1.9091	0.	-50.249
11852	8.372	2.	0.	-56.118
11853	8.464	2.	5.e-002	2.2083e-006
11854	8.464	1.7273	0.	-45.821
11855	8.372	1.8182	0.	-51.776
11856	8.464	1.8182	5.e-002	2.8949e-006
11857	8.464	1.5455	0.	-40.981
11858	8.372	1.6364	0.	-46.943
11859	8.464	1.6364	5.e-002	3.e-006
11860	8.464	1.3636	0.	-35.818
11861	8.372	1.4545	0.	-41.704
11862	8.464	1.4545	5.e-002	3.1514e-006
11863	8.464	1.1818	0.	-30.418
11864	8.372	1.2727	0.	-36.146
11865	8.464	1.2727	5.e-002	2.5189e-006
11866	8.464	1.	0.	-24.858
11867	8.372	1.0909	0.	-30.348
11868	8.464	1.0909	5.e-002	2.9731e-006
11869	8.464	0.81818	0.	-19.204
11870	8.372	0.90909	0.	-24.384
11871	8.464	0.90909	5.e-002	2.7718e-006
11872	8.464	0.63636	0.	-13.51
11873	8.372	0.72727	0.	-18.314
11874	8.464	0.72727	5.e-002	2.6765e-006
11875	8.464	0.45455	0.	-7.7886
11876	8.372	0.54545	0.	-12.184
11877	8.464	0.54545	5.e-002	2.6067e-006
11878	8.464	0.27273	0.	-1.7754
11879	8.372	0.36364	0.	-5.9834
11880	8.464	0.36364	5.e-002	2.2062e-006
11881	8.372	0.18182	0.	-0.15237
11882	8.464	0.18182	5.e-002	7.6062e-006
11883	8.464	9.0909e-002	0.	-3.3877e-002
11884	8.28	5.7273	0.	-3.4319
11885	8.188	5.8182	0.	-0.64859
11886	8.28	5.8182	5.e-002	-1.0704e-005
11887	8.28	5.9091	0.	-8.2022e-002
11888	8.28	5.5455	0.	-10.394
11889	8.188	5.6364	0.	-8.1543
11890	8.28	5.6364	5.e-002	-3.7354e-007
11891	8.28	5.3636	0.	-17.001
11892	8.188	5.4545	0.	-15.287
11893	8.28	5.4545	5.e-002	-4.9983e-007
11894	8.28	5.1818	0.	-23.504
11895	8.188	5.2727	0.	-22.279
11896	8.28	5.2727	5.e-002	-1.3375e-006
11897	8.28	5.	0.	-29.884
11898	8.188	5.0909	0.	-29.137
11899	8.28	5.0909	5.e-002	-1.7559e-006
11900	8.28	4.8182	0.	-36.085
11901	8.188	4.9091	0.	-35.807
11902	8.28	4.9091	5.e-002	-1.8619e-006
11903	8.28	4.6364	0.	-42.04
11904	8.188	4.7273	0.	-42.227
11905	8.28	4.7273	5.e-002	-2.5029e-006
11906	8.28	4.4545	0.	-47.673
11907	8.188	4.5455	0.	-48.324
11908	8.28	4.5455	5.e-002	-2.1279e-006
11909	8.28	4.2727	0.	-52.905
11910	8.188	4.3636	0.	-54.02
11911	8.28	4.3636	5.e-002	-1.8511e-006
11912	8.28	4.0909	0.	-57.651
11913	8.188	4.1818	0.	-59.234
11914	8.28	4.1818	5.e-002	-7.5016e-007
11915	8.28	3.9091	0.	-61.832
11916	8.188	4.	0.	-63.886
11917	8.28	4.	5.e-002	-1.1834e-006
11918	8.28	3.7273	0.	-65.37
11919	8.188	3.8182	0.	-67.899
11920	8.28	3.8182	5.e-002	1.7047e-008
11921	8.28	3.5455	0.	-68.199
11922	8.188	3.6364	0.	-71.202
11923	8.28	3.6364	5.e-002	-4.9006e-007
11924	8.28	3.3636	0.	-70.262
11925	8.188	3.4545	0.	-73.736
11926	8.28	3.4545	5.e-002	-1.8657e-007
11927	8.28	3.1818	0.	-71.517
11928	8.188	3.2727	0.	-75.452
11929	8.28	3.2727	5.e-002	1.2485e-006
11930	8.28	3.	0.	-71.938
11931	8.188	3.0909	0.	-76.319
11932	8.28	3.0909	5.e-002	1.6877e-006
11933	8.28	2.8182	0.	-71.517
11934	8.188	2.9091	0.	-76.319
11935	8.28	2.9091	5.e-002	2.1223e-006
11936	8.28	2.6364	0.	-70.262
11937	8.188	2.7273	0.	-75.452
11938	8.28	2.7273	5.e-002	2.522e-006
11939	8.28	2.4545	0.	-68.199
11940	8.188	2.5455	0.	-73.736
11941	8.28	2.5455	5.e-002	2.9174e-006
11942	8.28	2.2727	0.	-65.37
11943	8.188	2.3636	0.	-71.202
11944	8.28	2.3636	5.e-002	3.2869e-006
11945	8.28	2.0909	0.	-61.832
11946	8.188	2.1818	0.	-67.899
11947	8.28	2.1818	5.e-002	3.0752e-006
11948	8.28	1.9091	0.	-57.651
11949	8.188	2.	0.	-63.886
11950	8.28	2.	5.e-002	2.496e-006
11951	8.28	1.7273	0.	-52.905
11952	8.188	1.8182	0.	-59.234
11953	8.28	1.8182	5.e-002	3.9338e-006
11954	8.28	1.5455	0.	-47.673
11955	8.188	1.6364	0.	-54.02
11956	8.28	1.6364	5.e-002	3.7645e-006
11957	8.28	1.3636	0.	-42.04
11958	8.188	1.4545	0.	-48.324
11959	8.28	1.4545	5.e-002	2.5746e-006
11960	8.28	1.1818	0.	-36.085
11961	8.188	1.2727	0.	-42.227
11962	8.28	1.2727	5.e-002	4.2374e-006
11963	8.28	1.	0.	-29.884
11964	8.188	1.0909	0.	-35.807
11965	8.28	1.0909	5.e-002	3.0259e-006
11966	8.28	0.81818	0.	-23.504
11967	8.188	0.90909	0.	-29.137
11968	8.28	0.90909	5.e-002	2.8494e-006
11969	8.28	0.63636	0.	-17.001
11970	8.188	0.72727	0.	-22.279
11971	8.28	0.72727	5.e-002	2.5207e-006
11972	8.28	0.45455	0.	-10.394
11973	8.188	0.54545	0.	-15.287
11974	8.28	0.54545	5.e-002	3.0068e-006
11975	8.28	0.27273	0.	-3.4318
11976	8.188	0.36364	0.	-8.1543
11977	8.28	0.36364	5.e-002	2.9157e-006
11978	8.188	0.18182	0.	-0.64857
11979	8.28	0.18182	5.e-002	8.8271e-006
11980	8.28	9.0909e-002	0.	-8.2019e-002
11981	8.096	5.7273	0.	-5.1397
11982	8.004	5.8182	0.	-1.7286
11983	8.096	5.8182	5.e-002	-1.0111e-005
11984	8.096	5.9091	0.	-0.23031
11985	8.096	5.5455	0.	-13.061
11986	8.004	5.6364	0.	-10.385
11987	8.096	5.6364	5.e-002	-8.1212e-007
11988	8.096	5.3636	0.	-20.577
11989	8.004	5.4545	0.	-18.475
11990	8.096	5.4545	5.e-002	-1.0197e-006
11991	8.096	5.1818	0.	-27.922
11992	8.004	5.2727	0.	-26.364
11993	8.096	5.2727	5.e-002	-1.7593e-006
11994	8.096	5.	0.	-35.069
11995	8.004	5.0909	0.	-34.049
11996	8.096	5.0909	5.e-002	-2.0661e-006
11997	8.096	4.8182	0.	-41.957
11998	8.004	4.9091	0.	-41.471
11999	8.096	4.9091	5.e-002	-2.3148e-006
12000	8.096	4.6364	0.	-48.518
12001	8.004	4.7273	0.	-48.564
12002	8.096	4.7273	5.e-002	-2.1104e-006
12003	8.096	4.4545	0.	-54.677
12004	8.004	4.5455	0.	-55.254
12005	8.096	4.5455	5.e-002	-1.798e-006
12006	8.096	4.2727	0.	-60.355
12007	8.004	4.3636	0.	-61.463
12008	8.096	4.3636	5.e-002	-1.8814e-006
12009	8.096	4.0909	0.	-65.475
12010	8.004	4.1818	0.	-67.114
12011	8.096	4.1818	5.e-002	-1.6453e-006
12012	8.096	3.9091	0.	-69.958
12013	8.004	4.	0.	-72.129
12014	8.096	4.	5.e-002	-2.3103e-006
12015	8.096	3.7273	0.	-73.736
12016	8.004	3.8182	0.	-76.435
12017	8.096	3.8182	5.e-002	-1.2257e-006
12018	8.096	3.5455	0.	-76.744
12019	8.004	3.6364	0.	-79.966
12020	8.096	3.6364	5.e-002	-5.8144e-007
12021	8.096	3.3636	0.	-78.931
12022	8.004	3.4545	0.	-82.667
12023	8.096	3.4545	5.e-002	2.6816e-006
12024	8.096	3.1818	0.	-80.26
12025	8.004	3.2727	0.	-84.493
12026	8.096	3.2727	5.e-002	3.1177e-006
12027	8.096	3.	0.	-80.705
12028	8.004	3.0909	0.	-85.414
12029	8.096	3.0909	5.e-002	7.2877e-007
12030	8.096	2.8182	0.	-80.26
12031	8.004	2.9091	0.	-85.414
12032	8.096	2.9091	5.e-002	2.1302e-006
12033	8.096	2.6364	0.	-78.931
12034	8.004	2.7273	0.	-84.493
12035	8.096	2.7273	5.e-002	3.504e-006
12036	8.096	2.4545	0.	-76.744
12037	8.004	2.5455	0.	-82.667
12038	8.096	2.5455	5.e-002	2.9674e-006
12039	8.096	2.2727	0.	-73.736
12040	8.004	2.3636	0.	-79.966
12041	8.096	2.3636	5.e-002	2.3671e-006
12042	8.096	2.0909	0.	-69.958
12043	8.004	2.1818	0.	-76.435
12044	8.096	2.1818	5.e-002	2.8476e-006
12045	8.096	1.9091	0.	-65.475
12046	8.004	2.	0.	-72.129
12047	8.096	2.	5.e-002	2.8908e-006
12048	8.096	1.7273	0.	-60.355
12049	8.004	1.8182	0.	-67.114
12050	8.096	1.8182	5.e-002	3.719e-006
12051	8.096	1.5455	0.	-54.677
12052	8.004	1.6364	0.	-61.463
12053	8.096	1.6364	5.e-002	2.601e-006
12054	8.096	1.3636	0.	-48.518
12055	8.004	1.4545	0.	-55.254
12056	8.096	1.4545	5.e-002	3.301e-006
12057	8.096	1.1818	0.	-41.957
12058	8.004	1.2727	0.	-48.564
12059	8.096	1.2727	5.e-002	4.0019e-006
12060	8.096	1.	0.	-35.069
12061	8.004	1.0909	0.	-41.471
12062	8.096	1.0909	5.e-002	3.2955e-006
12063	8.096	0.81818	0.	-27.922
12064	8.004	0.90909	0.	-34.049
12065	8.096	0.90909	5.e-002	2.5867e-006
12066	8.096	0.63636	0.	-20.577
12067	8.004	0.72727	0.	-26.364
12068	8.096	0.72727	5.e-002	2.6879e-006
12069	8.096	0.45455	0.	-13.061
12070	8.004	0.54545	0.	-18.475
12071	8.096	0.54545	5.e-002	2.8861e-006
12072	8.096	0.27273	0.	-5.1397
12073	8.004	0.36364	0.	-10.385
12074	8.096	0.36364	5.e-002	2.8405e-006
12075	8.004	0.18182	0.	-1.7286
12076	8.096	0.18182	5.e-002	1.1242e-005
12077	8.096	9.0909e-002	0.	-0.2303
12078	7.912	5.7273	0.	-6.9076
12079	7.82	5.8182	0.	-2.9857
12080	7.912	5.8182	5.e-002	-1.483e-005
12081	7.912	5.9091	0.	-0.65833
12082	7.912	5.5455	0.	-15.813
12083	7.82	5.6364	0.	-12.696
12084	7.912	5.6364	5.e-002	-2.619e-006
12085	7.912	5.3636	0.	-24.273
12086	7.82	5.4545	0.	-21.779
12087	7.912	5.4545	5.e-002	-2.0313e-006
12088	7.912	5.1818	0.	-32.5
12089	7.82	5.2727	0.	-30.606
12090	7.912	5.2727	5.e-002	-2.7055e-006
12091	7.912	5.	0.	-40.459
12092	7.82	5.0909	0.	-39.164
12093	7.912	5.0909	5.e-002	-1.8156e-006
12094	7.912	4.8182	0.	-48.085
12095	7.82	4.9091	0.	-47.39
12096	7.912	4.9091	5.e-002	-3.2218e-006
12097	7.912	4.6364	0.	-55.306
12098	7.82	4.7273	0.	-55.21
12099	7.912	4.7273	5.e-002	-2.7971e-006
12100	7.912	4.4545	0.	-62.046
12101	7.82	4.5455	0.	-62.549
12102	7.912	4.5455	5.e-002	-2.3209e-006
12103	7.912	4.2727	0.	-68.227
12104	7.82	4.3636	0.	-69.329
12105	7.912	4.3636	5.e-002	-2.7491e-006
12106	7.912	4.0909	0.	-73.773
12107	7.82	4.1818	0.	-75.471
12108	7.912	4.1818	5.e-002	-1.7652e-006
12109	7.912	3.9091	0.	-78.61
12110	7.82	4.	0.	-80.901
12111	7.912	4.	5.e-002	-2.4003e-006
12112	7.912	3.7273	0.	-82.67
12113	7.82	3.8182	0.	-85.547
12114	7.912	3.8182	5.e-002	-1.0165e-006
12115	7.912	3.5455	0.	-85.894
12116	7.82	3.6364	0.	-89.347
12117	7.912	3.6364	5.e-002	-7.8857e-007
12118	7.912	3.3636	0.	-88.233
12119	7.82	3.4545	0.	-92.246
12120	7.912	3.4545	5.e-002	-1.9215e-007
12121	7.912	3.1818	0.	-89.651
12122	7.82	3.2727	0.	-94.203
12123	7.912	3.2727	5.e-002	1.1992e-006
12124	7.912	3.	0.	-90.126
12125	7.82	3.0909	0.	-95.189
12126	7.912	3.0909	5.e-002	7.1752e-007
12127	7.912	2.8182	0.	-89.651
12128	7.82	2.9091	0.	-95.189
12129	7.912	2.9091	5.e-002	1.185e-006
12130	7.912	2.6364	0.	-88.233
12131	7.82	2.7273	0.	-94.203
12132	7.912	2.7273	5.e-002	2.597e-006
12133	7.912	2.4545	0.	-85.894
12134	7.82	2.5455	0.	-92.246
12135	7.912	2.5455	5.e-002	3.0187e-006
12136	7.912	2.2727	0.	-82.67
12137	7.82	2.3636	0.	-89.347
12138	7.912	2.3636	5.e-002	4.3216e-006
12139	7.912	2.0909	0.	-78.61
12140	7.82	2.1818	0.	-85.547
12141	7.912	2.1818	5.e-002	3.7154e-006
12142	7.912	1.9091	0.	-73.773
12143	7.82	2.	0.	-80.901
12144	7.912	2.	5.e-002	4.0953e-006
12145	7.912	1.7273	0.	-68.227
12146	7.82	1.8182	0.	-75.471
12147	7.912	1.8182	5.e-002	3.2238e-006
12148	7.912	1.5455	0.	-62.046
12149	7.82	1.6364	0.	-69.329
12150	7.912	1.6364	5.e-002	2.9781e-006
12151	7.912	1.3636	0.	-55.306
12152	7.82	1.4545	0.	-62.549
12153	7.912	1.4545	5.e-002	3.5067e-006
12154	7.912	1.1818	0.	-48.085
12155	7.82	1.2727	0.	-55.21
12156	7.912	1.2727	5.e-002	4.6533e-006
12157	7.912	1.	0.	-40.459
12158	7.82	1.0909	0.	-47.39
12159	7.912	1.0909	5.e-002	3.911e-006
12160	7.912	0.81818	0.	-32.5
12161	7.82	0.90909	0.	-39.164
12162	7.912	0.90909	5.e-002	3.407e-006
12163	7.912	0.63636	0.	-24.273
12164	7.82	0.72727	0.	-30.606
12165	7.912	0.72727	5.e-002	3.6474e-006
12166	7.912	0.45455	0.	-15.813
12167	7.82	0.54545	0.	-21.779
12168	7.912	0.54545	5.e-002	2.7684e-006
12169	7.912	0.27273	0.	-6.9076
12170	7.82	0.36364	0.	-12.696
12171	7.912	0.36364	5.e-002	2.4532e-006
12172	7.82	0.18182	0.	-2.9857
12173	7.912	0.18182	5.e-002	1.383e-005
12174	7.912	9.0909e-002	0.	-0.65831
12175	7.728	5.7273	0.	-8.747
12176	7.636	5.8182	0.	-4.3256
12177	7.728	5.8182	5.e-002	-2.238e-005
12178	7.728	5.9091	0.	-1.3207
12179	7.728	5.5455	0.	-18.674
12180	7.636	5.6364	0.	-15.102
12181	7.728	5.6364	5.e-002	-3.292e-006
12182	7.728	5.3636	0.	-28.121
12183	7.636	5.4545	0.	-25.225
12184	7.728	5.4545	5.e-002	-2.9328e-006
12185	7.728	5.1818	0.	-37.278
12186	7.636	5.2727	0.	-35.039
12187	7.728	5.2727	5.e-002	-3.0039e-006
12188	7.728	5.	0.	-46.102
12189	7.636	5.0909	0.	-44.525
12190	7.728	5.0909	5.e-002	-2.8393e-006
12191	7.728	4.8182	0.	-54.52
12192	7.636	4.9091	0.	-53.61
12193	7.728	4.9091	5.e-002	-3.4987e-006
12194	7.728	4.6364	0.	-62.458
12195	7.636	4.7273	0.	-62.216
12196	7.728	4.7273	5.e-002	-3.7197e-006
12197	7.728	4.4545	0.	-69.836
12198	7.636	4.5455	0.	-70.264
12199	7.728	4.5455	5.e-002	-3.918e-006
12200	7.728	4.2727	0.	-76.577
12201	7.636	4.3636	0.	-77.673
12202	7.728	4.3636	5.e-002	-1.2612e-006
12203	7.728	4.0909	0.	-82.603
12204	7.636	4.1818	0.	-84.364
12205	7.728	4.1818	5.e-002	-2.9371e-006
12206	7.728	3.9091	0.	-87.842
12207	7.636	4.	0.	-90.261
12208	7.728	4.	5.e-002	-2.334e-006
12209	7.728	3.7273	0.	-92.228
12210	7.636	3.8182	0.	-95.294
12211	7.728	3.8182	5.e-002	-1.1498e-006
12212	7.728	3.5455	0.	-95.703
12213	7.636	3.6364	0.	-99.401
12214	7.728	3.6364	5.e-002	1.1442e-007
12215	7.728	3.3636	0.	-98.219
12216	7.636	3.4545	0.	-102.53
12217	7.728	3.4545	5.e-002	-3.6264e-007
12218	7.728	3.1818	0.	-99.744
12219	7.636	3.2727	0.	-104.64
12220	7.728	3.2727	5.e-002	1.1527e-006
12221	7.728	3.	0.	-100.25
12222	7.636	3.0909	0.	-105.7
12223	7.728	3.0909	5.e-002	1.6531e-006
12224	7.728	2.8182	0.	-99.744
12225	7.636	2.9091	0.	-105.7
12226	7.728	2.9091	5.e-002	2.149e-006
12227	7.728	2.6364	0.	-98.219
12228	7.636	2.7273	0.	-104.64
12229	7.728	2.7273	5.e-002	1.6808e-006
12230	7.728	2.4545	0.	-95.703
12231	7.636	2.5455	0.	-102.53
12232	7.728	2.5455	5.e-002	3.0841e-006
12233	7.728	2.2727	0.	-92.228
12234	7.636	2.3636	0.	-99.401
12235	7.728	2.3636	5.e-002	2.5076e-006
12236	7.728	2.0909	0.	-87.842
12237	7.636	2.1818	0.	-95.294
12238	7.728	2.1818	5.e-002	4.7811e-006
12239	7.728	1.9091	0.	-82.603
12240	7.636	2.	0.	-90.261
12241	7.728	2.	5.e-002	4.1284e-006
12242	7.728	1.7273	0.	-76.577
12243	7.636	1.8182	0.	-84.364
12244	7.728	1.8182	5.e-002	2.701e-006
12245	7.728	1.5455	0.	-69.836
12246	7.636	1.6364	0.	-77.673
12247	7.728	1.6364	5.e-002	5.3804e-006
12248	7.728	1.3636	0.	-62.458
12249	7.636	1.4545	0.	-70.264
12250	7.728	1.4545	5.e-002	3.0773e-006
12251	7.728	1.1818	0.	-54.52
12252	7.636	1.2727	0.	-62.216
12253	7.728	1.2727	5.e-002	3.6549e-006
12254	7.728	1.	0.	-46.102
12255	7.636	1.0909	0.	-53.61
12256	7.728	1.0909	5.e-002	3.6448e-006
12257	7.728	0.81818	0.	-37.278
12258	7.636	0.90909	0.	-44.525
12259	7.728	0.90909	5.e-002	2.4627e-006
12260	7.728	0.63636	0.	-28.121
12261	7.636	0.72727	0.	-35.039
12262	7.728	0.72727	5.e-002	3.4897e-006
12263	7.728	0.45455	0.	-18.674
12264	7.636	0.54545	0.	-25.225
12265	7.728	0.54545	5.e-002	3.8293e-006
12266	7.728	0.27273	0.	-8.7469
12267	7.636	0.36364	0.	-15.102
12268	7.728	0.36364	5.e-002	2.5471e-006
12269	7.636	0.18182	0.	-4.3256
12270	7.728	0.18182	5.e-002	7.6233e-006
12271	7.728	9.0909e-002	0.	-1.3206
12272	7.544	5.7273	0.	-10.669
12273	7.452	5.8182	0.	-5.7368
12274	7.544	5.8182	5.e-002	-2.668e-005
12275	7.544	5.9091	0.	-2.0768
12276	7.544	5.5455	0.	-21.664
12277	7.452	5.6364	0.	-17.622
12278	7.544	5.6364	5.e-002	-1.674e-006
12279	7.544	5.3636	0.	-32.152
12280	7.452	5.4545	0.	-28.84
12281	7.544	5.4545	5.e-002	-2.5779e-006
12282	7.544	5.1818	0.	-42.294
12283	7.452	5.2727	0.	-39.699
12284	7.544	5.2727	5.e-002	-3.9994e-006
12285	7.544	5.	0.	-52.04
12286	7.452	5.0909	0.	-50.173
12287	7.544	5.0909	5.e-002	-4.8163e-006
12288	7.544	4.8182	0.	-61.311
12289	7.452	4.9091	0.	-60.179
12290	7.544	4.9091	5.e-002	-3.208e-006
12291	7.544	4.6364	0.	-70.026
12292	7.452	4.7273	0.	-69.634
12293	7.544	4.7273	5.e-002	-2.6925e-006
12294	7.544	4.4545	0.	-78.104
12295	7.452	4.5455	0.	-78.454
12296	7.544	4.5455	5.e-002	-3.8937e-006
12297	7.544	4.2727	0.	-85.463
12298	7.452	4.3636	0.	-86.553
12299	7.544	4.3636	5.e-002	-3.1141e-006
12300	7.544	4.0909	0.	-92.024
12301	7.452	4.1818	0.	-93.85
12302	7.544	4.1818	5.e-002	-3.4387e-006
12303	7.544	3.9091	0.	-97.715
12304	7.452	4.	0.	-100.27
12305	7.544	4.	5.e-002	-3.0172e-006
12306	7.544	3.7273	0.	-102.47
12307	7.452	3.8182	0.	-105.74
12308	7.544	3.8182	5.e-002	-2.2563e-006
12309	7.544	3.5455	0.	-106.23
12310	7.452	3.6364	0.	-110.19
12311	7.544	3.6364	5.e-002	1.1084e-007
12312	7.544	3.3636	0.	-108.95
12313	7.452	3.4545	0.	-113.58
12314	7.544	3.4545	5.e-002	5.2749e-007
12315	7.544	3.1818	0.	-110.6
12316	7.452	3.2727	0.	-115.86
12317	7.544	3.2727	5.e-002	1.0923e-006
12318	7.544	3.	0.	-111.15
12319	7.452	3.0909	0.	-117.01
12320	7.544	3.0909	5.e-002	1.6431e-006
12321	7.544	2.8182	0.	-110.6
12322	7.452	2.9091	0.	-117.01
12323	7.544	2.9091	5.e-002	2.1705e-006
12324	7.544	2.6364	0.	-108.95
12325	7.452	2.7273	0.	-115.86
12326	7.544	2.7273	5.e-002	2.6688e-006
12327	7.544	2.4545	0.	-106.23
12328	7.452	2.5455	0.	-113.58
12329	7.544	2.5455	5.e-002	2.2098e-006
12330	7.544	2.2727	0.	-102.47
12331	7.452	2.3636	0.	-110.19
12332	7.544	2.3636	5.e-002	1.7111e-006
12333	7.544	2.0909	0.	-97.715
12334	7.452	2.1818	0.	-105.74
12335	7.544	2.1818	5.e-002	4.9154e-006
12336	7.544	1.9091	0.	-92.024
12337	7.452	2.	0.	-100.27
12338	7.544	2.	5.e-002	2.5404e-006
12339	7.544	1.7273	0.	-85.463
12340	7.452	1.8182	0.	-93.85
12341	7.544	1.8182	5.e-002	4.0574e-006
12342	7.544	1.5455	0.	-78.104
12343	7.452	1.6364	0.	-86.553
12344	7.544	1.6364	5.e-002	4.8448e-006
12345	7.544	1.3636	0.	-70.026
12346	7.452	1.4545	0.	-78.454
12347	7.544	1.4545	5.e-002	4.16e-006
12348	7.544	1.1818	0.	-61.311
12349	7.452	1.2727	0.	-69.634
12350	7.544	1.2727	5.e-002	3.41e-006
12351	7.544	1.	0.	-52.04
12352	7.452	1.0909	0.	-60.179
12353	7.544	1.0909	5.e-002	4.0219e-006
12354	7.544	0.81818	0.	-42.294
12355	7.452	0.90909	0.	-50.173
12356	7.544	0.90909	5.e-002	5.506e-006
12357	7.544	0.63636	0.	-32.152
12358	7.452	0.72727	0.	-39.699
12359	7.544	0.72727	5.e-002	4.2108e-006
12360	7.544	0.45455	0.	-21.664
12361	7.452	0.54545	0.	-28.84
12362	7.544	0.54545	5.e-002	4.4478e-006
12363	7.544	0.27273	0.	-10.669
12364	7.452	0.36364	0.	-17.622
12365	7.544	0.36364	5.e-002	3.3778e-006
12366	7.452	0.18182	0.	-5.7367
12367	7.544	0.18182	5.e-002	1.6529e-005
12368	7.544	9.0909e-002	0.	-2.0768
12369	7.36	5.7273	0.	-12.684
12370	7.268	5.8182	0.	-7.2192
12371	7.36	5.8182	5.e-002	-1.6568e-005
12372	7.36	5.9091	0.	-2.8882
12373	7.36	5.5455	0.	-24.806
12374	7.268	5.6364	0.	-20.27
12375	7.36	5.6364	5.e-002	-5.4004e-006
12376	7.36	5.3636	0.	-36.394
12377	7.268	5.4545	0.	-32.646
12378	7.36	5.4545	5.e-002	-2.7385e-006
12379	7.36	5.1818	0.	-47.584
12380	7.268	5.2727	0.	-44.617
12381	7.36	5.2727	5.e-002	-5.4056e-006
12382	7.36	5.	0.	-58.317
12383	7.268	5.0909	0.	-56.146
12384	7.36	5.0909	5.e-002	-4.236e-006
12385	7.36	4.8182	0.	-68.506
12386	7.268	4.9091	0.	-67.143
12387	7.36	4.9091	5.e-002	-7.509e-006
12388	7.36	4.6364	0.	-78.065
12389	7.268	4.7273	0.	-77.516
12390	7.36	4.7273	5.e-002	-3.0951e-006
12391	7.36	4.4545	0.	-86.906
12392	7.268	4.5455	0.	-87.175
12393	7.36	4.5455	5.e-002	-3.9266e-006
12394	7.36	4.2727	0.	-94.943
12395	7.268	4.3636	0.	-96.029
12396	7.36	4.3636	5.e-002	-3.888e-006
12397	7.36	4.0909	0.	-102.1
12398	7.268	4.1818	0.	-103.99
12399	7.36	4.1818	5.e-002	-2.8328e-006
12400	7.36	3.9091	0.	-108.29
12401	7.268	4.	0.	-110.99
12402	7.36	4.	5.e-002	-3.8521e-006
12403	7.36	3.7273	0.	-113.46
12404	7.268	3.8182	0.	-116.94
12405	7.36	3.8182	5.e-002	-1.634e-006
12406	7.36	3.5455	0.	-117.54
12407	7.268	3.6364	0.	-121.78
12408	7.36	3.6364	5.e-002	-5.0316e-007
12409	7.36	3.3636	0.	-120.49
12410	7.268	3.4545	0.	-125.46
12411	7.36	3.4545	5.e-002	-5.0194e-007
12412	7.36	3.1818	0.	-122.28
12413	7.268	3.2727	0.	-127.94
12414	7.36	3.2727	5.e-002	8.4614e-008
12415	7.36	3.	0.	-122.87
12416	7.268	3.0909	0.	-129.18
12417	7.36	3.0909	5.e-002	2.5798e-006
12418	7.36	2.8182	0.	-122.28
12419	7.268	2.9091	0.	-129.18
12420	7.36	2.9091	5.e-002	3.1407e-006
12421	7.36	2.6364	0.	-120.49
12422	7.268	2.7273	0.	-127.94
12423	7.36	2.7273	5.e-002	3.6867e-006
12424	7.36	2.4545	0.	-117.54
12425	7.268	2.5455	0.	-125.46
12426	7.36	2.5455	5.e-002	2.2809e-006
12427	7.36	2.2727	0.	-113.46
12428	7.268	2.3636	0.	-121.78
12429	7.36	2.3636	5.e-002	1.8097e-006
12430	7.36	2.0909	0.	-108.29
12431	7.268	2.1818	0.	-116.94
12432	7.36	2.1818	5.e-002	5.0676e-006
12433	7.36	1.9091	0.	-102.1
12434	7.268	2.	0.	-110.99
12435	7.36	2.	5.e-002	3.9096e-006
12436	7.36	1.7273	0.	-94.943
12437	7.268	1.8182	0.	-103.99
12438	7.36	1.8182	5.e-002	3.6863e-006
12439	7.36	1.5455	0.	-86.906
12440	7.268	1.6364	0.	-96.029
12441	7.36	1.6364	5.e-002	4.5232e-006
12442	7.36	1.3636	0.	-78.065
12443	7.268	1.4545	0.	-87.175
12444	7.36	1.4545	5.e-002	3.7821e-006
12445	7.36	1.1818	0.	-68.506
12446	7.268	1.2727	0.	-77.516
12447	7.36	1.2727	5.e-002	3.7907e-006
12448	7.36	1.	0.	-58.317
12449	7.268	1.0909	0.	-67.143
12450	7.36	1.0909	5.e-002	7.1799e-006
12451	7.36	0.81818	0.	-47.584
12452	7.268	0.90909	0.	-56.146
12453	7.36	0.90909	5.e-002	4.6284e-006
12454	7.36	0.63636	0.	-36.394
12455	7.268	0.72727	0.	-44.617
12456	7.36	0.72727	5.e-002	5.161e-006
12457	7.36	0.45455	0.	-24.806
12458	7.268	0.54545	0.	-32.646
12459	7.36	0.54545	5.e-002	3.2025e-006
12460	7.36	0.27273	0.	-12.684
12461	7.268	0.36364	0.	-20.27
12462	7.36	0.36364	5.e-002	4.7057e-006
12463	7.268	0.18182	0.	-7.2192
12464	7.36	0.18182	5.e-002	1.6726e-005
12465	7.36	9.0909e-002	0.	-2.8882
12466	7.176	5.7273	0.	-14.801
12467	7.084	5.8182	0.	-8.7755
12468	7.176	5.8182	5.e-002	-2.5488e-005
12469	7.176	5.9091	0.	-3.7461
12470	7.176	5.5455	0.	-28.117
12471	7.084	5.6364	0.	-23.06
12472	7.176	5.6364	5.e-002	-4.3326e-006
12473	7.176	5.3636	0.	-40.875
12474	7.084	5.4545	0.	-36.669
12475	7.176	5.4545	5.e-002	-4.5816e-006
12476	7.176	5.1818	0.	-53.184
12477	7.084	5.2727	0.	-49.826
12478	7.176	5.2727	5.e-002	-4.4926e-006
12479	7.176	5.	0.	-64.976
12480	7.084	5.0909	0.	-62.486
12481	7.176	5.0909	5.e-002	-8.3414e-006
12482	7.176	4.8182	0.	-76.156
12483	7.084	4.9091	0.	-74.549
12484	7.176	4.9091	5.e-002	-2.8507e-006
12485	7.176	4.6364	0.	-86.628
12486	7.084	4.7273	0.	-85.915
12487	7.176	4.7273	5.e-002	-4.6082e-006
12488	7.176	4.4545	0.	-96.3
12489	7.084	4.5455	0.	-96.485
12490	7.176	4.5455	5.e-002	-6.4484e-006
12491	7.176	4.2727	0.	-105.08
12492	7.084	4.3636	0.	-106.16
12493	7.176	4.3636	5.e-002	-3.9939e-006
12494	7.176	4.0909	0.	-112.89
12495	7.084	4.1818	0.	-114.86
12496	7.176	4.1818	5.e-002	-3.7205e-006
12497	7.176	3.9091	0.	-119.64
12498	7.084	4.	0.	-122.49
12499	7.176	4.	5.e-002	-2.8662e-006
12500	7.176	3.7273	0.	-125.26
12501	7.084	3.8182	0.	-128.97
12502	7.176	3.8182	5.e-002	-2.7895e-006
12503	7.176	3.5455	0.	-129.7
12504	7.084	3.6364	0.	-134.25
12505	7.176	3.6364	5.e-002	2.1747e-007
12506	7.176	3.3636	0.	-132.91
12507	7.084	3.4545	0.	-138.25
12508	7.176	3.4545	5.e-002	-1.5816e-006
12509	7.176	3.1818	0.	-134.85
12510	7.084	3.2727	0.	-140.94
12511	7.176	3.2727	5.e-002	-9.0145e-007
12512	7.176	3.	0.	-135.5
12513	7.084	3.0909	0.	-142.3
12514	7.176	3.0909	5.e-002	3.5063e-006
12515	7.176	2.8182	0.	-134.85
12516	7.084	2.9091	0.	-142.3
12517	7.176	2.9091	5.e-002	2.9793e-007
12518	7.176	2.6364	0.	-132.91
12519	7.084	2.7273	0.	-140.94
12520	7.176	2.7273	5.e-002	2.8044e-006
12521	7.176	2.4545	0.	-129.7
12522	7.084	2.5455	0.	-138.25
12523	7.176	2.5455	5.e-002	3.3632e-006
12524	7.176	2.2727	0.	-125.26
12525	7.084	2.3636	0.	-134.25
12526	7.176	2.3636	5.e-002	2.3907e-006
12527	7.176	2.0909	0.	-119.64
12528	7.084	2.1818	0.	-128.97
12529	7.176	2.1818	5.e-002	2.4097e-006
12530	7.176	1.9091	0.	-112.89
12531	7.084	2.	0.	-122.49
12532	7.176	2.	5.e-002	4.1776e-006
12533	7.176	1.7273	0.	-105.08
12534	7.084	1.8182	0.	-114.86
12535	7.176	1.8182	5.e-002	4.897e-006
12536	7.176	1.5455	0.	-96.3
12537	7.084	1.6364	0.	-106.16
12538	7.176	1.6364	5.e-002	4.2098e-006
12539	7.176	1.3636	0.	-86.628
12540	7.084	1.4545	0.	-96.485
12541	7.176	1.4545	5.e-002	5.4359e-006
12542	7.176	1.1818	0.	-76.156
12543	7.084	1.2727	0.	-85.915
12544	7.176	1.2727	5.e-002	4.3449e-006
12545	7.176	1.	0.	-64.976
12546	7.084	1.0909	0.	-74.549
12547	7.176	1.0909	5.e-002	4.4354e-006
12548	7.176	0.81818	0.	-53.184
12549	7.084	0.90909	0.	-62.486
12550	7.176	0.90909	5.e-002	7.9191e-006
12551	7.176	0.63636	0.	-40.875
12552	7.084	0.72727	0.	-49.826
12553	7.176	0.72727	5.e-002	2.3108e-006
12554	7.176	0.45455	0.	-28.117
12555	7.084	0.54545	0.	-36.669
12556	7.176	0.54545	5.e-002	2.6939e-006
12557	7.176	0.27273	0.	-14.801
12558	7.084	0.36364	0.	-23.06
12559	7.176	0.36364	5.e-002	5.948e-006
12560	7.084	0.18182	0.	-8.7754
12561	7.176	0.18182	5.e-002	1.0622e-005
12562	7.176	9.0909e-002	0.	-3.7461
12563	6.992	5.7273	0.	-17.03
12564	6.9	5.8182	0.	-10.408
12565	6.992	5.8182	5.e-002	-2.718e-005
12566	6.992	5.9091	0.	-4.6484
12567	6.992	5.5455	0.	-31.618
12568	6.9	5.6364	0.	-26.008
12569	6.992	5.6364	5.e-002	-1.011e-005
12570	6.992	5.3636	0.	-45.624
12571	6.9	5.4545	0.	-40.932
12572	6.992	5.4545	5.e-002	-6.8775e-006
12573	6.992	5.1818	0.	-59.132
12574	6.9	5.2727	0.	-55.358
12575	6.992	5.2727	5.e-002	-3.7024e-006
12576	6.992	5.	0.	-72.061
12577	6.9	5.0909	0.	-69.233
12578	6.992	5.0909	5.e-002	-6.6121e-006
12579	6.992	4.8182	0.	-84.309
12580	6.9	4.9091	0.	-82.444
12581	6.992	4.9091	5.e-002	-5.6155e-006
12582	6.992	4.6364	0.	-95.772
12583	6.9	4.7273	0.	-94.883
12584	6.992	4.7273	5.e-002	-3.7104e-006
12585	6.992	4.4545	0.	-106.35
12586	6.9	4.5455	0.	-106.44
12587	6.992	4.5455	5.e-002	-5.9427e-006
12588	6.992	4.2727	0.	-115.94
12589	6.9	4.3636	0.	-117.02
12590	6.992	4.3636	5.e-002	-4.4557e-006
12591	6.992	4.0909	0.	-124.46
12592	6.9	4.1818	0.	-126.52
12593	6.992	4.1818	5.e-002	-4.9583e-006
12594	6.992	3.9091	0.	-131.82
12595	6.9	4.	0.	-134.84
12596	6.992	4.	5.e-002	-4.1553e-006
12597	6.992	3.7273	0.	-137.96
12598	6.9	3.8182	0.	-141.91
12599	6.992	3.8182	5.e-002	-3.0191e-006
12600	6.992	3.5455	0.	-142.79
12601	6.9	3.6364	0.	-147.66
12602	6.992	3.6364	5.e-002	-2.3791e-006
12603	6.992	3.3636	0.	-146.29
12604	6.9	3.4545	0.	-152.03
12605	6.992	3.4545	5.e-002	-1.7189e-006
12606	6.992	3.1818	0.	-148.4
12607	6.9	3.2727	0.	-154.96
12608	6.992	3.2727	5.e-002	-9.7092e-007
12609	6.992	3.	0.	-149.1
12610	6.9	3.0909	0.	-156.44
12611	6.992	3.0909	5.e-002	-3.2745e-007
12612	6.992	2.8182	0.	-148.4
12613	6.9	2.9091	0.	-156.44
12614	6.992	2.9091	5.e-002	2.2338e-006
12615	6.992	2.6364	0.	-146.29
12616	6.9	2.7273	0.	-154.96
12617	6.992	2.7273	5.e-002	2.8735e-006
12618	6.992	2.4545	0.	-142.79
12619	6.9	2.5455	0.	-152.03
12620	6.992	2.5455	5.e-002	3.4756e-006
12621	6.992	2.2727	0.	-137.96
12622	6.9	2.3636	0.	-147.66
12623	6.992	2.3636	5.e-002	2.1296e-006
12624	6.992	2.0909	0.	-131.82
12625	6.9	2.1818	0.	-141.91
12626	6.992	2.1818	5.e-002	4.9139e-006
12627	6.992	1.9091	0.	-124.46
12628	6.9	2.	0.	-134.84
12629	6.992	2.	5.e-002	4.2015e-006
12630	6.992	1.7273	0.	-115.94
12631	6.9	1.8182	0.	-126.52
12632	6.992	1.8182	5.e-002	3.2525e-006
12633	6.992	1.5455	0.	-106.35
12634	6.9	1.6364	0.	-117.02
12635	6.992	1.6364	5.e-002	4.4557e-006
12636	6.992	1.3636	0.	-95.772
12637	6.9	1.4545	0.	-106.44
12638	6.992	1.4545	5.e-002	5.8767e-006
12639	6.992	1.1818	0.	-84.309
12640	6.9	1.2727	0.	-94.883
12641	6.992	1.2727	5.e-002	3.4249e-006
12642	6.992	1.	0.	-72.061
12643	6.9	1.0909	0.	-82.444
12644	6.992	1.0909	5.e-002	4.9469e-006
12645	6.992	0.81818	0.	-59.132
12646	6.9	0.90909	0.	-69.233
12647	6.992	0.90909	5.e-002	6.7726e-006
12648	6.992	0.63636	0.	-45.624
12649	6.9	0.72727	0.	-55.358
12650	6.992	0.72727	5.e-002	4.6257e-006
12651	6.992	0.45455	0.	-31.618
12652	6.9	0.54545	0.	-40.932
12653	6.992	0.54545	5.e-002	8.0246e-006
12654	6.992	0.27273	0.	-17.03
12655	6.9	0.36364	0.	-26.008
12656	6.992	0.36364	5.e-002	1.1486e-005
12657	6.9	0.18182	0.	-10.408
12658	6.992	0.18182	5.e-002	1.094e-005
12659	6.992	9.0909e-002	0.	-4.6484
12660	6.808	5.7273	0.	-19.379
12661	6.716	5.8182	0.	-12.12
12662	6.808	5.8182	5.e-002	-1.9573e-005
12663	6.808	5.9091	0.	-5.5946
12664	6.808	5.5455	0.	-35.325
12665	6.716	5.6364	0.	-29.125
12666	6.808	5.6364	5.e-002	-9.1857e-006
12667	6.808	5.3636	0.	-50.668
12668	6.716	5.4545	0.	-45.457
12669	6.808	5.4545	5.e-002	-1.0996e-005
12670	6.808	5.1818	0.	-65.461
12671	6.716	5.2727	0.	-61.245
12672	6.808	5.2727	5.e-002	-8.899e-006
12673	6.808	5.	0.	-79.617
12674	6.716	5.0909	0.	-76.427
12675	6.808	5.0909	5.e-002	-1.638e-006
12676	6.808	4.8182	0.	-93.018
12677	6.716	4.9091	0.	-90.878
12678	6.808	4.9091	5.e-002	-8.3513e-006
12679	6.808	4.6364	0.	-105.55
12680	6.716	4.7273	0.	-104.48
12681	6.808	4.7273	5.e-002	-5.4287e-006
12682	6.808	4.4545	0.	-117.11
12683	6.716	4.5455	0.	-117.11
12684	6.808	4.5455	5.e-002	-4.3884e-006
12685	6.808	4.2727	0.	-127.59
12686	6.716	4.3636	0.	-128.67
12687	6.808	4.3636	5.e-002	-3.8863e-006
12688	6.808	4.0909	0.	-136.9
12689	6.716	4.1818	0.	-139.04
12690	6.808	4.1818	5.e-002	-5.321e-006
12691	6.808	3.9091	0.	-144.93
12692	6.716	4.	0.	-148.13
12693	6.808	4.	5.e-002	-4.6627e-006
12694	6.808	3.7273	0.	-151.62
12695	6.716	3.8182	0.	-155.84
12696	6.808	3.8182	5.e-002	-9.5394e-007
12697	6.808	3.5455	0.	-156.89
12698	6.716	3.6364	0.	-162.11
12699	6.808	3.6364	5.e-002	-2.3304e-006
12700	6.808	3.3636	0.	-160.7
12701	6.716	3.4545	0.	-166.87
12702	6.808	3.4545	5.e-002	1.8887e-007
12703	6.808	3.1818	0.	-163.
12704	6.716	3.2727	0.	-170.07
12705	6.808	3.2727	5.e-002	-1.0507e-006
12706	6.808	3.	0.	-163.77
12707	6.716	3.0909	0.	-171.68
12708	6.808	3.0909	5.e-002	-3.552e-007
12709	6.808	2.8182	0.	-163.
12710	6.716	2.9091	0.	-171.68
12711	6.808	2.9091	5.e-002	3.546e-007
12712	6.808	2.6364	0.	-160.7
12713	6.716	2.7273	0.	-170.07
12714	6.808	2.7273	5.e-002	2.9527e-006
12715	6.808	2.4545	0.	-156.89
12716	6.716	2.5455	0.	-166.87
12717	6.808	2.5455	5.e-002	3.6164e-006
12718	6.808	2.2727	0.	-151.62
12719	6.716	2.3636	0.	-162.11
12720	6.808	2.3636	5.e-002	4.2041e-006
12721	6.808	2.0909	0.	-144.93
12722	6.716	2.1818	0.	-155.84
12723	6.808	2.1818	5.e-002	2.8259e-006
12724	6.808	1.9091	0.	-136.9
12725	6.716	2.	0.	-148.13
12726	6.808	2.	5.e-002	3.9636e-006
12727	6.808	1.7273	0.	-127.59
12728	6.716	1.8182	0.	-139.04
12729	6.808	1.8182	5.e-002	4.3596e-006
12730	6.808	1.5455	0.	-117.11
12731	6.716	1.6364	0.	-128.67
12732	6.808	1.6364	5.e-002	3.6272e-006
12733	6.808	1.3636	0.	-105.55
12734	6.716	1.4545	0.	-117.11
12735	6.808	1.4545	5.e-002	3.7801e-006
12736	6.808	1.1818	0.	-93.018
12737	6.716	1.2727	0.	-104.48
12738	6.808	1.2727	5.e-002	3.7065e-006
12739	6.808	1.	0.	-79.617
12740	6.716	1.0909	0.	-90.878
12741	6.808	1.0909	5.e-002	8.482e-006
12742	6.808	0.81818	0.	-65.461
12743	6.716	0.90909	0.	-76.427
12744	6.808	0.90909	5.e-002	3.4796e-006
12745	6.808	0.63636	0.	-50.668
12746	6.716	0.72727	0.	-61.245
12747	6.808	0.72727	5.e-002	7.7908e-006
12748	6.808	0.45455	0.	-35.325
12749	6.716	0.54545	0.	-45.457
12750	6.808	0.54545	5.e-002	1.183e-005
12751	6.808	0.27273	0.	-19.379
12752	6.716	0.36364	0.	-29.125
12753	6.808	0.36364	5.e-002	7.5628e-006
12754	6.716	0.18182	0.	-12.12
12755	6.808	0.18182	5.e-002	2.0009e-005
12756	6.808	9.0909e-002	0.	-5.5946
12757	6.624	5.7273	0.	-21.856
12758	6.532	5.8182	0.	-13.911
12759	6.624	5.8182	5.e-002	-3.8096e-005
12760	6.624	5.9091	0.	-6.5846
12761	6.624	5.5455	0.	-39.258
12762	6.532	5.6364	0.	-32.425
12763	6.624	5.6364	5.e-002	-1.0761e-005
12764	6.624	5.3636	0.	-56.035
12765	6.532	5.4545	0.	-50.267
12766	6.624	5.4545	5.e-002	-6.9463e-006
12767	6.624	5.1818	0.	-72.211
12768	6.532	5.2727	0.	-67.52
12769	6.624	5.2727	5.e-002	-8.7634e-006
12770	6.624	5.	0.	-87.687
12771	6.532	5.0909	0.	-84.109
12772	6.624	5.0909	5.e-002	-7.793e-006
12773	6.624	4.8182	0.	-102.34
12774	6.532	4.9091	0.	-99.899
12775	6.624	4.9091	5.e-002	-8.4292e-006
12776	6.624	4.6364	0.	-116.04
12777	6.532	4.7273	0.	-114.76
12778	6.624	4.7273	5.e-002	-1.004e-005
12779	6.624	4.4545	0.	-128.67
12780	6.532	4.5455	0.	-128.56
12781	6.624	4.5455	5.e-002	-7.5089e-006
12782	6.624	4.2727	0.	-140.11
12783	6.532	4.3636	0.	-141.18
12784	6.624	4.3636	5.e-002	-8.188e-006
12785	6.624	4.0909	0.	-150.27
12786	6.532	4.1818	0.	-152.5
12787	6.624	4.1818	5.e-002	-4.9109e-006
12788	6.624	3.9091	0.	-159.04
12789	6.532	4.	0.	-162.43
12790	6.624	4.	5.e-002	-4.3508e-006
12791	6.624	3.7273	0.	-166.34
12792	6.532	3.8182	0.	-170.85
12793	6.624	3.8182	5.e-002	-3.6172e-006
12794	6.624	3.5455	0.	-172.09
12795	6.532	3.6364	0.	-177.69
12796	6.624	3.6364	5.e-002	-2.8492e-006
12797	6.624	3.3636	0.	-176.24
12798	6.532	3.4545	0.	-182.89
12799	6.624	3.4545	5.e-002	-1.8589e-006
12800	6.624	3.1818	0.	-178.75
12801	6.532	3.2727	0.	-186.38
12802	6.624	3.2727	5.e-002	-1.2702e-006
12803	6.624	3.	0.	-179.59
12804	6.532	3.0909	0.	-188.13
12805	6.624	3.0909	5.e-002	-3.8522e-007
12806	6.624	2.8182	0.	-178.75
12807	6.532	2.9091	0.	-188.13
12808	6.624	2.9091	5.e-002	3.8441e-007
12809	6.624	2.6364	0.	-176.24
12810	6.532	2.7273	0.	-186.38
12811	6.624	2.7273	5.e-002	3.0439e-006
12812	6.624	2.4545	0.	-172.09
12813	6.532	2.5455	0.	-182.89
12814	6.624	2.5455	5.e-002	5.6594e-006
12815	6.624	2.2727	0.	-166.34
12816	6.532	2.3636	0.	-177.69
12817	6.624	2.3636	5.e-002	2.8448e-006
12818	6.624	2.0909	0.	-159.04
12819	6.532	2.1818	0.	-170.85
12820	6.624	2.1818	5.e-002	3.0835e-006
12821	6.624	1.9091	0.	-150.27
12822	6.532	2.	0.	-162.43
12823	6.624	2.	5.e-002	4.3374e-006
12824	6.624	1.7273	0.	-140.11
12825	6.532	1.8182	0.	-152.5
12826	6.624	1.8182	5.e-002	3.886e-006
12827	6.624	1.5455	0.	-128.67
12828	6.532	1.6364	0.	-141.18
12829	6.624	1.6364	5.e-002	5.9565e-006
12830	6.624	1.3636	0.	-116.04
12831	6.532	1.4545	0.	-128.56
12832	6.624	1.4545	5.e-002	4.1592e-006
12833	6.624	1.1818	0.	-102.34
12834	6.532	1.2727	0.	-114.76
12835	6.624	1.2727	5.e-002	1.0715e-005
12836	6.624	1.	0.	-87.687
12837	6.532	1.0909	0.	-99.899
12838	6.624	1.0909	5.e-002	7.049e-006
12839	6.624	0.81818	0.	-72.211
12840	6.532	0.90909	0.	-84.109
12841	6.624	0.90909	5.e-002	6.2345e-006
12842	6.624	0.63636	0.	-56.035
12843	6.532	0.72727	0.	-67.52
12844	6.624	0.72727	5.e-002	5.8554e-006
12845	6.624	0.45455	0.	-39.258
12846	6.532	0.54545	0.	-50.267
12847	6.624	0.54545	5.e-002	2.4468e-006
12848	6.624	0.27273	0.	-21.856
12849	6.532	0.36364	0.	-32.425
12850	6.624	0.36364	5.e-002	8.4219e-006
12851	6.532	0.18182	0.	-13.911
12852	6.624	0.18182	5.e-002	3.1224e-005
12853	6.624	9.0909e-002	0.	-6.5846
12854	6.44	5.7273	0.	-24.467
12855	6.348	5.8182	0.	-15.784
12856	6.44	5.8182	5.e-002	-2.8638e-005
12857	6.44	5.9091	0.	-7.618
12858	6.44	5.5455	0.	-43.433
12859	6.348	5.6364	0.	-35.92
12860	6.44	5.6364	5.e-002	-1.6985e-005
12861	6.44	5.3636	0.	-61.751
12862	6.348	5.4545	0.	-55.385
12863	6.44	5.4545	5.e-002	-1.2262e-005
12864	6.44	5.1818	0.	-79.416
12865	6.348	5.2727	0.	-74.214
12866	6.44	5.2727	5.e-002	-8.838e-006
12867	6.44	5.	0.	-96.319
12868	6.348	5.0909	0.	-92.323
12869	6.44	5.0909	5.e-002	-6.7469e-006
12870	6.44	4.8182	0.	-112.32
12871	6.348	4.9091	0.	-109.56
12872	6.44	4.9091	5.e-002	-6.9065e-006
12873	6.44	4.6364	0.	-127.28
12874	6.348	4.7273	0.	-125.78
12875	6.44	4.7273	5.e-002	-6.7503e-006
12876	6.44	4.4545	0.	-141.07
12877	6.348	4.5455	0.	-140.85
12878	6.44	4.5455	5.e-002	-2.7004e-006
12879	6.44	4.2727	0.	-153.57
12880	6.348	4.3636	0.	-154.63
12881	6.44	4.3636	5.e-002	-4.4494e-006
12882	6.44	4.0909	0.	-164.66
12883	6.348	4.1818	0.	-167.
12884	6.44	4.1818	5.e-002	-6.655e-006
12885	6.44	3.9091	0.	-174.23
12886	6.348	4.	0.	-177.83
12887	6.44	4.	5.e-002	-4.7548e-006
12888	6.44	3.7273	0.	-182.2
12889	6.348	3.8182	0.	-187.02
12890	6.44	3.8182	5.e-002	-3.3206e-006
12891	6.44	3.5455	0.	-188.48
12892	6.348	3.6364	0.	-194.49
12893	6.44	3.6364	5.e-002	-8.1919e-007
12894	6.44	3.3636	0.	-193.02
12895	6.348	3.4545	0.	-200.16
12896	6.44	3.4545	5.e-002	-2.0091e-006
12897	6.44	3.1818	0.	-195.76
12898	6.348	3.2727	0.	-203.98
12899	6.44	3.2727	5.e-002	-1.2323e-006
12900	6.44	3.	0.	-196.67
12901	6.348	3.0909	0.	-205.89
12902	6.44	3.0909	5.e-002	-4.1614e-007
12903	6.44	2.8182	0.	-195.76
12904	6.348	2.9091	0.	-205.89
12905	6.44	2.9091	5.e-002	4.1574e-007
12906	6.44	2.6364	0.	-193.02
12907	6.348	2.7273	0.	-203.98
12908	6.44	2.7273	5.e-002	1.2315e-006
12909	6.44	2.4545	0.	-188.48
12910	6.348	2.5455	0.	-200.16
12911	6.44	2.5455	5.e-002	2.0082e-006
12912	6.44	2.2727	0.	-182.2
12913	6.348	2.3636	0.	-194.49
12914	6.44	2.3636	5.e-002	2.7166e-006
12915	6.44	2.0909	0.	-174.23
12916	6.348	2.1818	0.	-187.02
12917	6.44	2.1818	5.e-002	3.3297e-006
12918	6.44	1.9091	0.	-164.66
12919	6.348	2.	0.	-177.83
12920	6.44	2.	5.e-002	3.8443e-006
12921	6.44	1.7273	0.	-153.57
12922	6.348	1.8182	0.	-167.
12923	6.44	1.8182	5.e-002	4.2246e-006
12924	6.44	1.5455	0.	-141.07
12925	6.348	1.6364	0.	-154.63
12926	6.44	1.6364	5.e-002	4.4871e-006
12927	6.44	1.3636	0.	-127.28
12928	6.348	1.4545	0.	-140.85
12929	6.44	1.4545	5.e-002	6.4567e-006
12930	6.44	1.1818	0.	-112.32
12931	6.348	1.2727	0.	-125.78
12932	6.44	1.2727	5.e-002	4.4064e-006
12933	6.44	1.	0.	-96.319
12934	6.348	1.0909	0.	-109.56
12935	6.44	1.0909	5.e-002	6.9065e-006
12936	6.44	0.81818	0.	-79.416
12937	6.348	0.90909	0.	-92.323
12938	6.44	0.90909	5.e-002	6.8482e-006
12939	6.44	0.63636	0.	-61.751
12940	6.348	0.72727	0.	-74.214
12941	6.44	0.72727	5.e-002	1.0858e-005
12942	6.44	0.45455	0.	-43.433
12943	6.348	0.54545	0.	-55.385
12944	6.44	0.54545	5.e-002	9.9576e-006
12945	6.44	0.27273	0.	-24.467
12946	6.348	0.36364	0.	-35.92
12947	6.44	0.36364	5.e-002	1.386e-005
12948	6.348	0.18182	0.	-15.784
12949	6.44	0.18182	5.e-002	2.1781e-005
12950	6.44	9.0909e-002	0.	-7.618
12951	6.256	5.7273	0.	-27.218
12952	6.164	5.8182	0.	-17.738
12953	6.256	5.8182	5.e-002	-2.0309e-005
12954	6.256	5.9091	0.	-8.6937
12955	6.256	5.5455	0.	-47.868
12956	6.164	5.6364	0.	-39.622
12957	6.256	5.6364	5.e-002	-1.425e-005
12958	6.256	5.3636	0.	-67.845
12959	6.164	5.4545	0.	-60.833
12960	6.256	5.4545	5.e-002	-1.019e-005
12961	6.256	5.1818	0.	-87.116
12962	6.164	5.2727	0.	-81.362
12963	6.256	5.2727	5.e-002	-1.1051e-005
12964	6.256	5.	0.	-105.56
12965	6.164	5.0909	0.	-101.11
12966	6.256	5.0909	5.e-002	-7.6251e-006
12967	6.256	4.8182	0.	-123.02
12968	6.164	4.9091	0.	-119.92
12969	6.256	4.9091	5.e-002	-7.6087e-006
12970	6.256	4.6364	0.	-139.35
12971	6.164	4.7273	0.	-137.62
12972	6.256	4.7273	5.e-002	-1.2764e-005
12973	6.256	4.4545	0.	-154.41
12974	6.164	4.5455	0.	-154.06
12975	6.256	4.5455	5.e-002	-9.3243e-006
12976	6.256	4.2727	0.	-168.05
12977	6.164	4.3636	0.	-169.1
12978	6.256	4.3636	5.e-002	-8.431e-006
12979	6.256	4.0909	0.	-180.16
12980	6.164	4.1818	0.	-182.6
12981	6.256	4.1818	5.e-002	-5.9589e-006
12982	6.256	3.9091	0.	-190.61
12983	6.164	4.	0.	-194.43
12984	6.256	4.	5.e-002	-4.1198e-006
12985	6.256	3.7273	0.	-199.31
12986	6.164	3.8182	0.	-204.47
12987	6.256	3.8182	5.e-002	-5.0723e-006
12988	6.256	3.5455	0.	-206.17
12989	6.164	3.6364	0.	-212.63
12990	6.256	3.6364	5.e-002	-3.8509e-006
12991	6.256	3.3636	0.	-211.12
12992	6.164	3.4545	0.	-218.82
12993	6.256	3.4545	5.e-002	-2.6782e-007
12994	6.256	3.1818	0.	-214.11
12995	6.164	3.2727	0.	-222.98
12996	6.256	3.2727	5.e-002	-1.5071e-006
12997	6.256	3.	0.	-215.11
12998	6.164	3.0909	0.	-225.07
12999	6.256	3.0909	5.e-002	-4.595e-007
13000	6.256	2.8182	0.	-214.11
13001	6.164	2.9091	0.	-225.07
13002	6.256	2.9091	5.e-002	4.3997e-007
13003	6.256	2.6364	0.	-211.12
13004	6.164	2.7273	0.	-222.98
13005	6.256	2.7273	5.e-002	1.3325e-006
13006	6.256	2.4545	0.	-206.17
13007	6.164	2.5455	0.	-218.82
13008	6.256	2.5455	5.e-002	2.1714e-006
13009	6.256	2.2727	0.	-199.31
13010	6.164	2.3636	0.	-212.63
13011	6.256	2.3636	5.e-002	2.9369e-006
13012	6.256	2.0909	0.	-190.61
13013	6.164	2.1818	0.	-204.47
13014	6.256	2.1818	5.e-002	4.3458e-006
13015	6.256	1.9091	0.	-180.16
13016	6.164	2.	0.	-194.43
13017	6.256	2.	5.e-002	4.1511e-006
13018	6.256	1.7273	0.	-168.05
13019	6.164	1.8182	0.	-182.6
13020	6.256	1.8182	5.e-002	4.5603e-006
13021	6.256	1.5455	0.	-154.41
13022	6.164	1.6364	0.	-169.1
13023	6.256	1.6364	5.e-002	6.6366e-006
13024	6.256	1.3636	0.	-139.35
13025	6.164	1.4545	0.	-154.06
13026	6.256	1.4545	5.e-002	7.1651e-006
13027	6.256	1.1818	0.	-123.02
13028	6.164	1.2727	0.	-137.62
13029	6.256	1.2727	5.e-002	7.4638e-006
13030	6.256	1.	0.	-105.56
13031	6.164	1.0909	0.	-119.92
13032	6.256	1.0909	5.e-002	5.5545e-006
13033	6.256	0.81818	0.	-87.116
13034	6.164	0.90909	0.	-101.11
13035	6.256	0.90909	5.e-002	5.1512e-006
13036	6.256	0.63636	0.	-67.845
13037	6.164	0.72727	0.	-81.362
13038	6.256	0.72727	5.e-002	7.2331e-006
13039	6.256	0.45455	0.	-47.868
13040	6.164	0.54545	0.	-60.833
13041	6.256	0.54545	5.e-002	1.1081e-005
13042	6.256	0.27273	0.	-27.218
13043	6.164	0.36364	0.	-39.622
13044	6.256	0.36364	5.e-002	6.3589e-006
13045	6.164	0.18182	0.	-17.738
13046	6.256	0.18182	5.e-002	1.2001e-005
13047	6.256	9.0909e-002	0.	-8.6936
13048	6.072	5.7273	0.	-30.115
13049	5.98	5.8182	0.	-19.77
13050	6.072	5.8182	5.e-002	-2.0378e-005
13051	6.072	5.9091	0.	-9.81
13052	6.072	5.5455	0.	-52.58
13053	5.98	5.6364	0.	-43.54
13054	6.072	5.6364	5.e-002	-6.1178e-006
13055	6.072	5.3636	0.	-74.344
13056	5.98	5.4545	0.	-66.633
13057	6.072	5.4545	5.e-002	-2.0249e-005
13058	6.072	5.1818	0.	-95.35
13059	5.98	5.2727	0.	-88.996
13060	6.072	5.2727	5.e-002	-1.2505e-005
13061	6.072	5.	0.	-115.46
13062	5.98	5.0909	0.	-110.52
13063	6.072	5.0909	5.e-002	-1.5363e-005
13064	6.072	4.8182	0.	-134.51
13065	5.98	4.9091	0.	-131.02
13066	6.072	4.9091	5.e-002	-1.4555e-005
13067	6.072	4.6364	0.	-152.32
13068	5.98	4.7273	0.	-150.33
13069	6.072	4.7273	5.e-002	-9.5118e-006
13070	6.072	4.4545	0.	-168.75
13071	5.98	4.5455	0.	-168.27
13072	6.072	4.5455	5.e-002	-7.845e-006
13073	6.072	4.2727	0.	-183.65
13074	5.98	4.3636	0.	-184.69
13075	6.072	4.3636	5.e-002	-5.1737e-006
13076	6.072	4.0909	0.	-196.87
13077	5.98	4.1818	0.	-199.42
13078	6.072	4.1818	5.e-002	-6.6422e-006
13079	6.072	3.9091	0.	-208.28
13080	5.98	4.	0.	-212.33
13081	6.072	4.	5.e-002	-6.9622e-006
13082	6.072	3.7273	0.	-217.78
13083	5.98	3.8182	0.	-223.3
13084	6.072	3.8182	5.e-002	-3.8496e-006
13085	6.072	3.5455	0.	-225.27
13086	5.98	3.6364	0.	-232.2
13087	6.072	3.6364	5.e-002	-1.8202e-006
13088	6.072	3.3636	0.	-230.68
13089	5.98	3.4545	0.	-238.97
13090	6.072	3.4545	5.e-002	-2.3451e-006
13091	6.072	3.1818	0.	-233.94
13092	5.98	3.2727	0.	-243.51
13093	6.072	3.2727	5.e-002	-1.5447e-006
13094	6.072	3.	0.	-235.03
13095	5.98	3.0909	0.	-245.8
13096	6.072	3.0909	5.e-002	-4.8792e-007
13097	6.072	2.8182	0.	-233.94
13098	5.98	2.9091	0.	-245.8
13099	6.072	2.9091	5.e-002	4.8792e-007
13100	6.072	2.6364	0.	-230.68
13101	5.98	2.7273	0.	-243.51
13102	6.072	2.7273	5.e-002	1.4455e-006
13103	6.072	2.4545	0.	-225.27
13104	5.98	2.5455	0.	-238.97
13105	6.072	2.5455	5.e-002	2.3612e-006
13106	6.072	2.2727	0.	-217.78
13107	5.98	2.3636	0.	-232.2
13108	6.072	2.3636	5.e-002	5.0892e-006
13109	6.072	2.0909	0.	-208.28
13110	5.98	2.1818	0.	-223.3
13111	6.072	2.1818	5.e-002	5.8144e-006
13112	6.072	1.9091	0.	-196.87
13113	5.98	2.	0.	-212.33
13114	6.072	2.	5.e-002	5.7536e-006
13115	6.072	1.7273	0.	-183.65
13116	5.98	1.8182	0.	-199.42
13117	6.072	1.8182	5.e-002	4.9359e-006
13118	6.072	1.5455	0.	-168.75
13119	5.98	1.6364	0.	-184.69
13120	6.072	1.6364	5.e-002	5.2174e-006
13121	6.072	1.3636	0.	-152.32
13122	5.98	1.4545	0.	-168.27
13123	6.072	1.4545	5.e-002	7.9171e-006
13124	6.072	1.1818	0.	-134.51
13125	5.98	1.2727	0.	-150.33
13126	6.072	1.2727	5.e-002	8.3064e-006
13127	6.072	1.	0.	-115.46
13128	5.98	1.0909	0.	-131.02
13129	6.072	1.0909	5.e-002	1.551e-005
13130	6.072	0.81818	0.	-95.35
13131	5.98	0.90909	0.	-110.52
13132	6.072	0.90909	5.e-002	8.4766e-006
13133	6.072	0.63636	0.	-74.344
13134	5.98	0.72727	0.	-88.996
13135	6.072	0.72727	5.e-002	1.2505e-005
13136	6.072	0.45455	0.	-52.58
13137	5.98	0.54545	0.	-66.633
13138	6.072	0.54545	5.e-002	2.2198e-005
13139	6.072	0.27273	0.	-30.115
13140	5.98	0.36364	0.	-43.54
13141	6.072	0.36364	5.e-002	7.1666e-006
13142	5.98	0.18182	0.	-19.77
13143	6.072	0.18182	5.e-002	1.2091e-005
13144	6.072	9.0909e-002	0.	-9.8099
13145	5.888	5.7273	0.	-33.162
13146	5.796	5.8182	0.	-21.877
13147	5.888	5.8182	5.e-002	-3.1148e-005
13148	5.888	5.9091	0.	-10.964
13149	5.888	5.5455	0.	-57.584
13150	5.796	5.6364	0.	-47.686
13151	5.888	5.6364	5.e-002	-1.8518e-005
13152	5.888	5.3636	0.	-81.277
13153	5.796	5.4545	0.	-72.808
13154	5.888	5.4545	5.e-002	-1.4255e-005
13155	5.888	5.1818	0.	-104.16
13156	5.796	5.2727	0.	-97.152
13157	5.888	5.2727	5.e-002	-8.3028e-006
13158	5.888	5.	0.	-126.07
13159	5.796	5.0909	0.	-120.6
13160	5.888	5.0909	5.e-002	-1.3934e-005
13161	5.888	4.8182	0.	-146.84
13162	5.796	4.9091	0.	-142.94
13163	5.888	4.9091	5.e-002	-1.3466e-005
13164	5.888	4.6364	0.	-166.27
13165	5.796	4.7273	0.	-163.99
13166	5.888	4.7273	5.e-002	-9.0979e-006
13167	5.888	4.4545	0.	-184.19
13168	5.796	4.5455	0.	-183.56
13169	5.888	4.5455	5.e-002	-1.1555e-005
13170	5.888	4.2727	0.	-200.45
13171	5.796	4.3636	0.	-201.47
13172	5.888	4.3636	5.e-002	-7.9886e-006
13173	5.888	4.0909	0.	-214.88
13174	5.796	4.1818	0.	-217.55
13175	5.888	4.1818	5.e-002	-5.3035e-006
13176	5.888	3.9091	0.	-227.34
13177	5.796	4.	0.	-231.64
13178	5.888	4.	5.e-002	-4.8151e-006
13179	5.888	3.7273	0.	-237.72
13180	5.796	3.8182	0.	-243.62
13181	5.888	3.8182	5.e-002	-5.2016e-006
13182	5.888	3.5455	0.	-245.9
13183	5.796	3.6364	0.	-253.35
13184	5.888	3.6364	5.e-002	-3.4444e-006
13185	5.888	3.3636	0.	-251.8
13186	5.796	3.4545	0.	-260.73
13187	5.888	3.4545	5.e-002	-2.8499e-006
13188	5.888	3.1818	0.	-255.37
13189	5.796	3.2727	0.	-265.7
13190	5.888	3.2727	5.e-002	-1.6785e-006
13191	5.888	3.	0.	-256.56
13192	5.796	3.0909	0.	-268.2
13193	5.888	3.0909	5.e-002	1.3656e-006
13194	5.888	2.8182	0.	-255.37
13195	5.796	2.9091	0.	-268.2
13196	5.888	2.9091	5.e-002	4.3284e-006
13197	5.888	2.6364	0.	-251.8
13198	5.796	2.7273	0.	-265.7
13199	5.888	2.7273	5.e-002	1.5605e-006
13200	5.888	2.4545	0.	-245.9
13201	5.796	2.5455	0.	-260.73
13202	5.888	2.5455	5.e-002	2.5785e-006
13203	5.888	2.2727	0.	-237.72
13204	5.796	2.3636	0.	-253.35
13205	5.888	2.3636	5.e-002	5.3562e-006
13206	5.888	2.0909	0.	-227.34
13207	5.796	2.1818	0.	-243.62
13208	5.888	2.1818	5.e-002	7.108e-006
13209	5.888	1.9091	0.	-214.88
13210	5.796	2.	0.	-231.64
13211	5.888	2.	5.e-002	4.8513e-006
13212	5.888	1.7273	0.	-200.45
13213	5.796	1.8182	0.	-217.55
13214	5.888	1.8182	5.e-002	5.3453e-006
13215	5.888	1.5455	0.	-184.19
13216	5.796	1.6364	0.	-201.47
13217	5.888	1.6364	5.e-002	8.1292e-006
13218	5.888	1.3636	0.	-166.27
13219	5.796	1.4545	0.	-183.56
13220	5.888	1.4545	5.e-002	1.3575e-005
13221	5.888	1.1818	0.	-146.84
13222	5.796	1.2727	0.	-163.99
13223	5.888	1.2727	5.e-002	9.0979e-006
13224	5.888	1.	0.	-126.07
13225	5.796	1.0909	0.	-142.94
13226	5.888	1.0909	5.e-002	9.4177e-006
13227	5.888	0.81818	0.	-104.16
13228	5.796	0.90909	0.	-120.6
13229	5.888	0.90909	5.e-002	1.3988e-005
13230	5.888	0.63636	0.	-81.277
13231	5.796	0.72727	0.	-97.152
13232	5.888	0.72727	5.e-002	4.3044e-006
13233	5.888	0.45455	0.	-57.584
13234	5.796	0.54545	0.	-72.808
13235	5.888	0.54545	5.e-002	3.2422e-006
13236	5.888	0.27273	0.	-33.162
13237	5.796	0.36364	0.	-47.686
13238	5.888	0.36364	5.e-002	2.0524e-005
13239	5.796	0.18182	0.	-21.877
13240	5.888	0.18182	5.e-002	2.1953e-005
13241	5.888	9.0909e-002	0.	-10.964
13242	5.704	5.7273	0.	-36.361
13243	5.612	5.8182	0.	-24.055
13244	5.704	5.8182	5.e-002	-4.1344e-005
13245	5.704	5.9091	0.	-12.152
13246	5.704	5.5455	0.	-62.897
13247	5.612	5.6364	0.	-52.068
13248	5.704	5.6364	5.e-002	-2.2016e-005
13249	5.704	5.3636	0.	-88.672
13250	5.612	5.4545	0.	-79.38
13251	5.704	5.4545	5.e-002	-2.1281e-005
13252	5.704	5.1818	0.	-113.58
13253	5.612	5.2727	0.	-105.87
13254	5.704	5.2727	5.e-002	-2.1595e-005
13255	5.704	5.	0.	-137.45
13256	5.612	5.0909	0.	-131.39
13257	5.704	5.0909	5.e-002	-1.5584e-005
13258	5.704	4.8182	0.	-160.08
13259	5.612	4.9091	0.	-155.72
13260	5.704	4.9091	5.e-002	-1.4915e-005
13261	5.704	4.6364	0.	-181.26
13262	5.612	4.7273	0.	-178.67
13263	5.704	4.7273	5.e-002	-1.0148e-005
13264	5.704	4.4545	0.	-200.82
13265	5.612	4.5455	0.	-200.01
13266	5.704	4.5455	5.e-002	-1.2878e-005
13267	5.704	4.2727	0.	-218.55
13268	5.612	4.3636	0.	-219.54
13269	5.704	4.3636	5.e-002	-8.6688e-006
13270	5.704	4.0909	0.	-234.31
13271	5.612	4.1818	0.	-237.09
13272	5.704	4.1818	5.e-002	-1.0031e-005
13273	5.704	3.9091	0.	-247.91
13274	5.612	4.	0.	-252.48
13275	5.704	4.	5.e-002	-8.5484e-006
13276	5.704	3.7273	0.	-259.24
13277	5.612	3.8182	0.	-265.56
13278	5.704	3.8182	5.e-002	-4.551e-006
13279	5.704	3.5455	0.	-268.18
13280	5.612	3.6364	0.	-276.19
13281	5.704	3.6364	5.e-002	-4.3992e-006
13282	5.704	3.3636	0.	-274.63
13283	5.612	3.4545	0.	-284.26
13284	5.704	3.4545	5.e-002	-3.1133e-006
13285	5.704	3.1818	0.	-278.53
13286	5.612	3.2727	0.	-289.69
13287	5.704	3.2727	5.e-002	-1.9599e-006
13288	5.704	3.	0.	-279.83
13289	5.612	3.0909	0.	-292.41
13290	5.704	3.0909	5.e-002	-5.6744e-007
13291	5.704	2.8182	0.	-278.53
13292	5.612	2.9091	0.	-292.41
13293	5.704	2.9091	5.e-002	5.6838e-007
13294	5.704	2.6364	0.	-274.63
13295	5.612	2.7273	0.	-289.69
13296	5.704	2.7273	5.e-002	1.6861e-006
13297	5.704	2.4545	0.	-268.18
13298	5.612	2.5455	0.	-284.26
13299	5.704	2.5455	5.e-002	6.511e-006
13300	5.704	2.2727	0.	-259.24
13301	5.612	2.3636	0.	-276.19
13302	5.704	2.3636	5.e-002	4.4249e-006
13303	5.704	2.0909	0.	-247.91
13304	5.612	2.1818	0.	-265.56
13305	5.704	2.1818	5.e-002	8.2284e-006
13306	5.704	1.9091	0.	-234.31
13307	5.612	2.	0.	-252.48
13308	5.704	2.	5.e-002	6.8016e-006
13309	5.704	1.7273	0.	-218.55
13310	5.612	1.8182	0.	-237.09
13311	5.704	1.8182	5.e-002	5.8246e-006
13312	5.704	1.5455	0.	-200.82
13313	5.612	1.6364	0.	-219.54
13314	5.704	1.6364	5.e-002	6.1284e-006
13315	5.704	1.3636	0.	-181.26
13316	5.612	1.4545	0.	-200.01
13317	5.704	1.4545	5.e-002	9.5269e-006
13318	5.704	1.1818	0.	-160.08
13319	5.612	1.2727	0.	-178.67
13320	5.704	1.2727	5.e-002	1.0148e-005
13321	5.704	1.	0.	-137.45
13322	5.612	1.0909	0.	-155.72
13323	5.704	1.0909	5.e-002	1.0373e-005
13324	5.704	0.81818	0.	-113.58
13325	5.612	0.90909	0.	-131.39
13326	5.704	0.90909	5.e-002	1.0493e-005
13327	5.704	0.63636	0.	-88.672
13328	5.612	0.72727	0.	-105.87
13329	5.704	0.72727	5.e-002	1.1005e-005
13330	5.704	0.45455	0.	-62.897
13331	5.612	0.54545	0.	-79.38
13332	5.704	0.54545	5.e-002	9.8127e-006
13333	5.704	0.27273	0.	-36.361
13334	5.612	0.36364	0.	-52.068
13335	5.704	0.36364	5.e-002	2.259e-005
13336	5.612	0.18182	0.	-24.055
13337	5.704	0.18182	5.e-002	3.1927e-005
13338	5.704	9.0909e-002	0.	-12.152
13339	5.52	5.7273	0.	-39.712
13340	5.428	5.8182	0.	-26.294
13341	5.52	5.8182	5.e-002	-4.1556e-005
13342	5.52	5.9091	0.	-13.37
13343	5.52	5.5455	0.	-68.534
13344	5.428	5.6364	0.	-56.693
13345	5.52	5.6364	5.e-002	-1.7352e-005
13346	5.52	5.3636	0.	-96.558
13347	5.428	5.4545	0.	-86.37
13348	5.52	5.4545	5.e-002	-3.1229e-005
13349	5.52	5.1818	0.	-123.66
13350	5.428	5.2727	0.	-115.17
13351	5.52	5.2727	5.e-002	-2.4443e-005
13352	5.52	5.	0.	-149.65
13353	5.428	5.0909	0.	-142.94
13354	5.52	5.0909	5.e-002	-2.1959e-005
13355	5.52	4.8182	0.	-174.3
13356	5.428	4.9091	0.	-169.45
13357	5.52	4.9091	5.e-002	-1.6949e-005
13358	5.52	4.6364	0.	-197.39
13359	5.428	4.7273	0.	-194.45
13360	5.52	4.7273	5.e-002	-1.1042e-005
13361	5.52	4.4545	0.	-218.72
13362	5.428	4.5455	0.	-217.71
13363	5.52	4.5455	5.e-002	-1.4338e-005
13364	5.52	4.2727	0.	-238.07
13365	5.428	4.3636	0.	-239.03
13366	5.52	4.3636	5.e-002	-9.9412e-006
13367	5.52	4.0909	0.	-255.27
13368	5.428	4.1818	0.	-258.18
13369	5.52	4.1818	5.e-002	-1.1117e-005
13370	5.52	3.9091	0.	-270.13
13371	5.428	4.	0.	-274.98
13372	5.52	4.	5.e-002	-9.3614e-006
13373	5.52	3.7273	0.	-282.5
13374	5.428	3.8182	0.	-289.26
13375	5.52	3.8182	5.e-002	-9.0377e-006
13376	5.52	3.5455	0.	-292.26
13377	5.428	3.6364	0.	-300.87
13378	5.52	3.6364	5.e-002	-4.8144e-006
13379	5.52	3.3636	0.	-299.31
13380	5.428	3.4545	0.	-309.69
13381	5.52	3.4545	5.e-002	3.8875e-007
13382	5.52	3.1818	0.	-303.57
13383	5.428	3.2727	0.	-315.62
13384	5.52	3.2727	5.e-002	-2.1251e-006
13385	5.52	3.	0.	-305.
13386	5.428	3.0909	0.	-318.6
13387	5.52	3.0909	5.e-002	-6.3043e-007
13388	5.52	2.8182	0.	-303.57
13389	5.428	2.9091	0.	-318.6
13390	5.52	2.9091	5.e-002	6.1167e-007
13391	5.52	2.6364	0.	-299.31
13392	5.428	2.7273	0.	-315.62
13393	5.52	2.7273	5.e-002	1.8323e-006
13394	5.52	2.4545	0.	-292.26
13395	5.428	2.5455	0.	-309.69
13396	5.52	2.5455	5.e-002	6.7524e-006
13397	5.52	2.2727	0.	-282.5
13398	5.428	2.3636	0.	-300.87
13399	5.52	2.3636	5.e-002	4.0373e-006
13400	5.52	2.0909	0.	-270.13
13401	5.428	2.1818	0.	-289.26
13402	5.52	2.1818	5.e-002	6.1537e-006
13403	5.52	1.9091	0.	-255.27
13404	5.428	2.	0.	-274.98
13405	5.52	2.	5.e-002	5.5882e-006
13406	5.52	1.7273	0.	-238.07
13407	5.428	1.8182	0.	-258.18
13408	5.52	1.8182	5.e-002	1.3136e-005
13409	5.52	1.5455	0.	-218.72
13410	5.428	1.6364	0.	-239.03
13411	5.52	1.6364	5.e-002	1.1961e-005
13412	5.52	1.3636	0.	-197.39
13413	5.428	1.4545	0.	-217.71
13414	5.52	1.4545	5.e-002	6.5986e-006
13415	5.52	1.1818	0.	-174.3
13416	5.428	1.2727	0.	-194.45
13417	5.52	1.2727	5.e-002	1.1296e-005
13418	5.52	1.	0.	-149.65
13419	5.428	1.0909	0.	-169.45
13420	5.52	1.0909	5.e-002	1.1581e-005
13421	5.52	0.81818	0.	-123.66
13422	5.428	0.90909	0.	-142.94
13423	5.52	0.90909	5.e-002	1.1537e-005
13424	5.52	0.63636	0.	-96.558
13425	5.428	0.72727	0.	-115.17
13426	5.52	0.72727	5.e-002	1.9018e-005
13427	5.52	0.45455	0.	-68.534
13428	5.428	0.54545	0.	-86.371
13429	5.52	0.54545	5.e-002	1.8903e-005
13430	5.52	0.27273	0.	-39.712
13431	5.428	0.36364	0.	-56.693
13432	5.52	0.36364	5.e-002	1.9115e-005
13433	5.428	0.18182	0.	-26.294
13434	5.52	0.18182	5.e-002	4.2263e-005
13435	5.52	9.0909e-002	0.	-13.37
13436	5.336	5.7273	0.	-43.215
13437	5.244	5.8182	0.	-28.586
13438	5.336	5.8182	5.e-002	-2.135e-005
13439	5.336	5.9091	0.	-14.609
13440	5.336	5.5455	0.	-74.509
13441	5.244	5.6364	0.	-61.569
13442	5.336	5.6364	5.e-002	-2.855e-005
13443	5.336	5.3636	0.	-104.97
13444	5.244	5.4545	0.	-93.801
13445	5.336	5.4545	5.e-002	-2.8296e-005
13446	5.336	5.1818	0.	-134.44
13447	5.244	5.2727	0.	-125.11
13448	5.336	5.2727	5.e-002	-3.4227e-005
13449	5.336	5.	0.	-162.73
13450	5.244	5.0909	0.	-155.32
13451	5.336	5.0909	5.e-002	-3.3498e-005
13452	5.336	4.8182	0.	-189.58
13453	5.244	4.9091	0.	-184.18
13454	5.336	4.9091	5.e-002	-1.9195e-005
13455	5.336	4.6364	0.	-214.75
13456	5.244	4.7273	0.	-211.41
13457	5.336	4.7273	5.e-002	-2.3181e-005
13458	5.336	4.4545	0.	-238.
13459	5.244	4.5455	0.	-236.77
13460	5.336	4.5455	5.e-002	-5.2715e-006
13461	5.336	4.2727	0.	-259.12
13462	5.244	4.3636	0.	-260.02
13463	5.336	4.3636	5.e-002	-6.6574e-006
13464	5.336	4.0909	0.	-277.89
13465	5.244	4.1818	0.	-280.92
13466	5.336	4.1818	5.e-002	-1.2519e-005
13467	5.336	3.9091	0.	-294.11
13468	5.244	4.	0.	-299.27
13469	5.336	4.	5.e-002	-1.0341e-005
13470	5.336	3.7273	0.	-307.63
13471	5.244	3.8182	0.	-314.86
13472	5.336	3.8182	5.e-002	-8.1753e-006
13473	5.336	3.5455	0.	-318.29
13474	5.244	3.6364	0.	-327.55
13475	5.336	3.6364	5.e-002	-4.2148e-006
13476	5.336	3.3636	0.	-326.
13477	5.244	3.4545	0.	-337.18
13478	5.336	3.4545	5.e-002	-3.0988e-006
13479	5.336	3.1818	0.	-330.65
13480	5.244	3.2727	0.	-343.66
13481	5.336	3.2727	5.e-002	-1.9433e-006
13482	5.336	3.	0.	-332.21
13483	5.244	3.0909	0.	-346.92
13484	5.336	3.0909	5.e-002	-6.5872e-007
13485	5.336	2.8182	0.	-330.65
13486	5.244	2.9091	0.	-346.92
13487	5.336	2.9091	5.e-002	6.5872e-007
13488	5.336	2.6364	0.	-326.
13489	5.244	2.7273	0.	-343.66
13490	5.336	2.7273	5.e-002	1.9433e-006
13491	5.336	2.4545	0.	-318.29
13492	5.244	2.5455	0.	-337.18
13493	5.336	2.5455	5.e-002	3.1849e-006
13494	5.336	2.2727	0.	-307.63
13495	5.244	2.3636	0.	-327.55
13496	5.336	2.3636	5.e-002	4.2741e-006
13497	5.336	2.0909	0.	-294.11
13498	5.244	2.1818	0.	-314.86
13499	5.336	2.1818	5.e-002	8.325e-006
13500	5.336	1.9091	0.	-277.89
13501	5.244	2.	0.	-299.27
13502	5.336	2.	5.e-002	6.074e-006
13503	5.336	1.7273	0.	-259.12
13504	5.244	1.8182	0.	-280.92
13505	5.336	1.8182	5.e-002	9.5446e-006
13506	5.336	1.5455	0.	-238.
13507	5.244	1.6364	0.	-260.02
13508	5.336	1.6364	5.e-002	7.1165e-006
13509	5.336	1.3636	0.	-214.75
13510	5.244	1.4545	0.	-236.77
13511	5.336	1.4545	5.e-002	7.0357e-006
13512	5.336	1.1818	0.	-189.58
13513	5.244	1.2727	0.	-211.41
13514	5.336	1.2727	5.e-002	1.7798e-005
13515	5.336	1.	0.	-162.73
13516	5.244	1.0909	0.	-184.18
13517	5.336	1.0909	5.e-002	1.3043e-005
13518	5.336	0.81818	0.	-134.44
13519	5.244	0.90909	0.	-155.32
13520	5.336	0.90909	5.e-002	1.9763e-005
13521	5.336	0.63636	0.	-104.97
13522	5.244	0.72727	0.	-125.11
13523	5.336	0.72727	5.e-002	2.0038e-005
13524	5.336	0.45455	0.	-74.509
13525	5.244	0.54545	0.	-93.801
13526	5.336	0.54545	5.e-002	2.0049e-005
13527	5.336	0.27273	0.	-43.215
13528	5.244	0.36364	0.	-61.569
13529	5.336	0.36364	5.e-002	2.0409e-005
13530	5.244	0.18182	0.	-28.586
13531	5.336	0.18182	5.e-002	2.2399e-005
13532	5.336	9.0909e-002	0.	-14.609
13533	5.152	5.7273	0.	-46.867
13534	5.06	5.8182	0.	-30.916
13535	5.152	5.8182	5.e-002	-2.1511e-005
13536	5.152	5.9091	0.	-15.861
13537	5.152	5.5455	0.	-80.835
13538	5.06	5.6364	0.	-66.699
13539	5.152	5.6364	5.e-002	-1.2026e-005
13540	5.152	5.3636	0.	-113.92
13541	5.06	5.4545	0.	-101.69
13542	5.152	5.4545	5.e-002	-3.2359e-005
13543	5.152	5.1818	0.	-145.97
13544	5.06	5.2727	0.	-135.71
13545	5.152	5.2727	5.e-002	-2.1595e-005
13546	5.152	5.	0.	-176.75
13547	5.06	5.0909	0.	-168.57
13548	5.152	5.0909	5.e-002	-6.3799e-006
13549	5.152	4.8182	0.	-205.99
13550	5.06	4.9091	0.	-199.98
13551	5.152	4.9091	5.e-002	-2.7476e-005
13552	5.152	4.6364	0.	-233.42
13553	5.06	4.7273	0.	-229.65
13554	5.152	4.7273	5.e-002	-1.9497e-005
13555	5.152	4.4545	0.	-258.78
13556	5.06	4.5455	0.	-257.3
13557	5.152	4.5455	5.e-002	-1.2734e-005
13558	5.152	4.2727	0.	-281.82
13559	5.06	4.3636	0.	-282.66
13560	5.152	4.3636	5.e-002	-1.1664e-005
13561	5.152	4.0909	0.	-302.3
13562	5.06	4.1818	0.	-305.46
13563	5.152	4.1818	5.e-002	-9.773e-006
13564	5.152	3.9091	0.	-320.02
13565	5.06	4.	0.	-325.49
13566	5.152	4.	5.e-002	-1.1224e-005
13567	5.152	3.7273	0.	-334.78
13568	5.06	3.8182	0.	-342.52
13569	5.152	3.8182	5.e-002	-9.1615e-006
13570	5.152	3.5455	0.	-346.43
13571	5.06	3.6364	0.	-356.38
13572	5.152	3.6364	5.e-002	-5.6889e-006
13573	5.152	3.3636	0.	-354.85
13574	5.06	3.4545	0.	-366.9
13575	5.152	3.4545	5.e-002	-3.4173e-006
13576	5.152	3.1818	0.	-359.94
13577	5.06	3.2727	0.	-373.99
13578	5.152	3.2727	5.e-002	-2.0724e-006
13579	5.152	3.	0.	-361.64
13580	5.06	3.0909	0.	-377.55
13581	5.152	3.0909	5.e-002	-7.0861e-007
13582	5.152	2.8182	0.	-359.94
13583	5.06	2.9091	0.	-377.55
13584	5.152	2.9091	5.e-002	7.0626e-007
13585	5.152	2.6364	0.	-354.85
13586	5.06	2.7273	0.	-373.99
13587	5.152	2.7273	5.e-002	2.1004e-006
13588	5.152	2.4545	0.	-346.43
13589	5.06	2.5455	0.	-366.9
13590	5.152	2.5455	5.e-002	7.1958e-006
13591	5.152	2.2727	0.	-334.78
13592	5.06	2.3636	0.	-356.38
13593	5.152	2.3636	5.e-002	4.5818e-006
13594	5.152	2.0909	0.	-320.02
13595	5.06	2.1818	0.	-342.52
13596	5.152	2.1818	5.e-002	5.7703e-006
13597	5.152	1.9091	0.	-302.3
13598	5.06	2.	0.	-325.49
13599	5.152	2.	5.e-002	6.4947e-006
13600	5.152	1.7273	0.	-281.82
13601	5.06	1.8182	0.	-305.46
13602	5.152	1.8182	5.e-002	1.0431e-005
13603	5.152	1.5455	0.	-258.78
13604	5.06	1.6364	0.	-282.66
13605	5.152	1.6364	5.e-002	7.0956e-006
13606	5.152	1.3636	0.	-233.42
13607	5.06	1.4545	0.	-257.3
13608	5.152	1.4545	5.e-002	1.2734e-005
13609	5.152	1.1818	0.	-205.99
13610	5.06	1.2727	0.	-229.65
13611	5.152	1.2727	5.e-002	1.9784e-005
13612	5.152	1.	0.	-176.75
13613	5.06	1.0909	0.	-199.98
13614	5.152	1.0909	5.e-002	2.8085e-005
13615	5.152	0.81818	0.	-145.97
13616	5.06	0.90909	0.	-168.57
13617	5.152	0.90909	5.e-002	1.1367e-005
13618	5.152	0.63636	0.	-113.92
13619	5.06	0.72727	0.	-135.71
13620	5.152	0.72727	5.e-002	2.2415e-005
13621	5.152	0.45455	0.	-80.835
13622	5.06	0.54545	0.	-101.69
13623	5.152	0.54545	5.e-002	2.2823e-005
13624	5.152	0.27273	0.	-46.867
13625	5.06	0.36364	0.	-66.699
13626	5.152	0.36364	5.e-002	1.3177e-005
13627	5.06	0.18182	0.	-30.916
13628	5.152	0.18182	5.e-002	1.2074e-005
13629	5.152	9.0909e-002	0.	-15.861
13630	4.968	5.7273	0.	-50.662
13631	4.876	5.8182	0.	-33.269
13632	4.968	5.8182	5.e-002	-3.1971e-005
13633	4.968	5.9091	0.	-17.115
13634	4.968	5.5455	0.	-87.525
13635	4.876	5.6364	0.	-72.087
13636	4.968	5.6364	5.e-002	-1.4059e-005
13637	4.968	5.3636	0.	-123.46
13638	4.876	5.4545	0.	-110.07
13639	4.968	5.4545	5.e-002	-2.4351e-005
13640	4.968	5.1818	0.	-158.29
13641	4.876	5.2727	0.	-147.03
13642	4.968	5.2727	5.e-002	-2.5015e-005
13643	4.968	5.	0.	-191.78
13644	4.876	5.0909	0.	-182.76
13645	4.968	5.0909	5.e-002	-2.3877e-005
13646	4.968	4.8182	0.	-223.62
13647	4.876	4.9091	0.	-216.94
13648	4.968	4.9091	5.e-002	-2.3088e-005
13649	4.968	4.6364	0.	-253.51
13650	4.876	4.7273	0.	-249.26
13651	4.968	4.7273	5.e-002	-2.8375e-005
13652	4.968	4.4545	0.	-281.16
13653	4.876	4.5455	0.	-279.4
13654	4.968	4.5455	5.e-002	-1.9936e-005
13655	4.968	4.2727	0.	-306.29
13656	4.876	4.3636	0.	-307.05
13657	4.968	4.3636	5.e-002	-7.2871e-006
13658	4.968	4.0909	0.	-328.65
13659	4.876	4.1818	0.	-331.94
13660	4.968	4.1818	5.e-002	-1.9214e-005
13661	4.968	3.9091	0.	-348.
13662	4.876	4.	0.	-353.81
13663	4.968	4.	5.e-002	-9.6601e-006
13664	4.968	3.7273	0.	-364.12
13665	4.876	3.8182	0.	-372.41
13666	4.968	3.8182	5.e-002	-1.1942e-005
13667	4.968	3.5455	0.	-376.85
13668	4.876	3.6364	0.	-387.54
13669	4.968	3.6364	5.e-002	-4.9047e-006
13670	4.968	3.3636	0.	-386.05
13671	4.876	3.4545	0.	-399.04
13672	4.968	3.4545	5.e-002	-4.3262e-006
13673	4.968	3.1818	0.	-391.61
13674	4.876	3.2727	0.	-406.78
13675	4.968	3.2727	5.e-002	-2.2822e-006
13676	4.968	3.	0.	-393.47
13677	4.876	3.0909	0.	-410.67
13678	4.968	3.0909	5.e-002	-7.626e-007
13679	4.968	2.8182	0.	-391.61
13680	4.876	2.9091	0.	-410.67
13681	4.968	2.9091	5.e-002	7.626e-007
13682	4.968	2.6364	0.	-386.05
13683	4.876	2.7273	0.	-406.78
13684	4.968	2.7273	5.e-002	2.2822e-006
13685	4.968	2.4545	0.	-376.85
13686	4.876	2.5455	0.	-399.04
13687	4.968	2.5455	5.e-002	3.7112e-006
13688	4.968	2.2727	0.	-364.12
13689	4.876	2.3636	0.	-387.54
13690	4.968	2.3636	5.e-002	8.6398e-006
13691	4.968	2.0909	0.	-348.
13692	4.876	2.1818	0.	-372.41
13693	4.968	2.1818	5.e-002	1.3762e-005
13694	4.968	1.9091	0.	-328.65
13695	4.876	2.	0.	-353.81
13696	4.968	2.	5.e-002	7.1368e-006
13697	4.968	1.7273	0.	-306.29
13698	4.876	1.8182	0.	-331.94
13699	4.968	1.8182	5.e-002	1.1388e-005
13700	4.968	1.5455	0.	-281.16
13701	4.876	1.6364	0.	-307.05
13702	4.968	1.6364	5.e-002	8.3281e-006
13703	4.968	1.3636	0.	-253.51
13704	4.876	1.4545	0.	-279.4
13705	4.968	1.4545	5.e-002	1.3374e-005
13706	4.968	1.1818	0.	-223.62
13707	4.876	1.2727	0.	-249.26
13708	4.968	1.2727	5.e-002	2.8983e-005
13709	4.968	1.	0.	-191.78
13710	4.876	1.0909	0.	-216.94
13711	4.968	1.0909	5.e-002	1.7386e-005
13712	4.968	0.81818	0.	-158.29
13713	4.876	0.90909	0.	-182.76
13714	4.968	0.90909	5.e-002	2.3877e-005
13715	4.968	0.63636	0.	-123.46
13716	4.876	0.72727	0.	-147.03
13717	4.968	0.72727	5.e-002	2.7316e-005
13718	4.968	0.45455	0.	-87.525
13719	4.876	0.54545	0.	-110.07
13720	4.968	0.54545	5.e-002	3.5559e-005
13721	4.968	0.27273	0.	-50.662
13722	4.876	0.36364	0.	-72.087
13723	4.968	0.36364	5.e-002	2.4949e-005
13724	4.876	0.18182	0.	-33.269
13725	4.968	0.18182	5.e-002	2.2967e-005
13726	4.968	9.0909e-002	0.	-17.115
13727	4.784	5.7273	0.	-54.591
13728	4.692	5.8182	0.	-35.622
13729	4.784	5.8182	5.e-002	-2.1946e-005
13730	4.784	5.9091	0.	-18.359
13731	4.784	5.5455	0.	-94.59
13732	4.692	5.6364	0.	-77.732
13733	4.784	5.6364	5.e-002	-2.8057e-005
13734	4.784	5.3636	0.	-133.6
13735	4.692	5.4545	0.	-118.94
13736	4.784	5.4545	5.e-002	-4.0554e-005
13737	4.784	5.1818	0.	-171.46
13738	4.692	5.2727	0.	-159.09
13739	4.784	5.2727	5.e-002	-2.7117e-005
13740	4.784	5.	0.	-207.89
13741	4.692	5.0909	0.	-197.94
13742	4.784	5.0909	5.e-002	-2.427e-005
13743	4.784	4.8182	0.	-242.56
13744	4.692	4.9091	0.	-235.14
13745	4.784	4.9091	5.e-002	-2.6319e-005
13746	4.784	4.6364	0.	-275.12
13747	4.692	4.7273	0.	-270.34
13748	4.784	4.7273	5.e-002	-2.4335e-005
13749	4.784	4.4545	0.	-305.27
13750	4.692	4.5455	0.	-303.19
13751	4.784	4.5455	5.e-002	-2.95e-005
13752	4.784	4.2727	0.	-332.69
13753	4.692	4.3636	0.	-333.36
13754	4.784	4.3636	5.e-002	-1.3376e-005
13755	4.784	4.0909	0.	-357.09
13756	4.692	4.1818	0.	-360.52
13757	4.784	4.1818	5.e-002	-1.6889e-005
13758	4.784	3.9091	0.	-378.22
13759	4.692	4.	0.	-384.38
13760	4.784	4.	5.e-002	-1.0739e-005
13761	4.784	3.7273	0.	-395.83
13762	4.692	3.8182	0.	-404.69
13763	4.784	3.8182	5.e-002	-2.7324e-006
13764	4.784	3.5455	0.	-409.74
13765	4.692	3.6364	0.	-421.22
13766	4.784	3.6364	5.e-002	-6.6998e-006
13767	4.784	3.3636	0.	-419.79
13768	4.692	3.4545	0.	-433.78
13769	4.784	3.4545	5.e-002	-4.6798e-006
13770	4.784	3.1818	0.	-425.86
13771	4.692	3.2727	0.	-442.24
13772	4.784	3.2727	5.e-002	-2.7225e-006
13773	4.784	3.	0.	-427.89
13774	4.692	3.0909	0.	-446.49
13775	4.784	3.0909	5.e-002	-8.481e-007
13776	4.784	2.8182	0.	-425.86
13777	4.692	2.9091	0.	-446.49
13778	4.784	2.9091	5.e-002	8.1956e-007
13779	4.784	2.6364	0.	-419.79
13780	4.692	2.7273	0.	-442.24
13781	4.784	2.7273	5.e-002	2.4437e-006
13782	4.784	2.4545	0.	-409.74
13783	4.692	2.5455	0.	-433.78
13784	4.784	2.5455	5.e-002	3.9179e-006
13785	4.784	2.2727	0.	-395.83
13786	4.692	2.3636	0.	-421.22
13787	4.784	2.3636	5.e-002	5.3877e-006
13788	4.784	2.0909	0.	-378.22
13789	4.692	2.1818	0.	-404.69
13790	4.784	2.1818	5.e-002	6.4013e-006
13791	4.784	1.9091	0.	-357.09
13792	4.692	2.	0.	-384.38
13793	4.784	2.	5.e-002	7.3872e-006
13794	4.784	1.7273	0.	-332.69
13795	4.692	1.8182	0.	-360.52
13796	4.784	1.8182	5.e-002	7.95e-006
13797	4.784	1.5455	0.	-305.27
13798	4.692	1.6364	0.	-333.36
13799	4.784	1.6364	5.e-002	8.8391e-006
13800	4.784	1.3636	0.	-275.12
13801	4.692	1.4545	0.	-303.19
13802	4.784	1.4545	5.e-002	2.2672e-005
13803	4.784	1.1818	0.	-242.56
13804	4.692	1.2727	0.	-270.34
13805	4.784	1.2727	5.e-002	1.6349e-005
13806	4.784	1.	0.	-207.89
13807	4.692	1.0909	0.	-235.14
13808	4.784	1.0909	5.e-002	2.564e-005
13809	4.784	0.81818	0.	-171.46
13810	4.692	0.90909	0.	-197.94
13811	4.784	0.90909	5.e-002	1.6474e-005
13812	4.784	0.63636	0.	-133.6
13813	4.692	0.72727	0.	-159.09
13814	4.784	0.72727	5.e-002	3.8844e-005
13815	4.784	0.45455	0.	-94.59
13816	4.692	0.54545	0.	-118.94
13817	4.784	0.54545	5.e-002	2.8039e-005
13818	4.784	0.27273	0.	-54.591
13819	4.692	0.36364	0.	-77.732
13820	4.784	0.36364	5.e-002	2.8818e-005
13821	4.692	0.18182	0.	-35.622
13822	4.784	0.18182	5.e-002	2.3133e-005
13823	4.784	9.0909e-002	0.	-18.359
13824	4.6	5.7273	0.	-58.642
13825	4.508	5.8182	0.	-37.95
13826	4.6	5.8182	5.e-002	-7.1818e-007
13827	4.6	5.9091	0.	-19.574
13828	4.6	5.5455	0.	-102.04
13829	4.508	5.6364	0.	-83.633
13830	4.6	5.6364	5.e-002	-5.6519e-005
13831	4.6	5.3636	0.	-144.39
13832	4.508	5.4545	0.	-128.34
13833	4.6	5.4545	5.e-002	-4.2928e-005
13834	4.6	5.1818	0.	-185.53
13835	4.508	5.2727	0.	-171.94
13836	4.6	5.2727	5.e-002	-4.3332e-005
13837	4.6	5.	0.	-225.15
13838	4.508	5.0909	0.	-214.18
13839	4.6	5.0909	5.e-002	-4.091e-005
13840	4.6	4.8182	0.	-262.9
13841	4.508	4.9091	0.	-254.67
13842	4.6	4.9091	5.e-002	-1.5836e-005
13843	4.6	4.6364	0.	-298.38
13844	4.508	4.7273	0.	-293.01
13845	4.6	4.7273	5.e-002	-2.6244e-005
13846	4.6	4.4545	0.	-331.25
13847	4.508	4.5455	0.	-328.81
13848	4.6	4.5455	5.e-002	-1.5374e-005
13849	4.6	4.2727	0.	-361.17
13850	4.508	4.3636	0.	-361.71
13851	4.6	4.3636	5.e-002	-9.36e-006
13852	4.6	4.0909	0.	-387.8
13853	4.508	4.1818	0.	-391.35
13854	4.6	4.1818	5.e-002	-1.3527e-005
13855	4.6	3.9091	0.	-410.86
13856	4.508	4.	0.	-417.4
13857	4.6	4.	5.e-002	-1.1678e-005
13858	4.6	3.7273	0.	-430.09
13859	4.508	3.8182	0.	-439.57
13860	4.6	3.8182	5.e-002	-1.2342e-005
13861	4.6	3.5455	0.	-445.28
13862	4.508	3.6364	0.	-457.62
13863	4.6	3.6364	5.e-002	-5.593e-006
13864	4.6	3.3636	0.	-456.26
13865	4.508	3.4545	0.	-471.34
13866	4.6	3.4545	5.e-002	-5.2823e-006
13867	4.6	3.1818	0.	-462.9
13868	4.508	3.2727	0.	-480.58
13869	4.6	3.2727	5.e-002	-2.578e-006
13870	4.6	3.	0.	-465.12
13871	4.508	3.0909	0.	-485.22
13872	4.6	3.0909	5.e-002	2.9002e-006
13873	4.6	2.8182	0.	-462.9
13874	4.508	2.9091	0.	-485.22
13875	4.6	2.9091	5.e-002	8.4078e-007
13876	4.6	2.6364	0.	-456.26
13877	4.508	2.7273	0.	-480.58
13878	4.6	2.7273	5.e-002	2.6124e-006
13879	4.6	2.4545	0.	-445.28
13880	4.508	2.5455	0.	-471.34
13881	4.6	2.5455	5.e-002	4.4113e-006
13882	4.6	2.2727	0.	-430.09
13883	4.508	2.3636	0.	-457.62
13884	4.6	2.3636	5.e-002	5.593e-006
13885	4.6	2.0909	0.	-410.86
13886	4.508	2.1818	0.	-439.57
13887	4.6	2.1818	5.e-002	7.0144e-006
13888	4.6	1.9091	0.	-387.8
13889	4.508	2.	0.	-417.4
13890	4.6	2.	5.e-002	1.1678e-005
13891	4.6	1.7273	0.	-361.17
13892	4.508	1.8182	0.	-391.35
13893	4.6	1.8182	5.e-002	8.4371e-006
13894	4.6	1.5455	0.	-331.25
13895	4.508	1.6364	0.	-361.71
13896	4.6	1.6364	5.e-002	8.775e-006
13897	4.6	1.3636	0.	-298.38
13898	4.508	1.4545	0.	-328.81
13899	4.6	1.4545	5.e-002	7.6215e-006
13900	4.6	1.1818	0.	-262.9
13901	4.508	1.2727	0.	-293.01
13902	4.6	1.2727	5.e-002	1.7868e-005
13903	4.6	1.	0.	-225.16
13904	4.508	1.0909	0.	-254.67
13905	4.6	1.0909	5.e-002	1.8136e-005
13906	4.6	0.81818	0.	-185.53
13907	4.508	0.90909	0.	-214.18
13908	4.6	0.90909	5.e-002	6.6916e-006
13909	4.6	0.63636	0.	-144.39
13910	4.508	0.72727	0.	-171.94
13911	4.6	0.72727	5.e-002	3.1702e-005
13912	4.6	0.45455	0.	-102.04
13913	4.508	0.54545	0.	-128.34
13914	4.6	0.54545	5.e-002	4.5168e-005
13915	4.6	0.27273	0.	-58.642
13916	4.508	0.36364	0.	-83.633
13917	4.6	0.36364	5.e-002	4.3738e-005
13918	4.508	0.18182	0.	-37.95
13919	4.6	0.18182	5.e-002	1.2073e-005
13920	4.6	9.0909e-002	0.	-19.574
13921	4.416	5.7273	0.	-62.799
13922	4.324	5.8182	0.	-40.224
13923	4.416	5.8182	5.e-002	-2.1866e-005
13924	4.416	5.9091	0.	-20.742
13925	4.416	5.5455	0.	-109.88
13926	4.324	5.6364	0.	-89.785
13927	4.416	5.6364	5.e-002	-4.838e-005
13928	4.416	5.3636	0.	-155.84
13929	4.324	5.4545	0.	-138.28
13930	4.416	5.4545	5.e-002	-4.8621e-005
13931	4.416	5.1818	0.	-200.55
13932	4.324	5.2727	0.	-185.62
13933	4.416	5.2727	5.e-002	-4.6614e-005
13934	4.416	5.	0.	-243.65
13935	4.324	5.0909	0.	-231.55
13936	4.416	5.0909	5.e-002	-3.1913e-005
13937	4.416	4.8182	0.	-284.74
13938	4.324	4.9091	0.	-275.61
13939	4.416	4.9091	5.e-002	-2.9094e-005
13940	4.416	4.6364	0.	-323.41
13941	4.324	4.7273	0.	-317.38
13942	4.416	4.7273	5.e-002	-3.9961e-005
13943	4.416	4.4545	0.	-359.25
13944	4.324	4.5455	0.	-356.4
13945	4.416	4.5455	5.e-002	-3.5696e-005
13946	4.416	4.2727	0.	-391.88
13947	4.324	4.3636	0.	-392.28
13948	4.416	4.3636	5.e-002	-2.4434e-005
13949	4.416	4.0909	0.	-420.94
13950	4.324	4.1818	0.	-424.61
13951	4.416	4.1818	5.e-002	-2.0488e-005
13952	4.416	3.9091	0.	-446.11
13953	4.324	4.	0.	-453.04
13954	4.416	4.	5.e-002	-2.0876e-005
13955	4.416	3.7273	0.	-467.11
13956	4.324	3.8182	0.	-477.24
13957	4.416	3.8182	5.e-002	-9.6594e-006
13958	4.416	3.5455	0.	-483.7
13959	4.324	3.6364	0.	-496.95
13960	4.416	3.6364	5.e-002	-5.9559e-006
13961	4.416	3.3636	0.	-495.68
13962	4.324	3.4545	0.	-511.93
13963	4.416	3.4545	5.e-002	-4.462e-006
13964	4.416	3.1818	0.	-502.93
13965	4.324	3.2727	0.	-522.01
13966	4.416	3.2727	5.e-002	1.041e-006
13967	4.416	3.	0.	-505.36
13968	4.324	3.0909	0.	-527.08
13969	4.416	3.0909	5.e-002	-9.3569e-007
13970	4.416	2.8182	0.	-502.93
13971	4.324	2.9091	0.	-527.08
13972	4.416	2.9091	5.e-002	9.4185e-007
13973	4.416	2.6364	0.	-495.68
13974	4.324	2.7273	0.	-522.01
13975	4.416	2.7273	5.e-002	2.7877e-006
13976	4.416	2.4545	0.	-483.7
13977	4.324	2.5455	0.	-511.93
13978	4.416	2.5455	5.e-002	4.462e-006
13979	4.416	2.2727	0.	-467.11
13980	4.324	2.3636	0.	-496.95
13981	4.416	2.3636	5.e-002	5.9559e-006
13982	4.416	2.0909	0.	-446.11
13983	4.324	2.1818	0.	-477.24
13984	4.416	2.1818	5.e-002	7.0433e-006
13985	4.416	1.9091	0.	-420.94
13986	4.324	2.	0.	-453.04
13987	4.416	2.	5.e-002	1.2189e-005
13988	4.416	1.7273	0.	-391.88
13989	4.324	1.8182	0.	-424.61
13990	4.416	1.8182	5.e-002	1.4711e-005
13991	4.416	1.5455	0.	-359.25
13992	4.324	1.6364	0.	-392.28
13993	4.416	1.6364	5.e-002	2.3198e-005
13994	4.416	1.3636	0.	-323.41
13995	4.324	1.4545	0.	-356.4
13996	4.416	1.4545	5.e-002	3.8293e-005
13997	4.416	1.1818	0.	-284.74
13998	4.324	1.2727	0.	-317.38
13999	4.416	1.2727	5.e-002	3.9248e-005
14000	4.416	1.	0.	-243.65
14001	4.324	1.0909	0.	-275.61
14002	4.416	1.0909	5.e-002	2.2079e-005
14003	4.416	0.81818	0.	-200.55
14004	4.324	0.90909	0.	-231.55
14005	4.416	0.90909	5.e-002	3.4973e-005
14006	4.416	0.63636	0.	-155.84
14007	4.324	0.72727	0.	-185.62
14008	4.416	0.72727	5.e-002	4.8215e-005
14009	4.416	0.45455	0.	-109.88
14010	4.324	0.54545	0.	-138.28
14011	4.416	0.54545	5.e-002	3.5414e-005
14012	4.416	0.27273	0.	-62.799
14013	4.324	0.36364	0.	-89.785
14014	4.416	0.36364	5.e-002	4.9202e-005
14015	4.324	0.18182	0.	-40.224
14016	4.416	0.18182	5.e-002	2.3573e-005
14017	4.416	9.0909e-002	0.	-20.742
14018	4.232	5.7273	0.	-67.043
14019	4.14	5.8182	0.	-42.406
14020	4.232	5.8182	5.e-002	-3.2094e-005
14021	4.232	5.9091	0.	-21.839
14022	4.232	5.5455	0.	-118.12
14023	4.14	5.6364	0.	-96.181
14024	4.232	5.6364	5.e-002	-5.3366e-005
14025	4.232	5.3636	0.	-168.
14026	4.14	5.4545	0.	-148.78
14027	4.232	5.4545	5.e-002	-7.147e-005
14028	4.232	5.1818	0.	-216.58
14029	4.14	5.2727	0.	-200.19
14030	4.232	5.2727	5.e-002	-6.7469e-005
14031	4.232	5.	0.	-263.47
14032	4.14	5.0909	0.	-250.13
14033	4.232	5.0909	5.e-002	-6.5797e-005
14034	4.232	4.8182	0.	-308.21
14035	4.14	4.9091	0.	-298.09
14036	4.232	4.9091	5.e-002	-4.5532e-005
14037	4.232	4.6364	0.	-350.34
14038	4.14	4.7273	0.	-343.58
14039	4.232	4.7273	5.e-002	-3.2016e-005
14040	4.232	4.4545	0.	-389.41
14041	4.14	4.5455	0.	-386.12
14042	4.232	4.5455	5.e-002	-8.4379e-006
14043	4.232	4.2727	0.	-425.
14044	4.14	4.3636	0.	-425.24
14045	4.232	4.3636	5.e-002	-3.3768e-005
14046	4.232	4.0909	0.	-456.71
14047	4.14	4.1818	0.	-460.51
14048	4.232	4.1818	5.e-002	-2.2506e-005
14049	4.232	3.9091	0.	-484.18
14050	4.14	4.	0.	-491.52
14051	4.232	4.	5.e-002	-1.3224e-005
14052	4.232	3.7273	0.	-507.1
14053	4.14	3.8182	0.	-517.93
14054	4.232	3.8182	5.e-002	-7.9111e-006
14055	4.232	3.5455	0.	-525.2
14056	4.14	3.6364	0.	-539.43
14057	4.232	3.6364	5.e-002	-8.4781e-006
14058	4.232	3.3636	0.	-538.28
14059	4.14	3.4545	0.	-555.77
14060	4.232	3.4545	5.e-002	-4.6189e-006
14061	4.232	3.1818	0.	-546.19
14062	4.14	3.2727	0.	-566.77
14063	4.232	3.2727	5.e-002	-3.3416e-006
14064	4.232	3.	0.	-548.84
14065	4.14	3.0909	0.	-572.3
14066	4.232	3.0909	5.e-002	-9.9022e-007
14067	4.232	2.8182	0.	-546.19
14068	4.14	2.9091	0.	-572.3
14069	4.232	2.9091	5.e-002	9.9677e-007
14070	4.232	2.6364	0.	-538.28
14071	4.14	2.7273	0.	-566.77
14072	4.232	2.7273	5.e-002	2.9684e-006
14073	4.232	2.4545	0.	-525.2
14074	4.14	2.5455	0.	-555.77
14075	4.232	2.5455	5.e-002	4.8755e-006
14076	4.232	2.2727	0.	-507.1
14077	4.14	2.3636	0.	-539.43
14078	4.232	2.3636	5.e-002	6.6801e-006
14079	4.232	2.0909	0.	-484.18
14080	4.14	2.1818	0.	-517.93
14081	4.232	2.1818	5.e-002	8.3506e-006
14082	4.232	1.9091	0.	-456.71
14083	4.14	2.	0.	-491.52
14084	4.232	2.	5.e-002	8.3063e-006
14085	4.232	1.7273	0.	-425.
14086	4.14	1.8182	0.	-460.51
14087	4.232	1.8182	5.e-002	2.2506e-005
14088	4.232	1.5455	0.	-389.41
14089	4.14	1.6364	0.	-425.24
14090	4.232	1.6364	5.e-002	2.555e-005
14091	4.232	1.3636	0.	-350.34
14092	4.14	1.4545	0.	-386.12
14093	4.232	1.4545	5.e-002	8.4379e-006
14094	4.232	1.1818	0.	-308.21
14095	4.14	1.2727	0.	-343.58
14096	4.232	1.2727	5.e-002	2.0487e-005
14097	4.232	1.	0.	-263.47
14098	4.14	1.0909	0.	-298.09
14099	4.232	1.0909	5.e-002	3.5482e-005
14100	4.232	0.81818	0.	-216.58
14101	4.14	0.90909	0.	-250.13
14102	4.232	0.90909	5.e-002	3.5329e-005
14103	4.232	0.63636	0.	-168.
14104	4.14	0.72727	0.	-200.19
14105	4.232	0.72727	5.e-002	5.3515e-005
14106	4.232	0.45455	0.	-118.12
14107	4.14	0.54545	0.	-148.78
14108	4.232	0.54545	5.e-002	5.7961e-005
14109	4.232	0.27273	0.	-67.043
14110	4.14	0.36364	0.	-96.181
14111	4.232	0.36364	5.e-002	3.671e-005
14112	4.14	0.18182	0.	-42.406
14113	4.232	0.18182	5.e-002	3.1766e-005
14114	4.232	9.0909e-002	0.	-21.839
14115	4.048	5.7273	0.	-71.347
14116	3.956	5.8182	0.	-44.453
14117	4.048	5.8182	5.e-002	-4.5624e-005
14118	4.048	5.9091	0.	-22.836
14119	4.048	5.5455	0.	-126.77
14120	3.956	5.6364	0.	-102.81
14121	4.048	5.6364	5.e-002	-5.4548e-005
14122	4.048	5.3636	0.	-180.9
14123	3.956	5.4545	0.	-159.86
14124	4.048	5.4545	5.e-002	-7.7496e-005
14125	4.048	5.1818	0.	-233.69
14126	3.956	5.2727	0.	-215.7
14127	4.048	5.2727	5.e-002	-5.9251e-005
14128	4.048	5.	0.	-284.7
14129	3.956	5.0909	0.	-270.01
14130	4.048	5.0909	5.e-002	-3.9023e-005
14131	4.048	4.8182	0.	-333.42
14132	3.956	4.9091	0.	-322.21
14133	4.048	4.9091	5.e-002	-3.7407e-005
14134	4.048	4.6364	0.	-379.33
14135	3.956	4.7273	0.	-371.77
14136	4.048	4.7273	5.e-002	-1.7739e-005
14137	4.048	4.4545	0.	-421.92
14138	3.956	4.5455	0.	-418.14
14139	4.048	4.5455	5.e-002	-3.2582e-005
14140	4.048	4.2727	0.	-460.74
14141	3.956	4.3636	0.	-460.79
14142	4.048	4.3636	5.e-002	-2.9447e-005
14143	4.048	4.0909	0.	-495.32
14144	3.956	4.1818	0.	-499.25
14145	4.048	4.1818	5.e-002	-2.3426e-005
14146	4.048	3.9091	0.	-525.28
14147	3.956	4.	0.	-533.06
14148	4.048	4.	5.e-002	-1.4317e-005
14149	4.048	3.7273	0.	-550.28
14150	3.956	3.8182	0.	-561.86
14151	4.048	3.8182	5.e-002	-1.2246e-005
14152	4.048	3.5455	0.	-570.03
14153	3.956	3.6364	0.	-585.29
14154	4.048	3.6364	5.e-002	-8.7616e-006
14155	4.048	3.3636	0.	-584.29
14156	3.956	3.4545	0.	-603.1
14157	4.048	3.4545	5.e-002	-7.7159e-006
14158	4.048	3.1818	0.	-592.92
14159	3.956	3.2727	0.	-615.09
14160	4.048	3.2727	5.e-002	-4.5497e-006
14161	4.048	3.	0.	-595.8
14162	3.956	3.0909	0.	-621.12
14163	4.048	3.0909	5.e-002	-1.1114e-006
14164	4.048	2.8182	0.	-592.92
14165	3.956	2.9091	0.	-621.12
14166	4.048	2.9091	5.e-002	1.021e-006
14167	4.048	2.6364	0.	-584.29
14168	3.956	2.7273	0.	-615.09
14169	4.048	2.7273	5.e-002	3.07e-006
14170	4.048	2.4545	0.	-570.03
14171	3.956	2.5455	0.	-603.1
14172	4.048	2.5455	5.e-002	5.0382e-006
14173	4.048	2.2727	0.	-550.28
14174	3.956	2.3636	0.	-585.29
14175	4.048	2.3636	5.e-002	7.0805e-006
14176	4.048	2.0909	0.	-525.28
14177	3.956	2.1818	0.	-561.86
14178	4.048	2.1818	5.e-002	1.2246e-005
14179	4.048	1.9091	0.	-495.32
14180	3.956	2.	0.	-533.06
14181	4.048	2.	5.e-002	1.4865e-005
14182	4.048	1.7273	0.	-460.74
14183	3.956	1.8182	0.	-499.25
14184	4.048	1.8182	5.e-002	1.7304e-005
14185	4.048	1.5455	0.	-421.92
14186	3.956	1.6364	0.	-460.79
14187	4.048	1.6364	5.e-002	2.9447e-005
14188	4.048	1.3636	0.	-379.33
14189	3.956	1.4545	0.	-418.14
14190	4.048	1.4545	5.e-002	3.2582e-005
14191	4.048	1.1818	0.	-333.42
14192	3.956	1.2727	0.	-371.77
14193	4.048	1.2727	5.e-002	2.2304e-005
14194	4.048	1.	0.	-284.7
14195	3.956	1.0909	0.	-322.21
14196	4.048	1.0909	5.e-002	5.5297e-005
14197	4.048	0.81818	0.	-233.69
14198	3.956	0.90909	0.	-270.01
14199	4.048	0.90909	5.e-002	5.6852e-005
14200	4.048	0.63636	0.	-180.9
14201	3.956	0.72727	0.	-215.7
14202	4.048	0.72727	5.e-002	6.8948e-006
14203	4.048	0.45455	0.	-126.77
14204	3.956	0.54545	0.	-159.86
14205	4.048	0.54545	5.e-002	7.9249e-005
14206	4.048	0.27273	0.	-71.347
14207	3.956	0.36364	0.	-102.81
14208	4.048	0.36364	5.e-002	4.2061e-005
14209	3.956	0.18182	0.	-44.453
14210	4.048	0.18182	5.e-002	3.3886e-005
14211	4.048	9.0909e-002	0.	-22.836
14212	3.864	5.7273	0.	-75.684
14213	3.772	5.8182	0.	-46.316
14214	3.864	5.8182	5.e-002	-3.2372e-005
14215	3.864	5.9091	0.	-23.701
14216	3.864	5.5455	0.	-135.82
14217	3.772	5.6364	0.	-109.66
14218	3.864	5.6364	5.e-002	-6.5617e-005
14219	3.864	5.3636	0.	-194.58
14220	3.772	5.4545	0.	-171.55
14221	3.864	5.4545	5.e-002	-4.6532e-005
14222	3.864	5.1818	0.	-251.95
14223	3.772	5.2727	0.	-232.21
14224	3.864	5.2727	5.e-002	-4.6e-005
14225	3.864	5.	0.	-307.46
14226	3.772	5.0909	0.	-291.27
14227	3.864	5.0909	5.e-002	-6.2767e-005
14228	3.864	4.8182	0.	-360.51
14229	3.772	4.9091	0.	-348.11
14230	3.864	4.9091	5.e-002	-5.7519e-005
14231	3.864	4.6364	0.	-410.54
14232	3.772	4.7273	0.	-402.11
14233	3.864	4.7273	5.e-002	-2.7477e-005
14234	3.864	4.4545	0.	-456.97
14235	3.772	4.5455	0.	-452.64
14236	3.864	4.5455	5.e-002	-5.9137e-005
14237	3.864	4.2727	0.	-499.29
14238	3.772	4.3636	0.	-499.13
14239	3.864	4.3636	5.e-002	-2.9348e-005
14240	3.864	4.0909	0.	-536.99
14241	3.772	4.1818	0.	-541.05
14242	3.864	4.1818	5.e-002	-2.6968e-005
14243	3.864	3.9091	0.	-569.65
14244	3.772	4.	0.	-577.9
14245	3.864	4.	5.e-002	-1.5462e-005
14246	3.864	3.7273	0.	-596.9
14247	3.772	3.8182	0.	-609.26
14248	3.864	3.8182	5.e-002	-1.2693e-005
14249	3.864	3.5455	0.	-618.41
14250	3.772	3.6364	0.	-634.78
14251	3.864	3.6364	5.e-002	-7.4839e-006
14252	3.864	3.3636	0.	-633.95
14253	3.772	3.4545	0.	-654.17
14254	3.864	3.4545	5.e-002	-5.7642e-006
14255	3.864	3.1818	0.	-643.35
14256	3.772	3.2727	0.	-667.22
14257	3.864	3.2727	5.e-002	-3.9502e-006
14258	3.864	3.	0.	-646.49
14259	3.772	3.0909	0.	-673.78
14260	3.864	3.0909	5.e-002	-1.1224e-006
14261	3.864	2.8182	0.	-643.35
14262	3.772	2.9091	0.	-673.78
14263	3.864	2.9091	5.e-002	1.1223e-006
14264	3.864	2.6364	0.	-633.95
14265	3.772	2.7273	0.	-667.22
14266	3.864	2.7273	5.e-002	3.2516e-006
14267	3.864	2.4545	0.	-618.41
14268	3.772	2.5455	0.	-654.17
14269	3.864	2.5455	5.e-002	5.1878e-006
14270	3.864	2.2727	0.	-596.9
14271	3.772	2.3636	0.	-634.78
14272	3.864	2.3636	5.e-002	7.09e-006
14273	3.864	2.0909	0.	-569.65
14274	3.772	2.1818	0.	-609.26
14275	3.864	2.1818	5.e-002	1.2693e-005
14276	3.864	1.9091	0.	-536.99
14277	3.772	2.	0.	-577.9
14278	3.864	2.	5.e-002	9.2362e-006
14279	3.864	1.7273	0.	-499.29
14280	3.772	1.8182	0.	-541.05
14281	3.864	1.8182	5.e-002	1.8705e-005
14282	3.864	1.5455	0.	-456.97
14283	3.772	1.6364	0.	-499.13
14284	3.864	1.6364	5.e-002	2.0406e-005
14285	3.864	1.3636	0.	-410.54
14286	3.772	1.4545	0.	-452.64
14287	3.864	1.4545	5.e-002	3.4184e-005
14288	3.864	1.1818	0.	-360.51
14289	3.772	1.2727	0.	-402.11
14290	3.864	1.2727	5.e-002	2.5854e-005
14291	3.864	1.	0.	-307.46
14292	3.772	1.0909	0.	-348.11
14293	3.864	1.0909	5.e-002	2.8184e-005
14294	3.864	0.81818	0.	-251.95
14295	3.772	0.90909	0.	-291.27
14296	3.864	0.90909	5.e-002	6.4507e-005
14297	3.864	0.63636	0.	-194.58
14298	3.772	0.72727	0.	-232.21
14299	3.864	0.72727	5.e-002	2.6555e-005
14300	3.864	0.45455	0.	-135.82
14301	3.772	0.54545	0.	-171.55
14302	3.864	0.54545	5.e-002	6.529e-005
14303	3.864	0.27273	0.	-75.684
14304	3.772	0.36364	0.	-109.66
14305	3.864	0.36364	5.e-002	4.2372e-005
14306	3.772	0.18182	0.	-46.316
14307	3.864	0.18182	5.e-002	3.3828e-005
14308	3.864	9.0909e-002	0.	-23.701
14309	3.68	5.7273	0.	-80.018
14310	3.588	5.8182	0.	-47.938
14311	3.68	5.8182	5.e-002	-2.3595e-005
14312	3.68	5.9091	0.	-24.395
14313	3.68	5.5455	0.	-145.29
14314	3.588	5.6364	0.	-116.72
14315	3.68	5.6364	5.e-002	-5.1983e-005
14316	3.68	5.3636	0.	-209.09
14317	3.588	5.4545	0.	-183.87
14318	3.68	5.4545	5.e-002	-7.5773e-005
14319	3.68	5.1818	0.	-271.45
14320	3.588	5.2727	0.	-249.79
14321	3.68	5.2727	5.e-002	-5.0514e-005
14322	3.68	5.	0.	-331.86
14323	3.588	5.0909	0.	-314.05
14324	3.68	5.0909	5.e-002	-2.7226e-005
14325	3.68	4.8182	0.	-389.65
14326	3.588	4.9091	0.	-375.95
14327	3.68	4.9091	5.e-002	-2.6958e-005
14328	3.68	4.6364	0.	-444.16
14329	3.588	4.7273	0.	-434.78
14330	3.68	4.7273	5.e-002	-2.6266e-005
14331	3.68	4.4545	0.	-494.77
14332	3.588	4.5455	0.	-489.85
14333	3.68	4.5455	5.e-002	-2.5135e-005
14334	3.68	4.2727	0.	-540.88
14335	3.588	4.3636	0.	-540.51
14336	3.68	4.3636	5.e-002	-3.3647e-005
14337	3.68	4.0909	0.	-581.96
14338	3.588	4.1818	0.	-586.17
14339	3.68	4.1818	5.e-002	-2.9394e-005
14340	3.68	3.9091	0.	-617.54
14341	3.588	4.	0.	-626.28
14342	3.68	4.	5.e-002	-2.3602e-005
14343	3.68	3.7273	0.	-647.2
14344	3.588	3.8182	0.	-660.41
14345	3.68	3.8182	5.e-002	-8.7759e-006
14346	3.68	3.5455	0.	-670.61
14347	3.588	3.6364	0.	-688.16
14348	3.68	3.6364	5.e-002	-1.0511e-005
14349	3.68	3.3636	0.	-687.51
14350	3.588	3.4545	0.	-709.23
14351	3.68	3.4545	5.e-002	-5.7762e-006
14352	3.68	3.1818	0.	-697.73
14353	3.588	3.2727	0.	-723.41
14354	3.68	3.2727	5.e-002	-3.618e-006
14355	3.68	3.	0.	-701.15
14356	3.588	3.0909	0.	-730.53
14357	3.68	3.0909	5.e-002	-1.1852e-006
14358	3.68	2.8182	0.	-697.73
14359	3.588	2.9091	0.	-730.53
14360	3.68	2.9091	5.e-002	1.1852e-006
14361	3.68	2.6364	0.	-687.51
14362	3.588	2.7273	0.	-723.41
14363	3.68	2.7273	5.e-002	3.4325e-006
14364	3.68	2.4545	0.	-670.61
14365	3.588	2.5455	0.	-709.23
14366	3.68	2.5455	5.e-002	5.1682e-006
14367	3.68	2.2727	0.	-647.2
14368	3.588	2.3636	0.	-688.16
14369	3.68	2.3636	5.e-002	7.8852e-006
14370	3.68	2.0909	0.	-617.54
14371	3.588	2.1818	0.	-660.41
14372	3.68	2.1818	5.e-002	8.7759e-006
14373	3.68	1.9091	0.	-581.97
14374	3.588	2.	0.	-626.28
14375	3.68	2.	5.e-002	1.7861e-005
14376	3.68	1.7273	0.	-540.88
14377	3.588	1.8182	0.	-586.17
14378	3.68	1.8182	5.e-002	1.0933e-005
14379	3.68	1.5455	0.	-494.77
14380	3.588	1.6364	0.	-540.51
14381	3.68	1.6364	5.e-002	3.3647e-005
14382	3.68	1.3636	0.	-444.16
14383	3.588	1.4545	0.	-489.85
14384	3.68	1.4545	5.e-002	2.3534e-005
14385	3.68	1.1818	0.	-389.65
14386	3.588	1.2727	0.	-434.78
14387	3.68	1.2727	5.e-002	4.2432e-005
14388	3.68	1.	0.	-331.86
14389	3.588	1.0909	0.	-375.95
14390	3.68	1.0909	5.e-002	4.8678e-005
14391	3.68	0.81818	0.	-271.45
14392	3.588	0.90909	0.	-314.05
14393	3.68	0.90909	5.e-002	8.9592e-006
14394	3.68	0.63636	0.	-209.09
14395	3.588	0.72727	0.	-249.79
14396	3.68	0.72727	5.e-002	7.297e-006
14397	3.68	0.45455	0.	-145.29
14398	3.588	0.54545	0.	-183.87
14399	3.68	0.54545	5.e-002	5.2976e-005
14400	3.68	0.27273	0.	-80.018
14401	3.588	0.36364	0.	-116.72
14402	3.68	0.36364	5.e-002	9.4779e-005
14403	3.588	0.18182	0.	-47.938
14404	3.68	0.18182	5.e-002	3.423e-005
14405	3.68	9.0909e-002	0.	-24.395
14406	3.496	5.7273	0.	-84.309
14407	3.404	5.8182	0.	-49.252
14408	3.496	5.8182	5.e-002	-3.3248e-005
14409	3.496	5.9091	0.	-24.873
14410	3.496	5.5455	0.	-155.18
14411	3.404	5.6364	0.	-123.97
14412	3.496	5.6364	5.e-002	-7.2383e-005
14413	3.496	5.3636	0.	-224.47
14414	3.404	5.4545	0.	-196.85
14415	3.496	5.4545	5.e-002	-8.3165e-005
14416	3.496	5.1818	0.	-292.3
14417	3.404	5.2727	0.	-268.52
14418	3.496	5.2727	5.e-002	-1.0325e-004
14419	3.496	5.	0.	-358.06
14420	3.404	5.0909	0.	-338.48
14421	3.496	5.0909	5.e-002	-9.6393e-005
14422	3.496	4.8182	0.	-421.02
14423	3.404	4.9091	0.	-405.91
14424	3.496	4.9091	5.e-002	-5.3075e-005
14425	3.496	4.6364	0.	-480.42
14426	3.404	4.7273	0.	-470.01
14427	3.496	4.7273	5.e-002	-6.2605e-005
14428	3.496	4.4545	0.	-535.56
14429	3.404	4.5455	0.	-530.01
14430	3.496	4.5455	5.e-002	-5.8079e-005
14431	3.496	4.2727	0.	-585.78
14432	3.404	4.3636	0.	-585.19
14433	3.496	4.3636	5.e-002	-4.9541e-005
14434	3.496	4.0909	0.	-630.5
14435	3.404	4.1818	0.	-634.87
14436	3.496	4.1818	5.e-002	-9.9843e-006
14437	3.496	3.9091	0.	-669.2
14438	3.404	4.	0.	-678.49
14439	3.496	4.	5.e-002	-2.8122e-005
14440	3.496	3.7273	0.	-701.43
14441	3.404	3.8182	0.	-715.56
14442	3.496	3.8182	5.e-002	-2.1601e-005
14443	3.496	3.5455	0.	-726.86
14444	3.404	3.6364	0.	-745.68
14445	3.496	3.6364	5.e-002	-1.4584e-005
14446	3.496	3.3636	0.	-745.22
14447	3.404	3.4545	0.	-768.53
14448	3.496	3.4545	5.e-002	-7.8332e-006
14449	3.496	3.1818	0.	-756.3
14450	3.404	3.2727	0.	-783.89
14451	3.496	3.2727	5.e-002	-4.4497e-006
14452	3.496	3.	0.	-760.01
14453	3.404	3.0909	0.	-791.61
14454	3.496	3.0909	5.e-002	-1.263e-006
14455	3.496	2.8182	0.	-756.3
14456	3.404	2.9091	0.	-791.61
14457	3.496	2.9091	5.e-002	1.2712e-006
14458	3.496	2.6364	0.	-745.22
14459	3.404	2.7273	0.	-783.89
14460	3.496	2.7273	5.e-002	3.7068e-006
14461	3.496	2.4545	0.	-726.86
14462	3.404	2.5455	0.	-768.53
14463	3.496	2.5455	5.e-002	6.0699e-006
14464	3.496	2.2727	0.	-701.43
14465	3.404	2.3636	0.	-745.68
14466	3.496	2.3636	5.e-002	1.1649e-005
14467	3.496	2.0909	0.	-669.2
14468	3.404	2.1818	0.	-715.56
14469	3.496	2.1818	5.e-002	8.6586e-006
14470	3.496	1.9091	0.	-630.5
14471	3.404	2.	0.	-678.49
14472	3.496	2.	5.e-002	1.0144e-005
14473	3.496	1.7273	0.	-585.78
14474	3.404	1.8182	0.	-634.87
14475	3.496	1.8182	5.e-002	1.1411e-005
14476	3.496	1.5455	0.	-535.56
14477	3.404	1.6364	0.	-585.19
14478	3.496	1.6364	5.e-002	2.5335e-005
14479	3.496	1.3636	0.	-480.42
14480	3.404	1.4545	0.	-530.01
14481	3.496	1.4545	5.e-002	2.3786e-005
14482	3.496	1.1818	0.	-421.02
14483	3.404	1.2727	0.	-470.01
14484	3.496	1.2727	5.e-002	4.4635e-005
14485	3.496	1.	0.	-358.06
14486	3.404	1.0909	0.	-405.91
14487	3.496	1.0909	5.e-002	4.9483e-005
14488	3.496	0.81818	0.	-292.3
14489	3.404	0.90909	0.	-338.48
14490	3.496	0.90909	5.e-002	5.1869e-005
14491	3.496	0.63636	0.	-224.47
14492	3.404	0.72727	0.	-268.52
14493	3.496	0.72727	5.e-002	8.3028e-005
14494	3.496	0.45455	0.	-155.18
14495	3.404	0.54545	0.	-196.85
14496	3.496	0.54545	5.e-002	3.0093e-005
14497	3.496	0.27273	0.	-84.309
14498	3.404	0.36364	0.	-123.97
14499	3.496	0.36364	5.e-002	4.9016e-005
14500	3.404	0.18182	0.	-49.252
14501	3.496	0.18182	5.e-002	2.5107e-005
14502	3.496	9.0909e-002	0.	-24.873
14503	3.312	5.7273	0.	-88.512
14504	3.22	5.8182	0.	-50.185
14505	3.312	5.8182	5.e-002	-4.434e-005
14506	3.312	5.9091	0.	-25.082
14507	3.312	5.5455	0.	-165.51
14508	3.22	5.6364	0.	-131.39
14509	3.312	5.6364	5.e-002	-1.1131e-004
14510	3.312	5.3636	0.	-240.8
14511	3.22	5.4545	0.	-210.56
14512	3.312	5.4545	5.e-002	-1.1894e-004
14513	3.312	5.1818	0.	-314.6
14514	3.22	5.2727	0.	-288.52
14515	3.312	5.2727	5.e-002	-6.4307e-005
14516	3.312	5.	0.	-386.24
14517	3.22	5.0909	0.	-364.72
14518	3.312	5.0909	5.e-002	-3.5869e-005
14519	3.312	4.8182	0.	-454.83
14520	3.22	4.9091	0.	-438.21
14521	3.312	4.9091	5.e-002	-5.2207e-005
14522	3.312	4.6364	0.	-519.56
14523	3.22	4.7273	0.	-508.07
14524	3.312	4.7273	5.e-002	-5.411e-005
14525	3.312	4.4545	0.	-579.61
14526	3.22	4.5455	0.	-573.43
14527	3.312	4.5455	5.e-002	-4.2861e-005
14528	3.312	4.2727	0.	-634.27
14529	3.22	4.3636	0.	-633.47
14530	3.312	4.3636	5.e-002	-4.1408e-005
14531	3.312	4.0909	0.	-682.89
14532	3.22	4.1818	0.	-687.47
14533	3.312	4.1818	5.e-002	-2.1714e-005
14534	3.312	3.9091	0.	-724.91
14535	3.22	4.	0.	-734.81
14536	3.312	4.	5.e-002	-2.7608e-005
14537	3.312	3.7273	0.	-759.88
14538	3.22	3.8182	0.	-774.99
14539	3.312	3.8182	5.e-002	-2.2042e-005
14540	3.312	3.5455	0.	-787.44
14541	3.22	3.6364	0.	-807.59
14542	3.312	3.6364	5.e-002	-1.1905e-005
14543	3.312	3.3636	0.	-807.31
14544	3.22	3.4545	0.	-832.3
14545	3.312	3.4545	5.e-002	-6.3509e-006
14546	3.312	3.1818	0.	-819.31
14547	3.22	3.2727	0.	-848.9
14548	3.312	3.2727	5.e-002	-4.4857e-006
14549	3.312	3.	0.	-823.32
14550	3.22	3.0909	0.	-857.23
14551	3.312	3.0909	5.e-002	-1.3222e-006
14552	3.312	2.8182	0.	-819.31
14553	3.22	2.9091	0.	-857.23
14554	3.312	2.9091	5.e-002	1.3222e-006
14555	3.312	2.6364	0.	-807.31
14556	3.22	2.7273	0.	-848.9
14557	3.312	2.7273	5.e-002	4.0842e-006
14558	3.312	2.4545	0.	-787.44
14559	3.22	2.5455	0.	-832.3
14560	3.312	2.5455	5.e-002	6.6851e-006
14561	3.312	2.2727	0.	-759.88
14562	3.22	2.3636	0.	-807.59
14563	3.312	2.3636	5.e-002	8.1991e-006
14564	3.312	2.0909	0.	-724.91
14565	3.22	2.1818	0.	-774.99
14566	3.312	2.1818	5.e-002	1.6107e-005
14567	3.312	1.9091	0.	-682.89
14568	3.22	2.	0.	-734.81
14569	3.312	2.	5.e-002	1.0575e-005
14570	3.312	1.7273	0.	-634.27
14571	3.22	1.8182	0.	-687.47
14572	3.312	1.8182	5.e-002	1.1866e-005
14573	3.312	1.5455	0.	-579.61
14574	3.22	1.6364	0.	-633.47
14575	3.312	1.6364	5.e-002	4.1408e-005
14576	3.312	1.3636	0.	-519.56
14577	3.22	1.4545	0.	-573.43
14578	3.312	1.4545	5.e-002	4.2861e-005
14579	3.312	1.1818	0.	-454.83
14580	3.22	1.2727	0.	-508.07
14581	3.312	1.2727	5.e-002	5.411e-005
14582	3.312	1.	0.	-386.24
14583	3.22	1.0909	0.	-438.21
14584	3.312	1.0909	5.e-002	5.5885e-005
14585	3.312	0.81818	0.	-314.6
14586	3.22	0.90909	0.	-364.72
14587	3.312	0.90909	5.e-002	1.123e-005
14588	3.312	0.63636	0.	-240.8
14589	3.22	0.72727	0.	-288.52
14590	3.312	0.72727	5.e-002	1.1727e-004
14591	3.312	0.45455	0.	-165.51
14592	3.22	0.54545	0.	-210.56
14593	3.312	0.54545	5.e-002	9.1101e-005
14594	3.312	0.27273	0.	-88.512
14595	3.22	0.36364	0.	-131.39
14596	3.312	0.36364	5.e-002	8.4429e-005
14597	3.22	0.18182	0.	-50.185
14598	3.312	0.18182	5.e-002	4.8467e-005
14599	3.312	9.0909e-002	0.	-25.082
14600	3.128	5.7273	0.	-92.578
14601	3.036	5.8182	0.	-50.654
14602	3.128	5.8182	5.e-002	-4.6089e-005
14603	3.128	5.9091	0.	-24.962
14604	3.128	5.5455	0.	-176.29
14605	3.036	5.6364	0.	-138.98
14606	3.128	5.6364	5.e-002	-9.2185e-005
14607	3.128	5.3636	0.	-258.16
14608	3.036	5.4545	0.	-225.04
14609	3.128	5.4545	5.e-002	-1.2264e-004
14610	3.128	5.1818	0.	-338.53
14611	3.036	5.2727	0.	-309.94
14612	3.128	5.2727	5.e-002	-3.6832e-005
14613	3.128	5.	0.	-416.6
14614	3.036	5.0909	0.	-393.
14615	3.128	5.0909	5.e-002	-3.4777e-005
14616	3.128	4.8182	0.	-491.37
14617	3.036	4.9091	0.	-473.13
14618	3.128	4.9091	5.e-002	-6.4485e-005
14619	3.128	4.6364	0.	-561.89
14620	3.036	4.7273	0.	-549.27
14621	3.128	4.7273	5.e-002	-5.1231e-005
14622	3.128	4.4545	0.	-627.25
14623	3.036	4.5455	0.	-620.42
14624	3.128	4.5455	5.e-002	-2.9472e-005
14625	3.128	4.2727	0.	-686.67
14626	3.036	4.3636	0.	-685.69
14627	3.128	4.3636	5.e-002	-2.5673e-005
14628	3.128	4.0909	0.	-739.43
14629	3.036	4.1818	0.	-744.29
14630	3.128	4.1818	5.e-002	-6.204e-005
14631	3.128	3.9091	0.	-784.97
14632	3.036	4.	0.	-795.57
14633	3.128	4.	5.e-002	-2.0304e-005
14634	3.128	3.7273	0.	-822.8
14635	3.036	3.8182	0.	-838.99
14636	3.128	3.8182	5.e-002	-2.4713e-005
14637	3.128	3.5455	0.	-852.58
14638	3.036	3.6364	0.	-874.17
14639	3.128	3.6364	5.e-002	-1.2569e-005
14640	3.128	3.3636	0.	-874.02
14641	3.036	3.4545	0.	-900.78
14642	3.128	3.4545	5.e-002	-8.7157e-006
14643	3.128	3.1818	0.	-886.96
14644	3.036	3.2727	0.	-918.64
14645	3.128	3.2727	5.e-002	-4.808e-006
14646	3.128	3.	0.	-891.28
14647	3.036	3.0909	0.	-927.6
14648	3.128	3.0909	5.e-002	-1.4448e-006
14649	3.128	2.8182	0.	-886.96
14650	3.036	2.9091	0.	-927.6
14651	3.128	2.9091	5.e-002	1.2729e-006
14652	3.128	2.6364	0.	-874.02
14653	3.036	2.7273	0.	-918.64
14654	3.128	2.7273	5.e-002	4.1461e-006
14655	3.128	2.4545	0.	-852.58
14656	3.036	2.5455	0.	-900.78
14657	3.128	2.5455	5.e-002	8.7157e-006
14658	3.128	2.2727	0.	-822.8
14659	3.036	2.3636	0.	-874.17
14660	3.128	2.3636	5.e-002	1.2569e-005
14661	3.128	2.0909	0.	-784.97
14662	3.036	2.1818	0.	-838.99
14663	3.128	2.1818	5.e-002	1.5882e-005
14664	3.128	1.9091	0.	-739.43
14665	3.036	2.	0.	-795.57
14666	3.128	2.	5.e-002	2.1676e-005
14667	3.128	1.7273	0.	-686.67
14668	3.036	1.8182	0.	-744.29
14669	3.128	1.8182	5.e-002	3.7166e-005
14670	3.128	1.5455	0.	-627.25
14671	3.036	1.6364	0.	-685.69
14672	3.128	1.6364	5.e-002	1.3332e-005
14673	3.128	1.3636	0.	-561.89
14674	3.036	1.4545	0.	-620.43
14675	3.128	1.4545	5.e-002	2.7731e-005
14676	3.128	1.1818	0.	-491.37
14677	3.036	1.2727	0.	-549.27
14678	3.128	1.2727	5.e-002	1.0984e-005
14679	3.128	1.	0.	-416.6
14680	3.036	1.0909	0.	-473.13
14681	3.128	1.0909	5.e-002	6.0739e-005
14682	3.128	0.81818	0.	-338.53
14683	3.036	0.90909	0.	-393.
14684	3.128	0.90909	5.e-002	6.1969e-005
14685	3.128	0.63636	0.	-258.16
14686	3.036	0.72727	0.	-309.94
14687	3.128	0.72727	5.e-002	9.1439e-005
14688	3.128	0.45455	0.	-176.29
14689	3.036	0.54545	0.	-225.04
14690	3.128	0.54545	5.e-002	6.5135e-005
14691	3.128	0.27273	0.	-92.578
14692	3.036	0.36364	0.	-138.98
14693	3.128	0.36364	5.e-002	9.5998e-005
14694	3.036	0.18182	0.	-50.654
14695	3.128	0.18182	5.e-002	1.5282e-005
14696	3.128	9.0909e-002	0.	-24.962
14697	2.944	5.7273	0.	-96.454
14698	2.852	5.8182	0.	-50.569
14699	2.944	5.8182	5.e-002	-4.73e-005
14700	2.944	5.9091	0.	-24.445
14701	2.944	5.5455	0.	-187.56
14702	2.852	5.6364	0.	-146.73
14703	2.944	5.6364	5.e-002	-9.6798e-005
14704	2.944	5.3636	0.	-276.68
14705	2.852	5.4545	0.	-240.39
14706	2.944	5.4545	5.e-002	-1.0491e-004
14707	2.944	5.1818	0.	-364.28
14708	2.852	5.2727	0.	-332.95
14709	2.944	5.2727	5.e-002	-6.8086e-005
14710	2.944	5.	0.	-449.42
14711	2.852	5.0909	0.	-423.58
14712	2.944	5.0909	5.e-002	-6.7471e-005
14713	2.944	4.8182	0.	-530.94
14714	2.852	4.9091	0.	-511.01
14715	2.944	4.9091	5.e-002	-9.6829e-005
14716	2.944	4.6364	0.	-607.76
14717	2.852	4.7273	0.	-594.
14718	2.944	4.7273	5.e-002	-7.9801e-005
14719	2.944	4.4545	0.	-678.85
14720	2.852	4.5455	0.	-671.42
14721	2.944	4.5455	5.e-002	-7.6571e-005
14722	2.944	4.2727	0.	-743.34
14723	2.852	4.3636	0.	-742.28
14724	2.944	4.3636	5.e-002	-1.3713e-005
14725	2.944	4.0909	0.	-800.48
14726	2.852	4.1818	0.	-805.72
14727	2.944	4.1818	5.e-002	-3.9784e-005
14728	2.944	3.9091	0.	-849.68
14729	2.852	4.	0.	-861.09
14730	2.944	4.	5.e-002	-3.1594e-005
14731	2.944	3.7273	0.	-890.47
14732	2.852	3.8182	0.	-907.85
14733	2.944	3.8182	5.e-002	-9.7291e-006
14734	2.944	3.5455	0.	-922.51
14735	2.852	3.6364	0.	-945.64
14736	2.944	3.6364	5.e-002	-1.3182e-005
14737	2.944	3.3636	0.	-945.56
14738	2.852	3.4545	0.	-974.17
14739	2.944	3.4545	5.e-002	-6.4836e-006
14740	2.944	3.1818	0.	-959.44
14741	2.852	3.2727	0.	-993.29
14742	2.944	3.2727	5.e-002	-5.0042e-006
14743	2.944	3.	0.	-964.08
14744	2.852	3.0909	0.	-1002.9
14745	2.944	3.0909	5.e-002	-1.4981e-006
14746	2.944	2.8182	0.	-959.44
14747	2.852	2.9091	0.	-1002.9
14748	2.944	2.9091	5.e-002	1.3511e-006
14749	2.944	2.6364	0.	-945.56
14750	2.852	2.7273	0.	-993.29
14751	2.944	2.7273	5.e-002	4.0708e-006
14752	2.944	2.4545	0.	-922.51
14753	2.852	2.5455	0.	-974.17
14754	2.944	2.5455	5.e-002	7.204e-006
14755	2.944	2.2727	0.	-890.47
14756	2.852	2.3636	0.	-945.64
14757	2.944	2.3636	5.e-002	9.814e-006
14758	2.944	2.0909	0.	-849.68
14759	2.852	2.1818	0.	-907.85
14760	2.944	2.1818	5.e-002	9.7291e-006
14761	2.944	1.9091	0.	-800.48
14762	2.852	2.	0.	-861.09
14763	2.944	2.	5.e-002	1.1351e-005
14764	2.944	1.7273	0.	-743.34
14765	2.852	1.8182	0.	-805.72
14766	2.944	1.8182	5.e-002	2.6233e-005
14767	2.944	1.5455	0.	-678.85
14768	2.852	1.6364	0.	-742.28
14769	2.944	1.6364	5.e-002	3.0847e-005
14770	2.944	1.3636	0.	-607.76
14771	2.852	1.4545	0.	-671.42
14772	2.944	1.4545	5.e-002	7.6571e-005
14773	2.944	1.1818	0.	-530.94
14774	2.852	1.2727	0.	-594.
14775	2.944	1.2727	5.e-002	5.4802e-005
14776	2.944	1.	0.	-449.42
14777	2.852	1.0909	0.	-511.01
14778	2.944	1.0909	5.e-002	6.2024e-005
14779	2.944	0.81818	0.	-364.28
14780	2.852	0.90909	0.	-423.58
14781	2.944	0.90909	5.e-002	6.7471e-005
14782	2.944	0.63636	0.	-276.68
14783	2.852	0.72727	0.	-332.95
14784	2.944	0.72727	5.e-002	7.5704e-005
14785	2.944	0.45455	0.	-187.56
14786	2.852	0.54545	0.	-240.39
14787	2.944	0.54545	5.e-002	7.1205e-005
14788	2.944	0.27273	0.	-96.454
14789	2.852	0.36364	0.	-146.73
14790	2.944	0.36364	5.e-002	1.0061e-004
14791	2.852	0.18182	0.	-50.569
14792	2.944	0.18182	5.e-002	4.73e-005
14793	2.944	9.0909e-002	0.	-24.445
14794	2.76	5.7273	0.	-100.08
14795	2.668	5.8182	0.	-49.831
14796	2.76	5.8182	5.e-002	-4.8821e-005
14797	2.76	5.9091	0.	-23.448
14798	2.76	5.5455	0.	-199.37
14799	2.668	5.6364	0.	-154.65
14800	2.76	5.6364	5.e-002	-1.0519e-004
14801	2.76	5.3636	0.	-296.51
14802	2.668	5.4545	0.	-256.75
14803	2.76	5.4545	5.e-002	-1.1465e-004
14804	2.76	5.1818	0.	-392.11
14805	2.668	5.2727	0.	-357.81
14806	2.76	5.2727	5.e-002	-1.5237e-004
14807	2.76	5.	0.	-485.05
14808	2.668	5.0909	0.	-456.84
14809	2.76	5.0909	5.e-002	-1.3888e-004
14810	2.76	4.8182	0.	-573.98
14811	2.668	4.9091	0.	-552.29
14812	2.76	4.9091	5.e-002	-3.7446e-005
14813	2.76	4.6364	0.	-657.62
14814	2.668	4.7273	0.	-642.75
14815	2.76	4.7273	5.e-002	-1.1678e-004
14816	2.76	4.4545	0.	-734.84
14817	2.668	4.5455	0.	-726.91
14818	2.76	4.5455	5.e-002	-8.2434e-005
14819	2.76	4.2727	0.	-804.69
14820	2.668	4.3636	0.	-803.68
14821	2.76	4.3636	5.e-002	-6.6332e-005
14822	2.76	4.0909	0.	-866.4
14823	2.668	4.1818	0.	-872.18
14824	2.76	4.1818	5.e-002	-5.695e-005
14825	2.76	3.9091	0.	-919.37
14826	2.668	4.	0.	-931.73
14827	2.76	4.	5.e-002	-2.2559e-005
14828	2.76	3.7273	0.	-963.16
14829	2.668	3.8182	0.	-981.86
14830	2.76	3.8182	5.e-002	-2.5003e-005
14831	2.76	3.5455	0.	-997.46
14832	2.668	3.6364	0.	-1022.2
14833	2.76	3.6364	5.e-002	-1.0099e-005
14834	2.76	3.3636	0.	-1022.1
14835	2.668	3.4545	0.	-1052.6
14836	2.76	3.4545	5.e-002	-1.4368e-005
14837	2.76	3.1818	0.	-1036.9
14838	2.668	3.2727	0.	-1073.
14839	2.76	3.2727	5.e-002	-4.2967e-006
14840	2.76	3.	0.	-1041.8
14841	2.668	3.0909	0.	-1083.1
14842	2.76	3.0909	5.e-002	-1.5416e-006
14843	2.76	2.8182	0.	-1036.9
14844	2.668	2.9091	0.	-1083.1
14845	2.76	2.9091	5.e-002	1.4635e-006
14846	2.76	2.6364	0.	-1022.1
14847	2.668	2.7273	0.	-1073.
14848	2.76	2.7273	5.e-002	4.5228e-006
14849	2.76	2.4545	0.	-997.46
14850	2.668	2.5455	0.	-1052.6
14851	2.76	2.5455	5.e-002	7.0381e-006
14852	2.76	2.2727	0.	-963.16
14853	2.668	2.3636	0.	-1022.2
14854	2.76	2.3636	5.e-002	8.0795e-006
14855	2.76	2.0909	0.	-919.37
14856	2.668	2.1818	0.	-981.86
14857	2.76	2.1818	5.e-002	1.2519e-005
14858	2.76	1.9091	0.	-866.4
14859	2.668	2.	0.	-931.73
14860	2.76	2.	5.e-002	1.314e-005
14861	2.76	1.7273	0.	-804.69
14862	2.668	1.8182	0.	-872.18
14863	2.76	1.8182	5.e-002	2.7671e-005
14864	2.76	1.5455	0.	-734.84
14865	2.668	1.6364	0.	-803.68
14866	2.76	1.6364	5.e-002	5.1245e-005
14867	2.76	1.3636	0.	-657.62
14868	2.668	1.4545	0.	-726.91
14869	2.76	1.4545	5.e-002	5.9867e-005
14870	2.76	1.1818	0.	-573.98
14871	2.668	1.2727	0.	-642.75
14872	2.76	1.2727	5.e-002	3.3919e-005
14873	2.76	1.	0.	-485.05
14874	2.668	1.0909	0.	-552.29
14875	2.76	1.0909	5.e-002	4.5074e-005
14876	2.76	0.81818	0.	-392.11
14877	2.668	0.90909	0.	-456.84
14878	2.76	0.90909	5.e-002	4.0426e-005
14879	2.76	0.63636	0.	-296.51
14880	2.668	0.72727	0.	-357.81
14881	2.76	0.72727	5.e-002	1.1305e-005
14882	2.76	0.45455	0.	-199.37
14883	2.668	0.54545	0.	-256.75
14884	2.76	0.54545	5.e-002	1.5536e-004
14885	2.76	0.27273	0.	-100.08
14886	2.668	0.36364	0.	-154.65
14887	2.76	0.36364	5.e-002	8.1965e-005
14888	2.668	0.18182	0.	-49.832
14889	2.76	0.18182	5.e-002	2.5173e-005
14890	2.76	9.0909e-002	0.	-23.448
14891	2.576	5.7273	0.	-103.42
14892	2.484	5.8182	0.	-48.343
14893	2.576	5.8182	5.e-002	-4.9994e-005
14894	2.576	5.9091	0.	-21.881
14895	2.576	5.5455	0.	-211.8
14896	2.484	5.6364	0.	-162.76
14897	2.576	5.6364	5.e-002	-8.1033e-005
14898	2.576	5.3636	0.	-317.88
14899	2.484	5.4545	0.	-274.3
14900	2.576	5.4545	5.e-002	-8.6841e-005
14901	2.576	5.1818	0.	-422.38
14902	2.484	5.2727	0.	-384.88
14903	2.576	5.2727	5.e-002	-8.8189e-005
14904	2.576	5.	0.	-523.95
14905	2.484	5.0909	0.	-493.25
14906	2.576	5.0909	5.e-002	-1.1886e-004
14907	2.576	4.8182	0.	-620.98
14908	2.484	4.9091	0.	-597.57
14909	2.576	4.9091	5.e-002	-1.0518e-004
14910	2.576	4.6364	0.	-712.01
14911	2.484	4.7273	0.	-696.14
14912	2.576	4.7273	5.e-002	-1.0122e-004
14913	2.576	4.4545	0.	-795.76
14914	2.484	4.5455	0.	-787.5
14915	2.576	4.5455	5.e-002	-6.382e-005
14916	2.576	4.2727	0.	-871.22
14917	2.484	4.3636	0.	-870.47
14918	2.576	4.3636	5.e-002	-7.4412e-005
14919	2.576	4.0909	0.	-937.61
14920	2.484	4.1818	0.	-944.14
14921	2.576	4.1818	5.e-002	-4.4659e-005
14922	2.576	3.9091	0.	-994.36
14923	2.484	4.	0.	-1007.9
14924	2.576	4.	5.e-002	-3.12e-005
14925	2.576	3.7273	0.	-1041.1
14926	2.484	3.8182	0.	-1061.3
14927	2.576	3.8182	5.e-002	-1.025e-005
14928	2.576	3.5455	0.	-1077.6
14929	2.484	3.6364	0.	-1104.1
14930	2.576	3.6364	5.e-002	-1.5181e-005
14931	2.576	3.3636	0.	-1103.7
14932	2.484	3.4545	0.	-1136.3
14933	2.576	3.4545	5.e-002	-2.1818e-005
14934	2.576	3.1818	0.	-1119.4
14935	2.484	3.2727	0.	-1157.7
14936	2.576	3.2727	5.e-002	-4.3809e-006
14937	2.576	3.	0.	-1124.7
14938	2.484	3.0909	0.	-1168.4
14939	2.576	3.0909	5.e-002	-1.4912e-006
14940	2.576	2.8182	0.	-1119.4
14941	2.484	2.9091	0.	-1168.4
14942	2.576	2.9091	5.e-002	1.4912e-006
14943	2.576	2.6364	0.	-1103.7
14944	2.484	2.7273	0.	-1157.7
14945	2.576	2.7273	5.e-002	4.3809e-006
14946	2.576	2.4545	0.	-1077.6
14947	2.484	2.5455	0.	-1136.3
14948	2.576	2.5455	5.e-002	7.1846e-006
14949	2.576	2.2727	0.	-1041.1
14950	2.484	2.3636	0.	-1104.1
14951	2.576	2.3636	5.e-002	1.0324e-005
14952	2.576	2.0909	0.	-994.36
14953	2.484	2.1818	0.	-1061.3
14954	2.576	2.1818	5.e-002	1.025e-005
14955	2.576	1.9091	0.	-937.61
14956	2.484	2.	0.	-1007.9
14957	2.576	2.	5.e-002	2.3521e-005
14958	2.576	1.7273	0.	-871.22
14959	2.484	1.8182	0.	-944.14
14960	2.576	1.8182	5.e-002	2.8994e-005
14961	2.576	1.5455	0.	-795.76
14962	2.484	1.6364	0.	-870.47
14963	2.576	1.6364	5.e-002	5.4384e-005
14964	2.576	1.3636	0.	-712.01
14965	2.484	1.4545	0.	-787.5
14966	2.576	1.4545	5.e-002	1.4953e-005
14967	2.576	1.1818	0.	-620.98
14968	2.484	1.2727	0.	-696.14
14969	2.576	1.2727	5.e-002	4.0087e-005
14970	2.576	1.	0.	-523.95
14971	2.484	1.0909	0.	-597.57
14972	2.576	1.0909	5.e-002	7.6466e-005
14973	2.576	0.81818	0.	-422.38
14974	2.484	0.90909	0.	-493.25
14975	2.576	0.90909	5.e-002	5.0886e-005
14976	2.576	0.63636	0.	-317.88
14977	2.484	0.72727	0.	-384.88
14978	2.576	0.72727	5.e-002	1.2677e-004
14979	2.576	0.45455	0.	-211.8
14980	2.484	0.54545	0.	-274.3
14981	2.576	0.54545	5.e-002	1.6904e-004
14982	2.576	0.27273	0.	-103.42
14983	2.484	0.36364	0.	-162.76
14984	2.576	0.36364	5.e-002	1.5839e-004
14985	2.484	0.18182	0.	-48.343
14986	2.576	0.18182	5.e-002	2.5375e-005
14987	2.576	9.0909e-002	0.	-21.881
14988	2.392	5.7273	0.	-106.4
14989	2.3	5.8182	0.	-46.01
14990	2.392	5.8182	5.e-002	-5.3221e-005
14991	2.392	5.9091	0.	-19.64
14992	2.392	5.5455	0.	-224.99
14993	2.3	5.6364	0.	-171.12
14994	2.392	5.6364	5.e-002	-1.6925e-004
14995	2.392	5.3636	0.	-341.1
14996	2.3	5.4545	0.	-293.32
14997	2.392	5.4545	5.e-002	-1.3918e-004
14998	2.392	5.1818	0.	-455.58
14999	2.3	5.2727	0.	-414.64
15000	2.392	5.2727	5.e-002	-1.261e-004
15001	2.392	5.	0.	-566.73
15002	2.3	5.0909	0.	-533.48
15003	2.392	5.0909	5.e-002	-8.9032e-005
15004	2.392	4.8182	0.	-672.64
15005	2.3	4.9091	0.	-647.58
15006	2.392	4.9091	5.e-002	-4.283e-005
15007	2.392	4.6364	0.	-771.61
15008	2.3	4.7273	0.	-754.95
15009	2.392	4.7273	5.e-002	-1.3917e-004
15010	2.392	4.4545	0.	-862.24
15011	2.3	4.5455	0.	-853.94
15012	2.392	4.5455	5.e-002	-6.3843e-005
15013	2.392	4.2727	0.	-943.47
15014	2.3	4.3636	0.	-943.29
15015	2.392	4.3636	5.e-002	-3.5923e-005
15016	2.392	4.0909	0.	-1014.5
15017	2.3	4.1818	0.	-1022.1
15018	2.392	4.1818	5.e-002	-1.6966e-005
15019	2.392	3.9091	0.	-1075.
15020	2.3	4.	0.	-1089.9
15021	2.392	4.	5.e-002	-3.9479e-005
15022	2.392	3.7273	0.	-1124.5
15023	2.3	3.8182	0.	-1146.4
15024	2.392	3.8182	5.e-002	-1.0423e-005
15025	2.392	3.5455	0.	-1163.
15026	2.3	3.6364	0.	-1191.4
15027	2.392	3.6364	5.e-002	-9.4273e-006
15028	2.392	3.3636	0.	-1190.5
15029	2.3	3.4545	0.	-1225.1
15030	2.392	3.4545	5.e-002	-2.7023e-005
15031	2.392	3.1818	0.	-1207.
15032	2.3	3.2727	0.	-1247.5
15033	2.392	3.2727	5.e-002	-4.1942e-006
15034	2.392	3.	0.	-1212.5
15035	2.3	3.0909	0.	-1258.7
15036	2.392	3.0909	5.e-002	-1.5888e-006
15037	2.392	2.8182	0.	-1207.
15038	2.3	2.9091	0.	-1258.7
15039	2.392	2.9091	5.e-002	1.3832e-006
15040	2.392	2.6364	0.	-1190.5
15041	2.3	2.7273	0.	-1247.5
15042	2.392	2.7273	5.e-002	4.4272e-006
15043	2.392	2.4545	0.	-1163.
15044	2.3	2.5455	0.	-1225.1
15045	2.392	2.5455	5.e-002	7.2733e-006
15046	2.392	2.2727	0.	-1124.5
15047	2.3	2.3636	0.	-1191.4
15048	2.392	2.3636	5.e-002	1.0475e-005
15049	2.392	2.0909	0.	-1075.
15050	2.3	2.1818	0.	-1146.4
15051	2.392	2.1818	5.e-002	1.3028e-005
15052	2.392	1.9091	0.	-1014.5
15053	2.3	2.	0.	-1089.9
15054	2.392	2.	5.e-002	2.4306e-005
15055	2.392	1.7273	0.	-943.47
15056	2.3	1.8182	0.	-1022.1
15057	2.392	1.8182	5.e-002	6.3298e-005
15058	2.392	1.5455	0.	-862.24
15059	2.3	1.6364	0.	-943.29
15060	2.392	1.6364	5.e-002	3.5923e-005
15061	2.392	1.3636	0.	-771.61
15062	2.3	1.4545	0.	-853.94
15063	2.392	1.4545	5.e-002	6.7621e-005
15064	2.392	1.1818	0.	-672.64
15065	2.3	1.2727	0.	-754.95
15066	2.392	1.2727	5.e-002	7.34e-005
15067	2.392	1.	0.	-566.73
15068	2.3	1.0909	0.	-647.58
15069	2.392	1.0909	5.e-002	8.5659e-005
15070	2.392	0.81818	0.	-455.58
15071	2.3	0.90909	0.	-533.48
15072	2.392	0.90909	5.e-002	8.1705e-005
15073	2.392	0.63636	0.	-341.1
15074	2.3	0.72727	0.	-414.64
15075	2.392	0.72727	5.e-002	1.3669e-004
15076	2.392	0.45455	0.	-224.99
15077	2.3	0.54545	0.	-293.32
15078	2.392	0.54545	5.e-002	1.3918e-004
15079	2.392	0.27273	0.	-106.4
15080	2.3	0.36364	0.	-171.12
15081	2.392	0.36364	5.e-002	8.4623e-005
15082	2.3	0.18182	0.	-46.01
15083	2.392	0.18182	5.e-002	2.9761e-005
15084	2.392	9.0909e-002	0.	-19.64
15085	2.208	5.7273	0.	-108.99
15086	2.116	5.8182	0.	-42.76
15087	2.208	5.8182	5.e-002	-4.2327e-005
15088	2.208	5.9091	0.	-16.612
15089	2.208	5.5455	0.	-239.14
15090	2.116	5.6364	0.	-179.85
15091	2.208	5.6364	5.e-002	-1.386e-004
15092	2.208	5.3636	0.	-366.63
15093	2.116	5.4545	0.	-314.22
15094	2.208	5.4545	5.e-002	-1.499e-004
15095	2.208	5.1818	0.	-492.36
15096	2.116	5.2727	0.	-447.78
15097	2.208	5.2727	5.e-002	-1.367e-004
15098	2.208	5.	0.	-614.19
15099	2.116	5.0909	0.	-578.41
15100	2.208	5.0909	5.e-002	-1.6892e-004
15101	2.208	4.8182	0.	-729.82
15102	2.116	4.9091	0.	-703.33
15103	2.208	4.9091	5.e-002	-7.3918e-006
15104	2.208	4.6364	0.	-837.28
15105	2.116	4.7273	0.	-820.18
15106	2.208	4.7273	5.e-002	-8.1681e-005
15107	2.208	4.4545	0.	-935.04
15108	2.116	4.5455	0.	-927.13
15109	2.208	4.5455	5.e-002	-9.9102e-005
15110	2.208	4.2727	0.	-1022.1
15111	2.116	4.3636	0.	-1022.9
15112	2.208	4.3636	5.e-002	-5.9826e-005
15113	2.208	4.0909	0.	-1097.7
15114	2.116	4.1818	0.	-1106.7
15115	2.208	4.1818	5.e-002	-7.6617e-005
15116	2.208	3.9091	0.	-1161.5
15117	2.116	4.	0.	-1178.2
15118	2.208	4.	5.e-002	-2.4857e-005
15119	2.208	3.7273	0.	-1213.5
15120	2.116	3.8182	0.	-1237.3
15121	2.208	3.8182	5.e-002	-1.0521e-005
15122	2.208	3.5455	0.	-1253.8
15123	2.116	3.6364	0.	-1284.2
15124	2.208	3.6364	5.e-002	-1.5619e-005
15125	2.208	3.3636	0.	-1282.4
15126	2.116	3.4545	0.	-1319.1
15127	2.208	3.4545	5.e-002	-9.109e-006
15128	2.208	3.1818	0.	-1299.5
15129	2.116	3.2727	0.	-1342.2
15130	2.208	3.2727	5.e-002	-4.1966e-006
15131	2.208	3.	0.	-1305.2
15132	2.116	3.0909	0.	-1353.8
15133	2.208	3.0909	5.e-002	-1.5681e-006
15134	2.208	2.8182	0.	-1299.5
15135	2.116	2.9091	0.	-1353.8
15136	2.208	2.9091	5.e-002	1.3823e-006
15137	2.208	2.6364	0.	-1282.4
15138	2.116	2.7273	0.	-1342.2
15139	2.208	2.7273	5.e-002	4.1966e-006
15140	2.208	2.4545	0.	-1253.8
15141	2.116	2.5455	0.	-1319.1
15142	2.208	2.5455	5.e-002	6.5268e-006
15143	2.208	2.2727	0.	-1213.5
15144	2.116	2.3636	0.	-1284.2
15145	2.208	2.3636	5.e-002	9.4845e-006
15146	2.208	2.0909	0.	-1161.5
15147	2.116	2.1818	0.	-1237.3
15148	2.208	2.1818	5.e-002	2.735e-005
15149	2.208	1.9091	0.	-1097.7
15150	2.116	2.	0.	-1178.2
15151	2.208	2.	5.e-002	1.2327e-005
15152	2.208	1.7273	0.	-1022.1
15153	2.116	1.8182	0.	-1106.7
15154	2.208	1.8182	5.e-002	1.3756e-005
15155	2.208	1.5455	0.	-935.05
15156	2.116	1.6364	0.	-1022.9
15157	2.208	1.6364	5.e-002	5.9826e-005
15158	2.208	1.3636	0.	-837.28
15159	2.116	1.4545	0.	-927.13
15160	2.208	1.4545	5.e-002	4.3171e-005
15161	2.208	1.1818	0.	-729.82
15162	2.116	1.2727	0.	-820.18
15163	2.208	1.2727	5.e-002	1.1112e-004
15164	2.208	1.	0.	-614.19
15165	2.116	1.0909	0.	-703.33
15166	2.208	1.0909	5.e-002	1.6708e-004
15167	2.208	0.81818	0.	-492.36
15168	2.116	0.90909	0.	-578.41
15169	2.208	0.90909	5.e-002	4.9276e-005
15170	2.208	0.63636	0.	-366.63
15171	2.116	0.72727	0.	-447.78
15172	2.208	0.72727	5.e-002	5.2204e-005
15173	2.208	0.45455	0.	-239.14
15174	2.116	0.54545	0.	-314.22
15175	2.208	0.54545	5.e-002	1.4362e-004
15176	2.208	0.27273	0.	-108.99
15177	2.116	0.36364	0.	-179.85
15178	2.208	0.36364	5.e-002	1.8434e-004
15179	2.116	0.18182	0.	-42.76
15180	2.208	0.18182	5.e-002	2.8951e-005
15181	2.208	9.0909e-002	0.	-16.612
15182	2.024	5.7273	0.	-111.18
15183	1.932	5.8182	0.	-38.583
15184	2.024	5.8182	5.e-002	-6.7286e-005
15185	2.024	5.9091	0.	-12.697
15186	2.024	5.5455	0.	-254.58
15187	1.932	5.6364	0.	-189.16
15188	2.024	5.6364	5.e-002	-1.5655e-004
15189	2.024	5.3636	0.	-395.11
15190	1.932	5.4545	0.	-337.62
15191	2.024	5.4545	5.e-002	-1.5478e-004
15192	2.024	5.1818	0.	-533.64
15193	1.932	5.2727	0.	-485.29
15194	2.024	5.2727	5.e-002	-1.4871e-004
15195	2.024	5.	0.	-667.42
15196	1.932	5.0909	0.	-629.28
15197	2.024	5.0909	5.e-002	-9.0812e-005
15198	2.024	4.8182	0.	-793.64
15199	1.932	4.9091	0.	-766.14
15200	2.024	4.9091	5.e-002	-1.4643e-004
15201	2.024	4.6364	0.	-910.06
15202	1.932	4.7273	0.	-893.1
15203	2.024	4.7273	5.e-002	-8.2035e-005
15204	2.024	4.4545	0.	-1015.1
15205	1.932	4.5455	0.	-1008.2
15206	2.024	4.5455	5.e-002	-1.3315e-004
15207	2.024	4.2727	0.	-1107.7
15208	1.932	4.3636	0.	-1110.1
15209	2.024	4.3636	5.e-002	-3.8337e-005
15210	2.024	4.0909	0.	-1187.4
15211	1.932	4.1818	0.	-1198.4
15212	2.024	4.1818	5.e-002	-4.947e-005
15213	2.024	3.9091	0.	-1254.2
15214	1.932	4.	0.	-1273.
15215	2.024	4.	5.e-002	-3.131e-005
15216	2.024	3.7273	0.	-1308.3
15217	1.932	3.8182	0.	-1334.2
15218	2.024	3.8182	5.e-002	-2.0287e-005
15219	2.024	3.5455	0.	-1349.8
15220	1.932	3.6364	0.	-1382.4
15221	2.024	3.6364	5.e-002	-1.4495e-005
15222	2.024	3.3636	0.	-1379.2
15223	1.932	3.4545	0.	-1418.
15224	2.024	3.4545	5.e-002	-9.4012e-006
15225	2.024	3.1818	0.	-1396.8
15226	1.932	3.2727	0.	-1441.5
15227	2.024	3.2727	5.e-002	-3.9224e-006
15228	2.024	3.	0.	-1402.6
15229	1.932	3.0909	0.	-1453.2
15230	2.024	3.0909	5.e-002	-1.4094e-006
15231	2.024	2.8182	0.	-1396.8
15232	1.932	2.9091	0.	-1453.2
15233	2.024	2.9091	5.e-002	1.4673e-006
15234	2.024	2.6364	0.	-1379.2
15235	1.932	2.7273	0.	-1441.5
15236	2.024	2.7273	5.e-002	4.3838e-006
15237	2.024	2.4545	0.	-1349.8
15238	1.932	2.5455	0.	-1418.
15239	2.024	2.5455	5.e-002	8.6391e-006
15240	2.024	2.2727	0.	-1308.3
15241	1.932	2.3636	0.	-1382.4
15242	2.024	2.3636	5.e-002	8.4017e-006
15243	2.024	2.0909	0.	-1254.2
15244	1.932	2.1818	0.	-1334.2
15245	2.024	2.1818	5.e-002	1.185e-005
15246	2.024	1.9091	0.	-1187.4
15247	1.932	2.	0.	-1273.
15248	2.024	2.	5.e-002	1.2395e-005
15249	2.024	1.7273	0.	-1107.7
15250	1.932	1.8182	0.	-1198.4
15251	2.024	1.8182	5.e-002	3.167e-005
15252	2.024	1.5455	0.	-1015.1
15253	1.932	1.6364	0.	-1110.1
15254	2.024	1.6364	5.e-002	8.5314e-005
15255	2.024	1.3636	0.	-910.06
15256	1.932	1.4545	0.	-1008.2
15257	2.024	1.4545	5.e-002	1.525e-005
15258	2.024	1.1818	0.	-793.64
15259	1.932	1.2727	0.	-893.1
15260	2.024	1.2727	5.e-002	8.2035e-005
15261	2.024	1.	0.	-667.42
15262	1.932	1.0909	0.	-766.14
15263	2.024	1.0909	5.e-002	4.078e-005
15264	2.024	0.81818	0.	-533.64
15265	1.932	0.90909	0.	-629.28
15266	2.024	0.90909	5.e-002	1.4954e-004
15267	2.024	0.63636	0.	-395.11
15268	1.932	0.72727	0.	-485.29
15269	2.024	0.72727	5.e-002	9.8142e-005
15270	2.024	0.45455	0.	-254.58
15271	1.932	0.54545	0.	-337.62
15272	2.024	0.54545	5.e-002	1.0318e-004
15273	2.024	0.27273	0.	-111.18
15274	1.932	0.36364	0.	-189.16
15275	2.024	0.36364	5.e-002	2.068e-004
15276	1.932	0.18182	0.	-38.583
15277	2.024	0.18182	5.e-002	3.6941e-005
15278	2.024	9.0909e-002	0.	-12.698
15279	1.84	5.7273	0.	-112.99
15280	1.748	5.8182	0.	-33.597
15281	1.84	5.8182	5.e-002	-4.9838e-005
15282	1.84	5.9091	0.	-7.9289
15283	1.84	5.5455	0.	-271.79
15284	1.748	5.6364	0.	-199.38
15285	1.84	5.6364	5.e-002	-2.1689e-004
15286	1.84	5.3636	0.	-427.5
15287	1.748	5.4545	0.	-364.44
15288	1.84	5.4545	5.e-002	-1.697e-004
15289	1.84	5.1818	0.	-580.72
15290	1.748	5.2727	0.	-528.58
15291	1.84	5.2727	5.e-002	-1.5717e-004
15292	1.84	5.	0.	-727.9
15293	1.748	5.0909	0.	-687.8
15294	1.84	5.0909	5.e-002	-1.0619e-004
15295	1.84	4.8182	0.	-865.6
15296	1.748	4.9091	0.	-837.78
15297	1.84	4.9091	5.e-002	-1.0046e-004
15298	1.84	4.6364	0.	-991.29
15299	1.748	4.7273	0.	-975.3
15300	1.84	4.7273	5.e-002	-1.5196e-004
15301	1.84	4.4545	0.	-1103.4
15302	1.748	4.5455	0.	-1098.3
15303	1.84	4.5455	5.e-002	-8.4186e-005
15304	1.84	4.2727	0.	-1201.1
15305	1.748	4.3636	0.	-1205.9
15306	1.84	4.3636	5.e-002	-6.3085e-005
15307	1.84	4.0909	0.	-1284.3
15308	1.748	4.1818	0.	-1297.9
15309	1.84	4.1818	5.e-002	-4.9842e-005
15310	1.84	3.9091	0.	-1353.3
15311	1.748	4.	0.	-1374.7
15312	1.84	4.	5.e-002	-4.0744e-005
15313	1.84	3.7273	0.	-1408.7
15314	1.748	3.8182	0.	-1437.1
15315	1.84	3.8182	5.e-002	-1.0446e-005
15316	1.84	3.5455	0.	-1450.9
15317	1.748	3.6364	0.	-1485.7
15318	1.84	3.6364	5.e-002	-2.3355e-005
15319	1.84	3.3636	0.	-1480.7
15320	1.748	3.4545	0.	-1521.5
15321	1.84	3.4545	5.e-002	-9.9203e-006
15322	1.84	3.1818	0.	-1498.3
15323	1.748	3.2727	0.	-1545.
15324	1.84	3.2727	5.e-002	-4.0608e-006
15325	1.84	3.	0.	-1504.2
15326	1.748	3.0909	0.	-1556.6
15327	1.84	3.0909	5.e-002	-1.3756e-006
15328	1.84	2.8182	0.	-1498.3
15329	1.748	2.9091	0.	-1556.6
15330	1.84	2.9091	5.e-002	1.3945e-006
15331	1.84	2.6364	0.	-1480.7
15332	1.748	2.7273	0.	-1545.
15333	1.84	2.7273	5.e-002	3.8352e-006
15334	1.84	2.4545	0.	-1450.9
15335	1.748	2.5455	0.	-1521.5
15336	1.84	2.5455	5.e-002	9.1725e-006
15337	1.84	2.2727	0.	-1408.7
15338	1.748	2.3636	0.	-1485.7
15339	1.84	2.3636	5.e-002	9.3187e-006
15340	1.84	2.0909	0.	-1353.3
15341	1.748	2.1818	0.	-1437.1
15342	1.84	2.1818	5.e-002	1.1752e-005
15343	1.84	1.9091	0.	-1284.3
15344	1.748	2.	0.	-1374.7
15345	1.84	2.	5.e-002	2.501e-005
15346	1.84	1.7273	0.	-1201.1
15347	1.748	1.8182	0.	-1297.9
15348	1.84	1.8182	5.e-002	4.9842e-005
15349	1.84	1.5455	0.	-1103.4
15350	1.748	1.6364	0.	-1205.9
15351	1.84	1.6364	5.e-002	3.5272e-005
15352	1.84	1.3636	0.	-991.29
15353	1.748	1.4545	0.	-1098.3
15354	1.84	1.4545	5.e-002	4.5927e-005
15355	1.84	1.1818	0.	-865.6
15356	1.748	1.2727	0.	-975.3
15357	1.84	1.2727	5.e-002	1.0415e-005
15358	1.84	1.	0.	-727.9
15359	1.748	1.0909	0.	-837.78
15360	1.84	1.0909	5.e-002	9.3536e-005
15361	1.84	0.81818	0.	-580.72
15362	1.748	0.90909	0.	-687.8
15363	1.84	0.90909	5.e-002	1.0921e-004
15364	1.84	0.63636	0.	-427.5
15365	1.748	0.72727	0.	-528.58
15366	1.84	0.72727	5.e-002	1.5717e-004
15367	1.84	0.45455	0.	-271.79
15368	1.748	0.54545	0.	-364.44
15369	1.84	0.54545	5.e-002	1.1465e-004
15370	1.84	0.27273	0.	-112.99
15371	1.748	0.36364	0.	-199.38
15372	1.84	0.36364	5.e-002	1.6747e-004
15373	1.748	0.18182	0.	-33.597
15374	1.84	0.18182	5.e-002	5.6629e-005
15375	1.84	9.0909e-002	0.	-7.929
15376	1.656	5.7273	0.	-114.52
15377	1.564	5.8182	0.	-28.18
15378	1.656	5.8182	5.e-002	-7.4462e-005
15379	1.656	5.9091	0.	-3.2203
15380	1.656	5.5455	0.	-291.55
15381	1.564	5.6364	0.	-211.09
15382	1.656	5.6364	5.e-002	-1.1549e-004
15383	1.656	5.3636	0.	-465.2
15384	1.564	5.4545	0.	-396.14
15385	1.656	5.4545	5.e-002	-2.3189e-004
15386	1.656	5.1818	0.	-635.46
15387	1.564	5.2727	0.	-579.76
15388	1.656	5.2727	5.e-002	-1.1582e-004
15389	1.656	5.	0.	-797.62
15390	1.564	5.0909	0.	-756.38
15391	1.656	5.0909	5.e-002	-2.0462e-004
15392	1.656	4.8182	0.	-947.55
15393	1.564	4.9091	0.	-920.58
15394	1.656	4.9091	5.e-002	-1.4982e-004
15395	1.656	4.6364	0.	-1082.5
15396	1.564	4.7273	0.	-1068.7
15397	1.656	4.7273	5.e-002	-4.6075e-005
15398	1.656	4.4545	0.	-1201.1
15399	1.564	4.5455	0.	-1199.1
15400	1.656	4.5455	5.e-002	-1.4086e-004
15401	1.656	4.2727	0.	-1303.
15402	1.564	4.3636	0.	-1311.1
15403	1.656	4.3636	5.e-002	-6.3367e-005
15404	1.656	4.0909	0.	-1388.6
15405	1.564	4.1818	0.	-1405.5
15406	1.656	4.1818	5.e-002	-3.5052e-005
15407	1.656	3.9091	0.	-1458.8
15408	1.564	4.	0.	-1483.2
15409	1.656	4.	5.e-002	-1.2228e-005
15410	1.656	3.7273	0.	-1514.5
15411	1.564	3.8182	0.	-1545.6
15412	1.656	3.8182	5.e-002	-1.1528e-005
15413	1.656	3.5455	0.	-1556.6
15414	1.564	3.6364	0.	-1593.8
15415	1.656	3.6364	5.e-002	-1.8308e-005
15416	1.656	3.3636	0.	-1586.1
15417	1.564	3.4545	0.	-1629.
15418	1.656	3.4545	5.e-002	-9.5296e-006
15419	1.656	3.1818	0.	-1603.6
15420	1.564	3.2727	0.	-1651.9
15421	1.656	3.2727	5.e-002	-4.5073e-006
15422	1.656	3.	0.	-1609.4
15423	1.564	3.0909	0.	-1663.3
15424	1.656	3.0909	5.e-002	-1.2888e-006
15425	1.656	2.8182	0.	-1603.6
15426	1.564	2.9091	0.	-1663.3
15427	1.656	2.9091	5.e-002	1.307e-006
15428	1.656	2.6364	0.	-1586.1
15429	1.564	2.7273	0.	-1651.9
15430	1.656	2.7273	5.e-002	4.1368e-006
15431	1.656	2.4545	0.	-1556.6
15432	1.564	2.5455	0.	-1629.
15433	1.656	2.5455	5.e-002	5.7947e-006
15434	1.656	2.2727	0.	-1514.5
15435	1.564	2.3636	0.	-1593.8
15436	1.656	2.3636	5.e-002	8.0684e-006
15437	1.656	2.0909	0.	-1458.8
15438	1.564	2.1818	0.	-1545.6
15439	1.656	2.1818	5.e-002	1.1528e-005
15440	1.656	1.9091	0.	-1388.6
15441	1.564	2.	0.	-1483.2
15442	1.656	2.	5.e-002	2.449e-005
15443	1.656	1.7273	0.	-1303.
15444	1.564	1.8182	0.	-1405.5
15445	1.656	1.8182	5.e-002	4.932e-005
15446	1.656	1.5455	0.	-1201.1
15447	1.564	1.6364	0.	-1311.1
15448	1.656	1.6364	5.e-002	1.493e-005
15449	1.656	1.3636	0.	-1082.5
15450	1.564	1.4545	0.	-1199.1
15451	1.656	1.4545	5.e-002	1.5252e-005
15452	1.656	1.1818	0.	-947.55
15453	1.564	1.2727	0.	-1068.7
15454	1.656	1.2727	5.e-002	8.4802e-005
15455	1.656	1.	0.	-797.62
15456	1.564	1.0909	0.	-920.58
15457	1.656	1.0909	5.e-002	6.5446e-005
15458	1.656	0.81818	0.	-635.46
15459	1.564	0.90909	0.	-756.38
15460	1.656	0.90909	5.e-002	5.6205e-006
15461	1.656	0.63636	0.	-465.2
15462	1.564	0.72727	0.	-579.76
15463	1.656	0.72727	5.e-002	2.2134e-004
15464	1.656	0.45455	0.	-291.55
15465	1.564	0.54545	0.	-396.14
15466	1.656	0.54545	5.e-002	1.1594e-004
15467	1.656	0.27273	0.	-114.52
15468	1.564	0.36364	0.	-211.09
15469	1.656	0.36364	5.e-002	1.7323e-004
15470	1.564	0.18182	0.	-28.18
15471	1.656	0.18182	5.e-002	5.5847e-005
15472	1.656	9.0909e-002	0.	-3.2204
15473	1.472	5.7273	0.	-116.03
15474	1.38	5.8182	0.	-22.995
15475	1.472	5.8182	5.e-002	-8.5996e-005
15476	1.472	5.9091	0.	-0.94362
15477	1.472	5.5455	0.	-315.12
15478	1.38	5.6364	0.	-225.26
15479	1.472	5.6364	5.e-002	-2.4265e-004
15480	1.472	5.3636	0.	-510.37
15481	1.38	5.4545	0.	-434.93
15482	1.472	5.4545	5.e-002	-1.22e-004
15483	1.472	5.1818	0.	-700.53
15484	1.38	5.2727	0.	-641.92
15485	1.472	5.2727	5.e-002	-1.8005e-004
15486	1.472	5.	0.	-879.35
15487	1.38	5.0909	0.	-838.31
15488	1.472	5.0909	5.e-002	-1.6627e-004
15489	1.472	4.8182	0.	-1041.9
15490	1.38	4.9091	0.	-1017.4
15491	1.472	4.9091	5.e-002	-1.4512e-004
15492	1.472	4.6364	0.	-1185.6
15493	1.38	4.7273	0.	-1175.6
15494	1.472	4.7273	5.e-002	-4.6897e-005
15495	1.472	4.4545	0.	-1309.4
15496	1.38	4.5455	0.	-1311.8
15497	1.472	4.5455	5.e-002	-1.0592e-004
15498	1.472	4.2727	0.	-1414.
15499	1.38	4.3636	0.	-1426.5
15500	1.472	4.3636	5.e-002	-6.2395e-005
15501	1.472	4.0909	0.	-1500.5
15502	1.38	4.1818	0.	-1521.3
15503	1.472	4.1818	5.e-002	-6.9743e-005
15504	1.472	3.9091	0.	-1570.4
15505	1.38	4.	0.	-1598.2
15506	1.472	4.	5.e-002	-6.1976e-005
15507	1.472	3.7273	0.	-1625.2
15508	1.38	3.8182	0.	-1659.1
15509	1.472	3.8182	5.e-002	-1.7257e-005
15510	1.472	3.5455	0.	-1666.4
15511	1.38	3.6364	0.	-1705.8
15512	1.472	3.6364	5.e-002	-1.7185e-005
15513	1.472	3.3636	0.	-1695.
15514	1.38	3.4545	0.	-1739.5
15515	1.472	3.4545	5.e-002	-2.3391e-005
15516	1.472	3.1818	0.	-1711.9
15517	1.38	3.2727	0.	-1761.4
15518	1.472	3.2727	5.e-002	-1.9328e-005
15519	1.472	3.	0.	-1717.4
15520	1.38	3.0909	0.	-1772.2
15521	1.472	3.0909	5.e-002	-1.3323e-006
15522	1.472	2.8182	0.	-1711.9
15523	1.38	2.9091	0.	-1772.2
15524	1.472	2.9091	5.e-002	1.0926e-006
15525	1.472	2.6364	0.	-1695.
15526	1.38	2.7273	0.	-1761.4
15527	1.472	2.7273	5.e-002	3.5222e-006
15528	1.472	2.4545	0.	-1666.4
15529	1.38	2.5455	0.	-1739.5
15530	1.472	2.5455	5.e-002	6.2272e-006
15531	1.472	2.2727	0.	-1625.2
15532	1.38	2.3636	0.	-1705.8
15533	1.472	2.3636	5.e-002	7.7522e-006
15534	1.472	2.0909	0.	-1570.4
15535	1.38	2.1818	0.	-1659.1
15536	1.472	2.1818	5.e-002	1.7257e-005
15537	1.472	1.9091	0.	-1500.5
15538	1.38	2.	0.	-1598.2
15539	1.472	2.	5.e-002	2.4325e-005
15540	1.472	1.7273	0.	-1414.
15541	1.38	1.8182	0.	-1521.3
15542	1.472	1.8182	5.e-002	1.0265e-005
15543	1.472	1.5455	0.	-1309.4
15544	1.38	1.6364	0.	-1426.5
15545	1.472	1.6364	5.e-002	6.2395e-005
15546	1.472	1.3636	0.	-1185.6
15547	1.38	1.4545	0.	-1311.8
15548	1.472	1.4545	5.e-002	1.5251e-005
15549	1.472	1.1818	0.	-1041.9
15550	1.38	1.2727	0.	-1175.6
15551	1.472	1.2727	5.e-002	1.0108e-004
15552	1.472	1.	0.	-879.35
15553	1.38	1.0909	0.	-1017.4
15554	1.472	1.0909	5.e-002	6.6377e-005
15555	1.472	0.81818	0.	-700.53
15556	1.38	0.90909	0.	-838.31
15557	1.472	0.90909	5.e-002	1.7036e-004
15558	1.472	0.63636	0.	-510.37
15559	1.38	0.72727	0.	-641.92
15560	1.472	0.72727	5.e-002	2.3083e-004
15561	1.472	0.45455	0.	-315.12
15562	1.38	0.54545	0.	-434.93
15563	1.472	0.54545	5.e-002	1.8202e-004
15564	1.472	0.27273	0.	-116.03
15565	1.38	0.36364	0.	-225.26
15566	1.472	0.36364	5.e-002	1.8242e-004
15567	1.38	0.18182	0.	-22.995
15568	1.472	0.18182	5.e-002	6.4497e-005
15569	1.472	9.0909e-002	0.	-0.94364
15570	1.288	5.7273	0.	-117.91
15571	1.196	5.8182	0.	-18.969
15572	1.288	5.8182	5.e-002	-1.0326e-004
15573	1.288	5.9091	0.	-0.15917
15574	1.288	5.5455	0.	-344.42
15575	1.196	5.6364	0.	-243.81
15576	1.288	5.6364	5.e-002	-1.2183e-004
15577	1.288	5.3636	0.	-566.16
15578	1.196	5.4545	0.	-484.75
15579	1.288	5.4545	5.e-002	-2.4486e-004
15580	1.288	5.1818	0.	-779.63
15581	1.196	5.2727	0.	-720.03
15582	1.288	5.2727	5.e-002	-1.8061e-004
15583	1.288	5.	0.	-976.54
15584	1.196	5.0909	0.	-938.44
15585	1.288	5.0909	5.e-002	-1.6604e-004
15586	1.288	4.8182	0.	-1151.4
15587	1.196	4.9091	0.	-1132.2
15588	1.288	4.9091	5.e-002	-2.1475e-004
15589	1.288	4.6364	0.	-1302.2
15590	1.196	4.7273	0.	-1298.6
15591	1.288	4.7273	5.e-002	-8.4668e-005
15592	1.288	4.4545	0.	-1429.2
15593	1.196	4.5455	0.	-1437.9
15594	1.288	4.5455	5.e-002	-1.3821e-004
15595	1.288	4.2727	0.	-1534.2
15596	1.196	4.3636	0.	-1552.4
15597	1.288	4.3636	5.e-002	-9.2114e-005
15598	1.288	4.0909	0.	-1619.4
15599	1.196	4.1818	0.	-1645.2
15600	1.288	4.1818	5.e-002	-9.9234e-005
15601	1.288	3.9091	0.	-1687.3
15602	1.196	4.	0.	-1719.2
15603	1.288	4.	5.e-002	-1.1529e-005
15604	1.288	3.7273	0.	-1740.
15605	1.196	3.8182	0.	-1777.1
15606	1.288	3.8182	5.e-002	-1.7236e-005
15607	1.288	3.5455	0.	-1779.1
15608	1.196	3.6364	0.	-1820.9
15609	1.288	3.6364	5.e-002	-7.3369e-006
15610	1.288	3.3636	0.	-1806.2
15611	1.196	3.4545	0.	-1852.4
15612	1.288	3.4545	5.e-002	-7.0421e-006
15613	1.288	3.1818	0.	-1822.
15614	1.196	3.2727	0.	-1872.8
15615	1.288	3.2727	5.e-002	-1.8847e-005
15616	1.288	3.	0.	-1827.2
15617	1.196	3.0909	0.	-1882.8
15618	1.288	3.0909	5.e-002	-1.6328e-005
15619	1.288	2.8182	0.	-1822.
15620	1.196	2.9091	0.	-1882.8
15621	1.288	2.9091	5.e-002	1.0329e-006
15622	1.288	2.6364	0.	-1806.2
15623	1.196	2.7273	0.	-1872.8
15624	1.288	2.7273	5.e-002	3.1084e-006
15625	1.288	2.4545	0.	-1779.1
15626	1.196	2.5455	0.	-1852.4
15627	1.288	2.5455	5.e-002	4.8833e-006
15628	1.288	2.2727	0.	-1740.
15629	1.196	2.3636	0.	-1820.9
15630	1.288	2.3636	5.e-002	6.4197e-006
15631	1.288	2.0909	0.	-1687.3
15632	1.196	2.1818	0.	-1777.1
15633	1.288	2.1818	5.e-002	1.6053e-005
15634	1.288	1.9091	0.	-1619.4
15635	1.196	2.	0.	-1719.2
15636	1.288	2.	5.e-002	2.2056e-005
15637	1.288	1.7273	0.	-1534.2
15638	1.196	1.8182	0.	-1645.2
15639	1.288	1.8182	5.e-002	1.3371e-005
15640	1.288	1.5455	0.	-1429.2
15641	1.196	1.6364	0.	-1552.4
15642	1.288	1.6364	5.e-002	3.7324e-005
15643	1.288	1.3636	0.	-1302.2
15644	1.196	1.4545	0.	-1437.9
15645	1.288	1.4545	5.e-002	4.2182e-005
15646	1.288	1.1818	0.	-1151.4
15647	1.196	1.2727	0.	-1298.6
15648	1.288	1.2727	5.e-002	1.2627e-004
15649	1.288	1.	0.	-976.54
15650	1.196	1.0909	0.	-1132.2
15651	1.288	1.0909	5.e-002	6.3856e-005
15652	1.288	0.81818	0.	-779.63
15653	1.196	0.90909	0.	-938.44
15654	1.288	0.90909	5.e-002	1.7434e-004
15655	1.288	0.63636	0.	-566.16
15656	1.196	0.72727	0.	-720.03
15657	1.288	0.72727	5.e-002	2.4818e-006
15658	1.288	0.45455	0.	-344.42
15659	1.196	0.54545	0.	-484.75
15660	1.288	0.54545	5.e-002	1.8293e-004
15661	1.288	0.27273	0.	-117.91
15662	1.196	0.36364	0.	-243.81
15663	1.288	0.36364	5.e-002	1.2183e-004
15664	1.196	0.18182	0.	-18.969
15665	1.288	0.18182	5.e-002	1.0326e-004
15666	1.288	9.0909e-002	0.	-0.15918
15667	1.104	5.7273	0.	-121.47
15668	1.012	5.8182	0.	-15.882
15669	1.104	5.8182	5.e-002	-9.7562e-005
15670	1.104	5.9091	0.	6.5194e-003
15671	1.104	5.5455	0.	-383.39
15672	1.012	5.6364	0.	-269.51
15673	1.104	5.6364	5.e-002	-1.1951e-004
15674	1.104	5.3636	0.	-638.36
15675	1.012	5.4545	0.	-551.13
15676	1.104	5.4545	5.e-002	-2.415e-004
15677	1.104	5.1818	0.	-878.95
15678	1.012	5.2727	0.	-820.41
15679	1.104	5.2727	5.e-002	-2.43e-004
15680	1.104	5.	0.	-1094.5
15681	1.012	5.0909	0.	-1061.9
15682	1.104	5.0909	5.e-002	-1.8057e-004
15683	1.104	4.8182	0.	-1279.9
15684	1.012	4.9091	0.	-1268.
15685	1.104	4.9091	5.e-002	-1.7263e-004
15686	1.104	4.6364	0.	-1434.7
15687	1.012	4.7273	0.	-1438.4
15688	1.104	4.7273	5.e-002	-1.8908e-004
15689	1.104	4.4545	0.	-1561.6
15690	1.012	4.5455	0.	-1576.6
15691	1.104	4.5455	5.e-002	-1.3881e-004
15692	1.104	4.2727	0.	-1663.9
15693	1.012	4.3636	0.	-1687.3
15694	1.104	4.3636	5.e-002	-3.8649e-005
15695	1.104	4.0909	0.	-1745.4
15696	1.012	4.1818	0.	-1775.
15697	1.104	4.1818	5.e-002	-3.8682e-005
15698	1.104	3.9091	0.	-1809.3
15699	1.012	4.	0.	-1843.8
15700	1.104	4.	5.e-002	-1.0925e-005
15701	1.104	3.7273	0.	-1858.3
15702	1.012	3.8182	0.	-1896.9
15703	1.104	3.8182	5.e-002	-8.8736e-006
15704	1.104	3.5455	0.	-1894.5
15705	1.012	3.6364	0.	-1936.8
15706	1.104	3.6364	5.e-002	-1.0045e-005
15707	1.104	3.3636	0.	-1919.3
15708	1.012	3.4545	0.	-1965.3
15709	1.104	3.4545	5.e-002	-2.3772e-005
15710	1.104	3.1818	0.	-1933.7
15711	1.012	3.2727	0.	-1983.6
15712	1.104	3.2727	5.e-002	-1.8175e-005
15713	1.104	3.	0.	-1938.5
15714	1.012	3.0909	0.	-1992.6
15715	1.104	3.0909	5.e-002	-8.7702e-007
15716	1.104	2.8182	0.	-1933.7
15717	1.012	2.9091	0.	-1992.6
15718	1.104	2.9091	5.e-002	8.7701e-007
15719	1.104	2.6364	0.	-1919.3
15720	1.012	2.7273	0.	-1983.6
15721	1.104	2.7273	5.e-002	2.8671e-006
15722	1.104	2.4545	0.	-1894.5
15723	1.012	2.5455	0.	-1965.3
15724	1.104	2.5455	5.e-002	4.2171e-006
15725	1.104	2.2727	0.	-1858.3
15726	1.012	2.3636	0.	-1936.8
15727	1.104	2.3636	5.e-002	5.1176e-006
15728	1.104	2.0909	0.	-1809.3
15729	1.012	2.1818	0.	-1896.9
15730	1.104	2.1818	5.e-002	1.3455e-005
15731	1.104	1.9091	0.	-1745.4
15732	1.012	2.	0.	-1843.8
15733	1.104	2.	5.e-002	2.0137e-005
15734	1.104	1.7273	0.	-1663.9
15735	1.012	1.8182	0.	-1775.
15736	1.104	1.8182	5.e-002	1.2858e-005
15737	1.104	1.5455	0.	-1561.6
15738	1.012	1.6364	0.	-1687.3
15739	1.104	1.6364	5.e-002	5.565e-005
15740	1.104	1.3636	0.	-1434.7
15741	1.012	1.4545	0.	-1576.6
15742	1.104	1.4545	5.e-002	4.0313e-005
15743	1.104	1.1818	0.	-1279.9
15744	1.012	1.2727	0.	-1438.4
15745	1.104	1.2727	5.e-002	1.4728e-005
15746	1.104	1.	0.	-1094.5
15747	1.012	1.0909	0.	-1268.
15748	1.104	1.0909	5.e-002	1.5697e-004
15749	1.104	0.81818	0.	-878.95
15750	1.012	0.90909	0.	-1061.9
15751	1.104	0.90909	5.e-002	1.3005e-004
15752	1.104	0.63636	0.	-638.36
15753	1.012	0.72727	0.	-820.41
15754	1.104	0.72727	5.e-002	1.2401e-004
15755	1.104	0.45455	0.	-383.39
15756	1.012	0.54545	0.	-551.13
15757	1.104	0.54545	5.e-002	1.2075e-004
15758	1.104	0.27273	0.	-121.47
15759	1.012	0.36364	0.	-269.51
15760	1.104	0.36364	5.e-002	1.1721e-004
15761	1.012	0.18182	0.	-15.882
15762	1.104	0.18182	5.e-002	1.204e-004
15763	1.104	9.0909e-002	0.	6.5175e-003
15764	0.92	5.7273	0.	-127.59
15765	0.828	5.8182	0.	-16.376
15766	0.92	5.8182	5.e-002	-1.7154e-004
15767	0.92	5.9091	0.	1.0315
15768	0.92	5.5455	0.	-436.46
15769	0.828	5.6364	0.	-311.39
15770	0.92	5.6364	5.e-002	-2.0997e-004
15771	0.92	5.3636	0.	-733.16
15772	0.828	5.4545	0.	-648.37
15773	0.92	5.4545	5.e-002	-2.3785e-004
15774	0.92	5.1818	0.	-1003.8
15775	0.828	5.2727	0.	-957.35
15776	0.92	5.2727	5.e-002	-1.8335e-004
15777	0.92	5.	0.	-1236.1
15778	0.828	5.0909	0.	-1219.7
15779	0.92	5.0909	5.e-002	-2.3761e-004
15780	0.92	4.8182	0.	-1427.2
15781	0.828	4.9091	0.	-1432.
15782	0.92	4.9091	5.e-002	-1.6015e-004
15783	0.92	4.6364	0.	-1580.9
15784	0.828	4.7273	0.	-1599.8
15785	0.92	4.7273	5.e-002	-1.2133e-004
15786	0.92	4.4545	0.	-1702.8
15787	0.828	4.5455	0.	-1731.
15788	0.92	4.5455	5.e-002	-5.8548e-005
15789	0.92	4.2727	0.	-1798.7
15790	0.828	4.3636	0.	-1833.3
15791	0.92	4.3636	5.e-002	-3.1839e-005
15792	0.92	4.0909	0.	-1873.7
15793	0.828	4.1818	0.	-1912.9
15794	0.92	4.1818	5.e-002	-6.0162e-005
15795	0.92	3.9091	0.	-1931.6
15796	0.828	4.	0.	-1974.4
15797	0.92	4.	5.e-002	-1.6634e-005
15798	0.92	3.7273	0.	-1975.6
15799	0.828	3.8182	0.	-2021.4
15800	0.92	3.8182	5.e-002	-2.6987e-005
15801	0.92	3.5455	0.	-2007.9
15802	0.828	3.6364	0.	-2056.5
15803	0.92	3.6364	5.e-002	-3.6535e-005
15804	0.92	3.3636	0.	-2029.9
15805	0.828	3.4545	0.	-2081.4
15806	0.92	3.4545	5.e-002	-4.8598e-006
15807	0.92	3.1818	0.	-2042.7
15808	0.828	3.2727	0.	-2097.4
15809	0.92	3.2727	5.e-002	-2.6478e-006
15810	0.92	3.	0.	-2046.9
15811	0.828	3.0909	0.	-2105.2
15812	0.92	3.0909	5.e-002	-7.0197e-007
15813	0.92	2.8182	0.	-2042.7
15814	0.828	2.9091	0.	-2105.2
15815	0.92	2.9091	5.e-002	6.6146e-007
15816	0.92	2.6364	0.	-2029.9
15817	0.828	2.7273	0.	-2097.4
15818	0.92	2.7273	5.e-002	2.0364e-006
15819	0.92	2.4545	0.	-2007.9
15820	0.828	2.5455	0.	-2081.4
15821	0.92	2.5455	5.e-002	3.8429e-006
15822	0.92	2.2727	0.	-1975.6
15823	0.828	2.3636	0.	-2056.5
15824	0.92	2.3636	5.e-002	1.9273e-005
15825	0.92	2.0909	0.	-1931.6
15826	0.828	2.1818	0.	-2021.4
15827	0.92	2.1818	5.e-002	6.128e-006
15828	0.92	1.9091	0.	-1873.7
15829	0.828	2.	0.	-1974.4
15830	0.92	2.	5.e-002	1.6634e-005
15831	0.92	1.7273	0.	-1798.7
15832	0.828	1.8182	0.	-1912.9
15833	0.92	1.8182	5.e-002	1.2132e-005
15834	0.92	1.5455	0.	-1702.8
15835	0.828	1.6364	0.	-1833.3
15836	0.92	1.6364	5.e-002	4.6301e-005
15837	0.92	1.3636	0.	-1580.9
15838	0.828	1.4545	0.	-1731.
15839	0.92	1.4545	5.e-002	3.7208e-005
15840	0.92	1.1818	0.	-1427.2
15841	0.828	1.2727	0.	-1599.8
15842	0.92	1.2727	5.e-002	6.4675e-005
15843	0.92	1.	0.	-1236.1
15844	0.828	1.0909	0.	-1432.
15845	0.92	1.0909	5.e-002	1.1636e-004
15846	0.92	0.81818	0.	-1003.8
15847	0.828	0.90909	0.	-1219.7
15848	0.92	0.90909	5.e-002	2.3043e-004
15849	0.92	0.63636	0.	-733.16
15850	0.828	0.72727	0.	-957.35
15851	0.92	0.72727	5.e-002	1.2261e-004
15852	0.92	0.45455	0.	-436.46
15853	0.828	0.54545	0.	-648.37
15854	0.92	0.54545	5.e-002	1.1378e-004
15855	0.92	0.27273	0.	-127.59
15856	0.828	0.36364	0.	-311.39
15857	0.92	0.36364	5.e-002	1.1328e-004
15858	0.828	0.18182	0.	-16.376
15859	0.92	0.18182	5.e-002	1.0029e-004
15860	0.92	9.0909e-002	0.	1.0315
15861	0.736	5.7273	0.	-145.75
15862	0.644	5.8182	0.	-9.8282
15863	0.736	5.8182	5.e-002	-2.2418e-004
15864	0.736	5.9091	0.	-1.4194
15865	0.736	5.5455	0.	-522.64
15866	0.644	5.6364	0.	-375.46
15867	0.736	5.6364	5.e-002	-2.1059e-004
15868	0.736	5.3636	0.	-873.09
15869	0.644	5.4545	0.	-784.06
15870	0.736	5.4545	5.e-002	-2.2939e-004
15871	0.736	5.1818	0.	-1174.2
15872	0.644	5.2727	0.	-1130.9
15873	0.736	5.2727	5.e-002	-1.8709e-004
15874	0.736	5.	0.	-1416.6
15875	0.644	5.0909	0.	-1402.4
15876	0.736	5.0909	5.e-002	-1.7329e-004
15877	0.736	4.8182	0.	-1605.3
15878	0.644	4.9091	0.	-1608.1
15879	0.736	4.9091	5.e-002	-1.8882e-004
15880	0.736	4.6364	0.	-1750.4
15881	0.644	4.7273	0.	-1763.
15882	0.736	4.7273	5.e-002	-1.2313e-004
15883	0.736	4.4545	0.	-1861.9
15884	0.644	4.5455	0.	-1880.1
15885	0.736	4.5455	5.e-002	-1.1034e-004
15886	0.736	4.2727	0.	-1947.7
15887	0.644	4.3636	0.	-1969.4
15888	0.736	4.3636	5.e-002	-6.8089e-005
15889	0.736	4.0909	0.	-2013.7
15890	0.644	4.1818	0.	-2037.9
15891	0.736	4.1818	5.e-002	-4.6383e-005
15892	0.736	3.9091	0.	-2064.2
15893	0.644	4.	0.	-2090.4
15894	0.736	4.	5.e-002	-4.1589e-005
15895	0.736	3.7273	0.	-2102.3
15896	0.644	3.8182	0.	-2130.3
15897	0.736	3.8182	5.e-002	-3.8776e-005
15898	0.736	3.5455	0.	-2130.1
15899	0.644	3.6364	0.	-2160.
15900	0.736	3.6364	5.e-002	-3.6079e-005
15901	0.736	3.3636	0.	-2149.
15902	0.644	3.4545	0.	-2181.
15903	0.736	3.4545	5.e-002	-3.6911e-006
15904	0.736	3.1818	0.	-2160.
15905	0.644	3.2727	0.	-2194.5
15906	0.736	3.2727	5.e-002	-3.1929e-005
15907	0.736	3.	0.	-2163.6
15908	0.644	3.0909	0.	-2201.1
15909	0.736	3.0909	5.e-002	-5.1979e-007
15910	0.736	2.8182	0.	-2160.
15911	0.644	2.9091	0.	-2201.1
15912	0.736	2.9091	5.e-002	4.6351e-007
15913	0.736	2.6364	0.	-2149.
15914	0.644	2.7273	0.	-2194.5
15915	0.736	2.7273	5.e-002	1.5152e-006
15916	0.736	2.4545	0.	-2130.1
15917	0.644	2.5455	0.	-2181.
15918	0.736	2.5455	5.e-002	2.6791e-006
15919	0.736	2.2727	0.	-2102.3
15920	0.644	2.3636	0.	-2160.
15921	0.736	2.3636	5.e-002	3.4724e-006
15922	0.736	2.0909	0.	-2064.2
15923	0.644	2.1818	0.	-2130.3
15924	0.736	2.1818	5.e-002	4.5674e-006
15925	0.736	1.9091	0.	-2013.7
15926	0.644	2.	0.	-2090.4
15927	0.736	2.	5.e-002	4.0444e-005
15928	0.736	1.7273	0.	-1947.7
15929	0.644	1.8182	0.	-2037.9
15930	0.736	1.8182	5.e-002	5.1778e-005
15931	0.736	1.5455	0.	-1861.9
15932	0.644	1.6364	0.	-1969.4
15933	0.736	1.6364	5.e-002	3.5471e-005
15934	0.736	1.3636	0.	-1750.4
15935	0.644	1.4545	0.	-1880.1
15936	0.736	1.4545	5.e-002	1.2023e-004
15937	0.736	1.1818	0.	-1605.3
15938	0.644	1.2727	0.	-1763.
15939	0.736	1.2727	5.e-002	7.3324e-005
15940	0.736	1.	0.	-1416.6
15941	0.644	1.0909	0.	-1608.1
15942	0.736	1.0909	5.e-002	1.8882e-004
15943	0.736	0.81818	0.	-1174.2
15944	0.644	0.90909	0.	-1402.4
15945	0.736	0.90909	5.e-002	1.7151e-004
15946	0.736	0.63636	0.	-873.09
15947	0.644	0.72727	0.	-1130.9
15948	0.736	0.72727	5.e-002	1.2543e-004
15949	0.736	0.45455	0.	-522.64
15950	0.644	0.54545	0.	-784.06
15951	0.736	0.54545	5.e-002	1.1598e-004
15952	0.736	0.27273	0.	-145.75
15953	0.644	0.36364	0.	-375.46
15954	0.736	0.36364	5.e-002	2.0009e-004
15955	0.644	0.18182	0.	-9.8282
15956	0.736	0.18182	5.e-002	2.2402e-004
15957	0.736	9.0909e-002	0.	-1.4194
15958	0.552	5.7273	0.	-169.09
15959	0.46	5.8182	0.	-41.434
15960	0.552	5.8182	5.e-002	-2.4055e-004
15961	0.552	5.9091	0.	9.0498
15962	0.552	5.5455	0.	-637.17
15963	0.46	5.6364	0.	-536.41
15964	0.552	5.6364	5.e-002	-1.7369e-004
15965	0.552	5.3636	0.	-1043.5
15966	0.46	5.4545	0.	-1040.
15967	0.552	5.4545	5.e-002	-2.3495e-004
15968	0.552	5.1818	0.	-1360.6
15969	0.46	5.2727	0.	-1408.9
15970	0.552	5.2727	5.e-002	-2.4628e-004
15971	0.552	5.	0.	-1594.8
15972	0.46	5.0909	0.	-1668.7
15973	0.552	5.0909	5.e-002	-2.2169e-004
15974	0.552	4.8182	0.	-1766.1
15975	0.46	4.9091	0.	-1852.6
15976	0.552	4.9091	5.e-002	-1.7666e-004
15977	0.552	4.6364	0.	-1892.7
15978	0.46	4.7273	0.	-1985.8
15979	0.552	4.7273	5.e-002	-1.1251e-004
15980	0.552	4.4545	0.	-1987.5
15981	0.46	4.5455	0.	-2084.5
15982	0.552	4.5455	5.e-002	-7.608e-005
15983	0.552	4.2727	0.	-2059.5
15984	0.46	4.3636	0.	-2159.1
15985	0.552	4.3636	5.e-002	-2.1882e-005
15986	0.552	4.0909	0.	-2114.5
15987	0.46	4.1818	0.	-2216.
15988	0.552	4.1818	5.e-002	-1.633e-005
15989	0.552	3.9091	0.	-2156.4
15990	0.46	4.	0.	-2259.7
15991	0.552	4.	5.e-002	-1.2047e-005
15992	0.552	3.7273	0.	-2188.
15993	0.46	3.8182	0.	-2292.9
15994	0.552	3.8182	5.e-002	-3.5274e-005
15995	0.552	3.5455	0.	-2211.
15996	0.46	3.6364	0.	-2317.6
15997	0.552	3.6364	5.e-002	-3.11e-006
15998	0.552	3.3636	0.	-2226.6
15999	0.46	3.4545	0.	-2335.1
16000	0.552	3.4545	5.e-002	-3.2884e-005
16001	0.552	3.1818	0.	-2235.7
16002	0.46	3.2727	0.	-2346.3
16003	0.552	3.2727	5.e-002	-1.5083e-006
16004	0.552	3.	0.	-2238.7
16005	0.46	3.0909	0.	-2351.8
16006	0.552	3.0909	5.e-002	-3.4224e-007
16007	0.552	2.8182	0.	-2235.7
16008	0.46	2.9091	0.	-2351.8
16009	0.552	2.9091	5.e-002	3.3154e-007
16010	0.552	2.6364	0.	-2226.6
16011	0.46	2.7273	0.	-2346.3
16012	0.552	2.7273	5.e-002	9.6873e-007
16013	0.552	2.4545	0.	-2211.
16014	0.46	2.5455	0.	-2335.1
16015	0.552	2.5455	5.e-002	2.5524e-006
16016	0.552	2.2727	0.	-2188.
16017	0.46	2.3636	0.	-2317.6
16018	0.552	2.3636	5.e-002	4.1563e-006
16019	0.552	2.0909	0.	-2156.4
16020	0.46	2.1818	0.	-2292.9
16021	0.552	2.1818	5.e-002	6.2358e-006
16022	0.552	1.9091	0.	-2114.5
16023	0.46	2.	0.	-2259.7
16024	0.552	2.	5.e-002	3.2221e-005
16025	0.552	1.7273	0.	-2059.5
16026	0.46	1.8182	0.	-2216.
16027	0.552	1.8182	5.e-002	2.1362e-005
16028	0.552	1.5455	0.	-1987.5
16029	0.46	1.6364	0.	-2159.1
16030	0.552	1.6364	5.e-002	5.6088e-005
16031	0.552	1.3636	0.	-1892.7
16032	0.46	1.4545	0.	-2084.5
16033	0.552	1.4545	5.e-002	5.8949e-005
16034	0.552	1.1818	0.	-1766.1
16035	0.46	1.2727	0.	-1985.8
16036	0.552	1.2727	5.e-002	4.9251e-005
16037	0.552	1.	0.	-1594.8
16038	0.46	1.0909	0.	-1852.6
16039	0.552	1.0909	5.e-002	1.3035e-004
16040	0.552	0.81818	0.	-1360.6
16041	0.46	0.90909	0.	-1668.7
16042	0.552	0.90909	5.e-002	2.1552e-004
16043	0.552	0.63636	0.	-1043.5
16044	0.46	0.72727	0.	-1408.9
16045	0.552	0.72727	5.e-002	1.2415e-004
16046	0.552	0.45455	0.	-637.17
16047	0.46	0.54545	0.	-1040.
16048	0.552	0.54545	5.e-002	1.741e-004
16049	0.552	0.27273	0.	-169.09
16050	0.46	0.36364	0.	-536.42
16051	0.552	0.36364	5.e-002	1.8713e-004
16052	0.46	0.18182	0.	-41.434
16053	0.552	0.18182	5.e-002	1.7675e-004
16054	0.552	9.0909e-002	0.	9.0498
16055	0.368	5.7273	0.	-306.28
16056	0.276	5.8182	0.	-2.8004
16057	0.368	5.8182	5.e-002	-1.7497e-004
16058	0.368	5.9091	0.	-23.608
16059	0.368	5.5455	0.	-942.13
16060	0.276	5.6364	0.	-742.97
16061	0.368	5.6364	5.e-002	-2.0723e-004
16062	0.368	5.3636	0.	-1408.3
16063	0.276	5.4545	0.	-1244.5
16064	0.368	5.4545	5.e-002	-1.8477e-004
16065	0.368	5.1818	0.	-1717.9
16066	0.276	5.2727	0.	-1555.1
16067	0.368	5.2727	5.e-002	-1.7946e-004
16068	0.368	5.	0.	-1926.2
16069	0.276	5.0909	0.	-1756.
16070	0.368	5.0909	5.e-002	-1.116e-004
16071	0.368	4.8182	0.	-2071.6
16072	0.276	4.9091	0.	-1894.
16073	0.368	4.9091	5.e-002	-7.9734e-005
16074	0.368	4.6364	0.	-2177.
16075	0.276	4.7273	0.	-1993.3
16076	0.368	4.7273	5.e-002	-9.6922e-005
16077	0.368	4.4545	0.	-2255.6
16078	0.276	4.5455	0.	-2067.2
16079	0.368	4.5455	5.e-002	-4.4634e-005
16080	0.368	4.2727	0.	-2315.3
16081	0.276	4.3636	0.	-2123.4
16082	0.368	4.3636	5.e-002	-2.7594e-005
16083	0.368	4.0909	0.	-2361.
16084	0.276	4.1818	0.	-2166.5
16085	0.368	4.1818	5.e-002	-3.7951e-005
16086	0.368	3.9091	0.	-2396.
16087	0.276	4.	0.	-2199.8
16088	0.368	4.	5.e-002	-3.9164e-005
16089	0.368	3.7273	0.	-2422.4
16090	0.276	3.8182	0.	-2225.2
16091	0.368	3.8182	5.e-002	-3.5892e-005
16092	0.368	3.5455	0.	-2441.7
16093	0.276	3.6364	0.	-2244.2
16094	0.368	3.6364	5.e-002	-3.9286e-006
16095	0.368	3.3636	0.	-2454.8
16096	0.276	3.4545	0.	-2257.7
16097	0.368	3.4545	5.e-002	-3.1301e-005
16098	0.368	3.1818	0.	-2462.5
16099	0.276	3.2727	0.	-2266.4
16100	0.368	3.2727	5.e-002	-7.3636e-007
16101	0.368	3.	0.	-2465.
16102	0.276	3.0909	0.	-2270.6
16103	0.368	3.0909	5.e-002	-1.6884e-007
16104	0.368	2.8182	0.	-2462.5
16105	0.276	2.9091	0.	-2270.6
16106	0.368	2.9091	5.e-002	1.4126e-007
16107	0.368	2.6364	0.	-2454.8
16108	0.276	2.7273	0.	-2266.4
16109	0.368	2.7273	5.e-002	4.5915e-007
16110	0.368	2.4545	0.	-2441.7
16111	0.276	2.5455	0.	-2257.7
16112	0.368	2.5455	5.e-002	8.6254e-007
16113	0.368	2.2727	0.	-2422.4
16114	0.276	2.3636	0.	-2244.2
16115	0.368	2.3636	5.e-002	3.2147e-005
16116	0.368	2.0909	0.	-2396.
16117	0.276	2.1818	0.	-2225.2
16118	0.368	2.1818	5.e-002	3.1881e-005
16119	0.368	1.9091	0.	-2361.
16120	0.276	2.	0.	-2199.8
16121	0.368	2.	5.e-002	3.4501e-005
16122	0.368	1.7273	0.	-2315.3
16123	0.276	1.8182	0.	-2166.5
16124	0.368	1.8182	5.e-002	8.257e-006
16125	0.368	1.5455	0.	-2255.6
16126	0.276	1.6364	0.	-2123.4
16127	0.368	1.6364	5.e-002	4.6155e-005
16128	0.368	1.3636	0.	-2177.
16129	0.276	1.4545	0.	-2067.2
16130	0.368	1.4545	5.e-002	3.2402e-005
16131	0.368	1.1818	0.	-2071.6
16132	0.276	1.2727	0.	-1993.3
16133	0.368	1.2727	5.e-002	6.8341e-005
16134	0.368	1.	0.	-1926.2
16135	0.276	1.0909	0.	-1894.
16136	0.368	1.0909	5.e-002	1.3123e-004
16137	0.368	0.81818	0.	-1717.9
16138	0.276	0.90909	0.	-1756.
16139	0.368	0.90909	5.e-002	1.309e-004
16140	0.368	0.63636	0.	-1408.3
16141	0.276	0.72727	0.	-1555.1
16142	0.368	0.72727	5.e-002	7.5995e-005
16143	0.368	0.45455	0.	-942.13
16144	0.276	0.54545	0.	-1244.5
16145	0.368	0.54545	5.e-002	2.4574e-004
16146	0.368	0.27273	0.	-306.28
16147	0.276	0.36364	0.	-742.98
16148	0.368	0.36364	5.e-002	1.9446e-004
16149	0.276	0.18182	0.	-2.8005
16150	0.368	0.18182	5.e-002	1.7362e-004
16151	0.368	9.0909e-002	0.	-23.608
16152	0.184	5.7273	0.	-411.79
16153	0.184	5.8182	5.e-002	-1.6388e-004
16154	0.184	5.9091	0.	88.455
16155	9.2e-002	5.8182	0.	-571.44
16156	0.184	5.5455	0.	-1044.9
16157	0.184	5.6364	5.e-002	-2.3297e-004
16158	9.2e-002	5.6364	0.	-1564.3
16159	0.184	5.3636	0.	-1384.
16160	0.184	5.4545	5.e-002	-2.4431e-004
16161	9.2e-002	5.4545	0.	-2040.9
16162	0.184	5.1818	0.	-1586.5
16163	0.184	5.2727	5.e-002	-1.2416e-004
16164	9.2e-002	5.2727	0.	-2319.5
16165	0.184	5.	0.	-1719.2
16166	0.184	5.0909	5.e-002	-9.181e-005
16167	9.2e-002	5.0909	0.	-2501.8
16168	0.184	4.8182	0.	-1812.8
16169	0.184	4.9091	5.e-002	-1.0444e-004
16170	9.2e-002	4.9091	0.	-2630.6
16171	0.184	4.6364	0.	-1881.7
16172	0.184	4.7273	5.e-002	-3.834e-005
16173	9.2e-002	4.7273	0.	-2725.4
16174	0.184	4.4545	0.	-1933.8
16175	0.184	4.5455	5.e-002	-8.1203e-005
16176	9.2e-002	4.5455	0.	-2797.1
16177	0.184	4.2727	0.	-1973.9
16178	0.184	4.3636	5.e-002	-5.7481e-005
16179	9.2e-002	4.3636	0.	-2852.2
16180	0.184	4.0909	0.	-2004.9
16181	0.184	4.1818	5.e-002	-4.333e-005
16182	9.2e-002	4.1818	0.	-2895.
16183	0.184	3.9091	0.	-2028.7
16184	0.184	4.	5.e-002	-5.3616e-005
16185	9.2e-002	4.	0.	-2928.1
16186	0.184	3.7273	0.	-2046.9
16187	0.184	3.8182	5.e-002	-6.8534e-006
16188	9.2e-002	3.8182	0.	-2953.5
16189	0.184	3.5455	0.	-2060.1
16190	0.184	3.6364	5.e-002	-1.5844e-005
16191	9.2e-002	3.6364	0.	-2972.5
16192	0.184	3.3636	0.	-2069.2
16193	0.184	3.4545	5.e-002	-3.2214e-005
16194	9.2e-002	3.4545	0.	-2986.1
16195	0.184	3.1818	0.	-2074.5
16196	0.184	3.2727	5.e-002	-5.1503e-007
16197	9.2e-002	3.2727	0.	-2994.8
16198	0.184	3.	0.	-2076.2
16199	0.184	3.0909	5.e-002	-4.5813e-005
16200	9.2e-002	3.0909	0.	-2999.1
16201	0.184	2.8182	0.	-2074.5
16202	0.184	2.9091	5.e-002	-3.0455e-005
16203	9.2e-002	2.9091	0.	-2999.1
16204	0.184	2.6364	0.	-2069.2
16205	0.184	2.7273	5.e-002	1.566e-007
16206	9.2e-002	2.7273	0.	-2994.8
16207	0.184	2.4545	0.	-2060.1
16208	0.184	2.5455	5.e-002	1.0611e-006
16209	9.2e-002	2.5455	0.	-2986.1
16210	0.184	2.2727	0.	-2046.9
16211	0.184	2.3636	5.e-002	1.9432e-006
16212	9.2e-002	2.3636	0.	-2972.5
16213	0.184	2.0909	0.	-2028.7
16214	0.184	2.1818	5.e-002	1.5383e-005
16215	9.2e-002	2.1818	0.	-2953.5
16216	0.184	1.9091	0.	-2004.9
16217	0.184	2.	5.e-002	3.3937e-005
16218	9.2e-002	2.	0.	-2928.1
16219	0.184	1.7273	0.	-1973.9
16220	0.184	1.8182	5.e-002	2.1947e-005
16221	9.2e-002	1.8182	0.	-2895.
16222	0.184	1.5455	0.	-1933.8
16223	0.184	1.6364	5.e-002	3.7357e-005
16224	9.2e-002	1.6364	0.	-2852.2
16225	0.184	1.3636	0.	-1881.7
16226	0.184	1.4545	5.e-002	4.1647e-005
16227	9.2e-002	1.4545	0.	-2797.1
16228	0.184	1.1818	0.	-1812.8
16229	0.184	1.2727	5.e-002	8.8921e-005
16230	9.2e-002	1.2727	0.	-2725.4
16231	0.184	1.	0.	-1719.2
16232	0.184	1.0909	5.e-002	8.9235e-005
16233	9.2e-002	1.0909	0.	-2630.6
16234	0.184	0.81818	0.	-1586.5
16235	0.184	0.90909	5.e-002	7.6588e-005
16236	9.2e-002	0.90909	0.	-2501.8
16237	0.184	0.63636	0.	-1384.
16238	0.184	0.72727	5.e-002	1.494e-004
16239	9.2e-002	0.72727	0.	-2319.5
16240	0.184	0.45455	0.	-1044.9
16241	0.184	0.54545	5.e-002	1.3047e-004
16242	9.2e-002	0.54545	0.	-2040.9
16243	0.184	0.27273	0.	-411.79
16244	0.184	0.36364	5.e-002	1.142e-004
16245	9.2e-002	0.36364	0.	-1564.3
16246	0.184	0.18182	5.e-002	1.2246e-004
16247	0.184	9.0909e-002	0.	88.455
16248	9.2e-002	0.18182	0.	-571.44
16249	14.149	0.27273	0.	-9.301
16250	14.24	0.18182	0.	-9.696
16251	14.149	0.18182	5.e-002	3.0198e-006
16252	14.149	9.0909e-002	0.	-7.6863
16253	14.058	0.18182	0.	-0.24443
16254	14.149	0.45455	0.	-5.471
16255	14.24	0.36364	0.	-5.763
16256	14.149	0.36364	5.e-002	4.8242e-006
16257	14.058	0.36364	0.	1.778
16258	14.149	0.63636	0.	-4.5984
16259	14.24	0.54545	0.	-3.8774
16260	14.149	0.54545	5.e-002	3.6389e-006
16261	14.058	0.54545	0.	1.1489
16262	14.149	0.81818	0.	-4.3811
16263	14.24	0.72727	0.	-3.0739
16264	14.149	0.72727	5.e-002	7.5816e-007
16265	14.058	0.72727	0.	1.1397
16266	14.149	1.	0.	-4.9691
16267	14.24	0.90909	0.	-2.8997
16268	14.149	0.90909	5.e-002	1.6505e-006
16269	14.058	0.90909	0.	1.3256
16270	14.149	1.1818	0.	-5.247
16271	14.24	1.0909	0.	-3.3671
16272	14.149	1.0909	5.e-002	7.6294e-006
16273	14.058	1.0909	0.	0.54706
16274	14.149	1.3636	0.	-9.7979
16275	14.24	1.2727	0.	-3.1956
16276	14.149	1.2727	5.e-002	2.3495e-005
16277	14.058	1.2727	0.	3.4766
16278	14.149	1.5455	0.	-5.146
16279	14.24	1.4545	0.	-8.4729
16280	14.149	1.4545	5.e-002	1.3992e-005
16281	14.058	1.4545	0.	-8.6996
16282	14.149	1.7273	0.	-43.239
16283	14.24	1.6364	0.	1.7055
16284	14.149	1.6364	5.e-002	6.0956e-005
16285	14.058	1.6364	0.	38.721
16286	14.149	1.9091	0.	-209.04
16287	14.24	1.8182	0.	-43.692
16288	14.149	1.8182	5.e-002	1.9751e-004
16289	14.058	1.8182	0.	-170.84
16290	14.149	2.0909	0.	-140.14
16291	14.24	2.	0.	-140.07
16292	14.149	2.	5.e-002	9.7743e-005
16293	14.058	2.	0.	-292.78
16294	14.149	2.2727	0.	-10.558
16295	14.24	2.1818	0.	2.3701
16296	14.149	2.1818	5.e-002	1.5753e-005
16297	14.149	2.4545	0.	-3.9827
16298	14.24	2.3636	0.	-8.7426
16299	14.149	2.3636	5.e-002	2.4845e-005
16300	14.149	2.6364	0.	0.5115
16301	14.24	2.5455	0.	1.276
16302	14.149	2.5455	5.e-002	-2.3824e-005
16303	14.149	2.8182	0.	-0.98977
16304	14.24	2.7273	0.	-0.94818
16305	14.149	2.7273	5.e-002	-1.6339e-005
16306	14.149	3.	0.	-0.18033
16307	14.24	2.9091	0.	-9.6981e-002
16308	14.149	2.9091	5.e-002	-1.9975e-005
16309	14.149	3.1818	0.	-0.98977
16310	14.24	3.0909	0.	-9.698e-002
16311	14.149	3.0909	5.e-002	-1.3201e-005
16312	14.149	3.3636	0.	0.5115
16313	14.24	3.2727	0.	-0.94818
16314	14.149	3.2727	5.e-002	-1.4688e-005
16315	14.149	3.5455	0.	-3.9827
16316	14.24	3.4545	0.	1.276
16317	14.149	3.4545	5.e-002	-3.6667e-005
16318	14.149	3.7273	0.	-10.558
16319	14.24	3.6364	0.	-8.7426
16320	14.149	3.6364	5.e-002	-6.1176e-005
16321	14.149	3.9091	0.	-140.14
16322	14.24	3.8182	0.	2.3701
16323	14.149	3.8182	5.e-002	-4.2947e-005
16324	14.149	4.0909	0.	-209.04
16325	14.24	4.	0.	-140.07
16326	14.149	4.	5.e-002	-1.8311e-004
16327	14.058	4.	0.	-292.78
16328	14.149	4.2727	0.	-43.239
16329	14.24	4.1818	0.	-43.692
16330	14.149	4.1818	5.e-002	-2.4838e-004
16331	14.058	4.1818	0.	-170.84
16332	14.149	4.4545	0.	-5.146
16333	14.24	4.3636	0.	1.7055
16334	14.149	4.3636	5.e-002	-9.5275e-005
16335	14.058	4.3636	0.	38.721
16336	14.149	4.6364	0.	-9.7979
16337	14.24	4.5455	0.	-8.4729
16338	14.149	4.5455	5.e-002	-4.305e-005
16339	14.058	4.5455	0.	-8.6996
16340	14.149	4.8182	0.	-5.247
16341	14.24	4.7273	0.	-3.1956
16342	14.149	4.7273	5.e-002	-4.4801e-006
16343	14.058	4.7273	0.	3.4766
16344	14.149	5.	0.	-4.9691
16345	14.24	4.9091	0.	-3.3671
16346	14.149	4.9091	5.e-002	3.8147e-006
16347	14.058	4.9091	0.	0.54706
16348	14.149	5.1818	0.	-4.3811
16349	14.24	5.0909	0.	-2.8997
16350	14.149	5.0909	5.e-002	4.3284e-006
16351	14.058	5.0909	0.	1.3256
16352	14.149	5.3636	0.	-4.5984
16353	14.24	5.2727	0.	-3.0739
16354	14.149	5.2727	5.e-002	3.0565e-006
16355	14.058	5.2727	0.	1.1397
16356	14.149	5.5455	0.	-5.471
16357	14.24	5.4545	0.	-3.8774
16358	14.149	5.4545	5.e-002	6.7861e-006
16359	14.058	5.4545	0.	1.1489
16360	14.149	5.7273	0.	-9.301
16361	14.24	5.6364	0.	-5.763
16362	14.149	5.6364	5.e-002	5.722e-006
16363	14.058	5.6364	0.	1.778
16364	14.24	5.8182	0.	-9.696
16365	14.149	5.8182	5.e-002	4.6096e-006
16366	14.149	5.9091	0.	-7.6863
16367	14.058	5.8182	0.	-0.24442
16368	14.332	0.27273	0.	-4.421
16369	14.423	0.18182	0.	-3.4458
16370	14.332	0.18182	5.e-002	2.246e-006
16371	14.332	9.0909e-002	0.	-0.53112
16372	14.332	0.45455	0.	-2.6991
16373	14.423	0.36364	0.	-3.2988
16374	14.332	0.36364	5.e-002	2.0737e-006
16375	14.332	0.63636	0.	-1.6581
16376	14.423	0.54545	0.	-2.3809
16377	14.332	0.54545	5.e-002	4.5131e-006
16378	14.332	0.81818	0.	-1.1497
16379	14.423	0.72727	0.	-1.7476
16380	14.332	0.72727	5.e-002	7.9196e-006
16381	14.332	1.	0.	-0.95019
16382	14.423	0.90909	0.	-1.5391
16383	14.332	0.90909	5.e-002	1.3179e-005
16384	14.332	1.1818	0.	-1.0161
16385	14.423	1.0909	0.	-1.5668
16386	14.332	1.0909	5.e-002	1.9274e-005
16387	14.332	1.3636	0.	-1.563
16388	14.423	1.2727	0.	-1.8554
16389	14.332	1.2727	5.e-002	3.0402e-005
16390	14.332	1.5455	0.	-1.2948
16391	14.423	1.4545	0.	-2.4577
16392	14.332	1.4545	5.e-002	5.3552e-005
16393	14.332	1.7273	0.	1.7233
16394	14.423	1.6364	0.	-3.8714
16395	14.332	1.6364	5.e-002	9.2249e-005
16396	14.332	1.9091	0.	24.85
16397	14.423	1.8182	0.	-1.3421
16398	14.332	1.8182	5.e-002	1.3396e-004
16399	14.332	2.0909	0.	34.048
16400	14.423	2.	0.	17.989
16401	14.332	2.	5.e-002	5.2864e-006
16402	14.332	2.2727	0.	6.4098
16403	14.423	2.1818	0.	8.0574
16404	14.332	2.1818	5.e-002	-5.401e-006
16405	14.332	2.4545	0.	-3.299
16406	14.423	2.3636	0.	-2.8372
16407	14.332	2.3636	5.e-002	-2.1694e-005
16408	14.332	2.6364	0.	1.2195e-002
16409	14.423	2.5455	0.	-0.31924
16410	14.332	2.5455	5.e-002	-2.4363e-005
16411	14.332	2.8182	0.	2.1976e-002
16412	14.423	2.7273	0.	0.16633
16413	14.332	2.7273	5.e-002	-3.1486e-005
16414	14.332	3.	0.	6.26e-002
16415	14.423	2.9091	0.	0.30597
16416	14.332	2.9091	5.e-002	-1.9179e-005
16417	14.332	3.1818	0.	2.1977e-002
16418	14.423	3.0909	0.	0.30597
16419	14.332	3.0909	5.e-002	-1.1359e-005
16420	14.332	3.3636	0.	1.2197e-002
16421	14.423	3.2727	0.	0.16634
16422	14.332	3.2727	5.e-002	8.6139e-006
16423	14.332	3.5455	0.	-3.299
16424	14.423	3.4545	0.	-0.31923
16425	14.332	3.4545	5.e-002	4.4353e-006
16426	14.332	3.7273	0.	6.4098
16427	14.423	3.6364	0.	-2.8372
16428	14.332	3.6364	5.e-002	1.0461e-005
16429	14.332	3.9091	0.	34.048
16430	14.423	3.8182	0.	8.0574
16431	14.332	3.8182	5.e-002	7.2755e-006
16432	14.332	4.0909	0.	24.85
16433	14.423	4.	0.	17.989
16434	14.332	4.	5.e-002	-5.2254e-005
16435	14.332	4.2727	0.	1.7233
16436	14.423	4.1818	0.	-1.3421
16437	14.332	4.1818	5.e-002	-1.3906e-004
16438	14.332	4.4545	0.	-1.2948
16439	14.423	4.3636	0.	-3.8714
16440	14.332	4.3636	5.e-002	-1.0973e-004
16441	14.332	4.6364	0.	-1.563
16442	14.423	4.5455	0.	-2.4577
16443	14.332	4.5455	5.e-002	-4.5675e-005
16444	14.332	4.8182	0.	-1.0161
16445	14.423	4.7273	0.	-1.8554
16446	14.332	4.7273	5.e-002	-3.358e-005
16447	14.332	5.	0.	-0.95019
16448	14.423	4.9091	0.	-1.5668
16449	14.332	4.9091	5.e-002	-1.3469e-005
16450	14.332	5.1818	0.	-1.1497
16451	14.423	5.0909	0.	-1.5391
16452	14.332	5.0909	5.e-002	-6.8532e-006
16453	14.332	5.3636	0.	-1.6581
16454	14.423	5.2727	0.	-1.7476
16455	14.332	5.2727	5.e-002	-1.7269e-006
16456	14.332	5.5455	0.	-2.6991
16457	14.423	5.4545	0.	-2.3809
16458	14.332	5.4545	5.e-002	3.4918e-007
16459	14.332	5.7273	0.	-4.421
16460	14.423	5.6364	0.	-3.2988
16461	14.332	5.6364	5.e-002	5.018e-006
16462	14.423	5.8182	0.	-3.4458
16463	14.332	5.8182	5.e-002	6.489e-006
16464	14.332	5.9091	0.	-0.53111
16465	14.514	0.27273	0.	-2.6383
16466	14.605	0.18182	0.	-1.5731
16467	14.514	0.18182	5.e-002	2.7861e-006
16468	14.514	9.0909e-002	0.	-0.26491
16469	14.514	0.45455	0.	-2.5155
16470	14.605	0.36364	0.	-2.0009
16471	14.514	0.36364	5.e-002	2.2458e-006
16472	14.514	0.63636	0.	-2.1887
16473	14.605	0.54545	0.	-2.0191
16474	14.514	0.54545	5.e-002	4.9902e-006
16475	14.514	0.81818	0.	-2.0092
16476	14.605	0.72727	0.	-1.8832
16477	14.514	0.72727	5.e-002	1.0516e-005
16478	14.514	1.	0.	-2.099
16479	14.605	0.90909	0.	-1.8662
16480	14.514	0.90909	5.e-002	3.1099e-005
16481	14.514	1.1818	0.	-2.3924
16482	14.605	1.0909	0.	-2.0478
16483	14.514	1.0909	5.e-002	1.8406e-005
16484	14.514	1.3636	0.	-2.7622
16485	14.605	1.2727	0.	-2.3992
16486	14.514	1.2727	5.e-002	4.2317e-005
16487	14.514	1.5455	0.	-5.0491
16488	14.605	1.4545	0.	-2.892
16489	14.514	1.4545	5.e-002	5.7128e-005
16490	14.514	1.7273	0.	-6.4476
16491	14.605	1.6364	0.	-5.0468
16492	14.514	1.6364	5.e-002	1.2537e-004
16493	14.514	1.9091	0.	-8.2152
16494	14.605	1.8182	0.	-5.5769
16495	14.514	1.8182	5.e-002	9.5176e-005
16496	14.514	2.0909	0.	-7.4987
16497	14.605	2.	0.	-11.809
16498	14.514	2.	5.e-002	3.7902e-005
16499	14.514	2.2727	0.	-1.3376
16500	14.605	2.1818	0.	-39.96
16501	14.514	2.1818	5.e-002	1.1815e-006
16502	14.514	2.4545	0.	-0.41395
16503	14.605	2.3636	0.	-32.704
16504	14.514	2.3636	5.e-002	-2.6453e-005
16505	14.514	2.6364	0.	-0.16946
16506	14.605	2.5455	0.	-6.8325
16507	14.514	2.5455	5.e-002	-3.3745e-005
16508	14.514	2.8182	0.	0.53337
16509	14.605	2.7273	0.	-0.14892
16510	14.514	2.7273	5.e-002	-3.0336e-005
16511	14.514	3.	0.	0.63993
16512	14.605	2.9091	0.	0.62552
16513	14.514	2.9091	5.e-002	-1.7573e-005
16514	14.514	3.1818	0.	0.53337
16515	14.605	3.0909	0.	0.62552
16516	14.514	3.0909	5.e-002	4.1254e-007
16517	14.514	3.3636	0.	-0.16945
16518	14.605	3.2727	0.	-0.14891
16519	14.514	3.2727	5.e-002	1.4136e-005
16520	14.514	3.5455	0.	-0.41393
16521	14.605	3.4545	0.	-6.8325
16522	14.514	3.4545	5.e-002	1.8581e-005
16523	14.514	3.7273	0.	-1.3376
16524	14.605	3.6364	0.	-32.704
16525	14.514	3.6364	5.e-002	1.8823e-005
16526	14.514	3.9091	0.	-7.4987
16527	14.605	3.8182	0.	-39.959
16528	14.514	3.8182	5.e-002	3.494e-006
16529	14.514	4.0909	0.	-8.2152
16530	14.605	4.	0.	-11.809
16531	14.514	4.	5.e-002	-3.4173e-005
16532	14.514	4.2727	0.	-6.4476
16533	14.605	4.1818	0.	-5.5769
16534	14.514	4.1818	5.e-002	-7.9473e-005
16535	14.514	4.4545	0.	-5.0491
16536	14.605	4.3636	0.	-5.0468
16537	14.514	4.3636	5.e-002	-9.1354e-005
16538	14.514	4.6364	0.	-2.7622
16539	14.605	4.5455	0.	-2.892
16540	14.514	4.5455	5.e-002	-7.7257e-005
16541	14.514	4.8182	0.	-2.3924
16542	14.605	4.7273	0.	-2.3992
16543	14.514	4.7273	5.e-002	-5.3258e-005
16544	14.514	5.	0.	-2.099
16545	14.605	4.9091	0.	-2.0478
16546	14.514	4.9091	5.e-002	-3.2897e-005
16547	14.514	5.1818	0.	-2.0092
16548	14.605	5.0909	0.	-1.8662
16549	14.514	5.0909	5.e-002	-2.3303e-005
16550	14.514	5.3636	0.	-2.1887
16551	14.605	5.2727	0.	-1.8832
16552	14.514	5.2727	5.e-002	-1.2754e-005
16553	14.514	5.5455	0.	-2.5154
16554	14.605	5.4545	0.	-2.0191
16555	14.514	5.4545	5.e-002	-4.6797e-006
16556	14.514	5.7273	0.	-2.6383
16557	14.605	5.6364	0.	-2.0009
16558	14.514	5.6364	5.e-002	2.2458e-006
16559	14.605	5.8182	0.	-1.5731
16560	14.514	5.8182	5.e-002	3.618e-006
16561	14.514	5.9091	0.	-0.26491
16562	14.696	0.27273	0.	-1.1705
16563	14.788	0.18182	0.	-0.60492
16564	14.696	0.18182	5.e-002	2.8871e-006
16565	14.696	9.0909e-002	0.	6.8337e-002
16566	14.696	0.45455	0.	-1.4896
16567	14.788	0.36364	0.	-1.062
16568	14.696	0.36364	5.e-002	2.9501e-006
16569	14.696	0.63636	0.	-1.6124
16570	14.788	0.54545	0.	-1.3573
16571	14.696	0.54545	5.e-002	5.2458e-006
16572	14.696	0.81818	0.	-1.6745
16573	14.788	0.72727	0.	-1.532
16574	14.696	0.72727	5.e-002	1.0451e-005
16575	14.696	1.	0.	-1.7985
16576	14.788	0.90909	0.	-1.6984
16577	14.696	0.90909	5.e-002	2.3183e-005
16578	14.696	1.1818	0.	-2.083
16579	14.788	1.0909	0.	-1.939
16580	14.696	1.0909	5.e-002	1.6887e-005
16581	14.696	1.3636	0.	-2.6143
16582	14.788	1.2727	0.	-2.3891
16583	14.696	1.2727	5.e-002	3.7606e-005
16584	14.696	1.5455	0.	-3.0875
16585	14.788	1.4545	0.	-3.2748
16586	14.696	1.4545	5.e-002	6.8298e-005
16587	14.696	1.7273	0.	-4.7633
16588	14.788	1.6364	0.	-5.2672
16589	14.696	1.6364	5.e-002	9.4086e-005
16590	14.696	1.9091	0.	-17.866
16591	14.788	1.8182	0.	-22.331
16592	14.696	1.8182	5.e-002	6.2436e-005
16593	14.696	2.0909	0.	-66.135
16594	14.788	2.	0.	-78.099
16595	14.696	2.	5.e-002	2.9514e-005
16596	14.696	2.2727	0.	-87.831
16597	14.788	2.1818	0.	-115.71
16598	14.696	2.1818	5.e-002	4.6068e-006
16599	14.696	2.4545	0.	-77.608
16600	14.788	2.3636	0.	-120.67
16601	14.696	2.3636	5.e-002	-1.3472e-005
16602	14.696	2.6364	0.	-54.478
16603	14.788	2.5455	0.	-105.14
16604	14.696	2.5455	5.e-002	-2.0932e-005
16605	14.696	2.8182	0.	-35.401
16606	14.788	2.7273	0.	-86.529
16607	14.696	2.7273	5.e-002	-2.1719e-005
16608	14.696	3.	0.	-28.316
16609	14.788	2.9091	0.	-75.269
16610	14.696	2.9091	5.e-002	-1.0861e-005
16611	14.696	3.1818	0.	-35.401
16612	14.788	3.0909	0.	-75.269
16613	14.696	3.0909	5.e-002	1.5034e-006
16614	14.696	3.3636	0.	-54.478
16615	14.788	3.2727	0.	-86.529
16616	14.696	3.2727	5.e-002	1.3034e-005
16617	14.696	3.5455	0.	-77.608
16618	14.788	3.4545	0.	-105.14
16619	14.696	3.4545	5.e-002	1.5211e-005
16620	14.696	3.7273	0.	-87.831
16621	14.788	3.6364	0.	-120.67
16622	14.696	3.6364	5.e-002	1.7902e-005
16623	14.696	3.9091	0.	-66.134
16624	14.788	3.8182	0.	-115.71
16625	14.696	3.8182	5.e-002	-2.9538e-008
16626	14.696	4.0909	0.	-17.866
16627	14.788	4.	0.	-78.098
16628	14.696	4.	5.e-002	-2.8582e-005
16629	14.696	4.2727	0.	-4.7633
16630	14.788	4.1818	0.	-22.331
16631	14.696	4.1818	5.e-002	-8.4301e-005
16632	14.696	4.4545	0.	-3.0875
16633	14.788	4.3636	0.	-5.2671
16634	14.696	4.3636	5.e-002	-1.2726e-004
16635	14.696	4.6364	0.	-2.6143
16636	14.788	4.5455	0.	-3.2748
16637	14.696	4.5455	5.e-002	-9.6283e-005
16638	14.696	4.8182	0.	-2.083
16639	14.788	4.7273	0.	-2.3891
16640	14.696	4.7273	5.e-002	-7.6721e-005
16641	14.696	5.	0.	-1.7985
16642	14.788	4.9091	0.	-1.939
16643	14.696	4.9091	5.e-002	-2.5367e-005
16644	14.696	5.1818	0.	-1.6745
16645	14.788	5.0909	0.	-1.6984
16646	14.696	5.0909	5.e-002	-2.3961e-005
16647	14.696	5.3636	0.	-1.6124
16648	14.788	5.2727	0.	-1.532
16649	14.696	5.2727	5.e-002	-1.3191e-005
16650	14.696	5.5455	0.	-1.4895
16651	14.788	5.4545	0.	-1.3573
16652	14.696	5.4545	5.e-002	-3.0601e-006
16653	14.696	5.7273	0.	-1.1705
16654	14.788	5.6364	0.	-1.0619
16655	14.696	5.6364	5.e-002	-2.4464e-006
16656	14.788	5.8182	0.	-0.60491
16657	14.696	5.8182	5.e-002	2.41e-006
16658	14.696	5.9091	0.	6.8336e-002
16659	14.879	0.27273	0.	-0.60432
16660	14.97	0.18182	0.	-0.23069
16661	14.879	0.18182	5.e-002	4.2236e-006
16662	14.879	9.0909e-002	0.	5.1868e-002
16663	14.879	0.45455	0.	-0.97064
16664	14.97	0.36364	0.	-0.64836
16665	14.879	0.36364	5.e-002	5.2377e-006
16666	14.879	0.63636	0.	-1.2611
16667	14.97	0.54545	0.	-0.94648
16668	14.879	0.54545	5.e-002	7.418e-006
16669	14.879	0.81818	0.	-1.5297
16670	14.97	0.72727	0.	-1.2713
16671	14.879	0.72727	5.e-002	2.0274e-005
16672	14.879	1.	0.	-1.8424
16673	14.97	0.90909	0.	-1.6224
16674	14.879	0.90909	5.e-002	2.1696e-005
16675	14.879	1.1818	0.	-2.3171
16676	14.97	1.0909	0.	-2.1251
16677	14.879	1.0909	5.e-002	3.3908e-005
16678	14.879	1.3636	0.	-3.2809
16679	14.97	1.2727	0.	-3.1033
16680	14.879	1.2727	5.e-002	5.4768e-005
16681	14.879	1.5455	0.	-6.4251
16682	14.97	1.4545	0.	-6.3172
16683	14.879	1.4545	5.e-002	5.4103e-005
16684	14.879	1.7273	0.	-28.601
16685	14.97	1.6364	0.	-27.477
16686	14.879	1.6364	5.e-002	2.5093e-005
16687	14.879	1.9091	0.	-80.975
16688	14.97	1.8182	0.	-76.948
16689	14.879	1.8182	5.e-002	6.2509e-005
16690	14.879	2.0909	0.	-126.16
16691	14.97	2.	0.	-126.61
16692	14.879	2.	5.e-002	-3.1963e-006
16693	14.879	2.2727	0.	-149.19
16694	14.97	2.1818	0.	-160.26
16695	14.879	2.1818	5.e-002	1.5297e-005
16696	14.879	2.4545	0.	-150.81
16697	14.97	2.3636	0.	-172.99
16698	14.879	2.3636	5.e-002	-2.4232e-006
16699	14.879	2.6364	0.	-141.01
16700	14.97	2.5455	0.	-170.44
16701	14.879	2.5455	5.e-002	-9.6996e-006
16702	14.879	2.8182	0.	-130.57
16703	14.97	2.7273	0.	-162.26
16704	14.879	2.7273	5.e-002	-1.0799e-005
16705	14.879	3.	0.	-126.37
16706	14.97	2.9091	0.	-156.25
16707	14.879	2.9091	5.e-002	-4.6565e-006
16708	14.879	3.1818	0.	-130.57
16709	14.97	3.0909	0.	-156.25
16710	14.879	3.0909	5.e-002	4.674e-006
16711	14.879	3.3636	0.	-141.01
16712	14.97	3.2727	0.	-162.26
16713	14.879	3.2727	5.e-002	1.3766e-005
16714	14.879	3.5455	0.	-150.81
16715	14.97	3.4545	0.	-170.44
16716	14.879	3.4545	5.e-002	1.6249e-005
16717	14.879	3.7273	0.	-149.19
16718	14.97	3.6364	0.	-172.99
16719	14.879	3.6364	5.e-002	6.6579e-006
16720	14.879	3.9091	0.	-126.16
16721	14.97	3.8182	0.	-160.26
16722	14.879	3.8182	5.e-002	-8.3478e-006
16723	14.879	4.0909	0.	-80.975
16724	14.97	4.	0.	-126.61
16725	14.879	4.	5.e-002	-1.7153e-005
16726	14.879	4.2727	0.	-28.601
16727	14.97	4.1818	0.	-76.947
16728	14.879	4.1818	5.e-002	-5.9159e-005
16729	14.879	4.4545	0.	-6.4251
16730	14.97	4.3636	0.	-27.477
16731	14.879	4.3636	5.e-002	-8.0268e-005
16732	14.879	4.6364	0.	-3.2809
16733	14.97	4.5455	0.	-6.3171
16734	14.879	4.5455	5.e-002	-7.584e-005
16735	14.879	4.8182	0.	-2.3171
16736	14.97	4.7273	0.	-3.1033
16737	14.879	4.7273	5.e-002	-6.2738e-005
16738	14.879	5.	0.	-1.8424
16739	14.97	4.9091	0.	-2.125
16740	14.879	4.9091	5.e-002	-5.6297e-005
16741	14.879	5.1818	0.	-1.5297
16742	14.97	5.0909	0.	-1.6224
16743	14.879	5.0909	5.e-002	-1.9484e-005
16744	14.879	5.3636	0.	-1.2611
16745	14.97	5.2727	0.	-1.2713
16746	14.879	5.2727	5.e-002	-1.2503e-005
16747	14.879	5.5455	0.	-0.97064
16748	14.97	5.4545	0.	-0.94648
16749	14.879	5.4545	5.e-002	-3.9676e-006
16750	14.879	5.7273	0.	-0.60432
16751	14.97	5.6364	0.	-0.64836
16752	14.879	5.6364	5.e-002	7.3507e-007
16753	14.97	5.8182	0.	-0.23069
16754	14.879	5.8182	5.e-002	2.454e-006
16755	14.879	5.9091	0.	5.1868e-002
16756	15.061	0.27273	0.	-0.32184
16757	15.152	0.18182	0.	-6.6782e-002
16758	15.061	0.18182	5.e-002	4.9263e-006
16759	15.061	9.0909e-002	0.	5.3493e-002
16760	15.061	0.45455	0.	-0.64176
16761	15.152	0.36364	0.	-0.42975
16762	15.061	0.36364	5.e-002	6.1089e-006
16763	15.061	0.63636	0.	-0.95194
16764	15.152	0.54545	0.	-0.6695
16765	15.061	0.54545	5.e-002	1.385e-005
16766	15.061	0.81818	0.	-1.3441
16767	15.152	0.72727	0.	-1.0414
16768	15.061	0.72727	5.e-002	1.2367e-005
16769	15.061	1.	0.	-1.9031
16770	15.152	0.90909	0.	-1.5656
16771	15.061	0.90909	5.e-002	2.7455e-005
16772	15.061	1.1818	0.	-3.0324
16773	15.152	1.0909	0.	-2.6041
16774	15.061	1.0909	5.e-002	3.22e-005
16775	15.061	1.3636	0.	-7.135
16776	15.152	1.2727	0.	-6.2558
16777	15.061	1.2727	5.e-002	5.0361e-005
16778	15.061	1.5455	0.	-29.931
16779	15.152	1.4545	0.	-25.883
16780	15.061	1.4545	5.e-002	6.2201e-005
16781	15.061	1.7273	0.	-73.557
16782	15.152	1.6364	0.	-65.
16783	15.061	1.6364	5.e-002	7.6175e-005
16784	15.061	1.9091	0.	-120.47
16785	15.152	1.8182	0.	-110.44
16786	15.061	1.8182	5.e-002	5.3902e-005
16787	15.061	2.0909	0.	-159.48
16788	15.152	2.	0.	-152.71
16789	15.061	2.	5.e-002	4.926e-005
16790	15.061	2.2727	0.	-183.94
16791	15.152	2.1818	0.	-184.12
16792	15.061	2.1818	5.e-002	2.488e-005
16793	15.061	2.4545	0.	-193.68
16794	15.152	2.3636	0.	-201.66
16795	15.061	2.3636	5.e-002	2.6705e-006
16796	15.061	2.6364	0.	-193.69
16797	15.152	2.5455	0.	-207.64
16798	15.061	2.5455	5.e-002	8.8993e-007
16799	15.061	2.8182	0.	-190.49
16800	15.152	2.7273	0.	-207.35
16801	15.061	2.7273	5.e-002	-1.9093e-006
16802	15.061	3.	0.	-188.86
16803	15.152	2.9091	0.	-205.79
16804	15.061	2.9091	5.e-002	1.4553e-006
16805	15.061	3.1818	0.	-190.49
16806	15.152	3.0909	0.	-205.79
16807	15.061	3.0909	5.e-002	6.2036e-006
16808	15.061	3.3636	0.	-193.69
16809	15.152	3.2727	0.	-207.35
16810	15.061	3.2727	5.e-002	1.0133e-005
16811	15.061	3.5455	0.	-193.68
16812	15.152	3.4545	0.	-207.64
16813	15.061	3.4545	5.e-002	9.3558e-006
16814	15.061	3.7273	0.	-183.94
16815	15.152	3.6364	0.	-201.66
16816	15.061	3.6364	5.e-002	7.3628e-006
16817	15.061	3.9091	0.	-159.48
16818	15.152	3.8182	0.	-184.12
16819	15.061	3.8182	5.e-002	-8.1985e-006
16820	15.061	4.0909	0.	-120.47
16821	15.152	4.	0.	-152.71
16822	15.061	4.	5.e-002	-3.2007e-005
16823	15.061	4.2727	0.	-73.556
16824	15.152	4.1818	0.	-110.44
16825	15.061	4.1818	5.e-002	-1.4957e-005
16826	15.061	4.4545	0.	-29.931
16827	15.152	4.3636	0.	-65.
16828	15.061	4.3636	5.e-002	-6.4618e-005
16829	15.061	4.6364	0.	-7.1349
16830	15.152	4.5455	0.	-25.883
16831	15.061	4.5455	5.e-002	-7.902e-005
16832	15.061	4.8182	0.	-3.0324
16833	15.152	4.7273	0.	-6.2557
16834	15.061	4.7273	5.e-002	-6.054e-005
16835	15.061	5.	0.	-1.9031
16836	15.152	4.9091	0.	-2.6041
16837	15.061	4.9091	5.e-002	-2.6976e-005
16838	15.061	5.1818	0.	-1.3441
16839	15.152	5.0909	0.	-1.5656
16840	15.061	5.0909	5.e-002	-3.0366e-005
16841	15.061	5.3636	0.	-0.95193
16842	15.152	5.2727	0.	-1.0414
16843	15.061	5.2727	5.e-002	-1.4335e-005
16844	15.061	5.5455	0.	-0.64176
16845	15.152	5.4545	0.	-0.6695
16846	15.061	5.4545	5.e-002	-6.9208e-006
16847	15.061	5.7273	0.	-0.32184
16848	15.152	5.6364	0.	-0.42975
16849	15.061	5.6364	5.e-002	-4.3129e-007
16850	15.152	5.8182	0.	-6.6781e-002
16851	15.061	5.8182	5.e-002	3.499e-006
16852	15.061	5.9091	0.	5.3493e-002
16853	15.244	0.27273	0.	-0.1944
16854	15.335	0.18182	0.	-6.7399e-003
16855	15.244	0.18182	5.e-002	4.548e-006
16856	15.244	9.0909e-002	0.	4.1987e-002
16857	15.244	0.45455	0.	-0.45492
16858	15.335	0.36364	0.	-0.31056
16859	15.244	0.36364	5.e-002	7.4947e-006
16860	15.244	0.63636	0.	-0.73995
16861	15.335	0.54545	0.	-0.4943
16862	15.244	0.54545	5.e-002	7.968e-006
16863	15.244	0.81818	0.	-1.2128
16864	15.335	0.72727	0.	-0.87331
16865	15.244	0.72727	5.e-002	1.8209e-005
16866	15.244	1.	0.	-2.1664
16867	15.335	0.90909	0.	-1.5943
16868	15.244	0.90909	5.e-002	1.7265e-005
16869	15.244	1.1818	0.	-5.7042
16870	15.335	1.0909	0.	-4.0408
16871	15.244	1.0909	5.e-002	3.3645e-005
16872	15.244	1.3636	0.	-24.192
16873	15.335	1.2727	0.	-18.273
16874	15.244	1.2727	5.e-002	4.6914e-005
16875	15.244	1.5455	0.	-58.937
16876	15.335	1.4545	0.	-48.974
16877	15.244	1.4545	5.e-002	2.697e-005
16878	15.244	1.7273	0.	-100.09
16879	15.335	1.6364	0.	-87.12
16880	15.244	1.6364	5.e-002	4.5293e-005
16881	15.244	1.9091	0.	-141.28
16882	15.335	1.8182	0.	-127.58
16883	15.244	1.8182	5.e-002	2.9747e-005
16884	15.244	2.0909	0.	-176.45
16885	15.335	2.	0.	-165.02
16886	15.244	2.	5.e-002	2.563e-005
16887	15.244	2.2727	0.	-201.56
16888	15.335	2.1818	0.	-194.8
16889	15.244	2.1818	5.e-002	2.8459e-005
16890	15.244	2.4545	0.	-216.05
16891	15.335	2.3636	0.	-214.79
16892	15.244	2.3636	5.e-002	1.2516e-005
16893	15.244	2.6364	0.	-222.35
16894	15.335	2.5455	0.	-225.83
16895	15.244	2.5455	5.e-002	7.4466e-006
16896	15.244	2.8182	0.	-224.13
16897	15.335	2.7273	0.	-230.63
16898	15.244	2.7273	5.e-002	5.9178e-006
16899	15.244	3.	0.	-224.35
16900	15.335	2.9091	0.	-232.14
16901	15.244	2.9091	5.e-002	4.4268e-006
16902	15.244	3.1818	0.	-224.13
16903	15.335	3.0909	0.	-232.14
16904	15.244	3.0909	5.e-002	5.2159e-006
16905	15.244	3.3636	0.	-222.35
16906	15.335	3.2727	0.	-230.63
16907	15.244	3.2727	5.e-002	9.8285e-006
16908	15.244	3.5455	0.	-216.05
16909	15.335	3.4545	0.	-225.83
16910	15.244	3.4545	5.e-002	8.05e-006
16911	15.244	3.7273	0.	-201.56
16912	15.335	3.6364	0.	-214.79
16913	15.244	3.6364	5.e-002	6.2816e-006
16914	15.244	3.9091	0.	-176.45
16915	15.335	3.8182	0.	-194.8
16916	15.244	3.8182	5.e-002	-5.5422e-006
16917	15.244	4.0909	0.	-141.28
16918	15.335	4.	0.	-165.01
16919	15.244	4.	5.e-002	-2.3946e-005
16920	15.244	4.2727	0.	-100.09
16921	15.335	4.1818	0.	-127.58
16922	15.244	4.1818	5.e-002	-5.1334e-005
16923	15.244	4.4545	0.	-58.937
16924	15.335	4.3636	0.	-87.119
16925	15.244	4.3636	5.e-002	-3.3216e-005
16926	15.244	4.6364	0.	-24.192
16927	15.335	4.5455	0.	-48.974
16928	15.244	4.5455	5.e-002	-5.4004e-005
16929	15.244	4.8182	0.	-5.7041
16930	15.335	4.7273	0.	-18.273
16931	15.244	4.7273	5.e-002	-5.2352e-005
16932	15.244	5.	0.	-2.1664
16933	15.335	4.9091	0.	-4.0407
16934	15.244	4.9091	5.e-002	-4.8491e-005
16935	15.244	5.1818	0.	-1.2128
16936	15.335	5.0909	0.	-1.5942
16937	15.244	5.0909	5.e-002	-3.0844e-005
16938	15.244	5.3636	0.	-0.73994
16939	15.335	5.2727	0.	-0.8733
16940	15.244	5.2727	5.e-002	-1.7932e-005
16941	15.244	5.5455	0.	-0.45492
16942	15.335	5.4545	0.	-0.4943
16943	15.244	5.4545	5.e-002	-7.8062e-006
16944	15.244	5.7273	0.	-0.1944
16945	15.335	5.6364	0.	-0.31056
16946	15.244	5.6364	5.e-002	3.714e-007
16947	15.335	5.8182	0.	-6.7384e-003
16948	15.244	5.8182	5.e-002	3.7145e-006
16949	15.244	5.9091	0.	4.1988e-002
16950	15.426	0.27273	0.	-0.12916
16951	15.517	0.18182	0.	1.1612e-002
16952	15.426	0.18182	5.e-002	3.2234e-006
16953	15.426	9.0909e-002	0.	3.7947e-002
16954	15.426	0.45455	0.	-0.3362
16955	15.517	0.36364	0.	-0.23555
16956	15.426	0.36364	5.e-002	5.185e-006
16957	15.426	0.63636	0.	-0.59084
16958	15.517	0.54545	0.	-0.37852
16959	15.426	0.54545	5.e-002	1.4748e-005
16960	15.426	0.81818	0.	-1.1355
16961	15.517	0.72727	0.	-0.75828
16962	15.426	0.72727	5.e-002	1.5059e-005
16963	15.426	1.	0.	-2.8779
16964	15.517	0.90909	0.	-1.7804
16965	15.426	0.90909	5.e-002	7.2699e-006
16966	15.426	1.1818	0.	-14.163
16967	15.517	1.0909	0.	-8.4695
16968	15.426	1.0909	5.e-002	1.8093e-005
16969	15.426	1.3636	0.	-41.423
16970	15.517	1.2727	0.	-31.553
16971	15.426	1.2727	5.e-002	3.0554e-005
16972	15.426	1.5455	0.	-75.863
16973	15.517	1.4545	0.	-62.866
16974	15.426	1.4545	5.e-002	5.4646e-005
16975	15.426	1.7273	0.	-113.51
16976	15.517	1.6364	0.	-98.338
16977	15.426	1.6364	5.e-002	3.2706e-005
16978	15.426	1.9091	0.	-150.43
16979	15.517	1.8182	0.	-134.77
16980	15.426	1.8182	5.e-002	1.7137e-005
16981	15.426	2.0909	0.	-182.76
16982	15.517	2.	0.	-168.61
16983	15.426	2.	5.e-002	1.6844e-005
16984	15.426	2.2727	0.	-207.78
16985	15.517	2.1818	0.	-196.8
16986	15.426	2.1818	5.e-002	1.343e-005
16987	15.426	2.4545	0.	-224.73
16988	15.517	2.3636	0.	-217.71
16989	15.426	2.3636	5.e-002	9.9083e-006
16990	15.426	2.6364	0.	-234.66
16991	15.517	2.5455	0.	-231.38
16992	15.426	2.5455	5.e-002	9.6669e-006
16993	15.426	2.8182	0.	-239.47
16994	15.517	2.7273	0.	-239.11
16995	15.426	2.7273	5.e-002	6.4657e-006
16996	15.426	3.	0.	-240.85
16997	15.517	2.9091	0.	-242.46
16998	15.426	2.9091	5.e-002	8.4377e-006
16999	15.426	3.1818	0.	-239.47
17000	15.517	3.0909	0.	-242.46
17001	15.426	3.0909	5.e-002	3.001e-006
17002	15.426	3.3636	0.	-234.66
17003	15.517	3.2727	0.	-239.11
17004	15.426	3.2727	5.e-002	6.2848e-006
17005	15.426	3.5455	0.	-224.73
17006	15.517	3.4545	0.	-231.38
17007	15.426	3.4545	5.e-002	6.1253e-006
17008	15.426	3.7273	0.	-207.78
17009	15.517	3.6364	0.	-217.7
17010	15.426	3.6364	5.e-002	-4.6668e-006
17011	15.426	3.9091	0.	-182.76
17012	15.517	3.8182	0.	-196.8
17013	15.426	3.8182	5.e-002	-5.6318e-006
17014	15.426	4.0909	0.	-150.43
17015	15.517	4.	0.	-168.61
17016	15.426	4.	5.e-002	-1.6004e-005
17017	15.426	4.2727	0.	-113.51
17018	15.517	4.1818	0.	-134.77
17019	15.426	4.1818	5.e-002	-3.0385e-005
17020	15.426	4.4545	0.	-75.863
17021	15.517	4.3636	0.	-98.338
17022	15.426	4.3636	5.e-002	-2.6757e-005
17023	15.426	4.6364	0.	-41.423
17024	15.517	4.5455	0.	-62.865
17025	15.426	4.5455	5.e-002	-4.4296e-005
17026	15.426	4.8182	0.	-14.163
17027	15.517	4.7273	0.	-31.552
17028	15.426	4.7273	5.e-002	-4.5885e-005
17029	15.426	5.	0.	-2.8779
17030	15.517	4.9091	0.	-8.4694
17031	15.426	4.9091	5.e-002	-3.9073e-005
17032	15.426	5.1818	0.	-1.1355
17033	15.517	5.0909	0.	-1.7803
17034	15.426	5.0909	5.e-002	-1.6583e-005
17035	15.426	5.3636	0.	-0.59084
17036	15.517	5.2727	0.	-0.75828
17037	15.426	5.2727	5.e-002	-3.4488e-005
17038	15.426	5.5455	0.	-0.3362
17039	15.517	5.4545	0.	-0.37852
17040	15.426	5.4545	5.e-002	-8.1815e-006
17041	15.426	5.7273	0.	-0.12916
17042	15.517	5.6364	0.	-0.23555
17043	15.426	5.6364	5.e-002	-3.0296e-006
17044	15.517	5.8182	0.	1.1612e-002
17045	15.426	5.8182	5.e-002	3.5716e-006
17046	15.426	5.9091	0.	3.7947e-002
17047	15.608	0.27273	0.	-9.4043e-002
17048	15.7	0.18182	0.	1.299e-002
17049	15.608	0.18182	5.e-002	3.9951e-006
17050	15.608	9.0909e-002	0.	3.7518e-002
17051	15.608	0.45455	0.	-0.25822
17052	15.7	0.36364	0.	-0.18404
17053	15.608	0.36364	5.e-002	6.8721e-006
17054	15.608	0.63636	0.	-0.49137
17055	15.7	0.54545	0.	-0.30192
17056	15.608	0.54545	5.e-002	9.5531e-006
17057	15.608	0.81818	0.	-1.1426
17058	15.7	0.72727	0.	-0.69601
17059	15.608	0.72727	5.e-002	2.6245e-005
17060	15.608	1.	0.	-4.9957
17061	15.7	0.90909	0.	-2.3798
17062	15.608	0.90909	5.e-002	2.8711e-005
17063	15.608	1.1818	0.	-24.026
17064	15.7	1.0909	0.	-15.545
17065	15.608	1.0909	5.e-002	4.6789e-005
17066	15.608	1.3636	0.	-52.116
17067	15.7	1.2727	0.	-40.455
17068	15.608	1.2727	5.e-002	1.331e-005
17069	15.608	1.5455	0.	-84.586
17070	15.7	1.4545	0.	-70.329
17071	15.608	1.4545	5.e-002	2.4048e-005
17072	15.608	1.7273	0.	-118.95
17073	15.7	1.6364	0.	-102.94
17074	15.608	1.6364	5.e-002	3.1456e-005
17075	15.608	1.9091	0.	-152.41
17076	15.7	1.8182	0.	-135.93
17077	15.608	1.8182	5.e-002	3.6537e-005
17078	15.608	2.0909	0.	-182.28
17079	15.7	2.	0.	-166.75
17080	15.608	2.	5.e-002	3.0305e-005
17081	15.608	2.2727	0.	-206.55
17082	15.7	2.1818	0.	-193.21
17083	15.608	2.1818	5.e-002	3.0466e-005
17084	15.608	2.4545	0.	-224.41
17085	15.7	2.3636	0.	-213.97
17086	15.608	2.3636	5.e-002	1.6871e-005
17087	15.608	2.6364	0.	-236.12
17088	15.7	2.5455	0.	-228.69
17089	15.608	2.5455	5.e-002	1.3551e-005
17090	15.608	2.8182	0.	-242.55
17091	15.7	2.7273	0.	-237.84
17092	15.608	2.7273	5.e-002	7.657e-006
17093	15.608	3.	0.	-244.58
17094	15.7	2.9091	0.	-242.15
17095	15.608	2.9091	5.e-002	1.0249e-005
17096	15.608	3.1818	0.	-242.55
17097	15.7	3.0909	0.	-242.15
17098	15.608	3.0909	5.e-002	6.8186e-006
17099	15.608	3.3636	0.	-236.12
17100	15.7	3.2727	0.	-237.84
17101	15.608	3.2727	5.e-002	4.2053e-006
17102	15.608	3.5455	0.	-224.41
17103	15.7	3.4545	0.	-228.69
17104	15.608	3.4545	5.e-002	8.207e-008
17105	15.608	3.7273	0.	-206.55
17106	15.7	3.6364	0.	-213.97
17107	15.608	3.6364	5.e-002	-4.3268e-006
17108	15.608	3.9091	0.	-182.28
17109	15.7	3.8182	0.	-193.21
17110	15.608	3.8182	5.e-002	-9.1741e-006
17111	15.608	4.0909	0.	-152.41
17112	15.7	4.	0.	-166.75
17113	15.608	4.	5.e-002	-7.4617e-006
17114	15.608	4.2727	0.	-118.95
17115	15.7	4.1818	0.	-135.93
17116	15.608	4.1818	5.e-002	-2.3634e-005
17117	15.608	4.4545	0.	-84.586
17118	15.7	4.3636	0.	-102.94
17119	15.608	4.3636	5.e-002	-1.9917e-005
17120	15.608	4.6364	0.	-52.116
17121	15.7	4.5455	0.	-70.329
17122	15.608	4.5455	5.e-002	-1.1584e-005
17123	15.608	4.8182	0.	-24.026
17124	15.7	4.7273	0.	-40.455
17125	15.608	4.7273	5.e-002	-9.1318e-006
17126	15.608	5.	0.	-4.9957
17127	15.7	4.9091	0.	-15.545
17128	15.608	4.9091	5.e-002	-6.3273e-005
17129	15.608	5.1818	0.	-1.1426
17130	15.7	5.0909	0.	-2.3798
17131	15.608	5.0909	5.e-002	-5.0195e-005
17132	15.608	5.3636	0.	-0.49137
17133	15.7	5.2727	0.	-0.69601
17134	15.608	5.2727	5.e-002	-2.6695e-005
17135	15.608	5.5455	0.	-0.25822
17136	15.7	5.4545	0.	-0.30192
17137	15.608	5.4545	5.e-002	-6.7719e-006
17138	15.608	5.7273	0.	-9.4044e-002
17139	15.7	5.6364	0.	-0.18404
17140	15.608	5.6364	5.e-002	-2.8565e-007
17141	15.7	5.8182	0.	1.299e-002
17142	15.608	5.8182	5.e-002	3.7998e-006
17143	15.608	5.9091	0.	3.7518e-002
17144	15.791	0.27273	0.	-7.2678e-002
17145	15.882	0.18182	0.	8.9875e-003
17146	15.791	0.18182	5.e-002	3.5639e-006
17147	15.791	9.0909e-002	0.	4.006e-002
17148	15.791	0.45455	0.	-0.20454
17149	15.882	0.36364	0.	-0.14597
17150	15.791	0.36364	5.e-002	7.5394e-006
17151	15.791	0.63636	0.	-0.43029
17152	15.882	0.54545	0.	-0.25202
17153	15.791	0.54545	5.e-002	1.9825e-005
17154	15.791	0.81818	0.	-1.3086
17155	15.882	0.72727	0.	-0.69649
17156	15.791	0.72727	5.e-002	1.5379e-005
17157	15.791	1.	0.	-9.6283
17158	15.882	0.90909	0.	-4.2593
17159	15.791	0.90909	5.e-002	1.5973e-005
17160	15.791	1.1818	0.	-31.25
17161	15.882	1.0909	0.	-21.749
17162	15.791	1.0909	5.e-002	-5.9132e-008
17163	15.791	1.3636	0.	-58.189
17164	15.882	1.2727	0.	-45.95
17165	15.791	1.2727	5.e-002	4.1003e-005
17166	15.791	1.5455	0.	-88.259
17167	15.882	1.4545	0.	-73.768
17168	15.791	1.4545	5.e-002	3.309e-005
17169	15.791	1.7273	0.	-119.55
17170	15.882	1.6364	0.	-103.55
17171	15.791	1.6364	5.e-002	3.0864e-005
17172	15.791	1.9091	0.	-149.96
17173	15.882	1.8182	0.	-133.43
17174	15.791	1.8182	5.e-002	3.3042e-005
17175	15.791	2.0909	0.	-177.47
17176	15.882	2.	0.	-161.5
17177	15.791	2.	5.e-002	2.079e-005
17178	15.791	2.2727	0.	-200.52
17179	15.882	2.1818	0.	-186.07
17180	15.791	2.1818	5.e-002	2.5588e-005
17181	15.791	2.4545	0.	-218.27
17182	15.882	2.3636	0.	-206.
17183	15.791	2.3636	5.e-002	1.1317e-005
17184	15.791	2.6364	0.	-230.57
17185	15.882	2.5455	0.	-220.76
17186	15.791	2.5455	5.e-002	1.3769e-005
17187	15.791	2.8182	0.	-237.69
17188	15.882	2.7273	0.	-230.37
17189	15.791	2.7273	5.e-002	1.2135e-005
17190	15.791	3.	0.	-240.01
17191	15.882	2.9091	0.	-235.06
17192	15.791	2.9091	5.e-002	9.8681e-006
17193	15.791	3.1818	0.	-237.69
17194	15.882	3.0909	0.	-235.06
17195	15.791	3.0909	5.e-002	7.3451e-006
17196	15.791	3.3636	0.	-230.57
17197	15.882	3.2727	0.	-230.37
17198	15.791	3.2727	5.e-002	4.7611e-006
17199	15.791	3.5455	0.	-218.27
17200	15.882	3.4545	0.	-220.76
17201	15.791	3.4545	5.e-002	2.1842e-006
17202	15.791	3.7273	0.	-200.52
17203	15.882	3.6364	0.	-206.
17204	15.791	3.6364	5.e-002	4.3767e-006
17205	15.791	3.9091	0.	-177.47
17206	15.882	3.8182	0.	-186.07
17207	15.791	3.8182	5.e-002	-6.281e-006
17208	15.791	4.0909	0.	-149.96
17209	15.882	4.	0.	-161.5
17210	15.791	4.	5.e-002	-1.0093e-005
17211	15.791	4.2727	0.	-119.55
17212	15.882	4.1818	0.	-133.43
17213	15.791	4.1818	5.e-002	-1.4337e-005
17214	15.791	4.4545	0.	-88.259
17215	15.882	4.3636	0.	-103.54
17216	15.791	4.3636	5.e-002	-2.1562e-005
17217	15.791	4.6364	0.	-58.189
17218	15.882	4.5455	0.	-73.767
17219	15.791	4.5455	5.e-002	-3.1954e-005
17220	15.791	4.8182	0.	-31.25
17221	15.882	4.7273	0.	-45.95
17222	15.791	4.7273	5.e-002	-4.6204e-005
17223	15.791	5.	0.	-9.6282
17224	15.882	4.9091	0.	-21.749
17225	15.791	4.9091	5.e-002	-1.2125e-005
17226	15.791	5.1818	0.	-1.3086
17227	15.882	5.0909	0.	-4.2592
17228	15.791	5.0909	5.e-002	-1.8582e-005
17229	15.791	5.3636	0.	-0.43028
17230	15.882	5.2727	0.	-0.69648
17231	15.791	5.2727	5.e-002	-2.1466e-005
17232	15.791	5.5455	0.	-0.20454
17233	15.882	5.4545	0.	-0.25202
17234	15.791	5.4545	5.e-002	-1.7504e-005
17235	15.791	5.7273	0.	-7.2678e-002
17236	15.882	5.6364	0.	-0.14597
17237	15.791	5.6364	5.e-002	-1.7258e-006
17238	15.882	5.8182	0.	8.9873e-003
17239	15.791	5.8182	5.e-002	4.004e-006
17240	15.791	5.9091	0.	4.0058e-002
17241	15.973	0.27273	0.	-5.8338e-002
17242	16.065	0.18182	0.	4.02e-003
17243	15.973	0.18182	5.e-002	2.8654e-006
17244	15.973	9.0909e-002	0.	4.3822e-002
17245	15.973	0.45455	0.	-0.16715
17246	16.065	0.36364	0.	-0.11681
17247	15.973	0.36364	5.e-002	4.5612e-006
17248	15.973	0.63636	0.	-0.40516
17249	16.065	0.54545	0.	-0.22259
17250	15.973	0.54545	5.e-002	1.2466e-005
17251	15.973	0.81818	0.	-1.9324
17252	16.065	0.72727	0.	-0.8103
17253	15.973	0.72727	5.e-002	3.0986e-005
17254	15.973	1.	0.	-14.834
17255	16.065	0.90909	0.	-8.0466
17256	15.973	0.90909	5.e-002	4.4888e-005
17257	15.973	1.1818	0.	-36.119
17258	16.065	1.0909	0.	-26.399
17259	15.973	1.0909	5.e-002	-4.9842e-007
17260	15.973	1.3636	0.	-61.271
17261	16.065	1.2727	0.	-49.117
17262	15.973	1.2727	5.e-002	9.639e-007
17263	15.973	1.5455	0.	-88.82
17264	16.065	1.4545	0.	-74.669
17265	15.973	1.4545	5.e-002	1.2794e-005
17266	15.973	1.7273	0.	-117.22
17267	16.065	1.6364	0.	-101.7
17268	15.973	1.6364	5.e-002	2.8076e-005
17269	15.973	1.9091	0.	-144.8
17270	16.065	1.8182	0.	-128.71
17271	15.973	1.8182	5.e-002	1.9173e-005
17272	15.973	2.0909	0.	-169.98
17273	16.065	2.	0.	-154.18
17274	15.973	2.	5.e-002	1.7491e-005
17275	15.973	2.2727	0.	-191.49
17276	16.065	2.1818	0.	-176.76
17277	15.973	2.1818	5.e-002	1.7948e-005
17278	15.973	2.4545	0.	-208.5
17279	16.065	2.3636	0.	-195.45
17280	15.973	2.3636	5.e-002	1.3644e-005
17281	15.973	2.6364	0.	-220.64
17282	16.065	2.5455	0.	-209.64
17283	15.973	2.5455	5.e-002	1.1394e-005
17284	15.973	2.8182	0.	-227.87
17285	16.065	2.7273	0.	-219.1
17286	15.973	2.7273	5.e-002	1.0758e-005
17287	15.973	3.	0.	-230.26
17288	16.065	2.9091	0.	-223.81
17289	15.973	2.9091	5.e-002	9.3908e-006
17290	15.973	3.1818	0.	-227.87
17291	16.065	3.0909	0.	-223.81
17292	15.973	3.0909	5.e-002	7.8318e-006
17293	15.973	3.3636	0.	-220.64
17294	16.065	3.2727	0.	-219.1
17295	15.973	3.2727	5.e-002	6.5507e-006
17296	15.973	3.5455	0.	-208.5
17297	16.065	3.4545	0.	-209.64
17298	15.973	3.4545	5.e-002	1.6593e-006
17299	15.973	3.7273	0.	-191.49
17300	16.065	3.6364	0.	-195.45
17301	15.973	3.6364	5.e-002	6.4522e-007
17302	15.973	3.9091	0.	-169.98
17303	16.065	3.8182	0.	-176.76
17304	15.973	3.8182	5.e-002	-1.6998e-006
17305	15.973	4.0909	0.	-144.8
17306	16.065	4.	0.	-154.18
17307	15.973	4.	5.e-002	-6.1545e-006
17308	15.973	4.2727	0.	-117.22
17309	16.065	4.1818	0.	-128.71
17310	15.973	4.1818	5.e-002	-1.0179e-005
17311	15.973	4.4545	0.	-88.82
17312	16.065	4.3636	0.	-101.7
17313	15.973	4.3636	5.e-002	-1.4452e-005
17314	15.973	4.6364	0.	-61.271
17315	16.065	4.5455	0.	-74.669
17316	15.973	4.5455	5.e-002	-1.4111e-005
17317	15.973	4.8182	0.	-36.118
17318	16.065	4.7273	0.	-49.117
17319	15.973	4.7273	5.e-002	-2.2968e-005
17320	15.973	5.	0.	-14.833
17321	16.065	4.9091	0.	-26.398
17322	15.973	4.9091	5.e-002	8.6313e-006
17323	15.973	5.1818	0.	-1.9324
17324	16.065	5.0909	0.	-8.0465
17325	15.973	5.0909	5.e-002	-4.1722e-005
17326	15.973	5.3636	0.	-0.40516
17327	16.065	5.2727	0.	-0.8103
17328	15.973	5.2727	5.e-002	-3.2255e-005
17329	15.973	5.5455	0.	-0.16715
17330	16.065	5.4545	0.	-0.22259
17331	15.973	5.4545	5.e-002	-1.9952e-005
17332	15.973	5.7273	0.	-5.8337e-002
17333	16.065	5.6364	0.	-0.11681
17334	15.973	5.6364	5.e-002	-3.8254e-006
17335	16.065	5.8182	0.	4.0208e-003
17336	15.973	5.8182	5.e-002	4.3738e-006
17337	15.973	5.9091	0.	4.3822e-002
17338	16.156	0.27273	0.	-4.7934e-002
17339	16.247	0.18182	0.	-4.4841e-004
17340	16.156	0.18182	5.e-002	2.7216e-006
17341	16.156	9.0909e-002	0.	4.7585e-002
17342	16.156	0.45455	0.	-0.14164
17343	16.247	0.36364	0.	-9.4171e-002
17344	16.156	0.36364	5.e-002	2.7277e-005
17345	16.156	0.63636	0.	-0.42689
17346	16.247	0.54545	0.	-0.21219
17347	16.156	0.54545	5.e-002	2.9871e-005
17348	16.156	0.81818	0.	-4.0087
17349	16.247	0.72727	0.	-1.2794
17350	16.156	0.72727	5.e-002	2.7431e-005
17351	16.156	1.	0.	-19.175
17352	16.247	0.90909	0.	-12.093
17353	16.156	0.90909	5.e-002	4.9207e-005
17354	16.156	1.1818	0.	-39.241
17355	16.247	1.0909	0.	-29.694
17356	16.156	1.0909	5.e-002	3.4149e-005
17357	16.156	1.3636	0.	-62.384
17358	16.247	1.2727	0.	-50.666
17359	16.156	1.2727	5.e-002	3.9561e-005
17360	16.156	1.5455	0.	-87.428
17361	16.247	1.4545	0.	-73.927
17362	16.156	1.4545	5.e-002	3.5462e-005
17363	16.156	1.7273	0.	-113.09
17364	16.247	1.6364	0.	-98.337
17365	16.156	1.6364	5.e-002	1.0017e-005
17366	16.156	1.9091	0.	-138.
17367	16.247	1.8182	0.	-122.66
17368	16.156	1.8182	5.e-002	9.9675e-006
17369	16.156	2.0909	0.	-160.9
17370	16.247	2.	0.	-145.66
17371	16.156	2.	5.e-002	1.1875e-005
17372	16.156	2.2727	0.	-180.69
17373	16.247	2.1818	0.	-166.21
17374	16.156	2.1818	5.e-002	1.453e-005
17375	16.156	2.4545	0.	-196.59
17376	16.247	2.3636	0.	-183.43
17377	16.156	2.3636	5.e-002	1.3535e-005
17378	16.156	2.6364	0.	-208.14
17379	16.247	2.5455	0.	-196.7
17380	16.156	2.5455	5.e-002	1.2609e-005
17381	16.156	2.8182	0.	-215.11
17382	16.247	2.7273	0.	-205.67
17383	16.156	2.7273	5.e-002	1.1195e-005
17384	16.156	3.	0.	-217.44
17385	16.247	2.9091	0.	-210.18
17386	16.156	2.9091	5.e-002	8.8408e-006
17387	16.156	3.1818	0.	-215.11
17388	16.247	3.0909	0.	-210.18
17389	16.156	3.0909	5.e-002	8.3388e-006
17390	16.156	3.3636	0.	-208.14
17391	16.247	3.2727	0.	-205.67
17392	16.156	3.2727	5.e-002	6.1839e-006
17393	16.156	3.5455	0.	-196.59
17394	16.247	3.4545	0.	-196.7
17395	16.156	3.4545	5.e-002	3.5405e-006
17396	16.156	3.7273	0.	-180.69
17397	16.247	3.6364	0.	-183.43
17398	16.156	3.6364	5.e-002	6.5309e-006
17399	16.156	3.9091	0.	-160.9
17400	16.247	3.8182	0.	-166.21
17401	16.156	3.8182	5.e-002	-2.4344e-006
17402	16.156	4.0909	0.	-138.
17403	16.247	4.	0.	-145.66
17404	16.156	4.	5.e-002	-5.1676e-006
17405	16.156	4.2727	0.	-113.09
17406	16.247	4.1818	0.	-122.66
17407	16.156	4.1818	5.e-002	-3.2774e-006
17408	16.156	4.4545	0.	-87.428
17409	16.247	4.3636	0.	-98.337
17410	16.156	4.3636	5.e-002	-5.4666e-006
17411	16.156	4.6364	0.	-62.384
17412	16.247	4.5455	0.	-73.927
17413	16.156	4.5455	5.e-002	-1.6585e-005
17414	16.156	4.8182	0.	-39.241
17415	16.247	4.7273	0.	-50.666
17416	16.156	4.7273	5.e-002	-2.6016e-005
17417	16.156	5.	0.	-19.175
17418	16.247	4.9091	0.	-29.694
17419	16.156	4.9091	5.e-002	-2.1628e-005
17420	16.156	5.1818	0.	-4.0086
17421	16.247	5.0909	0.	-12.093
17422	16.156	5.0909	5.e-002	-4.2532e-005
17423	16.156	5.3636	0.	-0.42688
17424	16.247	5.2727	0.	-1.2794
17425	16.156	5.2727	5.e-002	-3.6621e-005
17426	16.156	5.5455	0.	-0.14164
17427	16.247	5.4545	0.	-0.21219
17428	16.156	5.4545	5.e-002	-2.8924e-005
17429	16.156	5.7273	0.	-4.7933e-002
17430	16.247	5.6364	0.	-9.417e-002
17431	16.156	5.6364	5.e-002	-2.7742e-005
17432	16.247	5.8182	0.	-4.4882e-004
17433	16.156	5.8182	5.e-002	4.5304e-006
17434	16.156	5.9091	0.	4.7584e-002
17435	16.338	0.27273	0.	-4.0118e-002
17436	16.429	0.18182	0.	-4.2192e-003
17437	16.338	0.18182	5.e-002	3.0991e-006
17438	16.338	9.0909e-002	0.	5.0356e-002
17439	16.338	0.45455	0.	-0.12601
17440	16.429	0.36364	0.	-7.6747e-002
17441	16.338	0.36364	5.e-002	1.9053e-005
17442	16.338	0.63636	0.	-0.55261
17443	16.429	0.54545	0.	-0.22686
17444	16.338	0.54545	5.e-002	3.1698e-005
17445	16.338	0.81818	0.	-7.434
17446	16.429	0.72727	0.	-3.0374
17447	16.338	0.72727	5.e-002	1.9508e-005
17448	16.338	1.	0.	-22.473
17449	16.429	0.90909	0.	-15.45
17450	16.338	0.90909	5.e-002	9.1779e-006
17451	16.338	1.1818	0.	-41.051
17452	16.429	1.0909	0.	-31.871
17453	16.338	1.0909	5.e-002	1.1353e-005
17454	16.338	1.3636	0.	-62.15
17455	16.429	1.2727	0.	-51.041
17456	16.338	1.2727	5.e-002	2.5136e-005
17457	16.338	1.5455	0.	-84.782
17458	16.429	1.4545	0.	-72.081
17459	16.338	1.4545	5.e-002	3.1396e-005
17460	16.338	1.7273	0.	-107.86
17461	16.429	1.6364	0.	-94.026
17462	16.338	1.6364	5.e-002	7.2841e-006
17463	16.338	1.9091	0.	-130.28
17464	16.429	1.8182	0.	-115.84
17465	16.338	1.8182	5.e-002	1.7742e-005
17466	16.338	2.0909	0.	-150.94
17467	16.429	2.	0.	-136.5
17468	16.338	2.	5.e-002	1.3851e-005
17469	16.338	2.2727	0.	-168.94
17470	16.429	2.1818	0.	-155.05
17471	16.338	2.1818	5.e-002	1.4339e-005
17472	16.338	2.4545	0.	-183.55
17473	16.429	2.3636	0.	-170.71
17474	16.338	2.3636	5.e-002	1.5951e-005
17475	16.338	2.6364	0.	-194.26
17476	16.429	2.5455	0.	-182.88
17477	16.338	2.5455	5.e-002	1.0837e-005
17478	16.338	2.8182	0.	-200.78
17479	16.429	2.7273	0.	-191.18
17480	16.338	2.7273	5.e-002	1.3723e-005
17481	16.338	3.	0.	-202.97
17482	16.429	2.9091	0.	-195.38
17483	16.338	2.9091	5.e-002	8.4291e-006
17484	16.338	3.1818	0.	-200.78
17485	16.429	3.0909	0.	-195.38
17486	16.338	3.0909	5.e-002	4.9346e-006
17487	16.338	3.3636	0.	-194.26
17488	16.429	3.2727	0.	-191.18
17489	16.338	3.2727	5.e-002	7.2717e-006
17490	16.338	3.5455	0.	-183.55
17491	16.429	3.4545	0.	-182.88
17492	16.338	3.4545	5.e-002	2.8425e-006
17493	16.338	3.7273	0.	-168.94
17494	16.429	3.6364	0.	-170.71
17495	16.338	3.6364	5.e-002	2.3163e-006
17496	16.338	3.9091	0.	-150.94
17497	16.429	3.8182	0.	-155.05
17498	16.338	3.8182	5.e-002	2.1285e-006
17499	16.338	4.0909	0.	-130.28
17500	16.429	4.	0.	-136.5
17501	16.338	4.	5.e-002	2.3502e-007
17502	16.338	4.2727	0.	-107.86
17503	16.429	4.1818	0.	-115.84
17504	16.338	4.1818	5.e-002	1.0537e-006
17505	16.338	4.4545	0.	-84.782
17506	16.429	4.3636	0.	-94.026
17507	16.338	4.3636	5.e-002	3.2454e-007
17508	16.338	4.6364	0.	-62.15
17509	16.429	4.5455	0.	-72.081
17510	16.338	4.5455	5.e-002	-1.5481e-005
17511	16.338	4.8182	0.	-41.051
17512	16.429	4.7273	0.	-51.041
17513	16.338	4.7273	5.e-002	-1.6355e-005
17514	16.338	5.	0.	-22.473
17515	16.429	4.9091	0.	-31.871
17516	16.338	4.9091	5.e-002	-4.7774e-006
17517	16.338	5.1818	0.	-7.4339
17518	16.429	5.0909	0.	-15.45
17519	16.338	5.0909	5.e-002	8.6301e-007
17520	16.338	5.3636	0.	-0.55261
17521	16.429	5.2727	0.	-3.0373
17522	16.338	5.2727	5.e-002	1.5307e-007
17523	16.338	5.5455	0.	-0.12601
17524	16.429	5.4545	0.	-0.22685
17525	16.338	5.4545	5.e-002	-2.1933e-005
17526	16.338	5.7273	0.	-4.0118e-002
17527	16.429	5.6364	0.	-7.6746e-002
17528	16.338	5.6364	5.e-002	-1.5462e-005
17529	16.429	5.8182	0.	-4.2202e-003
17530	16.338	5.8182	5.e-002	5.038e-006
17531	16.338	5.9091	0.	5.0355e-002
17532	16.521	0.27273	0.	-3.4253e-002
17533	16.612	0.18182	0.	-7.4448e-003
17534	16.521	0.18182	5.e-002	3.5998e-006
17535	16.521	9.0909e-002	0.	5.1397e-002
17536	16.521	0.45455	0.	-0.12037
17537	16.612	0.36364	0.	-6.3678e-002
17538	16.521	0.36364	5.e-002	9.3638e-006
17539	16.521	0.63636	0.	-1.1159
17540	16.612	0.54545	0.	-0.2973
17541	16.521	0.54545	5.e-002	2.0776e-005
17542	16.521	0.81818	0.	-10.62
17543	16.612	0.72727	0.	-5.8177
17544	16.521	0.72727	5.e-002	1.554e-005
17545	16.521	1.	0.	-24.804
17546	16.612	0.90909	0.	-17.969
17547	16.521	0.90909	5.e-002	8.9022e-006
17548	16.521	1.1818	0.	-41.838
17549	16.612	1.0909	0.	-33.112
17550	16.521	1.0909	5.e-002	9.3443e-006
17551	16.521	1.3636	0.	-60.952
17552	16.612	1.2727	0.	-50.523
17553	16.521	1.2727	5.e-002	4.0871e-006
17554	16.521	1.5455	0.	-81.307
17555	16.612	1.4545	0.	-69.465
17556	16.521	1.4545	5.e-002	1.1154e-005
17557	16.521	1.7273	0.	-101.99
17558	16.612	1.6364	0.	-89.116
17559	16.521	1.6364	5.e-002	1.2085e-005
17560	16.521	1.9091	0.	-122.05
17561	16.612	1.8182	0.	-108.61
17562	16.521	1.8182	5.e-002	1.0304e-005
17563	16.521	2.0909	0.	-140.59
17564	16.612	2.	0.	-127.07
17565	16.521	2.	5.e-002	1.1388e-005
17566	16.521	2.2727	0.	-156.81
17567	16.612	2.1818	0.	-143.69
17568	16.521	2.1818	5.e-002	1.1636e-005
17569	16.521	2.4545	0.	-170.05
17570	16.612	2.3636	0.	-157.78
17571	16.521	2.3636	5.e-002	1.3506e-005
17572	16.521	2.6364	0.	-179.82
17573	16.612	2.5455	0.	-168.8
17574	16.521	2.5455	5.e-002	1.0787e-005
17575	16.521	2.8182	0.	-185.8
17576	16.612	2.7273	0.	-176.35
17577	16.521	2.7273	5.e-002	1.0657e-005
17578	16.521	3.	0.	-187.81
17579	16.612	2.9091	0.	-180.18
17580	16.521	2.9091	5.e-002	9.8996e-006
17581	16.521	3.1818	0.	-185.8
17582	16.612	3.0909	0.	-180.18
17583	16.521	3.0909	5.e-002	7.2055e-006
17584	16.521	3.3636	0.	-179.82
17585	16.612	3.2727	0.	-176.35
17586	16.521	3.2727	5.e-002	6.555e-006
17587	16.521	3.5455	0.	-170.05
17588	16.612	3.4545	0.	-168.8
17589	16.521	3.4545	5.e-002	3.8698e-006
17590	16.521	3.7273	0.	-156.81
17591	16.612	3.6364	0.	-157.78
17592	16.521	3.6364	5.e-002	5.1339e-006
17593	16.521	3.9091	0.	-140.59
17594	16.612	3.8182	0.	-143.69
17595	16.521	3.8182	5.e-002	4.7678e-006
17596	16.521	4.0909	0.	-122.05
17597	16.612	4.	0.	-127.07
17598	16.521	4.	5.e-002	-2.2557e-006
17599	16.521	4.2727	0.	-101.99
17600	16.612	4.1818	0.	-108.61
17601	16.521	4.1818	5.e-002	-5.3787e-006
17602	16.521	4.4545	0.	-81.307
17603	16.612	4.3636	0.	-89.116
17604	16.521	4.3636	5.e-002	-1.8524e-006
17605	16.521	4.6364	0.	-60.952
17606	16.612	4.5455	0.	-69.465
17607	16.521	4.5455	5.e-002	5.2061e-007
17608	16.521	4.8182	0.	-41.838
17609	16.612	4.7273	0.	-50.523
17610	16.521	4.7273	5.e-002	5.0358e-006
17611	16.521	5.	0.	-24.804
17612	16.612	4.9091	0.	-33.112
17613	16.521	4.9091	5.e-002	-4.0601e-007
17614	16.521	5.1818	0.	-10.62
17615	16.612	5.0909	0.	-17.969
17616	16.521	5.0909	5.e-002	3.6617e-006
17617	16.521	5.3636	0.	-1.1159
17618	16.612	5.2727	0.	-5.8176
17619	16.521	5.2727	5.e-002	-1.3943e-005
17620	16.521	5.5455	0.	-0.12037
17621	16.612	5.4545	0.	-0.2973
17622	16.521	5.4545	5.e-002	-4.0175e-007
17623	16.521	5.7273	0.	-3.4253e-002
17624	16.612	5.6364	0.	-6.3678e-002
17625	16.521	5.6364	5.e-002	4.7756e-006
17626	16.612	5.8182	0.	-7.4444e-003
17627	16.521	5.8182	5.e-002	4.6744e-006
17628	16.521	5.9091	0.	5.1397e-002
17629	16.703	0.27273	0.	-2.9868e-002
17630	16.794	0.18182	0.	-1.0223e-002
17631	16.703	0.18182	5.e-002	3.6478e-006
17632	16.703	9.0909e-002	0.	5.0309e-002
17633	16.703	0.45455	0.	-0.12842
17634	16.794	0.36364	0.	-5.4261e-002
17635	16.703	0.36364	5.e-002	7.6543e-006
17636	16.703	0.63636	0.	-2.9615
17637	16.794	0.54545	0.	-0.60992
17638	16.703	0.54545	5.e-002	2.9187e-006
17639	16.703	0.81818	0.	-13.092
17640	16.794	0.72727	0.	-8.2286
17641	16.703	0.72727	5.e-002	7.7284e-006
17642	16.703	1.	0.	-26.272
17643	16.794	0.90909	0.	-19.682
17644	16.703	0.90909	5.e-002	7.4054e-006
17645	16.703	1.1818	0.	-41.798
17646	16.794	1.0909	0.	-33.557
17647	16.703	1.0909	5.e-002	1.1551e-005
17648	16.703	1.3636	0.	-59.038
17649	16.794	1.2727	0.	-49.303
17650	16.703	1.2727	5.e-002	9.0942e-006
17651	16.703	1.5455	0.	-77.275
17652	16.794	1.4545	0.	-66.294
17653	16.703	1.4545	5.e-002	6.2486e-006
17654	16.703	1.7273	0.	-95.735
17655	16.794	1.6364	0.	-83.833
17656	16.703	1.6364	5.e-002	6.8035e-006
17657	16.703	1.9091	0.	-113.62
17658	16.794	1.8182	0.	-101.18
17659	16.703	1.8182	5.e-002	8.6369e-006
17660	16.703	2.0909	0.	-130.16
17661	16.794	2.	0.	-117.61
17662	16.703	2.	5.e-002	9.8032e-006
17663	16.703	2.2727	0.	-144.67
17664	16.794	2.1818	0.	-132.41
17665	16.703	2.1818	5.e-002	1.059e-005
17666	16.703	2.4545	0.	-156.54
17667	16.794	2.3636	0.	-145.
17668	16.703	2.3636	5.e-002	9.4791e-006
17669	16.703	2.6364	0.	-165.34
17670	16.794	2.5455	0.	-154.86
17671	16.703	2.5455	5.e-002	7.9157e-006
17672	16.703	2.8182	0.	-170.74
17673	16.794	2.7273	0.	-161.64
17674	16.703	2.7273	5.e-002	1.1101e-005
17675	16.703	3.	0.	-172.56
17676	16.794	2.9091	0.	-165.09
17677	16.703	2.9091	5.e-002	7.5492e-006
17678	16.703	3.1818	0.	-170.74
17679	16.794	3.0909	0.	-165.09
17680	16.703	3.0909	5.e-002	7.6192e-006
17681	16.703	3.3636	0.	-165.34
17682	16.794	3.2727	0.	-161.64
17683	16.703	3.2727	5.e-002	5.5918e-006
17684	16.703	3.5455	0.	-156.54
17685	16.794	3.4545	0.	-154.86
17686	16.703	3.4545	5.e-002	6.9337e-006
17687	16.703	3.7273	0.	-144.67
17688	16.794	3.6364	0.	-145.
17689	16.703	3.6364	5.e-002	4.9022e-006
17690	16.703	3.9091	0.	-130.16
17691	16.794	3.8182	0.	-132.41
17692	16.703	3.8182	5.e-002	2.4085e-006
17693	16.703	4.0909	0.	-113.62
17694	16.794	4.	0.	-117.61
17695	16.703	4.	5.e-002	-6.3634e-007
17696	16.703	4.2727	0.	-95.735
17697	16.794	4.1818	0.	-101.18
17698	16.703	4.1818	5.e-002	1.6466e-006
17699	16.703	4.4545	0.	-77.275
17700	16.794	4.3636	0.	-83.832
17701	16.703	4.3636	5.e-002	-9.3716e-007
17702	16.703	4.6364	0.	-59.037
17703	16.794	4.5455	0.	-66.294
17704	16.703	4.5455	5.e-002	5.0269e-006
17705	16.703	4.8182	0.	-41.798
17706	16.794	4.7273	0.	-49.303
17707	16.703	4.7273	5.e-002	-1.9027e-006
17708	16.703	5.	0.	-26.272
17709	16.794	4.9091	0.	-33.557
17710	16.703	4.9091	5.e-002	3.8128e-007
17711	16.703	5.1818	0.	-13.092
17712	16.794	5.0909	0.	-19.682
17713	16.703	5.0909	5.e-002	5.2466e-006
17714	16.703	5.3636	0.	-2.9615
17715	16.794	5.2727	0.	-8.2286
17716	16.703	5.2727	5.e-002	5.3164e-006
17717	16.703	5.5455	0.	-0.12843
17718	16.794	5.4545	0.	-0.60992
17719	16.703	5.4545	5.e-002	6.3452e-006
17720	16.703	5.7273	0.	-2.9867e-002
17721	16.794	5.6364	0.	-5.4261e-002
17722	16.703	5.6364	5.e-002	6.0355e-006
17723	16.794	5.8182	0.	-1.0223e-002
17724	16.703	5.8182	5.e-002	2.7799e-006
17725	16.703	5.9091	0.	5.0308e-002
17726	16.885	0.27273	0.	-2.6456e-002
17727	16.977	0.18182	0.	-1.2536e-002
17728	16.885	0.18182	5.e-002	3.7621e-006
17729	16.885	9.0909e-002	0.	4.7045e-002
17730	16.885	0.45455	0.	-0.16555
17731	16.977	0.36364	0.	-4.7766e-002
17732	16.885	0.36364	5.e-002	5.7352e-006
17733	16.885	0.63636	0.	-5.0468
17734	16.977	0.54545	0.	-1.7767
17735	16.885	0.54545	5.e-002	2.5479e-006
17736	16.885	0.81818	0.	-14.813
17737	16.977	0.72727	0.	-9.9767
17738	16.885	0.72727	5.e-002	6.5476e-006
17739	16.885	1.	0.	-26.979
17740	16.977	0.90909	0.	-20.658
17741	16.885	0.90909	5.e-002	9.1103e-006
17742	16.885	1.1818	0.	-41.076
17743	16.977	1.0909	0.	-33.323
17744	16.885	1.0909	5.e-002	5.4509e-006
17745	16.885	1.3636	0.	-56.573
17746	16.977	1.2727	0.	-47.519
17747	16.885	1.2727	5.e-002	1.1786e-005
17748	16.885	1.5455	0.	-72.862
17749	16.977	1.4545	0.	-62.716
17750	16.885	1.4545	5.e-002	5.55e-006
17751	16.885	1.7273	0.	-89.287
17752	16.977	1.6364	0.	-78.323
17753	16.885	1.6364	5.e-002	7.6374e-006
17754	16.885	1.9091	0.	-105.17
17755	16.977	1.8182	0.	-93.717
17756	16.885	1.8182	5.e-002	1.1148e-005
17757	16.885	2.0909	0.	-119.86
17758	16.977	2.	0.	-108.27
17759	16.885	2.	5.e-002	1.2544e-005
17760	16.885	2.2727	0.	-132.75
17761	16.977	2.1818	0.	-121.39
17762	16.885	2.1818	5.e-002	1.0823e-005
17763	16.885	2.4545	0.	-143.32
17764	16.977	2.3636	0.	-132.56
17765	16.885	2.3636	5.e-002	7.4863e-006
17766	16.885	2.6364	0.	-151.17
17767	16.977	2.5455	0.	-141.32
17768	16.885	2.5455	5.e-002	7.252e-006
17769	16.885	2.8182	0.	-156.
17770	16.977	2.7273	0.	-147.36
17771	16.885	2.7273	5.e-002	8.3589e-006
17772	16.885	3.	0.	-157.62
17773	16.977	2.9091	0.	-150.43
17774	16.885	2.9091	5.e-002	7.2147e-006
17775	16.885	3.1818	0.	-156.
17776	16.977	3.0909	0.	-150.43
17777	16.885	3.0909	5.e-002	7.9851e-006
17778	16.885	3.3636	0.	-151.17
17779	16.977	3.2727	0.	-147.36
17780	16.885	3.2727	5.e-002	3.1381e-006
17781	16.885	3.5455	0.	-143.32
17782	16.977	3.4545	0.	-141.32
17783	16.885	3.4545	5.e-002	6.2105e-006
17784	16.885	3.7273	0.	-132.75
17785	16.977	3.6364	0.	-132.56
17786	16.885	3.6364	5.e-002	4.8263e-006
17787	16.885	3.9091	0.	-119.86
17788	16.977	3.8182	0.	-121.39
17789	16.885	3.8182	5.e-002	5.0894e-006
17790	16.885	4.0909	0.	-105.17
17791	16.977	4.	0.	-108.27
17792	16.885	4.	5.e-002	5.5224e-006
17793	16.885	4.2727	0.	-89.287
17794	16.977	4.1818	0.	-93.716
17795	16.885	4.1818	5.e-002	-8.4771e-007
17796	16.885	4.4545	0.	-72.862
17797	16.977	4.3636	0.	-78.323
17798	16.885	4.3636	5.e-002	6.6409e-006
17799	16.885	4.6364	0.	-56.573
17800	16.977	4.5455	0.	-62.716
17801	16.885	4.5455	5.e-002	5.5979e-007
17802	16.885	4.8182	0.	-41.076
17803	16.977	4.7273	0.	-47.519
17804	16.885	4.7273	5.e-002	4.2627e-006
17805	16.885	5.	0.	-26.979
17806	16.977	4.9091	0.	-33.323
17807	16.885	4.9091	5.e-002	1.1362e-005
17808	16.885	5.1818	0.	-14.813
17809	16.977	5.0909	0.	-20.658
17810	16.885	5.0909	5.e-002	1.0439e-006
17811	16.885	5.3636	0.	-5.0468
17812	16.977	5.2727	0.	-9.9767
17813	16.885	5.2727	5.e-002	6.58e-006
17814	16.885	5.5455	0.	-0.16555
17815	16.977	5.4545	0.	-1.7767
17816	16.885	5.4545	5.e-002	5.1701e-006
17817	16.885	5.7273	0.	-2.6456e-002
17818	16.977	5.6364	0.	-4.7765e-002
17819	16.885	5.6364	5.e-002	5.4846e-006
17820	16.977	5.8182	0.	-1.2537e-002
17821	16.885	5.8182	5.e-002	-3.92e-006
17822	16.885	5.9091	0.	4.7046e-002
17823	17.068	0.27273	0.	-2.3488e-002
17824	17.159	0.18182	0.	-1.4248e-002
17825	17.068	0.18182	5.e-002	2.9763e-005
17826	17.068	9.0909e-002	0.	4.1877e-002
17827	17.068	0.45455	0.	-0.30948
17828	17.159	0.36364	0.	-4.299e-002
17829	17.068	0.36364	5.e-002	3.0712e-006
17830	17.068	0.63636	0.	-6.5982
17831	17.159	0.54545	0.	-3.093
17832	17.068	0.54545	5.e-002	6.4048e-006
17833	17.068	0.81818	0.	-15.837
17834	17.159	0.72727	0.	-11.07
17835	17.068	0.72727	5.e-002	8.0506e-006
17836	17.068	1.	0.	-27.023
17837	17.159	0.90909	0.	-20.982
17838	17.068	0.90909	5.e-002	1.2967e-005
17839	17.068	1.1818	0.	-39.786
17840	17.159	1.0909	0.	-32.51
17841	17.068	1.0909	5.e-002	1.1125e-005
17842	17.068	1.3636	0.	-53.68
17843	17.159	1.2727	0.	-45.277
17844	17.068	1.2727	5.e-002	6.7273e-006
17845	17.068	1.5455	0.	-68.192
17846	17.159	1.4545	0.	-58.838
17847	17.068	1.4545	5.e-002	1.2265e-005
17848	17.068	1.7273	0.	-82.765
17849	17.159	1.6364	0.	-72.692
17850	17.068	1.6364	5.e-002	9.54e-006
17851	17.068	1.9091	0.	-96.825
17852	17.159	1.8182	0.	-86.311
17853	17.068	1.8182	5.e-002	1.0671e-005
17854	17.068	2.0909	0.	-109.81
17855	17.159	2.	0.	-99.164
17856	17.068	2.	5.e-002	1.123e-005
17857	17.068	2.2727	0.	-121.21
17858	17.159	2.1818	0.	-110.75
17859	17.068	2.1818	5.e-002	1.0326e-005
17860	17.068	2.4545	0.	-130.57
17861	17.159	2.3636	0.	-120.6
17862	17.068	2.3636	5.e-002	1.0021e-005
17863	17.068	2.6364	0.	-137.52
17864	17.159	2.5455	0.	-128.34
17865	17.068	2.5455	5.e-002	7.8355e-006
17866	17.068	2.8182	0.	-141.79
17867	17.159	2.7273	0.	-133.67
17868	17.068	2.7273	5.e-002	5.8306e-006
17869	17.068	3.	0.	-143.24
17870	17.159	2.9091	0.	-136.39
17871	17.068	2.9091	5.e-002	8.9361e-006
17872	17.068	3.1818	0.	-141.79
17873	17.159	3.0909	0.	-136.39
17874	17.068	3.0909	5.e-002	8.2285e-006
17875	17.068	3.3636	0.	-137.52
17876	17.159	3.2727	0.	-133.67
17877	17.068	3.2727	5.e-002	7.5464e-006
17878	17.068	3.5455	0.	-130.57
17879	17.159	3.4545	0.	-128.34
17880	17.068	3.4545	5.e-002	7.3822e-006
17881	17.068	3.7273	0.	-121.21
17882	17.159	3.6364	0.	-120.6
17883	17.068	3.6364	5.e-002	6.6022e-006
17884	17.068	3.9091	0.	-109.81
17885	17.159	3.8182	0.	-110.75
17886	17.068	3.8182	5.e-002	4.8191e-006
17887	17.068	4.0909	0.	-96.825
17888	17.159	4.	0.	-99.164
17889	17.068	4.	5.e-002	5.0535e-006
17890	17.068	4.2727	0.	-82.765
17891	17.159	4.1818	0.	-86.311
17892	17.068	4.1818	5.e-002	-2.1226e-007
17893	17.068	4.4545	0.	-68.192
17894	17.159	4.3636	0.	-72.692
17895	17.068	4.3636	5.e-002	1.403e-006
17896	17.068	4.6364	0.	-53.68
17897	17.159	4.5455	0.	-58.838
17898	17.068	4.5455	5.e-002	2.2545e-006
17899	17.068	4.8182	0.	-39.786
17900	17.159	4.7273	0.	-45.277
17901	17.068	4.7273	5.e-002	9.2029e-006
17902	17.068	5.	0.	-27.023
17903	17.159	4.9091	0.	-32.509
17904	17.068	4.9091	5.e-002	5.1383e-006
17905	17.068	5.1818	0.	-15.837
17906	17.159	5.0909	0.	-20.982
17907	17.068	5.0909	5.e-002	2.0521e-006
17908	17.068	5.3636	0.	-6.5982
17909	17.159	5.2727	0.	-11.07
17910	17.068	5.2727	5.e-002	7.7698e-006
17911	17.068	5.5455	0.	-0.30948
17912	17.159	5.4545	0.	-3.093
17913	17.068	5.4545	5.e-002	7.3498e-006
17914	17.068	5.7273	0.	-2.3487e-002
17915	17.159	5.6364	0.	-4.2989e-002
17916	17.068	5.6364	5.e-002	5.0004e-006
17917	17.159	5.8182	0.	-1.4248e-002
17918	17.068	5.8182	5.e-002	-1.4372e-005
17919	17.068	5.9091	0.	4.1875e-002
17920	17.25	0.27273	0.	-2.0306e-002
17921	17.342	0.18182	0.	-1.5138e-002
17922	17.25	0.18182	5.e-002	5.2731e-006
17923	17.25	9.0909e-002	0.	3.5466e-002
17924	17.25	0.45455	0.	-0.80497
17925	17.342	0.36364	0.	-3.7482e-002
17926	17.25	0.36364	5.e-002	6.7416e-006
17927	17.25	0.63636	0.	-7.5607
17928	17.342	0.54545	0.	-3.9577
17929	17.25	0.54545	5.e-002	6.0538e-006
17930	17.25	0.81818	0.	-16.238
17931	17.342	0.72727	0.	-11.573
17932	17.25	0.72727	5.e-002	7.8971e-006
17933	17.25	1.	0.	-26.493
17934	17.342	0.90909	0.	-20.737
17935	17.25	0.90909	5.e-002	7.4508e-006
17936	17.25	1.1818	0.	-38.023
17937	17.342	1.0909	0.	-31.205
17938	17.25	1.0909	5.e-002	7.9315e-006
17939	17.25	1.3636	0.	-50.454
17940	17.342	1.2727	0.	-42.665
17941	17.25	1.2727	5.e-002	6.7189e-006
17942	17.25	1.5455	0.	-63.354
17943	17.342	1.4545	0.	-54.741
17944	17.25	1.4545	5.e-002	7.0783e-006
17945	17.25	1.7273	0.	-76.251
17946	17.342	1.6364	0.	-67.011
17947	17.25	1.6364	5.e-002	9.0844e-006
17948	17.25	1.9091	0.	-88.66
17949	17.342	1.8182	0.	-79.03
17950	17.25	1.8182	5.e-002	7.224e-006
17951	17.25	2.0909	0.	-100.1
17952	17.342	2.	0.	-90.346
17953	17.25	2.	5.e-002	7.1795e-006
17954	17.25	2.2727	0.	-110.14
17955	17.342	2.1818	0.	-100.53
17956	17.25	2.1818	5.e-002	9.5405e-006
17957	17.25	2.4545	0.	-118.38
17958	17.342	2.3636	0.	-109.19
17959	17.25	2.3636	5.e-002	8.4063e-006
17960	17.25	2.6364	0.	-124.5
17961	17.342	2.5455	0.	-115.99
17962	17.25	2.5455	5.e-002	1.0623e-005
17963	17.25	2.8182	0.	-128.27
17964	17.342	2.7273	0.	-120.68
17965	17.25	2.7273	5.e-002	4.93e-006
17966	17.25	3.	0.	-129.54
17967	17.342	2.9091	0.	-123.07
17968	17.25	2.9091	5.e-002	8.6725e-006
17969	17.25	3.1818	0.	-128.27
17970	17.342	3.0909	0.	-123.07
17971	17.25	3.0909	5.e-002	6.5952e-006
17972	17.25	3.3636	0.	-124.5
17973	17.342	3.2727	0.	-120.68
17974	17.25	3.2727	5.e-002	5.6117e-006
17975	17.25	3.5455	0.	-118.38
17976	17.342	3.4545	0.	-115.99
17977	17.25	3.4545	5.e-002	6.985e-006
17978	17.25	3.7273	0.	-110.14
17979	17.342	3.6364	0.	-109.19
17980	17.25	3.6364	5.e-002	6.9713e-006
17981	17.25	3.9091	0.	-100.1
17982	17.342	3.8182	0.	-100.53
17983	17.25	3.8182	5.e-002	6.1023e-006
17984	17.25	4.0909	0.	-88.66
17985	17.342	4.	0.	-90.346
17986	17.25	4.	5.e-002	6.4808e-006
17987	17.25	4.2727	0.	-76.251
17988	17.342	4.1818	0.	-79.03
17989	17.25	4.1818	5.e-002	4.5786e-006
17990	17.25	4.4545	0.	-63.354
17991	17.342	4.3636	0.	-67.011
17992	17.25	4.3636	5.e-002	5.1149e-006
17993	17.25	4.6364	0.	-50.454
17994	17.342	4.5455	0.	-54.741
17995	17.25	4.5455	5.e-002	7.076e-006
17996	17.25	4.8182	0.	-38.023
17997	17.342	4.7273	0.	-42.665
17998	17.25	4.7273	5.e-002	7.2768e-006
17999	17.25	5.	0.	-26.493
18000	17.342	4.9091	0.	-31.205
18001	17.25	4.9091	5.e-002	6.0908e-006
18002	17.25	5.1818	0.	-16.238
18003	17.342	5.0909	0.	-20.736
18004	17.25	5.0909	5.e-002	4.4454e-006
18005	17.25	5.3636	0.	-7.5607
18006	17.342	5.2727	0.	-11.573
18007	17.25	5.2727	5.e-002	4.4854e-006
18008	17.25	5.5455	0.	-0.80498
18009	17.342	5.4545	0.	-3.9577
18010	17.25	5.4545	5.e-002	6.9442e-006
18011	17.25	5.7273	0.	-2.0305e-002
18012	17.342	5.6364	0.	-3.7483e-002
18013	17.25	5.6364	5.e-002	6.6587e-006
18014	17.342	5.8182	0.	-1.5136e-002
18015	17.25	5.8182	5.e-002	-1.8845e-005
18016	17.25	5.9091	0.	3.5467e-002
18017	17.433	0.27273	0.	-1.6391e-002
18018	17.524	0.18182	0.	-1.5108e-002
18019	17.433	0.18182	5.e-002	9.8572e-006
18020	17.433	9.0909e-002	0.	2.8709e-002
18021	17.433	0.45455	0.	-1.3336
18022	17.524	0.36364	0.	-2.7685e-002
18023	17.433	0.36364	5.e-002	6.9626e-006
18024	17.433	0.63636	0.	-7.9864
18025	17.524	0.54545	0.	-4.3493
18026	17.433	0.54545	5.e-002	7.8114e-006
18027	17.433	0.81818	0.	-16.097
18028	17.524	0.72727	0.	-11.559
18029	17.433	0.72727	5.e-002	5.5197e-006
18030	17.433	1.	0.	-25.474
18031	17.524	0.90909	0.	-20.004
18032	17.433	0.90909	5.e-002	6.4858e-006
18033	17.433	1.1818	0.	-35.87
18034	17.524	1.0909	0.	-29.49
18035	17.433	1.0909	5.e-002	7.6573e-006
18036	17.433	1.3636	0.	-46.972
18037	17.524	1.2727	0.	-39.757
18038	17.433	1.2727	5.e-002	7.1371e-006
18039	17.433	1.5455	0.	-58.415
18040	17.524	1.4545	0.	-50.49
18041	17.433	1.4545	5.e-002	8.1244e-006
18042	17.433	1.7273	0.	-69.804
18043	17.524	1.6364	0.	-61.336
18044	17.433	1.6364	5.e-002	9.7032e-006
18045	17.433	1.9091	0.	-80.727
18046	17.524	1.8182	0.	-71.917
18047	17.433	1.8182	5.e-002	7.4589e-006
18048	17.433	2.0909	0.	-90.781
18049	17.524	2.	0.	-81.854
18050	17.433	2.	5.e-002	9.9401e-006
18051	17.433	2.2727	0.	-99.587
18052	17.524	2.1818	0.	-90.781
18053	17.433	2.1818	5.e-002	8.797e-006
18054	17.433	2.4545	0.	-106.81
18055	17.524	2.3636	0.	-98.365
18056	17.433	2.3636	5.e-002	9.9336e-006
18057	17.433	2.6364	0.	-112.18
18058	17.524	2.5455	0.	-104.32
18059	17.433	2.5455	5.e-002	9.6346e-006
18060	17.433	2.8182	0.	-115.48
18061	17.524	2.7273	0.	-108.42
18062	17.433	2.7273	5.e-002	1.e-005
18063	17.433	3.	0.	-116.6
18064	17.524	2.9091	0.	-110.51
18065	17.433	2.9091	5.e-002	9.4013e-006
18066	17.433	3.1818	0.	-115.48
18067	17.524	3.0909	0.	-110.51
18068	17.433	3.0909	5.e-002	7.7725e-006
18069	17.433	3.3636	0.	-112.18
18070	17.524	3.2727	0.	-108.42
18071	17.433	3.2727	5.e-002	8.1998e-006
18072	17.433	3.5455	0.	-106.81
18073	17.524	3.4545	0.	-104.32
18074	17.433	3.4545	5.e-002	7.7627e-006
18075	17.433	3.7273	0.	-99.587
18076	17.524	3.6364	0.	-98.365
18077	17.433	3.6364	5.e-002	7.3466e-006
18078	17.433	3.9091	0.	-90.781
18079	17.524	3.8182	0.	-90.781
18080	17.433	3.8182	5.e-002	7.7029e-006
18081	17.433	4.0909	0.	-80.727
18082	17.524	4.	0.	-81.854
18083	17.433	4.	5.e-002	8.6034e-006
18084	17.433	4.2727	0.	-69.804
18085	17.524	4.1818	0.	-71.917
18086	17.433	4.1818	5.e-002	5.7579e-006
18087	17.433	4.4545	0.	-58.415
18088	17.524	4.3636	0.	-61.336
18089	17.433	4.3636	5.e-002	7.4407e-006
18090	17.433	4.6364	0.	-46.972
18091	17.524	4.5455	0.	-50.49
18092	17.433	4.5455	5.e-002	9.1701e-006
18093	17.433	4.8182	0.	-35.87
18094	17.524	4.7273	0.	-39.757
18095	17.433	4.7273	5.e-002	9.7351e-006
18096	17.433	5.	0.	-25.474
18097	17.524	4.9091	0.	-29.49
18098	17.433	4.9091	5.e-002	1.0597e-005
18099	17.433	5.1818	0.	-16.097
18100	17.524	5.0909	0.	-20.004
18101	17.433	5.0909	5.e-002	8.2299e-006
18102	17.433	5.3636	0.	-7.9864
18103	17.524	5.2727	0.	-11.559
18104	17.433	5.2727	5.e-002	7.3873e-006
18105	17.433	5.5455	0.	-1.3336
18106	17.524	5.4545	0.	-4.3493
18107	17.433	5.4545	5.e-002	8.1148e-006
18108	17.433	5.7273	0.	-1.639e-002
18109	17.524	5.6364	0.	-2.7686e-002
18110	17.433	5.6364	5.e-002	7.8155e-006
18111	17.524	5.8182	0.	-1.5108e-002
18112	17.433	5.8182	5.e-002	1.102e-006
18113	17.433	5.9091	0.	2.8709e-002
18114	17.615	0.27273	0.	-1.1818e-002
18115	17.706	0.18182	0.	-1.428e-002
18116	17.615	0.18182	5.e-002	6.9259e-006
18117	17.615	9.0909e-002	0.	2.2335e-002
18118	17.615	0.45455	0.	-1.5336
18119	17.706	0.36364	0.	-1.2791e-002
18120	17.615	0.36364	5.e-002	5.3406e-006
18121	17.615	0.63636	0.	-7.9446
18122	17.706	0.54545	0.	-4.3214
18123	17.615	0.54545	5.e-002	8.17e-006
18124	17.615	0.81818	0.	-15.492
18125	17.706	0.72727	0.	-11.103
18126	17.615	0.72727	5.e-002	5.6341e-006
18127	17.615	1.	0.	-24.045
18128	17.706	0.90909	0.	-18.86
18129	17.615	0.90909	5.e-002	7.7301e-006
18130	17.615	1.1818	0.	-33.4
18131	17.706	1.0909	0.	-27.437
18132	17.615	1.0909	5.e-002	7.4813e-006
18133	17.615	1.3636	0.	-43.296
18134	17.706	1.2727	0.	-36.617
18135	17.615	1.2727	5.e-002	8.0923e-006
18136	17.615	1.5455	0.	-53.428
18137	17.706	1.4545	0.	-46.139
18138	17.615	1.4545	5.e-002	7.3938e-006
18139	17.615	1.7273	0.	-63.463
18140	17.706	1.6364	0.	-55.705
18141	17.615	1.6364	5.e-002	8.3189e-006
18142	17.615	1.9091	0.	-73.055
18143	17.706	1.8182	0.	-65.
18144	17.615	1.8182	5.e-002	9.7915e-006
18145	17.615	2.0909	0.	-81.863
18146	17.706	2.	0.	-73.704
18147	17.615	2.	5.e-002	8.9307e-006
18148	17.615	2.2727	0.	-89.566
18149	17.706	2.1818	0.	-81.507
18150	17.615	2.1818	5.e-002	9.8947e-006
18151	17.615	2.4545	0.	-95.879
18152	17.706	2.3636	0.	-88.127
18153	17.615	2.3636	5.e-002	8.851e-006
18154	17.615	2.6364	0.	-100.57
18155	17.706	2.5455	0.	-93.32
18156	17.615	2.5455	5.e-002	8.78e-006
18157	17.615	2.8182	0.	-103.45
18158	17.706	2.7273	0.	-96.893
18159	17.615	2.7273	5.e-002	7.649e-006
18160	17.615	3.	0.	-104.42
18161	17.706	2.9091	0.	-98.714
18162	17.615	2.9091	5.e-002	9.2284e-006
18163	17.615	3.1818	0.	-103.45
18164	17.706	3.0909	0.	-98.714
18165	17.615	3.0909	5.e-002	7.9298e-006
18166	17.615	3.3636	0.	-100.57
18167	17.706	3.2727	0.	-96.893
18168	17.615	3.2727	5.e-002	6.7757e-006
18169	17.615	3.5455	0.	-95.879
18170	17.706	3.4545	0.	-93.32
18171	17.615	3.4545	5.e-002	7.6952e-006
18172	17.615	3.7273	0.	-89.566
18173	17.706	3.6364	0.	-88.127
18174	17.615	3.6364	5.e-002	9.8609e-006
18175	17.615	3.9091	0.	-81.863
18176	17.706	3.8182	0.	-81.507
18177	17.615	3.8182	5.e-002	9.4819e-006
18178	17.615	4.0909	0.	-73.055
18179	17.706	4.	0.	-73.704
18180	17.615	4.	5.e-002	7.8221e-006
18181	17.615	4.2727	0.	-63.463
18182	17.706	4.1818	0.	-65.
18183	17.615	4.1818	5.e-002	6.6502e-006
18184	17.615	4.4545	0.	-53.428
18185	17.706	4.3636	0.	-55.705
18186	17.615	4.3636	5.e-002	9.2109e-006
18187	17.615	4.6364	0.	-43.296
18188	17.706	4.5455	0.	-46.139
18189	17.615	4.5455	5.e-002	8.9832e-006
18190	17.615	4.8182	0.	-33.4
18191	17.706	4.7273	0.	-36.617
18192	17.615	4.7273	5.e-002	9.1907e-006
18193	17.615	5.	0.	-24.045
18194	17.706	4.9091	0.	-27.437
18195	17.615	4.9091	5.e-002	8.6166e-006
18196	17.615	5.1818	0.	-15.492
18197	17.706	5.0909	0.	-18.86
18198	17.615	5.0909	5.e-002	7.6652e-006
18199	17.615	5.3636	0.	-7.9445
18200	17.706	5.2727	0.	-11.103
18201	17.615	5.2727	5.e-002	8.6417e-006
18202	17.615	5.5455	0.	-1.5337
18203	17.706	5.4545	0.	-4.3214
18204	17.615	5.4545	5.e-002	7.5028e-006
18205	17.615	5.7273	0.	-1.1819e-002
18206	17.706	5.6364	0.	-1.2791e-002
18207	17.615	5.6364	5.e-002	7.5073e-006
18208	17.706	5.8182	0.	-1.4279e-002
18209	17.615	5.8182	5.e-002	2.4249e-006
18210	17.615	5.9091	0.	2.2337e-002
18211	17.798	0.27273	0.	-7.1821e-003
18212	17.889	0.18182	0.	-1.288e-002
18213	17.798	0.18182	5.e-002	3.7134e-006
18214	17.798	9.0909e-002	0.	1.6837e-002
18215	17.798	0.45455	0.	-1.394
18216	17.889	0.36364	0.	1.609e-003
18217	17.798	0.36364	5.e-002	3.4013e-006
18218	17.798	0.63636	0.	-7.505
18219	17.889	0.54545	0.	-3.9357
18220	17.798	0.54545	5.e-002	5.3663e-006
18221	17.798	0.81818	0.	-14.498
18222	17.889	0.72727	0.	-10.275
18223	17.798	0.72727	5.e-002	4.3651e-006
18224	17.798	1.	0.	-22.277
18225	17.889	0.90909	0.	-17.376
18226	17.798	0.90909	5.e-002	4.651e-006
18227	17.798	1.1818	0.	-30.677
18228	17.889	1.0909	0.	-25.11
18229	17.798	1.0909	5.e-002	5.0663e-006
18230	17.798	1.3636	0.	-39.48
18231	17.889	1.2727	0.	-33.301
18232	17.798	1.2727	5.e-002	6.6232e-006
18233	17.798	1.5455	0.	-48.433
18234	17.889	1.4545	0.	-41.729
18235	17.798	1.4545	5.e-002	6.3487e-006
18236	17.798	1.7273	0.	-57.256
18237	17.889	1.6364	0.	-50.149
18238	17.798	1.6364	5.e-002	6.6753e-006
18239	17.798	1.9091	0.	-65.66
18240	17.889	1.8182	0.	-58.295
18241	17.798	1.8182	5.e-002	8.0447e-006
18242	17.798	2.0909	0.	-73.356
18243	17.889	2.	0.	-65.898
18244	17.798	2.	5.e-002	7.3173e-006
18245	17.798	2.2727	0.	-80.075
18246	17.889	2.1818	0.	-72.7
18247	17.798	2.1818	5.e-002	7.6826e-006
18248	17.798	2.4545	0.	-85.574
18249	17.889	2.3636	0.	-78.461
18250	17.798	2.3636	5.e-002	7.044e-006
18251	17.798	2.6364	0.	-89.653
18252	17.889	2.5455	0.	-82.976
18253	17.798	2.5455	5.e-002	8.1774e-006
18254	17.798	2.8182	0.	-92.162
18255	17.889	2.7273	0.	-86.08
18256	17.798	2.7273	5.e-002	6.2903e-006
18257	17.798	3.	0.	-93.009
18258	17.889	2.9091	0.	-87.662
18259	17.798	2.9091	5.e-002	6.235e-006
18260	17.798	3.1818	0.	-92.162
18261	17.889	3.0909	0.	-87.662
18262	17.798	3.0909	5.e-002	7.127e-006
18263	17.798	3.3636	0.	-89.653
18264	17.889	3.2727	0.	-86.08
18265	17.798	3.2727	5.e-002	7.1074e-006
18266	17.798	3.5455	0.	-85.573
18267	17.889	3.4545	0.	-82.976
18268	17.798	3.4545	5.e-002	7.3557e-006
18269	17.798	3.7273	0.	-80.075
18270	17.889	3.6364	0.	-78.461
18271	17.798	3.6364	5.e-002	8.573e-006
18272	17.798	3.9091	0.	-73.356
18273	17.889	3.8182	0.	-72.7
18274	17.798	3.8182	5.e-002	9.6485e-006
18275	17.798	4.0909	0.	-65.66
18276	17.889	4.	0.	-65.898
18277	17.798	4.	5.e-002	6.9998e-006
18278	17.798	4.2727	0.	-57.256
18279	17.889	4.1818	0.	-58.295
18280	17.798	4.1818	5.e-002	6.5914e-006
18281	17.798	4.4545	0.	-48.433
18282	17.889	4.3636	0.	-50.149
18283	17.798	4.3636	5.e-002	7.7035e-006
18284	17.798	4.6364	0.	-39.48
18285	17.889	4.5455	0.	-41.729
18286	17.798	4.5455	5.e-002	7.3806e-006
18287	17.798	4.8182	0.	-30.677
18288	17.889	4.7273	0.	-33.301
18289	17.798	4.7273	5.e-002	7.0381e-006
18290	17.798	5.	0.	-22.277
18291	17.889	4.9091	0.	-25.11
18292	17.798	4.9091	5.e-002	6.8658e-006
18293	17.798	5.1818	0.	-14.498
18294	17.889	5.0909	0.	-17.376
18295	17.798	5.0909	5.e-002	5.3864e-006
18296	17.798	5.3636	0.	-7.505
18297	17.889	5.2727	0.	-10.275
18298	17.798	5.2727	5.e-002	6.5049e-006
18299	17.798	5.5455	0.	-1.394
18300	17.889	5.4545	0.	-3.9357
18301	17.798	5.4545	5.e-002	5.9026e-006
18302	17.798	5.7273	0.	-7.181e-003
18303	17.889	5.6364	0.	1.61e-003
18304	17.798	5.6364	5.e-002	6.1636e-006
18305	17.889	5.8182	0.	-1.2879e-002
18306	17.798	5.8182	5.e-002	2.1786e-006
18307	17.798	5.9091	0.	1.6836e-002
18308	17.98	0.27273	0.	-3.1455e-003
18309	18.071	0.18182	0.	-1.1173e-002
18310	17.98	0.18182	5.e-002	6.1825e-006
18311	17.98	9.0909e-002	0.	1.2437e-002
18312	17.98	0.45455	0.	-0.95931
18313	18.071	0.36364	0.	1.0356e-002
18314	17.98	0.36364	5.e-002	3.4762e-006
18315	17.98	0.63636	0.	-6.7327
18316	18.071	0.54545	0.	-3.2508
18317	17.98	0.54545	5.e-002	5.7982e-006
18318	17.98	0.81818	0.	-13.18
18319	18.071	0.72727	0.	-9.1409
18320	17.98	0.72727	5.e-002	7.1596e-006
18321	17.98	1.	0.	-20.234
18322	18.071	0.90909	0.	-15.613
18323	17.98	0.90909	5.e-002	6.9738e-006
18324	17.98	1.1818	0.	-27.756
18325	18.071	1.0909	0.	-22.566
18326	17.98	1.0909	5.e-002	7.8332e-006
18327	17.98	1.3636	0.	-35.569
18328	18.071	1.2727	0.	-29.854
18329	17.98	1.2727	5.e-002	8.9224e-006
18330	17.98	1.5455	0.	-43.462
18331	18.071	1.4545	0.	-37.296
18332	17.98	1.4545	5.e-002	8.7183e-006
18333	17.98	1.7273	0.	-51.201
18334	18.071	1.6364	0.	-44.687
18335	17.98	1.6364	5.e-002	1.0153e-005
18336	17.98	1.9091	0.	-58.545
18337	18.071	1.8182	0.	-51.807
18338	17.98	1.8182	5.e-002	8.9018e-006
18339	17.98	2.0909	0.	-65.252
18340	18.071	2.	0.	-58.432
18341	17.98	2.	5.e-002	1.0067e-005
18342	17.98	2.2727	0.	-71.095
18343	18.071	2.1818	0.	-64.344
18344	17.98	2.1818	5.e-002	9.5791e-006
18345	17.98	2.4545	0.	-75.87
18346	18.071	2.3636	0.	-69.342
18347	17.98	2.3636	5.e-002	1.1185e-005
18348	17.98	2.6364	0.	-79.409
18349	18.071	2.5455	0.	-73.254
18350	17.98	2.5455	5.e-002	1.0439e-005
18351	17.98	2.8182	0.	-81.585
18352	18.071	2.7273	0.	-75.942
18353	17.98	2.7273	5.e-002	8.7845e-006
18354	17.98	3.	0.	-82.319
18355	18.071	2.9091	0.	-77.311
18356	17.98	2.9091	5.e-002	8.9754e-006
18357	17.98	3.1818	0.	-81.585
18358	18.071	3.0909	0.	-77.311
18359	17.98	3.0909	5.e-002	9.1511e-006
18360	17.98	3.3636	0.	-79.409
18361	18.071	3.2727	0.	-75.942
18362	17.98	3.2727	5.e-002	1.0347e-005
18363	17.98	3.5455	0.	-75.87
18364	18.071	3.4545	0.	-73.254
18365	17.98	3.4545	5.e-002	1.0709e-005
18366	17.98	3.7273	0.	-71.095
18367	18.071	3.6364	0.	-69.342
18368	17.98	3.6364	5.e-002	1.0311e-005
18369	17.98	3.9091	0.	-65.252
18370	18.071	3.8182	0.	-64.344
18371	17.98	3.8182	5.e-002	1.1664e-005
18372	17.98	4.0909	0.	-58.545
18373	18.071	4.	0.	-58.432
18374	17.98	4.	5.e-002	1.1022e-005
18375	17.98	4.2727	0.	-51.201
18376	18.071	4.1818	0.	-51.807
18377	17.98	4.1818	5.e-002	9.6419e-006
18378	17.98	4.4545	0.	-43.462
18379	18.071	4.3636	0.	-44.687
18380	17.98	4.3636	5.e-002	1.1507e-005
18381	17.98	4.6364	0.	-35.569
18382	18.071	4.5455	0.	-37.296
18383	17.98	4.5455	5.e-002	9.6087e-006
18384	17.98	4.8182	0.	-27.756
18385	18.071	4.7273	0.	-29.854
18386	17.98	4.7273	5.e-002	1.0949e-005
18387	17.98	5.	0.	-20.234
18388	18.071	4.9091	0.	-22.566
18389	17.98	4.9091	5.e-002	1.0134e-005
18390	17.98	5.1818	0.	-13.18
18391	18.071	5.0909	0.	-15.613
18392	17.98	5.0909	5.e-002	8.298e-006
18393	17.98	5.3636	0.	-6.7327
18394	18.071	5.2727	0.	-9.1409
18395	17.98	5.2727	5.e-002	8.3519e-006
18396	17.98	5.5455	0.	-0.95933
18397	18.071	5.4545	0.	-3.2508
18398	17.98	5.4545	5.e-002	8.628e-006
18399	17.98	5.7273	0.	-3.1442e-003
18400	18.071	5.6364	0.	1.0358e-002
18401	17.98	5.6364	5.e-002	8.194e-006
18402	18.071	5.8182	0.	-1.1171e-002
18403	17.98	5.8182	5.e-002	4.565e-006
18404	17.98	5.9091	0.	1.2438e-002
18405	18.162	0.27273	0.	-1.3402e-004
18406	18.254	0.18182	0.	-9.4002e-003
18407	18.162	0.18182	5.e-002	5.5017e-006
18408	18.162	9.0909e-002	0.	9.0969e-003
18409	18.162	0.45455	0.	-0.28615
18410	18.254	0.36364	0.	1.3799e-002
18411	18.162	0.36364	5.e-002	1.9218e-006
18412	18.162	0.63636	0.	-5.6863
18413	18.254	0.54545	0.	-2.3196
18414	18.162	0.54545	5.e-002	3.9015e-006
18415	18.162	0.81818	0.	-11.6
18416	18.254	0.72727	0.	-7.7558
18417	18.162	0.72727	5.e-002	5.3776e-006
18418	18.162	1.	0.	-17.97
18419	18.254	0.90909	0.	-13.627
18420	18.162	0.90909	5.e-002	5.9487e-006
18421	18.162	1.1818	0.	-24.686
18422	18.254	1.0909	0.	-19.854
18423	18.162	1.0909	5.e-002	7.0972e-006
18424	18.162	1.3636	0.	-31.6
18425	18.254	1.2727	0.	-26.316
18426	18.162	1.2727	5.e-002	7.3354e-006
18427	18.162	1.5455	0.	-38.538
18428	18.254	1.4545	0.	-32.866
18429	18.162	1.4545	5.e-002	8.2383e-006
18430	18.162	1.7273	0.	-45.308
18431	18.254	1.6364	0.	-39.334
18432	18.162	1.6364	5.e-002	8.5523e-006
18433	18.162	1.9091	0.	-51.706
18434	18.254	1.8182	0.	-45.538
18435	18.162	1.8182	5.e-002	8.7873e-006
18436	18.162	2.0909	0.	-57.534
18437	18.254	2.	0.	-51.291
18438	18.162	2.	5.e-002	8.9229e-006
18439	18.162	2.2727	0.	-62.599
18440	18.254	2.1818	0.	-56.412
18441	18.162	2.1818	5.e-002	9.529e-006
18442	18.162	2.4545	0.	-66.733
18443	18.254	2.3636	0.	-60.734
18444	18.162	2.3636	5.e-002	9.3467e-006
18445	18.162	2.6364	0.	-69.793
18446	18.254	2.5455	0.	-64.112
18447	18.162	2.5455	5.e-002	1.0098e-005
18448	18.162	2.8182	0.	-71.674
18449	18.254	2.7273	0.	-66.431
18450	18.162	2.7273	5.e-002	9.5004e-006
18451	18.162	3.	0.	-72.308
18452	18.254	2.9091	0.	-67.611
18453	18.162	2.9091	5.e-002	8.893e-006
18454	18.162	3.1818	0.	-71.674
18455	18.254	3.0909	0.	-67.611
18456	18.162	3.0909	5.e-002	8.2769e-006
18457	18.162	3.3636	0.	-69.793
18458	18.254	3.2727	0.	-66.431
18459	18.162	3.2727	5.e-002	1.0585e-005
18460	18.162	3.5455	0.	-66.733
18461	18.254	3.4545	0.	-64.112
18462	18.162	3.4545	5.e-002	9.11e-006
18463	18.162	3.7273	0.	-62.599
18464	18.254	3.6364	0.	-60.734
18465	18.162	3.6364	5.e-002	1.1665e-005
18466	18.162	3.9091	0.	-57.534
18467	18.254	3.8182	0.	-56.412
18468	18.162	3.8182	5.e-002	1.0059e-005
18469	18.162	4.0909	0.	-51.706
18470	18.254	4.	0.	-51.291
18471	18.162	4.	5.e-002	9.74e-006
18472	18.162	4.2727	0.	-45.308
18473	18.254	4.1818	0.	-45.538
18474	18.162	4.1818	5.e-002	9.6049e-006
18475	18.162	4.4545	0.	-38.538
18476	18.254	4.3636	0.	-39.334
18477	18.162	4.3636	5.e-002	9.9558e-006
18478	18.162	4.6364	0.	-31.6
18479	18.254	4.5455	0.	-32.866
18480	18.162	4.5455	5.e-002	8.3006e-006
18481	18.162	4.8182	0.	-24.686
18482	18.254	4.7273	0.	-26.316
18483	18.162	4.7273	5.e-002	9.0873e-006
18484	18.162	5.	0.	-17.97
18485	18.254	4.9091	0.	-19.854
18486	18.162	4.9091	5.e-002	8.8387e-006
18487	18.162	5.1818	0.	-11.6
18488	18.254	5.0909	0.	-13.627
18489	18.162	5.0909	5.e-002	7.1261e-006
18490	18.162	5.3636	0.	-5.6863
18491	18.254	5.2727	0.	-7.7558
18492	18.162	5.2727	5.e-002	8.1122e-006
18493	18.162	5.5455	0.	-0.28617
18494	18.254	5.4545	0.	-2.3196
18495	18.162	5.4545	5.e-002	7.4891e-006
18496	18.162	5.7273	0.	-1.3236e-004
18497	18.254	5.6364	0.	1.38e-002
18498	18.162	5.6364	5.e-002	7.1691e-006
18499	18.254	5.8182	0.	-9.3991e-003
18500	18.162	5.8182	5.e-002	3.1073e-006
18501	18.162	5.9091	0.	9.0972e-003
18502	18.345	0.27273	0.	1.786e-003
18503	18.436	0.18182	0.	-7.738e-003
18504	18.345	0.18182	5.e-002	5.0464e-006
18505	18.345	9.0909e-002	0.	6.6528e-003
18506	18.345	0.45455	0.	1.117e-002
18507	18.436	0.36364	0.	1.4119e-002
18508	18.345	0.36364	5.e-002	3.6136e-006
18509	18.345	0.63636	0.	-4.417
18510	18.436	0.54545	0.	-1.1886
18511	18.345	0.54545	5.e-002	4.2419e-006
18512	18.345	0.81818	0.	-9.8094
18513	18.436	0.72727	0.	-6.1692
18514	18.345	0.72727	5.e-002	5.2688e-006
18515	18.345	1.	0.	-15.535
18516	18.436	0.90909	0.	-11.465
18517	18.345	0.90909	5.e-002	7.1673e-006
18518	18.345	1.1818	0.	-21.506
18519	18.436	1.0909	0.	-17.014
18520	18.345	1.0909	5.e-002	8.5503e-006
18521	18.345	1.3636	0.	-27.602
18522	18.436	1.2727	0.	-22.719
18523	18.345	1.2727	5.e-002	7.7784e-006
18524	18.345	1.5455	0.	-33.679
18525	18.436	1.4545	0.	-28.46
18526	18.345	1.4545	5.e-002	7.4282e-006
18527	18.345	1.7273	0.	-39.579
18528	18.436	1.6364	0.	-34.098
18529	18.345	1.6364	5.e-002	8.8073e-006
18530	18.345	1.9091	0.	-45.135
18531	18.436	1.8182	0.	-39.482
18532	18.345	1.8182	5.e-002	8.6201e-006
18533	18.345	2.0909	0.	-50.18
18534	18.436	2.	0.	-44.458
18535	18.345	2.	5.e-002	9.1191e-006
18536	18.345	2.2727	0.	-54.556
18537	18.436	2.1818	0.	-48.876
18538	18.345	2.1818	5.e-002	8.6976e-006
18539	18.345	2.4545	0.	-58.121
18540	18.436	2.3636	0.	-52.598
18541	18.345	2.3636	5.e-002	9.9277e-006
18542	18.345	2.6364	0.	-60.757
18543	18.436	2.5455	0.	-55.503
18544	18.345	2.5455	5.e-002	9.6231e-006
18545	18.345	2.8182	0.	-62.376
18546	18.436	2.7273	0.	-57.495
18547	18.345	2.7273	5.e-002	8.7634e-006
18548	18.345	3.	0.	-62.922
18549	18.436	2.9091	0.	-58.508
18550	18.345	2.9091	5.e-002	1.0231e-005
18551	18.345	3.1818	0.	-62.376
18552	18.436	3.0909	0.	-58.508
18553	18.345	3.0909	5.e-002	8.3726e-006
18554	18.345	3.3636	0.	-60.757
18555	18.436	3.2727	0.	-57.495
18556	18.345	3.2727	5.e-002	9.8853e-006
18557	18.345	3.5455	0.	-58.121
18558	18.436	3.4545	0.	-55.503
18559	18.345	3.4545	5.e-002	9.5625e-006
18560	18.345	3.7273	0.	-54.556
18561	18.436	3.6364	0.	-52.598
18562	18.345	3.6364	5.e-002	1.0746e-005
18563	18.345	3.9091	0.	-50.18
18564	18.436	3.8182	0.	-48.876
18565	18.345	3.8182	5.e-002	1.108e-005
18566	18.345	4.0909	0.	-45.135
18567	18.436	4.	0.	-44.458
18568	18.345	4.	5.e-002	9.9918e-006
18569	18.345	4.2727	0.	-39.579
18570	18.436	4.1818	0.	-39.482
18571	18.345	4.1818	5.e-002	9.5015e-006
18572	18.345	4.4545	0.	-33.679
18573	18.436	4.3636	0.	-34.098
18574	18.345	4.3636	5.e-002	1.091e-005
18575	18.345	4.6364	0.	-27.602
18576	18.436	4.5455	0.	-28.46
18577	18.345	4.5455	5.e-002	9.593e-006
18578	18.345	4.8182	0.	-21.506
18579	18.436	4.7273	0.	-22.719
18580	18.345	4.7273	5.e-002	9.8256e-006
18581	18.345	5.	0.	-15.535
18582	18.436	4.9091	0.	-17.014
18583	18.345	4.9091	5.e-002	9.8725e-006
18584	18.345	5.1818	0.	-9.8094
18585	18.436	5.0909	0.	-11.465
18586	18.345	5.0909	5.e-002	7.7834e-006
18587	18.345	5.3636	0.	-4.417
18588	18.436	5.2727	0.	-6.1692
18589	18.345	5.2727	5.e-002	8.2136e-006
18590	18.345	5.5455	0.	1.117e-002
18591	18.436	5.4545	0.	-1.1886
18592	18.345	5.4545	5.e-002	8.2613e-006
18593	18.345	5.7273	0.	1.7861e-003
18594	18.436	5.6364	0.	1.412e-002
18595	18.345	5.6364	5.e-002	8.4937e-006
18596	18.436	5.8182	0.	-7.7376e-003
18597	18.345	5.8182	5.e-002	5.066e-006
18598	18.345	5.9091	0.	6.6541e-003
18599	18.527	0.27273	0.	2.7264e-003
18600	18.618	0.18182	0.	-6.2806e-003
18601	18.527	0.18182	5.e-002	4.55e-006
18602	18.527	9.0909e-002	0.	4.8744e-003
18603	18.527	0.45455	0.	1.2556e-002
18604	18.618	0.36364	0.	1.2852e-002
18605	18.527	0.36364	5.e-002	3.9915e-006
18606	18.527	0.63636	0.	-2.9695
18607	18.618	0.54545	0.	2.995e-003
18608	18.527	0.54545	5.e-002	4.7056e-006
18609	18.527	0.81818	0.	-7.8518
18610	18.618	0.72727	0.	-4.4231
18611	18.527	0.72727	5.e-002	4.9155e-006
18612	18.527	1.	0.	-12.969
18613	18.618	0.90909	0.	-9.1665
18614	18.527	0.90909	5.e-002	6.5421e-006
18615	18.527	1.1818	0.	-18.25
18616	18.618	1.0909	0.	-14.081
18617	18.527	1.0909	5.e-002	7.3399e-006
18618	18.527	1.3636	0.	-23.598
18619	18.618	1.2727	0.	-19.089
18620	18.527	1.2727	5.e-002	6.6723e-006
18621	18.527	1.5455	0.	-28.896
18622	18.618	1.4545	0.	-24.093
18623	18.527	1.4545	5.e-002	7.0583e-006
18624	18.527	1.7273	0.	-34.015
18625	18.618	1.6364	0.	-28.981
18626	18.527	1.6364	5.e-002	7.5235e-006
18627	18.527	1.9091	0.	-38.817
18628	18.618	1.8182	0.	-33.629
18629	18.527	1.8182	5.e-002	8.0163e-006
18630	18.527	2.0909	0.	-43.165
18631	18.618	2.	0.	-37.91
18632	18.527	2.	5.e-002	7.0784e-006
18633	18.527	2.2727	0.	-46.928
18634	18.618	2.1818	0.	-41.702
18635	18.527	2.1818	5.e-002	8.0144e-006
18636	18.527	2.4545	0.	-49.988
18637	18.618	2.3636	0.	-44.89
18638	18.527	2.3636	5.e-002	8.7056e-006
18639	18.527	2.6364	0.	-52.249
18640	18.618	2.5455	0.	-47.376
18641	18.527	2.5455	5.e-002	8.9164e-006
18642	18.527	2.8182	0.	-53.636
18643	18.618	2.7273	0.	-49.079
18644	18.527	2.7273	5.e-002	7.6609e-006
18645	18.527	3.	0.	-54.103
18646	18.618	2.9091	0.	-49.944
18647	18.527	2.9091	5.e-002	8.7561e-006
18648	18.527	3.1818	0.	-53.636
18649	18.618	3.0909	0.	-49.944
18650	18.527	3.0909	5.e-002	7.9357e-006
18651	18.527	3.3636	0.	-52.249
18652	18.618	3.2727	0.	-49.079
18653	18.527	3.2727	5.e-002	8.579e-006
18654	18.527	3.5455	0.	-49.988
18655	18.618	3.4545	0.	-47.376
18656	18.527	3.4545	5.e-002	9.2638e-006
18657	18.527	3.7273	0.	-46.928
18658	18.618	3.6364	0.	-44.89
18659	18.527	3.6364	5.e-002	9.077e-006
18660	18.527	3.9091	0.	-43.165
18661	18.618	3.8182	0.	-41.702
18662	18.527	3.8182	5.e-002	9.3978e-006
18663	18.527	4.0909	0.	-38.817
18664	18.618	4.	0.	-37.91
18665	18.527	4.	5.e-002	8.361e-006
18666	18.527	4.2727	0.	-34.015
18667	18.618	4.1818	0.	-33.629
18668	18.527	4.1818	5.e-002	8.1282e-006
18669	18.527	4.4545	0.	-28.896
18670	18.618	4.3636	0.	-28.981
18671	18.527	4.3636	5.e-002	1.015e-005
18672	18.527	4.6364	0.	-23.598
18673	18.618	4.5455	0.	-24.093
18674	18.527	4.5455	5.e-002	7.7208e-006
18675	18.527	4.8182	0.	-18.249
18676	18.618	4.7273	0.	-19.089
18677	18.527	4.7273	5.e-002	8.5084e-006
18678	18.527	5.	0.	-12.969
18679	18.618	4.9091	0.	-14.081
18680	18.527	4.9091	5.e-002	8.5067e-006
18681	18.527	5.1818	0.	-7.8518
18682	18.618	5.0909	0.	-9.1665
18683	18.527	5.0909	5.e-002	7.0214e-006
18684	18.527	5.3636	0.	-2.9695
18685	18.618	5.2727	0.	-4.4231
18686	18.527	5.2727	5.e-002	7.217e-006
18687	18.527	5.5455	0.	1.2557e-002
18688	18.618	5.4545	0.	2.9938e-003
18689	18.527	5.4545	5.e-002	6.7352e-006
18690	18.527	5.7273	0.	2.728e-003
18691	18.618	5.6364	0.	1.2854e-002
18692	18.527	5.6364	5.e-002	7.2937e-006
18693	18.618	5.8182	0.	-6.28e-003
18694	18.527	5.8182	5.e-002	5.3119e-006
18695	18.527	5.9091	0.	4.8744e-003
18696	18.71	0.27273	0.	2.9131e-003
18697	18.801	0.18182	0.	-5.0422e-003
18698	18.71	0.18182	5.e-002	6.0834e-006
18699	18.71	9.0909e-002	0.	3.5848e-003
18700	18.71	0.45455	0.	1.0607e-002
18701	18.801	0.36364	0.	1.0814e-002
18702	18.71	0.36364	5.e-002	5.7964e-006
18703	18.71	0.63636	0.	-1.3825
18704	18.801	0.54545	0.	6.8857e-003
18705	18.71	0.54545	5.e-002	6.5007e-006
18706	18.71	0.81818	0.	-5.7651
18707	18.801	0.72727	0.	-2.5535
18708	18.71	0.72727	5.e-002	6.2654e-006
18709	18.71	1.	0.	-10.304
18710	18.801	0.90909	0.	-6.764
18711	18.71	0.90909	5.e-002	6.4275e-006
18712	18.71	1.1818	0.	-14.943
18713	18.801	1.0909	0.	-11.081
18714	18.71	1.0909	5.e-002	5.8685e-006
18715	18.71	1.3636	0.	-19.605
18716	18.801	1.2727	0.	-15.444
18717	18.71	1.2727	5.e-002	5.8697e-006
18718	18.71	1.5455	0.	-24.196
18719	18.801	1.4545	0.	-19.774
18720	18.71	1.4545	5.e-002	6.6444e-006
18721	18.71	1.7273	0.	-28.61
18722	18.801	1.6364	0.	-23.982
18723	18.71	1.6364	5.e-002	6.524e-006
18724	18.71	1.9091	0.	-32.735
18725	18.801	1.8182	0.	-27.966
18726	18.71	1.8182	5.e-002	6.2293e-006
18727	18.71	2.0909	0.	-36.46
18728	18.801	2.	0.	-31.624
18729	18.71	2.	5.e-002	6.9523e-006
18730	18.71	2.2727	0.	-39.676
18731	18.801	2.1818	0.	-34.857
18732	18.71	2.1818	5.e-002	7.7598e-006
18733	18.71	2.4545	0.	-42.288
18734	18.801	2.3636	0.	-37.569
18735	18.71	2.3636	5.e-002	7.562e-006
18736	18.71	2.6364	0.	-44.215
18737	18.801	2.5455	0.	-39.681
18738	18.71	2.5455	5.e-002	7.3617e-006
18739	18.71	2.8182	0.	-45.396
18740	18.801	2.7273	0.	-41.126
18741	18.71	2.7273	5.e-002	6.628e-006
18742	18.71	3.	0.	-45.794
18743	18.801	2.9091	0.	-41.861
18744	18.71	2.9091	5.e-002	6.8225e-006
18745	18.71	3.1818	0.	-45.396
18746	18.801	3.0909	0.	-41.861
18747	18.71	3.0909	5.e-002	6.5304e-006
18748	18.71	3.3636	0.	-44.215
18749	18.801	3.2727	0.	-41.126
18750	18.71	3.2727	5.e-002	7.6946e-006
18751	18.71	3.5455	0.	-42.288
18752	18.801	3.4545	0.	-39.681
18753	18.71	3.4545	5.e-002	6.4735e-006
18754	18.71	3.7273	0.	-39.676
18755	18.801	3.6364	0.	-37.569
18756	18.71	3.6364	5.e-002	7.7799e-006
18757	18.71	3.9091	0.	-36.46
18758	18.801	3.8182	0.	-34.857
18759	18.71	3.8182	5.e-002	9.0111e-006
18760	18.71	4.0909	0.	-32.735
18761	18.801	4.	0.	-31.624
18762	18.71	4.	5.e-002	7.1336e-006
18763	18.71	4.2727	0.	-28.61
18764	18.801	4.1818	0.	-27.966
18765	18.71	4.1818	5.e-002	7.3195e-006
18766	18.71	4.4545	0.	-24.196
18767	18.801	4.3636	0.	-23.982
18768	18.71	4.3636	5.e-002	8.4435e-006
18769	18.71	4.6364	0.	-19.605
18770	18.801	4.5455	0.	-19.774
18771	18.71	4.5455	5.e-002	6.5251e-006
18772	18.71	4.8182	0.	-14.943
18773	18.801	4.7273	0.	-15.444
18774	18.71	4.7273	5.e-002	7.5328e-006
18775	18.71	5.	0.	-10.304
18776	18.801	4.9091	0.	-11.081
18777	18.71	4.9091	5.e-002	7.6012e-006
18778	18.71	5.1818	0.	-5.7651
18779	18.801	5.0909	0.	-6.764
18780	18.71	5.0909	5.e-002	5.5733e-006
18781	18.71	5.3636	0.	-1.3826
18782	18.801	5.2727	0.	-2.5535
18783	18.71	5.2727	5.e-002	6.2469e-006
18784	18.71	5.5455	0.	1.0607e-002
18785	18.801	5.4545	0.	6.8854e-003
18786	18.71	5.4545	5.e-002	5.9607e-006
18787	18.71	5.7273	0.	2.9137e-003
18788	18.801	5.6364	0.	1.0814e-002
18789	18.71	5.6364	5.e-002	6.9952e-006
18790	18.801	5.8182	0.	-5.0412e-003
18791	18.71	5.8182	5.e-002	4.2401e-006
18792	18.71	5.9091	0.	3.585e-003
18793	18.892	0.27273	0.	2.5589e-003
18794	18.983	0.18182	0.	-4.0322e-003
18795	18.892	0.18182	5.e-002	6.8144e-006
18796	18.892	9.0909e-002	0.	2.6501e-003
18797	18.892	0.45455	0.	8.3613e-003
18798	18.983	0.36364	0.	8.374e-003
18799	18.892	0.36364	5.e-002	5.8567e-006
18800	18.892	0.63636	0.	-1.3307e-002
18801	18.983	0.54545	0.	5.3788e-003
18802	18.892	0.54545	5.e-002	7.6394e-006
18803	18.892	0.81818	0.	-3.5802
18804	18.983	0.72727	0.	-0.60178
18805	18.892	0.72727	5.e-002	7.7683e-006
18806	18.892	1.	0.	-7.5672
18807	18.983	0.90909	0.	-4.2848
18808	18.892	0.90909	5.e-002	5.9471e-006
18809	18.892	1.1818	0.	-11.606
18810	18.983	1.0909	0.	-8.0368
18811	18.892	1.0909	5.e-002	5.0437e-006
18812	18.892	1.3636	0.	-15.635
18813	18.983	1.2727	0.	-11.798
18814	18.892	1.2727	5.e-002	5.4036e-006
18815	18.892	1.5455	0.	-19.579
18816	18.983	1.4545	0.	-15.508
18817	18.892	1.4545	5.e-002	5.67e-006
18818	18.892	1.7273	0.	-23.354
18819	18.983	1.6364	0.	-19.095
18820	18.892	1.6364	5.e-002	6.2801e-006
18821	18.892	1.9091	0.	-26.869
18822	18.983	1.8182	0.	-22.477
18823	18.892	1.8182	5.e-002	5.4248e-006
18824	18.892	2.0909	0.	-30.034
18825	18.983	2.	0.	-25.574
18826	18.892	2.	5.e-002	6.3489e-006
18827	18.892	2.2727	0.	-32.762
18828	18.983	2.1818	0.	-28.303
18829	18.892	2.1818	5.e-002	6.0247e-006
18830	18.892	2.4545	0.	-34.973
18831	18.983	2.3636	0.	-30.59
18832	18.892	2.3636	5.e-002	5.945e-006
18833	18.892	2.6364	0.	-36.603
18834	18.983	2.5455	0.	-32.368
18835	18.892	2.5455	5.e-002	7.1939e-006
18836	18.892	2.8182	0.	-37.601
18837	18.983	2.7273	0.	-33.584
18838	18.892	2.7273	5.e-002	6.5184e-006
18839	18.892	3.	0.	-37.937
18840	18.983	2.9091	0.	-34.201
18841	18.892	2.9091	5.e-002	7.2616e-006
18842	18.892	3.1818	0.	-37.601
18843	18.983	3.0909	0.	-34.201
18844	18.892	3.0909	5.e-002	6.5678e-006
18845	18.892	3.3636	0.	-36.603
18846	18.983	3.2727	0.	-33.584
18847	18.892	3.2727	5.e-002	6.3677e-006
18848	18.892	3.5455	0.	-34.973
18849	18.983	3.4545	0.	-32.368
18850	18.892	3.4545	5.e-002	6.6822e-006
18851	18.892	3.7273	0.	-32.762
18852	18.983	3.6364	0.	-30.59
18853	18.892	3.6364	5.e-002	7.7649e-006
18854	18.892	3.9091	0.	-30.034
18855	18.983	3.8182	0.	-28.303
18856	18.892	3.8182	5.e-002	7.6097e-006
18857	18.892	4.0909	0.	-26.869
18858	18.983	4.	0.	-25.574
18859	18.892	4.	5.e-002	7.0991e-006
18860	18.892	4.2727	0.	-23.354
18861	18.983	4.1818	0.	-22.477
18862	18.892	4.1818	5.e-002	6.4694e-006
18863	18.892	4.4545	0.	-19.579
18864	18.983	4.3636	0.	-19.095
18865	18.892	4.3636	5.e-002	7.9771e-006
18866	18.892	4.6364	0.	-15.635
18867	18.983	4.5455	0.	-15.508
18868	18.892	4.5455	5.e-002	5.9929e-006
18869	18.892	4.8182	0.	-11.606
18870	18.983	4.7273	0.	-11.798
18871	18.892	4.7273	5.e-002	7.5257e-006
18872	18.892	5.	0.	-7.5672
18873	18.983	4.9091	0.	-8.0368
18874	18.892	4.9091	5.e-002	7.0192e-006
18875	18.892	5.1818	0.	-3.5802
18876	18.983	5.0909	0.	-4.2848
18877	18.892	5.0909	5.e-002	4.9075e-006
18878	18.892	5.3636	0.	-1.331e-002
18879	18.983	5.2727	0.	-0.6018
18880	18.892	5.2727	5.e-002	6.3679e-006
18881	18.892	5.5455	0.	8.3612e-003
18882	18.983	5.4545	0.	5.3787e-003
18883	18.892	5.4545	5.e-002	6.2015e-006
18884	18.892	5.7273	0.	2.5596e-003
18885	18.983	5.6364	0.	8.3747e-003
18886	18.892	5.6364	5.e-002	6.914e-006
18887	18.983	5.8182	0.	-4.0304e-003
18888	18.892	5.8182	5.e-002	5.7528e-006
18889	18.892	5.9091	0.	2.65e-003
18890	19.075	0.27273	0.	1.7755e-003
18891	19.166	0.18182	0.	-3.2532e-003
18892	19.075	0.18182	5.e-002	6.9817e-006
18893	19.075	9.0909e-002	0.	1.9178e-003
18894	19.075	0.45455	0.	6.1069e-003
18895	19.166	0.36364	0.	5.6989e-003
18896	19.075	0.36364	5.e-002	6.4376e-006
18897	19.075	0.63636	0.	2.4045e-003
18898	19.166	0.54545	0.	3.9467e-003
18899	19.075	0.54545	5.e-002	6.8977e-006
18900	19.075	0.81818	0.	-1.3276
18901	19.166	0.72727	0.	-2.5297e-003
18902	19.075	0.72727	5.e-002	5.8272e-006
18903	19.075	1.	0.	-4.7808
18904	19.166	0.90909	0.	-1.7538
18905	19.075	0.90909	5.e-002	5.0558e-006
18906	19.075	1.1818	0.	-8.2536
18907	19.166	1.0909	0.	-4.9639
18908	19.075	1.0909	5.e-002	4.9563e-006
18909	19.075	1.3636	0.	-11.694
18910	19.166	1.2727	0.	-8.1615
18911	19.075	1.2727	5.e-002	5.1907e-006
18912	19.075	1.5455	0.	-15.044
18913	19.166	1.4545	0.	-11.296
18914	19.075	1.4545	5.e-002	5.193e-006
18915	19.075	1.7273	0.	-18.235
18916	19.166	1.6364	0.	-14.311
18917	19.075	1.6364	5.e-002	5.885e-006
18918	19.075	1.9091	0.	-21.197
18919	19.166	1.8182	0.	-17.145
18920	19.075	1.8182	5.e-002	5.5398e-006
18921	19.075	2.0909	0.	-23.857
18922	19.166	2.	0.	-19.732
18923	19.075	2.	5.e-002	5.9297e-006
18924	19.075	2.2727	0.	-26.145
18925	19.166	2.1818	0.	-22.007
18926	19.075	2.1818	5.e-002	6.368e-006
18927	19.075	2.4545	0.	-27.997
18928	19.166	2.3636	0.	-23.909
18929	19.075	2.3636	5.e-002	6.4818e-006
18930	19.075	2.6364	0.	-29.36
18931	19.166	2.5455	0.	-25.387
18932	19.075	2.5455	5.e-002	6.5922e-006
18933	19.075	2.8182	0.	-30.195
18934	19.166	2.7273	0.	-26.397
18935	19.075	2.7273	5.e-002	5.7302e-006
18936	19.075	3.	0.	-30.476
18937	19.166	2.9091	0.	-26.91
18938	19.075	2.9091	5.e-002	6.2833e-006
18939	19.075	3.1818	0.	-30.195
18940	19.166	3.0909	0.	-26.91
18941	19.075	3.0909	5.e-002	5.8766e-006
18942	19.075	3.3636	0.	-29.36
18943	19.166	3.2727	0.	-26.397
18944	19.075	3.2727	5.e-002	5.9589e-006
18945	19.075	3.5455	0.	-27.997
18946	19.166	3.4545	0.	-25.387
18947	19.075	3.4545	5.e-002	6.305e-006
18948	19.075	3.7273	0.	-26.145
18949	19.166	3.6364	0.	-23.909
18950	19.075	3.6364	5.e-002	6.8817e-006
18951	19.075	3.9091	0.	-23.857
18952	19.166	3.8182	0.	-22.007
18953	19.075	3.8182	5.e-002	7.5676e-006
18954	19.075	4.0909	0.	-21.197
18955	19.166	4.	0.	-19.732
18956	19.075	4.	5.e-002	7.0805e-006
18957	19.075	4.2727	0.	-18.235
18958	19.166	4.1818	0.	-17.145
18959	19.075	4.1818	5.e-002	5.6577e-006
18960	19.075	4.4545	0.	-15.044
18961	19.166	4.3636	0.	-14.311
18962	19.075	4.3636	5.e-002	7.4691e-006
18963	19.075	4.6364	0.	-11.694
18964	19.166	4.5455	0.	-11.296
18965	19.075	4.5455	5.e-002	5.898e-006
18966	19.075	4.8182	0.	-8.2536
18967	19.166	4.7273	0.	-8.1615
18968	19.075	4.7273	5.e-002	6.491e-006
18969	19.075	5.	0.	-4.7808
18970	19.166	4.9091	0.	-4.9639
18971	19.075	4.9091	5.e-002	6.4619e-006
18972	19.075	5.1818	0.	-1.3276
18973	19.166	5.0909	0.	-1.7538
18974	19.075	5.0909	5.e-002	4.8523e-006
18975	19.075	5.3636	0.	2.4048e-003
18976	19.166	5.2727	0.	-2.5296e-003
18977	19.075	5.2727	5.e-002	5.7985e-006
18978	19.075	5.5455	0.	6.1077e-003
18979	19.166	5.4545	0.	3.946e-003
18980	19.075	5.4545	5.e-002	5.7029e-006
18981	19.075	5.7273	0.	1.7772e-003
18982	19.166	5.6364	0.	5.6994e-003
18983	19.075	5.6364	5.e-002	6.6815e-006
18984	19.166	5.8182	0.	-3.2531e-003
18985	19.075	5.8182	5.e-002	5.374e-006
18986	19.075	5.9091	0.	1.9167e-003
18987	19.257	0.27273	0.	6.7714e-004
18988	19.348	0.18182	0.	-2.6686e-003
18989	19.257	0.18182	5.e-002	7.6214e-006
18990	19.257	9.0909e-002	0.	1.301e-003
18991	19.257	0.45455	0.	3.9025e-003
18992	19.348	0.36364	0.	2.8979e-003
18993	19.257	0.36364	5.e-002	5.47e-006
18994	19.257	0.63636	0.	2.6744e-003
18995	19.348	0.54545	0.	2.6506e-003
18996	19.257	0.54545	5.e-002	5.6558e-006
18997	19.257	0.81818	0.	-1.1741e-002
18998	19.348	0.72727	0.	1.6735e-003
18999	19.257	0.72727	5.e-002	5.4941e-006
19000	19.257	1.	0.	-1.9643
19001	19.348	0.90909	0.	-1.8131e-002
19002	19.257	0.90909	5.e-002	6.2709e-006
19003	19.257	1.1818	0.	-4.897
19004	19.348	1.0909	0.	-1.8786
19005	19.257	1.0909	5.e-002	8.0612e-006
19006	19.257	1.3636	0.	-7.7864
19007	19.348	1.2727	0.	-4.5386
19008	19.257	1.2727	5.e-002	8.4262e-006
19009	19.257	1.5455	0.	-10.585
19010	19.348	1.4545	0.	-7.1349
19011	19.257	1.4545	5.e-002	8.1063e-006
19012	19.257	1.7273	0.	-13.24
19013	19.348	1.6364	0.	-9.6214
19014	19.257	1.6364	5.e-002	8.3373e-006
19015	19.257	1.9091	0.	-15.696
19016	19.348	1.8182	0.	-11.95
19017	19.257	1.8182	5.e-002	8.3146e-006
19018	19.257	2.0909	0.	-17.897
19019	19.348	2.	0.	-14.07
19020	19.257	2.	5.e-002	8.1745e-006
19021	19.257	2.2727	0.	-19.786
19022	19.348	2.1818	0.	-15.931
19023	19.257	2.1818	5.e-002	8.7438e-006
19024	19.257	2.4545	0.	-21.313
19025	19.348	2.3636	0.	-17.485
19026	19.257	2.3636	5.e-002	8.6785e-006
19027	19.257	2.6364	0.	-22.436
19028	19.348	2.5455	0.	-18.691
19029	19.257	2.5455	5.e-002	9.3067e-006
19030	19.257	2.8182	0.	-23.124
19031	19.348	2.7273	0.	-19.515
19032	19.257	2.7273	5.e-002	8.5015e-006
19033	19.257	3.	0.	-23.355
19034	19.348	2.9091	0.	-19.933
19035	19.257	2.9091	5.e-002	8.8762e-006
19036	19.257	3.1818	0.	-23.124
19037	19.348	3.0909	0.	-19.933
19038	19.257	3.0909	5.e-002	8.0518e-006
19039	19.257	3.3636	0.	-22.436
19040	19.348	3.2727	0.	-19.515
19041	19.257	3.2727	5.e-002	9.1431e-006
19042	19.257	3.5455	0.	-21.313
19043	19.348	3.4545	0.	-18.691
19044	19.257	3.4545	5.e-002	8.3419e-006
19045	19.257	3.7273	0.	-19.786
19046	19.348	3.6364	0.	-17.485
19047	19.257	3.6364	5.e-002	9.4674e-006
19048	19.257	3.9091	0.	-17.897
19049	19.348	3.8182	0.	-15.931
19050	19.257	3.8182	5.e-002	1.0144e-005
19051	19.257	4.0909	0.	-15.696
19052	19.348	4.	0.	-14.07
19053	19.257	4.	5.e-002	9.5726e-006
19054	19.257	4.2727	0.	-13.24
19055	19.348	4.1818	0.	-11.95
19056	19.257	4.1818	5.e-002	8.2387e-006
19057	19.257	4.4545	0.	-10.585
19058	19.348	4.3636	0.	-9.6214
19059	19.257	4.3636	5.e-002	9.8157e-006
19060	19.257	4.6364	0.	-7.7863
19061	19.348	4.5455	0.	-7.1349
19062	19.257	4.5455	5.e-002	8.2509e-006
19063	19.257	4.8182	0.	-4.897
19064	19.348	4.7273	0.	-4.5386
19065	19.257	4.7273	5.e-002	9.1162e-006
19066	19.257	5.	0.	-1.9642
19067	19.348	4.9091	0.	-1.8786
19068	19.257	4.9091	5.e-002	9.0429e-006
19069	19.257	5.1818	0.	-1.1742e-002
19070	19.348	5.0909	0.	-1.8132e-002
19071	19.257	5.0909	5.e-002	7.2959e-006
19072	19.257	5.3636	0.	2.6735e-003
19073	19.348	5.2727	0.	1.6726e-003
19074	19.257	5.2727	5.e-002	8.4912e-006
19075	19.257	5.5455	0.	3.9016e-003
19076	19.348	5.4545	0.	2.652e-003
19077	19.257	5.4545	5.e-002	8.1648e-006
19078	19.257	5.7273	0.	6.7589e-004
19079	19.348	5.6364	0.	2.8981e-003
19080	19.257	5.6364	5.e-002	8.6494e-006
19081	19.348	5.8182	0.	-2.6705e-003
19082	19.257	5.8182	5.e-002	6.5589e-006
19083	19.257	5.9091	0.	1.3012e-003
19084	19.439	0.27273	0.	-6.2921e-004
19085	19.531	0.18182	0.	-2.2545e-003
19086	19.439	0.18182	5.e-002	5.4921e-006
19087	19.439	9.0909e-002	0.	7.8342e-004
19088	19.439	0.45455	0.	1.7762e-003
19089	19.531	0.36364	0.	2.1092e-005
19090	19.439	0.36364	5.e-002	4.6966e-006
19091	19.439	0.63636	0.	2.1472e-003
19092	19.531	0.54545	0.	1.4809e-003
19093	19.439	0.54545	5.e-002	1.9957e-006
19094	19.439	0.81818	0.	6.3643e-004
19095	19.531	0.72727	0.	2.1199e-003
19096	19.439	0.72727	5.e-002	3.586e-006
19097	19.439	1.	0.	-1.8436e-002
19098	19.531	0.90909	0.	1.002e-003
19099	19.439	0.90909	5.e-002	5.7422e-006
19100	19.439	1.1818	0.	-1.5491
19101	19.531	1.0909	0.	-1.0269e-002
19102	19.439	1.0909	5.e-002	6.8924e-006
19103	19.439	1.3636	0.	-3.9115
19104	19.531	1.2727	0.	-0.94667
19105	19.439	1.2727	5.e-002	7.324e-006
19106	19.439	1.5455	0.	-6.1936
19107	19.531	1.4545	0.	-3.021
19108	19.439	1.4545	5.e-002	7.18e-006
19109	19.439	1.7273	0.	-8.3512
19110	19.531	1.6364	0.	-5.0115
19111	19.439	1.6364	5.e-002	7.3076e-006
19112	19.439	1.9091	0.	-10.342
19113	19.531	1.8182	0.	-6.8708
19114	19.439	1.8182	5.e-002	6.701e-006
19115	19.439	2.0909	0.	-12.121
19116	19.531	2.	0.	-8.5602
19117	19.439	2.	5.e-002	7.0956e-006
19118	19.439	2.2727	0.	-13.646
19119	19.531	2.1818	0.	-10.041
19120	19.439	2.1818	5.e-002	7.422e-006
19121	19.439	2.4545	0.	-14.878
19122	19.531	2.3636	0.	-11.276
19123	19.439	2.3636	5.e-002	7.6367e-006
19124	19.439	2.6364	0.	-15.783
19125	19.531	2.5455	0.	-12.234
19126	19.439	2.5455	5.e-002	7.5726e-006
19127	19.439	2.8182	0.	-16.337
19128	19.531	2.7273	0.	-12.888
19129	19.439	2.7273	5.e-002	6.5537e-006
19130	19.439	3.	0.	-16.523
19131	19.531	2.9091	0.	-13.22
19132	19.439	2.9091	5.e-002	7.3117e-006
19133	19.439	3.1818	0.	-16.337
19134	19.531	3.0909	0.	-13.22
19135	19.439	3.0909	5.e-002	7.1125e-006
19136	19.439	3.3636	0.	-15.783
19137	19.531	3.2727	0.	-12.888
19138	19.439	3.2727	5.e-002	7.6347e-006
19139	19.439	3.5455	0.	-14.878
19140	19.531	3.4545	0.	-12.234
19141	19.439	3.4545	5.e-002	7.4554e-006
19142	19.439	3.7273	0.	-13.646
19143	19.531	3.6364	0.	-11.276
19144	19.439	3.6364	5.e-002	8.3544e-006
19145	19.439	3.9091	0.	-12.121
19146	19.531	3.8182	0.	-10.041
19147	19.439	3.8182	5.e-002	8.7971e-006
19148	19.439	4.0909	0.	-10.342
19149	19.531	4.	0.	-8.5602
19150	19.439	4.	5.e-002	7.7163e-006
19151	19.439	4.2727	0.	-8.3512
19152	19.531	4.1818	0.	-6.8709
19153	19.439	4.1818	5.e-002	7.0415e-006
19154	19.439	4.4545	0.	-6.1936
19155	19.531	4.3636	0.	-5.0115
19156	19.439	4.3636	5.e-002	8.5531e-006
19157	19.439	4.6364	0.	-3.9115
19158	19.531	4.5455	0.	-3.021
19159	19.439	4.5455	5.e-002	6.9334e-006
19160	19.439	4.8182	0.	-1.5491
19161	19.531	4.7273	0.	-0.94666
19162	19.439	4.7273	5.e-002	7.6926e-006
19163	19.439	5.	0.	-1.8437e-002
19164	19.531	4.9091	0.	-1.027e-002
19165	19.439	4.9091	5.e-002	7.7336e-006
19166	19.439	5.1818	0.	6.3563e-004
19167	19.531	5.0909	0.	1.001e-003
19168	19.439	5.0909	5.e-002	5.8516e-006
19169	19.439	5.3636	0.	2.1485e-003
19170	19.531	5.2727	0.	2.118e-003
19171	19.439	5.2727	5.e-002	6.9744e-006
19172	19.439	5.5455	0.	1.7788e-003
19173	19.531	5.4545	0.	1.4847e-003
19174	19.439	5.4545	5.e-002	7.0644e-006
19175	19.439	5.7273	0.	-6.2988e-004
19176	19.531	5.6364	0.	2.2208e-005
19177	19.439	5.6364	5.e-002	7.86e-006
19178	19.531	5.8182	0.	-2.2573e-003
19179	19.439	5.8182	5.e-002	5.9174e-006
19180	19.439	5.9091	0.	7.8357e-004
19181	19.622	0.27273	0.	-2.1147e-003
19182	19.713	0.18182	0.	-2.0147e-003
19183	19.622	0.18182	5.e-002	5.3157e-006
19184	19.622	9.0909e-002	0.	3.0932e-004
19185	19.622	0.45455	0.	-2.9736e-004
19186	19.713	0.36364	0.	-2.9256e-003
19187	19.622	0.36364	5.e-002	8.1204e-006
19188	19.622	0.63636	0.	1.4689e-003
19189	19.713	0.54545	0.	4.05e-004
19190	19.622	0.54545	5.e-002	6.0822e-006
19191	19.622	0.81818	0.	2.321e-003
19192	19.713	0.72727	0.	1.9232e-003
19193	19.622	0.72727	5.e-002	3.9706e-006
19194	19.622	1.	0.	1.9833e-003
19195	19.713	0.90909	0.	3.3573e-003
19196	19.622	0.90909	5.e-002	4.9465e-006
19197	19.622	1.1818	0.	-2.9584e-003
19198	19.713	1.0909	0.	4.0272e-003
19199	19.622	1.0909	5.e-002	6.1469e-006
19200	19.622	1.3636	0.	-0.17635
19201	19.713	1.2727	0.	3.0932e-003
19202	19.622	1.2727	5.e-002	6.2884e-006
19203	19.622	1.5455	0.	-1.8646
19204	19.713	1.4545	0.	-5.4153e-003
19205	19.622	1.4545	5.e-002	6.5851e-006
19206	19.622	1.7273	0.	-3.5526
19207	19.713	1.6364	0.	-0.49276
19208	19.622	1.6364	5.e-002	6.9684e-006
19209	19.622	1.9091	0.	-5.1087
19210	19.713	1.8182	0.	-1.889
19211	19.622	1.8182	5.e-002	6.2539e-006
19212	19.622	2.0909	0.	-6.4978
19213	19.713	2.	0.	-3.1744
19214	19.622	2.	5.e-002	6.5669e-006
19215	19.622	2.2727	0.	-7.6875
19216	19.713	2.1818	0.	-4.3016
19217	19.622	2.1818	5.e-002	6.5478e-006
19218	19.622	2.4545	0.	-8.6478
19219	19.713	2.3636	0.	-5.242
19220	19.622	2.3636	5.e-002	6.9524e-006
19221	19.622	2.6364	0.	-9.3534
19222	19.713	2.5455	0.	-5.971
19223	19.622	2.5455	5.e-002	7.195e-006
19224	19.622	2.8182	0.	-9.785
19225	19.713	2.7273	0.	-6.4689
19226	19.622	2.7273	5.e-002	5.9405e-006
19227	19.622	3.	0.	-9.9302
19228	19.713	2.9091	0.	-6.7214
19229	19.622	2.9091	5.e-002	6.7699e-006
19230	19.622	3.1818	0.	-9.785
19231	19.713	3.0909	0.	-6.7214
19232	19.622	3.0909	5.e-002	6.2242e-006
19233	19.622	3.3636	0.	-9.3534
19234	19.713	3.2727	0.	-6.4689
19235	19.622	3.2727	5.e-002	6.9347e-006
19236	19.622	3.5455	0.	-8.6478
19237	19.713	3.4545	0.	-5.971
19238	19.622	3.4545	5.e-002	6.8169e-006
19239	19.622	3.7273	0.	-7.6875
19240	19.713	3.6364	0.	-5.242
19241	19.622	3.6364	5.e-002	7.4316e-006
19242	19.622	3.9091	0.	-6.4978
19243	19.713	3.8182	0.	-4.3016
19244	19.622	3.8182	5.e-002	7.9492e-006
19245	19.622	4.0909	0.	-5.1087
19246	19.713	4.	0.	-3.1744
19247	19.622	4.	5.e-002	7.1565e-006
19248	19.622	4.2727	0.	-3.5526
19249	19.713	4.1818	0.	-1.889
19250	19.622	4.1818	5.e-002	6.264e-006
19251	19.622	4.4545	0.	-1.8646
19252	19.713	4.3636	0.	-0.49276
19253	19.622	4.3636	5.e-002	7.53e-006
19254	19.622	4.6364	0.	-0.17635
19255	19.713	4.5455	0.	-5.4151e-003
19256	19.622	4.5455	5.e-002	5.762e-006
19257	19.622	4.8182	0.	-2.9585e-003
19258	19.713	4.7273	0.	3.0954e-003
19259	19.622	4.7273	5.e-002	6.7141e-006
19260	19.622	5.	0.	1.9821e-003
19261	19.713	4.9091	0.	4.0259e-003
19262	19.622	4.9091	5.e-002	6.5954e-006
19263	19.622	5.1818	0.	2.3188e-003
19264	19.713	5.0909	0.	3.3555e-003
19265	19.622	5.0909	5.e-002	4.8001e-006
19266	19.622	5.3636	0.	1.4694e-003
19267	19.713	5.2727	0.	1.9215e-003
19268	19.622	5.2727	5.e-002	6.0936e-006
19269	19.622	5.5455	0.	-2.9507e-004
19270	19.713	5.4545	0.	4.0579e-004
19271	19.622	5.4545	5.e-002	6.1211e-006
19272	19.622	5.7273	0.	-2.1158e-003
19273	19.713	5.6364	0.	-2.9247e-003
19274	19.622	5.6364	5.e-002	6.8246e-006
19275	19.713	5.8182	0.	-2.0136e-003
19276	19.622	5.8182	5.e-002	5.4888e-006
19277	19.622	5.9091	0.	3.0648e-004
19278	19.804	0.27273	0.	-3.761e-003
19279	19.895	0.18182	0.	-1.9277e-003
19280	19.804	0.18182	5.e-002	8.1538e-006
19281	19.804	9.0909e-002	0.	-1.6178e-004
19282	19.804	0.45455	0.	-2.3443e-003
19283	19.895	0.36364	0.	-5.9292e-003
19284	19.804	0.36364	5.e-002	7.0693e-006
19285	19.804	0.63636	0.	7.6187e-004
19286	19.895	0.54545	0.	-5.9663e-004
19287	19.804	0.54545	5.e-002	4.1761e-006
19288	19.804	0.81818	0.	2.7261e-003
19289	19.895	0.72727	0.	1.5516e-003
19290	19.804	0.72727	5.e-002	3.4124e-006
19291	19.804	1.	0.	4.6022e-003
19292	19.895	0.90909	0.	4.1358e-003
19293	19.804	0.90909	5.e-002	4.4969e-006
19294	19.804	1.1818	0.	6.0721e-003
19295	19.895	1.0909	0.	6.367e-003
19296	19.804	1.0909	5.e-002	5.9429e-006
19297	19.804	1.3636	0.	7.0013e-003
19298	19.895	1.2727	0.	8.3732e-003
19299	19.804	1.2727	5.e-002	5.1471e-006
19300	19.804	1.5455	0.	6.9076e-003
19301	19.895	1.4545	0.	1.0081e-002
19302	19.804	1.4545	5.e-002	5.2143e-006
19303	19.804	1.7273	0.	3.5711e-003
19304	19.895	1.6364	0.	1.1487e-002
19305	19.804	1.6364	5.e-002	5.9052e-006
19306	19.804	1.9091	0.	-7.7939e-002
19307	19.895	1.8182	0.	1.2585e-002
19308	19.804	1.8182	5.e-002	5.3109e-006
19309	19.804	2.0909	0.	-1.0008
19310	19.895	2.	0.	1.3358e-002
19311	19.804	2.	5.e-002	5.4841e-006
19312	19.804	2.2727	0.	-1.8744
19313	19.895	2.1818	0.	1.3734e-002
19314	19.804	2.1818	5.e-002	5.8112e-006
19315	19.804	2.4545	0.	-2.5819
19316	19.895	2.3636	0.	1.3322e-002
19317	19.804	2.3636	5.e-002	5.7491e-006
19318	19.804	2.6364	0.	-3.1023
19319	19.895	2.5455	0.	6.7578e-003
19320	19.804	2.5455	5.e-002	5.9473e-006
19321	19.804	2.8182	0.	-3.4206
19322	19.895	2.7273	0.	-0.21433
19323	19.804	2.7273	5.e-002	4.9599e-006
19324	19.804	3.	0.	-3.5278
19325	19.895	2.9091	0.	-0.39125
19326	19.804	2.9091	5.e-002	5.5035e-006
19327	19.804	3.1818	0.	-3.4206
19328	19.895	3.0909	0.	-0.39125
19329	19.804	3.0909	5.e-002	4.9272e-006
19330	19.804	3.3636	0.	-3.1023
19331	19.895	3.2727	0.	-0.21432
19332	19.804	3.2727	5.e-002	5.4403e-006
19333	19.804	3.5455	0.	-2.5819
19334	19.895	3.4545	0.	6.7586e-003
19335	19.804	3.4545	5.e-002	5.4552e-006
19336	19.804	3.7273	0.	-1.8744
19337	19.895	3.6364	0.	1.332e-002
19338	19.804	3.6364	5.e-002	6.0265e-006
19339	19.804	3.9091	0.	-1.0008
19340	19.895	3.8182	0.	1.3735e-002
19341	19.804	3.8182	5.e-002	6.8554e-006
19342	19.804	4.0909	0.	-7.7939e-002
19343	19.895	4.	0.	1.3357e-002
19344	19.804	4.	5.e-002	5.685e-006
19345	19.804	4.2727	0.	3.5692e-003
19346	19.895	4.1818	0.	1.2584e-002
19347	19.804	4.1818	5.e-002	4.7753e-006
19348	19.804	4.4545	0.	6.9059e-003
19349	19.895	4.3636	0.	1.1485e-002
19350	19.804	4.3636	5.e-002	6.0878e-006
19351	19.804	4.6364	0.	7.0035e-003
19352	19.895	4.5455	0.	1.008e-002
19353	19.804	4.5455	5.e-002	4.4851e-006
19354	19.804	4.8182	0.	6.0728e-003
19355	19.895	4.7273	0.	8.3746e-003
19356	19.804	4.7273	5.e-002	5.8197e-006
19357	19.804	5.	0.	4.6002e-003
19358	19.895	4.9091	0.	6.3655e-003
19359	19.804	4.9091	5.e-002	5.486e-006
19360	19.804	5.1818	0.	2.7247e-003
19361	19.895	5.0909	0.	4.1333e-003
19362	19.804	5.0909	5.e-002	3.8147e-006
19363	19.804	5.3636	0.	7.6045e-004
19364	19.895	5.2727	0.	1.551e-003
19365	19.804	5.2727	5.e-002	4.9957e-006
19366	19.804	5.5455	0.	-2.345e-003
19367	19.895	5.4545	0.	-5.9619e-004
19368	19.804	5.4545	5.e-002	4.6827e-006
19369	19.804	5.7273	0.	-3.7581e-003
19370	19.895	5.6364	0.	-5.9284e-003
19371	19.804	5.6364	5.e-002	6.0046e-006
19372	19.895	5.8182	0.	-1.9259e-003
19373	19.804	5.8182	5.e-002	4.7221e-006
19374	19.804	5.9091	0.	-1.6051e-004
19375	19.987	0.27273	0.	-5.5222e-003
19376	20.078	0.18182	0.	-1.9813e-003
19377	19.987	0.18182	5.e-002	7.3857e-006
19378	19.987	9.0909e-002	0.	-6.0933e-004
19379	19.987	0.45455	0.	-4.3611e-003
19380	20.078	0.36364	0.	-8.9813e-003
19381	19.987	0.36364	5.e-002	8.0461e-006
19382	19.987	0.63636	0.	8.457e-005
19383	20.078	0.54545	0.	-1.5264e-003
19384	19.987	0.54545	5.e-002	7.252e-006
19385	19.987	0.81818	0.	2.7997e-003
19386	20.078	0.72727	0.	1.147e-003
19387	19.987	0.72727	5.e-002	6.9852e-006
19388	19.987	1.	0.	5.6048e-003
19389	20.078	0.90909	0.	4.5159e-003
19390	19.987	0.90909	5.e-002	8.4919e-006
19391	19.987	1.1818	0.	8.1014e-003
19392	20.078	1.0909	0.	7.404e-003
19393	19.987	1.0909	5.e-002	9.4378e-006
19394	19.987	1.3636	0.	1.0335e-002
19395	20.078	1.2727	0.	1.0024e-002
19396	19.987	1.2727	5.e-002	8.6514e-006
19397	19.987	1.5455	0.	1.2272e-002
19398	20.078	1.4545	0.	1.2278e-002
19399	19.987	1.4545	5.e-002	8.4369e-006
19400	19.987	1.7273	0.	1.3924e-002
19401	20.078	1.6364	0.	1.4186e-002
19402	19.987	1.6364	5.e-002	8.617e-006
19403	19.987	1.9091	0.	1.5315e-002
19404	20.078	1.8182	0.	1.5757e-002
19405	19.987	1.8182	5.e-002	8.1968e-006
19406	19.987	2.0909	0.	1.6471e-002
19407	20.078	2.	0.	1.7021e-002
19408	19.987	2.	5.e-002	8.4791e-006
19409	19.987	2.2727	0.	1.7423e-002
19410	20.078	2.1818	0.	1.801e-002
19411	19.987	2.1818	5.e-002	8.8755e-006
19412	19.987	2.4545	0.	1.819e-002
19413	20.078	2.3636	0.	1.8758e-002
19414	19.987	2.3636	5.e-002	8.845e-006
19415	19.987	2.6364	0.	1.8768e-002
19416	20.078	2.5455	0.	1.9295e-002
19417	19.987	2.5455	5.e-002	9.2404e-006
19418	19.987	2.8182	0.	1.9136e-002
19419	20.078	2.7273	0.	1.9639e-002
19420	19.987	2.7273	5.e-002	8.1409e-006
19421	19.987	3.	0.	1.9264e-002
19422	20.078	2.9091	0.	1.9809e-002
19423	19.987	2.9091	5.e-002	8.5952e-006
19424	19.987	3.1818	0.	1.9136e-002
19425	20.078	3.0909	0.	1.9808e-002
19426	19.987	3.0909	5.e-002	8.1014e-006
19427	19.987	3.3636	0.	1.8768e-002
19428	20.078	3.2727	0.	1.9639e-002
19429	19.987	3.2727	5.e-002	8.6684e-006
19430	19.987	3.5455	0.	1.8189e-002
19431	20.078	3.4545	0.	1.9294e-002
19432	19.987	3.4545	5.e-002	8.4793e-006
19433	19.987	3.7273	0.	1.7422e-002
19434	20.078	3.6364	0.	1.8758e-002
19435	19.987	3.6364	5.e-002	8.8752e-006
19436	19.987	3.9091	0.	1.6471e-002
19437	20.078	3.8182	0.	1.801e-002
19438	19.987	3.8182	5.e-002	9.8671e-006
19439	19.987	4.0909	0.	1.5314e-002
19440	20.078	4.	0.	1.702e-002
19441	19.987	4.	5.e-002	8.5743e-006
19442	19.987	4.2727	0.	1.3925e-002
19443	20.078	4.1818	0.	1.5757e-002
19444	19.987	4.1818	5.e-002	7.8747e-006
19445	19.987	4.4545	0.	1.2271e-002
19446	20.078	4.3636	0.	1.4186e-002
19447	19.987	4.3636	5.e-002	9.2991e-006
19448	19.987	4.6364	0.	1.0334e-002
19449	20.078	4.5455	0.	1.2279e-002
19450	19.987	4.5455	5.e-002	7.4841e-006
19451	19.987	4.8182	0.	8.1005e-003
19452	20.078	4.7273	0.	1.0023e-002
19453	19.987	4.7273	5.e-002	8.6074e-006
19454	19.987	5.	0.	5.6028e-003
19455	20.078	4.9091	0.	7.403e-003
19456	19.987	4.9091	5.e-002	8.4404e-006
19457	19.987	5.1818	0.	2.798e-003
19458	20.078	5.0909	0.	4.5137e-003
19459	19.987	5.0909	5.e-002	6.674e-006
19460	19.987	5.3636	0.	8.5815e-005
19461	20.078	5.2727	0.	1.1465e-003
19462	19.987	5.2727	5.e-002	7.8848e-006
19463	19.987	5.5455	0.	-4.3592e-003
19464	20.078	5.4545	0.	-1.5244e-003
19465	19.987	5.4545	5.e-002	7.5153e-006
19466	19.987	5.7273	0.	-5.5227e-003
19467	20.078	5.6364	0.	-8.9803e-003
19468	19.987	5.6364	5.e-002	8.2528e-006
19469	20.078	5.8182	0.	-1.9811e-003
19470	19.987	5.8182	5.e-002	6.6424e-006
19471	19.987	5.9091	0.	-6.1017e-004
19472	20.169	0.27273	0.	-7.4048e-003
19473	20.26	0.18182	0.	-2.1819e-003
19474	20.169	0.18182	5.e-002	6.9182e-006
19475	20.169	9.0909e-002	0.	-1.0507e-003
19476	20.169	0.45455	0.	-6.3556e-003
19477	20.26	0.36364	0.	-1.2089e-002
19478	20.169	0.36364	5.e-002	6.2706e-006
19479	20.169	0.63636	0.	-5.4546e-004
19480	20.26	0.54545	0.	-2.3906e-003
19481	20.169	0.54545	5.e-002	7.9257e-006
19482	20.169	0.81818	0.	2.7771e-003
19483	20.26	0.72727	0.	7.6145e-004
19484	20.169	0.72727	5.e-002	9.3145e-006
19485	20.169	1.	0.	6.199e-003
19486	20.26	0.90909	0.	4.7865e-003
19487	20.169	0.90909	5.e-002	1.0169e-005
19488	20.169	1.1818	0.	9.1657e-003
19489	20.26	1.0909	0.	8.1159e-003
19490	20.169	1.0909	5.e-002	8.3886e-006
19491	20.169	1.3636	0.	1.1755e-002
19492	20.26	1.2727	0.	1.1065e-002
19493	20.169	1.2727	5.e-002	7.538e-006
19494	20.169	1.5455	0.	1.3932e-002
19495	20.26	1.4545	0.	1.3531e-002
19496	20.169	1.4545	5.e-002	7.6313e-006
19497	20.169	1.7273	0.	1.5722e-002
19498	20.26	1.6364	0.	1.5557e-002
19499	20.169	1.6364	5.e-002	8.4246e-006
19500	20.169	1.9091	0.	1.7152e-002
19501	20.26	1.8182	0.	1.7175e-002
19502	20.169	1.8182	5.e-002	7.7263e-006
19503	20.169	2.0909	0.	1.8264e-002
19504	20.26	2.	0.	1.8437e-002
19505	20.169	2.	5.e-002	8.2178e-006
19506	20.169	2.2727	0.	1.9102e-002
19507	20.26	2.1818	0.	1.9392e-002
19508	20.169	2.1818	5.e-002	8.8843e-006
19509	20.169	2.4545	0.	1.9706e-002
19510	20.26	2.3636	0.	2.0091e-002
19511	20.169	2.3636	5.e-002	8.9497e-006
19512	20.169	2.6364	0.	2.0111e-002
19513	20.26	2.5455	0.	2.0574e-002
19514	20.169	2.5455	5.e-002	8.8318e-006
19515	20.169	2.8182	0.	2.0343e-002
19516	20.26	2.7273	0.	2.0878e-002
19517	20.169	2.7273	5.e-002	8.1141e-006
19518	20.169	3.	0.	2.0418e-002
19519	20.26	2.9091	0.	2.1023e-002
19520	20.169	2.9091	5.e-002	8.4072e-006
19521	20.169	3.1818	0.	2.0342e-002
19522	20.26	3.0909	0.	2.1023e-002
19523	20.169	3.0909	5.e-002	7.4476e-006
19524	20.169	3.3636	0.	2.011e-002
19525	20.26	3.2727	0.	2.0877e-002
19526	20.169	3.2727	5.e-002	8.2175e-006
19527	20.169	3.5455	0.	1.9706e-002
19528	20.26	3.4545	0.	2.0574e-002
19529	20.169	3.4545	5.e-002	8.3938e-006
19530	20.169	3.7273	0.	1.9101e-002
19531	20.26	3.6364	0.	2.0091e-002
19532	20.169	3.6364	5.e-002	8.9913e-006
19533	20.169	3.9091	0.	1.8263e-002
19534	20.26	3.8182	0.	1.9392e-002
19535	20.169	3.8182	5.e-002	9.5336e-006
19536	20.169	4.0909	0.	1.7151e-002
19537	20.26	4.	0.	1.8437e-002
19538	20.169	4.	5.e-002	8.6503e-006
19539	20.169	4.2727	0.	1.5722e-002
19540	20.26	4.1818	0.	1.7175e-002
19541	20.169	4.1818	5.e-002	7.7131e-006
19542	20.169	4.4545	0.	1.3935e-002
19543	20.26	4.3636	0.	1.5557e-002
19544	20.169	4.3636	5.e-002	9.2746e-006
19545	20.169	4.6364	0.	1.1756e-002
19546	20.26	4.5455	0.	1.3531e-002
19547	20.169	4.5455	5.e-002	7.4371e-006
19548	20.169	4.8182	0.	9.1645e-003
19549	20.26	4.7273	0.	1.1064e-002
19550	20.169	4.7273	5.e-002	8.2921e-006
19551	20.169	5.	0.	6.1977e-003
19552	20.26	4.9091	0.	8.1155e-003
19553	20.169	4.9091	5.e-002	7.8895e-006
19554	20.169	5.1818	0.	2.7762e-003
19555	20.26	5.0909	0.	4.7858e-003
19556	20.169	5.0909	5.e-002	6.3735e-006
19557	20.169	5.3636	0.	-5.452e-004
19558	20.26	5.2727	0.	7.6112e-004
19559	20.169	5.2727	5.e-002	7.2588e-006
19560	20.169	5.5455	0.	-6.3545e-003
19561	20.26	5.4545	0.	-2.3909e-003
19562	20.169	5.4545	5.e-002	7.1574e-006
19563	20.169	5.7273	0.	-7.4031e-003
19564	20.26	5.6364	0.	-1.2087e-002
19565	20.169	5.6364	5.e-002	7.8177e-006
19566	20.26	5.8182	0.	-2.1803e-003
19567	20.169	5.8182	5.e-002	7.3489e-006
19568	20.169	5.9091	0.	-1.0484e-003
19569	20.352	0.27273	0.	-9.4043e-003
19570	20.443	0.18182	0.	-2.5407e-003
19571	20.352	0.18182	5.e-002	6.4181e-006
19572	20.352	9.0909e-002	0.	-1.4723e-003
19573	20.352	0.45455	0.	-8.3402e-003
19574	20.443	0.36364	0.	-1.527e-002
19575	20.352	0.36364	5.e-002	7.0145e-006
19576	20.352	0.63636	0.	-1.1203e-003
19577	20.443	0.54545	0.	-3.2068e-003
19578	20.352	0.54545	5.e-002	8.4546e-006
19579	20.352	0.81818	0.	2.754e-003
19580	20.443	0.72727	0.	4.1591e-004
19581	20.352	0.72727	5.e-002	1.0025e-005
19582	20.352	1.	0.	6.6873e-003
19583	20.443	0.90909	0.	5.0504e-003
19584	20.352	0.90909	5.e-002	9.74e-006
19585	20.352	1.1818	0.	9.9948e-003
19586	20.443	1.0909	0.	8.7543e-003
19587	20.352	1.0909	5.e-002	7.6083e-006
19588	20.352	1.3636	0.	1.2817e-002
19589	20.443	1.2727	0.	1.1969e-002
19590	20.352	1.2727	5.e-002	7.3737e-006
19591	20.352	1.5455	0.	1.5131e-002
19592	20.443	1.4545	0.	1.4604e-002
19593	20.352	1.4545	5.e-002	7.8591e-006
19594	20.352	1.7273	0.	1.6992e-002
19595	20.443	1.6364	0.	1.6731e-002
19596	20.352	1.6364	5.e-002	8.2175e-006
19597	20.352	1.9091	0.	1.8452e-002
19598	20.443	1.8182	0.	1.8411e-002
19599	20.352	1.8182	5.e-002	7.29e-006
19600	20.352	2.0909	0.	1.9571e-002
19601	20.443	2.	0.	1.9709e-002
19602	20.352	2.	5.e-002	7.9056e-006
19603	20.352	2.2727	0.	2.0403e-002
19604	20.443	2.1818	0.	2.0685e-002
19605	20.352	2.1818	5.e-002	7.9219e-006
19606	20.352	2.4545	0.	2.0997e-002
19607	20.443	2.3636	0.	2.1399e-002
19608	20.352	2.3636	5.e-002	8.298e-006
19609	20.352	2.6364	0.	2.1391e-002
19610	20.443	2.5455	0.	2.1891e-002
19611	20.352	2.5455	5.e-002	8.4307e-006
19612	20.352	2.8182	0.	2.1616e-002
19613	20.443	2.7273	0.	2.22e-002
19614	20.352	2.7273	5.e-002	7.2525e-006
19615	20.352	3.	0.	2.169e-002
19616	20.443	2.9091	0.	2.235e-002
19617	20.352	2.9091	5.e-002	8.0999e-006
19618	20.352	3.1818	0.	2.1616e-002
19619	20.443	3.0909	0.	2.2349e-002
19620	20.352	3.0909	5.e-002	7.159e-006
19621	20.352	3.3636	0.	2.1391e-002
19622	20.443	3.2727	0.	2.22e-002
19623	20.352	3.2727	5.e-002	8.1257e-006
19624	20.352	3.5455	0.	2.0997e-002
19625	20.443	3.4545	0.	2.1892e-002
19626	20.352	3.4545	5.e-002	7.6631e-006
19627	20.352	3.7273	0.	2.0404e-002
19628	20.443	3.6364	0.	2.1398e-002
19629	20.352	3.6364	5.e-002	8.5121e-006
19630	20.352	3.9091	0.	1.9571e-002
19631	20.443	3.8182	0.	2.0685e-002
19632	20.352	3.8182	5.e-002	9.247e-006
19633	20.352	4.0909	0.	1.8452e-002
19634	20.443	4.	0.	1.9709e-002
19635	20.352	4.	5.e-002	8.3064e-006
19636	20.352	4.2727	0.	1.6991e-002
19637	20.443	4.1818	0.	1.8411e-002
19638	20.352	4.1818	5.e-002	6.7861e-006
19639	20.352	4.4545	0.	1.5129e-002
19640	20.443	4.3636	0.	1.6731e-002
19641	20.352	4.3636	5.e-002	8.8326e-006
19642	20.352	4.6364	0.	1.2814e-002
19643	20.443	4.5455	0.	1.4602e-002
19644	20.352	4.5455	5.e-002	6.8202e-006
19645	20.352	4.8182	0.	9.9939e-003
19646	20.443	4.7273	0.	1.1968e-002
19647	20.352	4.7273	5.e-002	7.87e-006
19648	20.352	5.	0.	6.6873e-003
19649	20.443	4.9091	0.	8.7544e-003
19650	20.352	4.9091	5.e-002	7.7348e-006
19651	20.352	5.1818	0.	2.7539e-003
19652	20.443	5.0909	0.	5.0491e-003
19653	20.352	5.0909	5.e-002	5.8659e-006
19654	20.352	5.3636	0.	-1.1212e-003
19655	20.443	5.2727	0.	4.1498e-004
19656	20.352	5.2727	5.e-002	7.0772e-006
19657	20.352	5.5455	0.	-8.3397e-003
19658	20.443	5.4545	0.	-3.2084e-003
19659	20.352	5.4545	5.e-002	6.8467e-006
19660	20.352	5.7273	0.	-9.4024e-003
19661	20.443	5.6364	0.	-1.5266e-002
19662	20.352	5.6364	5.e-002	7.5585e-006
19663	20.443	5.8182	0.	-2.5397e-003
19664	20.352	5.8182	5.e-002	5.9297e-006
19665	20.352	5.9091	0.	-1.4726e-003
19666	20.534	0.27273	0.	-1.1547e-002
19667	20.625	0.18182	0.	-3.0765e-003
19668	20.534	0.18182	5.e-002	5.3725e-006
19669	20.534	9.0909e-002	0.	-1.8925e-003
19670	20.534	0.45455	0.	-1.0341e-002
19671	20.625	0.36364	0.	-1.8535e-002
19672	20.534	0.36364	5.e-002	5.1476e-006
19673	20.534	0.63636	0.	-1.652e-003
19674	20.625	0.54545	0.	-3.9793e-003
19675	20.534	0.54545	5.e-002	6.3505e-006
19676	20.534	0.81818	0.	2.7596e-003
19677	20.625	0.72727	0.	1.2308e-004
19678	20.534	0.72727	5.e-002	8.1306e-006
19679	20.534	1.	0.	7.1714e-003
19680	20.625	0.90909	0.	5.3596e-003
19681	20.534	0.90909	5.e-002	8.6225e-006
19682	20.534	1.1818	0.	1.0783e-002
19683	20.625	1.0909	0.	9.4199e-003
19684	20.534	1.0909	5.e-002	8.2368e-006
19685	20.534	1.3636	0.	1.3809e-002
19686	20.625	1.2727	0.	1.2887e-002
19687	20.534	1.2727	5.e-002	7.4678e-006
19688	20.534	1.5455	0.	1.6255e-002
19689	20.625	1.4545	0.	1.5686e-002
19690	20.534	1.4545	5.e-002	7.1047e-006
19691	20.534	1.7273	0.	1.8203e-002
19692	20.625	1.6364	0.	1.7926e-002
19693	20.534	1.6364	5.e-002	7.5907e-006
19694	20.534	1.9091	0.	1.9721e-002
19695	20.625	1.8182	0.	1.9683e-002
19696	20.534	1.8182	5.e-002	7.4674e-006
19697	20.534	2.0909	0.	2.0879e-002
19698	20.625	2.	0.	2.1037e-002
19699	20.534	2.	5.e-002	7.504e-006
19700	20.534	2.2727	0.	2.174e-002
19701	20.625	2.1818	0.	2.2056e-002
19702	20.534	2.1818	5.e-002	7.7564e-006
19703	20.534	2.4545	0.	2.2355e-002
19704	20.625	2.3636	0.	2.2803e-002
19705	20.534	2.3636	5.e-002	8.0192e-006
19706	20.534	2.6364	0.	2.2764e-002
19707	20.625	2.5455	0.	2.3319e-002
19708	20.534	2.5455	5.e-002	7.8073e-006
19709	20.534	2.8182	0.	2.2999e-002
19710	20.625	2.7273	0.	2.3645e-002
19711	20.534	2.7273	5.e-002	6.8773e-006
19712	20.534	3.	0.	2.3075e-002
19713	20.625	2.9091	0.	2.3802e-002
19714	20.534	2.9091	5.e-002	7.6166e-006
19715	20.534	3.1818	0.	2.2998e-002
19716	20.625	3.0909	0.	2.38e-002
19717	20.534	3.0909	5.e-002	6.6887e-006
19718	20.534	3.3636	0.	2.2765e-002
19719	20.625	3.2727	0.	2.3644e-002
19720	20.534	3.2727	5.e-002	7.429e-006
19721	20.534	3.5455	0.	2.2354e-002
19722	20.625	3.4545	0.	2.3319e-002
19723	20.534	3.4545	5.e-002	7.4542e-006
19724	20.534	3.7273	0.	2.1739e-002
19725	20.625	3.6364	0.	2.28e-002
19726	20.534	3.6364	5.e-002	7.9628e-006
19727	20.534	3.9091	0.	2.0879e-002
19728	20.625	3.8182	0.	2.2056e-002
19729	20.534	3.8182	5.e-002	8.4498e-006
19730	20.534	4.0909	0.	1.972e-002
19731	20.625	4.	0.	2.1037e-002
19732	20.534	4.	5.e-002	7.5312e-006
19733	20.534	4.2727	0.	1.8202e-002
19734	20.625	4.1818	0.	1.9683e-002
19735	20.534	4.1818	5.e-002	6.8216e-006
19736	20.534	4.4545	0.	1.6255e-002
19737	20.625	4.3636	0.	1.7926e-002
19738	20.534	4.3636	5.e-002	8.3831e-006
19739	20.534	4.6364	0.	1.3809e-002
19740	20.625	4.5455	0.	1.5686e-002
19741	20.534	4.5455	5.e-002	6.6195e-006
19742	20.534	4.8182	0.	1.0783e-002
19743	20.625	4.7273	0.	1.2888e-002
19744	20.534	4.7273	5.e-002	7.3085e-006
19745	20.534	5.	0.	7.1702e-003
19746	20.625	4.9091	0.	9.4197e-003
19747	20.534	4.9091	5.e-002	6.9108e-006
19748	20.534	5.1818	0.	2.7575e-003
19749	20.625	5.0909	0.	5.3584e-003
19750	20.534	5.0909	5.e-002	5.3267e-006
19751	20.534	5.3636	0.	-1.6535e-003
19752	20.625	5.2727	0.	1.212e-004
19753	20.534	5.2727	5.e-002	6.1888e-006
19754	20.534	5.5455	0.	-1.0339e-002
19755	20.625	5.4545	0.	-3.9807e-003
19756	20.534	5.4545	5.e-002	6.3156e-006
19757	20.534	5.7273	0.	-1.1545e-002
19758	20.625	5.6364	0.	-1.8532e-002
19759	20.534	5.6364	5.e-002	7.1751e-006
19760	20.625	5.8182	0.	-3.0745e-003
19761	20.534	5.8182	5.e-002	5.8322e-006
19762	20.534	5.9091	0.	-1.8928e-003
19763	20.716	0.27273	0.	-1.3836e-002
19764	20.808	0.18182	0.	-3.794e-003
19765	20.716	0.18182	5.e-002	6.0849e-006
19766	20.716	9.0909e-002	0.	-2.2908e-003
19767	20.716	0.45455	0.	-1.235e-002
19768	20.808	0.36364	0.	-2.189e-002
19769	20.716	0.36364	5.e-002	5.3744e-006
19770	20.716	0.63636	0.	-2.1224e-003
19771	20.808	0.54545	0.	-4.6937e-003
19772	20.716	0.54545	5.e-002	5.075e-006
19773	20.716	0.81818	0.	2.8322e-003
19774	20.808	0.72727	0.	-8.8624e-005
19775	20.716	0.72727	5.e-002	5.6496e-006
19776	20.716	1.	0.	7.7192e-003
19777	20.808	0.90909	0.	5.7642e-003
19778	20.716	0.90909	5.e-002	6.7371e-006
19779	20.716	1.1818	0.	1.163e-002
19780	20.808	1.0909	0.	1.0183e-002
19781	20.716	1.0909	5.e-002	7.0565e-006
19782	20.716	1.3636	0.	1.4863e-002
19783	20.808	1.2727	0.	1.3908e-002
19784	20.716	1.2727	5.e-002	7.0197e-006
19785	20.716	1.5455	0.	1.7447e-002
19786	20.808	1.4545	0.	1.6879e-002
19787	20.716	1.4545	5.e-002	7.0343e-006
19788	20.716	1.7273	0.	1.9491e-002
19789	20.808	1.6364	0.	1.9238e-002
19790	20.716	1.6364	5.e-002	7.2044e-006
19791	20.716	1.9091	0.	2.108e-002
19792	20.808	1.8182	0.	2.1082e-002
19793	20.716	1.8182	5.e-002	6.512e-006
19794	20.716	2.0909	0.	2.2292e-002
19795	20.808	2.	0.	2.2502e-002
19796	20.716	2.	5.e-002	7.2384e-006
19797	20.716	2.2727	0.	2.3194e-002
19798	20.808	2.1818	0.	2.3572e-002
19799	20.716	2.1818	5.e-002	7.0097e-006
19800	20.716	2.4545	0.	2.384e-002
19801	20.808	2.3636	0.	2.4356e-002
19802	20.716	2.3636	5.e-002	7.0388e-006
19803	20.716	2.6364	0.	2.4273e-002
19804	20.808	2.5455	0.	2.4902e-002
19805	20.716	2.5455	5.e-002	7.3071e-006
19806	20.716	2.8182	0.	2.4521e-002
19807	20.808	2.7273	0.	2.5248e-002
19808	20.716	2.7273	5.e-002	6.1462e-006
19809	20.716	3.	0.	2.4601e-002
19810	20.808	2.9091	0.	2.5414e-002
19811	20.716	2.9091	5.e-002	6.4191e-006
19812	20.716	3.1818	0.	2.4519e-002
19813	20.808	3.0909	0.	2.5413e-002
19814	20.716	3.0909	5.e-002	5.7403e-006
19815	20.716	3.3636	0.	2.4272e-002
19816	20.808	3.2727	0.	2.5247e-002
19817	20.716	3.2727	5.e-002	6.4916e-006
19818	20.716	3.5455	0.	2.3839e-002
19819	20.808	3.4545	0.	2.4901e-002
19820	20.716	3.4545	5.e-002	6.0493e-006
19821	20.716	3.7273	0.	2.3192e-002
19822	20.808	3.6364	0.	2.4355e-002
19823	20.716	3.6364	5.e-002	6.7957e-006
19824	20.716	3.9091	0.	2.2292e-002
19825	20.808	3.8182	0.	2.3571e-002
19826	20.716	3.8182	5.e-002	7.5653e-006
19827	20.716	4.0909	0.	2.1081e-002
19828	20.808	4.	0.	2.2503e-002
19829	20.716	4.	5.e-002	6.8483e-006
19830	20.716	4.2727	0.	1.9492e-002
19831	20.808	4.1818	0.	2.1082e-002
19832	20.716	4.1818	5.e-002	6.3594e-006
19833	20.716	4.4545	0.	1.7447e-002
19834	20.808	4.3636	0.	1.9239e-002
19835	20.716	4.3636	5.e-002	7.5844e-006
19836	20.716	4.6364	0.	1.4863e-002
19837	20.808	4.5455	0.	1.6877e-002
19838	20.716	4.5455	5.e-002	5.9067e-006
19839	20.716	4.8182	0.	1.163e-002
19840	20.808	4.7273	0.	1.3908e-002
19841	20.716	4.7273	5.e-002	6.8468e-006
19842	20.716	5.	0.	7.7189e-003
19843	20.808	4.9091	0.	1.0182e-002
19844	20.716	4.9091	5.e-002	6.4547e-006
19845	20.716	5.1818	0.	2.8312e-003
19846	20.808	5.0909	0.	5.7638e-003
19847	20.716	5.0909	5.e-002	4.5629e-006
19848	20.716	5.3636	0.	-2.1242e-003
19849	20.808	5.2727	0.	-9.056e-005
19850	20.716	5.2727	5.e-002	5.4908e-006
19851	20.716	5.5455	0.	-1.235e-002
19852	20.808	5.4545	0.	-4.6944e-003
19853	20.716	5.4545	5.e-002	5.708e-006
19854	20.716	5.7273	0.	-1.3834e-002
19855	20.808	5.6364	0.	-2.1888e-002
19856	20.716	5.6364	5.e-002	6.5633e-006
19857	20.808	5.8182	0.	-3.7921e-003
19858	20.716	5.8182	5.e-002	2.8675e-006
19859	20.716	5.9091	0.	-2.2902e-003
19860	20.899	0.27273	0.	-1.6278e-002
19861	20.99	0.18182	0.	-4.7269e-003
19862	20.899	0.18182	5.e-002	9.0461e-006
19863	20.899	9.0909e-002	0.	-2.6368e-003
19864	20.899	0.45455	0.	-1.4366e-002
19865	20.99	0.36364	0.	-2.5358e-002
19866	20.899	0.36364	5.e-002	4.2899e-006
19867	20.899	0.63636	0.	-2.5074e-003
19868	20.99	0.54545	0.	-5.3493e-003
19869	20.899	0.54545	5.e-002	7.1127e-006
19870	20.899	0.81818	0.	3.0141e-003
19871	20.99	0.72727	0.	-2.0311e-004
19872	20.899	0.72727	5.e-002	7.095e-006
19873	20.899	1.	0.	8.3899e-003
19874	20.99	0.90909	0.	6.2931e-003
19875	20.899	0.90909	5.e-002	5.3398e-006
19876	20.899	1.1818	0.	1.2608e-002
19877	20.99	1.0909	0.	1.1083e-002
19878	20.899	1.0909	5.e-002	6.4484e-006
19879	20.899	1.3636	0.	1.6056e-002
19880	20.99	1.2727	0.	1.5075e-002
19881	20.899	1.2727	5.e-002	8.1788e-006
19882	20.899	1.5455	0.	1.8788e-002
19883	20.99	1.4545	0.	1.8227e-002
19884	20.899	1.4545	5.e-002	8.5363e-006
19885	20.899	1.7273	0.	2.0937e-002
19886	20.99	1.6364	0.	2.0715e-002
19887	20.899	1.6364	5.e-002	8.4904e-006
19888	20.899	1.9091	0.	2.2603e-002
19889	20.99	1.8182	0.	2.2652e-002
19890	20.899	1.8182	5.e-002	7.5857e-006
19891	20.899	2.0909	0.	2.3875e-002
19892	20.99	2.	0.	2.4142e-002
19893	20.899	2.	5.e-002	7.123e-006
19894	20.899	2.2727	0.	2.4822e-002
19895	20.99	2.1818	0.	2.5268e-002
19896	20.899	2.1818	5.e-002	9.0558e-006
19897	20.899	2.4545	0.	2.5503e-002
19898	20.99	2.3636	0.	2.609e-002
19899	20.899	2.3636	5.e-002	8.1608e-006
19900	20.899	2.6364	0.	2.5961e-002
19901	20.99	2.5455	0.	2.6667e-002
19902	20.899	2.5455	5.e-002	8.2057e-006
19903	20.899	2.8182	0.	2.6223e-002
19904	20.99	2.7273	0.	2.7032e-002
19905	20.899	2.7273	5.e-002	7.0672e-006
19906	20.899	3.	0.	2.6307e-002
19907	20.99	2.9091	0.	2.7208e-002
19908	20.899	2.9091	5.e-002	7.8381e-006
19909	20.899	3.1818	0.	2.6223e-002
19910	20.99	3.0909	0.	2.7208e-002
19911	20.899	3.0909	5.e-002	6.4673e-006
19912	20.899	3.3636	0.	2.596e-002
19913	20.99	3.2727	0.	2.7032e-002
19914	20.899	3.2727	5.e-002	7.7182e-006
19915	20.899	3.5455	0.	2.5503e-002
19916	20.99	3.4545	0.	2.6666e-002
19917	20.899	3.4545	5.e-002	7.0605e-006
19918	20.899	3.7273	0.	2.4822e-002
19919	20.99	3.6364	0.	2.6091e-002
19920	20.899	3.6364	5.e-002	8.7905e-006
19921	20.899	3.9091	0.	2.3875e-002
19922	20.99	3.8182	0.	2.5266e-002
19923	20.899	3.8182	5.e-002	8.8482e-006
19924	20.899	4.0909	0.	2.2603e-002
19925	20.99	4.	0.	2.4142e-002
19926	20.899	4.	5.e-002	8.1485e-006
19927	20.899	4.2727	0.	2.0937e-002
19928	20.99	4.1818	0.	2.2652e-002
19929	20.899	4.1818	5.e-002	6.5276e-006
19930	20.899	4.4545	0.	1.8787e-002
19931	20.99	4.3636	0.	2.0715e-002
19932	20.899	4.3636	5.e-002	8.6874e-006
19933	20.899	4.6364	0.	1.6054e-002
19934	20.99	4.5455	0.	1.8225e-002
19935	20.899	4.5455	5.e-002	6.7087e-006
19936	20.899	4.8182	0.	1.2608e-002
19937	20.99	4.7273	0.	1.5075e-002
19938	20.899	4.7273	5.e-002	7.8844e-006
19939	20.899	5.	0.	8.3896e-003
19940	20.99	4.9091	0.	1.1082e-002
19941	20.899	4.9091	5.e-002	7.6216e-006
19942	20.899	5.1818	0.	3.0129e-003
19943	20.99	5.0909	0.	6.2919e-003
19944	20.899	5.0909	5.e-002	5.5662e-006
19945	20.899	5.3636	0.	-2.5083e-003
19946	20.99	5.2727	0.	-2.0412e-004
19947	20.899	5.2727	5.e-002	6.6498e-006
19948	20.899	5.5455	0.	-1.4365e-002
19949	20.99	5.4545	0.	-5.3496e-003
19950	20.899	5.4545	5.e-002	6.3066e-006
19951	20.899	5.7273	0.	-1.6277e-002
19952	20.99	5.6364	0.	-2.5356e-002
19953	20.899	5.6364	5.e-002	7.6867e-006
19954	20.99	5.8182	0.	-4.728e-003
19955	20.899	5.8182	5.e-002	4.9882e-006
19956	20.899	5.9091	0.	-2.6348e-003
19957	21.081	0.27273	0.	-1.8927e-002
19958	21.172	0.18182	0.	-5.9286e-003
19959	21.081	0.18182	5.e-002	8.0729e-006
19960	21.081	9.0909e-002	0.	-2.933e-003
19961	21.081	0.45455	0.	-1.6415e-002
19962	21.172	0.36364	0.	-2.8971e-002
19963	21.081	0.36364	5.e-002	7.366e-006
19964	21.081	0.63636	0.	-2.8137e-003
19965	21.172	0.54545	0.	-5.9453e-003
19966	21.081	0.54545	5.e-002	5.7897e-006
19967	21.081	0.81818	0.	3.3104e-003
19968	21.172	0.72727	0.	-2.0681e-004
19969	21.081	0.72727	5.e-002	6.7664e-006
19970	21.081	1.	0.	9.1979e-003
19971	21.172	0.90909	0.	6.9704e-003
19972	21.081	0.90909	5.e-002	6.3694e-006
19973	21.081	1.1818	0.	1.3736e-002
19974	21.172	1.0909	0.	1.2152e-002
19975	21.081	1.0909	5.e-002	5.9528e-006
19976	21.081	1.3636	0.	1.7409e-002
19977	21.172	1.2727	0.	1.6424e-002
19978	21.081	1.2727	5.e-002	6.8034e-006
19979	21.081	1.5455	0.	2.0297e-002
19980	21.172	1.4545	0.	1.9766e-002
19981	21.081	1.4545	5.e-002	7.8441e-006
19982	21.081	1.7273	0.	2.2559e-002
19983	21.172	1.6364	0.	2.239e-002
19984	21.081	1.6364	5.e-002	7.2062e-006
19985	21.081	1.9091	0.	2.4307e-002
19986	21.172	1.8182	0.	2.4426e-002
19987	21.081	1.8182	5.e-002	7.5559e-006
19988	21.081	2.0909	0.	2.5642e-002
19989	21.172	2.	0.	2.5987e-002
19990	21.081	2.	5.e-002	6.6483e-006
19991	21.081	2.2727	0.	2.6637e-002
19992	21.172	2.1818	0.	2.7167e-002
19993	21.081	2.1818	5.e-002	7.6818e-006
19994	21.081	2.4545	0.	2.7351e-002
19995	21.172	2.3636	0.	2.8031e-002
19996	21.081	2.3636	5.e-002	7.7577e-006
19997	21.081	2.6364	0.	2.7832e-002
19998	21.172	2.5455	0.	2.8636e-002
19999	21.081	2.5455	5.e-002	7.8546e-006
20000	21.081	2.8182	0.	2.8109e-002
20001	21.172	2.7273	0.	2.9019e-002
20002	21.081	2.7273	5.e-002	6.0428e-006
20003	21.081	3.	0.	2.82e-002
20004	21.172	2.9091	0.	2.9206e-002
20005	21.081	2.9091	5.e-002	8.0526e-006
20006	21.081	3.1818	0.	2.811e-002
20007	21.172	3.0909	0.	2.9206e-002
20008	21.081	3.0909	5.e-002	6.2532e-006
20009	21.081	3.3636	0.	2.7833e-002
20010	21.172	3.2727	0.	2.902e-002
20011	21.081	3.2727	5.e-002	7.316e-006
20012	21.081	3.5455	0.	2.7352e-002
20013	21.172	3.4545	0.	2.8636e-002
20014	21.081	3.4545	5.e-002	7.4183e-006
20015	21.081	3.7273	0.	2.6637e-002
20016	21.172	3.6364	0.	2.8031e-002
20017	21.081	3.6364	5.e-002	7.5111e-006
20018	21.081	3.9091	0.	2.5642e-002
20019	21.172	3.8182	0.	2.7167e-002
20020	21.081	3.8182	5.e-002	9.5031e-006
20021	21.081	4.0909	0.	2.4308e-002
20022	21.172	4.	0.	2.5987e-002
20023	21.081	4.	5.e-002	7.6968e-006
20024	21.081	4.2727	0.	2.2558e-002
20025	21.172	4.1818	0.	2.4425e-002
20026	21.081	4.1818	5.e-002	7.1127e-006
20027	21.081	4.4545	0.	2.0296e-002
20028	21.172	4.3636	0.	2.239e-002
20029	21.081	4.3636	5.e-002	8.56e-006
20030	21.081	4.6364	0.	1.7409e-002
20031	21.172	4.5455	0.	1.9765e-002
20032	21.081	4.5455	5.e-002	7.4436e-006
20033	21.081	4.8182	0.	1.3736e-002
20034	21.172	4.7273	0.	1.6425e-002
20035	21.081	4.7273	5.e-002	7.8411e-006
20036	21.081	5.	0.	9.1968e-003
20037	21.172	4.9091	0.	1.2151e-002
20038	21.081	4.9091	5.e-002	8.0845e-006
20039	21.081	5.1818	0.	3.3094e-003
20040	21.172	5.0909	0.	6.9693e-003
20041	21.081	5.0909	5.e-002	5.4706e-006
20042	21.081	5.3636	0.	-2.8141e-003
20043	21.172	5.2727	0.	-2.0603e-004
20044	21.081	5.2727	5.e-002	6.9644e-006
20045	21.081	5.5455	0.	-1.6414e-002
20046	21.172	5.4545	0.	-5.945e-003
20047	21.081	5.4545	5.e-002	6.3728e-006
20048	21.081	5.7273	0.	-1.8927e-002
20049	21.172	5.6364	0.	-2.8967e-002
20050	21.081	5.6364	5.e-002	7.0858e-006
20051	21.172	5.8182	0.	-5.9304e-003
20052	21.081	5.8182	5.e-002	4.8747e-006
20053	21.081	5.9091	0.	-2.9365e-003
20054	21.264	0.27273	0.	-2.1816e-002
20055	21.355	0.18182	0.	-7.4382e-003
20056	21.264	0.18182	5.e-002	9.8561e-006
20057	21.264	9.0909e-002	0.	-3.1635e-003
20058	21.264	0.45455	0.	-1.8498e-002
20059	21.355	0.36364	0.	-3.2736e-002
20060	21.264	0.36364	5.e-002	9.1608e-006
20061	21.264	0.63636	0.	-3.0185e-003
20062	21.355	0.54545	0.	-6.4534e-003
20063	21.264	0.54545	5.e-002	4.7066e-006
20064	21.264	0.81818	0.	3.7555e-003
20065	21.355	0.72727	0.	-5.4655e-005
20066	21.264	0.72727	5.e-002	7.4273e-006
20067	21.264	1.	0.	1.0188e-002
20068	21.355	0.90909	0.	7.8517e-003
20069	21.264	0.90909	5.e-002	9.3682e-006
20070	21.264	1.1818	0.	1.5066e-002
20071	21.355	1.0909	0.	1.3449e-002
20072	21.264	1.0909	5.e-002	9.628e-006
20073	21.264	1.3636	0.	1.8975e-002
20074	21.355	1.2727	0.	1.802e-002
20075	21.264	1.2727	5.e-002	8.3949e-006
20076	21.264	1.5455	0.	2.2027e-002
20077	21.355	1.4545	0.	2.156e-002
20078	21.264	1.4545	5.e-002	9.3441e-006
20079	21.264	1.7273	0.	2.4405e-002
20080	21.355	1.6364	0.	2.4326e-002
20081	21.264	1.6364	5.e-002	9.1801e-006
20082	21.264	1.9091	0.	2.624e-002
20083	21.355	1.8182	0.	2.6462e-002
20084	21.264	1.8182	5.e-002	8.2573e-006
20085	21.264	2.0909	0.	2.7636e-002
20086	21.355	2.	0.	2.8097e-002
20087	21.264	2.	5.e-002	8.356e-006
20088	21.264	2.2727	0.	2.8677e-002
20089	21.355	2.1818	0.	2.9329e-002
20090	21.264	2.1818	5.e-002	8.4454e-006
20091	21.264	2.4545	0.	2.9427e-002
20092	21.355	2.3636	0.	3.0233e-002
20093	21.264	2.3636	5.e-002	1.0001e-005
20094	21.264	2.6364	0.	2.9931e-002
20095	21.355	2.5455	0.	3.0866e-002
20096	21.264	2.5455	5.e-002	9.6582e-006
20097	21.264	2.8182	0.	3.0222e-002
20098	21.355	2.7273	0.	3.1266e-002
20099	21.264	2.7273	5.e-002	8.3686e-006
20100	21.264	3.	0.	3.0318e-002
20101	21.355	2.9091	0.	3.1463e-002
20102	21.264	2.9091	5.e-002	8.9863e-006
20103	21.264	3.1818	0.	3.0223e-002
20104	21.355	3.0909	0.	3.1461e-002
20105	21.264	3.0909	5.e-002	8.1805e-006
20106	21.264	3.3636	0.	2.9931e-002
20107	21.355	3.2727	0.	3.1268e-002
20108	21.264	3.2727	5.e-002	8.8063e-006
20109	21.264	3.5455	0.	2.9427e-002
20110	21.355	3.4545	0.	3.0865e-002
20111	21.264	3.4545	5.e-002	8.9501e-006
20112	21.264	3.7273	0.	2.8678e-002
20113	21.355	3.6364	0.	3.0234e-002
20114	21.264	3.6364	5.e-002	1.004e-005
20115	21.264	3.9091	0.	2.7636e-002
20116	21.355	3.8182	0.	2.9329e-002
20117	21.264	3.8182	5.e-002	1.0194e-005
20118	21.264	4.0909	0.	2.6239e-002
20119	21.355	4.	0.	2.8097e-002
20120	21.264	4.	5.e-002	9.87e-006
20121	21.264	4.2727	0.	2.4405e-002
20122	21.355	4.1818	0.	2.6461e-002
20123	21.264	4.1818	5.e-002	9.099e-006
20124	21.264	4.4545	0.	2.2027e-002
20125	21.355	4.3636	0.	2.4326e-002
20126	21.264	4.3636	5.e-002	1.0929e-005
20127	21.264	4.6364	0.	1.8975e-002
20128	21.355	4.5455	0.	2.1561e-002
20129	21.264	4.5455	5.e-002	1.0364e-005
20130	21.264	4.8182	0.	1.5065e-002
20131	21.355	4.7273	0.	1.802e-002
20132	21.264	4.7273	5.e-002	1.0083e-005
20133	21.264	5.	0.	1.0187e-002
20134	21.355	4.9091	0.	1.3448e-002
20135	21.264	4.9091	5.e-002	1.0822e-005
20136	21.264	5.1818	0.	3.7561e-003
20137	21.355	5.0909	0.	7.8502e-003
20138	21.264	5.0909	5.e-002	8.1752e-006
20139	21.264	5.3636	0.	-3.0171e-003
20140	21.355	5.2727	0.	-5.5696e-005
20141	21.264	5.2727	5.e-002	9.7361e-006
20142	21.264	5.5455	0.	-1.8495e-002
20143	21.355	5.4545	0.	-6.4515e-003
20144	21.264	5.4545	5.e-002	8.559e-006
20145	21.264	5.7273	0.	-2.1814e-002
20146	21.355	5.6364	0.	-3.2732e-002
20147	21.264	5.6364	5.e-002	9.9619e-006
20148	21.355	5.8182	0.	-7.4387e-003
20149	21.264	5.8182	5.e-002	8.2012e-006
20150	21.264	5.9091	0.	-3.1655e-003
20151	21.446	0.27273	0.	-2.4963e-002
20152	21.537	0.18182	0.	-9.3153e-003
20153	21.446	0.18182	5.e-002	6.1922e-006
20154	21.446	9.0909e-002	0.	-3.2758e-003
20155	21.446	0.45455	0.	-2.059e-002
20156	21.537	0.36364	0.	-3.667e-002
20157	21.446	0.36364	5.e-002	6.1797e-006
20158	21.446	0.63636	0.	-3.069e-003
20159	21.537	0.54545	0.	-6.839e-003
20160	21.446	0.54545	5.e-002	1.7704e-006
20161	21.446	0.81818	0.	4.4179e-003
20162	21.537	0.72727	0.	3.0004e-004
20163	21.446	0.72727	5.e-002	4.9775e-006
20164	21.446	1.	0.	1.143e-002
20165	21.537	0.90909	0.	8.9975e-003
20166	21.446	0.90909	5.e-002	6.8257e-006
20167	21.446	1.1818	0.	1.6669e-002
20168	21.537	1.0909	0.	1.5039e-002
20169	21.446	1.0909	5.e-002	8.0428e-006
20170	21.446	1.3636	0.	2.083e-002
20171	21.537	1.2727	0.	1.9928e-002
20172	21.446	1.2727	5.e-002	7.6311e-006
20173	21.446	1.5455	0.	2.4054e-002
20174	21.537	1.4545	0.	2.3677e-002
20175	21.446	1.4545	5.e-002	7.0715e-006
20176	21.446	1.7273	0.	2.6553e-002
20177	21.537	1.6364	0.	2.6589e-002
20178	21.446	1.6364	5.e-002	7.5126e-006
20179	21.446	1.9091	0.	2.8473e-002
20180	21.537	1.8182	0.	2.8825e-002
20181	21.446	1.8182	5.e-002	7.1749e-006
20182	21.446	2.0909	0.	2.9932e-002
20183	21.537	2.	0.	3.0534e-002
20184	21.446	2.	5.e-002	6.8116e-006
20185	21.446	2.2727	0.	3.1018e-002
20186	21.537	2.1818	0.	3.1818e-002
20187	21.446	2.1818	5.e-002	6.9273e-006
20188	21.446	2.4545	0.	3.18e-002
20189	21.537	2.3636	0.	3.2759e-002
20190	21.446	2.3636	5.e-002	7.0479e-006
20191	21.446	2.6364	0.	3.2326e-002
20192	21.537	2.5455	0.	3.3419e-002
20193	21.446	2.5455	5.e-002	6.7445e-006
20194	21.446	2.8182	0.	3.263e-002
20195	21.537	2.7273	0.	3.3837e-002
20196	21.446	2.7273	5.e-002	5.9492e-006
20197	21.446	3.	0.	3.2728e-002
20198	21.537	2.9091	0.	3.4039e-002
20199	21.446	2.9091	5.e-002	7.0676e-006
20200	21.446	3.1818	0.	3.2629e-002
20201	21.537	3.0909	0.	3.4038e-002
20202	21.446	3.0909	5.e-002	6.2848e-006
20203	21.446	3.3636	0.	3.2327e-002
20204	21.537	3.2727	0.	3.3838e-002
20205	21.446	3.2727	5.e-002	8.3634e-006
20206	21.446	3.5455	0.	3.18e-002
20207	21.537	3.4545	0.	3.3418e-002
20208	21.446	3.4545	5.e-002	7.5858e-006
20209	21.446	3.7273	0.	3.1019e-002
20210	21.537	3.6364	0.	3.2758e-002
20211	21.446	3.6364	5.e-002	9.1573e-006
20212	21.446	3.9091	0.	2.9933e-002
20213	21.537	3.8182	0.	3.1819e-002
20214	21.446	3.8182	5.e-002	9.7885e-006
20215	21.446	4.0909	0.	2.8473e-002
20216	21.537	4.	0.	3.0533e-002
20217	21.446	4.	5.e-002	8.0687e-006
20218	21.446	4.2727	0.	2.6553e-002
20219	21.537	4.1818	0.	2.8825e-002
20220	21.446	4.1818	5.e-002	6.7571e-006
20221	21.446	4.4545	0.	2.4054e-002
20222	21.537	4.3636	0.	2.6589e-002
20223	21.446	4.3636	5.e-002	9.2008e-006
20224	21.446	4.6364	0.	2.0831e-002
20225	21.537	4.5455	0.	2.3679e-002
20226	21.446	4.5455	5.e-002	7.7797e-006
20227	21.446	4.8182	0.	1.6669e-002
20228	21.537	4.7273	0.	1.9928e-002
20229	21.446	4.7273	5.e-002	8.5335e-006
20230	21.446	5.	0.	1.1429e-002
20231	21.537	4.9091	0.	1.5039e-002
20232	21.446	4.9091	5.e-002	8.7172e-006
20233	21.446	5.1818	0.	4.4148e-003
20234	21.537	5.0909	0.	8.9935e-003
20235	21.446	5.0909	5.e-002	6.9005e-006
20236	21.446	5.3636	0.	-3.0696e-003
20237	21.537	5.2727	0.	2.9851e-004
20238	21.446	5.2727	5.e-002	7.9693e-006
20239	21.446	5.5455	0.	-2.0588e-002
20240	21.537	5.4545	0.	-6.8371e-003
20241	21.446	5.4545	5.e-002	7.7486e-006
20242	21.446	5.7273	0.	-2.4962e-002
20243	21.537	5.6364	0.	-3.6666e-002
20244	21.446	5.6364	5.e-002	9.2532e-006
20245	21.537	5.8182	0.	-9.3147e-003
20246	21.446	5.8182	5.e-002	8.3167e-006
20247	21.446	5.9091	0.	-3.2808e-003
20248	21.628	0.27273	0.	-2.8432e-002
20249	21.72	0.18182	0.	-1.1652e-002
20250	21.628	0.18182	5.e-002	5.8427e-006
20251	21.628	9.0909e-002	0.	-3.2424e-003
20252	21.628	0.45455	0.	-2.2693e-002
20253	21.72	0.36364	0.	-4.0803e-002
20254	21.628	0.36364	5.e-002	3.4783e-006
20255	21.628	0.63636	0.	-2.9331e-003
20256	21.72	0.54545	0.	-7.0689e-003
20257	21.628	0.54545	5.e-002	1.5841e-006
20258	21.628	0.81818	0.	5.3391e-003
20259	21.72	0.72727	0.	9.0986e-004
20260	21.628	0.72727	5.e-002	2.7093e-006
20261	21.628	1.	0.	1.2984e-002
20262	21.72	0.90909	0.	1.0469e-002
20263	21.628	0.90909	5.e-002	7.1902e-006
20264	21.628	1.1818	0.	1.8609e-002
20265	21.72	1.0909	0.	1.6995e-002
20266	21.628	1.0909	5.e-002	8.0117e-006
20267	21.628	1.3636	0.	2.3033e-002
20268	21.72	1.2727	0.	2.2219e-002
20269	21.628	1.2727	5.e-002	7.4545e-006
20270	21.628	1.5455	0.	2.6438e-002
20271	21.72	1.4545	0.	2.6188e-002
20272	21.628	1.4545	5.e-002	7.4847e-006
20273	21.628	1.7273	0.	2.9059e-002
20274	21.72	1.6364	0.	2.9249e-002
20275	21.628	1.6364	5.e-002	8.0794e-006
20276	21.628	1.9091	0.	3.1065e-002
20277	21.72	1.8182	0.	3.1587e-002
20278	21.628	1.8182	5.e-002	6.2312e-006
20279	21.628	2.0909	0.	3.2585e-002
20280	21.72	2.	0.	3.3366e-002
20281	21.628	2.	5.e-002	7.2653e-006
20282	21.628	2.2727	0.	3.3715e-002
20283	21.72	2.1818	0.	3.4701e-002
20284	21.628	2.1818	5.e-002	7.429e-006
20285	21.628	2.4545	0.	3.4527e-002
20286	21.72	2.3636	0.	3.5678e-002
20287	21.628	2.3636	5.e-002	6.5892e-006
20288	21.628	2.6364	0.	3.5075e-002
20289	21.72	2.5455	0.	3.6362e-002
20290	21.628	2.5455	5.e-002	7.7041e-006
20291	21.628	2.8182	0.	3.5389e-002
20292	21.72	2.7273	0.	3.6796e-002
20293	21.628	2.7273	5.e-002	7.3821e-006
20294	21.628	3.	0.	3.5492e-002
20295	21.72	2.9091	0.	3.7005e-002
20296	21.628	2.9091	5.e-002	7.0681e-006
20297	21.628	3.1818	0.	3.539e-002
20298	21.72	3.0909	0.	3.7006e-002
20299	21.628	3.0909	5.e-002	6.2849e-006
20300	21.628	3.3636	0.	3.5075e-002
20301	21.72	3.2727	0.	3.6795e-002
20302	21.628	3.2727	5.e-002	7.8818e-006
20303	21.628	3.5455	0.	3.4526e-002
20304	21.72	3.4545	0.	3.6362e-002
20305	21.628	3.4545	5.e-002	7.5772e-006
20306	21.628	3.7273	0.	3.3714e-002
20307	21.72	3.6364	0.	3.5677e-002
20308	21.628	3.6364	5.e-002	8.2048e-006
20309	21.628	3.9091	0.	3.2586e-002
20310	21.72	3.8182	0.	3.4702e-002
20311	21.628	3.8182	5.e-002	9.8218e-006
20312	21.628	4.0909	0.	3.1065e-002
20313	21.72	4.	0.	3.3366e-002
20314	21.628	4.	5.e-002	8.5331e-006
20315	21.628	4.2727	0.	2.906e-002
20316	21.72	4.1818	0.	3.1588e-002
20317	21.628	4.1818	5.e-002	8.1361e-006
20318	21.628	4.4545	0.	2.6438e-002
20319	21.72	4.3636	0.	2.9248e-002
20320	21.628	4.3636	5.e-002	9.6865e-006
20321	21.628	4.6364	0.	2.3033e-002
20322	21.72	4.5455	0.	2.6189e-002
20323	21.628	4.5455	5.e-002	7.8502e-006
20324	21.628	4.8182	0.	1.8609e-002
20325	21.72	4.7273	0.	2.2221e-002
20326	21.628	4.7273	5.e-002	9.7568e-006
20327	21.628	5.	0.	1.2981e-002
20328	21.72	4.9091	0.	1.6994e-002
20329	21.628	4.9091	5.e-002	9.737e-006
20330	21.628	5.1818	0.	5.3368e-003
20331	21.72	5.0909	0.	1.0466e-002
20332	21.628	5.0909	5.e-002	7.0311e-006
20333	21.628	5.3636	0.	-2.9322e-003
20334	21.72	5.2727	0.	9.0893e-004
20335	21.628	5.2727	5.e-002	8.8771e-006
20336	21.628	5.5455	0.	-2.2691e-002
20337	21.72	5.4545	0.	-7.0671e-003
20338	21.628	5.4545	5.e-002	8.8776e-006
20339	21.628	5.7273	0.	-2.8429e-002
20340	21.72	5.6364	0.	-4.08e-002
20341	21.628	5.6364	5.e-002	1.0764e-005
20342	21.72	5.8182	0.	-1.165e-002
20343	21.628	5.8182	5.e-002	7.8402e-006
20344	21.628	5.9091	0.	-3.242e-003
20345	21.811	0.27273	0.	-3.2286e-002
20346	21.902	0.18182	0.	-1.4556e-002
20347	21.811	0.18182	5.e-002	7.978e-006
20348	21.811	9.0909e-002	0.	-3.0074e-003
20349	21.811	0.45455	0.	-2.4797e-002
20350	21.902	0.36364	0.	-4.5153e-002
20351	21.811	0.36364	5.e-002	3.3858e-006
20352	21.811	0.63636	0.	-2.5527e-003
20353	21.902	0.54545	0.	-7.0773e-003
20354	21.811	0.54545	5.e-002	1.4727e-006
20355	21.811	0.81818	0.	6.5946e-003
20356	21.902	0.72727	0.	1.8674e-003
20357	21.811	0.72727	5.e-002	7.6074e-007
20358	21.811	1.	0.	1.4927e-002
20359	21.902	0.90909	0.	1.2372e-002
20360	21.811	0.90909	5.e-002	3.2918e-006
20361	21.811	1.1818	0.	2.0969e-002
20362	21.902	1.0909	0.	1.9423e-002
20363	21.811	1.0909	5.e-002	7.0545e-006
20364	21.811	1.3636	0.	2.5675e-002
20365	21.902	1.2727	0.	2.5005e-002
20366	21.811	1.2727	5.e-002	6.3058e-006
20367	21.811	1.5455	0.	2.9261e-002
20368	21.902	1.4545	0.	2.92e-002
20369	21.811	1.4545	5.e-002	6.0849e-006
20370	21.811	1.7273	0.	3.2008e-002
20371	21.902	1.6364	0.	3.2413e-002
20372	21.811	1.6364	5.e-002	6.0272e-006
20373	21.811	1.9091	0.	3.4099e-002
20374	21.902	1.8182	0.	3.4853e-002
20375	21.811	1.8182	5.e-002	5.1536e-006
20376	21.811	2.0909	0.	3.5678e-002
20377	21.902	2.	0.	3.6702e-002
20378	21.811	2.	5.e-002	4.2359e-006
20379	21.811	2.2727	0.	3.685e-002
20380	21.902	2.1818	0.	3.8085e-002
20381	21.811	2.1818	5.e-002	5.2621e-006
20382	21.811	2.4545	0.	3.7691e-002
20383	21.902	2.3636	0.	3.9096e-002
20384	21.811	2.3636	5.e-002	4.8892e-006
20385	21.811	2.6364	0.	3.8257e-002
20386	21.902	2.5455	0.	3.9805e-002
20387	21.811	2.5455	5.e-002	5.4618e-006
20388	21.811	2.8182	0.	3.8583e-002
20389	21.902	2.7273	0.	4.0251e-002
20390	21.811	2.7273	5.e-002	4.1315e-006
20391	21.811	3.	0.	3.8689e-002
20392	21.902	2.9091	0.	4.0468e-002
20393	21.811	2.9091	5.e-002	5.6664e-006
20394	21.811	3.1818	0.	3.8582e-002
20395	21.902	3.0909	0.	4.0468e-002
20396	21.811	3.0909	5.e-002	4.825e-006
20397	21.811	3.3636	0.	3.8257e-002
20398	21.902	3.2727	0.	4.0251e-002
20399	21.811	3.2727	5.e-002	4.9356e-006
20400	21.811	3.5455	0.	3.7691e-002
20401	21.902	3.4545	0.	3.9803e-002
20402	21.811	3.4545	5.e-002	5.5131e-006
20403	21.811	3.7273	0.	3.6849e-002
20404	21.902	3.6364	0.	3.9097e-002
20405	21.811	3.6364	5.e-002	6.0859e-006
20406	21.811	3.9091	0.	3.5677e-002
20407	21.902	3.8182	0.	3.8086e-002
20408	21.811	3.8182	5.e-002	7.1616e-006
20409	21.811	4.0909	0.	3.4099e-002
20410	21.902	4.	0.	3.6702e-002
20411	21.811	4.	5.e-002	5.7434e-006
20412	21.811	4.2727	0.	3.2008e-002
20413	21.902	4.1818	0.	3.4852e-002
20414	21.811	4.1818	5.e-002	5.3707e-006
20415	21.811	4.4545	0.	2.9261e-002
20416	21.902	4.3636	0.	3.2413e-002
20417	21.811	4.3636	5.e-002	7.689e-006
20418	21.811	4.6364	0.	2.5677e-002
20419	21.902	4.5455	0.	2.9201e-002
20420	21.811	4.5455	5.e-002	5.8558e-006
20421	21.811	4.8182	0.	2.0969e-002
20422	21.902	4.7273	0.	2.5006e-002
20423	21.811	4.7273	5.e-002	7.1587e-006
20424	21.811	5.	0.	1.4926e-002
20425	21.902	4.9091	0.	1.9422e-002
20426	21.811	4.9091	5.e-002	7.0687e-006
20427	21.811	5.1818	0.	6.5935e-003
20428	21.902	5.0909	0.	1.2371e-002
20429	21.811	5.0909	5.e-002	4.7545e-006
20430	21.811	5.3636	0.	-2.5528e-003
20431	21.902	5.2727	0.	1.8645e-003
20432	21.811	5.2727	5.e-002	5.5065e-006
20433	21.811	5.5455	0.	-2.4795e-002
20434	21.902	5.4545	0.	-7.077e-003
20435	21.811	5.4545	5.e-002	5.9367e-006
20436	21.811	5.7273	0.	-3.2285e-002
20437	21.902	5.6364	0.	-4.5152e-002
20438	21.811	5.6364	5.e-002	6.9667e-006
20439	21.902	5.8182	0.	-1.4554e-002
20440	21.811	5.8182	5.e-002	2.1799e-006
20441	21.811	5.9091	0.	-3.0046e-003
20442	21.993	0.27273	0.	-3.659e-002
20443	22.085	0.18182	0.	-1.817e-002
20444	21.993	0.18182	5.e-002	4.7597e-006
20445	21.993	9.0909e-002	0.	-2.4765e-003
20446	21.993	0.45455	0.	-2.6852e-002
20447	22.085	0.36364	0.	-4.9722e-002
20448	21.993	0.36364	5.e-002	3.3608e-006
20449	21.993	0.63636	0.	-1.8211e-003
20450	22.085	0.54545	0.	-6.7597e-003
20451	21.993	0.54545	5.e-002	2.7227e-006
20452	21.993	0.81818	0.	8.3115e-003
20453	22.085	0.72727	0.	3.3045e-003
20454	21.993	0.72727	5.e-002	3.7001e-006
20455	21.993	1.	0.	1.7395e-002
20456	22.085	0.90909	0.	1.4857e-002
20457	21.993	0.90909	5.e-002	4.8808e-006
20458	21.993	1.1818	0.	2.3885e-002
20459	22.085	1.0909	0.	2.2474e-002
20460	21.993	1.0909	5.e-002	6.0025e-006
20461	21.993	1.3636	0.	2.8885e-002
20462	22.085	1.2727	0.	2.8435e-002
20463	21.993	1.2727	5.e-002	6.8419e-006
20464	21.993	1.5455	0.	3.2659e-002
20465	22.085	1.4545	0.	3.2864e-002
20466	21.993	1.4545	5.e-002	6.5443e-006
20467	21.993	1.7273	0.	3.5532e-002
20468	22.085	1.6364	0.	3.6231e-002
20469	21.993	1.6364	5.e-002	6.7872e-006
20470	21.993	1.9091	0.	3.7707e-002
20471	22.085	1.8182	0.	3.8773e-002
20472	21.993	1.8182	5.e-002	5.3587e-006
20473	21.993	2.0909	0.	3.9344e-002
20474	22.085	2.	0.	4.069e-002
20475	21.993	2.	5.e-002	5.0356e-006
20476	21.993	2.2727	0.	4.0555e-002
20477	22.085	2.1818	0.	4.2123e-002
20478	21.993	2.1818	5.e-002	7.0235e-006
20479	21.993	2.4545	0.	4.1426e-002
20480	22.085	2.3636	0.	4.3166e-002
20481	21.993	2.3636	5.e-002	4.2865e-006
20482	21.993	2.6364	0.	4.2011e-002
20483	22.085	2.5455	0.	4.3899e-002
20484	21.993	2.5455	5.e-002	5.4054e-006
20485	21.993	2.8182	0.	4.2346e-002
20486	22.085	2.7273	0.	4.4359e-002
20487	21.993	2.7273	5.e-002	4.5658e-006
20488	21.993	3.	0.	4.2456e-002
20489	22.085	2.9091	0.	4.4583e-002
20490	21.993	2.9091	5.e-002	5.6524e-006
20491	21.993	3.1818	0.	4.2346e-002
20492	22.085	3.0909	0.	4.4583e-002
20493	21.993	3.0909	5.e-002	5.7928e-006
20494	21.993	3.3636	0.	4.201e-002
20495	22.085	3.2727	0.	4.4359e-002
20496	21.993	3.2727	5.e-002	4.9826e-006
20497	21.993	3.5455	0.	4.1426e-002
20498	22.085	3.4545	0.	4.3897e-002
20499	21.993	3.4545	5.e-002	7.0265e-006
20500	21.993	3.7273	0.	4.0557e-002
20501	22.085	3.6364	0.	4.3168e-002
20502	21.993	3.6364	5.e-002	7.1413e-006
20503	21.993	3.9091	0.	3.9345e-002
20504	22.085	3.8182	0.	4.2123e-002
20505	21.993	3.8182	5.e-002	8.2605e-006
20506	21.993	4.0909	0.	3.7705e-002
20507	22.085	4.	0.	4.0691e-002
20508	21.993	4.	5.e-002	6.8994e-006
20509	21.993	4.2727	0.	3.553e-002
20510	22.085	4.1818	0.	3.8771e-002
20511	21.993	4.1818	5.e-002	6.5284e-006
20512	21.993	4.4545	0.	3.266e-002
20513	22.085	4.3636	0.	3.6231e-002
20514	21.993	4.3636	5.e-002	8.4416e-006
20515	21.993	4.6364	0.	2.8885e-002
20516	22.085	4.5455	0.	3.2866e-002
20517	21.993	4.5455	5.e-002	6.993e-006
20518	21.993	4.8182	0.	2.3884e-002
20519	22.085	4.7273	0.	2.8434e-002
20520	21.993	4.7273	5.e-002	8.3802e-006
20521	21.993	5.	0.	1.7395e-002
20522	22.085	4.9091	0.	2.2474e-002
20523	21.993	4.9091	5.e-002	8.3254e-006
20524	21.993	5.1818	0.	8.3097e-003
20525	22.085	5.0909	0.	1.4855e-002
20526	21.993	5.0909	5.e-002	5.4347e-006
20527	21.993	5.3636	0.	-1.8236e-003
20528	22.085	5.2727	0.	3.301e-003
20529	21.993	5.2727	5.e-002	7.3339e-006
20530	21.993	5.5455	0.	-2.6853e-002
20531	22.085	5.4545	0.	-6.7619e-003
20532	21.993	5.4545	5.e-002	7.2269e-006
20533	21.993	5.7273	0.	-3.6589e-002
20534	22.085	5.6364	0.	-4.972e-002
20535	21.993	5.6364	5.e-002	7.4679e-006
20536	22.085	5.8182	0.	-1.8169e-002
20537	21.993	5.8182	5.e-002	5.3499e-006
20538	21.993	5.9091	0.	-2.4761e-003
20539	22.176	0.27273	0.	-4.1427e-002
20540	22.267	0.18182	0.	-2.2695e-002
20541	22.176	0.18182	5.e-002	1.2471e-007
20542	22.176	9.0909e-002	0.	-1.5356e-003
20543	22.176	0.45455	0.	-2.8792e-002
20544	22.267	0.36364	0.	-5.4504e-002
20545	22.176	0.36364	5.e-002	-3.4618e-007
20546	22.176	0.63636	0.	-5.9923e-004
20547	22.267	0.54545	0.	-5.9718e-003
20548	22.176	0.54545	5.e-002	3.0842e-006
20549	22.176	0.81818	0.	1.0653e-002
20550	22.267	0.72727	0.	5.4006e-003
20551	22.176	0.72727	5.e-002	3.5509e-006
20552	22.176	1.	0.	2.0562e-002
20553	22.267	0.90909	0.	1.8121e-002
20554	22.176	0.90909	5.e-002	3.0891e-006
20555	22.176	1.1818	0.	2.7528e-002
20556	22.267	1.0909	0.	2.6348e-002
20557	22.176	1.0909	5.e-002	3.8662e-006
20558	22.176	1.3636	0.	3.2836e-002
20559	22.267	1.2727	0.	3.2709e-002
20560	22.176	1.2727	5.e-002	2.2952e-006
20561	22.176	1.5455	0.	3.6804e-002
20562	22.267	1.4545	0.	3.7381e-002
20563	22.176	1.4545	5.e-002	1.8267e-006
20564	22.176	1.7273	0.	3.9803e-002
20565	22.267	1.6364	0.	4.0903e-002
20566	22.176	1.6364	5.e-002	2.1465e-006
20567	22.176	1.9091	0.	4.2062e-002
20568	22.267	1.8182	0.	4.3548e-002
20569	22.176	1.8182	5.e-002	1.6889e-006
20570	22.176	2.0909	0.	4.3757e-002
20571	22.267	2.	0.	4.5534e-002
20572	22.176	2.	5.e-002	1.8631e-006
20573	22.176	2.2727	0.	4.5012e-002
20574	22.267	2.1818	0.	4.7017e-002
20575	22.176	2.1818	5.e-002	3.0269e-006
20576	22.176	2.4545	0.	4.5909e-002
20577	22.267	2.3636	0.	4.8097e-002
20578	22.176	2.3636	5.e-002	2.2249e-006
20579	22.176	2.6364	0.	4.6512e-002
20580	22.267	2.5455	0.	4.8851e-002
20581	22.176	2.5455	5.e-002	3.3632e-006
20582	22.176	2.8182	0.	4.6859e-002
20583	22.267	2.7273	0.	4.9329e-002
20584	22.176	2.7273	5.e-002	2.5928e-006
20585	22.176	3.	0.	4.6971e-002
20586	22.267	2.9091	0.	4.956e-002
20587	22.176	2.9091	5.e-002	3.7228e-006
20588	22.176	3.1818	0.	4.6858e-002
20589	22.267	3.0909	0.	4.9559e-002
20590	22.176	3.0909	5.e-002	2.9536e-006
20591	22.176	3.3636	0.	4.6511e-002
20592	22.267	3.2727	0.	4.9328e-002
20593	22.176	3.2727	5.e-002	5.0479e-006
20594	22.176	3.5455	0.	4.5908e-002
20595	22.267	3.4545	0.	4.8851e-002
20596	22.176	3.4545	5.e-002	4.2772e-006
20597	22.176	3.7273	0.	4.501e-002
20598	22.267	3.6364	0.	4.8096e-002
20599	22.176	3.6364	5.e-002	6.3789e-006
20600	22.176	3.9091	0.	4.3758e-002
20601	22.267	3.8182	0.	4.7016e-002
20602	22.176	3.8182	5.e-002	6.52e-006
20603	22.176	4.0909	0.	4.2062e-002
20604	22.267	4.	0.	4.5537e-002
20605	22.176	4.	5.e-002	3.8105e-006
20606	22.176	4.2727	0.	3.9802e-002
20607	22.267	4.1818	0.	4.3547e-002
20608	22.176	4.1818	5.e-002	4.7771e-006
20609	22.176	4.4545	0.	3.6804e-002
20610	22.267	4.3636	0.	4.0903e-002
20611	22.176	4.3636	5.e-002	6.744e-006
20612	22.176	4.6364	0.	3.2836e-002
20613	22.267	4.5455	0.	3.7382e-002
20614	22.176	4.5455	5.e-002	3.7937e-006
20615	22.176	4.8182	0.	2.7528e-002
20616	22.267	4.7273	0.	3.2708e-002
20617	22.176	4.7273	5.e-002	5.8066e-006
20618	22.176	5.	0.	2.056e-002
20619	22.267	4.9091	0.	2.6349e-002
20620	22.176	4.9091	5.e-002	5.8934e-006
20621	22.176	5.1818	0.	1.0649e-002
20622	22.267	5.0909	0.	1.8117e-002
20623	22.176	5.0909	5.e-002	4.0717e-006
20624	22.176	5.3636	0.	-6.0248e-004
20625	22.267	5.2727	0.	5.3977e-003
20626	22.176	5.2727	5.e-002	4.8755e-006
20627	22.176	5.5455	0.	-2.8791e-002
20628	22.267	5.4545	0.	-5.9734e-003
20629	22.176	5.4545	5.e-002	4.9704e-006
20630	22.176	5.7273	0.	-4.1424e-002
20631	22.267	5.6364	0.	-5.4501e-002
20632	22.176	5.6364	5.e-002	6.8931e-006
20633	22.267	5.8182	0.	-2.2693e-002
20634	22.176	5.8182	5.e-002	3.3507e-006
20635	22.176	5.9091	0.	-1.5341e-003
20636	22.358	0.27273	0.	-4.69e-002
20637	22.449	0.18182	0.	-2.8386e-002
20638	22.358	0.18182	5.e-002	7.841e-006
20639	22.358	9.0909e-002	0.	-1.0531e-005
20640	22.358	0.45455	0.	-3.0508e-002
20641	22.449	0.36364	0.	-5.9446e-002
20642	22.358	0.36364	5.e-002	3.7985e-006
20643	22.358	0.63636	0.	1.3108e-003
20644	22.449	0.54545	0.	-4.465e-003
20645	22.358	0.54545	5.e-002	6.6776e-006
20646	22.358	0.81818	0.	1.384e-002
20647	22.449	0.72727	0.	8.4446e-003
20648	22.358	0.72727	5.e-002	6.7706e-006
20649	22.358	1.	0.	2.4658e-002
20650	22.449	0.90909	0.	2.2466e-002
20651	22.358	0.90909	5.e-002	4.5539e-006
20652	22.358	1.1818	0.	3.2135e-002
20653	22.449	1.0909	0.	3.1355e-002
20654	22.358	1.0909	5.e-002	2.0459e-006
20655	22.358	1.3636	0.	3.7766e-002
20656	22.449	1.2727	0.	3.8136e-002
20657	22.358	1.2727	5.e-002	1.6089e-008
20658	22.358	1.5455	0.	4.1931e-002
20659	22.449	1.4545	0.	4.3058e-002
20660	22.358	1.4545	5.e-002	2.6915e-007
20661	22.358	1.7273	0.	4.5058e-002
20662	22.449	1.6364	0.	4.6739e-002
20663	22.358	1.6364	5.e-002	1.4172e-006
20664	22.358	1.9091	0.	4.7405e-002
20665	22.449	1.8182	0.	4.9491e-002
20666	22.358	1.8182	5.e-002	5.8983e-007
20667	22.358	2.0909	0.	4.916e-002
20668	22.449	2.	0.	5.1553e-002
20669	22.358	2.	5.e-002	-2.2716e-007
20670	22.358	2.2727	0.	5.0457e-002
20671	22.449	2.1818	0.	5.3089e-002
20672	22.358	2.1818	5.e-002	9.532e-007
20673	22.358	2.4545	0.	5.1386e-002
20674	22.449	2.3636	0.	5.4209e-002
20675	22.358	2.3636	5.e-002	2.1584e-006
20676	22.358	2.6364	0.	5.2011e-002
20677	22.449	2.5455	0.	5.499e-002
20678	22.358	2.5455	5.e-002	3.3083e-006
20679	22.358	2.8182	0.	5.237e-002
20680	22.449	2.7273	0.	5.5487e-002
20681	22.358	2.7273	5.e-002	2.5539e-006
20682	22.358	3.	0.	5.2487e-002
20683	22.449	2.9091	0.	5.5728e-002
20684	22.358	2.9091	5.e-002	1.8071e-006
20685	22.358	3.1818	0.	5.237e-002
20686	22.449	3.0909	0.	5.5727e-002
20687	22.358	3.0909	5.e-002	3.9149e-006
20688	22.358	3.3636	0.	5.2012e-002
20689	22.449	3.2727	0.	5.5487e-002
20690	22.358	3.2727	5.e-002	4.1239e-006
20691	22.358	3.5455	0.	5.1386e-002
20692	22.449	3.4545	0.	5.4991e-002
20693	22.358	3.4545	5.e-002	3.4072e-006
20694	22.358	3.7273	0.	5.0457e-002
20695	22.449	3.6364	0.	5.4208e-002
20696	22.358	3.6364	5.e-002	3.5924e-006
20697	22.358	3.9091	0.	4.9162e-002
20698	22.449	3.8182	0.	5.3088e-002
20699	22.358	3.8182	5.e-002	4.7156e-006
20700	22.358	4.0909	0.	4.7405e-002
20701	22.449	4.	0.	5.1554e-002
20702	22.358	4.	5.e-002	4.7554e-006
20703	22.358	4.2727	0.	4.5058e-002
20704	22.449	4.1818	0.	4.949e-002
20705	22.358	4.1818	5.e-002	3.9533e-006
20706	22.358	4.4545	0.	4.1931e-002
20707	22.449	4.3636	0.	4.6739e-002
20708	22.358	4.3636	5.e-002	5.8567e-006
20709	22.358	4.6364	0.	3.7765e-002
20710	22.449	4.5455	0.	4.3056e-002
20711	22.358	4.5455	5.e-002	4.0299e-006
20712	22.358	4.8182	0.	3.2135e-002
20713	22.449	4.7273	0.	3.8133e-002
20714	22.358	4.7273	5.e-002	5.0159e-006
20715	22.358	5.	0.	2.4657e-002
20716	22.449	4.9091	0.	3.1356e-002
20717	22.358	4.9091	5.e-002	5.4924e-006
20718	22.358	5.1818	0.	1.3837e-002
20719	22.449	5.0909	0.	2.2464e-002
20720	22.358	5.0909	5.e-002	2.7792e-006
20721	22.358	5.3636	0.	1.3095e-003
20722	22.449	5.2727	0.	8.4423e-003
20723	22.358	5.2727	5.e-002	3.8414e-006
20724	22.358	5.5455	0.	-3.0508e-002
20725	22.449	5.4545	0.	-4.4644e-003
20726	22.358	5.4545	5.e-002	4.043e-006
20727	22.358	5.7273	0.	-4.6898e-002
20728	22.449	5.6364	0.	-5.9445e-002
20729	22.358	5.6364	5.e-002	5.8728e-006
20730	22.449	5.8182	0.	-2.8385e-002
20731	22.358	5.8182	5.e-002	4.0313e-006
20732	22.358	5.9091	0.	-9.4221e-006
20733	22.541	0.27273	0.	-5.3091e-002
20734	22.632	0.18182	0.	-3.5655e-002
20735	22.541	0.18182	5.e-002	5.5956e-006
20736	22.541	9.0909e-002	0.	2.4e-003
20737	22.541	0.45455	0.	-3.1774e-002
20738	22.632	0.36364	0.	-6.4485e-002
20739	22.541	0.36364	5.e-002	6.1511e-006
20740	22.541	0.63636	0.	4.2702e-003
20741	22.632	0.54545	0.	-1.9077e-003
20742	22.541	0.54545	5.e-002	5.0465e-006
20743	22.541	0.81818	0.	1.826e-002
20744	22.632	0.72727	0.	1.2811e-002
20745	22.541	0.72727	5.e-002	7.3829e-006
20746	22.541	1.	0.	3.008e-002
20747	22.632	0.90909	0.	2.8284e-002
20748	22.541	0.90909	5.e-002	7.2058e-006
20749	22.541	1.1818	0.	3.8102e-002
20750	22.632	1.0909	0.	3.7883e-002
20751	22.541	1.0909	5.e-002	3.4006e-006
20752	22.541	1.3636	0.	4.4067e-002
20753	22.632	1.2727	0.	4.5105e-002
20754	22.541	1.2727	5.e-002	1.3788e-007
20755	22.541	1.5455	0.	4.8438e-002
20756	22.632	1.4545	0.	5.0288e-002
20757	22.541	1.4545	5.e-002	2.4979e-006
20758	22.541	1.7273	0.	5.1701e-002
20759	22.632	1.6364	0.	5.4141e-002
20760	22.541	1.6364	5.e-002	3.4423e-006
20761	22.541	1.9091	0.	5.4142e-002
20762	22.632	1.8182	0.	5.7011e-002
20763	22.541	1.8182	5.e-002	1.6037e-006
20764	22.541	2.0909	0.	5.5966e-002
20765	22.632	2.	0.	5.9159e-002
20766	22.541	2.	5.e-002	2.6623e-006
20767	22.541	2.2727	0.	5.7314e-002
20768	22.632	2.1818	0.	6.076e-002
20769	22.541	2.1818	5.e-002	3.8092e-006
20770	22.541	2.4545	0.	5.8279e-002
20771	22.632	2.3636	0.	6.1929e-002
20772	22.541	2.3636	5.e-002	3.0752e-006
20773	22.541	2.6364	0.	5.8928e-002
20774	22.632	2.5455	0.	6.2745e-002
20775	22.541	2.5455	5.e-002	3.2768e-006
20776	22.541	2.8182	0.	5.9303e-002
20777	22.632	2.7273	0.	6.3265e-002
20778	22.541	2.7273	5.e-002	4.4442e-006
20779	22.541	3.	0.	5.9426e-002
20780	22.632	2.9091	0.	6.3518e-002
20781	22.541	2.9091	5.e-002	3.7056e-006
20782	22.541	3.1818	0.	5.9303e-002
20783	22.632	3.0909	0.	6.3517e-002
20784	22.541	3.0909	5.e-002	3.9229e-006
20785	22.541	3.3636	0.	5.8929e-002
20786	22.632	3.2727	0.	6.3265e-002
20787	22.541	3.2727	5.e-002	5.1026e-006
20788	22.541	3.5455	0.	5.8279e-002
20789	22.632	3.4545	0.	6.2746e-002
20790	22.541	3.4545	5.e-002	5.344e-006
20791	22.541	3.7273	0.	5.7313e-002
20792	22.632	3.6364	0.	6.1929e-002
20793	22.541	3.6364	5.e-002	8.3833e-006
20794	22.541	3.9091	0.	5.5965e-002
20795	22.632	3.8182	0.	6.0759e-002
20796	22.541	3.8182	5.e-002	6.7136e-006
20797	22.541	4.0909	0.	5.4141e-002
20798	22.632	4.	0.	5.9159e-002
20799	22.541	4.	5.e-002	6.8344e-006
20800	22.541	4.2727	0.	5.1701e-002
20801	22.632	4.1818	0.	5.701e-002
20802	22.541	4.1818	5.e-002	6.9793e-006
20803	22.541	4.4545	0.	4.8437e-002
20804	22.632	4.3636	0.	5.4142e-002
20805	22.541	4.3636	5.e-002	8.8476e-006
20806	22.541	4.6364	0.	4.4064e-002
20807	22.632	4.5455	0.	5.0287e-002
20808	22.541	4.5455	5.e-002	6.0558e-006
20809	22.541	4.8182	0.	3.8101e-002
20810	22.632	4.7273	0.	4.5103e-002
20811	22.541	4.7273	5.e-002	5.8959e-006
20812	22.541	5.	0.	3.0081e-002
20813	22.632	4.9091	0.	3.7885e-002
20814	22.541	4.9091	5.e-002	7.7847e-006
20815	22.541	5.1818	0.	1.8259e-002
20816	22.632	5.0909	0.	2.8283e-002
20817	22.541	5.0909	5.e-002	5.5016e-006
20818	22.541	5.3636	0.	4.2697e-003
20819	22.632	5.2727	0.	1.2809e-002
20820	22.541	5.2727	5.e-002	6.4054e-006
20821	22.541	5.5455	0.	-3.1771e-002
20822	22.632	5.4545	0.	-1.9077e-003
20823	22.541	5.4545	5.e-002	6.3206e-006
20824	22.541	5.7273	0.	-5.309e-002
20825	22.632	5.6364	0.	-6.4482e-002
20826	22.541	5.6364	5.e-002	7.4411e-006
20827	22.632	5.8182	0.	-3.5655e-002
20828	22.541	5.8182	5.e-002	3.4938e-006
20829	22.541	5.9091	0.	2.3977e-003
20830	22.723	0.27273	0.	-6.0217e-002
20831	22.814	0.18182	0.	-4.4874e-002
20832	22.723	0.18182	5.e-002	5.2731e-007
20833	22.723	9.0909e-002	0.	6.0528e-003
20834	22.723	0.45455	0.	-3.2363e-002
20835	22.814	0.36364	0.	-6.9163e-002
20836	22.723	0.36364	5.e-002	2.8614e-006
20837	22.723	0.63636	0.	8.6578e-003
20838	22.814	0.54545	0.	2.5462e-003
20839	22.723	0.54545	5.e-002	3.8968e-006
20840	22.723	0.81818	0.	2.4319e-002
20841	22.814	0.72727	0.	1.941e-002
20842	22.723	0.72727	5.e-002	4.8458e-006
20843	22.723	1.	0.	3.7238e-002
20844	22.814	0.90909	0.	3.6507e-002
20845	22.723	0.90909	5.e-002	4.4085e-006
20846	22.723	1.1818	0.	4.5839e-002
20847	22.814	1.0909	0.	4.6873e-002
20848	22.723	1.0909	5.e-002	4.2642e-006
20849	22.723	1.3636	0.	5.2159e-002
20850	22.814	1.2727	0.	5.4567e-002
20851	22.723	1.2727	5.e-002	5.5852e-006
20852	22.723	1.5455	0.	5.6752e-002
20853	22.814	1.4545	0.	6.004e-002
20854	22.723	1.4545	5.e-002	4.9889e-006
20855	22.723	1.7273	0.	6.0168e-002
20856	22.814	1.6364	0.	6.4089e-002
20857	22.723	1.6364	5.e-002	5.0982e-006
20858	22.723	1.9091	0.	6.2718e-002
20859	22.814	1.8182	0.	6.7102e-002
20860	22.723	1.8182	5.e-002	4.2687e-006
20861	22.723	2.0909	0.	6.4626e-002
20862	22.814	2.	0.	6.9359e-002
20863	22.723	2.	5.e-002	3.4755e-006
20864	22.723	2.2727	0.	6.6038e-002
20865	22.814	2.1818	0.	7.1045e-002
20866	22.723	2.1818	5.e-002	4.6271e-006
20867	22.723	2.4545	0.	6.7051e-002
20868	22.814	2.3636	0.	7.2278e-002
20869	22.723	2.3636	5.e-002	5.8274e-006
20870	22.723	2.6364	0.	6.7735e-002
20871	22.814	2.5455	0.	7.3142e-002
20872	22.723	2.5455	5.e-002	5.1095e-006
20873	22.723	2.8182	0.	6.813e-002
20874	22.814	2.7273	0.	7.3692e-002
20875	22.723	2.7273	5.e-002	4.4056e-006
20876	22.723	3.	0.	6.8258e-002
20877	22.814	2.9091	0.	7.396e-002
20878	22.723	2.9091	5.e-002	7.5053e-006
20879	22.723	3.1818	0.	6.8129e-002
20880	22.814	3.0909	0.	7.3959e-002
20881	22.723	3.0909	5.e-002	5.846e-006
20882	22.723	3.3636	0.	6.7735e-002
20883	22.814	3.2727	0.	7.3692e-002
20884	22.723	3.2727	5.e-002	8.0164e-006
20885	22.723	3.5455	0.	6.7052e-002
20886	22.814	3.4545	0.	7.3142e-002
20887	22.723	3.4545	5.e-002	7.3435e-006
20888	22.723	3.7273	0.	6.6038e-002
20889	22.814	3.6364	0.	7.2278e-002
20890	22.723	3.6364	5.e-002	9.4846e-006
20891	22.723	3.9091	0.	6.4626e-002
20892	22.814	3.8182	0.	7.1043e-002
20893	22.723	3.8182	5.e-002	8.746e-006
20894	22.723	4.0909	0.	6.2719e-002
20895	22.814	4.	0.	6.9361e-002
20896	22.723	4.	5.e-002	9.9456e-006
20897	22.723	4.2727	0.	6.0169e-002
20898	22.814	4.1818	0.	6.7102e-002
20899	22.723	4.1818	5.e-002	9.1551e-006
20900	22.723	4.4545	0.	5.6753e-002
20901	22.814	4.3636	0.	6.4089e-002
20902	22.723	4.3636	5.e-002	1.1099e-005
20903	22.723	4.6364	0.	5.2159e-002
20904	22.814	4.5455	0.	6.0038e-002
20905	22.723	4.5455	5.e-002	1.0306e-005
20906	22.723	4.8182	0.	4.584e-002
20907	22.814	4.7273	0.	5.4567e-002
20908	22.723	4.7273	5.e-002	1.0357e-005
20909	22.723	5.	0.	3.7239e-002
20910	22.814	4.9091	0.	4.6874e-002
20911	22.723	4.9091	5.e-002	1.1391e-005
20912	22.723	5.1818	0.	2.4318e-002
20913	22.814	5.0909	0.	3.6507e-002
20914	22.723	5.0909	5.e-002	7.5085e-006
20915	22.723	5.3636	0.	8.6568e-003
20916	22.814	5.2727	0.	1.9409e-002
20917	22.723	5.2727	5.e-002	9.1927e-006
20918	22.723	5.5455	0.	-3.2362e-002
20919	22.814	5.4545	0.	2.5442e-003
20920	22.723	5.4545	5.e-002	7.7411e-006
20921	22.723	5.7273	0.	-6.0214e-002
20922	22.814	5.6364	0.	-6.9159e-002
20923	22.723	5.6364	5.e-002	8.9703e-006
20924	22.814	5.8182	0.	-4.4873e-002
20925	22.723	5.8182	5.e-002	4.8683e-006
20926	22.723	5.9091	0.	6.0525e-003
20927	22.905	0.27273	0.	-6.7863e-002
20928	22.997	0.18182	0.	-5.7365e-002
20929	22.905	0.18182	5.e-002	5.2846e-006
20930	22.905	9.0909e-002	0.	1.2105e-002
20931	22.905	0.45455	0.	-3.11e-002
20932	22.997	0.36364	0.	-7.3658e-002
20933	22.905	0.36364	5.e-002	5.715e-006
20934	22.905	0.63636	0.	1.5916e-002
20935	22.997	0.54545	0.	9.1629e-003
20936	22.905	0.54545	5.e-002	7.0507e-006
20937	22.905	0.81818	0.	3.351e-002
20938	22.997	0.72727	0.	2.8527e-002
20939	22.905	0.72727	5.e-002	1.9339e-006
20940	22.905	1.	0.	4.765e-002
20941	22.997	0.90909	0.	4.7455e-002
20942	22.905	0.90909	5.e-002	2.5829e-006
20943	22.905	1.1818	0.	5.6883e-002
20944	22.997	1.0909	0.	5.8654e-002
20945	22.905	1.0909	5.e-002	3.8284e-006
20946	22.905	1.3636	0.	6.36e-002
20947	22.997	1.2727	0.	6.6874e-002
20948	22.905	1.2727	5.e-002	5.0267e-006
20949	22.905	1.5455	0.	6.8455e-002
20950	22.997	1.4545	0.	7.2687e-002
20951	22.905	1.4545	5.e-002	7.4626e-006
20952	22.905	1.7273	0.	7.2058e-002
20953	22.997	1.6364	0.	7.6984e-002
20954	22.905	1.6364	5.e-002	7.7203e-006
20955	22.905	1.9091	0.	7.4754e-002
20956	22.997	1.8182	0.	8.0185e-002
20957	22.905	1.8182	5.e-002	6.8225e-006
20958	22.905	2.0909	0.	7.6774e-002
20959	22.997	2.	0.	8.2591e-002
20960	22.905	2.	5.e-002	7.1604e-006
20961	22.905	2.2727	0.	7.8272e-002
20962	22.997	2.1818	0.	8.439e-002
20963	22.905	2.1818	5.e-002	7.3853e-006
20964	22.905	2.4545	0.	7.9352e-002
20965	22.997	2.3636	0.	8.5712e-002
20966	22.905	2.3636	5.e-002	7.6384e-006
20967	22.905	2.6364	0.	8.008e-002
20968	22.997	2.5455	0.	8.6641e-002
20969	22.905	2.5455	5.e-002	9.8202e-006
20970	22.905	2.8182	0.	8.0501e-002
20971	22.997	2.7273	0.	8.7232e-002
20972	22.905	2.7273	5.e-002	7.2256e-006
20973	22.905	3.	0.	8.0639e-002
20974	22.997	2.9091	0.	8.752e-002
20975	22.905	2.9091	5.e-002	8.4475e-006
20976	22.905	3.1818	0.	8.0501e-002
20977	22.997	3.0909	0.	8.7519e-002
20978	22.905	3.0909	5.e-002	7.7657e-006
20979	22.905	3.3636	0.	8.008e-002
20980	22.997	3.2727	0.	8.7233e-002
20981	22.905	3.2727	5.e-002	8.0599e-006
20982	22.905	3.5455	0.	7.9351e-002
20983	22.997	3.4545	0.	8.6641e-002
20984	22.905	3.4545	5.e-002	8.3876e-006
20985	22.905	3.7273	0.	7.8272e-002
20986	22.997	3.6364	0.	8.5712e-002
20987	22.905	3.6364	5.e-002	1.2455e-005
20988	22.905	3.9091	0.	7.6775e-002
20989	22.997	3.8182	0.	8.439e-002
20990	22.905	3.8182	5.e-002	1.2736e-005
20991	22.905	4.0909	0.	7.4755e-002
20992	22.997	4.	0.	8.2592e-002
20993	22.905	4.	5.e-002	1.2043e-005
20994	22.905	4.2727	0.	7.2058e-002
20995	22.997	4.1818	0.	8.0185e-002
20996	22.905	4.1818	5.e-002	1.2226e-005
20997	22.905	4.4545	0.	6.8453e-002
20998	22.997	4.3636	0.	7.6984e-002
20999	22.905	4.3636	5.e-002	1.3332e-005
21000	22.905	4.6364	0.	6.3598e-002
21001	22.997	4.5455	0.	7.2687e-002
21002	22.905	4.5455	5.e-002	1.0741e-005
21003	22.905	4.8182	0.	5.6882e-002
21004	22.997	4.7273	0.	6.6874e-002
21005	22.905	4.7273	5.e-002	1.2781e-005
21006	22.905	5.	0.	4.765e-002
21007	22.997	4.9091	0.	5.8652e-002
21008	22.905	4.9091	5.e-002	1.1981e-005
21009	22.905	5.1818	0.	3.351e-002
21010	22.997	5.0909	0.	4.7454e-002
21011	22.905	5.0909	5.e-002	1.084e-005
21012	22.905	5.3636	0.	1.5914e-002
21013	22.997	5.2727	0.	2.8525e-002
21014	22.905	5.2727	5.e-002	1.118e-005
21015	22.905	5.5455	0.	-3.1099e-002
21016	22.997	5.4545	0.	9.1626e-003
21017	22.905	5.4545	5.e-002	1.1389e-005
21018	22.905	5.7273	0.	-6.786e-002
21019	22.997	5.6364	0.	-7.3656e-002
21020	22.905	5.6364	5.e-002	1.2086e-005
21021	22.997	5.8182	0.	-5.7366e-002
21022	22.905	5.8182	5.e-002	1.0189e-005
21023	22.905	5.9091	0.	1.2105e-002
21024	23.088	0.27273	0.	-7.7684e-002
21025	23.179	0.18182	0.	-7.2042e-002
21026	23.088	0.18182	5.e-002	-3.6552e-007
21027	23.088	9.0909e-002	0.	2.0611e-002
21028	23.088	0.45455	0.	-2.8891e-002
21029	23.179	0.36364	0.	-7.3859e-002
21030	23.088	0.36364	5.e-002	-6.8367e-006
21031	23.088	0.63636	0.	2.528e-002
21032	23.179	0.54545	0.	2.3392e-002
21033	23.088	0.54545	5.e-002	-1.6236e-006
21034	23.088	0.81818	0.	4.5064e-002
21035	23.179	0.72727	0.	4.5743e-002
21036	23.088	0.72727	5.e-002	9.2669e-008
21037	23.088	1.	0.	6.0573e-002
21038	23.179	0.90909	0.	6.6809e-002
21039	23.088	0.90909	5.e-002	1.6551e-007
21040	23.088	1.1818	0.	7.0511e-002
21041	23.179	1.0909	0.	7.902e-002
21042	23.088	1.0909	5.e-002	3.233e-006
21043	23.088	1.3636	0.	7.7696e-002
21044	23.179	1.2727	0.	8.7918e-002
21045	23.088	1.2727	5.e-002	1.5758e-006
21046	23.088	1.5455	0.	8.2882e-002
21047	23.179	1.4545	0.	9.4202e-002
21048	23.088	1.4545	5.e-002	3.4535e-006
21049	23.088	1.7273	0.	8.674e-002
21050	23.179	1.6364	0.	9.8857e-002
21051	23.088	1.6364	5.e-002	3.7436e-006
21052	23.088	1.9091	0.	8.9632e-002
21053	23.179	1.8182	0.	0.10234
21054	23.088	1.8182	5.e-002	4.769e-006
21055	23.088	2.0909	0.	9.1807e-002
21056	23.179	2.	0.	0.10496
21057	23.088	2.	5.e-002	4.2759e-006
21058	23.088	2.2727	0.	9.3426e-002
21059	23.179	2.1818	0.	0.10693
21060	23.088	2.1818	5.e-002	6.4045e-006
21061	23.088	2.4545	0.	9.4596e-002
21062	23.179	2.3636	0.	0.10838
21063	23.088	2.3636	5.e-002	4.7913e-006
21064	23.088	2.6364	0.	9.5388e-002
21065	23.179	2.5455	0.	0.10941
21066	23.088	2.5455	5.e-002	6.9613e-006
21067	23.088	2.8182	0.	9.5845e-002
21068	23.179	2.7273	0.	0.11006
21069	23.088	2.7273	5.e-002	7.2216e-006
21070	23.088	3.	0.	9.5995e-002
21071	23.179	2.9091	0.	0.11038
21072	23.088	2.9091	5.e-002	5.5837e-006
21073	23.088	3.1818	0.	9.5846e-002
21074	23.179	3.0909	0.	0.11038
21075	23.088	3.0909	5.e-002	6.816e-006
21076	23.088	3.3636	0.	9.5388e-002
21077	23.179	3.2727	0.	0.11006
21078	23.088	3.2727	5.e-002	8.0573e-006
21079	23.088	3.5455	0.	9.4596e-002
21080	23.179	3.4545	0.	0.10941
21081	23.088	3.4545	5.e-002	9.3137e-006
21082	23.088	3.7273	0.	9.3427e-002
21083	23.179	3.6364	0.	0.10838
21084	23.088	3.6364	5.e-002	8.6625e-006
21085	23.088	3.9091	0.	9.1808e-002
21086	23.179	3.8182	0.	0.10693
21087	23.088	3.8182	5.e-002	1.1798e-005
21088	23.088	4.0909	0.	8.9632e-002
21089	23.179	4.	0.	0.10496
21090	23.088	4.	5.e-002	1.2961e-005
21091	23.088	4.2727	0.	8.674e-002
21092	23.179	4.1818	0.	0.10234
21093	23.088	4.1818	5.e-002	1.126e-005
21094	23.088	4.4545	0.	8.2884e-002
21095	23.179	4.3636	0.	9.8856e-002
21096	23.088	4.3636	5.e-002	1.4329e-005
21097	23.088	4.6364	0.	7.7698e-002
21098	23.179	4.5455	0.	9.4201e-002
21099	23.088	4.5455	5.e-002	1.0621e-005
21100	23.088	4.8182	0.	7.051e-002
21101	23.179	4.7273	0.	8.7919e-002
21102	23.088	4.7273	5.e-002	1.2741e-005
21103	23.088	5.	0.	6.0571e-002
21104	23.179	4.9091	0.	7.9019e-002
21105	23.088	4.9091	5.e-002	1.1718e-005
21106	23.088	5.1818	0.	4.5062e-002
21107	23.179	5.0909	0.	6.6806e-002
21108	23.088	5.0909	5.e-002	1.0693e-005
21109	23.088	5.3636	0.	2.528e-002
21110	23.179	5.2727	0.	4.5743e-002
21111	23.088	5.2727	5.e-002	1.1243e-005
21112	23.088	5.5455	0.	-2.889e-002
21113	23.179	5.4545	0.	2.3395e-002
21114	23.088	5.4545	5.e-002	9.9056e-006
21115	23.088	5.7273	0.	-7.7686e-002
21116	23.179	5.6364	0.	-7.3858e-002
21117	23.088	5.6364	5.e-002	1.0965e-005
21118	23.179	5.8182	0.	-7.2045e-002
21119	23.088	5.8182	5.e-002	1.0593e-005
21120	23.088	5.9091	0.	2.0609e-002
21121	23.27	0.27273	0.	-8.2195e-002
21122	23.362	0.18182	0.	-9.8678e-002
21123	23.27	0.18182	5.e-002	7.694e-006
21124	23.27	9.0909e-002	0.	3.9993e-002
21125	23.27	0.45455	0.	-1.4886e-002
21126	23.362	0.36364	0.	-7.8111e-002
21127	23.27	0.36364	5.e-002	1.0784e-005
21128	23.27	0.63636	0.	4.8857e-002
21129	23.362	0.54545	0.	3.5539e-002
21130	23.27	0.54545	5.e-002	6.0416e-006
21131	23.27	0.81818	0.	7.1335e-002
21132	23.362	0.72727	0.	6.2053e-002
21133	23.27	0.72727	5.e-002	3.488e-006
21134	23.27	1.	0.	8.8566e-002
21135	23.362	0.90909	0.	8.5599e-002
21136	23.27	0.90909	5.e-002	1.9785e-006
21137	23.27	1.1818	0.	9.9489e-002
21138	23.362	1.0909	0.	9.9025e-002
21139	23.27	1.0909	5.e-002	5.0168e-006
21140	23.27	1.3636	0.	0.10737
21141	23.362	1.2727	0.	0.10884
21142	23.27	1.2727	5.e-002	7.005e-006
21143	23.27	1.5455	0.	0.11307
21144	23.362	1.4545	0.	0.11577
21145	23.27	1.4545	5.e-002	6.2486e-006
21146	23.27	1.7273	0.	0.11733
21147	23.362	1.6364	0.	0.12094
21148	23.27	1.6364	5.e-002	6.3128e-006
21149	23.27	1.9091	0.	0.12054
21150	23.362	1.8182	0.	0.12482
21151	23.27	1.8182	5.e-002	7.3047e-006
21152	23.27	2.0909	0.	0.12296
21153	23.362	2.	0.	0.12776
21154	23.27	2.	5.e-002	6.4717e-006
21155	23.27	2.2727	0.	0.12477
21156	23.362	2.1818	0.	0.12998
21157	23.27	2.1818	5.e-002	7.6098e-006
21158	23.27	2.4545	0.	0.12608
21159	23.362	2.3636	0.	0.13161
21160	23.27	2.3636	5.e-002	9.7435e-006
21161	23.27	2.6364	0.	0.12697
21162	23.362	2.5455	0.	0.13277
21163	23.27	2.5455	5.e-002	9.018e-006
21164	23.27	2.8182	0.	0.12748
21165	23.362	2.7273	0.	0.13351
21166	23.27	2.7273	5.e-002	1.1126e-005
21167	23.27	3.	0.	0.12765
21168	23.362	2.9091	0.	0.13387
21169	23.27	2.9091	5.e-002	9.4273e-006
21170	23.27	3.1818	0.	0.12748
21171	23.362	3.0909	0.	0.13387
21172	23.27	3.0909	5.e-002	7.7422e-006
21173	23.27	3.3636	0.	0.12697
21174	23.362	3.2727	0.	0.13351
21175	23.27	3.2727	5.e-002	1.1784e-005
21176	23.27	3.5455	0.	0.12608
21177	23.362	3.4545	0.	0.13277
21178	23.27	3.4545	5.e-002	1.0113e-005
21179	23.27	3.7273	0.	0.12477
21180	23.362	3.6364	0.	0.13161
21181	23.27	3.6364	5.e-002	1.4148e-005
21182	23.27	3.9091	0.	0.12296
21183	23.362	3.8182	0.	0.12998
21184	23.27	3.8182	5.e-002	1.4364e-005
21185	23.27	4.0909	0.	0.12054
21186	23.362	4.	0.	0.12776
21187	23.27	4.	5.e-002	1.3675e-005
21188	23.27	4.2727	0.	0.11733
21189	23.362	4.1818	0.	0.12482
21190	23.27	4.1818	5.e-002	1.2914e-005
21191	23.27	4.4545	0.	0.11307
21192	23.362	4.3636	0.	0.12094
21193	23.27	4.3636	5.e-002	1.405e-005
21194	23.27	4.6364	0.	0.10737
21195	23.362	4.5455	0.	0.11577
21196	23.27	4.5455	5.e-002	1.2312e-005
21197	23.27	4.8182	0.	9.9489e-002
21198	23.362	4.7273	0.	0.10884
21199	23.27	4.7273	5.e-002	1.4343e-005
21200	23.27	5.	0.	8.8564e-002
21201	23.362	4.9091	0.	9.9024e-002
21202	23.27	4.9091	5.e-002	1.431e-005
21203	23.27	5.1818	0.	7.1334e-002
21204	23.362	5.0909	0.	8.5597e-002
21205	23.27	5.0909	5.e-002	1.2421e-005
21206	23.27	5.3636	0.	4.886e-002
21207	23.362	5.2727	0.	6.2053e-002
21208	23.27	5.2727	5.e-002	1.3155e-005
21209	23.27	5.5455	0.	-1.4882e-002
21210	23.362	5.4545	0.	3.5544e-002
21211	23.27	5.4545	5.e-002	1.1921e-005
21212	23.27	5.7273	0.	-8.2195e-002
21213	23.362	5.6364	0.	-7.8108e-002
21214	23.27	5.6364	5.e-002	1.2611e-005
21215	23.362	5.8182	0.	-9.8679e-002
21216	23.27	5.8182	5.e-002	1.0848e-005
21217	23.27	5.9091	0.	3.9992e-002
21218	23.453	0.27273	0.	-0.10536
21219	23.544	0.18182	0.	-0.11066
21220	23.453	0.18182	5.e-002	1.2106e-005
21221	23.453	9.0909e-002	0.	5.4734e-002
21222	23.453	0.45455	0.	-1.6942e-002
21223	23.544	0.36364	0.	-3.5435e-002
21224	23.453	0.36364	5.e-002	1.4783e-005
21225	23.453	0.63636	0.	5.6816e-002
21226	23.544	0.54545	0.	0.11056
21227	23.453	0.54545	5.e-002	1.7664e-005
21228	23.453	0.81818	0.	8.3046e-002
21229	23.544	0.72727	0.	0.14225
21230	23.453	0.72727	5.e-002	8.9885e-006
21231	23.453	1.	0.	0.10227
21232	23.544	0.90909	0.	0.17069
21233	23.453	0.90909	5.e-002	3.8569e-006
21234	23.453	1.1818	0.	0.1144
21235	23.544	1.0909	0.	0.1868
21236	23.453	1.0909	5.e-002	3.9893e-006
21237	23.453	1.3636	0.	0.12322
21238	23.544	1.2727	0.	0.19869
21239	23.453	1.2727	5.e-002	6.1937e-006
21240	23.453	1.5455	0.	0.12963
21241	23.544	1.4545	0.	0.20716
21242	23.453	1.4545	5.e-002	4.8415e-006
21243	23.453	1.7273	0.	0.13445
21244	23.544	1.6364	0.	0.21352
21245	23.453	1.6364	5.e-002	6.5133e-006
21246	23.453	1.9091	0.	0.13809
21247	23.544	1.8182	0.	0.21832
21248	23.453	1.8182	5.e-002	6.4813e-006
21249	23.453	2.0909	0.	0.14086
21250	23.544	2.	0.	0.22199
21251	23.453	2.	5.e-002	8.3673e-006
21252	23.453	2.2727	0.	0.14293
21253	23.544	2.1818	0.	0.22475
21254	23.453	2.1818	5.e-002	5.554e-006
21255	23.453	2.4545	0.	0.14444
21256	23.544	2.3636	0.	0.22681
21257	23.453	2.3636	5.e-002	7.4703e-006
21258	23.453	2.6364	0.	0.14546
21259	23.544	2.5455	0.	0.22826
21260	23.453	2.5455	5.e-002	7.5273e-006
21261	23.453	2.8182	0.	0.14606
21262	23.544	2.7273	0.	0.22919
21263	23.453	2.7273	5.e-002	7.5625e-006
21264	23.453	3.	0.	0.14625
21265	23.544	2.9091	0.	0.22965
21266	23.453	2.9091	5.e-002	9.5107e-006
21267	23.453	3.1818	0.	0.14606
21268	23.544	3.0909	0.	0.22965
21269	23.453	3.0909	5.e-002	7.6596e-006
21270	23.453	3.3636	0.	0.14546
21271	23.544	3.2727	0.	0.22919
21272	23.453	3.2727	5.e-002	9.6188e-006
21273	23.453	3.5455	0.	0.14444
21274	23.544	3.4545	0.	0.22826
21275	23.453	3.4545	5.e-002	7.7568e-006
21276	23.453	3.7273	0.	0.14293
21277	23.544	3.6364	0.	0.22681
21278	23.453	3.6364	5.e-002	1.1623e-005
21279	23.453	3.9091	0.	0.14086
21280	23.544	3.8182	0.	0.22476
21281	23.453	3.8182	5.e-002	9.8479e-006
21282	23.453	4.0909	0.	0.13809
21283	23.544	4.	0.	0.22198
21284	23.453	4.	5.e-002	1.2689e-005
21285	23.453	4.2727	0.	0.13445
21286	23.544	4.1818	0.	0.21832
21287	23.453	4.1818	5.e-002	9.8701e-006
21288	23.453	4.4545	0.	0.12963
21289	23.544	4.3636	0.	0.21352
21290	23.453	4.3636	5.e-002	1.3629e-005
21291	23.453	4.6364	0.	0.12322
21292	23.544	4.5455	0.	0.20715
21293	23.453	4.5455	5.e-002	1.074e-005
21294	23.453	4.8182	0.	0.1144
21295	23.544	4.7273	0.	0.19869
21296	23.453	4.7273	5.e-002	1.2413e-005
21297	23.453	5.	0.	0.10227
21298	23.544	4.9091	0.	0.1868
21299	23.453	4.9091	5.e-002	1.2236e-005
21300	23.453	5.1818	0.	8.3044e-002
21301	23.544	5.0909	0.	0.17069
21302	23.453	5.0909	5.e-002	1.0173e-005
21303	23.453	5.3636	0.	5.6817e-002
21304	23.544	5.2727	0.	0.14225
21305	23.453	5.2727	5.e-002	9.7931e-006
21306	23.453	5.5455	0.	-1.6939e-002
21307	23.544	5.4545	0.	0.11056
21308	23.453	5.4545	5.e-002	9.5095e-006
21309	23.453	5.7273	0.	-0.10537
21310	23.544	5.6364	0.	-3.5431e-002
21311	23.453	5.6364	5.e-002	1.0128e-005
21312	23.544	5.8182	0.	-0.11066
21313	23.453	5.8182	5.e-002	7.4169e-006
21314	23.453	5.9091	0.	5.473e-002
21315	23.635	0.27273	0.	-4.0431e-002
21316	23.726	0.18182	0.	-0.29773
21317	23.635	0.18182	5.e-002	1.0304e-005
21318	23.635	9.0909e-002	0.	0.15408
21319	23.635	0.45455	0.	0.1126
21320	23.726	0.36364	0.	-0.13795
21321	23.635	0.36364	5.e-002	7.3463e-006
21322	23.635	0.63636	0.	0.21296
21323	23.726	0.54545	0.	6.4898e-002
21324	23.635	0.54545	5.e-002	9.6955e-006
21325	23.635	0.81818	0.	0.24574
21326	23.726	0.72727	0.	0.10559
21327	23.635	0.72727	5.e-002	7.7902e-006
21328	23.635	1.	0.	0.2709
21329	23.726	0.90909	0.	0.14424
21330	23.635	0.90909	5.e-002	2.1274e-006
21331	23.635	1.1818	0.	0.2869
21332	23.726	1.0909	0.	0.16685
21333	23.635	1.0909	5.e-002	1.2406e-006
21334	23.635	1.3636	0.	0.29865
21335	23.726	1.2727	0.	0.1839
21336	23.635	1.2727	5.e-002	3.26e-006
21337	23.635	1.5455	0.	0.30729
21338	23.726	1.4545	0.	0.19638
21339	23.635	1.4545	5.e-002	3.1639e-006
21340	23.635	1.7273	0.	0.31384
21341	23.726	1.6364	0.	0.20596
21342	23.635	1.6364	5.e-002	1.9622e-007
21343	23.635	1.9091	0.	0.31883
21344	23.726	1.8182	0.	0.21333
21345	23.635	1.8182	5.e-002	3.8584e-006
21346	23.635	2.0909	0.	0.32264
21347	23.726	2.	0.	0.21904
21348	23.635	2.	5.e-002	3.8845e-006
21349	23.635	2.2727	0.	0.3255
21350	23.726	2.1818	0.	0.22342
21351	23.635	2.1818	5.e-002	1.9359e-006
21352	23.635	2.4545	0.	0.32759
21353	23.726	2.3636	0.	0.22671
21354	23.635	2.3636	5.e-002	2.5014e-008
21355	23.635	2.6364	0.	0.32901
21356	23.726	2.5455	0.	0.22905
21357	23.635	2.5455	5.e-002	5.7247e-006
21358	23.635	2.8182	0.	0.32984
21359	23.726	2.7273	0.	0.23056
21360	23.635	2.7273	5.e-002	4.2002e-009
21361	23.635	3.	0.	0.33011
21362	23.726	2.9091	0.	0.2313
21363	23.635	2.9091	5.e-002	1.9058e-006
21364	23.635	3.1818	0.	0.32984
21365	23.726	3.0909	0.	0.2313
21366	23.635	3.0909	5.e-002	5.7257e-006
21367	23.635	3.3636	0.	0.32901
21368	23.726	3.2727	0.	0.23056
21369	23.635	3.2727	5.e-002	1.9073e-006
21370	23.635	3.5455	0.	0.32759
21371	23.726	3.4545	0.	0.22905
21372	23.635	3.4545	5.e-002	5.7176e-006
21373	23.635	3.7273	0.	0.3255
21374	23.726	3.6364	0.	0.22671
21375	23.635	3.6364	5.e-002	9.4933e-006
21376	23.635	3.9091	0.	0.32264
21377	23.726	3.8182	0.	0.22343
21378	23.635	3.8182	5.e-002	7.6656e-006
21379	23.635	4.0909	0.	0.31883
21380	23.726	4.	0.	0.21904
21381	23.635	4.	5.e-002	9.4671e-006
21382	23.635	4.2727	0.	0.31384
21383	23.726	4.1818	0.	0.21333
21384	23.635	4.1818	5.e-002	7.5447e-006
21385	23.635	4.4545	0.	0.30729
21386	23.726	4.3636	0.	0.20596
21387	23.635	4.3636	5.e-002	8.4033e-006
21388	23.635	4.6364	0.	0.29864
21389	23.726	4.5455	0.	0.19638
21390	23.635	4.5455	5.e-002	8.1499e-006
21391	23.635	4.8182	0.	0.2869
21392	23.726	4.7273	0.	0.18389
21393	23.635	4.7273	5.e-002	7.0117e-006
21394	23.635	5.	0.	0.2709
21395	23.726	4.9091	0.	0.16685
21396	23.635	4.9091	5.e-002	8.4426e-006
21397	23.635	5.1818	0.	0.24574
21398	23.726	5.0909	0.	0.14424
21399	23.635	5.0909	5.e-002	6.5641e-006
21400	23.635	5.3636	0.	0.21296
21401	23.726	5.2727	0.	0.10559
21402	23.635	5.2727	5.e-002	7.3702e-006
21403	23.635	5.5455	0.	0.11261
21404	23.726	5.4545	0.	6.4896e-002
21405	23.635	5.4545	5.e-002	5.8436e-006
21406	23.635	5.7273	0.	-4.0428e-002
21407	23.726	5.6364	0.	-0.13794
21408	23.635	5.6364	5.e-002	6.2044e-006
21409	23.726	5.8182	0.	-0.29773
21410	23.635	5.8182	5.e-002	2.5539e-006
21411	23.635	5.9091	0.	0.15408
21412	23.818	0.27273	0.	-0.35446
21413	23.818	0.18182	5.e-002	8.4964e-006
21414	23.818	9.0909e-002	0.	-4.925e-002
21415	23.909	0.18182	0.	-8.4208e-003
21416	23.818	0.45455	0.	-0.12118
21417	23.818	0.36364	5.e-002	2.5016e-006
21418	23.909	0.36364	0.	0.18947
21419	23.818	0.63636	0.	2.2232e-002
21420	23.818	0.54545	5.e-002	6.1937e-006
21421	23.909	0.54545	0.	0.37646
21422	23.818	0.81818	0.	7.1684e-002
21423	23.818	0.72727	5.e-002	5.5704e-006
21424	23.909	0.72727	0.	0.38865
21425	23.818	1.	0.	0.1111
21426	23.818	0.90909	5.e-002	2.6075e-006
21427	23.909	0.90909	0.	0.41096
21428	23.818	1.1818	0.	0.1378
21429	23.818	1.0909	5.e-002	1.6211e-006
21430	23.909	1.0909	0.	0.42067
21431	23.818	1.3636	0.	0.15823
21432	23.818	1.2727	5.e-002	1.217e-006
21433	23.909	1.2727	0.	0.42828
21434	23.818	1.5455	0.	0.17392
21435	23.818	1.4545	5.e-002	1.6136e-007
21436	23.909	1.4545	0.	0.43337
21437	23.818	1.7273	0.	0.18624
21438	23.818	1.6364	5.e-002	1.8318e-006
21439	23.909	1.6364	0.	0.43712
21440	23.818	1.9091	0.	0.19594
21441	23.818	1.8182	5.e-002	-5.0247e-008
21442	23.909	1.8182	0.	0.43988
21443	23.818	2.0909	0.	0.20353
21444	23.818	2.	5.e-002	5.5129e-006
21445	23.909	2.	0.	0.44194
21446	23.818	2.2727	0.	0.20937
21447	23.818	2.1818	5.e-002	1.7806e-006
21448	23.909	2.1818	0.	0.44347
21449	23.818	2.4545	0.	0.21371
21450	23.818	2.3636	5.e-002	3.6943e-006
21451	23.909	2.3636	0.	0.44458
21452	23.818	2.6364	0.	0.2167
21453	23.818	2.5455	5.e-002	7.5319e-006
21454	23.909	2.5455	0.	0.44537
21455	23.818	2.8182	0.	0.21845
21456	23.818	2.7273	5.e-002	1.8665e-006
21457	23.909	2.7273	0.	0.44586
21458	23.818	3.	0.	0.21903
21459	23.818	2.9091	5.e-002	5.7014e-006
21460	23.909	2.9091	0.	0.4461
21461	23.818	3.1818	0.	0.21845
21462	23.818	3.0909	5.e-002	5.745e-006
21463	23.909	3.0909	0.	0.4461
21464	23.818	3.3636	0.	0.2167
21465	23.818	3.2727	5.e-002	7.67e-006
21466	23.909	3.2727	0.	0.44586
21467	23.818	3.5455	0.	0.21371
21468	23.818	3.4545	5.e-002	7.6613e-006
21469	23.909	3.4545	0.	0.44537
21470	23.818	3.7273	0.	0.20937
21471	23.818	3.6364	5.e-002	1.1481e-005
21472	23.909	3.6364	0.	0.44458
21473	23.818	3.9091	0.	0.20353
21474	23.818	3.8182	5.e-002	9.6814e-006
21475	23.909	3.8182	0.	0.44347
21476	23.818	4.0909	0.	0.19594
21477	23.818	4.	5.e-002	9.6284e-006
21478	23.909	4.	0.	0.44194
21479	23.818	4.2727	0.	0.18624
21480	23.818	4.1818	5.e-002	7.7299e-006
21481	23.909	4.1818	0.	0.43988
21482	23.818	4.4545	0.	0.17392
21483	23.818	4.3636	5.e-002	1.3266e-005
21484	23.909	4.3636	0.	0.43712
21485	23.818	4.6364	0.	0.15823
21486	23.818	4.5455	5.e-002	9.4108e-006
21487	23.909	4.5455	0.	0.43337
21488	23.818	4.8182	0.	0.1378
21489	23.818	4.7273	5.e-002	1.1702e-005
21490	23.909	4.7273	0.	0.42828
21491	23.818	5.	0.	0.1111
21492	23.818	4.9091	5.e-002	9.7961e-006
21493	23.909	4.9091	0.	0.42067
21494	23.818	5.1818	0.	7.1684e-002
21495	23.818	5.0909	5.e-002	8.0277e-006
21496	23.909	5.0909	0.	0.41096
21497	23.818	5.3636	0.	2.2231e-002
21498	23.818	5.2727	5.e-002	8.8744e-006
21499	23.909	5.2727	0.	0.38865
21500	23.818	5.5455	0.	-0.12117
21501	23.818	5.4545	5.e-002	7.3402e-006
21502	23.909	5.4545	0.	0.37646
21503	23.818	5.7273	0.	-0.35446
21504	23.818	5.6364	5.e-002	7.4507e-006
21505	23.909	5.6364	0.	0.18948
21506	23.818	5.8182	5.e-002	6.4262e-006
21507	23.909	5.8182	0.	-8.4197e-003
21508	23.818	5.9091	0.	-4.9252e-002
21509	23.818	5.7273	0.1	0.35446
21510	23.726	5.8182	0.1	0.29773
21511	23.818	5.9091	0.1	4.925e-002
21512	23.909	5.8182	0.1	8.4187e-003
21513	23.818	5.5455	0.1	0.12117
21514	23.726	5.6364	0.1	0.13794
21515	23.909	5.6364	0.1	-0.18948
21516	23.818	5.3636	0.1	-2.2232e-002
21517	23.726	5.4545	0.1	-6.4897e-002
21518	23.909	5.4545	0.1	-0.37646
21519	23.818	5.1818	0.1	-7.1685e-002
21520	23.726	5.2727	0.1	-0.10559
21521	23.909	5.2727	0.1	-0.38865
21522	23.818	5.	0.1	-0.11111
21523	23.726	5.0909	0.1	-0.14424
21524	23.909	5.0909	0.1	-0.41096
21525	23.818	4.8182	0.1	-0.1378
21526	23.726	4.9091	0.1	-0.16685
21527	23.909	4.9091	0.1	-0.42067
21528	23.818	4.6364	0.1	-0.15824
21529	23.726	4.7273	0.1	-0.1839
21530	23.909	4.7273	0.1	-0.42828
21531	23.818	4.4545	0.1	-0.17393
21532	23.726	4.5455	0.1	-0.19638
21533	23.909	4.5455	0.1	-0.43337
21534	23.818	4.2727	0.1	-0.18624
21535	23.726	4.3636	0.1	-0.20596
21536	23.909	4.3636	0.1	-0.43712
21537	23.818	4.0909	0.1	-0.19594
21538	23.726	4.1818	0.1	-0.21333
21539	23.909	4.1818	0.1	-0.43988
21540	23.818	3.9091	0.1	-0.20353
21541	23.726	4.	0.1	-0.21904
21542	23.909	4.	0.1	-0.44194
21543	23.818	3.7273	0.1	-0.20938
21544	23.726	3.8182	0.1	-0.22343
21545	23.909	3.8182	0.1	-0.44347
21546	23.818	3.5455	0.1	-0.21371
21547	23.726	3.6364	0.1	-0.22671
21548	23.909	3.6364	0.1	-0.44458
21549	23.818	3.3636	0.1	-0.2167
21550	23.726	3.4545	0.1	-0.22905
21551	23.909	3.4545	0.1	-0.44537
21552	23.818	3.1818	0.1	-0.21845
21553	23.726	3.2727	0.1	-0.23056
21554	23.909	3.2727	0.1	-0.44586
21555	23.818	3.	0.1	-0.21903
21556	23.726	3.0909	0.1	-0.2313
21557	23.909	3.0909	0.1	-0.4461
21558	23.818	2.8182	0.1	-0.21845
21559	23.726	2.9091	0.1	-0.2313
21560	23.909	2.9091	0.1	-0.4461
21561	23.818	2.6364	0.1	-0.2167
21562	23.726	2.7273	0.1	-0.23056
21563	23.909	2.7273	0.1	-0.44586
21564	23.818	2.4545	0.1	-0.21371
21565	23.726	2.5455	0.1	-0.22905
21566	23.909	2.5455	0.1	-0.44537
21567	23.818	2.2727	0.1	-0.20938
21568	23.726	2.3636	0.1	-0.22671
21569	23.909	2.3636	0.1	-0.44459
21570	23.818	2.0909	0.1	-0.20353
21571	23.726	2.1818	0.1	-0.22343
21572	23.909	2.1818	0.1	-0.44347
21573	23.818	1.9091	0.1	-0.19594
21574	23.726	2.	0.1	-0.21904
21575	23.909	2.	0.1	-0.44194
21576	23.818	1.7273	0.1	-0.18624
21577	23.726	1.8182	0.1	-0.21333
21578	23.909	1.8182	0.1	-0.43988
21579	23.818	1.5455	0.1	-0.17392
21580	23.726	1.6364	0.1	-0.20596
21581	23.909	1.6364	0.1	-0.43712
21582	23.818	1.3636	0.1	-0.15824
21583	23.726	1.4545	0.1	-0.19638
21584	23.909	1.4545	0.1	-0.43337
21585	23.818	1.1818	0.1	-0.1378
21586	23.726	1.2727	0.1	-0.18389
21587	23.909	1.2727	0.1	-0.42828
21588	23.818	1.	0.1	-0.11111
21589	23.726	1.0909	0.1	-0.16685
21590	23.909	1.0909	0.1	-0.42067
21591	23.818	0.81818	0.1	-7.1686e-002
21592	23.726	0.90909	0.1	-0.14424
21593	23.909	0.90909	0.1	-0.41096
21594	23.818	0.63636	0.1	-2.2233e-002
21595	23.726	0.72727	0.1	-0.10559
21596	23.909	0.72727	0.1	-0.38865
21597	23.818	0.45455	0.1	0.12117
21598	23.726	0.54545	0.1	-6.4897e-002
21599	23.909	0.54545	0.1	-0.37646
21600	23.818	0.27273	0.1	0.35446
21601	23.726	0.36364	0.1	0.13795
21602	23.909	0.36364	0.1	-0.18947
21603	23.726	0.18182	0.1	0.29773
21604	23.909	0.18182	0.1	8.4201e-003
21605	23.818	9.0909e-002	0.1	4.9251e-002
21606	23.635	5.7273	0.1	4.0428e-002
21607	23.544	5.8182	0.1	0.11066
21608	23.635	5.9091	0.1	-0.15408
21609	23.635	5.5455	0.1	-0.11261
21610	23.544	5.6364	0.1	3.5432e-002
21611	23.635	5.3636	0.1	-0.21296
21612	23.544	5.4545	0.1	-0.11056
21613	23.635	5.1818	0.1	-0.24574
21614	23.544	5.2727	0.1	-0.14225
21615	23.635	5.	0.1	-0.2709
21616	23.544	5.0909	0.1	-0.17069
21617	23.635	4.8182	0.1	-0.2869
21618	23.544	4.9091	0.1	-0.1868
21619	23.635	4.6364	0.1	-0.29865
21620	23.544	4.7273	0.1	-0.19869
21621	23.635	4.4545	0.1	-0.30729
21622	23.544	4.5455	0.1	-0.20716
21623	23.635	4.2727	0.1	-0.31384
21624	23.544	4.3636	0.1	-0.21352
21625	23.635	4.0909	0.1	-0.31883
21626	23.544	4.1818	0.1	-0.21832
21627	23.635	3.9091	0.1	-0.32264
21628	23.544	4.	0.1	-0.22199
21629	23.635	3.7273	0.1	-0.3255
21630	23.544	3.8182	0.1	-0.22476
21631	23.635	3.5455	0.1	-0.32759
21632	23.544	3.6364	0.1	-0.22681
21633	23.635	3.3636	0.1	-0.32901
21634	23.544	3.4545	0.1	-0.22826
21635	23.635	3.1818	0.1	-0.32984
21636	23.544	3.2727	0.1	-0.22919
21637	23.635	3.	0.1	-0.33011
21638	23.544	3.0909	0.1	-0.22965
21639	23.635	2.8182	0.1	-0.32984
21640	23.544	2.9091	0.1	-0.22965
21641	23.635	2.6364	0.1	-0.32901
21642	23.544	2.7273	0.1	-0.22919
21643	23.635	2.4545	0.1	-0.32759
21644	23.544	2.5455	0.1	-0.22826
21645	23.635	2.2727	0.1	-0.3255
21646	23.544	2.3636	0.1	-0.22681
21647	23.635	2.0909	0.1	-0.32264
21648	23.544	2.1818	0.1	-0.22476
21649	23.635	1.9091	0.1	-0.31883
21650	23.544	2.	0.1	-0.22199
21651	23.635	1.7273	0.1	-0.31384
21652	23.544	1.8182	0.1	-0.21832
21653	23.635	1.5455	0.1	-0.30729
21654	23.544	1.6364	0.1	-0.21352
21655	23.635	1.3636	0.1	-0.29865
21656	23.544	1.4545	0.1	-0.20716
21657	23.635	1.1818	0.1	-0.2869
21658	23.544	1.2727	0.1	-0.19869
21659	23.635	1.	0.1	-0.2709
21660	23.544	1.0909	0.1	-0.1868
21661	23.635	0.81818	0.1	-0.24574
21662	23.544	0.90909	0.1	-0.17069
21663	23.635	0.63636	0.1	-0.21296
21664	23.544	0.72727	0.1	-0.14225
21665	23.635	0.45455	0.1	-0.1126
21666	23.544	0.54545	0.1	-0.11056
21667	23.635	0.27273	0.1	4.043e-002
21668	23.544	0.36364	0.1	3.5435e-002
21669	23.544	0.18182	0.1	0.11066
21670	23.635	9.0909e-002	0.1	-0.15408
21671	23.453	5.7273	0.1	0.10537
21672	23.362	5.8182	0.1	9.8679e-002
21673	23.453	5.9091	0.1	-5.4729e-002
21674	23.453	5.5455	0.1	1.6938e-002
21675	23.362	5.6364	0.1	7.8109e-002
21676	23.453	5.3636	0.1	-5.6819e-002
21677	23.362	5.4545	0.1	-3.5544e-002
21678	23.453	5.1818	0.1	-8.3045e-002
21679	23.362	5.2727	0.1	-6.2053e-002
21680	23.453	5.	0.1	-0.10227
21681	23.362	5.0909	0.1	-8.5598e-002
21682	23.453	4.8182	0.1	-0.1144
21683	23.362	4.9091	0.1	-9.9023e-002
21684	23.453	4.6364	0.1	-0.12322
21685	23.362	4.7273	0.1	-0.10883
21686	23.453	4.4545	0.1	-0.12963
21687	23.362	4.5455	0.1	-0.11577
21688	23.453	4.2727	0.1	-0.13445
21689	23.362	4.3636	0.1	-0.12094
21690	23.453	4.0909	0.1	-0.13809
21691	23.362	4.1818	0.1	-0.12482
21692	23.453	3.9091	0.1	-0.14086
21693	23.362	4.	0.1	-0.12776
21694	23.453	3.7273	0.1	-0.14293
21695	23.362	3.8182	0.1	-0.12998
21696	23.453	3.5455	0.1	-0.14444
21697	23.362	3.6364	0.1	-0.13161
21698	23.453	3.3636	0.1	-0.14546
21699	23.362	3.4545	0.1	-0.13277
21700	23.453	3.1818	0.1	-0.14606
21701	23.362	3.2727	0.1	-0.13351
21702	23.453	3.	0.1	-0.14625
21703	23.362	3.0909	0.1	-0.13387
21704	23.453	2.8182	0.1	-0.14606
21705	23.362	2.9091	0.1	-0.13387
21706	23.453	2.6364	0.1	-0.14546
21707	23.362	2.7273	0.1	-0.13351
21708	23.453	2.4545	0.1	-0.14444
21709	23.362	2.5455	0.1	-0.13277
21710	23.453	2.2727	0.1	-0.14293
21711	23.362	2.3636	0.1	-0.13161
21712	23.453	2.0909	0.1	-0.14086
21713	23.362	2.1818	0.1	-0.12998
21714	23.453	1.9091	0.1	-0.13809
21715	23.362	2.	0.1	-0.12776
21716	23.453	1.7273	0.1	-0.13445
21717	23.362	1.8182	0.1	-0.12482
21718	23.453	1.5455	0.1	-0.12963
21719	23.362	1.6364	0.1	-0.12094
21720	23.453	1.3636	0.1	-0.12322
21721	23.362	1.4545	0.1	-0.11577
21722	23.453	1.1818	0.1	-0.1144
21723	23.362	1.2727	0.1	-0.10884
21724	23.453	1.	0.1	-0.10227
21725	23.362	1.0909	0.1	-9.9024e-002
21726	23.453	0.81818	0.1	-8.3046e-002
21727	23.362	0.90909	0.1	-8.56e-002
21728	23.453	0.63636	0.1	-5.6816e-002
21729	23.362	0.72727	0.1	-6.2054e-002
21730	23.453	0.45455	0.1	1.6944e-002
21731	23.362	0.54545	0.1	-3.5539e-002
21732	23.453	0.27273	0.1	0.10537
21733	23.362	0.36364	0.1	7.8112e-002
21734	23.362	0.18182	0.1	9.8676e-002
21735	23.453	9.0909e-002	0.1	-5.4734e-002
21736	23.27	5.7273	0.1	8.2195e-002
21737	23.179	5.8182	0.1	7.2044e-002
21738	23.27	5.9091	0.1	-3.9991e-002
21739	23.27	5.5455	0.1	1.4883e-002
21740	23.179	5.6364	0.1	7.3857e-002
21741	23.27	5.3636	0.1	-4.8859e-002
21742	23.179	5.4545	0.1	-2.3395e-002
21743	23.27	5.1818	0.1	-7.1334e-002
21744	23.179	5.2727	0.1	-4.5743e-002
21745	23.27	5.	0.1	-8.8563e-002
21746	23.179	5.0909	0.1	-6.6808e-002
21747	23.27	4.8182	0.1	-9.9487e-002
21748	23.179	4.9091	0.1	-7.9017e-002
21749	23.27	4.6364	0.1	-0.10737
21750	23.179	4.7273	0.1	-8.7919e-002
21751	23.27	4.4545	0.1	-0.11307
21752	23.179	4.5455	0.1	-9.4201e-002
21753	23.27	4.2727	0.1	-0.11733
21754	23.179	4.3636	0.1	-9.8857e-002
21755	23.27	4.0909	0.1	-0.12054
21756	23.179	4.1818	0.1	-0.10234
21757	23.27	3.9091	0.1	-0.12296
21758	23.179	4.	0.1	-0.10496
21759	23.27	3.7273	0.1	-0.12477
21760	23.179	3.8182	0.1	-0.10693
21761	23.27	3.5455	0.1	-0.12608
21762	23.179	3.6364	0.1	-0.10838
21763	23.27	3.3636	0.1	-0.12697
21764	23.179	3.4545	0.1	-0.10941
21765	23.27	3.1818	0.1	-0.12748
21766	23.179	3.2727	0.1	-0.11006
21767	23.27	3.	0.1	-0.12765
21768	23.179	3.0909	0.1	-0.11038
21769	23.27	2.8182	0.1	-0.12748
21770	23.179	2.9091	0.1	-0.11038
21771	23.27	2.6364	0.1	-0.12697
21772	23.179	2.7273	0.1	-0.11006
21773	23.27	2.4545	0.1	-0.12608
21774	23.179	2.5455	0.1	-0.10941
21775	23.27	2.2727	0.1	-0.12477
21776	23.179	2.3636	0.1	-0.10838
21777	23.27	2.0909	0.1	-0.12296
21778	23.179	2.1818	0.1	-0.10693
21779	23.27	1.9091	0.1	-0.12054
21780	23.179	2.	0.1	-0.10496
21781	23.27	1.7273	0.1	-0.11733
21782	23.179	1.8182	0.1	-0.10234
21783	23.27	1.5455	0.1	-0.11307
21784	23.179	1.6364	0.1	-9.8857e-002
21785	23.27	1.3636	0.1	-0.10737
21786	23.179	1.4545	0.1	-9.42e-002
21787	23.27	1.1818	0.1	-9.9489e-002
21788	23.179	1.2727	0.1	-8.792e-002
21789	23.27	1.	0.1	-8.8565e-002
21790	23.179	1.0909	0.1	-7.9019e-002
21791	23.27	0.81818	0.1	-7.1335e-002
21792	23.179	0.90909	0.1	-6.6809e-002
21793	23.27	0.63636	0.1	-4.8857e-002
21794	23.179	0.72727	0.1	-4.5745e-002
21795	23.27	0.45455	0.1	1.4885e-002
21796	23.179	0.54545	0.1	-2.3391e-002
21797	23.27	0.27273	0.1	8.2194e-002
21798	23.179	0.36364	0.1	7.3859e-002
21799	23.179	0.18182	0.1	7.2042e-002
21800	23.27	9.0909e-002	0.1	-3.9993e-002
21801	23.088	5.7273	0.1	7.7685e-002
21802	22.997	5.8182	0.1	5.7366e-002
21803	23.088	5.9091	0.1	-2.061e-002
21804	23.088	5.5455	0.1	2.8888e-002
21805	22.997	5.6364	0.1	7.3657e-002
21806	23.088	5.3636	0.1	-2.5282e-002
21807	22.997	5.4545	0.1	-9.1634e-003
21808	23.088	5.1818	0.1	-4.5064e-002
21809	22.997	5.2727	0.1	-2.8526e-002
21810	23.088	5.	0.1	-6.0572e-002
21811	22.997	5.0909	0.1	-4.7455e-002
21812	23.088	4.8182	0.1	-7.051e-002
21813	22.997	4.9091	0.1	-5.8652e-002
21814	23.088	4.6364	0.1	-7.7697e-002
21815	22.997	4.7273	0.1	-6.6874e-002
21816	23.088	4.4545	0.1	-8.2883e-002
21817	22.997	4.5455	0.1	-7.2686e-002
21818	23.088	4.2727	0.1	-8.674e-002
21819	22.997	4.3636	0.1	-7.6984e-002
21820	23.088	4.0909	0.1	-8.9633e-002
21821	22.997	4.1818	0.1	-8.0184e-002
21822	23.088	3.9091	0.1	-9.1809e-002
21823	22.997	4.	0.1	-8.2592e-002
21824	23.088	3.7273	0.1	-9.3427e-002
21825	22.997	3.8182	0.1	-8.439e-002
21826	23.088	3.5455	0.1	-9.4597e-002
21827	22.997	3.6364	0.1	-8.5711e-002
21828	23.088	3.3636	0.1	-9.5388e-002
21829	22.997	3.4545	0.1	-8.6641e-002
21830	23.088	3.1818	0.1	-9.5845e-002
21831	22.997	3.2727	0.1	-8.7231e-002
21832	23.088	3.	0.1	-9.5996e-002
21833	22.997	3.0909	0.1	-8.752e-002
21834	23.088	2.8182	0.1	-9.5846e-002
21835	22.997	2.9091	0.1	-8.752e-002
21836	23.088	2.6364	0.1	-9.5387e-002
21837	22.997	2.7273	0.1	-8.7232e-002
21838	23.088	2.4545	0.1	-9.4596e-002
21839	22.997	2.5455	0.1	-8.664e-002
21840	23.088	2.2727	0.1	-9.3426e-002
21841	22.997	2.3636	0.1	-8.5711e-002
21842	23.088	2.0909	0.1	-9.1808e-002
21843	22.997	2.1818	0.1	-8.439e-002
21844	23.088	1.9091	0.1	-8.9632e-002
21845	22.997	2.	0.1	-8.2591e-002
21846	23.088	1.7273	0.1	-8.6739e-002
21847	22.997	1.8182	0.1	-8.0185e-002
21848	23.088	1.5455	0.1	-8.2881e-002
21849	22.997	1.6364	0.1	-7.6984e-002
21850	23.088	1.3636	0.1	-7.7696e-002
21851	22.997	1.4545	0.1	-7.2686e-002
21852	23.088	1.1818	0.1	-7.0512e-002
21853	22.997	1.2727	0.1	-6.6875e-002
21854	23.088	1.	0.1	-6.0573e-002
21855	22.997	1.0909	0.1	-5.8654e-002
21856	23.088	0.81818	0.1	-4.5066e-002
21857	22.997	0.90909	0.1	-4.7455e-002
21858	23.088	0.63636	0.1	-2.5281e-002
21859	22.997	0.72727	0.1	-2.8528e-002
21860	23.088	0.45455	0.1	2.8892e-002
21861	22.997	0.54545	0.1	-9.1615e-003
21862	23.088	0.27273	0.1	7.7685e-002
21863	22.997	0.36364	0.1	7.3658e-002
21864	22.997	0.18182	0.1	5.7366e-002
21865	23.088	9.0909e-002	0.1	-2.0609e-002
21866	22.905	5.7273	0.1	6.7861e-002
21867	22.814	5.8182	0.1	4.4872e-002
21868	22.905	5.9091	0.1	-1.2104e-002
21869	22.905	5.5455	0.1	3.11e-002
21870	22.814	5.6364	0.1	6.9161e-002
21871	22.905	5.3636	0.1	-1.5914e-002
21872	22.814	5.4545	0.1	-2.5441e-003
21873	22.905	5.1818	0.1	-3.351e-002
21874	22.814	5.2727	0.1	-1.9409e-002
21875	22.905	5.	0.1	-4.765e-002
21876	22.814	5.0909	0.1	-3.6508e-002
21877	22.905	4.8182	0.1	-5.6882e-002
21878	22.814	4.9091	0.1	-4.6874e-002
21879	22.905	4.6364	0.1	-6.3598e-002
21880	22.814	4.7273	0.1	-5.4566e-002
21881	22.905	4.4545	0.1	-6.8453e-002
21882	22.814	4.5455	0.1	-6.0038e-002
21883	22.905	4.2727	0.1	-7.2058e-002
21884	22.814	4.3636	0.1	-6.4089e-002
21885	22.905	4.0909	0.1	-7.4754e-002
21886	22.814	4.1818	0.1	-6.7102e-002
21887	22.905	3.9091	0.1	-7.6774e-002
21888	22.814	4.	0.1	-6.936e-002
21889	22.905	3.7273	0.1	-7.8271e-002
21890	22.814	3.8182	0.1	-7.1044e-002
21891	22.905	3.5455	0.1	-7.935e-002
21892	22.814	3.6364	0.1	-7.2278e-002
21893	22.905	3.3636	0.1	-8.0079e-002
21894	22.814	3.4545	0.1	-7.3143e-002
21895	22.905	3.1818	0.1	-8.05e-002
21896	22.814	3.2727	0.1	-7.3691e-002
21897	22.905	3.	0.1	-8.0638e-002
21898	22.814	3.0909	0.1	-7.3959e-002
21899	22.905	2.8182	0.1	-8.05e-002
21900	22.814	2.9091	0.1	-7.3959e-002
21901	22.905	2.6364	0.1	-8.0079e-002
21902	22.814	2.7273	0.1	-7.3692e-002
21903	22.905	2.4545	0.1	-7.9351e-002
21904	22.814	2.5455	0.1	-7.3143e-002
21905	22.905	2.2727	0.1	-7.8271e-002
21906	22.814	2.3636	0.1	-7.2278e-002
21907	22.905	2.0909	0.1	-7.6774e-002
21908	22.814	2.1818	0.1	-7.1045e-002
21909	22.905	1.9091	0.1	-7.4754e-002
21910	22.814	2.	0.1	-6.936e-002
21911	22.905	1.7273	0.1	-7.2059e-002
21912	22.814	1.8182	0.1	-6.7102e-002
21913	22.905	1.5455	0.1	-6.8454e-002
21914	22.814	1.6364	0.1	-6.4089e-002
21915	22.905	1.3636	0.1	-6.3599e-002
21916	22.814	1.4545	0.1	-6.0039e-002
21917	22.905	1.1818	0.1	-5.6883e-002
21918	22.814	1.2727	0.1	-5.4567e-002
21919	22.905	1.	0.1	-4.7651e-002
21920	22.814	1.0909	0.1	-4.6875e-002
21921	22.905	0.81818	0.1	-3.351e-002
21922	22.814	0.90909	0.1	-3.6507e-002
21923	22.905	0.63636	0.1	-1.5914e-002
21924	22.814	0.72727	0.1	-1.941e-002
21925	22.905	0.45455	0.1	3.1101e-002
21926	22.814	0.54545	0.1	-2.5457e-003
21927	22.905	0.27273	0.1	6.7863e-002
21928	22.814	0.36364	0.1	6.9162e-002
21929	22.814	0.18182	0.1	4.4874e-002
21930	22.905	9.0909e-002	0.1	-1.2104e-002
21931	22.723	5.7273	0.1	6.0214e-002
21932	22.632	5.8182	0.1	3.5655e-002
21933	22.723	5.9091	0.1	-6.0527e-003
21934	22.723	5.5455	0.1	3.2363e-002
21935	22.632	5.6364	0.1	6.4482e-002
21936	22.723	5.3636	0.1	-8.6567e-003
21937	22.632	5.4545	0.1	1.9071e-003
21938	22.723	5.1818	0.1	-2.4318e-002
21939	22.632	5.2727	0.1	-1.281e-002
21940	22.723	5.	0.1	-3.7239e-002
21941	22.632	5.0909	0.1	-2.8284e-002
21942	22.723	4.8182	0.1	-4.5839e-002
21943	22.632	4.9091	0.1	-3.7885e-002
21944	22.723	4.6364	0.1	-5.2159e-002
21945	22.632	4.7273	0.1	-4.5104e-002
21946	22.723	4.4545	0.1	-5.6753e-002
21947	22.632	4.5455	0.1	-5.0288e-002
21948	22.723	4.2727	0.1	-6.0169e-002
21949	22.632	4.3636	0.1	-5.4142e-002
21950	22.723	4.0909	0.1	-6.272e-002
21951	22.632	4.1818	0.1	-5.7011e-002
21952	22.723	3.9091	0.1	-6.4627e-002
21953	22.632	4.	0.1	-5.916e-002
21954	22.723	3.7273	0.1	-6.6039e-002
21955	22.632	3.8182	0.1	-6.0759e-002
21956	22.723	3.5455	0.1	-6.7053e-002
21957	22.632	3.6364	0.1	-6.193e-002
21958	22.723	3.3636	0.1	-6.7735e-002
21959	22.632	3.4545	0.1	-6.2747e-002
21960	22.723	3.1818	0.1	-6.8129e-002
21961	22.632	3.2727	0.1	-6.3265e-002
21962	22.723	3.	0.1	-6.8258e-002
21963	22.632	3.0909	0.1	-6.3517e-002
21964	22.723	2.8182	0.1	-6.813e-002
21965	22.632	2.9091	0.1	-6.3517e-002
21966	22.723	2.6364	0.1	-6.7737e-002
21967	22.632	2.7273	0.1	-6.3266e-002
21968	22.723	2.4545	0.1	-6.7054e-002
21969	22.632	2.5455	0.1	-6.2747e-002
21970	22.723	2.2727	0.1	-6.604e-002
21971	22.632	2.3636	0.1	-6.193e-002
21972	22.723	2.0909	0.1	-6.4627e-002
21973	22.632	2.1818	0.1	-6.0761e-002
21974	22.723	1.9091	0.1	-6.2719e-002
21975	22.632	2.	0.1	-5.916e-002
21976	22.723	1.7273	0.1	-6.0168e-002
21977	22.632	1.8182	0.1	-5.7012e-002
21978	22.723	1.5455	0.1	-5.6752e-002
21979	22.632	1.6364	0.1	-5.4142e-002
21980	22.723	1.3636	0.1	-5.2159e-002
21981	22.632	1.4545	0.1	-5.0288e-002
21982	22.723	1.1818	0.1	-4.584e-002
21983	22.632	1.2727	0.1	-4.5104e-002
21984	22.723	1.	0.1	-3.7239e-002
21985	22.632	1.0909	0.1	-3.7886e-002
21986	22.723	0.81818	0.1	-2.4319e-002
21987	22.632	0.90909	0.1	-2.8284e-002
21988	22.723	0.63636	0.1	-8.6592e-003
21989	22.632	0.72727	0.1	-1.2811e-002
21990	22.723	0.45455	0.1	3.2362e-002
21991	22.632	0.54545	0.1	1.9073e-003
21992	22.723	0.27273	0.1	6.0215e-002
21993	22.632	0.36364	0.1	6.4484e-002
21994	22.632	0.18182	0.1	3.5655e-002
21995	22.723	9.0909e-002	0.1	-6.0546e-003
21996	22.541	5.7273	0.1	5.309e-002
21997	22.449	5.8182	0.1	2.8385e-002
21998	22.541	5.9091	0.1	-2.396e-003
21999	22.541	5.5455	0.1	3.177e-002
22000	22.449	5.6364	0.1	5.9444e-002
22001	22.541	5.3636	0.1	-4.271e-003
22002	22.449	5.4545	0.1	4.463e-003
22003	22.541	5.1818	0.1	-1.826e-002
22004	22.449	5.2727	0.1	-8.4435e-003
22005	22.541	5.	0.1	-3.008e-002
22006	22.449	5.0909	0.1	-2.2465e-002
22007	22.541	4.8182	0.1	-3.8102e-002
22008	22.449	4.9091	0.1	-3.1356e-002
22009	22.541	4.6364	0.1	-4.4066e-002
22010	22.449	4.7273	0.1	-3.8135e-002
22011	22.541	4.4545	0.1	-4.8438e-002
22012	22.449	4.5455	0.1	-4.3058e-002
22013	22.541	4.2727	0.1	-5.1701e-002
22014	22.449	4.3636	0.1	-4.6741e-002
22015	22.541	4.0909	0.1	-5.4142e-002
22016	22.449	4.1818	0.1	-4.949e-002
22017	22.541	3.9091	0.1	-5.5966e-002
22018	22.449	4.	0.1	-5.1554e-002
22019	22.541	3.7273	0.1	-5.7313e-002
22020	22.449	3.8182	0.1	-5.3089e-002
22021	22.541	3.5455	0.1	-5.828e-002
22022	22.449	3.6364	0.1	-5.4209e-002
22023	22.541	3.3636	0.1	-5.8929e-002
22024	22.449	3.4545	0.1	-5.4991e-002
22025	22.541	3.1818	0.1	-5.9304e-002
22026	22.449	3.2727	0.1	-5.5487e-002
22027	22.541	3.	0.1	-5.9426e-002
22028	22.449	3.0909	0.1	-5.5727e-002
22029	22.541	2.8182	0.1	-5.9304e-002
22030	22.449	2.9091	0.1	-5.5728e-002
22031	22.541	2.6364	0.1	-5.8929e-002
22032	22.449	2.7273	0.1	-5.5487e-002
22033	22.541	2.4545	0.1	-5.828e-002
22034	22.449	2.5455	0.1	-5.4991e-002
22035	22.541	2.2727	0.1	-5.7314e-002
22036	22.449	2.3636	0.1	-5.421e-002
22037	22.541	2.0909	0.1	-5.5967e-002
22038	22.449	2.1818	0.1	-5.3089e-002
22039	22.541	1.9091	0.1	-5.4143e-002
22040	22.449	2.	0.1	-5.1554e-002
22041	22.541	1.7273	0.1	-5.1702e-002
22042	22.449	1.8182	0.1	-4.9492e-002
22043	22.541	1.5455	0.1	-4.8439e-002
22044	22.449	1.6364	0.1	-4.674e-002
22045	22.541	1.3636	0.1	-4.4067e-002
22046	22.449	1.4545	0.1	-4.3059e-002
22047	22.541	1.1818	0.1	-3.8102e-002
22048	22.449	1.2727	0.1	-3.8135e-002
22049	22.541	1.	0.1	-3.0081e-002
22050	22.449	1.0909	0.1	-3.1357e-002
22051	22.541	0.81818	0.1	-1.826e-002
22052	22.449	0.90909	0.1	-2.2466e-002
22053	22.541	0.63636	0.1	-4.2694e-003
22054	22.449	0.72727	0.1	-8.4439e-003
22055	22.541	0.45455	0.1	3.1773e-002
22056	22.449	0.54545	0.1	4.4647e-003
22057	22.541	0.27273	0.1	5.3091e-002
22058	22.449	0.36364	0.1	5.9446e-002
22059	22.449	0.18182	0.1	2.8386e-002
22060	22.541	9.0909e-002	0.1	-2.3971e-003
22061	22.358	5.7273	0.1	4.6897e-002
22062	22.267	5.8182	0.1	2.2692e-002
22063	22.358	5.9091	0.1	8.617e-006
22064	22.358	5.5455	0.1	3.0506e-002
22065	22.267	5.6364	0.1	5.4501e-002
22066	22.358	5.3636	0.1	-1.3109e-003
22067	22.267	5.4545	0.1	5.9722e-003
22068	22.358	5.1818	0.1	-1.3839e-002
22069	22.267	5.2727	0.1	-5.3982e-003
22070	22.358	5.	0.1	-2.4658e-002
22071	22.267	5.0909	0.1	-1.8118e-002
22072	22.358	4.8182	0.1	-3.2136e-002
22073	22.267	4.9091	0.1	-2.6349e-002
22074	22.358	4.6364	0.1	-3.7766e-002
22075	22.267	4.7273	0.1	-3.2709e-002
22076	22.358	4.4545	0.1	-4.1932e-002
22077	22.267	4.5455	0.1	-3.7382e-002
22078	22.358	4.2727	0.1	-4.5059e-002
22079	22.267	4.3636	0.1	-4.0904e-002
22080	22.358	4.0909	0.1	-4.7405e-002
22081	22.267	4.1818	0.1	-4.3548e-002
22082	22.358	3.9091	0.1	-4.9162e-002
22083	22.267	4.	0.1	-4.5536e-002
22084	22.358	3.7273	0.1	-5.0458e-002
22085	22.267	3.8182	0.1	-4.7017e-002
22086	22.358	3.5455	0.1	-5.1387e-002
22087	22.267	3.6364	0.1	-4.8097e-002
22088	22.358	3.3636	0.1	-5.2011e-002
22089	22.267	3.4545	0.1	-4.8851e-002
22090	22.358	3.1818	0.1	-5.237e-002
22091	22.267	3.2727	0.1	-4.9329e-002
22092	22.358	3.	0.1	-5.2487e-002
22093	22.267	3.0909	0.1	-4.956e-002
22094	22.358	2.8182	0.1	-5.2371e-002
22095	22.267	2.9091	0.1	-4.9561e-002
22096	22.358	2.6364	0.1	-5.2011e-002
22097	22.267	2.7273	0.1	-4.9329e-002
22098	22.358	2.4545	0.1	-5.1387e-002
22099	22.267	2.5455	0.1	-4.8852e-002
22100	22.358	2.2727	0.1	-5.0458e-002
22101	22.267	2.3636	0.1	-4.8097e-002
22102	22.358	2.0909	0.1	-4.9161e-002
22103	22.267	2.1818	0.1	-4.7016e-002
22104	22.358	1.9091	0.1	-4.7405e-002
22105	22.267	2.	0.1	-4.5535e-002
22106	22.358	1.7273	0.1	-4.5059e-002
22107	22.267	1.8182	0.1	-4.3548e-002
22108	22.358	1.5455	0.1	-4.1932e-002
22109	22.267	1.6364	0.1	-4.0903e-002
22110	22.358	1.3636	0.1	-3.7766e-002
22111	22.267	1.4545	0.1	-3.7383e-002
22112	22.358	1.1818	0.1	-3.2136e-002
22113	22.267	1.2727	0.1	-3.2709e-002
22114	22.358	1.	0.1	-2.4659e-002
22115	22.267	1.0909	0.1	-2.6349e-002
22116	22.358	0.81818	0.1	-1.384e-002
22117	22.267	0.90909	0.1	-1.812e-002
22118	22.358	0.63636	0.1	-1.3112e-003
22119	22.267	0.72727	0.1	-5.4001e-003
22120	22.358	0.45455	0.1	3.0508e-002
22121	22.267	0.54545	0.1	5.9717e-003
22122	22.358	0.27273	0.1	4.6899e-002
22123	22.267	0.36364	0.1	5.4504e-002
22124	22.267	0.18182	0.1	2.2694e-002
22125	22.358	9.0909e-002	0.1	8.075e-006
22126	22.176	5.7273	0.1	4.1423e-002
22127	22.085	5.8182	0.1	1.8168e-002
22128	22.176	5.9091	0.1	1.5349e-003
22129	22.176	5.5455	0.1	2.879e-002
22130	22.085	5.6364	0.1	4.9719e-002
22131	22.176	5.3636	0.1	6.0207e-004
22132	22.085	5.4545	0.1	6.7612e-003
22133	22.176	5.1818	0.1	-1.065e-002
22134	22.085	5.2727	0.1	-3.3016e-003
22135	22.176	5.	0.1	-2.0561e-002
22136	22.085	5.0909	0.1	-1.4856e-002
22137	22.176	4.8182	0.1	-2.7529e-002
22138	22.085	4.9091	0.1	-2.2474e-002
22139	22.176	4.6364	0.1	-3.2837e-002
22140	22.085	4.7273	0.1	-2.8435e-002
22141	22.176	4.4545	0.1	-3.6805e-002
22142	22.085	4.5455	0.1	-3.2866e-002
22143	22.176	4.2727	0.1	-3.9803e-002
22144	22.085	4.3636	0.1	-3.6231e-002
22145	22.176	4.0909	0.1	-4.2062e-002
22146	22.085	4.1818	0.1	-3.8772e-002
22147	22.176	3.9091	0.1	-4.3757e-002
22148	22.085	4.	0.1	-4.0691e-002
22149	22.176	3.7273	0.1	-4.5011e-002
22150	22.085	3.8182	0.1	-4.2123e-002
22151	22.176	3.5455	0.1	-4.5909e-002
22152	22.085	3.6364	0.1	-4.3167e-002
22153	22.176	3.3636	0.1	-4.6512e-002
22154	22.085	3.4545	0.1	-4.3897e-002
22155	22.176	3.1818	0.1	-4.6859e-002
22156	22.085	3.2727	0.1	-4.4359e-002
22157	22.176	3.	0.1	-4.6973e-002
22158	22.085	3.0909	0.1	-4.4583e-002
22159	22.176	2.8182	0.1	-4.686e-002
22160	22.085	2.9091	0.1	-4.4584e-002
22161	22.176	2.6364	0.1	-4.6513e-002
22162	22.085	2.7273	0.1	-4.4359e-002
22163	22.176	2.4545	0.1	-4.5909e-002
22164	22.085	2.5455	0.1	-4.3899e-002
22165	22.176	2.2727	0.1	-4.5011e-002
22166	22.085	2.3636	0.1	-4.3167e-002
22167	22.176	2.0909	0.1	-4.3757e-002
22168	22.085	2.1818	0.1	-4.2123e-002
22169	22.176	1.9091	0.1	-4.2062e-002
22170	22.085	2.	0.1	-4.069e-002
22171	22.176	1.7273	0.1	-3.9803e-002
22172	22.085	1.8182	0.1	-3.8773e-002
22173	22.176	1.5455	0.1	-3.6805e-002
22174	22.085	1.6364	0.1	-3.6231e-002
22175	22.176	1.3636	0.1	-3.2837e-002
22176	22.085	1.4545	0.1	-3.2865e-002
22177	22.176	1.1818	0.1	-2.7528e-002
22178	22.085	1.2727	0.1	-2.8435e-002
22179	22.176	1.	0.1	-2.0562e-002
22180	22.085	1.0909	0.1	-2.2474e-002
22181	22.176	0.81818	0.1	-1.0652e-002
22182	22.085	0.90909	0.1	-1.4857e-002
22183	22.176	0.63636	0.1	5.9992e-004
22184	22.085	0.72727	0.1	-3.3036e-003
22185	22.176	0.45455	0.1	2.8791e-002
22186	22.085	0.54545	0.1	6.7606e-003
22187	22.176	0.27273	0.1	4.1426e-002
22188	22.085	0.36364	0.1	4.9721e-002
22189	22.085	0.18182	0.1	1.817e-002
22190	22.176	9.0909e-002	0.1	1.5336e-003
22191	21.993	5.7273	0.1	3.6588e-002
22192	21.902	5.8182	0.1	1.4554e-002
22193	21.993	5.9091	0.1	2.4744e-003
22194	21.993	5.5455	0.1	2.6852e-002
22195	21.902	5.6364	0.1	4.5151e-002
22196	21.993	5.3636	0.1	1.8228e-003
22197	21.902	5.4545	0.1	7.0778e-003
22198	21.993	5.1818	0.1	-8.3106e-003
22199	21.902	5.2727	0.1	-1.8655e-003
22200	21.993	5.	0.1	-1.7395e-002
22201	21.902	5.0909	0.1	-1.2372e-002
22202	21.993	4.8182	0.1	-2.3885e-002
22203	21.902	4.9091	0.1	-1.9422e-002
22204	21.993	4.6364	0.1	-2.8886e-002
22205	21.902	4.7273	0.1	-2.5005e-002
22206	21.993	4.4545	0.1	-3.266e-002
22207	21.902	4.5455	0.1	-2.9201e-002
22208	21.993	4.2727	0.1	-3.5531e-002
22209	21.902	4.3636	0.1	-3.2413e-002
22210	21.993	4.0909	0.1	-3.7706e-002
22211	21.902	4.1818	0.1	-3.4853e-002
22212	21.993	3.9091	0.1	-3.9345e-002
22213	21.902	4.	0.1	-3.6702e-002
22214	21.993	3.7273	0.1	-4.0557e-002
22215	21.902	3.8182	0.1	-3.8086e-002
22216	21.993	3.5455	0.1	-4.1426e-002
22217	21.902	3.6364	0.1	-3.9097e-002
22218	21.993	3.3636	0.1	-4.201e-002
22219	21.902	3.4545	0.1	-3.9803e-002
22220	21.993	3.1818	0.1	-4.2346e-002
22221	21.902	3.2727	0.1	-4.0251e-002
22222	21.993	3.	0.1	-4.2456e-002
22223	21.902	3.0909	0.1	-4.0468e-002
22224	21.993	2.8182	0.1	-4.2346e-002
22225	21.902	2.9091	0.1	-4.0468e-002
22226	21.993	2.6364	0.1	-4.201e-002
22227	21.902	2.7273	0.1	-4.0251e-002
22228	21.993	2.4545	0.1	-4.1426e-002
22229	21.902	2.5455	0.1	-3.9804e-002
22230	21.993	2.2727	0.1	-4.0556e-002
22231	21.902	2.3636	0.1	-3.9096e-002
22232	21.993	2.0909	0.1	-3.9344e-002
22233	21.902	2.1818	0.1	-3.8086e-002
22234	21.993	1.9091	0.1	-3.7707e-002
22235	21.902	2.	0.1	-3.6702e-002
22236	21.993	1.7273	0.1	-3.5532e-002
22237	21.902	1.8182	0.1	-3.4854e-002
22238	21.993	1.5455	0.1	-3.2659e-002
22239	21.902	1.6364	0.1	-3.2412e-002
22240	21.993	1.3636	0.1	-2.8886e-002
22241	21.902	1.4545	0.1	-2.9201e-002
22242	21.993	1.1818	0.1	-2.3885e-002
22243	21.902	1.2727	0.1	-2.5005e-002
22244	21.993	1.	0.1	-1.7395e-002
22245	21.902	1.0909	0.1	-1.9423e-002
22246	21.993	0.81818	0.1	-8.311e-003
22247	21.902	0.90909	0.1	-1.2372e-002
22248	21.993	0.63636	0.1	1.8222e-003
22249	21.902	0.72727	0.1	-1.8671e-003
22250	21.993	0.45455	0.1	2.6852e-002
22251	21.902	0.54545	0.1	7.078e-003
22252	21.993	0.27273	0.1	3.659e-002
22253	21.902	0.36364	0.1	4.5152e-002
22254	21.902	0.18182	0.1	1.4556e-002
22255	21.993	9.0909e-002	0.1	2.4793e-003
22256	21.811	5.7273	0.1	3.2284e-002
22257	21.72	5.8182	0.1	1.1649e-002
22258	21.811	5.9091	0.1	3.0063e-003
22259	21.811	5.5455	0.1	2.4796e-002
22260	21.72	5.6364	0.1	4.0802e-002
22261	21.811	5.3636	0.1	2.5533e-003
22262	21.72	5.4545	0.1	7.0682e-003
22263	21.811	5.1818	0.1	-6.5942e-003
22264	21.72	5.2727	0.1	-9.0818e-004
22265	21.811	5.	0.1	-1.4926e-002
22266	21.72	5.0909	0.1	-1.0468e-002
22267	21.811	4.8182	0.1	-2.0969e-002
22268	21.72	4.9091	0.1	-1.6994e-002
22269	21.811	4.6364	0.1	-2.5676e-002
22270	21.72	4.7273	0.1	-2.222e-002
22271	21.811	4.4545	0.1	-2.9261e-002
22272	21.72	4.5455	0.1	-2.6189e-002
22273	21.811	4.2727	0.1	-3.2008e-002
22274	21.72	4.3636	0.1	-2.9248e-002
22275	21.811	4.0909	0.1	-3.4099e-002
22276	21.72	4.1818	0.1	-3.1588e-002
22277	21.811	3.9091	0.1	-3.5678e-002
22278	21.72	4.	0.1	-3.3366e-002
22279	21.811	3.7273	0.1	-3.6849e-002
22280	21.72	3.8182	0.1	-3.4701e-002
22281	21.811	3.5455	0.1	-3.7691e-002
22282	21.72	3.6364	0.1	-3.5679e-002
22283	21.811	3.3636	0.1	-3.8257e-002
22284	21.72	3.4545	0.1	-3.6362e-002
22285	21.811	3.1818	0.1	-3.8583e-002
22286	21.72	3.2727	0.1	-3.6796e-002
22287	21.811	3.	0.1	-3.8689e-002
22288	21.72	3.0909	0.1	-3.7006e-002
22289	21.811	2.8182	0.1	-3.8582e-002
22290	21.72	2.9091	0.1	-3.7005e-002
22291	21.811	2.6364	0.1	-3.8257e-002
22292	21.72	2.7273	0.1	-3.6795e-002
22293	21.811	2.4545	0.1	-3.7691e-002
22294	21.72	2.5455	0.1	-3.6362e-002
22295	21.811	2.2727	0.1	-3.685e-002
22296	21.72	2.3636	0.1	-3.5678e-002
22297	21.811	2.0909	0.1	-3.5678e-002
22298	21.72	2.1818	0.1	-3.4702e-002
22299	21.811	1.9091	0.1	-3.4099e-002
22300	21.72	2.	0.1	-3.3366e-002
22301	21.811	1.7273	0.1	-3.2008e-002
22302	21.72	1.8182	0.1	-3.1589e-002
22303	21.811	1.5455	0.1	-2.9261e-002
22304	21.72	1.6364	0.1	-2.9249e-002
22305	21.811	1.3636	0.1	-2.5675e-002
22306	21.72	1.4545	0.1	-2.6189e-002
22307	21.811	1.1818	0.1	-2.0969e-002
22308	21.72	1.2727	0.1	-2.222e-002
22309	21.811	1.	0.1	-1.4927e-002
22310	21.72	1.0909	0.1	-1.6995e-002
22311	21.811	0.81818	0.1	-6.5949e-003
22312	21.72	0.90909	0.1	-1.0468e-002
22313	21.811	0.63636	0.1	2.5525e-003
22314	21.72	0.72727	0.1	-9.1024e-004
22315	21.811	0.45455	0.1	2.4797e-002
22316	21.72	0.54545	0.1	7.0685e-003
22317	21.811	0.27273	0.1	3.2285e-002
22318	21.72	0.36364	0.1	4.0802e-002
22319	21.72	0.18182	0.1	1.1651e-002
22320	21.811	9.0909e-002	0.1	3.0069e-003
22321	21.628	5.7273	0.1	2.843e-002
22322	21.537	5.8182	0.1	9.314e-003
22323	21.628	5.9091	0.1	3.2428e-003
22324	21.628	5.5455	0.1	2.2692e-002
22325	21.537	5.6364	0.1	3.6668e-002
22326	21.628	5.3636	0.1	2.9335e-003
22327	21.537	5.4545	0.1	6.8364e-003
22328	21.628	5.1818	0.1	-5.3366e-003
22329	21.537	5.2727	0.1	-2.9744e-004
22330	21.628	5.	0.1	-1.2982e-002
22331	21.537	5.0909	0.1	-8.9949e-003
22332	21.628	4.8182	0.1	-1.8609e-002
22333	21.537	4.9091	0.1	-1.5039e-002
22334	21.628	4.6364	0.1	-2.3033e-002
22335	21.537	4.7273	0.1	-1.9929e-002
22336	21.628	4.4545	0.1	-2.6437e-002
22337	21.537	4.5455	0.1	-2.3679e-002
22338	21.628	4.2727	0.1	-2.9059e-002
22339	21.537	4.3636	0.1	-2.6589e-002
22340	21.628	4.0909	0.1	-3.1065e-002
22341	21.537	4.1818	0.1	-2.8826e-002
22342	21.628	3.9091	0.1	-3.2585e-002
22343	21.537	4.	0.1	-3.0533e-002
22344	21.628	3.7273	0.1	-3.3716e-002
22345	21.537	3.8182	0.1	-3.1818e-002
22346	21.628	3.5455	0.1	-3.4528e-002
22347	21.537	3.6364	0.1	-3.276e-002
22348	21.628	3.3636	0.1	-3.5075e-002
22349	21.537	3.4545	0.1	-3.3418e-002
22350	21.628	3.1818	0.1	-3.5391e-002
22351	21.537	3.2727	0.1	-3.3837e-002
22352	21.628	3.	0.1	-3.5493e-002
22353	21.537	3.0909	0.1	-3.4039e-002
22354	21.628	2.8182	0.1	-3.5389e-002
22355	21.537	2.9091	0.1	-3.4039e-002
22356	21.628	2.6364	0.1	-3.5075e-002
22357	21.537	2.7273	0.1	-3.3837e-002
22358	21.628	2.4545	0.1	-3.4528e-002
22359	21.537	2.5455	0.1	-3.3419e-002
22360	21.628	2.2727	0.1	-3.3716e-002
22361	21.537	2.3636	0.1	-3.276e-002
22362	21.628	2.0909	0.1	-3.2585e-002
22363	21.537	2.1818	0.1	-3.1818e-002
22364	21.628	1.9091	0.1	-3.1066e-002
22365	21.537	2.	0.1	-3.0534e-002
22366	21.628	1.7273	0.1	-2.9061e-002
22367	21.537	1.8182	0.1	-2.8826e-002
22368	21.628	1.5455	0.1	-2.6438e-002
22369	21.537	1.6364	0.1	-2.6589e-002
22370	21.628	1.3636	0.1	-2.3033e-002
22371	21.537	1.4545	0.1	-2.3678e-002
22372	21.628	1.1818	0.1	-1.8609e-002
22373	21.537	1.2727	0.1	-1.9929e-002
22374	21.628	1.	0.1	-1.2982e-002
22375	21.537	1.0909	0.1	-1.5039e-002
22376	21.628	0.81818	0.1	-5.338e-003
22377	21.537	0.90909	0.1	-8.9965e-003
22378	21.628	0.63636	0.1	2.9326e-003
22379	21.537	0.72727	0.1	-2.9892e-004
22380	21.628	0.45455	0.1	2.2692e-002
22381	21.537	0.54545	0.1	6.8374e-003
22382	21.628	0.27273	0.1	2.8431e-002
22383	21.537	0.36364	0.1	3.667e-002
22384	21.537	0.18182	0.1	9.3151e-003
22385	21.628	9.0909e-002	0.1	3.2428e-003
22386	21.446	5.7273	0.1	2.4962e-002
22387	21.355	5.8182	0.1	7.4387e-003
22388	21.446	5.9091	0.1	3.2807e-003
22389	21.446	5.5455	0.1	2.0587e-002
22390	21.355	5.6364	0.1	3.2734e-002
22391	21.446	5.3636	0.1	3.0687e-003
22392	21.355	5.4545	0.1	6.4503e-003
22393	21.446	5.1818	0.1	-4.4153e-003
22394	21.355	5.2727	0.1	5.7184e-005
22395	21.446	5.	0.1	-1.143e-002
22396	21.355	5.0909	0.1	-7.8507e-003
22397	21.446	4.8182	0.1	-1.667e-002
22398	21.355	4.9091	0.1	-1.3447e-002
22399	21.446	4.6364	0.1	-2.0832e-002
22400	21.355	4.7273	0.1	-1.8021e-002
22401	21.446	4.4545	0.1	-2.4054e-002
22402	21.355	4.5455	0.1	-2.1559e-002
22403	21.446	4.2727	0.1	-2.6554e-002
22404	21.355	4.3636	0.1	-2.4326e-002
22405	21.446	4.0909	0.1	-2.8474e-002
22406	21.355	4.1818	0.1	-2.6461e-002
22407	21.446	3.9091	0.1	-2.9931e-002
22408	21.355	4.	0.1	-2.8096e-002
22409	21.446	3.7273	0.1	-3.1018e-002
22410	21.355	3.8182	0.1	-2.9328e-002
22411	21.446	3.5455	0.1	-3.1801e-002
22412	21.355	3.6364	0.1	-3.0233e-002
22413	21.446	3.3636	0.1	-3.2327e-002
22414	21.355	3.4545	0.1	-3.0866e-002
22415	21.446	3.1818	0.1	-3.2629e-002
22416	21.355	3.2727	0.1	-3.1267e-002
22417	21.446	3.	0.1	-3.2728e-002
22418	21.355	3.0909	0.1	-3.1461e-002
22419	21.446	2.8182	0.1	-3.2631e-002
22420	21.355	2.9091	0.1	-3.1461e-002
22421	21.446	2.6364	0.1	-3.2328e-002
22422	21.355	2.7273	0.1	-3.1268e-002
22423	21.446	2.4545	0.1	-3.1801e-002
22424	21.355	2.5455	0.1	-3.0866e-002
22425	21.446	2.2727	0.1	-3.1019e-002
22426	21.355	2.3636	0.1	-3.0233e-002
22427	21.446	2.0909	0.1	-2.9932e-002
22428	21.355	2.1818	0.1	-2.9329e-002
22429	21.446	1.9091	0.1	-2.8474e-002
22430	21.355	2.	0.1	-2.8097e-002
22431	21.446	1.7273	0.1	-2.6553e-002
22432	21.355	1.8182	0.1	-2.6462e-002
22433	21.446	1.5455	0.1	-2.4054e-002
22434	21.355	1.6364	0.1	-2.4325e-002
22435	21.446	1.3636	0.1	-2.0831e-002
22436	21.355	1.4545	0.1	-2.156e-002
22437	21.446	1.1818	0.1	-1.667e-002
22438	21.355	1.2727	0.1	-1.8021e-002
22439	21.446	1.	0.1	-1.1431e-002
22440	21.355	1.0909	0.1	-1.3449e-002
22441	21.446	0.81818	0.1	-4.417e-003
22442	21.355	0.90909	0.1	-7.8524e-003
22443	21.446	0.63636	0.1	3.0691e-003
22444	21.355	0.72727	0.1	5.6049e-005
22445	21.446	0.45455	0.1	2.059e-002
22446	21.355	0.54545	0.1	6.4529e-003
22447	21.446	0.27273	0.1	2.4964e-002
22448	21.355	0.36364	0.1	3.2736e-002
22449	21.355	0.18182	0.1	7.4391e-003
22450	21.446	9.0909e-002	0.1	3.2768e-003
22451	21.264	5.7273	0.1	2.1815e-002
22452	21.172	5.8182	0.1	5.9304e-003
22453	21.264	5.9091	0.1	3.1682e-003
22454	21.264	5.5455	0.1	1.8496e-002
22455	21.172	5.6364	0.1	2.8968e-002
22456	21.264	5.3636	0.1	3.0182e-003
22457	21.172	5.4545	0.1	5.9434e-003
22458	21.264	5.1818	0.1	-3.7546e-003
22459	21.172	5.2727	0.1	2.0778e-004
22460	21.264	5.	0.1	-1.0185e-002
22461	21.172	5.0909	0.1	-6.9698e-003
22462	21.264	4.8182	0.1	-1.5063e-002
22463	21.172	4.9091	0.1	-1.215e-002
22464	21.264	4.6364	0.1	-1.8973e-002
22465	21.172	4.7273	0.1	-1.6425e-002
22466	21.264	4.4545	0.1	-2.2025e-002
22467	21.172	4.5455	0.1	-1.9764e-002
22468	21.264	4.2727	0.1	-2.4405e-002
22469	21.172	4.3636	0.1	-2.239e-002
22470	21.264	4.0909	0.1	-2.6239e-002
22471	21.172	4.1818	0.1	-2.4425e-002
22472	21.264	3.9091	0.1	-2.7636e-002
22473	21.172	4.	0.1	-2.5988e-002
22474	21.264	3.7273	0.1	-2.8677e-002
22475	21.172	3.8182	0.1	-2.7165e-002
22476	21.264	3.5455	0.1	-2.9427e-002
22477	21.172	3.6364	0.1	-2.8031e-002
22478	21.264	3.3636	0.1	-2.9931e-002
22479	21.172	3.4545	0.1	-2.8637e-002
22480	21.264	3.1818	0.1	-3.0222e-002
22481	21.172	3.2727	0.1	-2.902e-002
22482	21.264	3.	0.1	-3.0316e-002
22483	21.172	3.0909	0.1	-2.9206e-002
22484	21.264	2.8182	0.1	-3.0221e-002
22485	21.172	2.9091	0.1	-2.9206e-002
22486	21.264	2.6364	0.1	-2.9931e-002
22487	21.172	2.7273	0.1	-2.9019e-002
22488	21.264	2.4545	0.1	-2.9426e-002
22489	21.172	2.5455	0.1	-2.8636e-002
22490	21.264	2.2727	0.1	-2.8677e-002
22491	21.172	2.3636	0.1	-2.8031e-002
22492	21.264	2.0909	0.1	-2.7636e-002
22493	21.172	2.1818	0.1	-2.7166e-002
22494	21.264	1.9091	0.1	-2.6239e-002
22495	21.172	2.	0.1	-2.5987e-002
22496	21.264	1.7273	0.1	-2.4405e-002
22497	21.172	1.8182	0.1	-2.4426e-002
22498	21.264	1.5455	0.1	-2.2026e-002
22499	21.172	1.6364	0.1	-2.2389e-002
22500	21.264	1.3636	0.1	-1.8975e-002
22501	21.172	1.4545	0.1	-1.9765e-002
22502	21.264	1.1818	0.1	-1.5066e-002
22503	21.172	1.2727	0.1	-1.6425e-002
22504	21.264	1.	0.1	-1.0188e-002
22505	21.172	1.0909	0.1	-1.2152e-002
22506	21.264	0.81818	0.1	-3.7558e-003
22507	21.172	0.90909	0.1	-6.9706e-003
22508	21.264	0.63636	0.1	3.0192e-003
22509	21.172	0.72727	0.1	2.0749e-004
22510	21.264	0.45455	0.1	1.8498e-002
22511	21.172	0.54545	0.1	5.9458e-003
22512	21.264	0.27273	0.1	2.1816e-002
22513	21.172	0.36364	0.1	2.897e-002
22514	21.172	0.18182	0.1	5.9295e-003
22515	21.264	9.0909e-002	0.1	3.166e-003
22516	21.081	5.7273	0.1	1.8927e-002
22517	20.99	5.8182	0.1	4.728e-003
22518	21.081	5.9091	0.1	2.9365e-003
22519	21.081	5.5455	0.1	1.6413e-002
22520	20.99	5.6364	0.1	2.5356e-002
22521	21.081	5.3636	0.1	2.8131e-003
22522	20.99	5.4545	0.1	5.3482e-003
22523	21.081	5.1818	0.1	-3.3097e-003
22524	20.99	5.2727	0.1	2.0439e-004
22525	21.081	5.	0.1	-9.1974e-003
22526	20.99	5.0909	0.1	-6.2927e-003
22527	21.081	4.8182	0.1	-1.3736e-002
22528	20.99	4.9091	0.1	-1.1082e-002
22529	21.081	4.6364	0.1	-1.7409e-002
22530	20.99	4.7273	0.1	-1.5075e-002
22531	21.081	4.4545	0.1	-2.0297e-002
22532	20.99	4.5455	0.1	-1.8225e-002
22533	21.081	4.2727	0.1	-2.2559e-002
22534	20.99	4.3636	0.1	-2.0715e-002
22535	21.081	4.0909	0.1	-2.4308e-002
22536	20.99	4.1818	0.1	-2.2652e-002
22537	21.081	3.9091	0.1	-2.5641e-002
22538	20.99	4.	0.1	-2.4143e-002
22539	21.081	3.7273	0.1	-2.6636e-002
22540	20.99	3.8182	0.1	-2.5266e-002
22541	21.081	3.5455	0.1	-2.7352e-002
22542	20.99	3.6364	0.1	-2.6091e-002
22543	21.081	3.3636	0.1	-2.7833e-002
22544	20.99	3.4545	0.1	-2.6667e-002
22545	21.081	3.1818	0.1	-2.811e-002
22546	20.99	3.2727	0.1	-2.7032e-002
22547	21.081	3.	0.1	-2.8201e-002
22548	20.99	3.0909	0.1	-2.7208e-002
22549	21.081	2.8182	0.1	-2.811e-002
22550	20.99	2.9091	0.1	-2.7208e-002
22551	21.081	2.6364	0.1	-2.7832e-002
22552	20.99	2.7273	0.1	-2.7031e-002
22553	21.081	2.4545	0.1	-2.7351e-002
22554	20.99	2.5455	0.1	-2.6668e-002
22555	21.081	2.2727	0.1	-2.6636e-002
22556	20.99	2.3636	0.1	-2.609e-002
22557	21.081	2.0909	0.1	-2.5642e-002
22558	20.99	2.1818	0.1	-2.5266e-002
22559	21.081	1.9091	0.1	-2.4308e-002
22560	20.99	2.	0.1	-2.4143e-002
22561	21.081	1.7273	0.1	-2.2558e-002
22562	20.99	1.8182	0.1	-2.2652e-002
22563	21.081	1.5455	0.1	-2.0297e-002
22564	20.99	1.6364	0.1	-2.0714e-002
22565	21.081	1.3636	0.1	-1.7409e-002
22566	20.99	1.4545	0.1	-1.8227e-002
22567	21.081	1.1818	0.1	-1.3736e-002
22568	20.99	1.2727	0.1	-1.5075e-002
22569	21.081	1.	0.1	-9.1977e-003
22570	20.99	1.0909	0.1	-1.1083e-002
22571	21.081	0.81818	0.1	-3.3096e-003
22572	20.99	0.90909	0.1	-6.2933e-003
22573	21.081	0.63636	0.1	2.8142e-003
22574	20.99	0.72727	0.1	2.039e-004
22575	21.081	0.45455	0.1	1.6415e-002
22576	20.99	0.54545	0.1	5.3494e-003
22577	21.081	0.27273	0.1	1.8927e-002
22578	20.99	0.36364	0.1	2.5358e-002
22579	20.99	0.18182	0.1	4.7273e-003
22580	21.081	9.0909e-002	0.1	2.9351e-003
22581	20.899	5.7273	0.1	1.6277e-002
22582	20.808	5.8182	0.1	3.7922e-003
22583	20.899	5.9091	0.1	2.6345e-003
22584	20.899	5.5455	0.1	1.4366e-002
22585	20.808	5.6364	0.1	2.1888e-002
22586	20.899	5.3636	0.1	2.5082e-003
22587	20.808	5.4545	0.1	4.6947e-003
22588	20.899	5.1818	0.1	-3.0132e-003
22589	20.808	5.2727	0.1	9.0413e-005
22590	20.899	5.	0.1	-8.3896e-003
22591	20.808	5.0909	0.1	-5.7644e-003
22592	20.899	4.8182	0.1	-1.2608e-002
22593	20.808	4.9091	0.1	-1.0182e-002
22594	20.899	4.6364	0.1	-1.6055e-002
22595	20.808	4.7273	0.1	-1.3908e-002
22596	20.899	4.4545	0.1	-1.8787e-002
22597	20.808	4.5455	0.1	-1.6878e-002
22598	20.899	4.2727	0.1	-2.0937e-002
22599	20.808	4.3636	0.1	-1.9239e-002
22600	20.899	4.0909	0.1	-2.2603e-002
22601	20.808	4.1818	0.1	-2.1082e-002
22602	20.899	3.9091	0.1	-2.3875e-002
22603	20.808	4.	0.1	-2.2502e-002
22604	20.899	3.7273	0.1	-2.4822e-002
22605	20.808	3.8182	0.1	-2.3572e-002
22606	20.899	3.5455	0.1	-2.5503e-002
22607	20.808	3.6364	0.1	-2.4356e-002
22608	20.899	3.3636	0.1	-2.596e-002
22609	20.808	3.4545	0.1	-2.4903e-002
22610	20.899	3.1818	0.1	-2.6223e-002
22611	20.808	3.2727	0.1	-2.5247e-002
22612	20.899	3.	0.1	-2.6307e-002
22613	20.808	3.0909	0.1	-2.5414e-002
22614	20.899	2.8182	0.1	-2.6222e-002
22615	20.808	2.9091	0.1	-2.5414e-002
22616	20.899	2.6364	0.1	-2.5961e-002
22617	20.808	2.7273	0.1	-2.5247e-002
22618	20.899	2.4545	0.1	-2.5504e-002
22619	20.808	2.5455	0.1	-2.4903e-002
22620	20.899	2.2727	0.1	-2.4822e-002
22621	20.808	2.3636	0.1	-2.4356e-002
22622	20.899	2.0909	0.1	-2.3875e-002
22623	20.808	2.1818	0.1	-2.3572e-002
22624	20.899	1.9091	0.1	-2.2604e-002
22625	20.808	2.	0.1	-2.2502e-002
22626	20.899	1.7273	0.1	-2.0936e-002
22627	20.808	1.8182	0.1	-2.1082e-002
22628	20.899	1.5455	0.1	-1.8787e-002
22629	20.808	1.6364	0.1	-1.9238e-002
22630	20.899	1.3636	0.1	-1.6055e-002
22631	20.808	1.4545	0.1	-1.6878e-002
22632	20.899	1.1818	0.1	-1.2607e-002
22633	20.808	1.2727	0.1	-1.3907e-002
22634	20.899	1.	0.1	-8.3903e-003
22635	20.808	1.0909	0.1	-1.0183e-002
22636	20.899	0.81818	0.1	-3.0143e-003
22637	20.808	0.90909	0.1	-5.7647e-003
22638	20.899	0.63636	0.1	2.5079e-003
22639	20.808	0.72727	0.1	8.8652e-005
22640	20.899	0.45455	0.1	1.4366e-002
22641	20.808	0.54545	0.1	4.6937e-003
22642	20.899	0.27273	0.1	1.6278e-002
22643	20.808	0.36364	0.1	2.1889e-002
22644	20.808	0.18182	0.1	3.7934e-003
22645	20.899	9.0909e-002	0.1	2.6365e-003
22646	20.716	5.7273	0.1	1.3834e-002
22647	20.625	5.8182	0.1	3.0745e-003
22648	20.716	5.9091	0.1	2.2906e-003
22649	20.716	5.5455	0.1	1.235e-002
22650	20.625	5.6364	0.1	1.8531e-002
22651	20.716	5.3636	0.1	2.1244e-003
22652	20.625	5.4545	0.1	3.9806e-003
22653	20.716	5.1818	0.1	-2.8316e-003
22654	20.625	5.2727	0.1	-1.2102e-004
22655	20.716	5.	0.1	-7.7194e-003
22656	20.625	5.0909	0.1	-5.3591e-003
22657	20.716	4.8182	0.1	-1.163e-002
22658	20.625	4.9091	0.1	-9.4202e-003
22659	20.716	4.6364	0.1	-1.4863e-002
22660	20.625	4.7273	0.1	-1.2887e-002
22661	20.716	4.4545	0.1	-1.7448e-002
22662	20.625	4.5455	0.1	-1.5687e-002
22663	20.716	4.2727	0.1	-1.9493e-002
22664	20.625	4.3636	0.1	-1.7927e-002
22665	20.716	4.0909	0.1	-2.1081e-002
22666	20.625	4.1818	0.1	-1.9683e-002
22667	20.716	3.9091	0.1	-2.2292e-002
22668	20.625	4.	0.1	-2.1037e-002
22669	20.716	3.7273	0.1	-2.3194e-002
22670	20.625	3.8182	0.1	-2.2057e-002
22671	20.716	3.5455	0.1	-2.384e-002
22672	20.625	3.6364	0.1	-2.2801e-002
22673	20.716	3.3636	0.1	-2.4273e-002
22674	20.625	3.4545	0.1	-2.3319e-002
22675	20.716	3.1818	0.1	-2.452e-002
22676	20.625	3.2727	0.1	-2.3645e-002
22677	20.716	3.	0.1	-2.4602e-002
22678	20.625	3.0909	0.1	-2.3801e-002
22679	20.716	2.8182	0.1	-2.4521e-002
22680	20.625	2.9091	0.1	-2.3802e-002
22681	20.716	2.6364	0.1	-2.4273e-002
22682	20.625	2.7273	0.1	-2.3644e-002
22683	20.716	2.4545	0.1	-2.384e-002
22684	20.625	2.5455	0.1	-2.3319e-002
22685	20.716	2.2727	0.1	-2.3195e-002
22686	20.625	2.3636	0.1	-2.2801e-002
22687	20.716	2.0909	0.1	-2.2293e-002
22688	20.625	2.1818	0.1	-2.2057e-002
22689	20.716	1.9091	0.1	-2.108e-002
22690	20.625	2.	0.1	-2.1037e-002
22691	20.716	1.7273	0.1	-1.9492e-002
22692	20.625	1.8182	0.1	-1.9683e-002
22693	20.716	1.5455	0.1	-1.7448e-002
22694	20.625	1.6364	0.1	-1.7927e-002
22695	20.716	1.3636	0.1	-1.4863e-002
22696	20.625	1.4545	0.1	-1.5686e-002
22697	20.716	1.1818	0.1	-1.163e-002
22698	20.625	1.2727	0.1	-1.2888e-002
22699	20.716	1.	0.1	-7.7196e-003
22700	20.625	1.0909	0.1	-9.4202e-003
22701	20.716	0.81818	0.1	-2.8325e-003
22702	20.625	0.90909	0.1	-5.3597e-003
22703	20.716	0.63636	0.1	2.122e-003
22704	20.625	0.72727	0.1	-1.2321e-004
22705	20.716	0.45455	0.1	1.235e-002
22706	20.625	0.54545	0.1	3.9787e-003
22707	20.716	0.27273	0.1	1.3836e-002
22708	20.625	0.36364	0.1	1.8534e-002
22709	20.625	0.18182	0.1	3.0761e-003
22710	20.716	9.0909e-002	0.1	2.2916e-003
22711	20.534	5.7273	0.1	1.1544e-002
22712	20.443	5.8182	0.1	2.5395e-003
22713	20.534	5.9091	0.1	1.8941e-003
22714	20.534	5.5455	0.1	1.0338e-002
22715	20.443	5.6364	0.1	1.5265e-002
22716	20.534	5.3636	0.1	1.6533e-003
22717	20.443	5.4545	0.1	3.2079e-003
22718	20.534	5.1818	0.1	-2.7577e-003
22719	20.443	5.2727	0.1	-4.1466e-004
22720	20.534	5.	0.1	-7.1709e-003
22721	20.443	5.0909	0.1	-5.0495e-003
22722	20.534	4.8182	0.1	-1.0783e-002
22723	20.443	4.9091	0.1	-8.755e-003
22724	20.534	4.6364	0.1	-1.3808e-002
22725	20.443	4.7273	0.1	-1.1968e-002
22726	20.534	4.4545	0.1	-1.6255e-002
22727	20.443	4.5455	0.1	-1.4602e-002
22728	20.534	4.2727	0.1	-1.8202e-002
22729	20.443	4.3636	0.1	-1.6732e-002
22730	20.534	4.0909	0.1	-1.9719e-002
22731	20.443	4.1818	0.1	-1.8411e-002
22732	20.534	3.9091	0.1	-2.0879e-002
22733	20.443	4.	0.1	-1.9708e-002
22734	20.534	3.7273	0.1	-2.1739e-002
22735	20.443	3.8182	0.1	-2.0686e-002
22736	20.534	3.5455	0.1	-2.2354e-002
22737	20.443	3.6364	0.1	-2.1398e-002
22738	20.534	3.3636	0.1	-2.2764e-002
22739	20.443	3.4545	0.1	-2.1891e-002
22740	20.534	3.1818	0.1	-2.2998e-002
22741	20.443	3.2727	0.1	-2.2201e-002
22742	20.534	3.	0.1	-2.3074e-002
22743	20.443	3.0909	0.1	-2.2349e-002
22744	20.534	2.8182	0.1	-2.2999e-002
22745	20.443	2.9091	0.1	-2.2349e-002
22746	20.534	2.6364	0.1	-2.2764e-002
22747	20.443	2.7273	0.1	-2.22e-002
22748	20.534	2.4545	0.1	-2.2354e-002
22749	20.443	2.5455	0.1	-2.1891e-002
22750	20.534	2.2727	0.1	-2.1739e-002
22751	20.443	2.3636	0.1	-2.1398e-002
22752	20.534	2.0909	0.1	-2.0878e-002
22753	20.443	2.1818	0.1	-2.0686e-002
22754	20.534	1.9091	0.1	-1.972e-002
22755	20.443	2.	0.1	-1.9709e-002
22756	20.534	1.7273	0.1	-1.8203e-002
22757	20.443	1.8182	0.1	-1.8412e-002
22758	20.534	1.5455	0.1	-1.6256e-002
22759	20.443	1.6364	0.1	-1.6731e-002
22760	20.534	1.3636	0.1	-1.3809e-002
22761	20.443	1.4545	0.1	-1.4603e-002
22762	20.534	1.1818	0.1	-1.0783e-002
22763	20.443	1.2727	0.1	-1.1969e-002
22764	20.534	1.	0.1	-7.1713e-003
22765	20.443	1.0909	0.1	-8.7547e-003
22766	20.534	0.81818	0.1	-2.7595e-003
22767	20.443	0.90909	0.1	-5.0504e-003
22768	20.534	0.63636	0.1	1.6516e-003
22769	20.443	0.72727	0.1	-4.1629e-004
22770	20.534	0.45455	0.1	1.034e-002
22771	20.443	0.54545	0.1	3.2066e-003
22772	20.534	0.27273	0.1	1.1547e-002
22773	20.443	0.36364	0.1	1.5269e-002
22774	20.443	0.18182	0.1	2.541e-003
22775	20.534	9.0909e-002	0.1	1.893e-003
22776	20.352	5.7273	0.1	9.4017e-003
22777	20.26	5.8182	0.1	2.1801e-003
22778	20.352	5.9091	0.1	1.4738e-003
22779	20.352	5.5455	0.1	8.3393e-003
22780	20.26	5.6364	0.1	1.2087e-002
22781	20.352	5.3636	0.1	1.1213e-003
22782	20.26	5.4545	0.1	2.3911e-003
22783	20.352	5.1818	0.1	-2.7538e-003
22784	20.26	5.2727	0.1	-7.6145e-004
22785	20.352	5.	0.1	-6.6875e-003
22786	20.26	5.0909	0.1	-4.7853e-003
22787	20.352	4.8182	0.1	-9.9944e-003
22788	20.26	4.9091	0.1	-8.1161e-003
22789	20.352	4.6364	0.1	-1.2814e-002
22790	20.26	4.7273	0.1	-1.1064e-002
22791	20.352	4.4545	0.1	-1.513e-002
22792	20.26	4.5455	0.1	-1.3531e-002
22793	20.352	4.2727	0.1	-1.6992e-002
22794	20.26	4.3636	0.1	-1.5557e-002
22795	20.352	4.0909	0.1	-1.8453e-002
22796	20.26	4.1818	0.1	-1.7176e-002
22797	20.352	3.9091	0.1	-1.9571e-002
22798	20.26	4.	0.1	-1.8437e-002
22799	20.352	3.7273	0.1	-2.0403e-002
22800	20.26	3.8182	0.1	-1.9392e-002
22801	20.352	3.5455	0.1	-2.0997e-002
22802	20.26	3.6364	0.1	-2.009e-002
22803	20.352	3.3636	0.1	-2.1392e-002
22804	20.26	3.4545	0.1	-2.0574e-002
22805	20.352	3.1818	0.1	-2.1617e-002
22806	20.26	3.2727	0.1	-2.0877e-002
22807	20.352	3.	0.1	-2.1689e-002
22808	20.26	3.0909	0.1	-2.1023e-002
22809	20.352	2.8182	0.1	-2.1616e-002
22810	20.26	2.9091	0.1	-2.1023e-002
22811	20.352	2.6364	0.1	-2.1391e-002
22812	20.26	2.7273	0.1	-2.0877e-002
22813	20.352	2.4545	0.1	-2.0996e-002
22814	20.26	2.5455	0.1	-2.0575e-002
22815	20.352	2.2727	0.1	-2.0403e-002
22816	20.26	2.3636	0.1	-2.0089e-002
22817	20.352	2.0909	0.1	-1.9572e-002
22818	20.26	2.1818	0.1	-1.9392e-002
22819	20.352	1.9091	0.1	-1.8453e-002
22820	20.26	2.	0.1	-1.8437e-002
22821	20.352	1.7273	0.1	-1.6992e-002
22822	20.26	1.8182	0.1	-1.7176e-002
22823	20.352	1.5455	0.1	-1.513e-002
22824	20.26	1.6364	0.1	-1.5556e-002
22825	20.352	1.3636	0.1	-1.2816e-002
22826	20.26	1.4545	0.1	-1.3531e-002
22827	20.352	1.1818	0.1	-9.9954e-003
22828	20.26	1.2727	0.1	-1.1065e-002
22829	20.352	1.	0.1	-6.6878e-003
22830	20.26	1.0909	0.1	-8.1161e-003
22831	20.352	0.81818	0.1	-2.7546e-003
22832	20.26	0.90909	0.1	-4.7857e-003
22833	20.352	0.63636	0.1	1.12e-003
22834	20.26	0.72727	0.1	-7.6293e-004
22835	20.352	0.45455	0.1	8.3404e-003
22836	20.26	0.54545	0.1	2.3904e-003
22837	20.352	0.27273	0.1	9.4041e-003
22838	20.26	0.36364	0.1	1.209e-002
22839	20.26	0.18182	0.1	2.1816e-003
22840	20.352	9.0909e-002	0.1	1.4727e-003
22841	20.169	5.7273	0.1	7.4031e-003
22842	20.078	5.8182	0.1	1.9809e-003
22843	20.169	5.9091	0.1	1.0484e-003
22844	20.169	5.5455	0.1	6.3546e-003
22845	20.078	5.6364	0.1	8.9805e-003
22846	20.169	5.3636	0.1	5.4502e-004
22847	20.078	5.4545	0.1	1.5248e-003
22848	20.169	5.1818	0.1	-2.7761e-003
22849	20.078	5.2727	0.1	-1.1463e-003
22850	20.169	5.	0.1	-6.1977e-003
22851	20.078	5.0909	0.1	-4.513e-003
22852	20.169	4.8182	0.1	-9.1651e-003
22853	20.078	4.9091	0.1	-7.4034e-003
22854	20.169	4.6364	0.1	-1.1756e-002
22855	20.078	4.7273	0.1	-1.0023e-002
22856	20.169	4.4545	0.1	-1.3933e-002
22857	20.078	4.5455	0.1	-1.2279e-002
22858	20.169	4.2727	0.1	-1.5721e-002
22859	20.078	4.3636	0.1	-1.4186e-002
22860	20.169	4.0909	0.1	-1.7151e-002
22861	20.078	4.1818	0.1	-1.5757e-002
22862	20.169	3.9091	0.1	-1.8263e-002
22863	20.078	4.	0.1	-1.7021e-002
22864	20.169	3.7273	0.1	-1.9101e-002
22865	20.078	3.8182	0.1	-1.8009e-002
22866	20.169	3.5455	0.1	-1.9705e-002
22867	20.078	3.6364	0.1	-1.8758e-002
22868	20.169	3.3636	0.1	-2.011e-002
22869	20.078	3.4545	0.1	-1.9294e-002
22870	20.169	3.1818	0.1	-2.0343e-002
22871	20.078	3.2727	0.1	-1.9639e-002
22872	20.169	3.	0.1	-2.0418e-002
22873	20.078	3.0909	0.1	-1.9808e-002
22874	20.169	2.8182	0.1	-2.0342e-002
22875	20.078	2.9091	0.1	-1.9809e-002
22876	20.169	2.6364	0.1	-2.011e-002
22877	20.078	2.7273	0.1	-1.9639e-002
22878	20.169	2.4545	0.1	-1.9705e-002
22879	20.078	2.5455	0.1	-1.9294e-002
22880	20.169	2.2727	0.1	-1.91e-002
22881	20.078	2.3636	0.1	-1.8758e-002
22882	20.169	2.0909	0.1	-1.8263e-002
22883	20.078	2.1818	0.1	-1.8009e-002
22884	20.169	1.9091	0.1	-1.7152e-002
22885	20.078	2.	0.1	-1.702e-002
22886	20.169	1.7273	0.1	-1.5722e-002
22887	20.078	1.8182	0.1	-1.5757e-002
22888	20.169	1.5455	0.1	-1.3933e-002
22889	20.078	1.6364	0.1	-1.4186e-002
22890	20.169	1.3636	0.1	-1.1755e-002
22891	20.078	1.4545	0.1	-1.2278e-002
22892	20.169	1.1818	0.1	-9.165e-003
22893	20.078	1.2727	0.1	-1.0023e-002
22894	20.169	1.	0.1	-6.1978e-003
22895	20.078	1.0909	0.1	-7.4036e-003
22896	20.169	0.81818	0.1	-2.7772e-003
22897	20.078	0.90909	0.1	-4.5147e-003
22898	20.169	0.63636	0.1	5.4408e-004
22899	20.078	0.72727	0.1	-1.1474e-003
22900	20.169	0.45455	0.1	6.3556e-003
22901	20.078	0.54545	0.1	1.5254e-003
22902	20.169	0.27273	0.1	7.4049e-003
22903	20.078	0.36364	0.1	8.9823e-003
22904	20.078	0.18182	0.1	1.9819e-003
22905	20.169	9.0909e-002	0.1	1.051e-003
22906	19.987	5.7273	0.1	5.5227e-003
22907	19.895	5.8182	0.1	1.9256e-003
22908	19.987	5.9091	0.1	6.1069e-004
22909	19.987	5.5455	0.1	4.3597e-003
22910	19.895	5.6364	0.1	5.9286e-003
22911	19.987	5.3636	0.1	-8.5089e-005
22912	19.895	5.4545	0.1	5.9569e-004
22913	19.987	5.1818	0.1	-2.7973e-003
22914	19.895	5.2727	0.1	-1.5501e-003
22915	19.987	5.	0.1	-5.6026e-003
22916	19.895	5.0909	0.1	-4.1334e-003
22917	19.987	4.8182	0.1	-8.1004e-003
22918	19.895	4.9091	0.1	-6.3659e-003
22919	19.987	4.6364	0.1	-1.0334e-002
22920	19.895	4.7273	0.1	-8.374e-003
22921	19.987	4.4545	0.1	-1.2272e-002
22922	19.895	4.5455	0.1	-1.0082e-002
22923	19.987	4.2727	0.1	-1.3925e-002
22924	19.895	4.3636	0.1	-1.1487e-002
22925	19.987	4.0909	0.1	-1.5315e-002
22926	19.895	4.1818	0.1	-1.2584e-002
22927	19.987	3.9091	0.1	-1.6471e-002
22928	19.895	4.	0.1	-1.3359e-002
22929	19.987	3.7273	0.1	-1.7423e-002
22930	19.895	3.8182	0.1	-1.3735e-002
22931	19.987	3.5455	0.1	-1.8189e-002
22932	19.895	3.6364	0.1	-1.3322e-002
22933	19.987	3.3636	0.1	-1.8768e-002
22934	19.895	3.4545	0.1	-6.7576e-003
22935	19.987	3.1818	0.1	-1.9135e-002
22936	19.895	3.2727	0.1	0.21434
22937	19.987	3.	0.1	-1.9263e-002
22938	19.895	3.0909	0.1	0.39126
22939	19.987	2.8182	0.1	-1.9136e-002
22940	19.895	2.9091	0.1	0.39126
22941	19.987	2.6364	0.1	-1.8767e-002
22942	19.895	2.7273	0.1	0.21434
22943	19.987	2.4545	0.1	-1.8189e-002
22944	19.895	2.5455	0.1	-6.7561e-003
22945	19.987	2.2727	0.1	-1.7423e-002
22946	19.895	2.3636	0.1	-1.3322e-002
22947	19.987	2.0909	0.1	-1.647e-002
22948	19.895	2.1818	0.1	-1.3734e-002
22949	19.987	1.9091	0.1	-1.5314e-002
22950	19.895	2.	0.1	-1.3358e-002
22951	19.987	1.7273	0.1	-1.3924e-002
22952	19.895	1.8182	0.1	-1.2584e-002
22953	19.987	1.5455	0.1	-1.2271e-002
22954	19.895	1.6364	0.1	-1.1487e-002
22955	19.987	1.3636	0.1	-1.0334e-002
22956	19.895	1.4545	0.1	-1.0081e-002
22957	19.987	1.1818	0.1	-8.1007e-003
22958	19.895	1.2727	0.1	-8.374e-003
22959	19.987	1.	0.1	-5.6043e-003
22960	19.895	1.0909	0.1	-6.3668e-003
22961	19.987	0.81818	0.1	-2.7989e-003
22962	19.895	0.90909	0.1	-4.1362e-003
22963	19.987	0.63636	0.1	-8.4566e-005
22964	19.895	0.72727	0.1	-1.5517e-003
22965	19.987	0.45455	0.1	4.3612e-003
22966	19.895	0.54545	0.1	5.9579e-004
22967	19.987	0.27273	0.1	5.5237e-003
22968	19.895	0.36364	0.1	5.93e-003
22969	19.895	0.18182	0.1	1.9276e-003
22970	19.987	9.0909e-002	0.1	6.1161e-004
22971	19.804	5.7273	0.1	3.7581e-003
22972	19.713	5.8182	0.1	2.0128e-003
22973	19.804	5.9091	0.1	1.6061e-004
22974	19.804	5.5455	0.1	2.3442e-003
22975	19.713	5.6364	0.1	2.9245e-003
22976	19.804	5.3636	0.1	-7.6084e-004
22977	19.713	5.4545	0.1	-4.0655e-004
22978	19.804	5.1818	0.1	-2.7246e-003
22979	19.713	5.2727	0.1	-1.9215e-003
22980	19.804	5.	0.1	-4.6008e-003
22981	19.713	5.0909	0.1	-3.3563e-003
22982	19.804	4.8182	0.1	-6.0727e-003
22983	19.713	4.9091	0.1	-4.0266e-003
22984	19.804	4.6364	0.1	-7.0038e-003
22985	19.713	4.7273	0.1	-3.0952e-003
22986	19.804	4.4545	0.1	-6.9081e-003
22987	19.713	4.5455	0.1	5.4137e-003
22988	19.804	4.2727	0.1	-3.5708e-003
22989	19.713	4.3636	0.1	0.49277
22990	19.804	4.0909	0.1	7.7944e-002
22991	19.713	4.1818	0.1	1.889
22992	19.804	3.9091	0.1	1.0008
22993	19.713	4.	0.1	3.1744
22994	19.804	3.7273	0.1	1.8744
22995	19.713	3.8182	0.1	4.3016
22996	19.804	3.5455	0.1	2.5819
22997	19.713	3.6364	0.1	5.242
22998	19.804	3.3636	0.1	3.1023
22999	19.713	3.4545	0.1	5.971
23000	19.804	3.1818	0.1	3.4206
23001	19.713	3.2727	0.1	6.4689
23002	19.804	3.	0.1	3.5278
23003	19.713	3.0909	0.1	6.7214
23004	19.804	2.8182	0.1	3.4206
23005	19.713	2.9091	0.1	6.7214
23006	19.804	2.6364	0.1	3.1023
23007	19.713	2.7273	0.1	6.4689
23008	19.804	2.4545	0.1	2.5819
23009	19.713	2.5455	0.1	5.9711
23010	19.804	2.2727	0.1	1.8744
23011	19.713	2.3636	0.1	5.242
23012	19.804	2.0909	0.1	1.0008
23013	19.713	2.1818	0.1	4.3016
23014	19.804	1.9091	0.1	7.7943e-002
23015	19.713	2.	0.1	3.1744
23016	19.804	1.7273	0.1	-3.5711e-003
23017	19.713	1.8182	0.1	1.889
23018	19.804	1.5455	0.1	-6.9081e-003
23019	19.713	1.6364	0.1	0.49277
23020	19.804	1.3636	0.1	-7.0032e-003
23021	19.713	1.4545	0.1	5.415e-003
23022	19.804	1.1818	0.1	-6.0734e-003
23023	19.713	1.2727	0.1	-3.0946e-003
23024	19.804	1.	0.1	-4.603e-003
23025	19.713	1.0909	0.1	-4.0272e-003
23026	19.804	0.81818	0.1	-2.7275e-003
23027	19.713	0.90909	0.1	-3.3585e-003
23028	19.804	0.63636	0.1	-7.6279e-004
23029	19.713	0.72727	0.1	-1.9239e-003
23030	19.804	0.45455	0.1	2.3442e-003
23031	19.713	0.54545	0.1	-4.0617e-004
23032	19.804	0.27273	0.1	3.7604e-003
23033	19.713	0.36364	0.1	2.9263e-003
23034	19.713	0.18182	0.1	2.0134e-003
23035	19.804	9.0909e-002	0.1	1.6188e-004
23036	19.622	5.7273	0.1	2.1148e-003
23037	19.531	5.8182	0.1	2.2565e-003
23038	19.622	5.9091	0.1	-3.0664e-004
23039	19.622	5.5455	0.1	2.948e-004
23040	19.531	5.6364	0.1	-2.1775e-005
23041	19.622	5.3636	0.1	-1.4697e-003
23042	19.531	5.4545	0.1	-1.4842e-003
23043	19.622	5.1818	0.1	-2.3197e-003
23044	19.531	5.2727	0.1	-2.1183e-003
23045	19.622	5.	0.1	-1.983e-003
23046	19.531	5.0909	0.1	-1.0016e-003
23047	19.622	4.8182	0.1	2.9578e-003
23048	19.531	4.9091	0.1	1.027e-002
23049	19.622	4.6364	0.1	0.17635
23050	19.531	4.7273	0.1	0.94667
23051	19.622	4.4545	0.1	1.8646
23052	19.531	4.5455	0.1	3.021
23053	19.622	4.2727	0.1	3.5526
23054	19.531	4.3636	0.1	5.0115
23055	19.622	4.0909	0.1	5.1087
23056	19.531	4.1818	0.1	6.8709
23057	19.622	3.9091	0.1	6.4978
23058	19.531	4.	0.1	8.5602
23059	19.622	3.7273	0.1	7.6875
23060	19.531	3.8182	0.1	10.041
23061	19.622	3.5455	0.1	8.6478
23062	19.531	3.6364	0.1	11.276
23063	19.622	3.3636	0.1	9.3535
23064	19.531	3.4545	0.1	12.234
23065	19.622	3.1818	0.1	9.785
23066	19.531	3.2727	0.1	12.888
23067	19.622	3.	0.1	9.9302
23068	19.531	3.0909	0.1	13.22
23069	19.622	2.8182	0.1	9.785
23070	19.531	2.9091	0.1	13.22
23071	19.622	2.6364	0.1	9.3535
23072	19.531	2.7273	0.1	12.888
23073	19.622	2.4545	0.1	8.6478
23074	19.531	2.5455	0.1	12.234
23075	19.622	2.2727	0.1	7.6875
23076	19.531	2.3636	0.1	11.276
23077	19.622	2.0909	0.1	6.4978
23078	19.531	2.1818	0.1	10.041
23079	19.622	1.9091	0.1	5.1087
23080	19.531	2.	0.1	8.5602
23081	19.622	1.7273	0.1	3.5526
23082	19.531	1.8182	0.1	6.8709
23083	19.622	1.5455	0.1	1.8646
23084	19.531	1.6364	0.1	5.0115
23085	19.622	1.3636	0.1	0.17636
23086	19.531	1.4545	0.1	3.021
23087	19.622	1.1818	0.1	2.9585e-003
23088	19.531	1.2727	0.1	0.94668
23089	19.622	1.	0.1	-1.9836e-003
23090	19.531	1.0909	0.1	1.027e-002
23091	19.622	0.81818	0.1	-2.3214e-003
23092	19.531	0.90909	0.1	-1.0026e-003
23093	19.622	0.63636	0.1	-1.4698e-003
23094	19.531	0.72727	0.1	-2.1197e-003
23095	19.622	0.45455	0.1	2.9702e-004
23096	19.531	0.54545	0.1	-1.4821e-003
23097	19.622	0.27273	0.1	2.1148e-003
23098	19.531	0.36364	0.1	-2.0804e-005
23099	19.531	0.18182	0.1	2.2539e-003
23100	19.622	9.0909e-002	0.1	-3.0807e-004
23101	19.439	5.7273	0.1	6.3054e-004
23102	19.348	5.8182	0.1	2.6702e-003
23103	19.439	5.9091	0.1	-7.8267e-004
23104	19.439	5.5455	0.1	-1.7776e-003
23105	19.348	5.6364	0.1	-2.8974e-003
23106	19.439	5.3636	0.1	-2.148e-003
23107	19.348	5.4545	0.1	-2.6515e-003
23108	19.439	5.1818	0.1	-6.3566e-004
23109	19.348	5.2727	0.1	-1.6716e-003
23110	19.439	5.	0.1	1.8437e-002
23111	19.348	5.0909	0.1	1.8132e-002
23112	19.439	4.8182	0.1	1.5492
23113	19.348	4.9091	0.1	1.8786
23114	19.439	4.6364	0.1	3.9115
23115	19.348	4.7273	0.1	4.5386
23116	19.439	4.4545	0.1	6.1936
23117	19.348	4.5455	0.1	7.1349
23118	19.439	4.2727	0.1	8.3513
23119	19.348	4.3636	0.1	9.6214
23120	19.439	4.0909	0.1	10.342
23121	19.348	4.1818	0.1	11.95
23122	19.439	3.9091	0.1	12.121
23123	19.348	4.	0.1	14.07
23124	19.439	3.7273	0.1	13.646
23125	19.348	3.8182	0.1	15.931
23126	19.439	3.5455	0.1	14.878
23127	19.348	3.6364	0.1	17.485
23128	19.439	3.3636	0.1	15.783
23129	19.348	3.4545	0.1	18.691
23130	19.439	3.1818	0.1	16.337
23131	19.348	3.2727	0.1	19.515
23132	19.439	3.	0.1	16.523
23133	19.348	3.0909	0.1	19.933
23134	19.439	2.8182	0.1	16.337
23135	19.348	2.9091	0.1	19.933
23136	19.439	2.6364	0.1	15.783
23137	19.348	2.7273	0.1	19.515
23138	19.439	2.4545	0.1	14.878
23139	19.348	2.5455	0.1	18.691
23140	19.439	2.2727	0.1	13.646
23141	19.348	2.3636	0.1	17.485
23142	19.439	2.0909	0.1	12.121
23143	19.348	2.1818	0.1	15.931
23144	19.439	1.9091	0.1	10.342
23145	19.348	2.	0.1	14.07
23146	19.439	1.7273	0.1	8.3513
23147	19.348	1.8182	0.1	11.95
23148	19.439	1.5455	0.1	6.1936
23149	19.348	1.6364	0.1	9.6214
23150	19.439	1.3636	0.1	3.9116
23151	19.348	1.4545	0.1	7.1349
23152	19.439	1.1818	0.1	1.5492
23153	19.348	1.2727	0.1	4.5386
23154	19.439	1.	0.1	1.8437e-002
23155	19.348	1.0909	0.1	1.8786
23156	19.439	0.81818	0.1	-6.3633e-004
23157	19.348	0.90909	0.1	1.8132e-002
23158	19.439	0.63636	0.1	-2.1472e-003
23159	19.348	0.72727	0.1	-1.6731e-003
23160	19.439	0.45455	0.1	-1.7768e-003
23161	19.348	0.54545	0.1	-2.6494e-003
23162	19.439	0.27273	0.1	6.2888e-004
23163	19.348	0.36364	0.1	-2.898e-003
23164	19.348	0.18182	0.1	2.6689e-003
23165	19.439	9.0909e-002	0.1	-7.8257e-004
23166	19.257	5.7273	0.1	-6.7617e-004
23167	19.166	5.8182	0.1	3.2528e-003
23168	19.257	5.9091	0.1	-1.3002e-003
23169	19.257	5.5455	0.1	-3.9016e-003
23170	19.166	5.6364	0.1	-5.6997e-003
23171	19.257	5.3636	0.1	-2.6724e-003
23172	19.166	5.4545	0.1	-3.9463e-003
23173	19.257	5.1818	0.1	1.1743e-002
23174	19.166	5.2727	0.1	2.5305e-003
23175	19.257	5.	0.1	1.9643
23176	19.166	5.0909	0.1	1.7538
23177	19.257	4.8182	0.1	4.897
23178	19.166	4.9091	0.1	4.9639
23179	19.257	4.6364	0.1	7.7864
23180	19.166	4.7273	0.1	8.1615
23181	19.257	4.4545	0.1	10.585
23182	19.166	4.5455	0.1	11.296
23183	19.257	4.2727	0.1	13.24
23184	19.166	4.3636	0.1	14.311
23185	19.257	4.0909	0.1	15.696
23186	19.166	4.1818	0.1	17.145
23187	19.257	3.9091	0.1	17.897
23188	19.166	4.	0.1	19.732
23189	19.257	3.7273	0.1	19.786
23190	19.166	3.8182	0.1	22.007
23191	19.257	3.5455	0.1	21.313
23192	19.166	3.6364	0.1	23.909
23193	19.257	3.3636	0.1	22.436
23194	19.166	3.4545	0.1	25.387
23195	19.257	3.1818	0.1	23.124
23196	19.166	3.2727	0.1	26.397
23197	19.257	3.	0.1	23.355
23198	19.166	3.0909	0.1	26.91
23199	19.257	2.8182	0.1	23.124
23200	19.166	2.9091	0.1	26.91
23201	19.257	2.6364	0.1	22.436
23202	19.166	2.7273	0.1	26.397
23203	19.257	2.4545	0.1	21.313
23204	19.166	2.5455	0.1	25.387
23205	19.257	2.2727	0.1	19.786
23206	19.166	2.3636	0.1	23.909
23207	19.257	2.0909	0.1	17.897
23208	19.166	2.1818	0.1	22.007
23209	19.257	1.9091	0.1	15.696
23210	19.166	2.	0.1	19.732
23211	19.257	1.7273	0.1	13.24
23212	19.166	1.8182	0.1	17.145
23213	19.257	1.5455	0.1	10.585
23214	19.166	1.6364	0.1	14.311
23215	19.257	1.3636	0.1	7.7864
23216	19.166	1.4545	0.1	11.296
23217	19.257	1.1818	0.1	4.897
23218	19.166	1.2727	0.1	8.1615
23219	19.257	1.	0.1	1.9643
23220	19.166	1.0909	0.1	4.9639
23221	19.257	0.81818	0.1	1.1742e-002
23222	19.166	0.90909	0.1	1.7538
23223	19.257	0.63636	0.1	-2.6728e-003
23224	19.166	0.72727	0.1	2.5285e-003
23225	19.257	0.45455	0.1	-3.901e-003
23226	19.166	0.54545	0.1	-3.9458e-003
23227	19.257	0.27273	0.1	-6.7627e-004
23228	19.166	0.36364	0.1	-5.6984e-003
23229	19.166	0.18182	0.1	3.2536e-003
23230	19.257	9.0909e-002	0.1	-1.2995e-003
23231	19.075	5.7273	0.1	-1.7774e-003
23232	18.983	5.8182	0.1	4.0296e-003
23233	19.075	5.9091	0.1	-1.9158e-003
23234	19.075	5.5455	0.1	-6.1083e-003
23235	18.983	5.6364	0.1	-8.3752e-003
23236	19.075	5.3636	0.1	-2.4052e-003
23237	18.983	5.4545	0.1	-5.3794e-003
23238	19.075	5.1818	0.1	1.3276
23239	18.983	5.2727	0.1	0.60181
23240	19.075	5.	0.1	4.7808
23241	18.983	5.0909	0.1	4.2848
23242	19.075	4.8182	0.1	8.2537
23243	18.983	4.9091	0.1	8.0368
23244	19.075	4.6364	0.1	11.694
23245	18.983	4.7273	0.1	11.798
23246	19.075	4.4545	0.1	15.044
23247	18.983	4.5455	0.1	15.508
23248	19.075	4.2727	0.1	18.235
23249	18.983	4.3636	0.1	19.095
23250	19.075	4.0909	0.1	21.197
23251	18.983	4.1818	0.1	22.477
23252	19.075	3.9091	0.1	23.857
23253	18.983	4.	0.1	25.574
23254	19.075	3.7273	0.1	26.145
23255	18.983	3.8182	0.1	28.303
23256	19.075	3.5455	0.1	27.997
23257	18.983	3.6364	0.1	30.59
23258	19.075	3.3636	0.1	29.36
23259	18.983	3.4545	0.1	32.368
23260	19.075	3.1818	0.1	30.195
23261	18.983	3.2727	0.1	33.584
23262	19.075	3.	0.1	30.476
23263	18.983	3.0909	0.1	34.201
23264	19.075	2.8182	0.1	30.195
23265	18.983	2.9091	0.1	34.201
23266	19.075	2.6364	0.1	29.36
23267	18.983	2.7273	0.1	33.584
23268	19.075	2.4545	0.1	27.997
23269	18.983	2.5455	0.1	32.368
23270	19.075	2.2727	0.1	26.145
23271	18.983	2.3636	0.1	30.59
23272	19.075	2.0909	0.1	23.857
23273	18.983	2.1818	0.1	28.303
23274	19.075	1.9091	0.1	21.197
23275	18.983	2.	0.1	25.574
23276	19.075	1.7273	0.1	18.235
23277	18.983	1.8182	0.1	22.477
23278	19.075	1.5455	0.1	15.044
23279	18.983	1.6364	0.1	19.095
23280	19.075	1.3636	0.1	11.694
23281	18.983	1.4545	0.1	15.508
23282	19.075	1.1818	0.1	8.2537
23283	18.983	1.2727	0.1	11.798
23284	19.075	1.	0.1	4.7808
23285	18.983	1.0909	0.1	8.0368
23286	19.075	0.81818	0.1	1.3276
23287	18.983	0.90909	0.1	4.2848
23288	19.075	0.63636	0.1	-2.4063e-003
23289	18.983	0.72727	0.1	0.6018
23290	19.075	0.45455	0.1	-6.107e-003
23291	18.983	0.54545	0.1	-5.3788e-003
23292	19.075	0.27273	0.1	-1.7753e-003
23293	18.983	0.36364	0.1	-8.3738e-003
23294	18.983	0.18182	0.1	4.0317e-003
23295	19.075	9.0909e-002	0.1	-1.9164e-003
23296	18.892	5.7273	0.1	-2.5607e-003
23297	18.801	5.8182	0.1	5.0397e-003
23298	18.892	5.9091	0.1	-2.6506e-003
23299	18.892	5.5455	0.1	-8.3618e-003
23300	18.801	5.6364	0.1	-1.0814e-002
23301	18.892	5.3636	0.1	1.331e-002
23302	18.801	5.4545	0.1	-6.8854e-003
23303	18.892	5.1818	0.1	3.5802
23304	18.801	5.2727	0.1	2.5535
23305	18.892	5.	0.1	7.5672
23306	18.801	5.0909	0.1	6.764
23307	18.892	4.8182	0.1	11.606
23308	18.801	4.9091	0.1	11.081
23309	18.892	4.6364	0.1	15.635
23310	18.801	4.7273	0.1	15.444
23311	18.892	4.4545	0.1	19.579
23312	18.801	4.5455	0.1	19.774
23313	18.892	4.2727	0.1	23.354
23314	18.801	4.3636	0.1	23.982
23315	18.892	4.0909	0.1	26.869
23316	18.801	4.1818	0.1	27.966
23317	18.892	3.9091	0.1	30.034
23318	18.801	4.	0.1	31.624
23319	18.892	3.7273	0.1	32.762
23320	18.801	3.8182	0.1	34.857
23321	18.892	3.5455	0.1	34.973
23322	18.801	3.6364	0.1	37.569
23323	18.892	3.3636	0.1	36.603
23324	18.801	3.4545	0.1	39.681
23325	18.892	3.1818	0.1	37.601
23326	18.801	3.2727	0.1	41.126
23327	18.892	3.	0.1	37.937
23328	18.801	3.0909	0.1	41.861
23329	18.892	2.8182	0.1	37.601
23330	18.801	2.9091	0.1	41.861
23331	18.892	2.6364	0.1	36.603
23332	18.801	2.7273	0.1	41.126
23333	18.892	2.4545	0.1	34.973
23334	18.801	2.5455	0.1	39.681
23335	18.892	2.2727	0.1	32.762
23336	18.801	2.3636	0.1	37.569
23337	18.892	2.0909	0.1	30.034
23338	18.801	2.1818	0.1	34.857
23339	18.892	1.9091	0.1	26.869
23340	18.801	2.	0.1	31.624
23341	18.892	1.7273	0.1	23.354
23342	18.801	1.8182	0.1	27.966
23343	18.892	1.5455	0.1	19.579
23344	18.801	1.6364	0.1	23.982
23345	18.892	1.3636	0.1	15.635
23346	18.801	1.4545	0.1	19.774
23347	18.892	1.1818	0.1	11.606
23348	18.801	1.2727	0.1	15.444
23349	18.892	1.	0.1	7.5672
23350	18.801	1.0909	0.1	11.081
23351	18.892	0.81818	0.1	3.5802
23352	18.801	0.90909	0.1	6.764
23353	18.892	0.63636	0.1	1.3311e-002
23354	18.801	0.72727	0.1	2.5535
23355	18.892	0.45455	0.1	-8.361e-003
23356	18.801	0.54545	0.1	-6.8853e-003
23357	18.892	0.27273	0.1	-2.5594e-003
23358	18.801	0.36364	0.1	-1.0814e-002
23359	18.801	0.18182	0.1	5.0419e-003
23360	18.892	9.0909e-002	0.1	-2.6498e-003
23361	18.71	5.7273	0.1	-2.9144e-003
23362	18.618	5.8182	0.1	6.279e-003
23363	18.71	5.9091	0.1	-3.5842e-003
23364	18.71	5.5455	0.1	-1.0607e-002
23365	18.618	5.6364	0.1	-1.2853e-002
23366	18.71	5.3636	0.1	1.3826
23367	18.618	5.4545	0.1	-2.993e-003
23368	18.71	5.1818	0.1	5.7651
23369	18.618	5.2727	0.1	4.4231
23370	18.71	5.	0.1	10.304
23371	18.618	5.0909	0.1	9.1665
23372	18.71	4.8182	0.1	14.943
23373	18.618	4.9091	0.1	14.081
23374	18.71	4.6364	0.1	19.605
23375	18.618	4.7273	0.1	19.089
23376	18.71	4.4545	0.1	24.196
23377	18.618	4.5455	0.1	24.093
23378	18.71	4.2727	0.1	28.61
23379	18.618	4.3636	0.1	28.981
23380	18.71	4.0909	0.1	32.735
23381	18.618	4.1818	0.1	33.629
23382	18.71	3.9091	0.1	36.46
23383	18.618	4.	0.1	37.91
23384	18.71	3.7273	0.1	39.676
23385	18.618	3.8182	0.1	41.702
23386	18.71	3.5455	0.1	42.288
23387	18.618	3.6364	0.1	44.89
23388	18.71	3.3636	0.1	44.215
23389	18.618	3.4545	0.1	47.376
23390	18.71	3.1818	0.1	45.396
23391	18.618	3.2727	0.1	49.079
23392	18.71	3.	0.1	45.794
23393	18.618	3.0909	0.1	49.944
23394	18.71	2.8182	0.1	45.396
23395	18.618	2.9091	0.1	49.944
23396	18.71	2.6364	0.1	44.215
23397	18.618	2.7273	0.1	49.079
23398	18.71	2.4545	0.1	42.288
23399	18.618	2.5455	0.1	47.376
23400	18.71	2.2727	0.1	39.676
23401	18.618	2.3636	0.1	44.89
23402	18.71	2.0909	0.1	36.46
23403	18.618	2.1818	0.1	41.702
23404	18.71	1.9091	0.1	32.735
23405	18.618	2.	0.1	37.91
23406	18.71	1.7273	0.1	28.61
23407	18.618	1.8182	0.1	33.629
23408	18.71	1.5455	0.1	24.196
23409	18.618	1.6364	0.1	28.981
23410	18.71	1.3636	0.1	19.605
23411	18.618	1.4545	0.1	24.093
23412	18.71	1.1818	0.1	14.943
23413	18.618	1.2727	0.1	19.089
23414	18.71	1.	0.1	10.304
23415	18.618	1.0909	0.1	14.081
23416	18.71	0.81818	0.1	5.7651
23417	18.618	0.90909	0.1	9.1665
23418	18.71	0.63636	0.1	1.3825
23419	18.618	0.72727	0.1	4.4231
23420	18.71	0.45455	0.1	-1.0607e-002
23421	18.618	0.54545	0.1	-2.9946e-003
23422	18.71	0.27273	0.1	-2.9129e-003
23423	18.618	0.36364	0.1	-1.2852e-002
23424	18.618	0.18182	0.1	6.2805e-003
23425	18.71	9.0909e-002	0.1	-3.5846e-003
23426	18.527	5.7273	0.1	-2.7279e-003
23427	18.436	5.8182	0.1	7.737e-003
23428	18.527	5.9091	0.1	-4.8749e-003
23429	18.527	5.5455	0.1	-1.2557e-002
23430	18.436	5.6364	0.1	-1.4119e-002
23431	18.527	5.3636	0.1	2.9695
23432	18.436	5.4545	0.1	1.1886
23433	18.527	5.1818	0.1	7.8519
23434	18.436	5.2727	0.1	6.1692
23435	18.527	5.	0.1	12.969
23436	18.436	5.0909	0.1	11.465
23437	18.527	4.8182	0.1	18.25
23438	18.436	4.9091	0.1	17.014
23439	18.527	4.6364	0.1	23.598
23440	18.436	4.7273	0.1	22.719
23441	18.527	4.4545	0.1	28.896
23442	18.436	4.5455	0.1	28.46
23443	18.527	4.2727	0.1	34.015
23444	18.436	4.3636	0.1	34.098
23445	18.527	4.0909	0.1	38.817
23446	18.436	4.1818	0.1	39.482
23447	18.527	3.9091	0.1	43.165
23448	18.436	4.	0.1	44.458
23449	18.527	3.7273	0.1	46.928
23450	18.436	3.8182	0.1	48.876
23451	18.527	3.5455	0.1	49.988
23452	18.436	3.6364	0.1	52.598
23453	18.527	3.3636	0.1	52.249
23454	18.436	3.4545	0.1	55.503
23455	18.527	3.1818	0.1	53.636
23456	18.436	3.2727	0.1	57.495
23457	18.527	3.	0.1	54.103
23458	18.436	3.0909	0.1	58.508
23459	18.527	2.8182	0.1	53.636
23460	18.436	2.9091	0.1	58.508
23461	18.527	2.6364	0.1	52.249
23462	18.436	2.7273	0.1	57.495
23463	18.527	2.4545	0.1	49.988
23464	18.436	2.5455	0.1	55.503
23465	18.527	2.2727	0.1	46.928
23466	18.436	2.3636	0.1	52.598
23467	18.527	2.0909	0.1	43.165
23468	18.436	2.1818	0.1	48.876
23469	18.527	1.9091	0.1	38.817
23470	18.436	2.	0.1	44.458
23471	18.527	1.7273	0.1	34.015
23472	18.436	1.8182	0.1	39.482
23473	18.527	1.5455	0.1	28.897
23474	18.436	1.6364	0.1	34.098
23475	18.527	1.3636	0.1	23.598
23476	18.436	1.4545	0.1	28.46
23477	18.527	1.1818	0.1	18.25
23478	18.436	1.2727	0.1	22.719
23479	18.527	1.	0.1	12.969
23480	18.436	1.0909	0.1	17.014
23481	18.527	0.81818	0.1	7.8519
23482	18.436	0.90909	0.1	11.465
23483	18.527	0.63636	0.1	2.9695
23484	18.436	0.72727	0.1	6.1692
23485	18.527	0.45455	0.1	-1.2557e-002
23486	18.436	0.54545	0.1	1.1886
23487	18.527	0.27273	0.1	-2.7269e-003
23488	18.436	0.36364	0.1	-1.4119e-002
23489	18.436	0.18182	0.1	7.7387e-003
23490	18.527	9.0909e-002	0.1	-4.874e-003
23491	18.345	5.7273	0.1	-1.7861e-003
23492	18.254	5.8182	0.1	9.3988e-003
23493	18.345	5.9091	0.1	-6.6527e-003
23494	18.345	5.5455	0.1	-1.1169e-002
23495	18.254	5.6364	0.1	-1.3799e-002
23496	18.345	5.3636	0.1	4.417
23497	18.254	5.4545	0.1	2.3196
23498	18.345	5.1818	0.1	9.8094
23499	18.254	5.2727	0.1	7.7558
23500	18.345	5.	0.1	15.535
23501	18.254	5.0909	0.1	13.627
23502	18.345	4.8182	0.1	21.506
23503	18.254	4.9091	0.1	19.854
23504	18.345	4.6364	0.1	27.602
23505	18.254	4.7273	0.1	26.316
23506	18.345	4.4545	0.1	33.679
23507	18.254	4.5455	0.1	32.866
23508	18.345	4.2727	0.1	39.579
23509	18.254	4.3636	0.1	39.334
23510	18.345	4.0909	0.1	45.135
23511	18.254	4.1818	0.1	45.538
23512	18.345	3.9091	0.1	50.18
23513	18.254	4.	0.1	51.291
23514	18.345	3.7273	0.1	54.556
23515	18.254	3.8182	0.1	56.412
23516	18.345	3.5455	0.1	58.121
23517	18.254	3.6364	0.1	60.734
23518	18.345	3.3636	0.1	60.757
23519	18.254	3.4545	0.1	64.112
23520	18.345	3.1818	0.1	62.376
23521	18.254	3.2727	0.1	66.431
23522	18.345	3.	0.1	62.922
23523	18.254	3.0909	0.1	67.611
23524	18.345	2.8182	0.1	62.376
23525	18.254	2.9091	0.1	67.611
23526	18.345	2.6364	0.1	60.757
23527	18.254	2.7273	0.1	66.431
23528	18.345	2.4545	0.1	58.121
23529	18.254	2.5455	0.1	64.112
23530	18.345	2.2727	0.1	54.556
23531	18.254	2.3636	0.1	60.734
23532	18.345	2.0909	0.1	50.18
23533	18.254	2.1818	0.1	56.412
23534	18.345	1.9091	0.1	45.135
23535	18.254	2.	0.1	51.291
23536	18.345	1.7273	0.1	39.579
23537	18.254	1.8182	0.1	45.538
23538	18.345	1.5455	0.1	33.679
23539	18.254	1.6364	0.1	39.334
23540	18.345	1.3636	0.1	27.602
23541	18.254	1.4545	0.1	32.866
23542	18.345	1.1818	0.1	21.506
23543	18.254	1.2727	0.1	26.316
23544	18.345	1.	0.1	15.535
23545	18.254	1.0909	0.1	19.854
23546	18.345	0.81818	0.1	9.8094
23547	18.254	0.90909	0.1	13.627
23548	18.345	0.63636	0.1	4.417
23549	18.254	0.72727	0.1	7.7558
23550	18.345	0.45455	0.1	-1.1169e-002
23551	18.254	0.54545	0.1	2.3196
23552	18.345	0.27273	0.1	-1.7847e-003
23553	18.254	0.36364	0.1	-1.3799e-002
23554	18.254	0.18182	0.1	9.4009e-003
23555	18.345	9.0909e-002	0.1	-6.6517e-003
23556	18.162	5.7273	0.1	1.3287e-004
23557	18.071	5.8182	0.1	1.1171e-002
23558	18.162	5.9091	0.1	-9.0968e-003
23559	18.162	5.5455	0.1	0.28619
23560	18.071	5.6364	0.1	-1.0357e-002
23561	18.162	5.3636	0.1	5.6863
23562	18.071	5.4545	0.1	3.2508
23563	18.162	5.1818	0.1	11.6
23564	18.071	5.2727	0.1	9.1409
23565	18.162	5.	0.1	17.97
23566	18.071	5.0909	0.1	15.613
23567	18.162	4.8182	0.1	24.686
23568	18.071	4.9091	0.1	22.566
23569	18.162	4.6364	0.1	31.6
23570	18.071	4.7273	0.1	29.854
23571	18.162	4.4545	0.1	38.538
23572	18.071	4.5455	0.1	37.296
23573	18.162	4.2727	0.1	45.308
23574	18.071	4.3636	0.1	44.687
23575	18.162	4.0909	0.1	51.706
23576	18.071	4.1818	0.1	51.807
23577	18.162	3.9091	0.1	57.534
23578	18.071	4.	0.1	58.432
23579	18.162	3.7273	0.1	62.599
23580	18.071	3.8182	0.1	64.344
23581	18.162	3.5455	0.1	66.733
23582	18.071	3.6364	0.1	69.342
23583	18.162	3.3636	0.1	69.793
23584	18.071	3.4545	0.1	73.254
23585	18.162	3.1818	0.1	71.674
23586	18.071	3.2727	0.1	75.942
23587	18.162	3.	0.1	72.308
23588	18.071	3.0909	0.1	77.311
23589	18.162	2.8182	0.1	71.674
23590	18.071	2.9091	0.1	77.311
23591	18.162	2.6364	0.1	69.793
23592	18.071	2.7273	0.1	75.942
23593	18.162	2.4545	0.1	66.733
23594	18.071	2.5455	0.1	73.254
23595	18.162	2.2727	0.1	62.599
23596	18.071	2.3636	0.1	69.342
23597	18.162	2.0909	0.1	57.534
23598	18.071	2.1818	0.1	64.344
23599	18.162	1.9091	0.1	51.706
23600	18.071	2.	0.1	58.432
23601	18.162	1.7273	0.1	45.308
23602	18.071	1.8182	0.1	51.807
23603	18.162	1.5455	0.1	38.538
23604	18.071	1.6364	0.1	44.687
23605	18.162	1.3636	0.1	31.6
23606	18.071	1.4545	0.1	37.296
23607	18.162	1.1818	0.1	24.686
23608	18.071	1.2727	0.1	29.854
23609	18.162	1.	0.1	17.97
23610	18.071	1.0909	0.1	22.566
23611	18.162	0.81818	0.1	11.6
23612	18.071	0.90909	0.1	15.613
23613	18.162	0.63636	0.1	5.6863
23614	18.071	0.72727	0.1	9.1409
23615	18.162	0.45455	0.1	0.28616
23616	18.071	0.54545	0.1	3.2508
23617	18.162	0.27273	0.1	1.3352e-004
23618	18.071	0.36364	0.1	-1.0357e-002
23619	18.071	0.18182	0.1	1.1173e-002
23620	18.162	9.0909e-002	0.1	-9.0967e-003
23621	17.98	5.7273	0.1	3.1434e-003
23622	17.889	5.8182	0.1	1.2878e-002
23623	17.98	5.9091	0.1	-1.2437e-002
23624	17.98	5.5455	0.1	0.95935
23625	17.889	5.6364	0.1	-1.6102e-003
23626	17.98	5.3636	0.1	6.7327
23627	17.889	5.4545	0.1	3.9357
23628	17.98	5.1818	0.1	13.18
23629	17.889	5.2727	0.1	10.275
23630	17.98	5.	0.1	20.234
23631	17.889	5.0909	0.1	17.376
23632	17.98	4.8182	0.1	27.756
23633	17.889	4.9091	0.1	25.11
23634	17.98	4.6364	0.1	35.569
23635	17.889	4.7273	0.1	33.301
23636	17.98	4.4545	0.1	43.462
23637	17.889	4.5455	0.1	41.729
23638	17.98	4.2727	0.1	51.201
23639	17.889	4.3636	0.1	50.149
23640	17.98	4.0909	0.1	58.545
23641	17.889	4.1818	0.1	58.295
23642	17.98	3.9091	0.1	65.252
23643	17.889	4.	0.1	65.898
23644	17.98	3.7273	0.1	71.095
23645	17.889	3.8182	0.1	72.7
23646	17.98	3.5455	0.1	75.87
23647	17.889	3.6364	0.1	78.461
23648	17.98	3.3636	0.1	79.409
23649	17.889	3.4545	0.1	82.976
23650	17.98	3.1818	0.1	81.585
23651	17.889	3.2727	0.1	86.08
23652	17.98	3.	0.1	82.319
23653	17.889	3.0909	0.1	87.662
23654	17.98	2.8182	0.1	81.585
23655	17.889	2.9091	0.1	87.662
23656	17.98	2.6364	0.1	79.409
23657	17.889	2.7273	0.1	86.08
23658	17.98	2.4545	0.1	75.87
23659	17.889	2.5455	0.1	82.976
23660	17.98	2.2727	0.1	71.095
23661	17.889	2.3636	0.1	78.461
23662	17.98	2.0909	0.1	65.252
23663	17.889	2.1818	0.1	72.7
23664	17.98	1.9091	0.1	58.545
23665	17.889	2.	0.1	65.898
23666	17.98	1.7273	0.1	51.201
23667	17.889	1.8182	0.1	58.295
23668	17.98	1.5455	0.1	43.462
23669	17.889	1.6364	0.1	50.149
23670	17.98	1.3636	0.1	35.569
23671	17.889	1.4545	0.1	41.729
23672	17.98	1.1818	0.1	27.756
23673	17.889	1.2727	0.1	33.301
23674	17.98	1.	0.1	20.234
23675	17.889	1.0909	0.1	25.11
23676	17.98	0.81818	0.1	13.18
23677	17.889	0.90909	0.1	17.376
23678	17.98	0.63636	0.1	6.7327
23679	17.889	0.72727	0.1	10.275
23680	17.98	0.45455	0.1	0.95932
23681	17.889	0.54545	0.1	3.9357
23682	17.98	0.27273	0.1	3.1455e-003
23683	17.889	0.36364	0.1	-1.6089e-003
23684	17.889	0.18182	0.1	1.2879e-002
23685	17.98	9.0909e-002	0.1	-1.2437e-002
23686	17.798	5.7273	0.1	7.1806e-003
23687	17.706	5.8182	0.1	1.4278e-002
23688	17.798	5.9091	0.1	-1.6836e-002
23689	17.798	5.5455	0.1	1.394
23690	17.706	5.6364	0.1	1.2791e-002
23691	17.798	5.3636	0.1	7.505
23692	17.706	5.4545	0.1	4.3215
23693	17.798	5.1818	0.1	14.498
23694	17.706	5.2727	0.1	11.103
23695	17.798	5.	0.1	22.277
23696	17.706	5.0909	0.1	18.86
23697	17.798	4.8182	0.1	30.677
23698	17.706	4.9091	0.1	27.437
23699	17.798	4.6364	0.1	39.48
23700	17.706	4.7273	0.1	36.617
23701	17.798	4.4545	0.1	48.433
23702	17.706	4.5455	0.1	46.139
23703	17.798	4.2727	0.1	57.256
23704	17.706	4.3636	0.1	55.705
23705	17.798	4.0909	0.1	65.66
23706	17.706	4.1818	0.1	65.
23707	17.798	3.9091	0.1	73.356
23708	17.706	4.	0.1	73.704
23709	17.798	3.7273	0.1	80.075
23710	17.706	3.8182	0.1	81.507
23711	17.798	3.5455	0.1	85.574
23712	17.706	3.6364	0.1	88.127
23713	17.798	3.3636	0.1	89.653
23714	17.706	3.4545	0.1	93.32
23715	17.798	3.1818	0.1	92.162
23716	17.706	3.2727	0.1	96.893
23717	17.798	3.	0.1	93.009
23718	17.706	3.0909	0.1	98.714
23719	17.798	2.8182	0.1	92.162
23720	17.706	2.9091	0.1	98.714
23721	17.798	2.6364	0.1	89.653
23722	17.706	2.7273	0.1	96.893
23723	17.798	2.4545	0.1	85.574
23724	17.706	2.5455	0.1	93.32
23725	17.798	2.2727	0.1	80.075
23726	17.706	2.3636	0.1	88.127
23727	17.798	2.0909	0.1	73.356
23728	17.706	2.1818	0.1	81.507
23729	17.798	1.9091	0.1	65.66
23730	17.706	2.	0.1	73.704
23731	17.798	1.7273	0.1	57.256
23732	17.706	1.8182	0.1	65.
23733	17.798	1.5455	0.1	48.433
23734	17.706	1.6364	0.1	55.705
23735	17.798	1.3636	0.1	39.48
23736	17.706	1.4545	0.1	46.139
23737	17.798	1.1818	0.1	30.677
23738	17.706	1.2727	0.1	36.617
23739	17.798	1.	0.1	22.277
23740	17.706	1.0909	0.1	27.437
23741	17.798	0.81818	0.1	14.498
23742	17.706	0.90909	0.1	18.86
23743	17.798	0.63636	0.1	7.505
23744	17.706	0.72727	0.1	11.103
23745	17.798	0.45455	0.1	1.394
23746	17.706	0.54545	0.1	4.3214
23747	17.798	0.27273	0.1	7.1813e-003
23748	17.706	0.36364	0.1	1.2791e-002
23749	17.706	0.18182	0.1	1.4279e-002
23750	17.798	9.0909e-002	0.1	-1.6836e-002
23751	17.615	5.7273	0.1	1.1818e-002
23752	17.524	5.8182	0.1	1.5107e-002
23753	17.615	5.9091	0.1	-2.2336e-002
23754	17.615	5.5455	0.1	1.5337
23755	17.524	5.6364	0.1	2.7686e-002
23756	17.615	5.3636	0.1	7.9446
23757	17.524	5.4545	0.1	4.3494
23758	17.615	5.1818	0.1	15.492
23759	17.524	5.2727	0.1	11.559
23760	17.615	5.	0.1	24.045
23761	17.524	5.0909	0.1	20.004
23762	17.615	4.8182	0.1	33.4
23763	17.524	4.9091	0.1	29.49
23764	17.615	4.6364	0.1	43.296
23765	17.524	4.7273	0.1	39.757
23766	17.615	4.4545	0.1	53.428
23767	17.524	4.5455	0.1	50.49
23768	17.615	4.2727	0.1	63.463
23769	17.524	4.3636	0.1	61.336
23770	17.615	4.0909	0.1	73.055
23771	17.524	4.1818	0.1	71.917
23772	17.615	3.9091	0.1	81.863
23773	17.524	4.	0.1	81.854
23774	17.615	3.7273	0.1	89.566
23775	17.524	3.8182	0.1	90.781
23776	17.615	3.5455	0.1	95.879
23777	17.524	3.6364	0.1	98.365
23778	17.615	3.3636	0.1	100.57
23779	17.524	3.4545	0.1	104.32
23780	17.615	3.1818	0.1	103.45
23781	17.524	3.2727	0.1	108.42
23782	17.615	3.	0.1	104.42
23783	17.524	3.0909	0.1	110.51
23784	17.615	2.8182	0.1	103.45
23785	17.524	2.9091	0.1	110.51
23786	17.615	2.6364	0.1	100.57
23787	17.524	2.7273	0.1	108.42
23788	17.615	2.4545	0.1	95.879
23789	17.524	2.5455	0.1	104.32
23790	17.615	2.2727	0.1	89.566
23791	17.524	2.3636	0.1	98.365
23792	17.615	2.0909	0.1	81.863
23793	17.524	2.1818	0.1	90.781
23794	17.615	1.9091	0.1	73.055
23795	17.524	2.	0.1	81.854
23796	17.615	1.7273	0.1	63.463
23797	17.524	1.8182	0.1	71.917
23798	17.615	1.5455	0.1	53.428
23799	17.524	1.6364	0.1	61.336
23800	17.615	1.3636	0.1	43.296
23801	17.524	1.4545	0.1	50.49
23802	17.615	1.1818	0.1	33.4
23803	17.524	1.2727	0.1	39.757
23804	17.615	1.	0.1	24.045
23805	17.524	1.0909	0.1	29.49
23806	17.615	0.81818	0.1	15.492
23807	17.524	0.90909	0.1	20.004
23808	17.615	0.63636	0.1	7.9446
23809	17.524	0.72727	0.1	11.559
23810	17.615	0.45455	0.1	1.5337
23811	17.524	0.54545	0.1	4.3493
23812	17.615	0.27273	0.1	1.1819e-002
23813	17.524	0.36364	0.1	2.7686e-002
23814	17.524	0.18182	0.1	1.5108e-002
23815	17.615	9.0909e-002	0.1	-2.2335e-002
23816	17.433	5.7273	0.1	1.639e-002
23817	17.342	5.8182	0.1	1.5136e-002
23818	17.433	5.9091	0.1	-2.8708e-002
23819	17.433	5.5455	0.1	1.3336
23820	17.342	5.6364	0.1	3.7483e-002
23821	17.433	5.3636	0.1	7.9864
23822	17.342	5.4545	0.1	3.9578
23823	17.433	5.1818	0.1	16.097
23824	17.342	5.2727	0.1	11.573
23825	17.433	5.	0.1	25.474
23826	17.342	5.0909	0.1	20.736
23827	17.433	4.8182	0.1	35.87
23828	17.342	4.9091	0.1	31.205
23829	17.433	4.6364	0.1	46.972
23830	17.342	4.7273	0.1	42.665
23831	17.433	4.4545	0.1	58.415
23832	17.342	4.5455	0.1	54.741
23833	17.433	4.2727	0.1	69.804
23834	17.342	4.3636	0.1	67.011
23835	17.433	4.0909	0.1	80.727
23836	17.342	4.1818	0.1	79.03
23837	17.433	3.9091	0.1	90.781
23838	17.342	4.	0.1	90.346
23839	17.433	3.7273	0.1	99.587
23840	17.342	3.8182	0.1	100.53
23841	17.433	3.5455	0.1	106.81
23842	17.342	3.6364	0.1	109.19
23843	17.433	3.3636	0.1	112.18
23844	17.342	3.4545	0.1	115.99
23845	17.433	3.1818	0.1	115.48
23846	17.342	3.2727	0.1	120.68
23847	17.433	3.	0.1	116.6
23848	17.342	3.0909	0.1	123.07
23849	17.433	2.8182	0.1	115.48
23850	17.342	2.9091	0.1	123.07
23851	17.433	2.6364	0.1	112.18
23852	17.342	2.7273	0.1	120.68
23853	17.433	2.4545	0.1	106.81
23854	17.342	2.5455	0.1	115.99
23855	17.433	2.2727	0.1	99.587
23856	17.342	2.3636	0.1	109.19
23857	17.433	2.0909	0.1	90.781
23858	17.342	2.1818	0.1	100.53
23859	17.433	1.9091	0.1	80.727
23860	17.342	2.	0.1	90.346
23861	17.433	1.7273	0.1	69.804
23862	17.342	1.8182	0.1	79.03
23863	17.433	1.5455	0.1	58.415
23864	17.342	1.6364	0.1	67.011
23865	17.433	1.3636	0.1	46.972
23866	17.342	1.4545	0.1	54.741
23867	17.433	1.1818	0.1	35.87
23868	17.342	1.2727	0.1	42.665
23869	17.433	1.	0.1	25.474
23870	17.342	1.0909	0.1	31.205
23871	17.433	0.81818	0.1	16.097
23872	17.342	0.90909	0.1	20.737
23873	17.433	0.63636	0.1	7.9864
23874	17.342	0.72727	0.1	11.573
23875	17.433	0.45455	0.1	1.3336
23876	17.342	0.54545	0.1	3.9578
23877	17.433	0.27273	0.1	1.639e-002
23878	17.342	0.36364	0.1	3.7484e-002
23879	17.342	0.18182	0.1	1.5137e-002
23880	17.433	9.0909e-002	0.1	-2.8708e-002
23881	17.25	5.7273	0.1	2.0305e-002
23882	17.159	5.8182	0.1	1.4248e-002
23883	17.25	5.9091	0.1	-3.5466e-002
23884	17.25	5.5455	0.1	0.80499
23885	17.159	5.6364	0.1	4.299e-002
23886	17.25	5.3636	0.1	7.5607
23887	17.159	5.4545	0.1	3.0931
23888	17.25	5.1818	0.1	16.238
23889	17.159	5.2727	0.1	11.07
23890	17.25	5.	0.1	26.493
23891	17.159	5.0909	0.1	20.982
23892	17.25	4.8182	0.1	38.023
23893	17.159	4.9091	0.1	32.51
23894	17.25	4.6364	0.1	50.454
23895	17.159	4.7273	0.1	45.277
23896	17.25	4.4545	0.1	63.354
23897	17.159	4.5455	0.1	58.838
23898	17.25	4.2727	0.1	76.251
23899	17.159	4.3636	0.1	72.692
23900	17.25	4.0909	0.1	88.66
23901	17.159	4.1818	0.1	86.311
23902	17.25	3.9091	0.1	100.1
23903	17.159	4.	0.1	99.164
23904	17.25	3.7273	0.1	110.14
23905	17.159	3.8182	0.1	110.75
23906	17.25	3.5455	0.1	118.38
23907	17.159	3.6364	0.1	120.6
23908	17.25	3.3636	0.1	124.5
23909	17.159	3.4545	0.1	128.34
23910	17.25	3.1818	0.1	128.27
23911	17.159	3.2727	0.1	133.67
23912	17.25	3.	0.1	129.54
23913	17.159	3.0909	0.1	136.39
23914	17.25	2.8182	0.1	128.27
23915	17.159	2.9091	0.1	136.39
23916	17.25	2.6364	0.1	124.5
23917	17.159	2.7273	0.1	133.67
23918	17.25	2.4545	0.1	118.38
23919	17.159	2.5455	0.1	128.34
23920	17.25	2.2727	0.1	110.14
23921	17.159	2.3636	0.1	120.6
23922	17.25	2.0909	0.1	100.1
23923	17.159	2.1818	0.1	110.75
23924	17.25	1.9091	0.1	88.66
23925	17.159	2.	0.1	99.164
23926	17.25	1.7273	0.1	76.251
23927	17.159	1.8182	0.1	86.311
23928	17.25	1.5455	0.1	63.354
23929	17.159	1.6364	0.1	72.692
23930	17.25	1.3636	0.1	50.454
23931	17.159	1.4545	0.1	58.838
23932	17.25	1.1818	0.1	38.023
23933	17.159	1.2727	0.1	45.277
23934	17.25	1.	0.1	26.493
23935	17.159	1.0909	0.1	32.51
23936	17.25	0.81818	0.1	16.238
23937	17.159	0.90909	0.1	20.982
23938	17.25	0.63636	0.1	7.5607
23939	17.159	0.72727	0.1	11.07
23940	17.25	0.45455	0.1	0.80498
23941	17.159	0.54545	0.1	3.0931
23942	17.25	0.27273	0.1	2.0306e-002
23943	17.159	0.36364	0.1	4.299e-002
23944	17.159	0.18182	0.1	1.4248e-002
23945	17.25	9.0909e-002	0.1	-3.5465e-002
23946	17.068	5.7273	0.1	2.3488e-002
23947	16.977	5.8182	0.1	1.2537e-002
23948	17.068	5.9091	0.1	-4.1875e-002
23949	17.068	5.5455	0.1	0.30949
23950	16.977	5.6364	0.1	4.7764e-002
23951	17.068	5.3636	0.1	6.5982
23952	16.977	5.4545	0.1	1.7767
23953	17.068	5.1818	0.1	15.837
23954	16.977	5.2727	0.1	9.9767
23955	17.068	5.	0.1	27.023
23956	16.977	5.0909	0.1	20.658
23957	17.068	4.8182	0.1	39.786
23958	16.977	4.9091	0.1	33.323
23959	17.068	4.6364	0.1	53.68
23960	16.977	4.7273	0.1	47.519
23961	17.068	4.4545	0.1	68.192
23962	16.977	4.5455	0.1	62.716
23963	17.068	4.2727	0.1	82.765
23964	16.977	4.3636	0.1	78.323
23965	17.068	4.0909	0.1	96.825
23966	16.977	4.1818	0.1	93.717
23967	17.068	3.9091	0.1	109.81
23968	16.977	4.	0.1	108.27
23969	17.068	3.7273	0.1	121.21
23970	16.977	3.8182	0.1	121.39
23971	17.068	3.5455	0.1	130.57
23972	16.977	3.6364	0.1	132.56
23973	17.068	3.3636	0.1	137.52
23974	16.977	3.4545	0.1	141.32
23975	17.068	3.1818	0.1	141.79
23976	16.977	3.2727	0.1	147.36
23977	17.068	3.	0.1	143.24
23978	16.977	3.0909	0.1	150.43
23979	17.068	2.8182	0.1	141.79
23980	16.977	2.9091	0.1	150.43
23981	17.068	2.6364	0.1	137.52
23982	16.977	2.7273	0.1	147.36
23983	17.068	2.4545	0.1	130.57
23984	16.977	2.5455	0.1	141.32
23985	17.068	2.2727	0.1	121.21
23986	16.977	2.3636	0.1	132.56
23987	17.068	2.0909	0.1	109.81
23988	16.977	2.1818	0.1	121.39
23989	17.068	1.9091	0.1	96.825
23990	16.977	2.	0.1	108.27
23991	17.068	1.7273	0.1	82.765
23992	16.977	1.8182	0.1	93.717
23993	17.068	1.5455	0.1	68.192
23994	16.977	1.6364	0.1	78.323
23995	17.068	1.3636	0.1	53.68
23996	16.977	1.4545	0.1	62.716
23997	17.068	1.1818	0.1	39.786
23998	16.977	1.2727	0.1	47.519
23999	17.068	1.	0.1	27.023
24000	16.977	1.0909	0.1	33.323
24001	17.068	0.81818	0.1	15.837
24002	16.977	0.90909	0.1	20.658
24003	17.068	0.63636	0.1	6.5982
24004	16.977	0.72727	0.1	9.9767
24005	17.068	0.45455	0.1	0.30948
24006	16.977	0.54545	0.1	1.7767
24007	17.068	0.27273	0.1	2.3488e-002
24008	16.977	0.36364	0.1	4.7765e-002
24009	16.977	0.18182	0.1	1.2536e-002
24010	17.068	9.0909e-002	0.1	-4.1875e-002
24011	16.885	5.7273	0.1	2.6455e-002
24012	16.794	5.8182	0.1	1.0222e-002
24013	16.885	5.9091	0.1	-4.7045e-002
24014	16.885	5.5455	0.1	0.16555
24015	16.794	5.6364	0.1	5.426e-002
24016	16.885	5.3636	0.1	5.0468
24017	16.794	5.4545	0.1	0.60992
24018	16.885	5.1818	0.1	14.813
24019	16.794	5.2727	0.1	8.2286
24020	16.885	5.	0.1	26.979
24021	16.794	5.0909	0.1	19.682
24022	16.885	4.8182	0.1	41.076
24023	16.794	4.9091	0.1	33.557
24024	16.885	4.6364	0.1	56.573
24025	16.794	4.7273	0.1	49.303
24026	16.885	4.4545	0.1	72.862
24027	16.794	4.5455	0.1	66.294
24028	16.885	4.2727	0.1	89.287
24029	16.794	4.3636	0.1	83.832
24030	16.885	4.0909	0.1	105.17
24031	16.794	4.1818	0.1	101.18
24032	16.885	3.9091	0.1	119.86
24033	16.794	4.	0.1	117.61
24034	16.885	3.7273	0.1	132.75
24035	16.794	3.8182	0.1	132.41
24036	16.885	3.5455	0.1	143.32
24037	16.794	3.6364	0.1	145.
24038	16.885	3.3636	0.1	151.17
24039	16.794	3.4545	0.1	154.86
24040	16.885	3.1818	0.1	156.
24041	16.794	3.2727	0.1	161.64
24042	16.885	3.	0.1	157.62
24043	16.794	3.0909	0.1	165.09
24044	16.885	2.8182	0.1	156.
24045	16.794	2.9091	0.1	165.09
24046	16.885	2.6364	0.1	151.17
24047	16.794	2.7273	0.1	161.64
24048	16.885	2.4545	0.1	143.32
24049	16.794	2.5455	0.1	154.86
24050	16.885	2.2727	0.1	132.75
24051	16.794	2.3636	0.1	145.
24052	16.885	2.0909	0.1	119.86
24053	16.794	2.1818	0.1	132.41
24054	16.885	1.9091	0.1	105.17
24055	16.794	2.	0.1	117.61
24056	16.885	1.7273	0.1	89.287
24057	16.794	1.8182	0.1	101.18
24058	16.885	1.5455	0.1	72.862
24059	16.794	1.6364	0.1	83.833
24060	16.885	1.3636	0.1	56.573
24061	16.794	1.4545	0.1	66.294
24062	16.885	1.1818	0.1	41.076
24063	16.794	1.2727	0.1	49.303
24064	16.885	1.	0.1	26.979
24065	16.794	1.0909	0.1	33.557
24066	16.885	0.81818	0.1	14.813
24067	16.794	0.90909	0.1	19.682
24068	16.885	0.63636	0.1	5.0468
24069	16.794	0.72727	0.1	8.2286
24070	16.885	0.45455	0.1	0.16555
24071	16.794	0.54545	0.1	0.60992
24072	16.885	0.27273	0.1	2.6456e-002
24073	16.794	0.36364	0.1	5.4261e-002
24074	16.794	0.18182	0.1	1.0222e-002
24075	16.885	9.0909e-002	0.1	-4.7046e-002
24076	16.703	5.7273	0.1	2.9866e-002
24077	16.612	5.8182	0.1	7.4442e-003
24078	16.703	5.9091	0.1	-5.0308e-002
24079	16.703	5.5455	0.1	0.12843
24080	16.612	5.6364	0.1	6.3677e-002
24081	16.703	5.3636	0.1	2.9615
24082	16.612	5.4545	0.1	0.2973
24083	16.703	5.1818	0.1	13.092
24084	16.612	5.2727	0.1	5.8177
24085	16.703	5.	0.1	26.272
24086	16.612	5.0909	0.1	17.969
24087	16.703	4.8182	0.1	41.798
24088	16.612	4.9091	0.1	33.112
24089	16.703	4.6364	0.1	59.037
24090	16.612	4.7273	0.1	50.523
24091	16.703	4.4545	0.1	77.275
24092	16.612	4.5455	0.1	69.465
24093	16.703	4.2727	0.1	95.735
24094	16.612	4.3636	0.1	89.116
24095	16.703	4.0909	0.1	113.62
24096	16.612	4.1818	0.1	108.61
24097	16.703	3.9091	0.1	130.16
24098	16.612	4.	0.1	127.07
24099	16.703	3.7273	0.1	144.67
24100	16.612	3.8182	0.1	143.69
24101	16.703	3.5455	0.1	156.54
24102	16.612	3.6364	0.1	157.78
24103	16.703	3.3636	0.1	165.34
24104	16.612	3.4545	0.1	168.8
24105	16.703	3.1818	0.1	170.74
24106	16.612	3.2727	0.1	176.35
24107	16.703	3.	0.1	172.56
24108	16.612	3.0909	0.1	180.18
24109	16.703	2.8182	0.1	170.74
24110	16.612	2.9091	0.1	180.18
24111	16.703	2.6364	0.1	165.34
24112	16.612	2.7273	0.1	176.35
24113	16.703	2.4545	0.1	156.54
24114	16.612	2.5455	0.1	168.8
24115	16.703	2.2727	0.1	144.67
24116	16.612	2.3636	0.1	157.78
24117	16.703	2.0909	0.1	130.16
24118	16.612	2.1818	0.1	143.69
24119	16.703	1.9091	0.1	113.62
24120	16.612	2.	0.1	127.07
24121	16.703	1.7273	0.1	95.735
24122	16.612	1.8182	0.1	108.61
24123	16.703	1.5455	0.1	77.275
24124	16.612	1.6364	0.1	89.116
24125	16.703	1.3636	0.1	59.038
24126	16.612	1.4545	0.1	69.465
24127	16.703	1.1818	0.1	41.798
24128	16.612	1.2727	0.1	50.523
24129	16.703	1.	0.1	26.272
24130	16.612	1.0909	0.1	33.112
24131	16.703	0.81818	0.1	13.092
24132	16.612	0.90909	0.1	17.969
24133	16.703	0.63636	0.1	2.9615
24134	16.612	0.72727	0.1	5.8177
24135	16.703	0.45455	0.1	0.12843
24136	16.612	0.54545	0.1	0.2973
24137	16.703	0.27273	0.1	2.9867e-002
24138	16.612	0.36364	0.1	6.3678e-002
24139	16.612	0.18182	0.1	7.4441e-003
24140	16.703	9.0909e-002	0.1	-5.0308e-002
24141	16.521	5.7273	0.1	3.4252e-002
24142	16.429	5.8182	0.1	4.2196e-003
24143	16.521	5.9091	0.1	-5.1397e-002
24144	16.521	5.5455	0.1	0.12037
24145	16.429	5.6364	0.1	7.6746e-002
24146	16.521	5.3636	0.1	1.1159
24147	16.429	5.4545	0.1	0.22685
24148	16.521	5.1818	0.1	10.62
24149	16.429	5.2727	0.1	3.0373
24150	16.521	5.	0.1	24.804
24151	16.429	5.0909	0.1	15.45
24152	16.521	4.8182	0.1	41.838
24153	16.429	4.9091	0.1	31.871
24154	16.521	4.6364	0.1	60.952
24155	16.429	4.7273	0.1	51.041
24156	16.521	4.4545	0.1	81.307
24157	16.429	4.5455	0.1	72.081
24158	16.521	4.2727	0.1	101.99
24159	16.429	4.3636	0.1	94.026
24160	16.521	4.0909	0.1	122.05
24161	16.429	4.1818	0.1	115.84
24162	16.521	3.9091	0.1	140.59
24163	16.429	4.	0.1	136.5
24164	16.521	3.7273	0.1	156.81
24165	16.429	3.8182	0.1	155.05
24166	16.521	3.5455	0.1	170.05
24167	16.429	3.6364	0.1	170.71
24168	16.521	3.3636	0.1	179.82
24169	16.429	3.4545	0.1	182.88
24170	16.521	3.1818	0.1	185.8
24171	16.429	3.2727	0.1	191.18
24172	16.521	3.	0.1	187.81
24173	16.429	3.0909	0.1	195.38
24174	16.521	2.8182	0.1	185.8
24175	16.429	2.9091	0.1	195.38
24176	16.521	2.6364	0.1	179.82
24177	16.429	2.7273	0.1	191.18
24178	16.521	2.4545	0.1	170.05
24179	16.429	2.5455	0.1	182.88
24180	16.521	2.2727	0.1	156.81
24181	16.429	2.3636	0.1	170.71
24182	16.521	2.0909	0.1	140.59
24183	16.429	2.1818	0.1	155.05
24184	16.521	1.9091	0.1	122.05
24185	16.429	2.	0.1	136.5
24186	16.521	1.7273	0.1	101.99
24187	16.429	1.8182	0.1	115.84
24188	16.521	1.5455	0.1	81.307
24189	16.429	1.6364	0.1	94.026
24190	16.521	1.3636	0.1	60.952
24191	16.429	1.4545	0.1	72.081
24192	16.521	1.1818	0.1	41.838
24193	16.429	1.2727	0.1	51.041
24194	16.521	1.	0.1	24.804
24195	16.429	1.0909	0.1	31.871
24196	16.521	0.81818	0.1	10.62
24197	16.429	0.90909	0.1	15.45
24198	16.521	0.63636	0.1	1.1159
24199	16.429	0.72727	0.1	3.0374
24200	16.521	0.45455	0.1	0.12037
24201	16.429	0.54545	0.1	0.22686
24202	16.521	0.27273	0.1	3.4252e-002
24203	16.429	0.36364	0.1	7.6747e-002
24204	16.429	0.18182	0.1	4.2195e-003
24205	16.521	9.0909e-002	0.1	-5.1397e-002
24206	16.338	5.7273	0.1	4.0118e-002
24207	16.247	5.8182	0.1	4.4789e-004
24208	16.338	5.9091	0.1	-5.0355e-002
24209	16.338	5.5455	0.1	0.12601
24210	16.247	5.6364	0.1	9.417e-002
24211	16.338	5.3636	0.1	0.55261
24212	16.247	5.4545	0.1	0.21219
24213	16.338	5.1818	0.1	7.4339
24214	16.247	5.2727	0.1	1.2794
24215	16.338	5.	0.1	22.473
24216	16.247	5.0909	0.1	12.093
24217	16.338	4.8182	0.1	41.051
24218	16.247	4.9091	0.1	29.694
24219	16.338	4.6364	0.1	62.15
24220	16.247	4.7273	0.1	50.666
24221	16.338	4.4545	0.1	84.782
24222	16.247	4.5455	0.1	73.927
24223	16.338	4.2727	0.1	107.86
24224	16.247	4.3636	0.1	98.337
24225	16.338	4.0909	0.1	130.28
24226	16.247	4.1818	0.1	122.66
24227	16.338	3.9091	0.1	150.94
24228	16.247	4.	0.1	145.66
24229	16.338	3.7273	0.1	168.94
24230	16.247	3.8182	0.1	166.21
24231	16.338	3.5455	0.1	183.55
24232	16.247	3.6364	0.1	183.43
24233	16.338	3.3636	0.1	194.26
24234	16.247	3.4545	0.1	196.7
24235	16.338	3.1818	0.1	200.78
24236	16.247	3.2727	0.1	205.67
24237	16.338	3.	0.1	202.97
24238	16.247	3.0909	0.1	210.18
24239	16.338	2.8182	0.1	200.78
24240	16.247	2.9091	0.1	210.18
24241	16.338	2.6364	0.1	194.26
24242	16.247	2.7273	0.1	205.67
24243	16.338	2.4545	0.1	183.55
24244	16.247	2.5455	0.1	196.7
24245	16.338	2.2727	0.1	168.94
24246	16.247	2.3636	0.1	183.43
24247	16.338	2.0909	0.1	150.94
24248	16.247	2.1818	0.1	166.21
24249	16.338	1.9091	0.1	130.28
24250	16.247	2.	0.1	145.66
24251	16.338	1.7273	0.1	107.86
24252	16.247	1.8182	0.1	122.66
24253	16.338	1.5455	0.1	84.782
24254	16.247	1.6364	0.1	98.337
24255	16.338	1.3636	0.1	62.15
24256	16.247	1.4545	0.1	73.927
24257	16.338	1.1818	0.1	41.051
24258	16.247	1.2727	0.1	50.666
24259	16.338	1.	0.1	22.473
24260	16.247	1.0909	0.1	29.694
24261	16.338	0.81818	0.1	7.434
24262	16.247	0.90909	0.1	12.093
24263	16.338	0.63636	0.1	0.55262
24264	16.247	0.72727	0.1	1.2794
24265	16.338	0.45455	0.1	0.12601
24266	16.247	0.54545	0.1	0.21219
24267	16.338	0.27273	0.1	4.0119e-002
24268	16.247	0.36364	0.1	9.4171e-002
24269	16.247	0.18182	0.1	4.482e-004
24270	16.338	9.0909e-002	0.1	-5.0355e-002
24271	16.156	5.7273	0.1	4.7933e-002
24272	16.065	5.8182	0.1	-4.0216e-003
24273	16.156	5.9091	0.1	-4.7584e-002
24274	16.156	5.5455	0.1	0.14164
24275	16.065	5.6364	0.1	0.11681
24276	16.156	5.3636	0.1	0.42688
24277	16.065	5.4545	0.1	0.22259
24278	16.156	5.1818	0.1	4.0086
24279	16.065	5.2727	0.1	0.8103
24280	16.156	5.	0.1	19.175
24281	16.065	5.0909	0.1	8.0465
24282	16.156	4.8182	0.1	39.241
24283	16.065	4.9091	0.1	26.399
24284	16.156	4.6364	0.1	62.384
24285	16.065	4.7273	0.1	49.117
24286	16.156	4.4545	0.1	87.428
24287	16.065	4.5455	0.1	74.669
24288	16.156	4.2727	0.1	113.09
24289	16.065	4.3636	0.1	101.7
24290	16.156	4.0909	0.1	138.
24291	16.065	4.1818	0.1	128.71
24292	16.156	3.9091	0.1	160.9
24293	16.065	4.	0.1	154.18
24294	16.156	3.7273	0.1	180.69
24295	16.065	3.8182	0.1	176.76
24296	16.156	3.5455	0.1	196.59
24297	16.065	3.6364	0.1	195.45
24298	16.156	3.3636	0.1	208.14
24299	16.065	3.4545	0.1	209.64
24300	16.156	3.1818	0.1	215.11
24301	16.065	3.2727	0.1	219.1
24302	16.156	3.	0.1	217.44
24303	16.065	3.0909	0.1	223.81
24304	16.156	2.8182	0.1	215.11
24305	16.065	2.9091	0.1	223.81
24306	16.156	2.6364	0.1	208.14
24307	16.065	2.7273	0.1	219.1
24308	16.156	2.4545	0.1	196.59
24309	16.065	2.5455	0.1	209.64
24310	16.156	2.2727	0.1	180.69
24311	16.065	2.3636	0.1	195.45
24312	16.156	2.0909	0.1	160.9
24313	16.065	2.1818	0.1	176.76
24314	16.156	1.9091	0.1	138.
24315	16.065	2.	0.1	154.18
24316	16.156	1.7273	0.1	113.09
24317	16.065	1.8182	0.1	128.71
24318	16.156	1.5455	0.1	87.428
24319	16.065	1.6364	0.1	101.7
24320	16.156	1.3636	0.1	62.384
24321	16.065	1.4545	0.1	74.669
24322	16.156	1.1818	0.1	39.241
24323	16.065	1.2727	0.1	49.117
24324	16.156	1.	0.1	19.175
24325	16.065	1.0909	0.1	26.399
24326	16.156	0.81818	0.1	4.0087
24327	16.065	0.90909	0.1	8.0466
24328	16.156	0.63636	0.1	0.42689
24329	16.065	0.72727	0.1	0.81031
24330	16.156	0.45455	0.1	0.14164
24331	16.065	0.54545	0.1	0.22259
24332	16.156	0.27273	0.1	4.7934e-002
24333	16.065	0.36364	0.1	0.11681
24334	16.065	0.18182	0.1	-4.0206e-003
24335	16.156	9.0909e-002	0.1	-4.7585e-002
24336	15.973	5.7273	0.1	5.8337e-002
24337	15.882	5.8182	0.1	-8.9874e-003
24338	15.973	5.9091	0.1	-4.3822e-002
24339	15.973	5.5455	0.1	0.16715
24340	15.882	5.6364	0.1	0.14597
24341	15.973	5.3636	0.1	0.40516
24342	15.882	5.4545	0.1	0.25202
24343	15.973	5.1818	0.1	1.9324
24344	15.882	5.2727	0.1	0.69648
24345	15.973	5.	0.1	14.833
24346	15.882	5.0909	0.1	4.2592
24347	15.973	4.8182	0.1	36.119
24348	15.882	4.9091	0.1	21.749
24349	15.973	4.6364	0.1	61.271
24350	15.882	4.7273	0.1	45.95
24351	15.973	4.4545	0.1	88.82
24352	15.882	4.5455	0.1	73.767
24353	15.973	4.2727	0.1	117.22
24354	15.882	4.3636	0.1	103.54
24355	15.973	4.0909	0.1	144.8
24356	15.882	4.1818	0.1	133.43
24357	15.973	3.9091	0.1	169.98
24358	15.882	4.	0.1	161.5
24359	15.973	3.7273	0.1	191.49
24360	15.882	3.8182	0.1	186.07
24361	15.973	3.5455	0.1	208.5
24362	15.882	3.6364	0.1	206.
24363	15.973	3.3636	0.1	220.64
24364	15.882	3.4545	0.1	220.76
24365	15.973	3.1818	0.1	227.87
24366	15.882	3.2727	0.1	230.37
24367	15.973	3.	0.1	230.26
24368	15.882	3.0909	0.1	235.06
24369	15.973	2.8182	0.1	227.87
24370	15.882	2.9091	0.1	235.06
24371	15.973	2.6364	0.1	220.64
24372	15.882	2.7273	0.1	230.37
24373	15.973	2.4545	0.1	208.5
24374	15.882	2.5455	0.1	220.76
24375	15.973	2.2727	0.1	191.49
24376	15.882	2.3636	0.1	206.
24377	15.973	2.0909	0.1	169.98
24378	15.882	2.1818	0.1	186.07
24379	15.973	1.9091	0.1	144.8
24380	15.882	2.	0.1	161.5
24381	15.973	1.7273	0.1	117.22
24382	15.882	1.8182	0.1	133.43
24383	15.973	1.5455	0.1	88.82
24384	15.882	1.6364	0.1	103.55
24385	15.973	1.3636	0.1	61.271
24386	15.882	1.4545	0.1	73.768
24387	15.973	1.1818	0.1	36.119
24388	15.882	1.2727	0.1	45.95
24389	15.973	1.	0.1	14.834
24390	15.882	1.0909	0.1	21.749
24391	15.973	0.81818	0.1	1.9324
24392	15.882	0.90909	0.1	4.2593
24393	15.973	0.63636	0.1	0.40516
24394	15.882	0.72727	0.1	0.69649
24395	15.973	0.45455	0.1	0.16715
24396	15.882	0.54545	0.1	0.25202
24397	15.973	0.27273	0.1	5.8338e-002
24398	15.882	0.36364	0.1	0.14597
24399	15.882	0.18182	0.1	-8.9874e-003
24400	15.973	9.0909e-002	0.1	-4.3822e-002
24401	15.791	5.7273	0.1	7.2678e-002
24402	15.7	5.8182	0.1	-1.2989e-002
24403	15.791	5.9091	0.1	-4.0058e-002
24404	15.791	5.5455	0.1	0.20454
24405	15.7	5.6364	0.1	0.18404
24406	15.791	5.3636	0.1	0.43028
24407	15.7	5.4545	0.1	0.30192
24408	15.791	5.1818	0.1	1.3086
24409	15.7	5.2727	0.1	0.69601
24410	15.791	5.	0.1	9.6282
24411	15.7	5.0909	0.1	2.3798
24412	15.791	4.8182	0.1	31.25
24413	15.7	4.9091	0.1	15.545
24414	15.791	4.6364	0.1	58.189
24415	15.7	4.7273	0.1	40.455
24416	15.791	4.4545	0.1	88.259
24417	15.7	4.5455	0.1	70.329
24418	15.791	4.2727	0.1	119.55
24419	15.7	4.3636	0.1	102.94
24420	15.791	4.0909	0.1	149.96
24421	15.7	4.1818	0.1	135.93
24422	15.791	3.9091	0.1	177.47
24423	15.7	4.	0.1	166.75
24424	15.791	3.7273	0.1	200.52
24425	15.7	3.8182	0.1	193.21
24426	15.791	3.5455	0.1	218.27
24427	15.7	3.6364	0.1	213.97
24428	15.791	3.3636	0.1	230.57
24429	15.7	3.4545	0.1	228.69
24430	15.791	3.1818	0.1	237.69
24431	15.7	3.2727	0.1	237.84
24432	15.791	3.	0.1	240.01
24433	15.7	3.0909	0.1	242.15
24434	15.791	2.8182	0.1	237.69
24435	15.7	2.9091	0.1	242.15
24436	15.791	2.6364	0.1	230.57
24437	15.7	2.7273	0.1	237.84
24438	15.791	2.4545	0.1	218.27
24439	15.7	2.5455	0.1	228.69
24440	15.791	2.2727	0.1	200.52
24441	15.7	2.3636	0.1	213.97
24442	15.791	2.0909	0.1	177.47
24443	15.7	2.1818	0.1	193.21
24444	15.791	1.9091	0.1	149.96
24445	15.7	2.	0.1	166.75
24446	15.791	1.7273	0.1	119.55
24447	15.7	1.8182	0.1	135.93
24448	15.791	1.5455	0.1	88.259
24449	15.7	1.6364	0.1	102.94
24450	15.791	1.3636	0.1	58.189
24451	15.7	1.4545	0.1	70.329
24452	15.791	1.1818	0.1	31.25
24453	15.7	1.2727	0.1	40.455
24454	15.791	1.	0.1	9.6283
24455	15.7	1.0909	0.1	15.545
24456	15.791	0.81818	0.1	1.3086
24457	15.7	0.90909	0.1	2.3798
24458	15.791	0.63636	0.1	0.43029
24459	15.7	0.72727	0.1	0.69601
24460	15.791	0.45455	0.1	0.20454
24461	15.7	0.54545	0.1	0.30192
24462	15.791	0.27273	0.1	7.2678e-002
24463	15.7	0.36364	0.1	0.18404
24464	15.7	0.18182	0.1	-1.2991e-002
24465	15.791	9.0909e-002	0.1	-4.006e-002
24466	15.608	5.7273	0.1	9.4043e-002
24467	15.517	5.8182	0.1	-1.1612e-002
24468	15.608	5.9091	0.1	-3.7517e-002
24469	15.608	5.5455	0.1	0.25822
24470	15.517	5.6364	0.1	0.23555
24471	15.608	5.3636	0.1	0.49137
24472	15.517	5.4545	0.1	0.37852
24473	15.608	5.1818	0.1	1.1426
24474	15.517	5.2727	0.1	0.75828
24475	15.608	5.	0.1	4.9957
24476	15.517	5.0909	0.1	1.7803
24477	15.608	4.8182	0.1	24.026
24478	15.517	4.9091	0.1	8.4694
24479	15.608	4.6364	0.1	52.116
24480	15.517	4.7273	0.1	31.553
24481	15.608	4.4545	0.1	84.586
24482	15.517	4.5455	0.1	62.865
24483	15.608	4.2727	0.1	118.95
24484	15.517	4.3636	0.1	98.338
24485	15.608	4.0909	0.1	152.41
24486	15.517	4.1818	0.1	134.77
24487	15.608	3.9091	0.1	182.28
24488	15.517	4.	0.1	168.61
24489	15.608	3.7273	0.1	206.55
24490	15.517	3.8182	0.1	196.8
24491	15.608	3.5455	0.1	224.41
24492	15.517	3.6364	0.1	217.71
24493	15.608	3.3636	0.1	236.12
24494	15.517	3.4545	0.1	231.38
24495	15.608	3.1818	0.1	242.55
24496	15.517	3.2727	0.1	239.11
24497	15.608	3.	0.1	244.58
24498	15.517	3.0909	0.1	242.46
24499	15.608	2.8182	0.1	242.55
24500	15.517	2.9091	0.1	242.46
24501	15.608	2.6364	0.1	236.12
24502	15.517	2.7273	0.1	239.11
24503	15.608	2.4545	0.1	224.41
24504	15.517	2.5455	0.1	231.38
24505	15.608	2.2727	0.1	206.55
24506	15.517	2.3636	0.1	217.71
24507	15.608	2.0909	0.1	182.28
24508	15.517	2.1818	0.1	196.8
24509	15.608	1.9091	0.1	152.41
24510	15.517	2.	0.1	168.61
24511	15.608	1.7273	0.1	118.95
24512	15.517	1.8182	0.1	134.77
24513	15.608	1.5455	0.1	84.586
24514	15.517	1.6364	0.1	98.338
24515	15.608	1.3636	0.1	52.116
24516	15.517	1.4545	0.1	62.865
24517	15.608	1.1818	0.1	24.026
24518	15.517	1.2727	0.1	31.553
24519	15.608	1.	0.1	4.9957
24520	15.517	1.0909	0.1	8.4695
24521	15.608	0.81818	0.1	1.1426
24522	15.517	0.90909	0.1	1.7804
24523	15.608	0.63636	0.1	0.49137
24524	15.517	0.72727	0.1	0.75828
24525	15.608	0.45455	0.1	0.25822
24526	15.517	0.54545	0.1	0.37852
24527	15.608	0.27273	0.1	9.4043e-002
24528	15.517	0.36364	0.1	0.23555
24529	15.517	0.18182	0.1	-1.1612e-002
24530	15.608	9.0909e-002	0.1	-3.7518e-002
24531	15.426	5.7273	0.1	0.12916
24532	15.335	5.8182	0.1	6.7382e-003
24533	15.426	5.9091	0.1	-3.7947e-002
24534	15.426	5.5455	0.1	0.3362
24535	15.335	5.6364	0.1	0.31056
24536	15.426	5.3636	0.1	0.59084
24537	15.335	5.4545	0.1	0.4943
24538	15.426	5.1818	0.1	1.1355
24539	15.335	5.2727	0.1	0.8733
24540	15.426	5.	0.1	2.8779
24541	15.335	5.0909	0.1	1.5942
24542	15.426	4.8182	0.1	14.163
24543	15.335	4.9091	0.1	4.0407
24544	15.426	4.6364	0.1	41.423
24545	15.335	4.7273	0.1	18.273
24546	15.426	4.4545	0.1	75.863
24547	15.335	4.5455	0.1	48.974
24548	15.426	4.2727	0.1	113.51
24549	15.335	4.3636	0.1	87.119
24550	15.426	4.0909	0.1	150.43
24551	15.335	4.1818	0.1	127.58
24552	15.426	3.9091	0.1	182.76
24553	15.335	4.	0.1	165.02
24554	15.426	3.7273	0.1	207.78
24555	15.335	3.8182	0.1	194.8
24556	15.426	3.5455	0.1	224.73
24557	15.335	3.6364	0.1	214.79
24558	15.426	3.3636	0.1	234.66
24559	15.335	3.4545	0.1	225.83
24560	15.426	3.1818	0.1	239.47
24561	15.335	3.2727	0.1	230.63
24562	15.426	3.	0.1	240.85
24563	15.335	3.0909	0.1	232.14
24564	15.426	2.8182	0.1	239.47
24565	15.335	2.9091	0.1	232.14
24566	15.426	2.6364	0.1	234.66
24567	15.335	2.7273	0.1	230.63
24568	15.426	2.4545	0.1	224.73
24569	15.335	2.5455	0.1	225.83
24570	15.426	2.2727	0.1	207.78
24571	15.335	2.3636	0.1	214.79
24572	15.426	2.0909	0.1	182.76
24573	15.335	2.1818	0.1	194.8
24574	15.426	1.9091	0.1	150.43
24575	15.335	2.	0.1	165.02
24576	15.426	1.7273	0.1	113.51
24577	15.335	1.8182	0.1	127.58
24578	15.426	1.5455	0.1	75.863
24579	15.335	1.6364	0.1	87.12
24580	15.426	1.3636	0.1	41.423
24581	15.335	1.4545	0.1	48.974
24582	15.426	1.1818	0.1	14.163
24583	15.335	1.2727	0.1	18.273
24584	15.426	1.	0.1	2.8779
24585	15.335	1.0909	0.1	4.0408
24586	15.426	0.81818	0.1	1.1355
24587	15.335	0.90909	0.1	1.5943
24588	15.426	0.63636	0.1	0.59084
24589	15.335	0.72727	0.1	0.87331
24590	15.426	0.45455	0.1	0.3362
24591	15.335	0.54545	0.1	0.4943
24592	15.426	0.27273	0.1	0.12916
24593	15.335	0.36364	0.1	0.31056
24594	15.335	0.18182	0.1	6.7394e-003
24595	15.426	9.0909e-002	0.1	-3.7946e-002
24596	15.244	5.7273	0.1	0.1944
24597	15.152	5.8182	0.1	6.678e-002
24598	15.244	5.9091	0.1	-4.1988e-002
24599	15.244	5.5455	0.1	0.45492
24600	15.152	5.6364	0.1	0.42975
24601	15.244	5.3636	0.1	0.73994
24602	15.152	5.4545	0.1	0.6695
24603	15.244	5.1818	0.1	1.2128
24604	15.152	5.2727	0.1	1.0414
24605	15.244	5.	0.1	2.1664
24606	15.152	5.0909	0.1	1.5656
24607	15.244	4.8182	0.1	5.7042
24608	15.152	4.9091	0.1	2.6041
24609	15.244	4.6364	0.1	24.192
24610	15.152	4.7273	0.1	6.2557
24611	15.244	4.4545	0.1	58.937
24612	15.152	4.5455	0.1	25.883
24613	15.244	4.2727	0.1	100.09
24614	15.152	4.3636	0.1	65.
24615	15.244	4.0909	0.1	141.28
24616	15.152	4.1818	0.1	110.44
24617	15.244	3.9091	0.1	176.45
24618	15.152	4.	0.1	152.71
24619	15.244	3.7273	0.1	201.56
24620	15.152	3.8182	0.1	184.12
24621	15.244	3.5455	0.1	216.05
24622	15.152	3.6364	0.1	201.66
24623	15.244	3.3636	0.1	222.35
24624	15.152	3.4545	0.1	207.64
24625	15.244	3.1818	0.1	224.13
24626	15.152	3.2727	0.1	207.35
24627	15.244	3.	0.1	224.35
24628	15.152	3.0909	0.1	205.79
24629	15.244	2.8182	0.1	224.13
24630	15.152	2.9091	0.1	205.79
24631	15.244	2.6364	0.1	222.35
24632	15.152	2.7273	0.1	207.35
24633	15.244	2.4545	0.1	216.05
24634	15.152	2.5455	0.1	207.64
24635	15.244	2.2727	0.1	201.56
24636	15.152	2.3636	0.1	201.66
24637	15.244	2.0909	0.1	176.45
24638	15.152	2.1818	0.1	184.12
24639	15.244	1.9091	0.1	141.28
24640	15.152	2.	0.1	152.71
24641	15.244	1.7273	0.1	100.09
24642	15.152	1.8182	0.1	110.44
24643	15.244	1.5455	0.1	58.937
24644	15.152	1.6364	0.1	65.
24645	15.244	1.3636	0.1	24.192
24646	15.152	1.4545	0.1	25.883
24647	15.244	1.1818	0.1	5.7042
24648	15.152	1.2727	0.1	6.2558
24649	15.244	1.	0.1	2.1664
24650	15.152	1.0909	0.1	2.6041
24651	15.244	0.81818	0.1	1.2128
24652	15.152	0.90909	0.1	1.5656
24653	15.244	0.63636	0.1	0.73995
24654	15.152	0.72727	0.1	1.0414
24655	15.244	0.45455	0.1	0.45492
24656	15.152	0.54545	0.1	0.6695
24657	15.244	0.27273	0.1	0.1944
24658	15.152	0.36364	0.1	0.42975
24659	15.152	0.18182	0.1	6.6782e-002
24660	15.244	9.0909e-002	0.1	-4.1988e-002
24661	15.061	5.7273	0.1	0.32184
24662	14.97	5.8182	0.1	0.23069
24663	15.061	5.9091	0.1	-5.3492e-002
24664	15.061	5.5455	0.1	0.64176
24665	14.97	5.6364	0.1	0.64836
24666	15.061	5.3636	0.1	0.95193
24667	14.97	5.4545	0.1	0.94648
24668	15.061	5.1818	0.1	1.3441
24669	14.97	5.2727	0.1	1.2713
24670	15.061	5.	0.1	1.9031
24671	14.97	5.0909	0.1	1.6224
24672	15.061	4.8182	0.1	3.0324
24673	14.97	4.9091	0.1	2.125
24674	15.061	4.6364	0.1	7.1349
24675	14.97	4.7273	0.1	3.1033
24676	15.061	4.4545	0.1	29.931
24677	14.97	4.5455	0.1	6.3171
24678	15.061	4.2727	0.1	73.556
24679	14.97	4.3636	0.1	27.477
24680	15.061	4.0909	0.1	120.47
24681	14.97	4.1818	0.1	76.947
24682	15.061	3.9091	0.1	159.48
24683	14.97	4.	0.1	126.61
24684	15.061	3.7273	0.1	183.94
24685	14.97	3.8182	0.1	160.26
24686	15.061	3.5455	0.1	193.68
24687	14.97	3.6364	0.1	172.99
24688	15.061	3.3636	0.1	193.69
24689	14.97	3.4545	0.1	170.44
24690	15.061	3.1818	0.1	190.49
24691	14.97	3.2727	0.1	162.26
24692	15.061	3.	0.1	188.86
24693	14.97	3.0909	0.1	156.25
24694	15.061	2.8182	0.1	190.49
24695	14.97	2.9091	0.1	156.25
24696	15.061	2.6364	0.1	193.69
24697	14.97	2.7273	0.1	162.26
24698	15.061	2.4545	0.1	193.68
24699	14.97	2.5455	0.1	170.44
24700	15.061	2.2727	0.1	183.94
24701	14.97	2.3636	0.1	172.99
24702	15.061	2.0909	0.1	159.48
24703	14.97	2.1818	0.1	160.26
24704	15.061	1.9091	0.1	120.47
24705	14.97	2.	0.1	126.61
24706	15.061	1.7273	0.1	73.557
24707	14.97	1.8182	0.1	76.948
24708	15.061	1.5455	0.1	29.931
24709	14.97	1.6364	0.1	27.477
24710	15.061	1.3636	0.1	7.135
24711	14.97	1.4545	0.1	6.3172
24712	15.061	1.1818	0.1	3.0324
24713	14.97	1.2727	0.1	3.1033
24714	15.061	1.	0.1	1.9031
24715	14.97	1.0909	0.1	2.1251
24716	15.061	0.81818	0.1	1.3441
24717	14.97	0.90909	0.1	1.6224
24718	15.061	0.63636	0.1	0.95194
24719	14.97	0.72727	0.1	1.2713
24720	15.061	0.45455	0.1	0.64176
24721	14.97	0.54545	0.1	0.94648
24722	15.061	0.27273	0.1	0.32184
24723	14.97	0.36364	0.1	0.64836
24724	14.97	0.18182	0.1	0.23069
24725	15.061	9.0909e-002	0.1	-5.3493e-002
24726	14.879	5.7273	0.1	0.60432
24727	14.788	5.8182	0.1	0.60491
24728	14.879	5.9091	0.1	-5.1867e-002
24729	14.879	5.5455	0.1	0.97064
24730	14.788	5.6364	0.1	1.0619
24731	14.879	5.3636	0.1	1.2611
24732	14.788	5.4545	0.1	1.3573
24733	14.879	5.1818	0.1	1.5297
24734	14.788	5.2727	0.1	1.532
24735	14.879	5.	0.1	1.8424
24736	14.788	5.0909	0.1	1.6984
24737	14.879	4.8182	0.1	2.3171
24738	14.788	4.9091	0.1	1.939
24739	14.879	4.6364	0.1	3.2809
24740	14.788	4.7273	0.1	2.3891
24741	14.879	4.4545	0.1	6.4251
24742	14.788	4.5455	0.1	3.2748
24743	14.879	4.2727	0.1	28.601
24744	14.788	4.3636	0.1	5.2671
24745	14.879	4.0909	0.1	80.975
24746	14.788	4.1818	0.1	22.331
24747	14.879	3.9091	0.1	126.16
24748	14.788	4.	0.1	78.098
24749	14.879	3.7273	0.1	149.19
24750	14.788	3.8182	0.1	115.71
24751	14.879	3.5455	0.1	150.81
24752	14.788	3.6364	0.1	120.67
24753	14.879	3.3636	0.1	141.01
24754	14.788	3.4545	0.1	105.14
24755	14.879	3.1818	0.1	130.57
24756	14.788	3.2727	0.1	86.529
24757	14.879	3.	0.1	126.37
24758	14.788	3.0909	0.1	75.269
24759	14.879	2.8182	0.1	130.57
24760	14.788	2.9091	0.1	75.269
24761	14.879	2.6364	0.1	141.01
24762	14.788	2.7273	0.1	86.529
24763	14.879	2.4545	0.1	150.81
24764	14.788	2.5455	0.1	105.14
24765	14.879	2.2727	0.1	149.19
24766	14.788	2.3636	0.1	120.67
24767	14.879	2.0909	0.1	126.16
24768	14.788	2.1818	0.1	115.71
24769	14.879	1.9091	0.1	80.975
24770	14.788	2.	0.1	78.099
24771	14.879	1.7273	0.1	28.601
24772	14.788	1.8182	0.1	22.331
24773	14.879	1.5455	0.1	6.4251
24774	14.788	1.6364	0.1	5.2672
24775	14.879	1.3636	0.1	3.2809
24776	14.788	1.4545	0.1	3.2748
24777	14.879	1.1818	0.1	2.3171
24778	14.788	1.2727	0.1	2.3891
24779	14.879	1.	0.1	1.8424
24780	14.788	1.0909	0.1	1.939
24781	14.879	0.81818	0.1	1.5297
24782	14.788	0.90909	0.1	1.6984
24783	14.879	0.63636	0.1	1.2611
24784	14.788	0.72727	0.1	1.532
24785	14.879	0.45455	0.1	0.97064
24786	14.788	0.54545	0.1	1.3573
24787	14.879	0.27273	0.1	0.60432
24788	14.788	0.36364	0.1	1.062
24789	14.788	0.18182	0.1	0.60492
24790	14.879	9.0909e-002	0.1	-5.1867e-002
24791	14.696	5.7273	0.1	1.1705
24792	14.605	5.8182	0.1	1.5731
24793	14.696	5.9091	0.1	-6.8336e-002
24794	14.696	5.5455	0.1	1.4895
24795	14.605	5.6364	0.1	2.0009
24796	14.696	5.3636	0.1	1.6124
24797	14.605	5.4545	0.1	2.0191
24798	14.696	5.1818	0.1	1.6745
24799	14.605	5.2727	0.1	1.8832
24800	14.696	5.	0.1	1.7985
24801	14.605	5.0909	0.1	1.8662
24802	14.696	4.8182	0.1	2.083
24803	14.605	4.9091	0.1	2.0478
24804	14.696	4.6364	0.1	2.6143
24805	14.605	4.7273	0.1	2.3992
24806	14.696	4.4545	0.1	3.0875
24807	14.605	4.5455	0.1	2.892
24808	14.696	4.2727	0.1	4.7633
24809	14.605	4.3636	0.1	5.0468
24810	14.696	4.0909	0.1	17.866
24811	14.605	4.1818	0.1	5.5769
24812	14.696	3.9091	0.1	66.134
24813	14.605	4.	0.1	11.809
24814	14.696	3.7273	0.1	87.831
24815	14.605	3.8182	0.1	39.959
24816	14.696	3.5455	0.1	77.608
24817	14.605	3.6364	0.1	32.704
24818	14.696	3.3636	0.1	54.478
24819	14.605	3.4545	0.1	6.8325
24820	14.696	3.1818	0.1	35.401
24821	14.605	3.2727	0.1	0.14891
24822	14.696	3.	0.1	28.316
24823	14.605	3.0909	0.1	-0.62552
24824	14.696	2.8182	0.1	35.401
24825	14.605	2.9091	0.1	-0.62552
24826	14.696	2.6364	0.1	54.478
24827	14.605	2.7273	0.1	0.14892
24828	14.696	2.4545	0.1	77.608
24829	14.605	2.5455	0.1	6.8325
24830	14.696	2.2727	0.1	87.831
24831	14.605	2.3636	0.1	32.704
24832	14.696	2.0909	0.1	66.135
24833	14.605	2.1818	0.1	39.96
24834	14.696	1.9091	0.1	17.866
24835	14.605	2.	0.1	11.809
24836	14.696	1.7273	0.1	4.7633
24837	14.605	1.8182	0.1	5.5769
24838	14.696	1.5455	0.1	3.0875
24839	14.605	1.6364	0.1	5.0469
24840	14.696	1.3636	0.1	2.6143
24841	14.605	1.4545	0.1	2.892
24842	14.696	1.1818	0.1	2.083
24843	14.605	1.2727	0.1	2.3992
24844	14.696	1.	0.1	1.7985
24845	14.605	1.0909	0.1	2.0478
24846	14.696	0.81818	0.1	1.6745
24847	14.605	0.90909	0.1	1.8662
24848	14.696	0.63636	0.1	1.6124
24849	14.605	0.72727	0.1	1.8832
24850	14.696	0.45455	0.1	1.4896
24851	14.605	0.54545	0.1	2.0191
24852	14.696	0.27273	0.1	1.1705
24853	14.605	0.36364	0.1	2.0009
24854	14.605	0.18182	0.1	1.5731
24855	14.696	9.0909e-002	0.1	-6.8336e-002
24856	14.514	5.7273	0.1	2.6383
24857	14.423	5.8182	0.1	3.4458
24858	14.514	5.9091	0.1	0.26491
24859	14.514	5.5455	0.1	2.5154
24860	14.423	5.6364	0.1	3.2988
24861	14.514	5.3636	0.1	2.1887
24862	14.423	5.4545	0.1	2.3809
24863	14.514	5.1818	0.1	2.0092
24864	14.423	5.2727	0.1	1.7476
24865	14.514	5.	0.1	2.099
24866	14.423	5.0909	0.1	1.5391
24867	14.514	4.8182	0.1	2.3924
24868	14.423	4.9091	0.1	1.5668
24869	14.514	4.6364	0.1	2.7622
24870	14.423	4.7273	0.1	1.8554
24871	14.514	4.4545	0.1	5.0491
24872	14.423	4.5455	0.1	2.4577
24873	14.514	4.2727	0.1	6.4476
24874	14.423	4.3636	0.1	3.8714
24875	14.514	4.0909	0.1	8.2152
24876	14.423	4.1818	0.1	1.3421
24877	14.514	3.9091	0.1	7.4987
24878	14.423	4.	0.1	-17.989
24879	14.514	3.7273	0.1	1.3376
24880	14.423	3.8182	0.1	-8.0574
24881	14.514	3.5455	0.1	0.41393
24882	14.423	3.6364	0.1	2.8372
24883	14.514	3.3636	0.1	0.16945
24884	14.423	3.4545	0.1	0.31923
24885	14.514	3.1818	0.1	-0.53337
24886	14.423	3.2727	0.1	-0.16634
24887	14.514	3.	0.1	-0.63993
24888	14.423	3.0909	0.1	-0.30597
24889	14.514	2.8182	0.1	-0.53337
24890	14.423	2.9091	0.1	-0.30597
24891	14.514	2.6364	0.1	0.16946
24892	14.423	2.7273	0.1	-0.16633
24893	14.514	2.4545	0.1	0.41395
24894	14.423	2.5455	0.1	0.31924
24895	14.514	2.2727	0.1	1.3376
24896	14.423	2.3636	0.1	2.8372
24897	14.514	2.0909	0.1	7.4987
24898	14.423	2.1818	0.1	-8.0574
24899	14.514	1.9091	0.1	8.2152
24900	14.423	2.	0.1	-17.989
24901	14.514	1.7273	0.1	6.4476
24902	14.423	1.8182	0.1	1.3421
24903	14.514	1.5455	0.1	5.0491
24904	14.423	1.6364	0.1	3.8714
24905	14.514	1.3636	0.1	2.7622
24906	14.423	1.4545	0.1	2.4577
24907	14.514	1.1818	0.1	2.3924
24908	14.423	1.2727	0.1	1.8554
24909	14.514	1.	0.1	2.099
24910	14.423	1.0909	0.1	1.5668
24911	14.514	0.81818	0.1	2.0092
24912	14.423	0.90909	0.1	1.5391
24913	14.514	0.63636	0.1	2.1887
24914	14.423	0.72727	0.1	1.7476
24915	14.514	0.45455	0.1	2.5155
24916	14.423	0.54545	0.1	2.3809
24917	14.514	0.27273	0.1	2.6383
24918	14.423	0.36364	0.1	3.2988
24919	14.423	0.18182	0.1	3.4458
24920	14.514	9.0909e-002	0.1	0.26491
24921	14.332	5.7273	0.1	4.421
24922	14.24	5.8182	0.1	9.696
24923	14.332	5.9091	0.1	0.53112
24924	14.332	5.5455	0.1	2.6991
24925	14.24	5.6364	0.1	5.763
24926	14.332	5.3636	0.1	1.6581
24927	14.24	5.4545	0.1	3.8774
24928	14.332	5.1818	0.1	1.1497
24929	14.24	5.2727	0.1	3.0739
24930	14.332	5.	0.1	0.95019
24931	14.24	5.0909	0.1	2.8997
24932	14.332	4.8182	0.1	1.0161
24933	14.24	4.9091	0.1	3.3671
24934	14.332	4.6364	0.1	1.563
24935	14.24	4.7273	0.1	3.1956
24936	14.332	4.4545	0.1	1.2948
24937	14.24	4.5455	0.1	8.4729
24938	14.332	4.2727	0.1	-1.7233
24939	14.24	4.3636	0.1	-1.7055
24940	14.332	4.0909	0.1	-24.85
24941	14.24	4.1818	0.1	43.692
24942	14.332	3.9091	0.1	-34.048
24943	14.24	4.	0.1	140.07
24944	14.332	3.7273	0.1	-6.4098
24945	14.24	3.8182	0.1	-2.3701
24946	14.332	3.5455	0.1	3.299
24947	14.24	3.6364	0.1	8.7426
24948	14.332	3.3636	0.1	-1.2198e-002
24949	14.24	3.4545	0.1	-1.276
24950	14.332	3.1818	0.1	-2.1977e-002
24951	14.24	3.2727	0.1	0.94818
24952	14.332	3.	0.1	-6.26e-002
24953	14.24	3.0909	0.1	9.6981e-002
24954	14.332	2.8182	0.1	-2.1977e-002
24955	14.24	2.9091	0.1	9.698e-002
24956	14.332	2.6364	0.1	-1.2194e-002
24957	14.24	2.7273	0.1	0.94819
24958	14.332	2.4545	0.1	3.299
24959	14.24	2.5455	0.1	-1.276
24960	14.332	2.2727	0.1	-6.4098
24961	14.24	2.3636	0.1	8.7426
24962	14.332	2.0909	0.1	-34.048
24963	14.24	2.1818	0.1	-2.3701
24964	14.332	1.9091	0.1	-24.85
24965	14.24	2.	0.1	140.07
24966	14.332	1.7273	0.1	-1.7233
24967	14.24	1.8182	0.1	43.692
24968	14.332	1.5455	0.1	1.2948
24969	14.24	1.6364	0.1	-1.7055
24970	14.332	1.3636	0.1	1.563
24971	14.24	1.4545	0.1	8.4729
24972	14.332	1.1818	0.1	1.0161
24973	14.24	1.2727	0.1	3.1956
24974	14.332	1.	0.1	0.95019
24975	14.24	1.0909	0.1	3.3671
24976	14.332	0.81818	0.1	1.1497
24977	14.24	0.90909	0.1	2.8997
24978	14.332	0.63636	0.1	1.6581
24979	14.24	0.72727	0.1	3.0739
24980	14.332	0.45455	0.1	2.6991
24981	14.24	0.54545	0.1	3.8774
24982	14.332	0.27273	0.1	4.421
24983	14.24	0.36364	0.1	5.763
24984	14.24	0.18182	0.1	9.696
24985	14.332	9.0909e-002	0.1	0.53112
24986	14.149	5.7273	0.1	9.301
24987	14.058	5.8182	0.1	0.24442
24988	14.149	5.9091	0.1	7.6863
24989	14.149	5.5455	0.1	5.471
24990	14.058	5.6364	0.1	-1.778
24991	14.149	5.3636	0.1	4.5984
24992	14.058	5.4545	0.1	-1.1489
24993	14.149	5.1818	0.1	4.3811
24994	14.058	5.2727	0.1	-1.1397
24995	14.149	5.	0.1	4.9691
24996	14.058	5.0909	0.1	-1.3256
24997	14.149	4.8182	0.1	5.247
24998	14.058	4.9091	0.1	-0.54706
24999	14.149	4.6364	0.1	9.7979
25000	14.058	4.7273	0.1	-3.4766
25001	14.149	4.4545	0.1	5.146
25002	14.058	4.5455	0.1	8.6996
25003	14.149	4.2727	0.1	43.239
25004	14.058	4.3636	0.1	-38.721
25005	14.149	4.0909	0.1	209.04
25006	14.058	4.1818	0.1	170.84
25007	14.149	3.9091	0.1	140.14
25008	14.058	4.	0.1	292.78
25009	14.149	3.7273	0.1	10.558
25010	14.058	3.8182	0.1	-5.2982
25011	14.149	3.5455	0.1	3.9827
25012	14.058	3.6364	0.1	17.118
25013	14.149	3.3636	0.1	-0.5115
25014	14.058	3.4545	0.1	-1.8415
25015	14.149	3.1818	0.1	0.98977
25016	14.058	3.2727	0.1	2.1645
25017	14.149	3.	0.1	0.18033
25018	14.058	3.0909	0.1	0.71302
25019	14.149	2.8182	0.1	0.98977
25020	14.058	2.9091	0.1	0.71302
25021	14.149	2.6364	0.1	-0.5115
25022	14.058	2.7273	0.1	2.1645
25023	14.149	2.4545	0.1	3.9827
25024	14.058	2.5455	0.1	-1.8415
25025	14.149	2.2727	0.1	10.558
25026	14.058	2.3636	0.1	17.118
25027	14.149	2.0909	0.1	140.14
25028	14.058	2.1818	0.1	-5.298
25029	14.149	1.9091	0.1	209.04
25030	14.058	2.	0.1	292.78
25031	14.149	1.7273	0.1	43.239
25032	14.058	1.8182	0.1	170.84
25033	14.149	1.5455	0.1	5.146
25034	14.058	1.6364	0.1	-38.721
25035	14.149	1.3636	0.1	9.7979
25036	14.058	1.4545	0.1	8.6996
25037	14.149	1.1818	0.1	5.247
25038	14.058	1.2727	0.1	-3.4766
25039	14.149	1.	0.1	4.9691
25040	14.058	1.0909	0.1	-0.54706
25041	14.149	0.81818	0.1	4.3811
25042	14.058	0.90909	0.1	-1.3256
25043	14.149	0.63636	0.1	4.5984
25044	14.058	0.72727	0.1	-1.1397
25045	14.149	0.45455	0.1	5.471
25046	14.058	0.54545	0.1	-1.1489
25047	14.149	0.27273	0.1	9.301
25048	14.058	0.36364	0.1	-1.778
25049	14.058	0.18182	0.1	0.24443
25050	14.149	9.0909e-002	0.1	7.6863
25051	0.184	0.27273	0.1	411.79
25052	0.276	0.18182	0.1	2.8005
25053	9.2e-002	0.18182	0.1	571.44
25054	0.184	9.0909e-002	0.1	-88.455
25055	0.184	0.45455	0.1	1044.9
25056	0.276	0.36364	0.1	742.98
25057	9.2e-002	0.36364	0.1	1564.3
25058	0.184	0.63636	0.1	1384.
25059	0.276	0.54545	0.1	1244.5
25060	9.2e-002	0.54545	0.1	2040.9
25061	0.184	0.81818	0.1	1586.5
25062	0.276	0.72727	0.1	1555.1
25063	9.2e-002	0.72727	0.1	2319.5
25064	0.184	1.	0.1	1719.2
25065	0.276	0.90909	0.1	1756.
25066	9.2e-002	0.90909	0.1	2501.8
25067	0.184	1.1818	0.1	1812.8
25068	0.276	1.0909	0.1	1894.
25069	9.2e-002	1.0909	0.1	2630.6
25070	0.184	1.3636	0.1	1881.7
25071	0.276	1.2727	0.1	1993.3
25072	9.2e-002	1.2727	0.1	2725.4
25073	0.184	1.5455	0.1	1933.8
25074	0.276	1.4545	0.1	2067.2
25075	9.2e-002	1.4545	0.1	2797.1
25076	0.184	1.7273	0.1	1973.9
25077	0.276	1.6364	0.1	2123.4
25078	9.2e-002	1.6364	0.1	2852.2
25079	0.184	1.9091	0.1	2004.9
25080	0.276	1.8182	0.1	2166.5
25081	9.2e-002	1.8182	0.1	2895.
25082	0.184	2.0909	0.1	2028.7
25083	0.276	2.	0.1	2199.8
25084	9.2e-002	2.	0.1	2928.1
25085	0.184	2.2727	0.1	2046.9
25086	0.276	2.1818	0.1	2225.2
25087	9.2e-002	2.1818	0.1	2953.5
25088	0.184	2.4545	0.1	2060.1
25089	0.276	2.3636	0.1	2244.2
25090	9.2e-002	2.3636	0.1	2972.5
25091	0.184	2.6364	0.1	2069.2
25092	0.276	2.5455	0.1	2257.7
25093	9.2e-002	2.5455	0.1	2986.1
25094	0.184	2.8182	0.1	2074.5
25095	0.276	2.7273	0.1	2266.4
25096	9.2e-002	2.7273	0.1	2994.8
25097	0.184	3.	0.1	2076.2
25098	0.276	2.9091	0.1	2270.6
25099	9.2e-002	2.9091	0.1	2999.1
25100	0.184	3.1818	0.1	2074.5
25101	0.276	3.0909	0.1	2270.6
25102	9.2e-002	3.0909	0.1	2999.1
25103	0.184	3.3636	0.1	2069.2
25104	0.276	3.2727	0.1	2266.4
25105	9.2e-002	3.2727	0.1	2994.8
25106	0.184	3.5455	0.1	2060.1
25107	0.276	3.4545	0.1	2257.7
25108	9.2e-002	3.4545	0.1	2986.1
25109	0.184	3.7273	0.1	2046.9
25110	0.276	3.6364	0.1	2244.2
25111	9.2e-002	3.6364	0.1	2972.5
25112	0.184	3.9091	0.1	2028.7
25113	0.276	3.8182	0.1	2225.2
25114	9.2e-002	3.8182	0.1	2953.5
25115	0.184	4.0909	0.1	2004.9
25116	0.276	4.	0.1	2199.8
25117	9.2e-002	4.	0.1	2928.1
25118	0.184	4.2727	0.1	1973.9
25119	0.276	4.1818	0.1	2166.5
25120	9.2e-002	4.1818	0.1	2895.
25121	0.184	4.4545	0.1	1933.8
25122	0.276	4.3636	0.1	2123.4
25123	9.2e-002	4.3636	0.1	2852.2
25124	0.184	4.6364	0.1	1881.7
25125	0.276	4.5455	0.1	2067.2
25126	9.2e-002	4.5455	0.1	2797.1
25127	0.184	4.8182	0.1	1812.8
25128	0.276	4.7273	0.1	1993.3
25129	9.2e-002	4.7273	0.1	2725.4
25130	0.184	5.	0.1	1719.2
25131	0.276	4.9091	0.1	1894.
25132	9.2e-002	4.9091	0.1	2630.6
25133	0.184	5.1818	0.1	1586.5
25134	0.276	5.0909	0.1	1756.
25135	9.2e-002	5.0909	0.1	2501.8
25136	0.184	5.3636	0.1	1384.
25137	0.276	5.2727	0.1	1555.1
25138	9.2e-002	5.2727	0.1	2319.5
25139	0.184	5.5455	0.1	1044.9
25140	0.276	5.4545	0.1	1244.5
25141	9.2e-002	5.4545	0.1	2040.9
25142	0.184	5.7273	0.1	411.79
25143	0.276	5.6364	0.1	742.97
25144	9.2e-002	5.6364	0.1	1564.3
25145	0.276	5.8182	0.1	2.8003
25146	9.2e-002	5.8182	0.1	571.44
25147	0.184	5.9091	0.1	-88.455
25148	0.368	0.27273	0.1	306.28
25149	0.46	0.18182	0.1	41.434
25150	0.368	9.0909e-002	0.1	23.608
25151	0.368	0.45455	0.1	942.13
25152	0.46	0.36364	0.1	536.42
25153	0.368	0.63636	0.1	1408.3
25154	0.46	0.54545	0.1	1040.
25155	0.368	0.81818	0.1	1717.9
25156	0.46	0.72727	0.1	1408.9
25157	0.368	1.	0.1	1926.2
25158	0.46	0.90909	0.1	1668.7
25159	0.368	1.1818	0.1	2071.6
25160	0.46	1.0909	0.1	1852.6
25161	0.368	1.3636	0.1	2177.
25162	0.46	1.2727	0.1	1985.8
25163	0.368	1.5455	0.1	2255.6
25164	0.46	1.4545	0.1	2084.5
25165	0.368	1.7273	0.1	2315.3
25166	0.46	1.6364	0.1	2159.1
25167	0.368	1.9091	0.1	2361.
25168	0.46	1.8182	0.1	2216.
25169	0.368	2.0909	0.1	2396.
25170	0.46	2.	0.1	2259.7
25171	0.368	2.2727	0.1	2422.4
25172	0.46	2.1818	0.1	2292.9
25173	0.368	2.4545	0.1	2441.7
25174	0.46	2.3636	0.1	2317.6
25175	0.368	2.6364	0.1	2454.8
25176	0.46	2.5455	0.1	2335.1
25177	0.368	2.8182	0.1	2462.5
25178	0.46	2.7273	0.1	2346.3
25179	0.368	3.	0.1	2465.
25180	0.46	2.9091	0.1	2351.8
25181	0.368	3.1818	0.1	2462.5
25182	0.46	3.0909	0.1	2351.8
25183	0.368	3.3636	0.1	2454.8
25184	0.46	3.2727	0.1	2346.3
25185	0.368	3.5455	0.1	2441.7
25186	0.46	3.4545	0.1	2335.1
25187	0.368	3.7273	0.1	2422.4
25188	0.46	3.6364	0.1	2317.6
25189	0.368	3.9091	0.1	2396.
25190	0.46	3.8182	0.1	2292.9
25191	0.368	4.0909	0.1	2361.
25192	0.46	4.	0.1	2259.7
25193	0.368	4.2727	0.1	2315.3
25194	0.46	4.1818	0.1	2216.
25195	0.368	4.4545	0.1	2255.6
25196	0.46	4.3636	0.1	2159.1
25197	0.368	4.6364	0.1	2177.
25198	0.46	4.5455	0.1	2084.5
25199	0.368	4.8182	0.1	2071.6
25200	0.46	4.7273	0.1	1985.8
25201	0.368	5.	0.1	1926.2
25202	0.46	4.9091	0.1	1852.6
25203	0.368	5.1818	0.1	1717.9
25204	0.46	5.0909	0.1	1668.7
25205	0.368	5.3636	0.1	1408.3
25206	0.46	5.2727	0.1	1408.9
25207	0.368	5.5455	0.1	942.13
25208	0.46	5.4545	0.1	1040.
25209	0.368	5.7273	0.1	306.28
25210	0.46	5.6364	0.1	536.41
25211	0.46	5.8182	0.1	41.434
25212	0.368	5.9091	0.1	23.608
25213	0.552	0.27273	0.1	169.09
25214	0.644	0.18182	0.1	9.8282
25215	0.552	9.0909e-002	0.1	-9.0498
25216	0.552	0.45455	0.1	637.17
25217	0.644	0.36364	0.1	375.46
25218	0.552	0.63636	0.1	1043.5
25219	0.644	0.54545	0.1	784.06
25220	0.552	0.81818	0.1	1360.6
25221	0.644	0.72727	0.1	1130.9
25222	0.552	1.	0.1	1594.8
25223	0.644	0.90909	0.1	1402.4
25224	0.552	1.1818	0.1	1766.1
25225	0.644	1.0909	0.1	1608.1
25226	0.552	1.3636	0.1	1892.7
25227	0.644	1.2727	0.1	1763.
25228	0.552	1.5455	0.1	1987.5
25229	0.644	1.4545	0.1	1880.1
25230	0.552	1.7273	0.1	2059.5
25231	0.644	1.6364	0.1	1969.4
25232	0.552	1.9091	0.1	2114.5
25233	0.644	1.8182	0.1	2037.9
25234	0.552	2.0909	0.1	2156.4
25235	0.644	2.	0.1	2090.4
25236	0.552	2.2727	0.1	2188.
25237	0.644	2.1818	0.1	2130.3
25238	0.552	2.4545	0.1	2211.
25239	0.644	2.3636	0.1	2160.
25240	0.552	2.6364	0.1	2226.6
25241	0.644	2.5455	0.1	2181.
25242	0.552	2.8182	0.1	2235.7
25243	0.644	2.7273	0.1	2194.5
25244	0.552	3.	0.1	2238.7
25245	0.644	2.9091	0.1	2201.1
25246	0.552	3.1818	0.1	2235.7
25247	0.644	3.0909	0.1	2201.1
25248	0.552	3.3636	0.1	2226.6
25249	0.644	3.2727	0.1	2194.5
25250	0.552	3.5455	0.1	2211.
25251	0.644	3.4545	0.1	2181.
25252	0.552	3.7273	0.1	2188.
25253	0.644	3.6364	0.1	2160.
25254	0.552	3.9091	0.1	2156.4
25255	0.644	3.8182	0.1	2130.3
25256	0.552	4.0909	0.1	2114.5
25257	0.644	4.	0.1	2090.4
25258	0.552	4.2727	0.1	2059.5
25259	0.644	4.1818	0.1	2037.9
25260	0.552	4.4545	0.1	1987.5
25261	0.644	4.3636	0.1	1969.4
25262	0.552	4.6364	0.1	1892.7
25263	0.644	4.5455	0.1	1880.1
25264	0.552	4.8182	0.1	1766.1
25265	0.644	4.7273	0.1	1763.
25266	0.552	5.	0.1	1594.8
25267	0.644	4.9091	0.1	1608.1
25268	0.552	5.1818	0.1	1360.6
25269	0.644	5.0909	0.1	1402.4
25270	0.552	5.3636	0.1	1043.5
25271	0.644	5.2727	0.1	1130.9
25272	0.552	5.5455	0.1	637.17
25273	0.644	5.4545	0.1	784.06
25274	0.552	5.7273	0.1	169.09
25275	0.644	5.6364	0.1	375.46
25276	0.644	5.8182	0.1	9.8282
25277	0.552	5.9091	0.1	-9.0498
25278	0.736	0.27273	0.1	145.75
25279	0.828	0.18182	0.1	16.376
25280	0.736	9.0909e-002	0.1	1.4194
25281	0.736	0.45455	0.1	522.64
25282	0.828	0.36364	0.1	311.39
25283	0.736	0.63636	0.1	873.09
25284	0.828	0.54545	0.1	648.37
25285	0.736	0.81818	0.1	1174.2
25286	0.828	0.72727	0.1	957.35
25287	0.736	1.	0.1	1416.6
25288	0.828	0.90909	0.1	1219.7
25289	0.736	1.1818	0.1	1605.3
25290	0.828	1.0909	0.1	1432.
25291	0.736	1.3636	0.1	1750.4
25292	0.828	1.2727	0.1	1599.8
25293	0.736	1.5455	0.1	1861.9
25294	0.828	1.4545	0.1	1731.
25295	0.736	1.7273	0.1	1947.7
25296	0.828	1.6364	0.1	1833.3
25297	0.736	1.9091	0.1	2013.7
25298	0.828	1.8182	0.1	1912.9
25299	0.736	2.0909	0.1	2064.2
25300	0.828	2.	0.1	1974.4
25301	0.736	2.2727	0.1	2102.3
25302	0.828	2.1818	0.1	2021.4
25303	0.736	2.4545	0.1	2130.1
25304	0.828	2.3636	0.1	2056.5
25305	0.736	2.6364	0.1	2149.
25306	0.828	2.5455	0.1	2081.4
25307	0.736	2.8182	0.1	2160.
25308	0.828	2.7273	0.1	2097.4
25309	0.736	3.	0.1	2163.6
25310	0.828	2.9091	0.1	2105.2
25311	0.736	3.1818	0.1	2160.
25312	0.828	3.0909	0.1	2105.2
25313	0.736	3.3636	0.1	2149.
25314	0.828	3.2727	0.1	2097.4
25315	0.736	3.5455	0.1	2130.1
25316	0.828	3.4545	0.1	2081.4
25317	0.736	3.7273	0.1	2102.3
25318	0.828	3.6364	0.1	2056.5
25319	0.736	3.9091	0.1	2064.2
25320	0.828	3.8182	0.1	2021.4
25321	0.736	4.0909	0.1	2013.7
25322	0.828	4.	0.1	1974.4
25323	0.736	4.2727	0.1	1947.7
25324	0.828	4.1818	0.1	1912.9
25325	0.736	4.4545	0.1	1861.9
25326	0.828	4.3636	0.1	1833.3
25327	0.736	4.6364	0.1	1750.4
25328	0.828	4.5455	0.1	1731.
25329	0.736	4.8182	0.1	1605.3
25330	0.828	4.7273	0.1	1599.8
25331	0.736	5.	0.1	1416.6
25332	0.828	4.9091	0.1	1432.
25333	0.736	5.1818	0.1	1174.2
25334	0.828	5.0909	0.1	1219.7
25335	0.736	5.3636	0.1	873.09
25336	0.828	5.2727	0.1	957.35
25337	0.736	5.5455	0.1	522.64
25338	0.828	5.4545	0.1	648.37
25339	0.736	5.7273	0.1	145.75
25340	0.828	5.6364	0.1	311.39
25341	0.828	5.8182	0.1	16.376
25342	0.736	5.9091	0.1	1.4194
25343	0.92	0.27273	0.1	127.59
25344	1.012	0.18182	0.1	15.882
25345	0.92	9.0909e-002	0.1	-1.0315
25346	0.92	0.45455	0.1	436.46
25347	1.012	0.36364	0.1	269.51
25348	0.92	0.63636	0.1	733.16
25349	1.012	0.54545	0.1	551.13
25350	0.92	0.81818	0.1	1003.8
25351	1.012	0.72727	0.1	820.41
25352	0.92	1.	0.1	1236.1
25353	1.012	0.90909	0.1	1061.9
25354	0.92	1.1818	0.1	1427.2
25355	1.012	1.0909	0.1	1268.
25356	0.92	1.3636	0.1	1580.9
25357	1.012	1.2727	0.1	1438.4
25358	0.92	1.5455	0.1	1702.8
25359	1.012	1.4545	0.1	1576.6
25360	0.92	1.7273	0.1	1798.7
25361	1.012	1.6364	0.1	1687.3
25362	0.92	1.9091	0.1	1873.7
25363	1.012	1.8182	0.1	1775.
25364	0.92	2.0909	0.1	1931.6
25365	1.012	2.	0.1	1843.8
25366	0.92	2.2727	0.1	1975.6
25367	1.012	2.1818	0.1	1896.9
25368	0.92	2.4545	0.1	2007.9
25369	1.012	2.3636	0.1	1936.8
25370	0.92	2.6364	0.1	2029.9
25371	1.012	2.5455	0.1	1965.3
25372	0.92	2.8182	0.1	2042.7
25373	1.012	2.7273	0.1	1983.6
25374	0.92	3.	0.1	2046.9
25375	1.012	2.9091	0.1	1992.6
25376	0.92	3.1818	0.1	2042.7
25377	1.012	3.0909	0.1	1992.6
25378	0.92	3.3636	0.1	2029.9
25379	1.012	3.2727	0.1	1983.6
25380	0.92	3.5455	0.1	2007.9
25381	1.012	3.4545	0.1	1965.3
25382	0.92	3.7273	0.1	1975.6
25383	1.012	3.6364	0.1	1936.8
25384	0.92	3.9091	0.1	1931.6
25385	1.012	3.8182	0.1	1896.9
25386	0.92	4.0909	0.1	1873.7
25387	1.012	4.	0.1	1843.8
25388	0.92	4.2727	0.1	1798.7
25389	1.012	4.1818	0.1	1775.
25390	0.92	4.4545	0.1	1702.8
25391	1.012	4.3636	0.1	1687.3
25392	0.92	4.6364	0.1	1580.9
25393	1.012	4.5455	0.1	1576.6
25394	0.92	4.8182	0.1	1427.2
25395	1.012	4.7273	0.1	1438.4
25396	0.92	5.	0.1	1236.1
25397	1.012	4.9091	0.1	1268.
25398	0.92	5.1818	0.1	1003.8
25399	1.012	5.0909	0.1	1061.9
25400	0.92	5.3636	0.1	733.16
25401	1.012	5.2727	0.1	820.41
25402	0.92	5.5455	0.1	436.46
25403	1.012	5.4545	0.1	551.13
25404	0.92	5.7273	0.1	127.59
25405	1.012	5.6364	0.1	269.51
25406	1.012	5.8182	0.1	15.882
25407	0.92	5.9091	0.1	-1.0315
25408	1.104	0.27273	0.1	121.47
25409	1.196	0.18182	0.1	18.969
25410	1.104	9.0909e-002	0.1	-6.5176e-003
25411	1.104	0.45455	0.1	383.39
25412	1.196	0.36364	0.1	243.81
25413	1.104	0.63636	0.1	638.36
25414	1.196	0.54545	0.1	484.75
25415	1.104	0.81818	0.1	878.95
25416	1.196	0.72727	0.1	720.03
25417	1.104	1.	0.1	1094.5
25418	1.196	0.90909	0.1	938.44
25419	1.104	1.1818	0.1	1279.9
25420	1.196	1.0909	0.1	1132.2
25421	1.104	1.3636	0.1	1434.7
25422	1.196	1.2727	0.1	1298.6
25423	1.104	1.5455	0.1	1561.6
25424	1.196	1.4545	0.1	1437.9
25425	1.104	1.7273	0.1	1663.9
25426	1.196	1.6364	0.1	1552.4
25427	1.104	1.9091	0.1	1745.4
25428	1.196	1.8182	0.1	1645.2
25429	1.104	2.0909	0.1	1809.3
25430	1.196	2.	0.1	1719.2
25431	1.104	2.2727	0.1	1858.3
25432	1.196	2.1818	0.1	1777.1
25433	1.104	2.4545	0.1	1894.5
25434	1.196	2.3636	0.1	1820.9
25435	1.104	2.6364	0.1	1919.3
25436	1.196	2.5455	0.1	1852.4
25437	1.104	2.8182	0.1	1933.7
25438	1.196	2.7273	0.1	1872.8
25439	1.104	3.	0.1	1938.5
25440	1.196	2.9091	0.1	1882.8
25441	1.104	3.1818	0.1	1933.7
25442	1.196	3.0909	0.1	1882.8
25443	1.104	3.3636	0.1	1919.3
25444	1.196	3.2727	0.1	1872.8
25445	1.104	3.5455	0.1	1894.5
25446	1.196	3.4545	0.1	1852.4
25447	1.104	3.7273	0.1	1858.3
25448	1.196	3.6364	0.1	1820.9
25449	1.104	3.9091	0.1	1809.3
25450	1.196	3.8182	0.1	1777.1
25451	1.104	4.0909	0.1	1745.4
25452	1.196	4.	0.1	1719.2
25453	1.104	4.2727	0.1	1663.9
25454	1.196	4.1818	0.1	1645.2
25455	1.104	4.4545	0.1	1561.6
25456	1.196	4.3636	0.1	1552.4
25457	1.104	4.6364	0.1	1434.7
25458	1.196	4.5455	0.1	1437.9
25459	1.104	4.8182	0.1	1279.9
25460	1.196	4.7273	0.1	1298.6
25461	1.104	5.	0.1	1094.5
25462	1.196	4.9091	0.1	1132.2
25463	1.104	5.1818	0.1	878.95
25464	1.196	5.0909	0.1	938.44
25465	1.104	5.3636	0.1	638.36
25466	1.196	5.2727	0.1	720.03
25467	1.104	5.5455	0.1	383.39
25468	1.196	5.4545	0.1	484.75
25469	1.104	5.7273	0.1	121.47
25470	1.196	5.6364	0.1	243.81
25471	1.196	5.8182	0.1	18.969
25472	1.104	5.9091	0.1	-6.5195e-003
25473	1.288	0.27273	0.1	117.91
25474	1.38	0.18182	0.1	22.995
25475	1.288	9.0909e-002	0.1	0.15918
25476	1.288	0.45455	0.1	344.42
25477	1.38	0.36364	0.1	225.26
25478	1.288	0.63636	0.1	566.16
25479	1.38	0.54545	0.1	434.93
25480	1.288	0.81818	0.1	779.63
25481	1.38	0.72727	0.1	641.92
25482	1.288	1.	0.1	976.54
25483	1.38	0.90909	0.1	838.31
25484	1.288	1.1818	0.1	1151.4
25485	1.38	1.0909	0.1	1017.4
25486	1.288	1.3636	0.1	1302.2
25487	1.38	1.2727	0.1	1175.6
25488	1.288	1.5455	0.1	1429.2
25489	1.38	1.4545	0.1	1311.8
25490	1.288	1.7273	0.1	1534.2
25491	1.38	1.6364	0.1	1426.5
25492	1.288	1.9091	0.1	1619.4
25493	1.38	1.8182	0.1	1521.3
25494	1.288	2.0909	0.1	1687.3
25495	1.38	2.	0.1	1598.2
25496	1.288	2.2727	0.1	1740.
25497	1.38	2.1818	0.1	1659.1
25498	1.288	2.4545	0.1	1779.1
25499	1.38	2.3636	0.1	1705.8
25500	1.288	2.6364	0.1	1806.2
25501	1.38	2.5455	0.1	1739.5
25502	1.288	2.8182	0.1	1822.
25503	1.38	2.7273	0.1	1761.4
25504	1.288	3.	0.1	1827.2
25505	1.38	2.9091	0.1	1772.2
25506	1.288	3.1818	0.1	1822.
25507	1.38	3.0909	0.1	1772.2
25508	1.288	3.3636	0.1	1806.2
25509	1.38	3.2727	0.1	1761.4
25510	1.288	3.5455	0.1	1779.1
25511	1.38	3.4545	0.1	1739.5
25512	1.288	3.7273	0.1	1740.
25513	1.38	3.6364	0.1	1705.8
25514	1.288	3.9091	0.1	1687.3
25515	1.38	3.8182	0.1	1659.1
25516	1.288	4.0909	0.1	1619.4
25517	1.38	4.	0.1	1598.2
25518	1.288	4.2727	0.1	1534.2
25519	1.38	4.1818	0.1	1521.3
25520	1.288	4.4545	0.1	1429.2
25521	1.38	4.3636	0.1	1426.5
25522	1.288	4.6364	0.1	1302.2
25523	1.38	4.5455	0.1	1311.8
25524	1.288	4.8182	0.1	1151.4
25525	1.38	4.7273	0.1	1175.6
25526	1.288	5.	0.1	976.54
25527	1.38	4.9091	0.1	1017.4
25528	1.288	5.1818	0.1	779.63
25529	1.38	5.0909	0.1	838.31
25530	1.288	5.3636	0.1	566.16
25531	1.38	5.2727	0.1	641.92
25532	1.288	5.5455	0.1	344.42
25533	1.38	5.4545	0.1	434.93
25534	1.288	5.7273	0.1	117.91
25535	1.38	5.6364	0.1	225.26
25536	1.38	5.8182	0.1	22.995
25537	1.288	5.9091	0.1	0.15917
25538	1.472	0.27273	0.1	116.03
25539	1.564	0.18182	0.1	28.18
25540	1.472	9.0909e-002	0.1	0.94364
25541	1.472	0.45455	0.1	315.12
25542	1.564	0.36364	0.1	211.09
25543	1.472	0.63636	0.1	510.37
25544	1.564	0.54545	0.1	396.14
25545	1.472	0.81818	0.1	700.53
25546	1.564	0.72727	0.1	579.76
25547	1.472	1.	0.1	879.35
25548	1.564	0.90909	0.1	756.38
25549	1.472	1.1818	0.1	1041.9
25550	1.564	1.0909	0.1	920.58
25551	1.472	1.3636	0.1	1185.6
25552	1.564	1.2727	0.1	1068.7
25553	1.472	1.5455	0.1	1309.4
25554	1.564	1.4545	0.1	1199.1
25555	1.472	1.7273	0.1	1414.
25556	1.564	1.6364	0.1	1311.1
25557	1.472	1.9091	0.1	1500.5
25558	1.564	1.8182	0.1	1405.5
25559	1.472	2.0909	0.1	1570.4
25560	1.564	2.	0.1	1483.2
25561	1.472	2.2727	0.1	1625.2
25562	1.564	2.1818	0.1	1545.6
25563	1.472	2.4545	0.1	1666.4
25564	1.564	2.3636	0.1	1593.8
25565	1.472	2.6364	0.1	1695.
25566	1.564	2.5455	0.1	1629.
25567	1.472	2.8182	0.1	1711.9
25568	1.564	2.7273	0.1	1651.9
25569	1.472	3.	0.1	1717.4
25570	1.564	2.9091	0.1	1663.3
25571	1.472	3.1818	0.1	1711.9
25572	1.564	3.0909	0.1	1663.3
25573	1.472	3.3636	0.1	1695.
25574	1.564	3.2727	0.1	1651.9
25575	1.472	3.5455	0.1	1666.4
25576	1.564	3.4545	0.1	1629.
25577	1.472	3.7273	0.1	1625.2
25578	1.564	3.6364	0.1	1593.8
25579	1.472	3.9091	0.1	1570.4
25580	1.564	3.8182	0.1	1545.6
25581	1.472	4.0909	0.1	1500.5
25582	1.564	4.	0.1	1483.2
25583	1.472	4.2727	0.1	1414.
25584	1.564	4.1818	0.1	1405.5
25585	1.472	4.4545	0.1	1309.4
25586	1.564	4.3636	0.1	1311.1
25587	1.472	4.6364	0.1	1185.6
25588	1.564	4.5455	0.1	1199.1
25589	1.472	4.8182	0.1	1041.9
25590	1.564	4.7273	0.1	1068.7
25591	1.472	5.	0.1	879.35
25592	1.564	4.9091	0.1	920.58
25593	1.472	5.1818	0.1	700.53
25594	1.564	5.0909	0.1	756.38
25595	1.472	5.3636	0.1	510.37
25596	1.564	5.2727	0.1	579.76
25597	1.472	5.5455	0.1	315.12
25598	1.564	5.4545	0.1	396.14
25599	1.472	5.7273	0.1	116.03
25600	1.564	5.6364	0.1	211.09
25601	1.564	5.8182	0.1	28.18
25602	1.472	5.9091	0.1	0.94362
25603	1.656	0.27273	0.1	114.52
25604	1.748	0.18182	0.1	33.597
25605	1.656	9.0909e-002	0.1	3.2204
25606	1.656	0.45455	0.1	291.55
25607	1.748	0.36364	0.1	199.38
25608	1.656	0.63636	0.1	465.2
25609	1.748	0.54545	0.1	364.44
25610	1.656	0.81818	0.1	635.46
25611	1.748	0.72727	0.1	528.58
25612	1.656	1.	0.1	797.62
25613	1.748	0.90909	0.1	687.8
25614	1.656	1.1818	0.1	947.55
25615	1.748	1.0909	0.1	837.78
25616	1.656	1.3636	0.1	1082.5
25617	1.748	1.2727	0.1	975.3
25618	1.656	1.5455	0.1	1201.1
25619	1.748	1.4545	0.1	1098.3
25620	1.656	1.7273	0.1	1303.
25621	1.748	1.6364	0.1	1205.9
25622	1.656	1.9091	0.1	1388.6
25623	1.748	1.8182	0.1	1297.9
25624	1.656	2.0909	0.1	1458.8
25625	1.748	2.	0.1	1374.7
25626	1.656	2.2727	0.1	1514.5
25627	1.748	2.1818	0.1	1437.1
25628	1.656	2.4545	0.1	1556.6
25629	1.748	2.3636	0.1	1485.7
25630	1.656	2.6364	0.1	1586.1
25631	1.748	2.5455	0.1	1521.5
25632	1.656	2.8182	0.1	1603.6
25633	1.748	2.7273	0.1	1545.
25634	1.656	3.	0.1	1609.4
25635	1.748	2.9091	0.1	1556.6
25636	1.656	3.1818	0.1	1603.6
25637	1.748	3.0909	0.1	1556.6
25638	1.656	3.3636	0.1	1586.1
25639	1.748	3.2727	0.1	1545.
25640	1.656	3.5455	0.1	1556.6
25641	1.748	3.4545	0.1	1521.5
25642	1.656	3.7273	0.1	1514.5
25643	1.748	3.6364	0.1	1485.7
25644	1.656	3.9091	0.1	1458.8
25645	1.748	3.8182	0.1	1437.1
25646	1.656	4.0909	0.1	1388.6
25647	1.748	4.	0.1	1374.7
25648	1.656	4.2727	0.1	1303.
25649	1.748	4.1818	0.1	1297.9
25650	1.656	4.4545	0.1	1201.1
25651	1.748	4.3636	0.1	1205.9
25652	1.656	4.6364	0.1	1082.5
25653	1.748	4.5455	0.1	1098.3
25654	1.656	4.8182	0.1	947.55
25655	1.748	4.7273	0.1	975.3
25656	1.656	5.	0.1	797.62
25657	1.748	4.9091	0.1	837.78
25658	1.656	5.1818	0.1	635.46
25659	1.748	5.0909	0.1	687.8
25660	1.656	5.3636	0.1	465.2
25661	1.748	5.2727	0.1	528.58
25662	1.656	5.5455	0.1	291.55
25663	1.748	5.4545	0.1	364.44
25664	1.656	5.7273	0.1	114.52
25665	1.748	5.6364	0.1	199.38
25666	1.748	5.8182	0.1	33.597
25667	1.656	5.9091	0.1	3.2203
25668	1.84	0.27273	0.1	112.99
25669	1.932	0.18182	0.1	38.583
25670	1.84	9.0909e-002	0.1	7.929
25671	1.84	0.45455	0.1	271.79
25672	1.932	0.36364	0.1	189.16
25673	1.84	0.63636	0.1	427.5
25674	1.932	0.54545	0.1	337.62
25675	1.84	0.81818	0.1	580.72
25676	1.932	0.72727	0.1	485.29
25677	1.84	1.	0.1	727.9
25678	1.932	0.90909	0.1	629.28
25679	1.84	1.1818	0.1	865.6
25680	1.932	1.0909	0.1	766.14
25681	1.84	1.3636	0.1	991.29
25682	1.932	1.2727	0.1	893.1
25683	1.84	1.5455	0.1	1103.4
25684	1.932	1.4545	0.1	1008.2
25685	1.84	1.7273	0.1	1201.1
25686	1.932	1.6364	0.1	1110.1
25687	1.84	1.9091	0.1	1284.3
25688	1.932	1.8182	0.1	1198.4
25689	1.84	2.0909	0.1	1353.3
25690	1.932	2.	0.1	1273.
25691	1.84	2.2727	0.1	1408.7
25692	1.932	2.1818	0.1	1334.2
25693	1.84	2.4545	0.1	1450.9
25694	1.932	2.3636	0.1	1382.4
25695	1.84	2.6364	0.1	1480.7
25696	1.932	2.5455	0.1	1418.
25697	1.84	2.8182	0.1	1498.3
25698	1.932	2.7273	0.1	1441.5
25699	1.84	3.	0.1	1504.2
25700	1.932	2.9091	0.1	1453.2
25701	1.84	3.1818	0.1	1498.3
25702	1.932	3.0909	0.1	1453.2
25703	1.84	3.3636	0.1	1480.7
25704	1.932	3.2727	0.1	1441.5
25705	1.84	3.5455	0.1	1450.9
25706	1.932	3.4545	0.1	1418.
25707	1.84	3.7273	0.1	1408.7
25708	1.932	3.6364	0.1	1382.4
25709	1.84	3.9091	0.1	1353.3
25710	1.932	3.8182	0.1	1334.2
25711	1.84	4.0909	0.1	1284.3
25712	1.932	4.	0.1	1273.
25713	1.84	4.2727	0.1	1201.1
25714	1.932	4.1818	0.1	1198.4
25715	1.84	4.4545	0.1	1103.4
25716	1.932	4.3636	0.1	1110.1
25717	1.84	4.6364	0.1	991.29
25718	1.932	4.5455	0.1	1008.2
25719	1.84	4.8182	0.1	865.6
25720	1.932	4.7273	0.1	893.1
25721	1.84	5.	0.1	727.9
25722	1.932	4.9091	0.1	766.14
25723	1.84	5.1818	0.1	580.72
25724	1.932	5.0909	0.1	629.28
25725	1.84	5.3636	0.1	427.5
25726	1.932	5.2727	0.1	485.29
25727	1.84	5.5455	0.1	271.79
25728	1.932	5.4545	0.1	337.62
25729	1.84	5.7273	0.1	112.99
25730	1.932	5.6364	0.1	189.16
25731	1.932	5.8182	0.1	38.583
25732	1.84	5.9091	0.1	7.9289
25733	2.024	0.27273	0.1	111.18
25734	2.116	0.18182	0.1	42.76
25735	2.024	9.0909e-002	0.1	12.698
25736	2.024	0.45455	0.1	254.58
25737	2.116	0.36364	0.1	179.85
25738	2.024	0.63636	0.1	395.11
25739	2.116	0.54545	0.1	314.22
25740	2.024	0.81818	0.1	533.64
25741	2.116	0.72727	0.1	447.78
25742	2.024	1.	0.1	667.42
25743	2.116	0.90909	0.1	578.41
25744	2.024	1.1818	0.1	793.64
25745	2.116	1.0909	0.1	703.33
25746	2.024	1.3636	0.1	910.06
25747	2.116	1.2727	0.1	820.18
25748	2.024	1.5455	0.1	1015.1
25749	2.116	1.4545	0.1	927.13
25750	2.024	1.7273	0.1	1107.7
25751	2.116	1.6364	0.1	1022.9
25752	2.024	1.9091	0.1	1187.4
25753	2.116	1.8182	0.1	1106.7
25754	2.024	2.0909	0.1	1254.2
25755	2.116	2.	0.1	1178.2
25756	2.024	2.2727	0.1	1308.3
25757	2.116	2.1818	0.1	1237.3
25758	2.024	2.4545	0.1	1349.8
25759	2.116	2.3636	0.1	1284.2
25760	2.024	2.6364	0.1	1379.2
25761	2.116	2.5455	0.1	1319.1
25762	2.024	2.8182	0.1	1396.8
25763	2.116	2.7273	0.1	1342.2
25764	2.024	3.	0.1	1402.6
25765	2.116	2.9091	0.1	1353.8
25766	2.024	3.1818	0.1	1396.8
25767	2.116	3.0909	0.1	1353.8
25768	2.024	3.3636	0.1	1379.2
25769	2.116	3.2727	0.1	1342.2
25770	2.024	3.5455	0.1	1349.8
25771	2.116	3.4545	0.1	1319.1
25772	2.024	3.7273	0.1	1308.3
25773	2.116	3.6364	0.1	1284.2
25774	2.024	3.9091	0.1	1254.2
25775	2.116	3.8182	0.1	1237.3
25776	2.024	4.0909	0.1	1187.4
25777	2.116	4.	0.1	1178.2
25778	2.024	4.2727	0.1	1107.7
25779	2.116	4.1818	0.1	1106.7
25780	2.024	4.4545	0.1	1015.1
25781	2.116	4.3636	0.1	1022.9
25782	2.024	4.6364	0.1	910.06
25783	2.116	4.5455	0.1	927.13
25784	2.024	4.8182	0.1	793.64
25785	2.116	4.7273	0.1	820.18
25786	2.024	5.	0.1	667.42
25787	2.116	4.9091	0.1	703.33
25788	2.024	5.1818	0.1	533.64
25789	2.116	5.0909	0.1	578.41
25790	2.024	5.3636	0.1	395.11
25791	2.116	5.2727	0.1	447.78
25792	2.024	5.5455	0.1	254.58
25793	2.116	5.4545	0.1	314.22
25794	2.024	5.7273	0.1	111.18
25795	2.116	5.6364	0.1	179.85
25796	2.116	5.8182	0.1	42.76
25797	2.024	5.9091	0.1	12.697
25798	2.208	0.27273	0.1	108.99
25799	2.3	0.18182	0.1	46.01
25800	2.208	9.0909e-002	0.1	16.612
25801	2.208	0.45455	0.1	239.14
25802	2.3	0.36364	0.1	171.12
25803	2.208	0.63636	0.1	366.63
25804	2.3	0.54545	0.1	293.32
25805	2.208	0.81818	0.1	492.36
25806	2.3	0.72727	0.1	414.64
25807	2.208	1.	0.1	614.19
25808	2.3	0.90909	0.1	533.48
25809	2.208	1.1818	0.1	729.82
25810	2.3	1.0909	0.1	647.58
25811	2.208	1.3636	0.1	837.28
25812	2.3	1.2727	0.1	754.95
25813	2.208	1.5455	0.1	935.05
25814	2.3	1.4545	0.1	853.94
25815	2.208	1.7273	0.1	1022.1
25816	2.3	1.6364	0.1	943.29
25817	2.208	1.9091	0.1	1097.7
25818	2.3	1.8182	0.1	1022.1
25819	2.208	2.0909	0.1	1161.5
25820	2.3	2.	0.1	1089.9
25821	2.208	2.2727	0.1	1213.5
25822	2.3	2.1818	0.1	1146.4
25823	2.208	2.4545	0.1	1253.8
25824	2.3	2.3636	0.1	1191.4
25825	2.208	2.6364	0.1	1282.4
25826	2.3	2.5455	0.1	1225.1
25827	2.208	2.8182	0.1	1299.5
25828	2.3	2.7273	0.1	1247.5
25829	2.208	3.	0.1	1305.2
25830	2.3	2.9091	0.1	1258.7
25831	2.208	3.1818	0.1	1299.5
25832	2.3	3.0909	0.1	1258.7
25833	2.208	3.3636	0.1	1282.4
25834	2.3	3.2727	0.1	1247.5
25835	2.208	3.5455	0.1	1253.8
25836	2.3	3.4545	0.1	1225.1
25837	2.208	3.7273	0.1	1213.5
25838	2.3	3.6364	0.1	1191.4
25839	2.208	3.9091	0.1	1161.5
25840	2.3	3.8182	0.1	1146.4
25841	2.208	4.0909	0.1	1097.7
25842	2.3	4.	0.1	1089.9
25843	2.208	4.2727	0.1	1022.1
25844	2.3	4.1818	0.1	1022.1
25845	2.208	4.4545	0.1	935.04
25846	2.3	4.3636	0.1	943.29
25847	2.208	4.6364	0.1	837.28
25848	2.3	4.5455	0.1	853.94
25849	2.208	4.8182	0.1	729.82
25850	2.3	4.7273	0.1	754.95
25851	2.208	5.	0.1	614.19
25852	2.3	4.9091	0.1	647.58
25853	2.208	5.1818	0.1	492.36
25854	2.3	5.0909	0.1	533.48
25855	2.208	5.3636	0.1	366.63
25856	2.3	5.2727	0.1	414.64
25857	2.208	5.5455	0.1	239.14
25858	2.3	5.4545	0.1	293.32
25859	2.208	5.7273	0.1	108.99
25860	2.3	5.6364	0.1	171.12
25861	2.3	5.8182	0.1	46.01
25862	2.208	5.9091	0.1	16.612
25863	2.392	0.27273	0.1	106.4
25864	2.484	0.18182	0.1	48.343
25865	2.392	9.0909e-002	0.1	19.64
25866	2.392	0.45455	0.1	224.99
25867	2.484	0.36364	0.1	162.76
25868	2.392	0.63636	0.1	341.1
25869	2.484	0.54545	0.1	274.3
25870	2.392	0.81818	0.1	455.58
25871	2.484	0.72727	0.1	384.88
25872	2.392	1.	0.1	566.73
25873	2.484	0.90909	0.1	493.25
25874	2.392	1.1818	0.1	672.64
25875	2.484	1.0909	0.1	597.57
25876	2.392	1.3636	0.1	771.61
25877	2.484	1.2727	0.1	696.14
25878	2.392	1.5455	0.1	862.24
25879	2.484	1.4545	0.1	787.5
25880	2.392	1.7273	0.1	943.47
25881	2.484	1.6364	0.1	870.47
25882	2.392	1.9091	0.1	1014.5
25883	2.484	1.8182	0.1	944.14
25884	2.392	2.0909	0.1	1075.
25885	2.484	2.	0.1	1007.9
25886	2.392	2.2727	0.1	1124.5
25887	2.484	2.1818	0.1	1061.3
25888	2.392	2.4545	0.1	1163.
25889	2.484	2.3636	0.1	1104.1
25890	2.392	2.6364	0.1	1190.5
25891	2.484	2.5455	0.1	1136.3
25892	2.392	2.8182	0.1	1207.
25893	2.484	2.7273	0.1	1157.7
25894	2.392	3.	0.1	1212.5
25895	2.484	2.9091	0.1	1168.4
25896	2.392	3.1818	0.1	1207.
25897	2.484	3.0909	0.1	1168.4
25898	2.392	3.3636	0.1	1190.5
25899	2.484	3.2727	0.1	1157.7
25900	2.392	3.5455	0.1	1163.
25901	2.484	3.4545	0.1	1136.3
25902	2.392	3.7273	0.1	1124.5
25903	2.484	3.6364	0.1	1104.1
25904	2.392	3.9091	0.1	1075.
25905	2.484	3.8182	0.1	1061.3
25906	2.392	4.0909	0.1	1014.5
25907	2.484	4.	0.1	1007.9
25908	2.392	4.2727	0.1	943.47
25909	2.484	4.1818	0.1	944.14
25910	2.392	4.4545	0.1	862.24
25911	2.484	4.3636	0.1	870.47
25912	2.392	4.6364	0.1	771.61
25913	2.484	4.5455	0.1	787.5
25914	2.392	4.8182	0.1	672.64
25915	2.484	4.7273	0.1	696.14
25916	2.392	5.	0.1	566.73
25917	2.484	4.9091	0.1	597.57
25918	2.392	5.1818	0.1	455.58
25919	2.484	5.0909	0.1	493.25
25920	2.392	5.3636	0.1	341.1
25921	2.484	5.2727	0.1	384.88
25922	2.392	5.5455	0.1	224.99
25923	2.484	5.4545	0.1	274.3
25924	2.392	5.7273	0.1	106.4
25925	2.484	5.6364	0.1	162.76
25926	2.484	5.8182	0.1	48.343
25927	2.392	5.9091	0.1	19.64
25928	2.576	0.27273	0.1	103.42
25929	2.668	0.18182	0.1	49.832
25930	2.576	9.0909e-002	0.1	21.881
25931	2.576	0.45455	0.1	211.8
25932	2.668	0.36364	0.1	154.65
25933	2.576	0.63636	0.1	317.88
25934	2.668	0.54545	0.1	256.75
25935	2.576	0.81818	0.1	422.38
25936	2.668	0.72727	0.1	357.81
25937	2.576	1.	0.1	523.95
25938	2.668	0.90909	0.1	456.84
25939	2.576	1.1818	0.1	620.98
25940	2.668	1.0909	0.1	552.29
25941	2.576	1.3636	0.1	712.01
25942	2.668	1.2727	0.1	642.75
25943	2.576	1.5455	0.1	795.76
25944	2.668	1.4545	0.1	726.91
25945	2.576	1.7273	0.1	871.22
25946	2.668	1.6364	0.1	803.68
25947	2.576	1.9091	0.1	937.61
25948	2.668	1.8182	0.1	872.18
25949	2.576	2.0909	0.1	994.36
25950	2.668	2.	0.1	931.73
25951	2.576	2.2727	0.1	1041.1
25952	2.668	2.1818	0.1	981.86
25953	2.576	2.4545	0.1	1077.6
25954	2.668	2.3636	0.1	1022.2
25955	2.576	2.6364	0.1	1103.7
25956	2.668	2.5455	0.1	1052.6
25957	2.576	2.8182	0.1	1119.4
25958	2.668	2.7273	0.1	1073.
25959	2.576	3.	0.1	1124.7
25960	2.668	2.9091	0.1	1083.1
25961	2.576	3.1818	0.1	1119.4
25962	2.668	3.0909	0.1	1083.1
25963	2.576	3.3636	0.1	1103.7
25964	2.668	3.2727	0.1	1073.
25965	2.576	3.5455	0.1	1077.6
25966	2.668	3.4545	0.1	1052.6
25967	2.576	3.7273	0.1	1041.1
25968	2.668	3.6364	0.1	1022.2
25969	2.576	3.9091	0.1	994.36
25970	2.668	3.8182	0.1	981.86
25971	2.576	4.0909	0.1	937.61
25972	2.668	4.	0.1	931.73
25973	2.576	4.2727	0.1	871.22
25974	2.668	4.1818	0.1	872.18
25975	2.576	4.4545	0.1	795.76
25976	2.668	4.3636	0.1	803.68
25977	2.576	4.6364	0.1	712.01
25978	2.668	4.5455	0.1	726.91
25979	2.576	4.8182	0.1	620.98
25980	2.668	4.7273	0.1	642.75
25981	2.576	5.	0.1	523.95
25982	2.668	4.9091	0.1	552.29
25983	2.576	5.1818	0.1	422.38
25984	2.668	5.0909	0.1	456.84
25985	2.576	5.3636	0.1	317.88
25986	2.668	5.2727	0.1	357.81
25987	2.576	5.5455	0.1	211.8
25988	2.668	5.4545	0.1	256.75
25989	2.576	5.7273	0.1	103.42
25990	2.668	5.6364	0.1	154.65
25991	2.668	5.8182	0.1	49.831
25992	2.576	5.9091	0.1	21.881
25993	2.76	0.27273	0.1	100.08
25994	2.852	0.18182	0.1	50.569
25995	2.76	9.0909e-002	0.1	23.448
25996	2.76	0.45455	0.1	199.37
25997	2.852	0.36364	0.1	146.73
25998	2.76	0.63636	0.1	296.51
25999	2.852	0.54545	0.1	240.39
26000	2.76	0.81818	0.1	392.11
26001	2.852	0.72727	0.1	332.95
26002	2.76	1.	0.1	485.05
26003	2.852	0.90909	0.1	423.58
26004	2.76	1.1818	0.1	573.98
26005	2.852	1.0909	0.1	511.01
26006	2.76	1.3636	0.1	657.62
26007	2.852	1.2727	0.1	594.
26008	2.76	1.5455	0.1	734.84
26009	2.852	1.4545	0.1	671.42
26010	2.76	1.7273	0.1	804.69
26011	2.852	1.6364	0.1	742.28
26012	2.76	1.9091	0.1	866.4
26013	2.852	1.8182	0.1	805.72
26014	2.76	2.0909	0.1	919.37
26015	2.852	2.	0.1	861.09
26016	2.76	2.2727	0.1	963.16
26017	2.852	2.1818	0.1	907.85
26018	2.76	2.4545	0.1	997.46
26019	2.852	2.3636	0.1	945.64
26020	2.76	2.6364	0.1	1022.1
26021	2.852	2.5455	0.1	974.17
26022	2.76	2.8182	0.1	1036.9
26023	2.852	2.7273	0.1	993.29
26024	2.76	3.	0.1	1041.8
26025	2.852	2.9091	0.1	1002.9
26026	2.76	3.1818	0.1	1036.9
26027	2.852	3.0909	0.1	1002.9
26028	2.76	3.3636	0.1	1022.1
26029	2.852	3.2727	0.1	993.29
26030	2.76	3.5455	0.1	997.46
26031	2.852	3.4545	0.1	974.17
26032	2.76	3.7273	0.1	963.16
26033	2.852	3.6364	0.1	945.64
26034	2.76	3.9091	0.1	919.37
26035	2.852	3.8182	0.1	907.85
26036	2.76	4.0909	0.1	866.4
26037	2.852	4.	0.1	861.09
26038	2.76	4.2727	0.1	804.69
26039	2.852	4.1818	0.1	805.72
26040	2.76	4.4545	0.1	734.84
26041	2.852	4.3636	0.1	742.28
26042	2.76	4.6364	0.1	657.62
26043	2.852	4.5455	0.1	671.42
26044	2.76	4.8182	0.1	573.98
26045	2.852	4.7273	0.1	594.
26046	2.76	5.	0.1	485.05
26047	2.852	4.9091	0.1	511.01
26048	2.76	5.1818	0.1	392.11
26049	2.852	5.0909	0.1	423.58
26050	2.76	5.3636	0.1	296.51
26051	2.852	5.2727	0.1	332.95
26052	2.76	5.5455	0.1	199.37
26053	2.852	5.4545	0.1	240.39
26054	2.76	5.7273	0.1	100.08
26055	2.852	5.6364	0.1	146.73
26056	2.852	5.8182	0.1	50.569
26057	2.76	5.9091	0.1	23.448
26058	2.944	0.27273	0.1	96.454
26059	3.036	0.18182	0.1	50.654
26060	2.944	9.0909e-002	0.1	24.445
26061	2.944	0.45455	0.1	187.56
26062	3.036	0.36364	0.1	138.98
26063	2.944	0.63636	0.1	276.68
26064	3.036	0.54545	0.1	225.04
26065	2.944	0.81818	0.1	364.28
26066	3.036	0.72727	0.1	309.94
26067	2.944	1.	0.1	449.42
26068	3.036	0.90909	0.1	393.
26069	2.944	1.1818	0.1	530.94
26070	3.036	1.0909	0.1	473.13
26071	2.944	1.3636	0.1	607.76
26072	3.036	1.2727	0.1	549.27
26073	2.944	1.5455	0.1	678.85
26074	3.036	1.4545	0.1	620.43
26075	2.944	1.7273	0.1	743.34
26076	3.036	1.6364	0.1	685.69
26077	2.944	1.9091	0.1	800.48
26078	3.036	1.8182	0.1	744.29
26079	2.944	2.0909	0.1	849.68
26080	3.036	2.	0.1	795.57
26081	2.944	2.2727	0.1	890.47
26082	3.036	2.1818	0.1	838.99
26083	2.944	2.4545	0.1	922.51
26084	3.036	2.3636	0.1	874.17
26085	2.944	2.6364	0.1	945.56
26086	3.036	2.5455	0.1	900.78
26087	2.944	2.8182	0.1	959.44
26088	3.036	2.7273	0.1	918.64
26089	2.944	3.	0.1	964.08
26090	3.036	2.9091	0.1	927.6
26091	2.944	3.1818	0.1	959.44
26092	3.036	3.0909	0.1	927.6
26093	2.944	3.3636	0.1	945.56
26094	3.036	3.2727	0.1	918.64
26095	2.944	3.5455	0.1	922.51
26096	3.036	3.4545	0.1	900.78
26097	2.944	3.7273	0.1	890.47
26098	3.036	3.6364	0.1	874.17
26099	2.944	3.9091	0.1	849.68
26100	3.036	3.8182	0.1	838.99
26101	2.944	4.0909	0.1	800.48
26102	3.036	4.	0.1	795.57
26103	2.944	4.2727	0.1	743.34
26104	3.036	4.1818	0.1	744.29
26105	2.944	4.4545	0.1	678.85
26106	3.036	4.3636	0.1	685.69
26107	2.944	4.6364	0.1	607.76
26108	3.036	4.5455	0.1	620.42
26109	2.944	4.8182	0.1	530.94
26110	3.036	4.7273	0.1	549.27
26111	2.944	5.	0.1	449.42
26112	3.036	4.9091	0.1	473.13
26113	2.944	5.1818	0.1	364.28
26114	3.036	5.0909	0.1	393.
26115	2.944	5.3636	0.1	276.68
26116	3.036	5.2727	0.1	309.94
26117	2.944	5.5455	0.1	187.56
26118	3.036	5.4545	0.1	225.04
26119	2.944	5.7273	0.1	96.454
26120	3.036	5.6364	0.1	138.98
26121	3.036	5.8182	0.1	50.654
26122	2.944	5.9091	0.1	24.445
26123	3.128	0.27273	0.1	92.578
26124	3.22	0.18182	0.1	50.185
26125	3.128	9.0909e-002	0.1	24.962
26126	3.128	0.45455	0.1	176.29
26127	3.22	0.36364	0.1	131.39
26128	3.128	0.63636	0.1	258.16
26129	3.22	0.54545	0.1	210.56
26130	3.128	0.81818	0.1	338.53
26131	3.22	0.72727	0.1	288.52
26132	3.128	1.	0.1	416.6
26133	3.22	0.90909	0.1	364.72
26134	3.128	1.1818	0.1	491.37
26135	3.22	1.0909	0.1	438.21
26136	3.128	1.3636	0.1	561.89
26137	3.22	1.2727	0.1	508.07
26138	3.128	1.5455	0.1	627.25
26139	3.22	1.4545	0.1	573.43
26140	3.128	1.7273	0.1	686.67
26141	3.22	1.6364	0.1	633.47
26142	3.128	1.9091	0.1	739.43
26143	3.22	1.8182	0.1	687.47
26144	3.128	2.0909	0.1	784.97
26145	3.22	2.	0.1	734.81
26146	3.128	2.2727	0.1	822.8
26147	3.22	2.1818	0.1	774.99
26148	3.128	2.4545	0.1	852.58
26149	3.22	2.3636	0.1	807.59
26150	3.128	2.6364	0.1	874.02
26151	3.22	2.5455	0.1	832.3
26152	3.128	2.8182	0.1	886.96
26153	3.22	2.7273	0.1	848.9
26154	3.128	3.	0.1	891.28
26155	3.22	2.9091	0.1	857.23
26156	3.128	3.1818	0.1	886.96
26157	3.22	3.0909	0.1	857.23
26158	3.128	3.3636	0.1	874.02
26159	3.22	3.2727	0.1	848.9
26160	3.128	3.5455	0.1	852.58
26161	3.22	3.4545	0.1	832.3
26162	3.128	3.7273	0.1	822.8
26163	3.22	3.6364	0.1	807.59
26164	3.128	3.9091	0.1	784.97
26165	3.22	3.8182	0.1	774.99
26166	3.128	4.0909	0.1	739.43
26167	3.22	4.	0.1	734.81
26168	3.128	4.2727	0.1	686.67
26169	3.22	4.1818	0.1	687.47
26170	3.128	4.4545	0.1	627.25
26171	3.22	4.3636	0.1	633.47
26172	3.128	4.6364	0.1	561.89
26173	3.22	4.5455	0.1	573.43
26174	3.128	4.8182	0.1	491.37
26175	3.22	4.7273	0.1	508.07
26176	3.128	5.	0.1	416.6
26177	3.22	4.9091	0.1	438.21
26178	3.128	5.1818	0.1	338.53
26179	3.22	5.0909	0.1	364.72
26180	3.128	5.3636	0.1	258.16
26181	3.22	5.2727	0.1	288.52
26182	3.128	5.5455	0.1	176.29
26183	3.22	5.4545	0.1	210.56
26184	3.128	5.7273	0.1	92.578
26185	3.22	5.6364	0.1	131.39
26186	3.22	5.8182	0.1	50.185
26187	3.128	5.9091	0.1	24.962
26188	3.312	0.27273	0.1	88.512
26189	3.404	0.18182	0.1	49.252
26190	3.312	9.0909e-002	0.1	25.082
26191	3.312	0.45455	0.1	165.51
26192	3.404	0.36364	0.1	123.97
26193	3.312	0.63636	0.1	240.8
26194	3.404	0.54545	0.1	196.85
26195	3.312	0.81818	0.1	314.6
26196	3.404	0.72727	0.1	268.52
26197	3.312	1.	0.1	386.24
26198	3.404	0.90909	0.1	338.48
26199	3.312	1.1818	0.1	454.83
26200	3.404	1.0909	0.1	405.91
26201	3.312	1.3636	0.1	519.56
26202	3.404	1.2727	0.1	470.01
26203	3.312	1.5455	0.1	579.61
26204	3.404	1.4545	0.1	530.01
26205	3.312	1.7273	0.1	634.27
26206	3.404	1.6364	0.1	585.19
26207	3.312	1.9091	0.1	682.89
26208	3.404	1.8182	0.1	634.87
26209	3.312	2.0909	0.1	724.91
26210	3.404	2.	0.1	678.49
26211	3.312	2.2727	0.1	759.88
26212	3.404	2.1818	0.1	715.56
26213	3.312	2.4545	0.1	787.44
26214	3.404	2.3636	0.1	745.68
26215	3.312	2.6364	0.1	807.31
26216	3.404	2.5455	0.1	768.53
26217	3.312	2.8182	0.1	819.31
26218	3.404	2.7273	0.1	783.89
26219	3.312	3.	0.1	823.32
26220	3.404	2.9091	0.1	791.61
26221	3.312	3.1818	0.1	819.31
26222	3.404	3.0909	0.1	791.61
26223	3.312	3.3636	0.1	807.31
26224	3.404	3.2727	0.1	783.89
26225	3.312	3.5455	0.1	787.44
26226	3.404	3.4545	0.1	768.53
26227	3.312	3.7273	0.1	759.88
26228	3.404	3.6364	0.1	745.68
26229	3.312	3.9091	0.1	724.91
26230	3.404	3.8182	0.1	715.56
26231	3.312	4.0909	0.1	682.89
26232	3.404	4.	0.1	678.49
26233	3.312	4.2727	0.1	634.27
26234	3.404	4.1818	0.1	634.87
26235	3.312	4.4545	0.1	579.61
26236	3.404	4.3636	0.1	585.19
26237	3.312	4.6364	0.1	519.56
26238	3.404	4.5455	0.1	530.01
26239	3.312	4.8182	0.1	454.83
26240	3.404	4.7273	0.1	470.01
26241	3.312	5.	0.1	386.24
26242	3.404	4.9091	0.1	405.91
26243	3.312	5.1818	0.1	314.6
26244	3.404	5.0909	0.1	338.48
26245	3.312	5.3636	0.1	240.8
26246	3.404	5.2727	0.1	268.52
26247	3.312	5.5455	0.1	165.51
26248	3.404	5.4545	0.1	196.85
26249	3.312	5.7273	0.1	88.512
26250	3.404	5.6364	0.1	123.97
26251	3.404	5.8182	0.1	49.252
26252	3.312	5.9091	0.1	25.082
26253	3.496	0.27273	0.1	84.309
26254	3.588	0.18182	0.1	47.938
26255	3.496	9.0909e-002	0.1	24.873
26256	3.496	0.45455	0.1	155.18
26257	3.588	0.36364	0.1	116.72
26258	3.496	0.63636	0.1	224.47
26259	3.588	0.54545	0.1	183.87
26260	3.496	0.81818	0.1	292.3
26261	3.588	0.72727	0.1	249.79
26262	3.496	1.	0.1	358.06
26263	3.588	0.90909	0.1	314.05
26264	3.496	1.1818	0.1	421.02
26265	3.588	1.0909	0.1	375.95
26266	3.496	1.3636	0.1	480.42
26267	3.588	1.2727	0.1	434.78
26268	3.496	1.5455	0.1	535.56
26269	3.588	1.4545	0.1	489.85
26270	3.496	1.7273	0.1	585.78
26271	3.588	1.6364	0.1	540.51
26272	3.496	1.9091	0.1	630.5
26273	3.588	1.8182	0.1	586.17
26274	3.496	2.0909	0.1	669.2
26275	3.588	2.	0.1	626.28
26276	3.496	2.2727	0.1	701.43
26277	3.588	2.1818	0.1	660.41
26278	3.496	2.4545	0.1	726.86
26279	3.588	2.3636	0.1	688.16
26280	3.496	2.6364	0.1	745.22
26281	3.588	2.5455	0.1	709.23
26282	3.496	2.8182	0.1	756.3
26283	3.588	2.7273	0.1	723.41
26284	3.496	3.	0.1	760.01
26285	3.588	2.9091	0.1	730.53
26286	3.496	3.1818	0.1	756.3
26287	3.588	3.0909	0.1	730.53
26288	3.496	3.3636	0.1	745.22
26289	3.588	3.2727	0.1	723.41
26290	3.496	3.5455	0.1	726.86
26291	3.588	3.4545	0.1	709.23
26292	3.496	3.7273	0.1	701.43
26293	3.588	3.6364	0.1	688.16
26294	3.496	3.9091	0.1	669.2
26295	3.588	3.8182	0.1	660.41
26296	3.496	4.0909	0.1	630.5
26297	3.588	4.	0.1	626.28
26298	3.496	4.2727	0.1	585.78
26299	3.588	4.1818	0.1	586.17
26300	3.496	4.4545	0.1	535.56
26301	3.588	4.3636	0.1	540.51
26302	3.496	4.6364	0.1	480.42
26303	3.588	4.5455	0.1	489.85
26304	3.496	4.8182	0.1	421.02
26305	3.588	4.7273	0.1	434.78
26306	3.496	5.	0.1	358.06
26307	3.588	4.9091	0.1	375.95
26308	3.496	5.1818	0.1	292.3
26309	3.588	5.0909	0.1	314.05
26310	3.496	5.3636	0.1	224.47
26311	3.588	5.2727	0.1	249.79
26312	3.496	5.5455	0.1	155.18
26313	3.588	5.4545	0.1	183.87
26314	3.496	5.7273	0.1	84.309
26315	3.588	5.6364	0.1	116.72
26316	3.588	5.8182	0.1	47.938
26317	3.496	5.9091	0.1	24.873
26318	3.68	0.27273	0.1	80.018
26319	3.772	0.18182	0.1	46.316
26320	3.68	9.0909e-002	0.1	24.395
26321	3.68	0.45455	0.1	145.29
26322	3.772	0.36364	0.1	109.66
26323	3.68	0.63636	0.1	209.09
26324	3.772	0.54545	0.1	171.55
26325	3.68	0.81818	0.1	271.45
26326	3.772	0.72727	0.1	232.21
26327	3.68	1.	0.1	331.86
26328	3.772	0.90909	0.1	291.27
26329	3.68	1.1818	0.1	389.65
26330	3.772	1.0909	0.1	348.11
26331	3.68	1.3636	0.1	444.16
26332	3.772	1.2727	0.1	402.11
26333	3.68	1.5455	0.1	494.77
26334	3.772	1.4545	0.1	452.64
26335	3.68	1.7273	0.1	540.88
26336	3.772	1.6364	0.1	499.13
26337	3.68	1.9091	0.1	581.97
26338	3.772	1.8182	0.1	541.05
26339	3.68	2.0909	0.1	617.54
26340	3.772	2.	0.1	577.9
26341	3.68	2.2727	0.1	647.2
26342	3.772	2.1818	0.1	609.26
26343	3.68	2.4545	0.1	670.61
26344	3.772	2.3636	0.1	634.78
26345	3.68	2.6364	0.1	687.51
26346	3.772	2.5455	0.1	654.17
26347	3.68	2.8182	0.1	697.73
26348	3.772	2.7273	0.1	667.22
26349	3.68	3.	0.1	701.15
26350	3.772	2.9091	0.1	673.78
26351	3.68	3.1818	0.1	697.73
26352	3.772	3.0909	0.1	673.78
26353	3.68	3.3636	0.1	687.51
26354	3.772	3.2727	0.1	667.22
26355	3.68	3.5455	0.1	670.61
26356	3.772	3.4545	0.1	654.17
26357	3.68	3.7273	0.1	647.2
26358	3.772	3.6364	0.1	634.78
26359	3.68	3.9091	0.1	617.54
26360	3.772	3.8182	0.1	609.26
26361	3.68	4.0909	0.1	581.96
26362	3.772	4.	0.1	577.9
26363	3.68	4.2727	0.1	540.88
26364	3.772	4.1818	0.1	541.05
26365	3.68	4.4545	0.1	494.77
26366	3.772	4.3636	0.1	499.13
26367	3.68	4.6364	0.1	444.16
26368	3.772	4.5455	0.1	452.64
26369	3.68	4.8182	0.1	389.65
26370	3.772	4.7273	0.1	402.11
26371	3.68	5.	0.1	331.86
26372	3.772	4.9091	0.1	348.11
26373	3.68	5.1818	0.1	271.45
26374	3.772	5.0909	0.1	291.27
26375	3.68	5.3636	0.1	209.09
26376	3.772	5.2727	0.1	232.21
26377	3.68	5.5455	0.1	145.29
26378	3.772	5.4545	0.1	171.55
26379	3.68	5.7273	0.1	80.018
26380	3.772	5.6364	0.1	109.66
26381	3.772	5.8182	0.1	46.316
26382	3.68	5.9091	0.1	24.395
26383	3.864	0.27273	0.1	75.684
26384	3.956	0.18182	0.1	44.453
26385	3.864	9.0909e-002	0.1	23.701
26386	3.864	0.45455	0.1	135.82
26387	3.956	0.36364	0.1	102.81
26388	3.864	0.63636	0.1	194.58
26389	3.956	0.54545	0.1	159.86
26390	3.864	0.81818	0.1	251.95
26391	3.956	0.72727	0.1	215.7
26392	3.864	1.	0.1	307.46
26393	3.956	0.90909	0.1	270.01
26394	3.864	1.1818	0.1	360.51
26395	3.956	1.0909	0.1	322.21
26396	3.864	1.3636	0.1	410.54
26397	3.956	1.2727	0.1	371.77
26398	3.864	1.5455	0.1	456.97
26399	3.956	1.4545	0.1	418.14
26400	3.864	1.7273	0.1	499.29
26401	3.956	1.6364	0.1	460.79
26402	3.864	1.9091	0.1	536.99
26403	3.956	1.8182	0.1	499.25
26404	3.864	2.0909	0.1	569.65
26405	3.956	2.	0.1	533.06
26406	3.864	2.2727	0.1	596.9
26407	3.956	2.1818	0.1	561.86
26408	3.864	2.4545	0.1	618.41
26409	3.956	2.3636	0.1	585.29
26410	3.864	2.6364	0.1	633.95
26411	3.956	2.5455	0.1	603.1
26412	3.864	2.8182	0.1	643.35
26413	3.956	2.7273	0.1	615.09
26414	3.864	3.	0.1	646.49
26415	3.956	2.9091	0.1	621.12
26416	3.864	3.1818	0.1	643.35
26417	3.956	3.0909	0.1	621.12
26418	3.864	3.3636	0.1	633.95
26419	3.956	3.2727	0.1	615.09
26420	3.864	3.5455	0.1	618.41
26421	3.956	3.4545	0.1	603.1
26422	3.864	3.7273	0.1	596.9
26423	3.956	3.6364	0.1	585.29
26424	3.864	3.9091	0.1	569.65
26425	3.956	3.8182	0.1	561.86
26426	3.864	4.0909	0.1	536.99
26427	3.956	4.	0.1	533.06
26428	3.864	4.2727	0.1	499.29
26429	3.956	4.1818	0.1	499.25
26430	3.864	4.4545	0.1	456.97
26431	3.956	4.3636	0.1	460.79
26432	3.864	4.6364	0.1	410.54
26433	3.956	4.5455	0.1	418.14
26434	3.864	4.8182	0.1	360.51
26435	3.956	4.7273	0.1	371.77
26436	3.864	5.	0.1	307.46
26437	3.956	4.9091	0.1	322.21
26438	3.864	5.1818	0.1	251.95
26439	3.956	5.0909	0.1	270.01
26440	3.864	5.3636	0.1	194.58
26441	3.956	5.2727	0.1	215.7
26442	3.864	5.5455	0.1	135.82
26443	3.956	5.4545	0.1	159.86
26444	3.864	5.7273	0.1	75.684
26445	3.956	5.6364	0.1	102.81
26446	3.956	5.8182	0.1	44.453
26447	3.864	5.9091	0.1	23.701
26448	4.048	0.27273	0.1	71.347
26449	4.14	0.18182	0.1	42.406
26450	4.048	9.0909e-002	0.1	22.836
26451	4.048	0.45455	0.1	126.77
26452	4.14	0.36364	0.1	96.181
26453	4.048	0.63636	0.1	180.9
26454	4.14	0.54545	0.1	148.78
26455	4.048	0.81818	0.1	233.69
26456	4.14	0.72727	0.1	200.19
26457	4.048	1.	0.1	284.7
26458	4.14	0.90909	0.1	250.13
26459	4.048	1.1818	0.1	333.42
26460	4.14	1.0909	0.1	298.09
26461	4.048	1.3636	0.1	379.33
26462	4.14	1.2727	0.1	343.58
26463	4.048	1.5455	0.1	421.92
26464	4.14	1.4545	0.1	386.12
26465	4.048	1.7273	0.1	460.74
26466	4.14	1.6364	0.1	425.24
26467	4.048	1.9091	0.1	495.32
26468	4.14	1.8182	0.1	460.51
26469	4.048	2.0909	0.1	525.28
26470	4.14	2.	0.1	491.52
26471	4.048	2.2727	0.1	550.28
26472	4.14	2.1818	0.1	517.93
26473	4.048	2.4545	0.1	570.03
26474	4.14	2.3636	0.1	539.43
26475	4.048	2.6364	0.1	584.29
26476	4.14	2.5455	0.1	555.77
26477	4.048	2.8182	0.1	592.92
26478	4.14	2.7273	0.1	566.77
26479	4.048	3.	0.1	595.8
26480	4.14	2.9091	0.1	572.3
26481	4.048	3.1818	0.1	592.92
26482	4.14	3.0909	0.1	572.3
26483	4.048	3.3636	0.1	584.29
26484	4.14	3.2727	0.1	566.77
26485	4.048	3.5455	0.1	570.03
26486	4.14	3.4545	0.1	555.77
26487	4.048	3.7273	0.1	550.28
26488	4.14	3.6364	0.1	539.43
26489	4.048	3.9091	0.1	525.28
26490	4.14	3.8182	0.1	517.93
26491	4.048	4.0909	0.1	495.32
26492	4.14	4.	0.1	491.52
26493	4.048	4.2727	0.1	460.74
26494	4.14	4.1818	0.1	460.51
26495	4.048	4.4545	0.1	421.92
26496	4.14	4.3636	0.1	425.24
26497	4.048	4.6364	0.1	379.33
26498	4.14	4.5455	0.1	386.12
26499	4.048	4.8182	0.1	333.42
26500	4.14	4.7273	0.1	343.58
26501	4.048	5.	0.1	284.7
26502	4.14	4.9091	0.1	298.09
26503	4.048	5.1818	0.1	233.69
26504	4.14	5.0909	0.1	250.13
26505	4.048	5.3636	0.1	180.9
26506	4.14	5.2727	0.1	200.19
26507	4.048	5.5455	0.1	126.77
26508	4.14	5.4545	0.1	148.78
26509	4.048	5.7273	0.1	71.347
26510	4.14	5.6364	0.1	96.181
26511	4.14	5.8182	0.1	42.406
26512	4.048	5.9091	0.1	22.836
26513	4.232	0.27273	0.1	67.043
26514	4.324	0.18182	0.1	40.224
26515	4.232	9.0909e-002	0.1	21.839
26516	4.232	0.45455	0.1	118.12
26517	4.324	0.36364	0.1	89.785
26518	4.232	0.63636	0.1	168.
26519	4.324	0.54545	0.1	138.28
26520	4.232	0.81818	0.1	216.58
26521	4.324	0.72727	0.1	185.62
26522	4.232	1.	0.1	263.47
26523	4.324	0.90909	0.1	231.55
26524	4.232	1.1818	0.1	308.21
26525	4.324	1.0909	0.1	275.61
26526	4.232	1.3636	0.1	350.34
26527	4.324	1.2727	0.1	317.38
26528	4.232	1.5455	0.1	389.41
26529	4.324	1.4545	0.1	356.4
26530	4.232	1.7273	0.1	425.
26531	4.324	1.6364	0.1	392.28
26532	4.232	1.9091	0.1	456.71
26533	4.324	1.8182	0.1	424.61
26534	4.232	2.0909	0.1	484.18
26535	4.324	2.	0.1	453.04
26536	4.232	2.2727	0.1	507.1
26537	4.324	2.1818	0.1	477.24
26538	4.232	2.4545	0.1	525.2
26539	4.324	2.3636	0.1	496.95
26540	4.232	2.6364	0.1	538.28
26541	4.324	2.5455	0.1	511.93
26542	4.232	2.8182	0.1	546.19
26543	4.324	2.7273	0.1	522.01
26544	4.232	3.	0.1	548.84
26545	4.324	2.9091	0.1	527.08
26546	4.232	3.1818	0.1	546.19
26547	4.324	3.0909	0.1	527.08
26548	4.232	3.3636	0.1	538.28
26549	4.324	3.2727	0.1	522.01
26550	4.232	3.5455	0.1	525.2
26551	4.324	3.4545	0.1	511.93
26552	4.232	3.7273	0.1	507.1
26553	4.324	3.6364	0.1	496.95
26554	4.232	3.9091	0.1	484.18
26555	4.324	3.8182	0.1	477.24
26556	4.232	4.0909	0.1	456.71
26557	4.324	4.	0.1	453.04
26558	4.232	4.2727	0.1	425.
26559	4.324	4.1818	0.1	424.61
26560	4.232	4.4545	0.1	389.41
26561	4.324	4.3636	0.1	392.28
26562	4.232	4.6364	0.1	350.34
26563	4.324	4.5455	0.1	356.4
26564	4.232	4.8182	0.1	308.21
26565	4.324	4.7273	0.1	317.38
26566	4.232	5.	0.1	263.47
26567	4.324	4.9091	0.1	275.61
26568	4.232	5.1818	0.1	216.58
26569	4.324	5.0909	0.1	231.55
26570	4.232	5.3636	0.1	168.
26571	4.324	5.2727	0.1	185.62
26572	4.232	5.5455	0.1	118.12
26573	4.324	5.4545	0.1	138.28
26574	4.232	5.7273	0.1	67.043
26575	4.324	5.6364	0.1	89.785
26576	4.324	5.8182	0.1	40.224
26577	4.232	5.9091	0.1	21.839
26578	4.416	0.27273	0.1	62.799
26579	4.508	0.18182	0.1	37.95
26580	4.416	9.0909e-002	0.1	20.742
26581	4.416	0.45455	0.1	109.88
26582	4.508	0.36364	0.1	83.633
26583	4.416	0.63636	0.1	155.84
26584	4.508	0.54545	0.1	128.34
26585	4.416	0.81818	0.1	200.55
26586	4.508	0.72727	0.1	171.94
26587	4.416	1.	0.1	243.65
26588	4.508	0.90909	0.1	214.18
26589	4.416	1.1818	0.1	284.74
26590	4.508	1.0909	0.1	254.67
26591	4.416	1.3636	0.1	323.41
26592	4.508	1.2727	0.1	293.01
26593	4.416	1.5455	0.1	359.25
26594	4.508	1.4545	0.1	328.81
26595	4.416	1.7273	0.1	391.88
26596	4.508	1.6364	0.1	361.71
26597	4.416	1.9091	0.1	420.94
26598	4.508	1.8182	0.1	391.35
26599	4.416	2.0909	0.1	446.11
26600	4.508	2.	0.1	417.4
26601	4.416	2.2727	0.1	467.11
26602	4.508	2.1818	0.1	439.57
26603	4.416	2.4545	0.1	483.7
26604	4.508	2.3636	0.1	457.62
26605	4.416	2.6364	0.1	495.68
26606	4.508	2.5455	0.1	471.34
26607	4.416	2.8182	0.1	502.93
26608	4.508	2.7273	0.1	480.58
26609	4.416	3.	0.1	505.36
26610	4.508	2.9091	0.1	485.22
26611	4.416	3.1818	0.1	502.93
26612	4.508	3.0909	0.1	485.22
26613	4.416	3.3636	0.1	495.68
26614	4.508	3.2727	0.1	480.58
26615	4.416	3.5455	0.1	483.7
26616	4.508	3.4545	0.1	471.34
26617	4.416	3.7273	0.1	467.11
26618	4.508	3.6364	0.1	457.62
26619	4.416	3.9091	0.1	446.11
26620	4.508	3.8182	0.1	439.57
26621	4.416	4.0909	0.1	420.94
26622	4.508	4.	0.1	417.4
26623	4.416	4.2727	0.1	391.88
26624	4.508	4.1818	0.1	391.35
26625	4.416	4.4545	0.1	359.25
26626	4.508	4.3636	0.1	361.71
26627	4.416	4.6364	0.1	323.41
26628	4.508	4.5455	0.1	328.81
26629	4.416	4.8182	0.1	284.74
26630	4.508	4.7273	0.1	293.01
26631	4.416	5.	0.1	243.65
26632	4.508	4.9091	0.1	254.67
26633	4.416	5.1818	0.1	200.55
26634	4.508	5.0909	0.1	214.18
26635	4.416	5.3636	0.1	155.84
26636	4.508	5.2727	0.1	171.94
26637	4.416	5.5455	0.1	109.88
26638	4.508	5.4545	0.1	128.34
26639	4.416	5.7273	0.1	62.799
26640	4.508	5.6364	0.1	83.633
26641	4.508	5.8182	0.1	37.95
26642	4.416	5.9091	0.1	20.742
26643	4.6	0.27273	0.1	58.642
26644	4.692	0.18182	0.1	35.622
26645	4.6	9.0909e-002	0.1	19.574
26646	4.6	0.45455	0.1	102.04
26647	4.692	0.36364	0.1	77.732
26648	4.6	0.63636	0.1	144.39
26649	4.692	0.54545	0.1	118.94
26650	4.6	0.81818	0.1	185.53
26651	4.692	0.72727	0.1	159.09
26652	4.6	1.	0.1	225.16
26653	4.692	0.90909	0.1	197.94
26654	4.6	1.1818	0.1	262.9
26655	4.692	1.0909	0.1	235.14
26656	4.6	1.3636	0.1	298.38
26657	4.692	1.2727	0.1	270.34
26658	4.6	1.5455	0.1	331.25
26659	4.692	1.4545	0.1	303.19
26660	4.6	1.7273	0.1	361.17
26661	4.692	1.6364	0.1	333.36
26662	4.6	1.9091	0.1	387.8
26663	4.692	1.8182	0.1	360.52
26664	4.6	2.0909	0.1	410.86
26665	4.692	2.	0.1	384.38
26666	4.6	2.2727	0.1	430.09
26667	4.692	2.1818	0.1	404.69
26668	4.6	2.4545	0.1	445.28
26669	4.692	2.3636	0.1	421.22
26670	4.6	2.6364	0.1	456.26
26671	4.692	2.5455	0.1	433.78
26672	4.6	2.8182	0.1	462.9
26673	4.692	2.7273	0.1	442.24
26674	4.6	3.	0.1	465.12
26675	4.692	2.9091	0.1	446.49
26676	4.6	3.1818	0.1	462.9
26677	4.692	3.0909	0.1	446.49
26678	4.6	3.3636	0.1	456.26
26679	4.692	3.2727	0.1	442.24
26680	4.6	3.5455	0.1	445.28
26681	4.692	3.4545	0.1	433.78
26682	4.6	3.7273	0.1	430.09
26683	4.692	3.6364	0.1	421.22
26684	4.6	3.9091	0.1	410.86
26685	4.692	3.8182	0.1	404.69
26686	4.6	4.0909	0.1	387.8
26687	4.692	4.	0.1	384.38
26688	4.6	4.2727	0.1	361.17
26689	4.692	4.1818	0.1	360.52
26690	4.6	4.4545	0.1	331.25
26691	4.692	4.3636	0.1	333.36
26692	4.6	4.6364	0.1	298.38
26693	4.692	4.5455	0.1	303.19
26694	4.6	4.8182	0.1	262.9
26695	4.692	4.7273	0.1	270.34
26696	4.6	5.	0.1	225.15
26697	4.692	4.9091	0.1	235.14
26698	4.6	5.1818	0.1	185.53
26699	4.692	5.0909	0.1	197.94
26700	4.6	5.3636	0.1	144.39
26701	4.692	5.2727	0.1	159.09
26702	4.6	5.5455	0.1	102.04
26703	4.692	5.4545	0.1	118.94
26704	4.6	5.7273	0.1	58.642
26705	4.692	5.6364	0.1	77.732
26706	4.692	5.8182	0.1	35.622
26707	4.6	5.9091	0.1	19.574
26708	4.784	0.27273	0.1	54.591
26709	4.876	0.18182	0.1	33.269
26710	4.784	9.0909e-002	0.1	18.359
26711	4.784	0.45455	0.1	94.59
26712	4.876	0.36364	0.1	72.087
26713	4.784	0.63636	0.1	133.6
26714	4.876	0.54545	0.1	110.07
26715	4.784	0.81818	0.1	171.46
26716	4.876	0.72727	0.1	147.03
26717	4.784	1.	0.1	207.89
26718	4.876	0.90909	0.1	182.76
26719	4.784	1.1818	0.1	242.56
26720	4.876	1.0909	0.1	216.94
26721	4.784	1.3636	0.1	275.12
26722	4.876	1.2727	0.1	249.26
26723	4.784	1.5455	0.1	305.27
26724	4.876	1.4545	0.1	279.4
26725	4.784	1.7273	0.1	332.69
26726	4.876	1.6364	0.1	307.05
26727	4.784	1.9091	0.1	357.09
26728	4.876	1.8182	0.1	331.94
26729	4.784	2.0909	0.1	378.22
26730	4.876	2.	0.1	353.81
26731	4.784	2.2727	0.1	395.83
26732	4.876	2.1818	0.1	372.41
26733	4.784	2.4545	0.1	409.74
26734	4.876	2.3636	0.1	387.54
26735	4.784	2.6364	0.1	419.79
26736	4.876	2.5455	0.1	399.04
26737	4.784	2.8182	0.1	425.86
26738	4.876	2.7273	0.1	406.78
26739	4.784	3.	0.1	427.89
26740	4.876	2.9091	0.1	410.67
26741	4.784	3.1818	0.1	425.86
26742	4.876	3.0909	0.1	410.67
26743	4.784	3.3636	0.1	419.79
26744	4.876	3.2727	0.1	406.78
26745	4.784	3.5455	0.1	409.74
26746	4.876	3.4545	0.1	399.04
26747	4.784	3.7273	0.1	395.83
26748	4.876	3.6364	0.1	387.54
26749	4.784	3.9091	0.1	378.22
26750	4.876	3.8182	0.1	372.41
26751	4.784	4.0909	0.1	357.09
26752	4.876	4.	0.1	353.81
26753	4.784	4.2727	0.1	332.69
26754	4.876	4.1818	0.1	331.94
26755	4.784	4.4545	0.1	305.27
26756	4.876	4.3636	0.1	307.05
26757	4.784	4.6364	0.1	275.12
26758	4.876	4.5455	0.1	279.4
26759	4.784	4.8182	0.1	242.56
26760	4.876	4.7273	0.1	249.26
26761	4.784	5.	0.1	207.89
26762	4.876	4.9091	0.1	216.94
26763	4.784	5.1818	0.1	171.46
26764	4.876	5.0909	0.1	182.76
26765	4.784	5.3636	0.1	133.6
26766	4.876	5.2727	0.1	147.03
26767	4.784	5.5455	0.1	94.59
26768	4.876	5.4545	0.1	110.07
26769	4.784	5.7273	0.1	54.591
26770	4.876	5.6364	0.1	72.087
26771	4.876	5.8182	0.1	33.269
26772	4.784	5.9091	0.1	18.359
26773	4.968	0.27273	0.1	50.662
26774	5.06	0.18182	0.1	30.916
26775	4.968	9.0909e-002	0.1	17.115
26776	4.968	0.45455	0.1	87.525
26777	5.06	0.36364	0.1	66.699
26778	4.968	0.63636	0.1	123.46
26779	5.06	0.54545	0.1	101.69
26780	4.968	0.81818	0.1	158.29
26781	5.06	0.72727	0.1	135.71
26782	4.968	1.	0.1	191.78
26783	5.06	0.90909	0.1	168.57
26784	4.968	1.1818	0.1	223.62
26785	5.06	1.0909	0.1	199.98
26786	4.968	1.3636	0.1	253.51
26787	5.06	1.2727	0.1	229.65
26788	4.968	1.5455	0.1	281.16
26789	5.06	1.4545	0.1	257.3
26790	4.968	1.7273	0.1	306.29
26791	5.06	1.6364	0.1	282.66
26792	4.968	1.9091	0.1	328.65
26793	5.06	1.8182	0.1	305.46
26794	4.968	2.0909	0.1	348.
26795	5.06	2.	0.1	325.49
26796	4.968	2.2727	0.1	364.12
26797	5.06	2.1818	0.1	342.52
26798	4.968	2.4545	0.1	376.85
26799	5.06	2.3636	0.1	356.38
26800	4.968	2.6364	0.1	386.05
26801	5.06	2.5455	0.1	366.9
26802	4.968	2.8182	0.1	391.61
26803	5.06	2.7273	0.1	373.99
26804	4.968	3.	0.1	393.47
26805	5.06	2.9091	0.1	377.55
26806	4.968	3.1818	0.1	391.61
26807	5.06	3.0909	0.1	377.55
26808	4.968	3.3636	0.1	386.05
26809	5.06	3.2727	0.1	373.99
26810	4.968	3.5455	0.1	376.85
26811	5.06	3.4545	0.1	366.9
26812	4.968	3.7273	0.1	364.12
26813	5.06	3.6364	0.1	356.38
26814	4.968	3.9091	0.1	348.
26815	5.06	3.8182	0.1	342.52
26816	4.968	4.0909	0.1	328.65
26817	5.06	4.	0.1	325.49
26818	4.968	4.2727	0.1	306.29
26819	5.06	4.1818	0.1	305.46
26820	4.968	4.4545	0.1	281.16
26821	5.06	4.3636	0.1	282.66
26822	4.968	4.6364	0.1	253.51
26823	5.06	4.5455	0.1	257.3
26824	4.968	4.8182	0.1	223.62
26825	5.06	4.7273	0.1	229.65
26826	4.968	5.	0.1	191.78
26827	5.06	4.9091	0.1	199.98
26828	4.968	5.1818	0.1	158.29
26829	5.06	5.0909	0.1	168.57
26830	4.968	5.3636	0.1	123.46
26831	5.06	5.2727	0.1	135.71
26832	4.968	5.5455	0.1	87.525
26833	5.06	5.4545	0.1	101.69
26834	4.968	5.7273	0.1	50.662
26835	5.06	5.6364	0.1	66.699
26836	5.06	5.8182	0.1	30.916
26837	4.968	5.9091	0.1	17.115
26838	5.152	0.27273	0.1	46.867
26839	5.244	0.18182	0.1	28.586
26840	5.152	9.0909e-002	0.1	15.861
26841	5.152	0.45455	0.1	80.835
26842	5.244	0.36364	0.1	61.569
26843	5.152	0.63636	0.1	113.92
26844	5.244	0.54545	0.1	93.801
26845	5.152	0.81818	0.1	145.97
26846	5.244	0.72727	0.1	125.11
26847	5.152	1.	0.1	176.75
26848	5.244	0.90909	0.1	155.32
26849	5.152	1.1818	0.1	205.99
26850	5.244	1.0909	0.1	184.18
26851	5.152	1.3636	0.1	233.42
26852	5.244	1.2727	0.1	211.41
26853	5.152	1.5455	0.1	258.78
26854	5.244	1.4545	0.1	236.77
26855	5.152	1.7273	0.1	281.82
26856	5.244	1.6364	0.1	260.02
26857	5.152	1.9091	0.1	302.3
26858	5.244	1.8182	0.1	280.92
26859	5.152	2.0909	0.1	320.02
26860	5.244	2.	0.1	299.27
26861	5.152	2.2727	0.1	334.78
26862	5.244	2.1818	0.1	314.86
26863	5.152	2.4545	0.1	346.43
26864	5.244	2.3636	0.1	327.55
26865	5.152	2.6364	0.1	354.85
26866	5.244	2.5455	0.1	337.18
26867	5.152	2.8182	0.1	359.94
26868	5.244	2.7273	0.1	343.66
26869	5.152	3.	0.1	361.64
26870	5.244	2.9091	0.1	346.92
26871	5.152	3.1818	0.1	359.94
26872	5.244	3.0909	0.1	346.92
26873	5.152	3.3636	0.1	354.85
26874	5.244	3.2727	0.1	343.66
26875	5.152	3.5455	0.1	346.43
26876	5.244	3.4545	0.1	337.18
26877	5.152	3.7273	0.1	334.78
26878	5.244	3.6364	0.1	327.55
26879	5.152	3.9091	0.1	320.02
26880	5.244	3.8182	0.1	314.86
26881	5.152	4.0909	0.1	302.3
26882	5.244	4.	0.1	299.27
26883	5.152	4.2727	0.1	281.82
26884	5.244	4.1818	0.1	280.92
26885	5.152	4.4545	0.1	258.78
26886	5.244	4.3636	0.1	260.02
26887	5.152	4.6364	0.1	233.42
26888	5.244	4.5455	0.1	236.77
26889	5.152	4.8182	0.1	205.99
26890	5.244	4.7273	0.1	211.41
26891	5.152	5.	0.1	176.75
26892	5.244	4.9091	0.1	184.18
26893	5.152	5.1818	0.1	145.97
26894	5.244	5.0909	0.1	155.32
26895	5.152	5.3636	0.1	113.92
26896	5.244	5.2727	0.1	125.11
26897	5.152	5.5455	0.1	80.835
26898	5.244	5.4545	0.1	93.801
26899	5.152	5.7273	0.1	46.867
26900	5.244	5.6364	0.1	61.569
26901	5.244	5.8182	0.1	28.586
26902	5.152	5.9091	0.1	15.861
26903	5.336	0.27273	0.1	43.215
26904	5.428	0.18182	0.1	26.294
26905	5.336	9.0909e-002	0.1	14.609
26906	5.336	0.45455	0.1	74.509
26907	5.428	0.36364	0.1	56.693
26908	5.336	0.63636	0.1	104.97
26909	5.428	0.54545	0.1	86.371
26910	5.336	0.81818	0.1	134.44
26911	5.428	0.72727	0.1	115.17
26912	5.336	1.	0.1	162.73
26913	5.428	0.90909	0.1	142.94
26914	5.336	1.1818	0.1	189.58
26915	5.428	1.0909	0.1	169.45
26916	5.336	1.3636	0.1	214.75
26917	5.428	1.2727	0.1	194.45
26918	5.336	1.5455	0.1	238.
26919	5.428	1.4545	0.1	217.71
26920	5.336	1.7273	0.1	259.12
26921	5.428	1.6364	0.1	239.03
26922	5.336	1.9091	0.1	277.89
26923	5.428	1.8182	0.1	258.18
26924	5.336	2.0909	0.1	294.11
26925	5.428	2.	0.1	274.98
26926	5.336	2.2727	0.1	307.63
26927	5.428	2.1818	0.1	289.26
26928	5.336	2.4545	0.1	318.29
26929	5.428	2.3636	0.1	300.87
26930	5.336	2.6364	0.1	326.
26931	5.428	2.5455	0.1	309.69
26932	5.336	2.8182	0.1	330.65
26933	5.428	2.7273	0.1	315.62
26934	5.336	3.	0.1	332.21
26935	5.428	2.9091	0.1	318.6
26936	5.336	3.1818	0.1	330.65
26937	5.428	3.0909	0.1	318.6
26938	5.336	3.3636	0.1	326.
26939	5.428	3.2727	0.1	315.62
26940	5.336	3.5455	0.1	318.29
26941	5.428	3.4545	0.1	309.69
26942	5.336	3.7273	0.1	307.63
26943	5.428	3.6364	0.1	300.87
26944	5.336	3.9091	0.1	294.11
26945	5.428	3.8182	0.1	289.26
26946	5.336	4.0909	0.1	277.89
26947	5.428	4.	0.1	274.98
26948	5.336	4.2727	0.1	259.12
26949	5.428	4.1818	0.1	258.18
26950	5.336	4.4545	0.1	238.
26951	5.428	4.3636	0.1	239.03
26952	5.336	4.6364	0.1	214.75
26953	5.428	4.5455	0.1	217.71
26954	5.336	4.8182	0.1	189.58
26955	5.428	4.7273	0.1	194.45
26956	5.336	5.	0.1	162.73
26957	5.428	4.9091	0.1	169.45
26958	5.336	5.1818	0.1	134.44
26959	5.428	5.0909	0.1	142.94
26960	5.336	5.3636	0.1	104.97
26961	5.428	5.2727	0.1	115.17
26962	5.336	5.5455	0.1	74.509
26963	5.428	5.4545	0.1	86.37
26964	5.336	5.7273	0.1	43.215
26965	5.428	5.6364	0.1	56.693
26966	5.428	5.8182	0.1	26.294
26967	5.336	5.9091	0.1	14.609
26968	5.52	0.27273	0.1	39.712
26969	5.612	0.18182	0.1	24.055
26970	5.52	9.0909e-002	0.1	13.37
26971	5.52	0.45455	0.1	68.534
26972	5.612	0.36364	0.1	52.068
26973	5.52	0.63636	0.1	96.558
26974	5.612	0.54545	0.1	79.38
26975	5.52	0.81818	0.1	123.66
26976	5.612	0.72727	0.1	105.87
26977	5.52	1.	0.1	149.65
26978	5.612	0.90909	0.1	131.39
26979	5.52	1.1818	0.1	174.3
26980	5.612	1.0909	0.1	155.72
26981	5.52	1.3636	0.1	197.39
26982	5.612	1.2727	0.1	178.67
26983	5.52	1.5455	0.1	218.72
26984	5.612	1.4545	0.1	200.01
26985	5.52	1.7273	0.1	238.07
26986	5.612	1.6364	0.1	219.54
26987	5.52	1.9091	0.1	255.27
26988	5.612	1.8182	0.1	237.09
26989	5.52	2.0909	0.1	270.13
26990	5.612	2.	0.1	252.48
26991	5.52	2.2727	0.1	282.5
26992	5.612	2.1818	0.1	265.56
26993	5.52	2.4545	0.1	292.26
26994	5.612	2.3636	0.1	276.19
26995	5.52	2.6364	0.1	299.31
26996	5.612	2.5455	0.1	284.26
26997	5.52	2.8182	0.1	303.57
26998	5.612	2.7273	0.1	289.69
26999	5.52	3.	0.1	305.
27000	5.612	2.9091	0.1	292.41
27001	5.52	3.1818	0.1	303.57
27002	5.612	3.0909	0.1	292.41
27003	5.52	3.3636	0.1	299.31
27004	5.612	3.2727	0.1	289.69
27005	5.52	3.5455	0.1	292.26
27006	5.612	3.4545	0.1	284.26
27007	5.52	3.7273	0.1	282.5
27008	5.612	3.6364	0.1	276.19
27009	5.52	3.9091	0.1	270.13
27010	5.612	3.8182	0.1	265.56
27011	5.52	4.0909	0.1	255.27
27012	5.612	4.	0.1	252.48
27013	5.52	4.2727	0.1	238.07
27014	5.612	4.1818	0.1	237.09
27015	5.52	4.4545	0.1	218.72
27016	5.612	4.3636	0.1	219.54
27017	5.52	4.6364	0.1	197.39
27018	5.612	4.5455	0.1	200.01
27019	5.52	4.8182	0.1	174.3
27020	5.612	4.7273	0.1	178.67
27021	5.52	5.	0.1	149.65
27022	5.612	4.9091	0.1	155.72
27023	5.52	5.1818	0.1	123.66
27024	5.612	5.0909	0.1	131.39
27025	5.52	5.3636	0.1	96.558
27026	5.612	5.2727	0.1	105.87
27027	5.52	5.5455	0.1	68.534
27028	5.612	5.4545	0.1	79.38
27029	5.52	5.7273	0.1	39.712
27030	5.612	5.6364	0.1	52.068
27031	5.612	5.8182	0.1	24.055
27032	5.52	5.9091	0.1	13.37
27033	5.704	0.27273	0.1	36.361
27034	5.796	0.18182	0.1	21.877
27035	5.704	9.0909e-002	0.1	12.152
27036	5.704	0.45455	0.1	62.897
27037	5.796	0.36364	0.1	47.686
27038	5.704	0.63636	0.1	88.672
27039	5.796	0.54545	0.1	72.808
27040	5.704	0.81818	0.1	113.58
27041	5.796	0.72727	0.1	97.152
27042	5.704	1.	0.1	137.45
27043	5.796	0.90909	0.1	120.6
27044	5.704	1.1818	0.1	160.08
27045	5.796	1.0909	0.1	142.94
27046	5.704	1.3636	0.1	181.26
27047	5.796	1.2727	0.1	163.99
27048	5.704	1.5455	0.1	200.82
27049	5.796	1.4545	0.1	183.56
27050	5.704	1.7273	0.1	218.55
27051	5.796	1.6364	0.1	201.47
27052	5.704	1.9091	0.1	234.31
27053	5.796	1.8182	0.1	217.55
27054	5.704	2.0909	0.1	247.91
27055	5.796	2.	0.1	231.64
27056	5.704	2.2727	0.1	259.24
27057	5.796	2.1818	0.1	243.62
27058	5.704	2.4545	0.1	268.18
27059	5.796	2.3636	0.1	253.35
27060	5.704	2.6364	0.1	274.63
27061	5.796	2.5455	0.1	260.73
27062	5.704	2.8182	0.1	278.53
27063	5.796	2.7273	0.1	265.7
27064	5.704	3.	0.1	279.83
27065	5.796	2.9091	0.1	268.2
27066	5.704	3.1818	0.1	278.53
27067	5.796	3.0909	0.1	268.2
27068	5.704	3.3636	0.1	274.63
27069	5.796	3.2727	0.1	265.7
27070	5.704	3.5455	0.1	268.18
27071	5.796	3.4545	0.1	260.73
27072	5.704	3.7273	0.1	259.24
27073	5.796	3.6364	0.1	253.35
27074	5.704	3.9091	0.1	247.91
27075	5.796	3.8182	0.1	243.62
27076	5.704	4.0909	0.1	234.31
27077	5.796	4.	0.1	231.64
27078	5.704	4.2727	0.1	218.55
27079	5.796	4.1818	0.1	217.55
27080	5.704	4.4545	0.1	200.82
27081	5.796	4.3636	0.1	201.47
27082	5.704	4.6364	0.1	181.26
27083	5.796	4.5455	0.1	183.56
27084	5.704	4.8182	0.1	160.08
27085	5.796	4.7273	0.1	163.99
27086	5.704	5.	0.1	137.45
27087	5.796	4.9091	0.1	142.94
27088	5.704	5.1818	0.1	113.58
27089	5.796	5.0909	0.1	120.6
27090	5.704	5.3636	0.1	88.672
27091	5.796	5.2727	0.1	97.152
27092	5.704	5.5455	0.1	62.897
27093	5.796	5.4545	0.1	72.808
27094	5.704	5.7273	0.1	36.361
27095	5.796	5.6364	0.1	47.686
27096	5.796	5.8182	0.1	21.877
27097	5.704	5.9091	0.1	12.152
27098	5.888	0.27273	0.1	33.162
27099	5.98	0.18182	0.1	19.77
27100	5.888	9.0909e-002	0.1	10.964
27101	5.888	0.45455	0.1	57.584
27102	5.98	0.36364	0.1	43.54
27103	5.888	0.63636	0.1	81.277
27104	5.98	0.54545	0.1	66.633
27105	5.888	0.81818	0.1	104.16
27106	5.98	0.72727	0.1	88.996
27107	5.888	1.	0.1	126.07
27108	5.98	0.90909	0.1	110.52
27109	5.888	1.1818	0.1	146.84
27110	5.98	1.0909	0.1	131.02
27111	5.888	1.3636	0.1	166.27
27112	5.98	1.2727	0.1	150.33
27113	5.888	1.5455	0.1	184.19
27114	5.98	1.4545	0.1	168.27
27115	5.888	1.7273	0.1	200.45
27116	5.98	1.6364	0.1	184.69
27117	5.888	1.9091	0.1	214.88
27118	5.98	1.8182	0.1	199.42
27119	5.888	2.0909	0.1	227.34
27120	5.98	2.	0.1	212.33
27121	5.888	2.2727	0.1	237.72
27122	5.98	2.1818	0.1	223.3
27123	5.888	2.4545	0.1	245.9
27124	5.98	2.3636	0.1	232.2
27125	5.888	2.6364	0.1	251.8
27126	5.98	2.5455	0.1	238.97
27127	5.888	2.8182	0.1	255.37
27128	5.98	2.7273	0.1	243.51
27129	5.888	3.	0.1	256.56
27130	5.98	2.9091	0.1	245.8
27131	5.888	3.1818	0.1	255.37
27132	5.98	3.0909	0.1	245.8
27133	5.888	3.3636	0.1	251.8
27134	5.98	3.2727	0.1	243.51
27135	5.888	3.5455	0.1	245.9
27136	5.98	3.4545	0.1	238.97
27137	5.888	3.7273	0.1	237.72
27138	5.98	3.6364	0.1	232.2
27139	5.888	3.9091	0.1	227.34
27140	5.98	3.8182	0.1	223.3
27141	5.888	4.0909	0.1	214.88
27142	5.98	4.	0.1	212.33
27143	5.888	4.2727	0.1	200.45
27144	5.98	4.1818	0.1	199.42
27145	5.888	4.4545	0.1	184.19
27146	5.98	4.3636	0.1	184.69
27147	5.888	4.6364	0.1	166.27
27148	5.98	4.5455	0.1	168.27
27149	5.888	4.8182	0.1	146.84
27150	5.98	4.7273	0.1	150.33
27151	5.888	5.	0.1	126.07
27152	5.98	4.9091	0.1	131.02
27153	5.888	5.1818	0.1	104.16
27154	5.98	5.0909	0.1	110.52
27155	5.888	5.3636	0.1	81.277
27156	5.98	5.2727	0.1	88.996
27157	5.888	5.5455	0.1	57.584
27158	5.98	5.4545	0.1	66.633
27159	5.888	5.7273	0.1	33.162
27160	5.98	5.6364	0.1	43.54
27161	5.98	5.8182	0.1	19.77
27162	5.888	5.9091	0.1	10.964
27163	6.072	0.27273	0.1	30.115
27164	6.164	0.18182	0.1	17.738
27165	6.072	9.0909e-002	0.1	9.81
27166	6.072	0.45455	0.1	52.58
27167	6.164	0.36364	0.1	39.622
27168	6.072	0.63636	0.1	74.344
27169	6.164	0.54545	0.1	60.833
27170	6.072	0.81818	0.1	95.35
27171	6.164	0.72727	0.1	81.362
27172	6.072	1.	0.1	115.46
27173	6.164	0.90909	0.1	101.11
27174	6.072	1.1818	0.1	134.51
27175	6.164	1.0909	0.1	119.92
27176	6.072	1.3636	0.1	152.32
27177	6.164	1.2727	0.1	137.62
27178	6.072	1.5455	0.1	168.75
27179	6.164	1.4545	0.1	154.06
27180	6.072	1.7273	0.1	183.65
27181	6.164	1.6364	0.1	169.1
27182	6.072	1.9091	0.1	196.87
27183	6.164	1.8182	0.1	182.6
27184	6.072	2.0909	0.1	208.28
27185	6.164	2.	0.1	194.43
27186	6.072	2.2727	0.1	217.78
27187	6.164	2.1818	0.1	204.47
27188	6.072	2.4545	0.1	225.27
27189	6.164	2.3636	0.1	212.63
27190	6.072	2.6364	0.1	230.68
27191	6.164	2.5455	0.1	218.82
27192	6.072	2.8182	0.1	233.94
27193	6.164	2.7273	0.1	222.98
27194	6.072	3.	0.1	235.03
27195	6.164	2.9091	0.1	225.07
27196	6.072	3.1818	0.1	233.94
27197	6.164	3.0909	0.1	225.07
27198	6.072	3.3636	0.1	230.68
27199	6.164	3.2727	0.1	222.98
27200	6.072	3.5455	0.1	225.27
27201	6.164	3.4545	0.1	218.82
27202	6.072	3.7273	0.1	217.78
27203	6.164	3.6364	0.1	212.63
27204	6.072	3.9091	0.1	208.28
27205	6.164	3.8182	0.1	204.47
27206	6.072	4.0909	0.1	196.87
27207	6.164	4.	0.1	194.43
27208	6.072	4.2727	0.1	183.65
27209	6.164	4.1818	0.1	182.6
27210	6.072	4.4545	0.1	168.75
27211	6.164	4.3636	0.1	169.1
27212	6.072	4.6364	0.1	152.32
27213	6.164	4.5455	0.1	154.06
27214	6.072	4.8182	0.1	134.51
27215	6.164	4.7273	0.1	137.62
27216	6.072	5.	0.1	115.46
27217	6.164	4.9091	0.1	119.92
27218	6.072	5.1818	0.1	95.35
27219	6.164	5.0909	0.1	101.11
27220	6.072	5.3636	0.1	74.344
27221	6.164	5.2727	0.1	81.362
27222	6.072	5.5455	0.1	52.58
27223	6.164	5.4545	0.1	60.833
27224	6.072	5.7273	0.1	30.115
27225	6.164	5.6364	0.1	39.622
27226	6.164	5.8182	0.1	17.738
27227	6.072	5.9091	0.1	9.81
27228	6.256	0.27273	0.1	27.218
27229	6.348	0.18182	0.1	15.784
27230	6.256	9.0909e-002	0.1	8.6936
27231	6.256	0.45455	0.1	47.868
27232	6.348	0.36364	0.1	35.92
27233	6.256	0.63636	0.1	67.845
27234	6.348	0.54545	0.1	55.385
27235	6.256	0.81818	0.1	87.116
27236	6.348	0.72727	0.1	74.214
27237	6.256	1.	0.1	105.56
27238	6.348	0.90909	0.1	92.323
27239	6.256	1.1818	0.1	123.02
27240	6.348	1.0909	0.1	109.56
27241	6.256	1.3636	0.1	139.35
27242	6.348	1.2727	0.1	125.78
27243	6.256	1.5455	0.1	154.41
27244	6.348	1.4545	0.1	140.85
27245	6.256	1.7273	0.1	168.05
27246	6.348	1.6364	0.1	154.63
27247	6.256	1.9091	0.1	180.16
27248	6.348	1.8182	0.1	167.
27249	6.256	2.0909	0.1	190.61
27250	6.348	2.	0.1	177.83
27251	6.256	2.2727	0.1	199.31
27252	6.348	2.1818	0.1	187.02
27253	6.256	2.4545	0.1	206.17
27254	6.348	2.3636	0.1	194.49
27255	6.256	2.6364	0.1	211.12
27256	6.348	2.5455	0.1	200.16
27257	6.256	2.8182	0.1	214.11
27258	6.348	2.7273	0.1	203.98
27259	6.256	3.	0.1	215.11
27260	6.348	2.9091	0.1	205.89
27261	6.256	3.1818	0.1	214.11
27262	6.348	3.0909	0.1	205.89
27263	6.256	3.3636	0.1	211.12
27264	6.348	3.2727	0.1	203.98
27265	6.256	3.5455	0.1	206.17
27266	6.348	3.4545	0.1	200.16
27267	6.256	3.7273	0.1	199.31
27268	6.348	3.6364	0.1	194.49
27269	6.256	3.9091	0.1	190.61
27270	6.348	3.8182	0.1	187.02
27271	6.256	4.0909	0.1	180.16
27272	6.348	4.	0.1	177.83
27273	6.256	4.2727	0.1	168.05
27274	6.348	4.1818	0.1	167.
27275	6.256	4.4545	0.1	154.41
27276	6.348	4.3636	0.1	154.63
27277	6.256	4.6364	0.1	139.35
27278	6.348	4.5455	0.1	140.85
27279	6.256	4.8182	0.1	123.02
27280	6.348	4.7273	0.1	125.78
27281	6.256	5.	0.1	105.56
27282	6.348	4.9091	0.1	109.56
27283	6.256	5.1818	0.1	87.116
27284	6.348	5.0909	0.1	92.323
27285	6.256	5.3636	0.1	67.845
27286	6.348	5.2727	0.1	74.214
27287	6.256	5.5455	0.1	47.868
27288	6.348	5.4545	0.1	55.385
27289	6.256	5.7273	0.1	27.218
27290	6.348	5.6364	0.1	35.92
27291	6.348	5.8182	0.1	15.784
27292	6.256	5.9091	0.1	8.6937
27293	6.44	0.27273	0.1	24.467
27294	6.532	0.18182	0.1	13.911
27295	6.44	9.0909e-002	0.1	7.618
27296	6.44	0.45455	0.1	43.433
27297	6.532	0.36364	0.1	32.425
27298	6.44	0.63636	0.1	61.751
27299	6.532	0.54545	0.1	50.267
27300	6.44	0.81818	0.1	79.416
27301	6.532	0.72727	0.1	67.52
27302	6.44	1.	0.1	96.319
27303	6.532	0.90909	0.1	84.109
27304	6.44	1.1818	0.1	112.32
27305	6.532	1.0909	0.1	99.899
27306	6.44	1.3636	0.1	127.28
27307	6.532	1.2727	0.1	114.76
27308	6.44	1.5455	0.1	141.07
27309	6.532	1.4545	0.1	128.56
27310	6.44	1.7273	0.1	153.57
27311	6.532	1.6364	0.1	141.18
27312	6.44	1.9091	0.1	164.66
27313	6.532	1.8182	0.1	152.5
27314	6.44	2.0909	0.1	174.23
27315	6.532	2.	0.1	162.43
27316	6.44	2.2727	0.1	182.2
27317	6.532	2.1818	0.1	170.85
27318	6.44	2.4545	0.1	188.48
27319	6.532	2.3636	0.1	177.69
27320	6.44	2.6364	0.1	193.02
27321	6.532	2.5455	0.1	182.89
27322	6.44	2.8182	0.1	195.76
27323	6.532	2.7273	0.1	186.38
27324	6.44	3.	0.1	196.67
27325	6.532	2.9091	0.1	188.13
27326	6.44	3.1818	0.1	195.76
27327	6.532	3.0909	0.1	188.13
27328	6.44	3.3636	0.1	193.02
27329	6.532	3.2727	0.1	186.38
27330	6.44	3.5455	0.1	188.48
27331	6.532	3.4545	0.1	182.89
27332	6.44	3.7273	0.1	182.2
27333	6.532	3.6364	0.1	177.69
27334	6.44	3.9091	0.1	174.23
27335	6.532	3.8182	0.1	170.85
27336	6.44	4.0909	0.1	164.66
27337	6.532	4.	0.1	162.43
27338	6.44	4.2727	0.1	153.57
27339	6.532	4.1818	0.1	152.5
27340	6.44	4.4545	0.1	141.07
27341	6.532	4.3636	0.1	141.18
27342	6.44	4.6364	0.1	127.28
27343	6.532	4.5455	0.1	128.56
27344	6.44	4.8182	0.1	112.32
27345	6.532	4.7273	0.1	114.76
27346	6.44	5.	0.1	96.319
27347	6.532	4.9091	0.1	99.899
27348	6.44	5.1818	0.1	79.416
27349	6.532	5.0909	0.1	84.109
27350	6.44	5.3636	0.1	61.751
27351	6.532	5.2727	0.1	67.52
27352	6.44	5.5455	0.1	43.433
27353	6.532	5.4545	0.1	50.267
27354	6.44	5.7273	0.1	24.467
27355	6.532	5.6364	0.1	32.425
27356	6.532	5.8182	0.1	13.911
27357	6.44	5.9091	0.1	7.618
27358	6.624	0.27273	0.1	21.856
27359	6.716	0.18182	0.1	12.12
27360	6.624	9.0909e-002	0.1	6.5846
27361	6.624	0.45455	0.1	39.258
27362	6.716	0.36364	0.1	29.125
27363	6.624	0.63636	0.1	56.035
27364	6.716	0.54545	0.1	45.457
27365	6.624	0.81818	0.1	72.211
27366	6.716	0.72727	0.1	61.245
27367	6.624	1.	0.1	87.687
27368	6.716	0.90909	0.1	76.427
27369	6.624	1.1818	0.1	102.34
27370	6.716	1.0909	0.1	90.878
27371	6.624	1.3636	0.1	116.04
27372	6.716	1.2727	0.1	104.48
27373	6.624	1.5455	0.1	128.67
27374	6.716	1.4545	0.1	117.11
27375	6.624	1.7273	0.1	140.11
27376	6.716	1.6364	0.1	128.67
27377	6.624	1.9091	0.1	150.27
27378	6.716	1.8182	0.1	139.04
27379	6.624	2.0909	0.1	159.04
27380	6.716	2.	0.1	148.13
27381	6.624	2.2727	0.1	166.34
27382	6.716	2.1818	0.1	155.84
27383	6.624	2.4545	0.1	172.09
27384	6.716	2.3636	0.1	162.11
27385	6.624	2.6364	0.1	176.24
27386	6.716	2.5455	0.1	166.87
27387	6.624	2.8182	0.1	178.75
27388	6.716	2.7273	0.1	170.07
27389	6.624	3.	0.1	179.59
27390	6.716	2.9091	0.1	171.68
27391	6.624	3.1818	0.1	178.75
27392	6.716	3.0909	0.1	171.68
27393	6.624	3.3636	0.1	176.24
27394	6.716	3.2727	0.1	170.07
27395	6.624	3.5455	0.1	172.09
27396	6.716	3.4545	0.1	166.87
27397	6.624	3.7273	0.1	166.34
27398	6.716	3.6364	0.1	162.11
27399	6.624	3.9091	0.1	159.04
27400	6.716	3.8182	0.1	155.84
27401	6.624	4.0909	0.1	150.27
27402	6.716	4.	0.1	148.13
27403	6.624	4.2727	0.1	140.11
27404	6.716	4.1818	0.1	139.04
27405	6.624	4.4545	0.1	128.67
27406	6.716	4.3636	0.1	128.67
27407	6.624	4.6364	0.1	116.04
27408	6.716	4.5455	0.1	117.11
27409	6.624	4.8182	0.1	102.34
27410	6.716	4.7273	0.1	104.48
27411	6.624	5.	0.1	87.687
27412	6.716	4.9091	0.1	90.878
27413	6.624	5.1818	0.1	72.211
27414	6.716	5.0909	0.1	76.427
27415	6.624	5.3636	0.1	56.035
27416	6.716	5.2727	0.1	61.245
27417	6.624	5.5455	0.1	39.258
27418	6.716	5.4545	0.1	45.457
27419	6.624	5.7273	0.1	21.856
27420	6.716	5.6364	0.1	29.125
27421	6.716	5.8182	0.1	12.12
27422	6.624	5.9091	0.1	6.5846
27423	6.808	0.27273	0.1	19.379
27424	6.9	0.18182	0.1	10.408
27425	6.808	9.0909e-002	0.1	5.5946
27426	6.808	0.45455	0.1	35.325
27427	6.9	0.36364	0.1	26.008
27428	6.808	0.63636	0.1	50.668
27429	6.9	0.54545	0.1	40.932
27430	6.808	0.81818	0.1	65.461
27431	6.9	0.72727	0.1	55.358
27432	6.808	1.	0.1	79.617
27433	6.9	0.90909	0.1	69.233
27434	6.808	1.1818	0.1	93.018
27435	6.9	1.0909	0.1	82.444
27436	6.808	1.3636	0.1	105.55
27437	6.9	1.2727	0.1	94.883
27438	6.808	1.5455	0.1	117.11
27439	6.9	1.4545	0.1	106.44
27440	6.808	1.7273	0.1	127.59
27441	6.9	1.6364	0.1	117.02
27442	6.808	1.9091	0.1	136.9
27443	6.9	1.8182	0.1	126.52
27444	6.808	2.0909	0.1	144.93
27445	6.9	2.	0.1	134.84
27446	6.808	2.2727	0.1	151.62
27447	6.9	2.1818	0.1	141.91
27448	6.808	2.4545	0.1	156.89
27449	6.9	2.3636	0.1	147.66
27450	6.808	2.6364	0.1	160.7
27451	6.9	2.5455	0.1	152.03
27452	6.808	2.8182	0.1	163.
27453	6.9	2.7273	0.1	154.96
27454	6.808	3.	0.1	163.77
27455	6.9	2.9091	0.1	156.44
27456	6.808	3.1818	0.1	163.
27457	6.9	3.0909	0.1	156.44
27458	6.808	3.3636	0.1	160.7
27459	6.9	3.2727	0.1	154.96
27460	6.808	3.5455	0.1	156.89
27461	6.9	3.4545	0.1	152.03
27462	6.808	3.7273	0.1	151.62
27463	6.9	3.6364	0.1	147.66
27464	6.808	3.9091	0.1	144.93
27465	6.9	3.8182	0.1	141.91
27466	6.808	4.0909	0.1	136.9
27467	6.9	4.	0.1	134.84
27468	6.808	4.2727	0.1	127.59
27469	6.9	4.1818	0.1	126.52
27470	6.808	4.4545	0.1	117.11
27471	6.9	4.3636	0.1	117.02
27472	6.808	4.6364	0.1	105.55
27473	6.9	4.5455	0.1	106.44
27474	6.808	4.8182	0.1	93.018
27475	6.9	4.7273	0.1	94.883
27476	6.808	5.	0.1	79.617
27477	6.9	4.9091	0.1	82.444
27478	6.808	5.1818	0.1	65.461
27479	6.9	5.0909	0.1	69.233
27480	6.808	5.3636	0.1	50.668
27481	6.9	5.2727	0.1	55.358
27482	6.808	5.5455	0.1	35.325
27483	6.9	5.4545	0.1	40.932
27484	6.808	5.7273	0.1	19.379
27485	6.9	5.6364	0.1	26.008
27486	6.9	5.8182	0.1	10.408
27487	6.808	5.9091	0.1	5.5946
27488	6.992	0.27273	0.1	17.03
27489	7.084	0.18182	0.1	8.7754
27490	6.992	9.0909e-002	0.1	4.6484
27491	6.992	0.45455	0.1	31.618
27492	7.084	0.36364	0.1	23.06
27493	6.992	0.63636	0.1	45.624
27494	7.084	0.54545	0.1	36.669
27495	6.992	0.81818	0.1	59.132
27496	7.084	0.72727	0.1	49.826
27497	6.992	1.	0.1	72.061
27498	7.084	0.90909	0.1	62.486
27499	6.992	1.1818	0.1	84.309
27500	7.084	1.0909	0.1	74.549
27501	6.992	1.3636	0.1	95.772
27502	7.084	1.2727	0.1	85.915
27503	6.992	1.5455	0.1	106.35
27504	7.084	1.4545	0.1	96.485
27505	6.992	1.7273	0.1	115.94
27506	7.084	1.6364	0.1	106.16
27507	6.992	1.9091	0.1	124.46
27508	7.084	1.8182	0.1	114.86
27509	6.992	2.0909	0.1	131.82
27510	7.084	2.	0.1	122.49
27511	6.992	2.2727	0.1	137.96
27512	7.084	2.1818	0.1	128.97
27513	6.992	2.4545	0.1	142.79
27514	7.084	2.3636	0.1	134.25
27515	6.992	2.6364	0.1	146.29
27516	7.084	2.5455	0.1	138.25
27517	6.992	2.8182	0.1	148.4
27518	7.084	2.7273	0.1	140.94
27519	6.992	3.	0.1	149.1
27520	7.084	2.9091	0.1	142.3
27521	6.992	3.1818	0.1	148.4
27522	7.084	3.0909	0.1	142.3
27523	6.992	3.3636	0.1	146.29
27524	7.084	3.2727	0.1	140.94
27525	6.992	3.5455	0.1	142.79
27526	7.084	3.4545	0.1	138.25
27527	6.992	3.7273	0.1	137.96
27528	7.084	3.6364	0.1	134.25
27529	6.992	3.9091	0.1	131.82
27530	7.084	3.8182	0.1	128.97
27531	6.992	4.0909	0.1	124.46
27532	7.084	4.	0.1	122.49
27533	6.992	4.2727	0.1	115.94
27534	7.084	4.1818	0.1	114.86
27535	6.992	4.4545	0.1	106.35
27536	7.084	4.3636	0.1	106.16
27537	6.992	4.6364	0.1	95.772
27538	7.084	4.5455	0.1	96.485
27539	6.992	4.8182	0.1	84.309
27540	7.084	4.7273	0.1	85.915
27541	6.992	5.	0.1	72.061
27542	7.084	4.9091	0.1	74.549
27543	6.992	5.1818	0.1	59.132
27544	7.084	5.0909	0.1	62.486
27545	6.992	5.3636	0.1	45.624
27546	7.084	5.2727	0.1	49.826
27547	6.992	5.5455	0.1	31.618
27548	7.084	5.4545	0.1	36.669
27549	6.992	5.7273	0.1	17.03
27550	7.084	5.6364	0.1	23.06
27551	7.084	5.8182	0.1	8.7755
27552	6.992	5.9091	0.1	4.6484
27553	7.176	0.27273	0.1	14.801
27554	7.268	0.18182	0.1	7.2192
27555	7.176	9.0909e-002	0.1	3.7461
27556	7.176	0.45455	0.1	28.117
27557	7.268	0.36364	0.1	20.27
27558	7.176	0.63636	0.1	40.875
27559	7.268	0.54545	0.1	32.646
27560	7.176	0.81818	0.1	53.184
27561	7.268	0.72727	0.1	44.617
27562	7.176	1.	0.1	64.976
27563	7.268	0.90909	0.1	56.146
27564	7.176	1.1818	0.1	76.156
27565	7.268	1.0909	0.1	67.143
27566	7.176	1.3636	0.1	86.628
27567	7.268	1.2727	0.1	77.516
27568	7.176	1.5455	0.1	96.3
27569	7.268	1.4545	0.1	87.175
27570	7.176	1.7273	0.1	105.08
27571	7.268	1.6364	0.1	96.029
27572	7.176	1.9091	0.1	112.89
27573	7.268	1.8182	0.1	103.99
27574	7.176	2.0909	0.1	119.64
27575	7.268	2.	0.1	110.99
27576	7.176	2.2727	0.1	125.26
27577	7.268	2.1818	0.1	116.94
27578	7.176	2.4545	0.1	129.7
27579	7.268	2.3636	0.1	121.78
27580	7.176	2.6364	0.1	132.91
27581	7.268	2.5455	0.1	125.46
27582	7.176	2.8182	0.1	134.85
27583	7.268	2.7273	0.1	127.94
27584	7.176	3.	0.1	135.5
27585	7.268	2.9091	0.1	129.18
27586	7.176	3.1818	0.1	134.85
27587	7.268	3.0909	0.1	129.18
27588	7.176	3.3636	0.1	132.91
27589	7.268	3.2727	0.1	127.94
27590	7.176	3.5455	0.1	129.7
27591	7.268	3.4545	0.1	125.46
27592	7.176	3.7273	0.1	125.26
27593	7.268	3.6364	0.1	121.78
27594	7.176	3.9091	0.1	119.64
27595	7.268	3.8182	0.1	116.94
27596	7.176	4.0909	0.1	112.89
27597	7.268	4.	0.1	110.99
27598	7.176	4.2727	0.1	105.08
27599	7.268	4.1818	0.1	103.99
27600	7.176	4.4545	0.1	96.3
27601	7.268	4.3636	0.1	96.029
27602	7.176	4.6364	0.1	86.628
27603	7.268	4.5455	0.1	87.175
27604	7.176	4.8182	0.1	76.156
27605	7.268	4.7273	0.1	77.516
27606	7.176	5.	0.1	64.976
27607	7.268	4.9091	0.1	67.143
27608	7.176	5.1818	0.1	53.184
27609	7.268	5.0909	0.1	56.146
27610	7.176	5.3636	0.1	40.875
27611	7.268	5.2727	0.1	44.617
27612	7.176	5.5455	0.1	28.117
27613	7.268	5.4545	0.1	32.646
27614	7.176	5.7273	0.1	14.801
27615	7.268	5.6364	0.1	20.27
27616	7.268	5.8182	0.1	7.2192
27617	7.176	5.9091	0.1	3.7461
27618	7.36	0.27273	0.1	12.684
27619	7.452	0.18182	0.1	5.7367
27620	7.36	9.0909e-002	0.1	2.8882
27621	7.36	0.45455	0.1	24.806
27622	7.452	0.36364	0.1	17.622
27623	7.36	0.63636	0.1	36.394
27624	7.452	0.54545	0.1	28.84
27625	7.36	0.81818	0.1	47.584
27626	7.452	0.72727	0.1	39.699
27627	7.36	1.	0.1	58.317
27628	7.452	0.90909	0.1	50.173
27629	7.36	1.1818	0.1	68.506
27630	7.452	1.0909	0.1	60.179
27631	7.36	1.3636	0.1	78.065
27632	7.452	1.2727	0.1	69.634
27633	7.36	1.5455	0.1	86.906
27634	7.452	1.4545	0.1	78.454
27635	7.36	1.7273	0.1	94.943
27636	7.452	1.6364	0.1	86.553
27637	7.36	1.9091	0.1	102.1
27638	7.452	1.8182	0.1	93.85
27639	7.36	2.0909	0.1	108.29
27640	7.452	2.	0.1	100.27
27641	7.36	2.2727	0.1	113.46
27642	7.452	2.1818	0.1	105.74
27643	7.36	2.4545	0.1	117.54
27644	7.452	2.3636	0.1	110.19
27645	7.36	2.6364	0.1	120.49
27646	7.452	2.5455	0.1	113.58
27647	7.36	2.8182	0.1	122.28
27648	7.452	2.7273	0.1	115.86
27649	7.36	3.	0.1	122.87
27650	7.452	2.9091	0.1	117.01
27651	7.36	3.1818	0.1	122.28
27652	7.452	3.0909	0.1	117.01
27653	7.36	3.3636	0.1	120.49
27654	7.452	3.2727	0.1	115.86
27655	7.36	3.5455	0.1	117.54
27656	7.452	3.4545	0.1	113.58
27657	7.36	3.7273	0.1	113.46
27658	7.452	3.6364	0.1	110.19
27659	7.36	3.9091	0.1	108.29
27660	7.452	3.8182	0.1	105.74
27661	7.36	4.0909	0.1	102.1
27662	7.452	4.	0.1	100.27
27663	7.36	4.2727	0.1	94.943
27664	7.452	4.1818	0.1	93.85
27665	7.36	4.4545	0.1	86.906
27666	7.452	4.3636	0.1	86.553
27667	7.36	4.6364	0.1	78.065
27668	7.452	4.5455	0.1	78.454
27669	7.36	4.8182	0.1	68.506
27670	7.452	4.7273	0.1	69.634
27671	7.36	5.	0.1	58.317
27672	7.452	4.9091	0.1	60.179
27673	7.36	5.1818	0.1	47.584
27674	7.452	5.0909	0.1	50.173
27675	7.36	5.3636	0.1	36.394
27676	7.452	5.2727	0.1	39.699
27677	7.36	5.5455	0.1	24.806
27678	7.452	5.4545	0.1	28.84
27679	7.36	5.7273	0.1	12.684
27680	7.452	5.6364	0.1	17.622
27681	7.452	5.8182	0.1	5.7368
27682	7.36	5.9091	0.1	2.8882
27683	7.544	0.27273	0.1	10.669
27684	7.636	0.18182	0.1	4.3256
27685	7.544	9.0909e-002	0.1	2.0768
27686	7.544	0.45455	0.1	21.664
27687	7.636	0.36364	0.1	15.102
27688	7.544	0.63636	0.1	32.152
27689	7.636	0.54545	0.1	25.225
27690	7.544	0.81818	0.1	42.294
27691	7.636	0.72727	0.1	35.039
27692	7.544	1.	0.1	52.04
27693	7.636	0.90909	0.1	44.525
27694	7.544	1.1818	0.1	61.311
27695	7.636	1.0909	0.1	53.61
27696	7.544	1.3636	0.1	70.026
27697	7.636	1.2727	0.1	62.216
27698	7.544	1.5455	0.1	78.104
27699	7.636	1.4545	0.1	70.264
27700	7.544	1.7273	0.1	85.463
27701	7.636	1.6364	0.1	77.673
27702	7.544	1.9091	0.1	92.024
27703	7.636	1.8182	0.1	84.364
27704	7.544	2.0909	0.1	97.715
27705	7.636	2.	0.1	90.261
27706	7.544	2.2727	0.1	102.47
27707	7.636	2.1818	0.1	95.294
27708	7.544	2.4545	0.1	106.23
27709	7.636	2.3636	0.1	99.401
27710	7.544	2.6364	0.1	108.95
27711	7.636	2.5455	0.1	102.53
27712	7.544	2.8182	0.1	110.6
27713	7.636	2.7273	0.1	104.64
27714	7.544	3.	0.1	111.15
27715	7.636	2.9091	0.1	105.7
27716	7.544	3.1818	0.1	110.6
27717	7.636	3.0909	0.1	105.7
27718	7.544	3.3636	0.1	108.95
27719	7.636	3.2727	0.1	104.64
27720	7.544	3.5455	0.1	106.23
27721	7.636	3.4545	0.1	102.53
27722	7.544	3.7273	0.1	102.47
27723	7.636	3.6364	0.1	99.401
27724	7.544	3.9091	0.1	97.715
27725	7.636	3.8182	0.1	95.294
27726	7.544	4.0909	0.1	92.024
27727	7.636	4.	0.1	90.261
27728	7.544	4.2727	0.1	85.463
27729	7.636	4.1818	0.1	84.364
27730	7.544	4.4545	0.1	78.104
27731	7.636	4.3636	0.1	77.673
27732	7.544	4.6364	0.1	70.026
27733	7.636	4.5455	0.1	70.264
27734	7.544	4.8182	0.1	61.311
27735	7.636	4.7273	0.1	62.216
27736	7.544	5.	0.1	52.04
27737	7.636	4.9091	0.1	53.61
27738	7.544	5.1818	0.1	42.294
27739	7.636	5.0909	0.1	44.525
27740	7.544	5.3636	0.1	32.152
27741	7.636	5.2727	0.1	35.039
27742	7.544	5.5455	0.1	21.664
27743	7.636	5.4545	0.1	25.225
27744	7.544	5.7273	0.1	10.669
27745	7.636	5.6364	0.1	15.102
27746	7.636	5.8182	0.1	4.3256
27747	7.544	5.9091	0.1	2.0768
27748	7.728	0.27273	0.1	8.7469
27749	7.82	0.18182	0.1	2.9857
27750	7.728	9.0909e-002	0.1	1.3206
27751	7.728	0.45455	0.1	18.674
27752	7.82	0.36364	0.1	12.696
27753	7.728	0.63636	0.1	28.121
27754	7.82	0.54545	0.1	21.779
27755	7.728	0.81818	0.1	37.278
27756	7.82	0.72727	0.1	30.606
27757	7.728	1.	0.1	46.102
27758	7.82	0.90909	0.1	39.164
27759	7.728	1.1818	0.1	54.52
27760	7.82	1.0909	0.1	47.39
27761	7.728	1.3636	0.1	62.458
27762	7.82	1.2727	0.1	55.21
27763	7.728	1.5455	0.1	69.836
27764	7.82	1.4545	0.1	62.549
27765	7.728	1.7273	0.1	76.577
27766	7.82	1.6364	0.1	69.329
27767	7.728	1.9091	0.1	82.603
27768	7.82	1.8182	0.1	75.471
27769	7.728	2.0909	0.1	87.842
27770	7.82	2.	0.1	80.901
27771	7.728	2.2727	0.1	92.228
27772	7.82	2.1818	0.1	85.547
27773	7.728	2.4545	0.1	95.703
27774	7.82	2.3636	0.1	89.347
27775	7.728	2.6364	0.1	98.219
27776	7.82	2.5455	0.1	92.246
27777	7.728	2.8182	0.1	99.744
27778	7.82	2.7273	0.1	94.203
27779	7.728	3.	0.1	100.25
27780	7.82	2.9091	0.1	95.189
27781	7.728	3.1818	0.1	99.744
27782	7.82	3.0909	0.1	95.189
27783	7.728	3.3636	0.1	98.219
27784	7.82	3.2727	0.1	94.203
27785	7.728	3.5455	0.1	95.703
27786	7.82	3.4545	0.1	92.246
27787	7.728	3.7273	0.1	92.228
27788	7.82	3.6364	0.1	89.347
27789	7.728	3.9091	0.1	87.842
27790	7.82	3.8182	0.1	85.547
27791	7.728	4.0909	0.1	82.603
27792	7.82	4.	0.1	80.901
27793	7.728	4.2727	0.1	76.577
27794	7.82	4.1818	0.1	75.471
27795	7.728	4.4545	0.1	69.836
27796	7.82	4.3636	0.1	69.329
27797	7.728	4.6364	0.1	62.458
27798	7.82	4.5455	0.1	62.549
27799	7.728	4.8182	0.1	54.52
27800	7.82	4.7273	0.1	55.21
27801	7.728	5.	0.1	46.102
27802	7.82	4.9091	0.1	47.39
27803	7.728	5.1818	0.1	37.278
27804	7.82	5.0909	0.1	39.164
27805	7.728	5.3636	0.1	28.121
27806	7.82	5.2727	0.1	30.606
27807	7.728	5.5455	0.1	18.674
27808	7.82	5.4545	0.1	21.779
27809	7.728	5.7273	0.1	8.747
27810	7.82	5.6364	0.1	12.696
27811	7.82	5.8182	0.1	2.9857
27812	7.728	5.9091	0.1	1.3207
27813	7.912	0.27273	0.1	6.9076
27814	8.004	0.18182	0.1	1.7286
27815	7.912	9.0909e-002	0.1	0.65831
27816	7.912	0.45455	0.1	15.813
27817	8.004	0.36364	0.1	10.385
27818	7.912	0.63636	0.1	24.273
27819	8.004	0.54545	0.1	18.475
27820	7.912	0.81818	0.1	32.5
27821	8.004	0.72727	0.1	26.364
27822	7.912	1.	0.1	40.459
27823	8.004	0.90909	0.1	34.049
27824	7.912	1.1818	0.1	48.085
27825	8.004	1.0909	0.1	41.471
27826	7.912	1.3636	0.1	55.306
27827	8.004	1.2727	0.1	48.564
27828	7.912	1.5455	0.1	62.046
27829	8.004	1.4545	0.1	55.254
27830	7.912	1.7273	0.1	68.227
27831	8.004	1.6364	0.1	61.463
27832	7.912	1.9091	0.1	73.773
27833	8.004	1.8182	0.1	67.114
27834	7.912	2.0909	0.1	78.61
27835	8.004	2.	0.1	72.129
27836	7.912	2.2727	0.1	82.67
27837	8.004	2.1818	0.1	76.435
27838	7.912	2.4545	0.1	85.894
27839	8.004	2.3636	0.1	79.966
27840	7.912	2.6364	0.1	88.233
27841	8.004	2.5455	0.1	82.667
27842	7.912	2.8182	0.1	89.651
27843	8.004	2.7273	0.1	84.493
27844	7.912	3.	0.1	90.126
27845	8.004	2.9091	0.1	85.414
27846	7.912	3.1818	0.1	89.651
27847	8.004	3.0909	0.1	85.414
27848	7.912	3.3636	0.1	88.233
27849	8.004	3.2727	0.1	84.493
27850	7.912	3.5455	0.1	85.894
27851	8.004	3.4545	0.1	82.667
27852	7.912	3.7273	0.1	82.67
27853	8.004	3.6364	0.1	79.966
27854	7.912	3.9091	0.1	78.61
27855	8.004	3.8182	0.1	76.435
27856	7.912	4.0909	0.1	73.773
27857	8.004	4.	0.1	72.129
27858	7.912	4.2727	0.1	68.227
27859	8.004	4.1818	0.1	67.114
27860	7.912	4.4545	0.1	62.046
27861	8.004	4.3636	0.1	61.463
27862	7.912	4.6364	0.1	55.306
27863	8.004	4.5455	0.1	55.254
27864	7.912	4.8182	0.1	48.085
27865	8.004	4.7273	0.1	48.564
27866	7.912	5.	0.1	40.459
27867	8.004	4.9091	0.1	41.471
27868	7.912	5.1818	0.1	32.5
27869	8.004	5.0909	0.1	34.049
27870	7.912	5.3636	0.1	24.273
27871	8.004	5.2727	0.1	26.364
27872	7.912	5.5455	0.1	15.813
27873	8.004	5.4545	0.1	18.475
27874	7.912	5.7273	0.1	6.9076
27875	8.004	5.6364	0.1	10.385
27876	8.004	5.8182	0.1	1.7286
27877	7.912	5.9091	0.1	0.65833
27878	8.096	0.27273	0.1	5.1397
27879	8.188	0.18182	0.1	0.64857
27880	8.096	9.0909e-002	0.1	0.2303
27881	8.096	0.45455	0.1	13.061
27882	8.188	0.36364	0.1	8.1543
27883	8.096	0.63636	0.1	20.577
27884	8.188	0.54545	0.1	15.287
27885	8.096	0.81818	0.1	27.922
27886	8.188	0.72727	0.1	22.279
27887	8.096	1.	0.1	35.069
27888	8.188	0.90909	0.1	29.137
27889	8.096	1.1818	0.1	41.957
27890	8.188	1.0909	0.1	35.807
27891	8.096	1.3636	0.1	48.518
27892	8.188	1.2727	0.1	42.227
27893	8.096	1.5455	0.1	54.677
27894	8.188	1.4545	0.1	48.324
27895	8.096	1.7273	0.1	60.355
27896	8.188	1.6364	0.1	54.02
27897	8.096	1.9091	0.1	65.475
27898	8.188	1.8182	0.1	59.234
27899	8.096	2.0909	0.1	69.958
27900	8.188	2.	0.1	63.886
27901	8.096	2.2727	0.1	73.736
27902	8.188	2.1818	0.1	67.899
27903	8.096	2.4545	0.1	76.744
27904	8.188	2.3636	0.1	71.202
27905	8.096	2.6364	0.1	78.931
27906	8.188	2.5455	0.1	73.736
27907	8.096	2.8182	0.1	80.26
27908	8.188	2.7273	0.1	75.452
27909	8.096	3.	0.1	80.705
27910	8.188	2.9091	0.1	76.319
27911	8.096	3.1818	0.1	80.26
27912	8.188	3.0909	0.1	76.319
27913	8.096	3.3636	0.1	78.931
27914	8.188	3.2727	0.1	75.452
27915	8.096	3.5455	0.1	76.744
27916	8.188	3.4545	0.1	73.736
27917	8.096	3.7273	0.1	73.736
27918	8.188	3.6364	0.1	71.202
27919	8.096	3.9091	0.1	69.958
27920	8.188	3.8182	0.1	67.899
27921	8.096	4.0909	0.1	65.475
27922	8.188	4.	0.1	63.886
27923	8.096	4.2727	0.1	60.355
27924	8.188	4.1818	0.1	59.234
27925	8.096	4.4545	0.1	54.677
27926	8.188	4.3636	0.1	54.02
27927	8.096	4.6364	0.1	48.518
27928	8.188	4.5455	0.1	48.324
27929	8.096	4.8182	0.1	41.957
27930	8.188	4.7273	0.1	42.227
27931	8.096	5.	0.1	35.069
27932	8.188	4.9091	0.1	35.807
27933	8.096	5.1818	0.1	27.922
27934	8.188	5.0909	0.1	29.137
27935	8.096	5.3636	0.1	20.577
27936	8.188	5.2727	0.1	22.279
27937	8.096	5.5455	0.1	13.061
27938	8.188	5.4545	0.1	15.287
27939	8.096	5.7273	0.1	5.1397
27940	8.188	5.6364	0.1	8.1543
27941	8.188	5.8182	0.1	0.64859
27942	8.096	5.9091	0.1	0.23031
27943	8.28	0.27273	0.1	3.4318
27944	8.372	0.18182	0.1	0.15237
27945	8.28	9.0909e-002	0.1	8.202e-002
27946	8.28	0.45455	0.1	10.394
27947	8.372	0.36364	0.1	5.9834
27948	8.28	0.63636	0.1	17.001
27949	8.372	0.54545	0.1	12.184
27950	8.28	0.81818	0.1	23.504
27951	8.372	0.72727	0.1	18.314
27952	8.28	1.	0.1	29.884
27953	8.372	0.90909	0.1	24.384
27954	8.28	1.1818	0.1	36.085
27955	8.372	1.0909	0.1	30.348
27956	8.28	1.3636	0.1	42.04
27957	8.372	1.2727	0.1	36.146
27958	8.28	1.5455	0.1	47.673
27959	8.372	1.4545	0.1	41.704
27960	8.28	1.7273	0.1	52.905
27961	8.372	1.6364	0.1	46.943
27962	8.28	1.9091	0.1	57.651
27963	8.372	1.8182	0.1	51.776
27964	8.28	2.0909	0.1	61.832
27965	8.372	2.	0.1	56.118
27966	8.28	2.2727	0.1	65.37
27967	8.372	2.1818	0.1	59.885
27968	8.28	2.4545	0.1	68.199
27969	8.372	2.3636	0.1	63.001
27970	8.28	2.6364	0.1	70.262
27971	8.372	2.5455	0.1	65.401
27972	8.28	2.8182	0.1	71.517
27973	8.372	2.7273	0.1	67.03
27974	8.28	3.	0.1	71.938
27975	8.372	2.9091	0.1	67.855
27976	8.28	3.1818	0.1	71.517
27977	8.372	3.0909	0.1	67.855
27978	8.28	3.3636	0.1	70.262
27979	8.372	3.2727	0.1	67.03
27980	8.28	3.5455	0.1	68.199
27981	8.372	3.4545	0.1	65.401
27982	8.28	3.7273	0.1	65.37
27983	8.372	3.6364	0.1	63.001
27984	8.28	3.9091	0.1	61.832
27985	8.372	3.8182	0.1	59.885
27986	8.28	4.0909	0.1	57.651
27987	8.372	4.	0.1	56.118
27988	8.28	4.2727	0.1	52.905
27989	8.372	4.1818	0.1	51.776
27990	8.28	4.4545	0.1	47.673
27991	8.372	4.3636	0.1	46.943
27992	8.28	4.6364	0.1	42.04
27993	8.372	4.5455	0.1	41.704
27994	8.28	4.8182	0.1	36.085
27995	8.372	4.7273	0.1	36.146
27996	8.28	5.	0.1	29.884
27997	8.372	4.9091	0.1	30.348
27998	8.28	5.1818	0.1	23.504
27999	8.372	5.0909	0.1	24.384
28000	8.28	5.3636	0.1	17.001
28001	8.372	5.2727	0.1	18.314
28002	8.28	5.5455	0.1	10.394
28003	8.372	5.4545	0.1	12.185
28004	8.28	5.7273	0.1	3.4319
28005	8.372	5.6364	0.1	5.9834
28006	8.372	5.8182	0.1	0.15237
28007	8.28	5.9091	0.1	8.2023e-002
28008	8.464	0.27273	0.1	1.7754
28009	8.556	0.18182	0.1	5.2364e-002
28010	8.464	9.0909e-002	0.1	3.3877e-002
28011	8.464	0.45455	0.1	7.7886
28012	8.556	0.36364	0.1	3.8522
28013	8.464	0.63636	0.1	13.51
28014	8.556	0.54545	0.1	9.1375
28015	8.464	0.81818	0.1	19.205
28016	8.556	0.72727	0.1	14.428
28017	8.464	1.	0.1	24.858
28018	8.556	0.90909	0.1	19.744
28019	8.464	1.1818	0.1	30.418
28020	8.556	1.0909	0.1	25.043
28021	8.464	1.3636	0.1	35.818
28022	8.556	1.2727	0.1	30.267
28023	8.464	1.5455	0.1	40.981
28024	8.556	1.4545	0.1	35.34
28025	8.464	1.7273	0.1	45.821
28026	8.556	1.6364	0.1	40.177
28027	8.464	1.9091	0.1	50.249
28028	8.556	1.8182	0.1	44.686
28029	8.464	2.0909	0.1	54.178
28030	8.556	2.	0.1	48.772
28031	8.464	2.2727	0.1	57.522
28032	8.556	2.1818	0.1	52.343
28033	8.464	2.4545	0.1	60.209
28034	8.556	2.3636	0.1	55.316
28035	8.464	2.6364	0.1	62.175
28036	8.556	2.5455	0.1	57.615
28037	8.464	2.8182	0.1	63.374
28038	8.556	2.7273	0.1	59.182
28039	8.464	3.	0.1	63.777
28040	8.556	2.9091	0.1	59.975
28041	8.464	3.1818	0.1	63.374
28042	8.556	3.0909	0.1	59.975
28043	8.464	3.3636	0.1	62.175
28044	8.556	3.2727	0.1	59.182
28045	8.464	3.5455	0.1	60.209
28046	8.556	3.4545	0.1	57.615
28047	8.464	3.7273	0.1	57.522
28048	8.556	3.6364	0.1	55.316
28049	8.464	3.9091	0.1	54.178
28050	8.556	3.8182	0.1	52.344
28051	8.464	4.0909	0.1	50.249
28052	8.556	4.	0.1	48.772
28053	8.464	4.2727	0.1	45.821
28054	8.556	4.1818	0.1	44.686
28055	8.464	4.4545	0.1	40.981
28056	8.556	4.3636	0.1	40.177
28057	8.464	4.6364	0.1	35.818
28058	8.556	4.5455	0.1	35.34
28059	8.464	4.8182	0.1	30.418
28060	8.556	4.7273	0.1	30.267
28061	8.464	5.	0.1	24.858
28062	8.556	4.9091	0.1	25.043
28063	8.464	5.1818	0.1	19.205
28064	8.556	5.0909	0.1	19.744
28065	8.464	5.3636	0.1	13.51
28066	8.556	5.2727	0.1	14.428
28067	8.464	5.5455	0.1	7.7886
28068	8.556	5.4545	0.1	9.1375
28069	8.464	5.7273	0.1	1.7754
28070	8.556	5.6364	0.1	3.8522
28071	8.556	5.8182	0.1	5.2366e-002
28072	8.464	5.9091	0.1	3.3879e-002
28073	8.648	0.27273	0.1	0.25614
28074	8.74	0.18182	0.1	2.2076e-002
28075	8.648	9.0909e-002	0.1	1.3333e-002
28076	8.648	0.45455	0.1	5.2169
28077	8.74	0.36364	0.1	1.7384
28078	8.648	0.63636	0.1	10.069
28079	8.74	0.54545	0.1	6.1117
28080	8.648	0.81818	0.1	14.979
28081	8.74	0.72727	0.1	10.579
28082	8.648	1.	0.1	19.94
28083	8.74	0.90909	0.1	15.167
28084	8.648	1.1818	0.1	24.902
28085	8.74	1.0909	0.1	19.839
28086	8.648	1.3636	0.1	29.797
28087	8.74	1.2727	0.1	24.534
28088	8.648	1.5455	0.1	34.544
28089	8.74	1.4545	0.1	29.173
28090	8.648	1.7273	0.1	39.049
28091	8.74	1.6364	0.1	33.665
28092	8.648	1.9091	0.1	43.215
28093	8.74	1.8182	0.1	37.908
28094	8.648	2.0909	0.1	46.944
28095	8.74	2.	0.1	41.796
28096	8.648	2.2727	0.1	50.143
28097	8.74	2.1818	0.1	45.225
28098	8.648	2.4545	0.1	52.728
28099	8.74	2.3636	0.1	48.099
28100	8.648	2.6364	0.1	54.627
28101	8.74	2.5455	0.1	50.335
28102	8.648	2.8182	0.1	55.789
28103	8.74	2.7273	0.1	51.864
28104	8.648	3.	0.1	56.18
28105	8.74	2.9091	0.1	52.641
28106	8.648	3.1818	0.1	55.789
28107	8.74	3.0909	0.1	52.641
28108	8.648	3.3636	0.1	54.627
28109	8.74	3.2727	0.1	51.864
28110	8.648	3.5455	0.1	52.728
28111	8.74	3.4545	0.1	50.335
28112	8.648	3.7273	0.1	50.143
28113	8.74	3.6364	0.1	48.099
28114	8.648	3.9091	0.1	46.944
28115	8.74	3.8182	0.1	45.225
28116	8.648	4.0909	0.1	43.215
28117	8.74	4.	0.1	41.796
28118	8.648	4.2727	0.1	39.049
28119	8.74	4.1818	0.1	37.908
28120	8.648	4.4545	0.1	34.544
28121	8.74	4.3636	0.1	33.665
28122	8.648	4.6364	0.1	29.797
28123	8.74	4.5455	0.1	29.173
28124	8.648	4.8182	0.1	24.902
28125	8.74	4.7273	0.1	24.534
28126	8.648	5.	0.1	19.94
28127	8.74	4.9091	0.1	19.839
28128	8.648	5.1818	0.1	14.979
28129	8.74	5.0909	0.1	15.167
28130	8.648	5.3636	0.1	10.069
28131	8.74	5.2727	0.1	10.579
28132	8.648	5.5455	0.1	5.2169
28133	8.74	5.4545	0.1	6.1118
28134	8.648	5.7273	0.1	0.25617
28135	8.74	5.6364	0.1	1.7385
28136	8.74	5.8182	0.1	2.2077e-002
28137	8.648	5.9091	0.1	1.3335e-002
28138	8.832	0.27273	0.1	8.1254e-003
28139	8.924	0.18182	0.1	9.3606e-003
28140	8.832	9.0909e-002	0.1	2.9027e-003
28141	8.832	0.45455	0.1	2.6494
28142	8.924	0.36364	0.1	-5.7202e-003
28143	8.832	0.63636	0.1	6.6364
28144	8.924	0.54545	0.1	3.0698
28145	8.832	0.81818	0.1	10.78
28146	8.924	0.72727	0.1	6.7201
28147	8.832	1.	0.1	15.077
28148	8.924	0.90909	0.1	10.6
28149	8.832	1.1818	0.1	19.48
28150	8.924	1.0909	0.1	14.676
28151	8.832	1.3636	0.1	23.919
28152	8.924	1.2727	0.1	18.886
28153	8.832	1.5455	0.1	28.304
28154	8.924	1.4545	0.1	23.145
28155	8.832	1.7273	0.1	32.533
28156	8.924	1.6364	0.1	27.351
28157	8.832	1.9091	0.1	36.496
28158	8.924	1.8182	0.1	31.389
28159	8.832	2.0909	0.1	40.083
28160	8.924	2.	0.1	35.139
28161	8.832	2.2727	0.1	43.188
28162	8.924	2.1818	0.1	38.483
28163	8.832	2.4545	0.1	45.713
28164	8.924	2.3636	0.1	41.309
28165	8.832	2.6364	0.1	47.579
28166	8.924	2.5455	0.1	43.522
28167	8.832	2.8182	0.1	48.724
28168	8.924	2.7273	0.1	45.043
28169	8.832	3.	0.1	49.11
28170	8.924	2.9091	0.1	45.817
28171	8.832	3.1818	0.1	48.724
28172	8.924	3.0909	0.1	45.817
28173	8.832	3.3636	0.1	47.579
28174	8.924	3.2727	0.1	45.043
28175	8.832	3.5455	0.1	45.713
28176	8.924	3.4545	0.1	43.522
28177	8.832	3.7273	0.1	43.188
28178	8.924	3.6364	0.1	41.309
28179	8.832	3.9091	0.1	40.083
28180	8.924	3.8182	0.1	38.483
28181	8.832	4.0909	0.1	36.496
28182	8.924	4.	0.1	35.139
28183	8.832	4.2727	0.1	32.533
28184	8.924	4.1818	0.1	31.389
28185	8.832	4.4545	0.1	28.304
28186	8.924	4.3636	0.1	27.351
28187	8.832	4.6364	0.1	23.919
28188	8.924	4.5455	0.1	23.145
28189	8.832	4.8182	0.1	19.48
28190	8.924	4.7273	0.1	18.886
28191	8.832	5.	0.1	15.077
28192	8.924	4.9091	0.1	14.676
28193	8.832	5.1818	0.1	10.78
28194	8.924	5.0909	0.1	10.6
28195	8.832	5.3636	0.1	6.6364
28196	8.924	5.2727	0.1	6.7201
28197	8.832	5.5455	0.1	2.6494
28198	8.924	5.4545	0.1	3.0698
28199	8.832	5.7273	0.1	8.1272e-003
28200	8.924	5.6364	0.1	-5.7181e-003
28201	8.924	5.8182	0.1	9.3618e-003
28202	8.832	5.9091	0.1	2.9041e-003
28203	9.016	0.27273	0.1	-6.2165e-004
28204	9.108	0.18182	0.1	3.5753e-003
28205	9.016	9.0909e-002	0.1	-2.8818e-003
28206	9.016	0.45455	0.1	6.2686e-002
28207	9.108	0.36364	0.1	-6.5658e-003
28208	9.016	0.63636	0.1	3.1686
28209	9.108	0.54545	0.1	7.9026e-003
28210	9.016	0.81818	0.1	6.5537
28211	9.108	0.72727	0.1	2.7996
28212	9.016	1.	0.1	10.211
28213	9.108	0.90909	0.1	5.9842
28214	9.016	1.1818	0.1	14.092
28215	9.108	1.0909	0.1	9.4932
28216	9.016	1.3636	0.1	18.122
28217	9.108	1.2727	0.1	13.261
28218	9.016	1.5455	0.1	22.202
28219	9.108	1.4545	0.1	17.193
28220	9.016	1.7273	0.1	26.216
28221	9.108	1.6364	0.1	21.174
28222	9.016	1.9091	0.1	30.04
28223	9.108	1.8182	0.1	25.073
28224	9.016	2.0909	0.1	33.546
28225	9.108	2.	0.1	28.751
28226	9.016	2.2727	0.1	36.612
28227	9.108	2.1818	0.1	32.072
28228	9.016	2.4545	0.1	39.126
28229	9.108	2.3636	0.1	34.907
28230	9.016	2.6364	0.1	40.994
28231	9.108	2.5455	0.1	37.141
28232	9.016	2.8182	0.1	42.144
28233	9.108	2.7273	0.1	38.684
28234	9.016	3.	0.1	42.532
28235	9.108	2.9091	0.1	39.472
28236	9.016	3.1818	0.1	42.144
28237	9.108	3.0909	0.1	39.472
28238	9.016	3.3636	0.1	40.994
28239	9.108	3.2727	0.1	38.684
28240	9.016	3.5455	0.1	39.126
28241	9.108	3.4545	0.1	37.141
28242	9.016	3.7273	0.1	36.612
28243	9.108	3.6364	0.1	34.907
28244	9.016	3.9091	0.1	33.546
28245	9.108	3.8182	0.1	32.072
28246	9.016	4.0909	0.1	30.04
28247	9.108	4.	0.1	28.751
28248	9.016	4.2727	0.1	26.216
28249	9.108	4.1818	0.1	25.073
28250	9.016	4.4545	0.1	22.202
28251	9.108	4.3636	0.1	21.174
28252	9.016	4.6364	0.1	18.122
28253	9.108	4.5455	0.1	17.193
28254	9.016	4.8182	0.1	14.092
28255	9.108	4.7273	0.1	13.261
28256	9.016	5.	0.1	10.211
28257	9.108	4.9091	0.1	9.4932
28258	9.016	5.1818	0.1	6.5538
28259	9.108	5.0909	0.1	5.9842
28260	9.016	5.3636	0.1	3.1687
28261	9.108	5.2727	0.1	2.7996
28262	9.016	5.5455	0.1	6.271e-002
28263	9.108	5.4545	0.1	7.91e-003
28264	9.016	5.7273	0.1	-6.2059e-004
28265	9.108	5.6364	0.1	-6.5647e-003
28266	9.108	5.8182	0.1	3.5765e-003
28267	9.016	5.9091	0.1	-2.8806e-003
28268	9.2	0.27273	0.1	-2.7167e-004
28269	9.292	0.18182	0.1	1.4221e-003
28270	9.2	9.0909e-002	0.1	-6.1839e-003
28271	9.2	0.45455	0.1	-5.6275e-003
28272	9.292	0.36364	0.1	-1.2881e-003
28273	9.2	0.63636	0.1	-5.0597e-003
28274	9.292	0.54545	0.1	-6.9659e-003
28275	9.2	0.81818	0.1	2.2444
28276	9.292	0.72727	0.1	-6.1302e-003
28277	9.2	1.	0.1	5.2788
28278	9.292	0.90909	0.1	1.2607
28279	9.2	1.1818	0.1	8.6724
28280	9.292	1.0909	0.1	4.2232
28281	9.2	1.3636	0.1	12.341
28282	9.292	1.2727	0.1	7.5887
28283	9.2	1.5455	0.1	16.174
28284	9.292	1.4545	0.1	11.249
28285	9.2	1.7273	0.1	20.039
28286	9.292	1.6364	0.1	15.07
28287	9.2	1.9091	0.1	23.792
28288	9.292	1.8182	0.1	18.901
28289	9.2	2.0909	0.1	27.286
28290	9.292	2.	0.1	22.581
28291	9.2	2.2727	0.1	30.375
28292	9.292	2.1818	0.1	25.949
28293	9.2	2.4545	0.1	32.93
28294	9.292	2.3636	0.1	28.853
28295	9.2	2.6364	0.1	34.839
28296	9.292	2.5455	0.1	31.159
28297	9.2	2.8182	0.1	36.02
28298	9.292	2.7273	0.1	32.759
28299	9.2	3.	0.1	36.42
28300	9.292	2.9091	0.1	33.579
28301	9.2	3.1818	0.1	36.02
28302	9.292	3.0909	0.1	33.579
28303	9.2	3.3636	0.1	34.839
28304	9.292	3.2727	0.1	32.759
28305	9.2	3.5455	0.1	32.93
28306	9.292	3.4545	0.1	31.159
28307	9.2	3.7273	0.1	30.375
28308	9.292	3.6364	0.1	28.853
28309	9.2	3.9091	0.1	27.286
28310	9.292	3.8182	0.1	25.949
28311	9.2	4.0909	0.1	23.793
28312	9.292	4.	0.1	22.581
28313	9.2	4.2727	0.1	20.039
28314	9.292	4.1818	0.1	18.901
28315	9.2	4.4545	0.1	16.174
28316	9.292	4.3636	0.1	15.07
28317	9.2	4.6364	0.1	12.341
28318	9.292	4.5455	0.1	11.249
28319	9.2	4.8182	0.1	8.6724
28320	9.292	4.7273	0.1	7.5887
28321	9.2	5.	0.1	5.2789
28322	9.292	4.9091	0.1	4.2232
28323	9.2	5.1818	0.1	2.2444
28324	9.292	5.0909	0.1	1.2607
28325	9.2	5.3636	0.1	-5.0586e-003
28326	9.292	5.2727	0.1	-6.1289e-003
28327	9.2	5.5455	0.1	-5.6267e-003
28328	9.292	5.4545	0.1	-6.9654e-003
28329	9.2	5.7273	0.1	-2.703e-004
28330	9.292	5.6364	0.1	-1.2869e-003
28331	9.292	5.8182	0.1	1.4233e-003
28332	9.2	5.9091	0.1	-6.1829e-003
28333	9.384	0.27273	0.1	2.475e-003
28334	9.476	0.18182	0.1	1.655e-003
28335	9.384	9.0909e-002	0.1	-8.001e-003
28336	9.384	0.45455	0.1	-2.8474e-003
28337	9.476	0.36364	0.1	4.5837e-003
28338	9.384	0.63636	0.1	-7.7251e-003
28339	9.476	0.54545	0.1	-6.8818e-003
28340	9.384	0.81818	0.1	-6.2619e-003
28341	9.476	0.72727	0.1	-8.0911e-003
28342	9.384	1.	0.1	0.27418
28343	9.476	0.90909	0.1	-6.1747e-003
28344	9.384	1.1818	0.1	3.1538
28345	9.476	1.0909	0.1	1.694e-002
28346	9.384	1.3636	0.1	6.5075
28347	9.476	1.2727	0.1	1.8146
28348	9.384	1.5455	0.1	10.155
28349	9.476	1.4545	0.1	5.2455
28350	9.384	1.7273	0.1	13.942
28351	9.476	1.6364	0.1	8.9749
28352	9.384	1.9091	0.1	17.699
28353	9.476	1.8182	0.1	12.815
28354	9.384	2.0909	0.1	21.253
28355	9.476	2.	0.1	16.577
28356	9.384	2.2727	0.1	24.435
28357	9.476	2.1818	0.1	20.068
28358	9.384	2.4545	0.1	27.09
28359	9.476	2.3636	0.1	23.11
28360	9.384	2.6364	0.1	29.087
28361	9.476	2.5455	0.1	25.544
28362	9.384	2.8182	0.1	30.326
28363	9.476	2.7273	0.1	27.242
28364	9.384	3.	0.1	30.747
28365	9.476	2.9091	0.1	28.114
28366	9.384	3.1818	0.1	30.326
28367	9.476	3.0909	0.1	28.114
28368	9.384	3.3636	0.1	29.087
28369	9.476	3.2727	0.1	27.242
28370	9.384	3.5455	0.1	27.09
28371	9.476	3.4545	0.1	25.544
28372	9.384	3.7273	0.1	24.435
28373	9.476	3.6364	0.1	23.11
28374	9.384	3.9091	0.1	21.253
28375	9.476	3.8182	0.1	20.068
28376	9.384	4.0909	0.1	17.699
28377	9.476	4.	0.1	16.577
28378	9.384	4.2727	0.1	13.942
28379	9.476	4.1818	0.1	12.815
28380	9.384	4.4545	0.1	10.155
28381	9.476	4.3636	0.1	8.9749
28382	9.384	4.6364	0.1	6.5075
28383	9.476	4.5455	0.1	5.2455
28384	9.384	4.8182	0.1	3.1539
28385	9.476	4.7273	0.1	1.8146
28386	9.384	5.	0.1	0.2742
28387	9.476	4.9091	0.1	1.6942e-002
28388	9.384	5.1818	0.1	-6.2607e-003
28389	9.476	5.0909	0.1	-6.1734e-003
28390	9.384	5.3636	0.1	-7.7241e-003
28391	9.476	5.2727	0.1	-8.0896e-003
28392	9.384	5.5455	0.1	-2.8466e-003
28393	9.476	5.4545	0.1	-6.8814e-003
28394	9.384	5.7273	0.1	2.4761e-003
28395	9.476	5.6364	0.1	4.5848e-003
28396	9.476	5.8182	0.1	1.6561e-003
28397	9.384	5.9091	0.1	-8.0001e-003
28398	9.568	0.27273	0.1	6.4093e-003
28399	9.66	0.18182	0.1	3.7915e-003
28400	9.568	9.0909e-002	0.1	-8.8343e-003
28401	9.568	0.45455	0.1	5.1422e-005
28402	9.66	0.36364	0.1	1.0908e-002
28403	9.568	0.63636	0.1	-7.9372e-003
28404	9.66	0.54545	0.1	-6.9523e-003
28405	9.568	0.81818	0.1	-8.5459e-003
28406	9.66	0.72727	0.1	-8.4942e-003
28407	9.568	1.	0.1	-5.6493e-003
28408	9.66	0.90909	0.1	-8.7904e-003
28409	9.568	1.1818	0.1	9.0198e-003
28410	9.66	1.0909	0.1	-4.6723e-003
28411	9.568	1.3636	0.1	0.64431
28412	9.66	1.2727	0.1	7.5955e-003
28413	9.568	1.5455	0.1	4.081
28414	9.66	1.4545	0.1	9.7924e-002
28415	9.568	1.7273	0.1	7.8596
28416	9.66	1.6364	0.1	2.8397
28417	9.568	1.9091	0.1	11.703
28418	9.66	1.8182	0.1	6.7553
28419	9.568	2.0909	0.1	15.401
28420	9.66	2.	0.1	10.683
28421	9.568	2.2727	0.1	18.752
28422	9.66	2.1818	0.1	14.384
28423	9.568	2.4545	0.1	21.573
28424	9.66	2.3636	0.1	17.642
28425	9.568	2.6364	0.1	23.708
28426	9.66	2.5455	0.1	20.268
28427	9.568	2.8182	0.1	25.039
28428	9.66	2.7273	0.1	22.109
28429	9.568	3.	0.1	25.491
28430	9.66	2.9091	0.1	23.056
28431	9.568	3.1818	0.1	25.039
28432	9.66	3.0909	0.1	23.056
28433	9.568	3.3636	0.1	23.708
28434	9.66	3.2727	0.1	22.109
28435	9.568	3.5455	0.1	21.573
28436	9.66	3.4545	0.1	20.268
28437	9.568	3.7273	0.1	18.752
28438	9.66	3.6364	0.1	17.642
28439	9.568	3.9091	0.1	15.401
28440	9.66	3.8182	0.1	14.384
28441	9.568	4.0909	0.1	11.703
28442	9.66	4.	0.1	10.683
28443	9.568	4.2727	0.1	7.8596
28444	9.66	4.1818	0.1	6.7554
28445	9.568	4.4545	0.1	4.081
28446	9.66	4.3636	0.1	2.8398
28447	9.568	4.6364	0.1	0.64434
28448	9.66	4.5455	0.1	9.7928e-002
28449	9.568	4.8182	0.1	9.0211e-003
28450	9.66	4.7273	0.1	7.5966e-003
28451	9.568	5.	0.1	-5.648e-003
28452	9.66	4.9091	0.1	-4.6716e-003
28453	9.568	5.1818	0.1	-8.5442e-003
28454	9.66	5.0909	0.1	-8.7903e-003
28455	9.568	5.3636	0.1	-7.9362e-003
28456	9.66	5.2727	0.1	-8.4928e-003
28457	9.568	5.5455	0.1	5.2095e-005
28458	9.66	5.4545	0.1	-6.9521e-003
28459	9.568	5.7273	0.1	6.4104e-003
28460	9.66	5.6364	0.1	1.0909e-002
28461	9.66	5.8182	0.1	3.7926e-003
28462	9.568	5.9091	0.1	-8.8332e-003
28463	9.752	0.27273	0.1	1.1205e-002
28464	9.844	0.18182	0.1	7.6952e-003
28465	9.752	9.0909e-002	0.1	-8.943e-003
28466	9.752	0.45455	0.1	3.0345e-003
28467	9.844	0.36364	0.1	1.7737e-002
28468	9.752	0.63636	0.1	-8.268e-003
28469	9.844	0.54545	0.1	-7.2441e-003
28470	9.752	0.81818	0.1	-9.433e-003
28471	9.844	0.72727	0.1	-8.908e-003
28472	9.752	1.	0.1	-8.3576e-003
28473	9.844	0.90909	0.1	-1.0077e-002
28474	9.752	1.1818	0.1	-3.4451e-003
28475	9.844	1.0909	0.1	-7.3947e-003
28476	9.752	1.3636	0.1	8.1727e-003
28477	9.844	1.2727	0.1	-1.5316e-003
28478	9.752	1.5455	0.1	5.409e-002
28479	9.844	1.4545	0.1	1.0261e-002
28480	9.752	1.7273	0.1	1.7822
28481	9.844	1.6364	0.1	4.3938e-002
28482	9.752	1.9091	0.1	5.7493
28483	9.844	1.8182	0.1	0.84773
28484	9.752	2.0909	0.1	9.6769
28485	9.844	2.	0.1	4.8559
28486	9.752	2.2727	0.1	13.284
28487	9.844	2.1818	0.1	8.8512
28488	9.752	2.4545	0.1	16.346
28489	9.844	2.3636	0.1	12.411
28490	9.752	2.6364	0.1	18.677
28491	9.844	2.5455	0.1	15.3
28492	9.752	2.8182	0.1	20.135
28493	9.844	2.7273	0.1	17.335
28494	9.752	3.	0.1	20.632
28495	9.844	2.9091	0.1	18.385
28496	9.752	3.1818	0.1	20.135
28497	9.844	3.0909	0.1	18.385
28498	9.752	3.3636	0.1	18.677
28499	9.844	3.2727	0.1	17.335
28500	9.752	3.5455	0.1	16.346
28501	9.844	3.4545	0.1	15.3
28502	9.752	3.7273	0.1	13.284
28503	9.844	3.6364	0.1	12.411
28504	9.752	3.9091	0.1	9.6769
28505	9.844	3.8182	0.1	8.8513
28506	9.752	4.0909	0.1	5.7494
28507	9.844	4.	0.1	4.856
28508	9.752	4.2727	0.1	1.7822
28509	9.844	4.1818	0.1	0.84776
28510	9.752	4.4545	0.1	5.4092e-002
28511	9.844	4.3636	0.1	4.394e-002
28512	9.752	4.6364	0.1	8.1737e-003
28513	9.844	4.5455	0.1	1.0262e-002
28514	9.752	4.8182	0.1	-3.4443e-003
28515	9.844	4.7273	0.1	-1.5306e-003
28516	9.752	5.	0.1	-8.3565e-003
28517	9.844	4.9091	0.1	-7.3941e-003
28518	9.752	5.1818	0.1	-9.4317e-003
28519	9.844	5.0909	0.1	-1.0075e-002
28520	9.752	5.3636	0.1	-8.2673e-003
28521	9.844	5.2727	0.1	-8.907e-003
28522	9.752	5.5455	0.1	3.0351e-003
28523	9.844	5.4545	0.1	-7.2436e-003
28524	9.752	5.7273	0.1	1.1206e-002
28525	9.844	5.6364	0.1	1.7738e-002
28526	9.844	5.8182	0.1	7.6963e-003
28527	9.752	5.9091	0.1	-8.9419e-003
28528	9.936	0.27273	0.1	1.6779e-002
28529	10.028	0.18182	0.1	1.3404e-002
28530	9.936	9.0909e-002	0.1	-8.4532e-003
28531	9.936	0.45455	0.1	6.1241e-003
28532	10.028	0.36364	0.1	2.5161e-002
28533	9.936	0.63636	0.1	-8.795e-003
28534	10.028	0.54545	0.1	-7.7889e-003
28535	9.936	0.81818	0.1	-1.0255e-002
28536	10.028	0.72727	0.1	-9.4343e-003
28537	9.936	1.	0.1	-9.7608e-003
28538	10.028	0.90909	0.1	-1.1192e-002
28539	9.936	1.1818	0.1	-6.0676e-003
28540	10.028	1.0909	0.1	-8.7793e-003
28541	9.936	1.3636	0.1	6.7585e-004
28542	10.028	1.2727	0.1	-3.9457e-003
28543	9.936	1.5455	0.1	1.2672e-002
28544	10.028	1.4545	0.1	3.9297e-003
28545	9.936	1.7273	0.1	4.1344e-002
28546	10.028	1.6364	0.1	1.6665e-002
28547	9.936	1.9091	0.1	0.36282
28548	10.028	1.8182	0.1	4.3639e-002
28549	9.936	2.0909	0.1	4.0483
28550	10.028	2.	0.1	0.22012
28551	9.936	2.2727	0.1	7.9889
28552	10.028	2.1818	0.1	3.4483
28553	9.936	2.4545	0.1	11.374
28554	10.028	2.3636	0.1	7.3792
28555	9.936	2.6364	0.1	13.967
28556	10.028	2.5455	0.1	10.61
28557	9.936	2.8182	0.1	15.594
28558	10.028	2.7273	0.1	12.896
28559	9.936	3.	0.1	16.149
28560	10.028	2.9091	0.1	14.079
28561	9.936	3.1818	0.1	15.594
28562	10.028	3.0909	0.1	14.079
28563	9.936	3.3636	0.1	13.967
28564	10.028	3.2727	0.1	12.896
28565	9.936	3.5455	0.1	11.374
28566	10.028	3.4545	0.1	10.61
28567	9.936	3.7273	0.1	7.9889
28568	10.028	3.6364	0.1	7.3792
28569	9.936	3.9091	0.1	4.0483
28570	10.028	3.8182	0.1	3.4483
28571	9.936	4.0909	0.1	0.36284
28572	10.028	4.	0.1	0.22013
28573	9.936	4.2727	0.1	4.1345e-002
28574	10.028	4.1818	0.1	4.364e-002
28575	9.936	4.4545	0.1	1.2673e-002
28576	10.028	4.3636	0.1	1.6665e-002
28577	9.936	4.6364	0.1	6.7696e-004
28578	10.028	4.5455	0.1	3.9305e-003
28579	9.936	4.8182	0.1	-6.0668e-003
28580	10.028	4.7273	0.1	-3.9447e-003
28581	9.936	5.	0.1	-9.7599e-003
28582	10.028	4.9091	0.1	-8.7789e-003
28583	9.936	5.1818	0.1	-1.0254e-002
28584	10.028	5.0909	0.1	-1.119e-002
28585	9.936	5.3636	0.1	-8.7941e-003
28586	10.028	5.2727	0.1	-9.4332e-003
28587	9.936	5.5455	0.1	6.1251e-003
28588	10.028	5.4545	0.1	-7.7881e-003
28589	9.936	5.7273	0.1	1.678e-002
28590	10.028	5.6364	0.1	2.5162e-002
28591	10.028	5.8182	0.1	1.3405e-002
28592	9.936	5.9091	0.1	-8.4526e-003
28593	10.12	0.27273	0.1	2.313e-002
28594	10.212	0.18182	0.1	2.1038e-002
28595	10.12	9.0909e-002	0.1	-7.4136e-003
28596	10.12	0.45455	0.1	9.3531e-003
28597	10.212	0.36364	0.1	3.328e-002
28598	10.12	0.63636	0.1	-9.5393e-003
28599	10.212	0.54545	0.1	-8.6139e-003
28600	10.12	0.81818	0.1	-1.1137e-002
28601	10.212	0.72727	0.1	-1.008e-002
28602	10.12	1.	0.1	-1.0861e-002
28603	10.212	0.90909	0.1	-1.2269e-002
28604	10.12	1.1818	0.1	-7.3009e-003
28605	10.212	1.0909	0.1	-9.691e-003
28606	10.12	1.3636	0.1	-1.3758e-003
28607	10.212	1.2727	0.1	-4.8532e-003
28608	10.12	1.5455	0.1	7.3241e-003
28609	10.212	1.4545	0.1	2.3909e-003
28610	10.12	1.7273	0.1	2.0448e-002
28611	10.212	1.6364	0.1	1.2214e-002
28612	10.12	1.9091	0.1	4.5849e-002
28613	10.212	1.8182	0.1	2.6274e-002
28614	10.12	2.0909	0.1	0.16826
28615	10.212	2.	0.1	5.1939e-002
28616	10.12	2.2727	0.1	2.8617
28617	10.212	2.1818	0.1	0.15887
28618	10.12	2.4545	0.1	6.6246
28619	10.212	2.3636	0.1	2.5531
28620	10.12	2.6364	0.1	9.5478
28621	10.212	2.5455	0.1	6.1652
28622	10.12	2.8182	0.1	11.39
28623	10.212	2.7273	0.1	8.7634
28624	10.12	3.	0.1	12.019
28625	10.212	2.9091	0.1	10.113
28626	10.12	3.1818	0.1	11.39
28627	10.212	3.0909	0.1	10.113
28628	10.12	3.3636	0.1	9.5478
28629	10.212	3.2727	0.1	8.7634
28630	10.12	3.5455	0.1	6.6246
28631	10.212	3.4545	0.1	6.1653
28632	10.12	3.7273	0.1	2.8617
28633	10.212	3.6364	0.1	2.5531
28634	10.12	3.9091	0.1	0.16827
28635	10.212	3.8182	0.1	0.15888
28636	10.12	4.0909	0.1	4.585e-002
28637	10.212	4.	0.1	5.194e-002
28638	10.12	4.2727	0.1	2.0449e-002
28639	10.212	4.1818	0.1	2.6274e-002
28640	10.12	4.4545	0.1	7.3246e-003
28641	10.212	4.3636	0.1	1.2215e-002
28642	10.12	4.6364	0.1	-1.3752e-003
28643	10.212	4.5455	0.1	2.3918e-003
28644	10.12	4.8182	0.1	-7.3003e-003
28645	10.212	4.7273	0.1	-4.8524e-003
28646	10.12	5.	0.1	-1.086e-002
28647	10.212	4.9091	0.1	-9.6904e-003
28648	10.12	5.1818	0.1	-1.1136e-002
28649	10.212	5.0909	0.1	-1.2267e-002
28650	10.12	5.3636	0.1	-9.5384e-003
28651	10.212	5.2727	0.1	-1.0079e-002
28652	10.12	5.5455	0.1	9.3539e-003
28653	10.212	5.4545	0.1	-8.6135e-003
28654	10.12	5.7273	0.1	2.313e-002
28655	10.212	5.6364	0.1	3.3281e-002
28656	10.212	5.8182	0.1	2.1039e-002
28657	10.12	5.9091	0.1	-7.413e-003
28658	10.304	0.27273	0.1	3.0269e-002
28659	10.396	0.18182	0.1	3.0726e-002
28660	10.304	9.0909e-002	0.1	-5.8226e-003
28661	10.304	0.45455	0.1	1.2752e-002
28662	10.396	0.36364	0.1	4.2189e-002
28663	10.304	0.63636	0.1	-1.0508e-002
28664	10.396	0.54545	0.1	-9.7453e-003
28665	10.304	0.81818	0.1	-1.2078e-002
28666	10.396	0.72727	0.1	-1.0818e-002
28667	10.304	1.	0.1	-1.1786e-002
28668	10.396	0.90909	0.1	-1.3288e-002
28669	10.304	1.1818	0.1	-7.8927e-003
28670	10.396	1.0909	0.1	-1.0234e-002
28671	10.304	1.3636	0.1	-1.7906e-003
28672	10.396	1.2727	0.1	-4.8893e-003
28673	10.304	1.5455	0.1	6.4331e-003
28674	10.396	1.4545	0.1	2.7098e-003
28675	10.304	1.7273	0.1	1.6954e-002
28676	10.396	1.6364	0.1	1.2177e-002
28677	10.304	1.9091	0.1	3.1221e-002
28678	10.396	1.8182	0.1	2.3742e-002
28679	10.304	2.0909	0.1	5.5682e-002
28680	10.396	2.	0.1	3.8801e-002
28681	10.304	2.2727	0.1	0.14444
28682	10.396	2.1818	0.1	6.3752e-002
28683	10.304	2.4545	0.1	2.1162
28684	10.396	2.3636	0.1	0.15146
28685	10.304	2.6364	0.1	5.3891
28686	10.396	2.5455	0.1	1.9856
28687	10.304	2.8182	0.1	7.494
28688	10.396	2.7273	0.1	4.9042
28689	10.304	3.	0.1	8.2148
28690	10.396	2.9091	0.1	6.4535
28691	10.304	3.1818	0.1	7.494
28692	10.396	3.0909	0.1	6.4535
28693	10.304	3.3636	0.1	5.3891
28694	10.396	3.2727	0.1	4.9042
28695	10.304	3.5455	0.1	2.1163
28696	10.396	3.4545	0.1	1.9856
28697	10.304	3.7273	0.1	0.14444
28698	10.396	3.6364	0.1	0.15147
28699	10.304	3.9091	0.1	5.5683e-002
28700	10.396	3.8182	0.1	6.3753e-002
28701	10.304	4.0909	0.1	3.1222e-002
28702	10.396	4.	0.1	3.8802e-002
28703	10.304	4.2727	0.1	1.6955e-002
28704	10.396	4.1818	0.1	2.3743e-002
28705	10.304	4.4545	0.1	6.434e-003
28706	10.396	4.3636	0.1	1.2178e-002
28707	10.304	4.6364	0.1	-1.7896e-003
28708	10.396	4.5455	0.1	2.7107e-003
28709	10.304	4.8182	0.1	-7.892e-003
28710	10.396	4.7273	0.1	-4.8886e-003
28711	10.304	5.	0.1	-1.1785e-002
28712	10.396	4.9091	0.1	-1.0233e-002
28713	10.304	5.1818	0.1	-1.2076e-002
28714	10.396	5.0909	0.1	-1.3286e-002
28715	10.304	5.3636	0.1	-1.0507e-002
28716	10.396	5.2727	0.1	-1.0817e-002
28717	10.304	5.5455	0.1	1.2753e-002
28718	10.396	5.4545	0.1	-9.745e-003
28719	10.304	5.7273	0.1	3.027e-002
28720	10.396	5.6364	0.1	4.219e-002
28721	10.396	5.8182	0.1	3.0727e-002
28722	10.304	5.9091	0.1	-5.8217e-003
28723	10.488	0.27273	0.1	3.8182e-002
28724	10.58	0.18182	0.1	4.2521e-002
28725	10.488	9.0909e-002	0.1	-3.6499e-003
28726	10.488	0.45455	0.1	1.6349e-002
28727	10.58	0.36364	0.1	5.1962e-002
28728	10.488	0.63636	0.1	-1.1694e-002
28729	10.58	0.54545	0.1	-1.1206e-002
28730	10.488	0.81818	0.1	-1.3026e-002
28731	10.58	0.72727	0.1	-1.1591e-002
28732	10.488	1.	0.1	-1.2489e-002
28733	10.58	0.90909	0.1	-1.416e-002
28734	10.488	1.1818	0.1	-7.9097e-003
28735	10.58	1.0909	0.1	-1.0319e-002
28736	10.488	1.3636	0.1	-1.0978e-003
28737	10.58	1.2727	0.1	-4.0725e-003
28738	10.488	1.5455	0.1	7.6196e-003
28739	10.58	1.4545	0.1	4.4563e-003
28740	10.488	1.7273	0.1	1.7877e-002
28741	10.58	1.6364	0.1	1.4556e-002
28742	10.488	1.9091	0.1	2.975e-002
28743	10.58	1.8182	0.1	2.5892e-002
28744	10.488	2.0909	0.1	4.4314e-002
28745	10.58	2.	0.1	3.8406e-002
28746	10.488	2.2727	0.1	6.6728e-002
28747	10.58	2.1818	0.1	5.2985e-002
28748	10.488	2.4545	0.1	0.13639
28749	10.58	2.3636	0.1	7.43e-002
28750	10.488	2.6364	0.1	1.5189
28751	10.58	2.5455	0.1	0.13879
28752	10.488	2.8182	0.1	3.8688
28753	10.58	2.7273	0.1	1.3321
28754	10.488	3.	0.1	4.6971
28755	10.58	2.9091	0.1	3.0554
28756	10.488	3.1818	0.1	3.8688
28757	10.58	3.0909	0.1	3.0554
28758	10.488	3.3636	0.1	1.5189
28759	10.58	3.2727	0.1	1.3322
28760	10.488	3.5455	0.1	0.1364
28761	10.58	3.4545	0.1	0.13879
28762	10.488	3.7273	0.1	6.6729e-002
28763	10.58	3.6364	0.1	7.4301e-002
28764	10.488	3.9091	0.1	4.4315e-002
28765	10.58	3.8182	0.1	5.2986e-002
28766	10.488	4.0909	0.1	2.9751e-002
28767	10.58	4.	0.1	3.8407e-002
28768	10.488	4.2727	0.1	1.7877e-002
28769	10.58	4.1818	0.1	2.5892e-002
28770	10.488	4.4545	0.1	7.6202e-003
28771	10.58	4.3636	0.1	1.4557e-002
28772	10.488	4.6364	0.1	-1.0972e-003
28773	10.58	4.5455	0.1	4.4571e-003
28774	10.488	4.8182	0.1	-7.909e-003
28775	10.58	4.7273	0.1	-4.0719e-003
28776	10.488	5.	0.1	-1.2488e-002
28777	10.58	4.9091	0.1	-1.0318e-002
28778	10.488	5.1818	0.1	-1.3024e-002
28779	10.58	5.0909	0.1	-1.4159e-002
28780	10.488	5.3636	0.1	-1.1693e-002
28781	10.58	5.2727	0.1	-1.159e-002
28782	10.488	5.5455	0.1	1.6349e-002
28783	10.58	5.4545	0.1	-1.1205e-002
28784	10.488	5.7273	0.1	3.8183e-002
28785	10.58	5.6364	0.1	5.1962e-002
28786	10.58	5.8182	0.1	4.2522e-002
28787	10.488	5.9091	0.1	-3.6495e-003
28788	10.672	0.27273	0.1	4.6779e-002
28789	10.764	0.18182	0.1	5.6286e-002
28790	10.672	9.0909e-002	0.1	-8.5743e-004
28791	10.672	0.45455	0.1	2.0155e-002
28792	10.764	0.36364	0.1	6.2625e-002
28793	10.672	0.63636	0.1	-1.3072e-002
28794	10.764	0.54545	0.1	-1.3011e-002
28795	10.672	0.81818	0.1	-1.3883e-002
28796	10.764	0.72727	0.1	-1.2303e-002
28797	10.672	1.	0.1	-1.2835e-002
28798	10.764	0.90909	0.1	-1.4729e-002
28799	10.672	1.1818	0.1	-7.2163e-003
28800	10.764	1.0909	0.1	-9.7468e-003
28801	10.672	1.3636	0.1	7.422e-004
28802	10.764	1.2727	0.1	-2.2036e-003
28803	10.672	1.5455	0.1	1.0554e-002
28804	10.764	1.4545	0.1	7.7425e-003
28805	10.672	1.7273	0.1	2.1527e-002
28806	10.764	1.6364	0.1	1.9117e-002
28807	10.672	1.9091	0.1	3.314e-002
28808	10.764	1.8182	0.1	3.1232e-002
28809	10.672	2.0909	0.1	4.5027e-002
28810	10.764	2.	0.1	4.3337e-002
28811	10.672	2.2727	0.1	5.732e-002
28812	10.764	2.1818	0.1	5.4719e-002
28813	10.672	2.4545	0.1	7.2004e-002
28814	10.764	2.3636	0.1	6.4725e-002
28815	10.672	2.6364	0.1	0.10352
28816	10.764	2.5455	0.1	7.2855e-002
28817	10.672	2.8182	0.1	0.56324
28818	10.764	2.7273	0.1	7.903e-002
28819	10.672	3.	0.1	1.41
28820	10.764	2.9091	0.1	8.8178e-002
28821	10.672	3.1818	0.1	0.56326
28822	10.764	3.0909	0.1	8.8179e-002
28823	10.672	3.3636	0.1	0.10352
28824	10.764	3.2727	0.1	7.9031e-002
28825	10.672	3.5455	0.1	7.2004e-002
28826	10.764	3.4545	0.1	7.2855e-002
28827	10.672	3.7273	0.1	5.7321e-002
28828	10.764	3.6364	0.1	6.4725e-002
28829	10.672	3.9091	0.1	4.5028e-002
28830	10.764	3.8182	0.1	5.4719e-002
28831	10.672	4.0909	0.1	3.3141e-002
28832	10.764	4.	0.1	4.3338e-002
28833	10.672	4.2727	0.1	2.1528e-002
28834	10.764	4.1818	0.1	3.1232e-002
28835	10.672	4.4545	0.1	1.0556e-002
28836	10.764	4.3636	0.1	1.9118e-002
28837	10.672	4.6364	0.1	7.4297e-004
28838	10.764	4.5455	0.1	7.7431e-003
28839	10.672	4.8182	0.1	-7.2158e-003
28840	10.764	4.7273	0.1	-2.2028e-003
28841	10.672	5.	0.1	-1.2834e-002
28842	10.764	4.9091	0.1	-9.7461e-003
28843	10.672	5.1818	0.1	-1.3881e-002
28844	10.764	5.0909	0.1	-1.4727e-002
28845	10.672	5.3636	0.1	-1.3071e-002
28846	10.764	5.2727	0.1	-1.2302e-002
28847	10.672	5.5455	0.1	2.0155e-002
28848	10.764	5.4545	0.1	-1.3011e-002
28849	10.672	5.7273	0.1	4.678e-002
28850	10.764	5.6364	0.1	6.2626e-002
28851	10.764	5.8182	0.1	5.6287e-002
28852	10.672	5.9091	0.1	-8.5648e-004
28853	10.856	0.27273	0.1	5.5837e-002
28854	10.948	0.18182	0.1	7.1533e-002
28855	10.856	9.0909e-002	0.1	2.5807e-003
28856	10.856	0.45455	0.1	2.4162e-002
28857	10.948	0.36364	0.1	7.4125e-002
28858	10.856	0.63636	0.1	-1.4588e-002
28859	10.948	0.54545	0.1	-1.5165e-002
28860	10.856	0.81818	0.1	-1.4494e-002
28861	10.948	0.72727	0.1	-1.2804e-002
28862	10.856	1.	0.1	-1.26e-002
28863	10.948	0.90909	0.1	-1.4754e-002
28864	10.856	1.1818	0.1	-5.5473e-003
28865	10.948	1.0909	0.1	-8.2116e-003
28866	10.856	1.3636	0.1	3.9993e-003
28867	10.948	1.2727	0.1	1.0653e-003
28868	10.856	1.5455	0.1	1.5428e-002
28869	10.948	1.4545	0.1	1.2922e-002
28870	10.856	1.7273	0.1	2.7772e-002
28871	10.948	1.6364	0.1	2.614e-002
28872	10.856	1.9091	0.1	4.0099e-002
28873	10.948	1.8182	0.1	3.9721e-002
28874	10.856	2.0909	0.1	5.1293e-002
28875	10.948	2.	0.1	5.239e-002
28876	10.856	2.2727	0.1	5.9913e-002
28877	10.948	2.1818	0.1	6.2533e-002
28878	10.856	2.4545	0.1	6.3619e-002
28879	10.948	2.3636	0.1	6.7757e-002
28880	10.856	2.6364	0.1	5.7177e-002
28881	10.948	2.5455	0.1	6.367e-002
28882	10.856	2.8182	0.1	2.7395e-002
28883	10.948	2.7273	0.1	4.1264e-002
28884	10.856	3.	0.1	-1.345e-002
28885	10.948	2.9091	0.1	-3.8587e-003
28886	10.856	3.1818	0.1	2.7395e-002
28887	10.948	3.0909	0.1	-3.8587e-003
28888	10.856	3.3636	0.1	5.7178e-002
28889	10.948	3.2727	0.1	4.1265e-002
28890	10.856	3.5455	0.1	6.362e-002
28891	10.948	3.4545	0.1	6.3671e-002
28892	10.856	3.7273	0.1	5.9914e-002
28893	10.948	3.6364	0.1	6.7758e-002
28894	10.856	3.9091	0.1	5.1293e-002
28895	10.948	3.8182	0.1	6.2534e-002
28896	10.856	4.0909	0.1	4.01e-002
28897	10.948	4.	0.1	5.2391e-002
28898	10.856	4.2727	0.1	2.7773e-002
28899	10.948	4.1818	0.1	3.9722e-002
28900	10.856	4.4545	0.1	1.5428e-002
28901	10.948	4.3636	0.1	2.6141e-002
28902	10.856	4.6364	0.1	4.0001e-003
28903	10.948	4.5455	0.1	1.2922e-002
28904	10.856	4.8182	0.1	-5.5463e-003
28905	10.948	4.7273	0.1	1.066e-003
28906	10.856	5.	0.1	-1.2598e-002
28907	10.948	4.9091	0.1	-8.2107e-003
28908	10.856	5.1818	0.1	-1.4492e-002
28909	10.948	5.0909	0.1	-1.4752e-002
28910	10.856	5.3636	0.1	-1.4588e-002
28911	10.948	5.2727	0.1	-1.2804e-002
28912	10.856	5.5455	0.1	2.4162e-002
28913	10.948	5.4545	0.1	-1.5165e-002
28914	10.856	5.7273	0.1	5.5838e-002
28915	10.948	5.6364	0.1	7.4125e-002
28916	10.948	5.8182	0.1	7.1534e-002
28917	10.856	5.9091	0.1	2.5822e-003
28918	11.04	0.27273	0.1	6.492e-002
28919	11.132	0.18182	0.1	8.7196e-002
28920	11.04	9.0909e-002	0.1	6.6496e-003
28921	11.04	0.45455	0.1	2.8322e-002
28922	11.132	0.36364	0.1	8.627e-002
28923	11.04	0.63636	0.1	-1.6151e-002
28924	11.132	0.54545	0.1	-1.7652e-002
28925	11.04	0.81818	0.1	-1.4623e-002
28926	11.132	0.72727	0.1	-1.2872e-002
28927	11.04	1.	0.1	-1.1459e-002
28928	11.132	0.90909	0.1	-1.3887e-002
28929	11.04	1.1818	0.1	-2.5115e-003
28930	11.132	1.0909	0.1	-5.2799e-003
28931	11.04	1.3636	0.1	9.1063e-003
28932	11.132	1.2727	0.1	6.225e-003
28933	11.04	1.5455	0.1	2.2681e-002
28934	11.132	1.4545	0.1	2.0526e-002
28935	11.04	1.7273	0.1	3.6978e-002
28936	11.132	1.6364	0.1	3.6166e-002
28937	11.04	1.9091	0.1	5.0669e-002
28938	11.132	1.8182	0.1	5.1816e-002
28939	11.04	2.0909	0.1	6.2013e-002
28940	11.132	2.	0.1	6.5655e-002
28941	11.04	2.2727	0.1	6.8601e-002
28942	11.132	2.1818	0.1	7.5265e-002
28943	11.04	2.4545	0.1	6.6608e-002
28944	11.132	2.3636	0.1	7.7109e-002
28945	11.04	2.6364	0.1	4.9538e-002
28946	11.132	2.5455	0.1	6.5539e-002
28947	11.04	2.8182	0.1	1.1653e-002
28948	11.132	2.7273	0.1	3.317e-002
28949	11.04	3.	0.1	-1.7735e-002
28950	11.132	2.9091	0.1	-1.1652e-002
28951	11.04	3.1818	0.1	1.1653e-002
28952	11.132	3.0909	0.1	-1.1652e-002
28953	11.04	3.3636	0.1	4.9538e-002
28954	11.132	3.2727	0.1	3.317e-002
28955	11.04	3.5455	0.1	6.6609e-002
28956	11.132	3.4545	0.1	6.5539e-002
28957	11.04	3.7273	0.1	6.8602e-002
28958	11.132	3.6364	0.1	7.711e-002
28959	11.04	3.9091	0.1	6.2013e-002
28960	11.132	3.8182	0.1	7.5266e-002
28961	11.04	4.0909	0.1	5.0669e-002
28962	11.132	4.	0.1	6.5655e-002
28963	11.04	4.2727	0.1	3.6979e-002
28964	11.132	4.1818	0.1	5.1817e-002
28965	11.04	4.4545	0.1	2.2682e-002
28966	11.132	4.3636	0.1	3.6167e-002
28967	11.04	4.6364	0.1	9.1069e-003
28968	11.132	4.5455	0.1	2.0527e-002
28969	11.04	4.8182	0.1	-2.5108e-003
28970	11.132	4.7273	0.1	6.2257e-003
28971	11.04	5.	0.1	-1.1457e-002
28972	11.132	4.9091	0.1	-5.279e-003
28973	11.04	5.1818	0.1	-1.4622e-002
28974	11.132	5.0909	0.1	-1.3885e-002
28975	11.04	5.3636	0.1	-1.6151e-002
28976	11.132	5.2727	0.1	-1.2872e-002
28977	11.04	5.5455	0.1	2.8322e-002
28978	11.132	5.4545	0.1	-1.7651e-002
28979	11.04	5.7273	0.1	6.4921e-002
28980	11.132	5.6364	0.1	8.6271e-002
28981	11.132	5.8182	0.1	8.7197e-002
28982	11.04	5.9091	0.1	6.6507e-003
28983	11.224	0.27273	0.1	7.3268e-002
28984	11.316	0.18182	0.1	0.10134
28985	11.224	9.0909e-002	0.1	1.125e-002
28986	11.224	0.45455	0.1	3.2524e-002
28987	11.316	0.36364	0.1	9.8659e-002
28988	11.224	0.63636	0.1	-1.7608e-002
28989	11.316	0.54545	0.1	-2.042e-002
28990	11.224	0.81818	0.1	-1.393e-002
28991	11.316	0.72727	0.1	-1.218e-002
28992	11.224	1.	0.1	-8.9509e-003
28993	11.316	0.90909	0.1	-1.1631e-002
28994	11.224	1.1818	0.1	2.4273e-003
28995	11.316	1.0909	0.1	-3.5711e-004
28996	11.224	1.3636	0.1	1.6654e-002
28997	11.316	1.2727	0.1	1.3931e-002
28998	11.224	1.5455	0.1	3.2944e-002
28999	11.316	1.4545	0.1	3.126e-002
29000	11.224	1.7273	0.1	4.9774e-002
29001	11.316	1.6364	0.1	4.9935e-002
29002	11.224	1.9091	0.1	6.5359e-002
29003	11.316	1.8182	0.1	6.8238e-002
29004	11.224	2.0909	0.1	7.7272e-002
29005	11.316	2.	0.1	8.3677e-002
29006	11.224	2.2727	0.1	8.2173e-002
29007	11.316	2.1818	0.1	9.2899e-002
29008	11.224	2.4545	0.1	7.5167e-002
29009	11.316	2.3636	0.1	9.1226e-002
29010	11.224	2.6364	0.1	4.9661e-002
29011	11.316	2.5455	0.1	7.2133e-002
29012	11.224	2.8182	0.1	5.0122e-003
29013	11.316	2.7273	0.1	3.0034e-002
29014	11.224	3.	0.1	-2.3861e-002
29015	11.316	2.9091	0.1	-1.9176e-002
29016	11.224	3.1818	0.1	5.0121e-003
29017	11.316	3.0909	0.1	-1.9176e-002
29018	11.224	3.3636	0.1	4.9661e-002
29019	11.316	3.2727	0.1	3.0034e-002
29020	11.224	3.5455	0.1	7.5167e-002
29021	11.316	3.4545	0.1	7.2133e-002
29022	11.224	3.7273	0.1	8.2174e-002
29023	11.316	3.6364	0.1	9.1226e-002
29024	11.224	3.9091	0.1	7.7273e-002
29025	11.316	3.8182	0.1	9.29e-002
29026	11.224	4.0909	0.1	6.536e-002
29027	11.316	4.	0.1	8.3677e-002
29028	11.224	4.2727	0.1	4.9775e-002
29029	11.316	4.1818	0.1	6.8239e-002
29030	11.224	4.4545	0.1	3.2945e-002
29031	11.316	4.3636	0.1	4.9936e-002
29032	11.224	4.6364	0.1	1.6655e-002
29033	11.316	4.5455	0.1	3.1261e-002
29034	11.224	4.8182	0.1	2.4282e-003
29035	11.316	4.7273	0.1	1.3932e-002
29036	11.224	5.	0.1	-8.9496e-003
29037	11.316	4.9091	0.1	-3.562e-004
29038	11.224	5.1818	0.1	-1.3928e-002
29039	11.316	5.0909	0.1	-1.163e-002
29040	11.224	5.3636	0.1	-1.7607e-002
29041	11.316	5.2727	0.1	-1.2179e-002
29042	11.224	5.5455	0.1	3.2525e-002
29043	11.316	5.4545	0.1	-2.0419e-002
29044	11.224	5.7273	0.1	7.3269e-002
29045	11.316	5.6364	0.1	9.866e-002
29046	11.316	5.8182	0.1	0.10134
29047	11.224	5.9091	0.1	1.1252e-002
29048	11.408	0.27273	0.1	7.9649e-002
29049	11.5	0.18182	0.1	0.11078
29050	11.408	9.0909e-002	0.1	1.615e-002
29051	11.408	0.45455	0.1	3.6564e-002
29052	11.5	0.36364	0.1	0.11057
29053	11.408	0.63636	0.1	-1.8719e-002
29054	11.5	0.54545	0.1	-2.3375e-002
29055	11.408	0.81818	0.1	-1.1921e-002
29056	11.5	0.72727	0.1	-1.0258e-002
29057	11.408	1.	0.1	-4.4369e-003
29058	11.5	0.90909	0.1	-7.2898e-003
29059	11.408	1.1818	0.1	9.9891e-003
29060	11.5	1.0909	0.1	7.362e-003
29061	11.408	1.3636	0.1	2.7413e-002
29062	11.5	1.2727	0.1	2.5034e-002
29063	11.408	1.5455	0.1	4.7027e-002
29064	11.5	1.4545	0.1	4.6e-002
29065	11.408	1.7273	0.1	6.6987e-002
29066	11.5	1.6364	0.1	6.8349e-002
29067	11.408	1.9091	0.1	8.4925e-002
29068	11.5	1.8182	0.1	8.9869e-002
29069	11.408	2.0909	0.1	9.7538e-002
29070	11.5	2.	0.1	0.10716
29071	11.408	2.2727	0.1	0.10038
29072	11.5	2.1818	0.1	0.11565
29073	11.408	2.4545	0.1	8.747e-002
29074	11.5	2.3636	0.1	0.10933
29075	11.408	2.6364	0.1	5.2341e-002
29076	11.5	2.5455	0.1	8.0934e-002
29077	11.408	2.8182	0.1	-1.2705e-003
29078	11.5	2.7273	0.1	2.7052e-002
29079	11.408	3.	0.1	-3.268e-002
29080	11.5	2.9091	0.1	-2.9292e-002
29081	11.408	3.1818	0.1	-1.2703e-003
29082	11.5	3.0909	0.1	-2.9292e-002
29083	11.408	3.3636	0.1	5.2341e-002
29084	11.5	3.2727	0.1	2.7052e-002
29085	11.408	3.5455	0.1	8.7471e-002
29086	11.5	3.4545	0.1	8.0934e-002
29087	11.408	3.7273	0.1	0.10038
29088	11.5	3.6364	0.1	0.10933
29089	11.408	3.9091	0.1	9.7538e-002
29090	11.5	3.8182	0.1	0.11565
29091	11.408	4.0909	0.1	8.4926e-002
29092	11.5	4.	0.1	0.10716
29093	11.408	4.2727	0.1	6.6988e-002
29094	11.5	4.1818	0.1	8.9869e-002
29095	11.408	4.4545	0.1	4.7028e-002
29096	11.5	4.3636	0.1	6.835e-002
29097	11.408	4.6364	0.1	2.7414e-002
29098	11.5	4.5455	0.1	4.6001e-002
29099	11.408	4.8182	0.1	9.99e-003
29100	11.5	4.7273	0.1	2.5034e-002
29101	11.408	5.	0.1	-4.4356e-003
29102	11.5	4.9091	0.1	7.3629e-003
29103	11.408	5.1818	0.1	-1.192e-002
29104	11.5	5.0909	0.1	-7.2882e-003
29105	11.408	5.3636	0.1	-1.8718e-002
29106	11.5	5.2727	0.1	-1.0257e-002
29107	11.408	5.5455	0.1	3.6565e-002
29108	11.5	5.4545	0.1	-2.3374e-002
29109	11.408	5.7273	0.1	7.965e-002
29110	11.5	5.6364	0.1	0.11057
29111	11.5	5.8182	0.1	0.11078
29112	11.408	5.9091	0.1	1.615e-002
29113	11.592	0.27273	0.1	8.2179e-002
29114	11.684	0.18182	0.1	0.11076
29115	11.592	9.0909e-002	0.1	2.0906e-002
29116	11.592	0.45455	0.1	4.0091e-002
29117	11.684	0.36364	0.1	0.12079
29118	11.592	0.63636	0.1	-1.9128e-002
29119	11.684	0.54545	0.1	-2.6355e-002
29120	11.592	0.81818	0.1	-7.9009e-003
29121	11.684	0.72727	0.1	-6.452e-003
29122	11.592	1.	0.1	2.9647e-003
29123	11.684	0.90909	0.1	1.1142e-004
29124	11.592	1.1818	0.1	2.1123e-002
29125	11.684	1.0909	0.1	1.8969e-002
29126	11.592	1.3636	0.1	4.2346e-002
29127	11.684	1.2727	0.1	4.0639e-002
29128	11.592	1.5455	0.1	6.5895e-002
29129	11.684	1.4545	0.1	6.5832e-002
29130	11.592	1.7273	0.1	8.9558e-002
29131	11.684	1.6364	0.1	9.2482e-002
29132	11.592	1.9091	0.1	0.11018
29133	11.684	1.8182	0.1	0.11773
29134	11.592	2.0909	0.1	0.12327
29135	11.684	2.	0.1	0.13689
29136	11.592	2.2727	0.1	0.12295
29137	11.684	2.1818	0.1	0.14365
29138	11.592	2.4545	0.1	0.10211
29139	11.684	2.3636	0.1	0.13039
29140	11.592	2.6364	0.1	5.4834e-002
29141	11.684	2.5455	0.1	8.9517e-002
29142	11.592	2.8182	0.1	-1.0089e-002
29143	11.684	2.7273	0.1	2.1071e-002
29144	11.592	3.	0.1	-4.5451e-002
29145	11.684	2.9091	0.1	-4.4036e-002
29146	11.592	3.1818	0.1	-1.0089e-002
29147	11.684	3.0909	0.1	-4.4036e-002
29148	11.592	3.3636	0.1	5.4834e-002
29149	11.684	3.2727	0.1	2.1071e-002
29150	11.592	3.5455	0.1	0.10211
29151	11.684	3.4545	0.1	8.9517e-002
29152	11.592	3.7273	0.1	0.12295
29153	11.684	3.6364	0.1	0.13039
29154	11.592	3.9091	0.1	0.12327
29155	11.684	3.8182	0.1	0.14365
29156	11.592	4.0909	0.1	0.11018
29157	11.684	4.	0.1	0.13689
29158	11.592	4.2727	0.1	8.9559e-002
29159	11.684	4.1818	0.1	0.11773
29160	11.592	4.4545	0.1	6.5896e-002
29161	11.684	4.3636	0.1	9.2484e-002
29162	11.592	4.6364	0.1	4.2347e-002
29163	11.684	4.5455	0.1	6.5832e-002
29164	11.592	4.8182	0.1	2.1124e-002
29165	11.684	4.7273	0.1	4.0639e-002
29166	11.592	5.	0.1	2.9659e-003
29167	11.684	4.9091	0.1	1.8969e-002
29168	11.592	5.1818	0.1	-7.8995e-003
29169	11.684	5.0909	0.1	1.1308e-004
29170	11.592	5.3636	0.1	-1.9127e-002
29171	11.684	5.2727	0.1	-6.4508e-003
29172	11.592	5.5455	0.1	4.0091e-002
29173	11.684	5.4545	0.1	-2.6354e-002
29174	11.592	5.7273	0.1	8.2179e-002
29175	11.684	5.6364	0.1	0.1208
29176	11.684	5.8182	0.1	0.11076
29177	11.592	5.9091	0.1	2.0906e-002
29178	11.776	0.27273	0.1	7.8127e-002
29179	11.868	0.18182	0.1	9.4636e-002
29180	11.776	9.0909e-002	0.1	2.4787e-002
29181	11.776	0.45455	0.1	4.2549e-002
29182	11.868	0.36364	0.1	0.1275
29183	11.776	0.63636	0.1	-1.8319e-002
29184	11.868	0.54545	0.1	-2.9129e-002
29185	11.776	0.81818	0.1	-8.9509e-004
29186	11.868	0.72727	0.1	1.2005e-004
29187	11.776	1.	0.1	1.4471e-002
29188	11.868	0.90909	0.1	1.1901e-002
29189	11.776	1.1818	0.1	3.7101e-002
29190	11.868	1.0909	0.1	3.5927e-002
29191	11.776	1.3636	0.1	6.2691e-002
29192	11.868	1.2727	0.1	6.2151e-002
29193	11.776	1.5455	0.1	9.0737e-002
29194	11.868	1.4545	0.1	9.2004e-002
29195	11.776	1.7273	0.1	0.11863
29196	11.868	1.6364	0.1	0.12341
29197	11.776	1.9091	0.1	0.14211
29198	11.868	1.8182	0.1	0.15268
29199	11.776	2.0909	0.1	0.1549
29200	11.868	2.	0.1	0.17315
29201	11.776	2.2727	0.1	0.14924
29202	11.868	2.1818	0.1	0.17616
29203	11.776	2.4545	0.1	0.11702
29204	11.868	2.3636	0.1	0.15224
29205	11.776	2.6364	0.1	5.4078e-002
29206	11.868	2.5455	0.1	9.4352e-002
29207	11.776	2.8182	0.1	-2.4164e-002
29208	11.868	2.7273	0.1	8.3857e-003
29209	11.776	3.	0.1	-6.4008e-002
29210	11.868	2.9091	0.1	-6.5948e-002
29211	11.776	3.1818	0.1	-2.4164e-002
29212	11.868	3.0909	0.1	-6.5948e-002
29213	11.776	3.3636	0.1	5.4078e-002
29214	11.868	3.2727	0.1	8.3853e-003
29215	11.776	3.5455	0.1	0.11702
29216	11.868	3.4545	0.1	9.4352e-002
29217	11.776	3.7273	0.1	0.14924
29218	11.868	3.6364	0.1	0.15224
29219	11.776	3.9091	0.1	0.1549
29220	11.868	3.8182	0.1	0.17616
29221	11.776	4.0909	0.1	0.14211
29222	11.868	4.	0.1	0.17315
29223	11.776	4.2727	0.1	0.11863
29224	11.868	4.1818	0.1	0.15268
29225	11.776	4.4545	0.1	9.0738e-002
29226	11.868	4.3636	0.1	0.12341
29227	11.776	4.6364	0.1	6.2692e-002
29228	11.868	4.5455	0.1	9.2005e-002
29229	11.776	4.8182	0.1	3.7101e-002
29230	11.868	4.7273	0.1	6.2151e-002
29231	11.776	5.	0.1	1.4472e-002
29232	11.868	4.9091	0.1	3.5928e-002
29233	11.776	5.1818	0.1	-8.9355e-004
29234	11.868	5.0909	0.1	1.1902e-002
29235	11.776	5.3636	0.1	-1.8318e-002
29236	11.868	5.2727	0.1	1.2164e-004
29237	11.776	5.5455	0.1	4.255e-002
29238	11.868	5.4545	0.1	-2.9129e-002
29239	11.776	5.7273	0.1	7.8128e-002
29240	11.868	5.6364	0.1	0.1275
29241	11.868	5.8182	0.1	9.4636e-002
29242	11.776	5.9091	0.1	2.4787e-002
29243	11.96	0.27273	0.1	6.376e-002
29244	12.052	0.18182	0.1	5.4091e-002
29245	11.96	9.0909e-002	0.1	2.6641e-002
29246	11.96	0.45455	0.1	4.3083e-002
29247	12.052	0.36364	0.1	0.12805
29248	11.96	0.63636	0.1	-1.56e-002
29249	12.052	0.54545	0.1	-3.1335e-002
29250	11.96	0.81818	0.1	1.04e-002
29251	12.052	0.72727	0.1	1.0646e-002
29252	11.96	1.	0.1	3.1713e-002
29253	12.052	0.90909	0.1	2.9904e-002
29254	11.96	1.1818	0.1	5.9561e-002
29255	12.052	1.0909	0.1	6.0274e-002
29256	11.96	1.3636	0.1	8.9887e-002
29257	12.052	1.2727	0.1	9.1568e-002
29258	11.96	1.5455	0.1	0.12268
29259	12.052	1.4545	0.1	0.12631
29260	11.96	1.7273	0.1	0.15494
29261	12.052	1.6364	0.1	0.16281
29262	11.96	1.9091	0.1	0.18081
29263	12.052	1.8182	0.1	0.19615
29264	11.96	2.0909	0.1	0.19152
29265	12.052	2.	0.1	0.21705
29266	11.96	2.2727	0.1	0.17703
29267	12.052	2.1818	0.1	0.21257
29268	11.96	2.4545	0.1	0.12854
29269	12.052	2.3636	0.1	0.17124
29270	11.96	2.6364	0.1	4.5738e-002
29271	12.052	2.5455	0.1	8.9937e-002
29272	11.96	2.8182	0.1	-4.6971e-002
29273	12.052	2.7273	0.1	-1.595e-002
29274	11.96	3.	0.1	-9.0962e-002
29275	12.052	2.9091	0.1	-9.8396e-002
29276	11.96	3.1818	0.1	-4.6972e-002
29277	12.052	3.0909	0.1	-9.8396e-002
29278	11.96	3.3636	0.1	4.5738e-002
29279	12.052	3.2727	0.1	-1.595e-002
29280	11.96	3.5455	0.1	0.12854
29281	12.052	3.4545	0.1	8.9937e-002
29282	11.96	3.7273	0.1	0.17703
29283	12.052	3.6364	0.1	0.17124
29284	11.96	3.9091	0.1	0.19153
29285	12.052	3.8182	0.1	0.21257
29286	11.96	4.0909	0.1	0.18081
29287	12.052	4.	0.1	0.21705
29288	11.96	4.2727	0.1	0.15494
29289	12.052	4.1818	0.1	0.19615
29290	11.96	4.4545	0.1	0.12268
29291	12.052	4.3636	0.1	0.16281
29292	11.96	4.6364	0.1	8.9888e-002
29293	12.052	4.5455	0.1	0.12632
29294	11.96	4.8182	0.1	5.9562e-002
29295	12.052	4.7273	0.1	9.1569e-002
29296	11.96	5.	0.1	3.1714e-002
29297	12.052	4.9091	0.1	6.0275e-002
29298	11.96	5.1818	0.1	1.0402e-002
29299	12.052	5.0909	0.1	2.9906e-002
29300	11.96	5.3636	0.1	-1.5599e-002
29301	12.052	5.2727	0.1	1.0648e-002
29302	11.96	5.5455	0.1	4.3083e-002
29303	12.052	5.4545	0.1	-3.1335e-002
29304	11.96	5.7273	0.1	6.3761e-002
29305	12.052	5.6364	0.1	0.12806
29306	12.052	5.8182	0.1	5.4091e-002
29307	11.96	5.9091	0.1	2.6642e-002
29308	12.144	0.27273	0.1	3.4543e-002
29309	12.236	0.18182	0.1	-1.9824e-002
29310	12.144	9.0909e-002	0.1	2.4913e-002
29311	12.144	0.45455	0.1	4.0607e-002
29312	12.236	0.36364	0.1	0.11892
29313	12.144	0.63636	0.1	-9.9492e-003
29314	12.236	0.54545	0.1	-3.2587e-002
29315	12.144	0.81818	0.1	2.7806e-002
29316	12.236	0.72727	0.1	2.6395e-002
29317	12.144	1.	0.1	5.701e-002
29318	12.236	0.90909	0.1	5.6286e-002
29319	12.144	1.1818	0.1	9.0972e-002
29320	12.236	1.0909	0.1	9.4657e-002
29321	12.144	1.3636	0.1	0.12633
29322	12.236	1.2727	0.1	0.13137
29323	12.144	1.5455	0.1	0.16408
29324	12.236	1.4545	0.1	0.17036
29325	12.144	1.7273	0.1	0.20086
29326	12.236	1.6364	0.1	0.2106
29327	12.144	1.9091	0.1	0.22869
29328	12.236	1.8182	0.1	0.2469
29329	12.144	2.0909	0.1	0.23455
29330	12.236	2.	0.1	0.26373
29331	12.144	2.2727	0.1	0.20427
29332	12.236	2.1818	0.1	0.24523
29333	12.144	2.4545	0.1	0.13105
29334	12.236	2.3636	0.1	0.17956
29335	12.144	2.6364	0.1	2.3577e-002
29336	12.236	2.5455	0.1	6.8126e-002
29337	12.144	2.8182	0.1	-8.3059e-002
29338	12.236	2.7273	0.1	-5.835e-002
29339	12.144	3.	0.1	-0.12981
29340	12.236	2.9091	0.1	-0.14552
29341	12.144	3.1818	0.1	-8.306e-002
29342	12.236	3.0909	0.1	-0.14552
29343	12.144	3.3636	0.1	2.3577e-002
29344	12.236	3.2727	0.1	-5.835e-002
29345	12.144	3.5455	0.1	0.13105
29346	12.236	3.4545	0.1	6.8127e-002
29347	12.144	3.7273	0.1	0.20427
29348	12.236	3.6364	0.1	0.17956
29349	12.144	3.9091	0.1	0.23456
29350	12.236	3.8182	0.1	0.24523
29351	12.144	4.0909	0.1	0.22869
29352	12.236	4.	0.1	0.26373
29353	12.144	4.2727	0.1	0.20086
29354	12.236	4.1818	0.1	0.2469
29355	12.144	4.4545	0.1	0.16409
29356	12.236	4.3636	0.1	0.21061
29357	12.144	4.6364	0.1	0.12633
29358	12.236	4.5455	0.1	0.17036
29359	12.144	4.8182	0.1	9.0973e-002
29360	12.236	4.7273	0.1	0.13137
29361	12.144	5.	0.1	5.7011e-002
29362	12.236	4.9091	0.1	9.4658e-002
29363	12.144	5.1818	0.1	2.7808e-002
29364	12.236	5.0909	0.1	5.6287e-002
29365	12.144	5.3636	0.1	-9.9487e-003
29366	12.236	5.2727	0.1	2.6396e-002
29367	12.144	5.5455	0.1	4.0608e-002
29368	12.236	5.4545	0.1	-3.2587e-002
29369	12.144	5.7273	0.1	3.4543e-002
29370	12.236	5.6364	0.1	0.11892
29371	12.236	5.8182	0.1	-1.9823e-002
29372	12.144	5.9091	0.1	2.4914e-002
29373	12.328	0.27273	0.1	-1.4455e-002
29374	12.42	0.18182	0.1	-0.1327
29375	12.328	9.0909e-002	0.1	1.7183e-002
29376	12.328	0.45455	0.1	3.3551e-002
29377	12.42	0.36364	0.1	9.6928e-002
29378	12.328	0.63636	0.1	-4.753e-004
29379	12.42	0.54545	0.1	-3.1527e-002
29380	12.328	0.81818	0.1	5.3101e-002
29381	12.42	0.72727	0.1	4.9357e-002
29382	12.328	1.	0.1	9.298e-002
29383	12.42	0.90909	0.1	9.426e-002
29384	12.328	1.1818	0.1	0.1341
29385	12.42	1.0909	0.1	0.1432
29386	12.328	1.3636	0.1	0.17379
29387	12.42	1.2727	0.1	0.18659
29388	12.328	1.5455	0.1	0.21412
29389	12.42	1.4545	0.1	0.23091
29390	12.328	1.7273	0.1	0.25262
29391	12.42	1.6364	0.1	0.27698
29392	12.328	1.9091	0.1	0.27716
29393	12.42	1.8182	0.1	0.31274
29394	12.328	2.0909	0.1	0.26998
29395	12.42	2.	0.1	0.32685
29396	12.328	2.2727	0.1	0.21742
29397	12.42	2.1818	0.1	0.28376
29398	12.328	2.4545	0.1	0.11398
29399	12.42	2.3636	0.1	0.16787
29400	12.328	2.6364	0.1	-2.0742e-002
29401	12.42	2.5455	0.1	1.5441e-002
29402	12.328	2.8182	0.1	-0.13791
29403	12.42	2.7273	0.1	-0.12623
29404	12.328	3.	0.1	-0.1847
29405	12.42	2.9091	0.1	-0.21119
29406	12.328	3.1818	0.1	-0.13791
29407	12.42	3.0909	0.1	-0.21119
29408	12.328	3.3636	0.1	-2.0742e-002
29409	12.42	3.2727	0.1	-0.12623
29410	12.328	3.5455	0.1	0.11398
29411	12.42	3.4545	0.1	1.5441e-002
29412	12.328	3.7273	0.1	0.21742
29413	12.42	3.6364	0.1	0.16787
29414	12.328	3.9091	0.1	0.26998
29415	12.42	3.8182	0.1	0.28376
29416	12.328	4.0909	0.1	0.27716
29417	12.42	4.	0.1	0.32685
29418	12.328	4.2727	0.1	0.25262
29419	12.42	4.1818	0.1	0.31274
29420	12.328	4.4545	0.1	0.21412
29421	12.42	4.3636	0.1	0.27699
29422	12.328	4.6364	0.1	0.17379
29423	12.42	4.5455	0.1	0.23091
29424	12.328	4.8182	0.1	0.1341
29425	12.42	4.7273	0.1	0.18659
29426	12.328	5.	0.1	9.2981e-002
29427	12.42	4.9091	0.1	0.1432
29428	12.328	5.1818	0.1	5.3103e-002
29429	12.42	5.0909	0.1	9.4262e-002
29430	12.328	5.3636	0.1	-4.7409e-004
29431	12.42	5.2727	0.1	4.9358e-002
29432	12.328	5.5455	0.1	3.3552e-002
29433	12.42	5.4545	0.1	-3.1526e-002
29434	12.328	5.7273	0.1	-1.4455e-002
29435	12.42	5.6364	0.1	9.6928e-002
29436	12.42	5.8182	0.1	-0.1327
29437	12.328	5.9091	0.1	1.7184e-002
29438	12.512	0.27273	0.1	-8.4344e-002
29439	12.604	0.18182	0.1	-0.28125
29440	12.512	9.0909e-002	0.1	2.2691e-003
29441	12.512	0.45455	0.1	2.2463e-002
29442	12.604	0.36364	0.1	5.9485e-002
29443	12.512	0.63636	0.1	1.5704e-002
29444	12.604	0.54545	0.1	-2.7403e-002
29445	12.512	0.81818	0.1	8.9931e-002
29446	12.604	0.72727	0.1	7.9193e-002
29447	12.512	1.	0.1	0.14448
29448	12.604	0.90909	0.1	0.14356
29449	12.512	1.1818	0.1	0.19549
29450	12.604	1.0909	0.1	0.20797
29451	12.512	1.3636	0.1	0.2425
29452	12.604	1.2727	0.1	0.26382
29453	12.512	1.5455	0.1	0.2907
29454	12.604	1.4545	0.1	0.30714
29455	12.512	1.7273	0.1	0.33194
29456	12.604	1.6364	0.1	0.33523
29457	12.512	1.9091	0.1	0.35614
29458	12.604	1.8182	0.1	0.37277
29459	12.512	2.0909	0.1	0.33497
29460	12.604	2.	0.1	0.33739
29461	12.512	2.2727	0.1	0.23003
29462	12.604	2.1818	0.1	0.23791
29463	12.512	2.4545	0.1	6.4672e-002
29464	12.604	2.3636	0.1	0.10417
29465	12.512	2.6364	0.1	-9.9531e-002
29466	12.604	2.5455	0.1	-7.9401e-002
29467	12.512	2.8182	0.1	-0.21656
29468	12.604	2.7273	0.1	-0.22733
29469	12.512	3.	0.1	-0.25865
29470	12.604	2.9091	0.1	-0.2956
29471	12.512	3.1818	0.1	-0.21656
29472	12.604	3.0909	0.1	-0.2956
29473	12.512	3.3636	0.1	-9.9531e-002
29474	12.604	3.2727	0.1	-0.22733
29475	12.512	3.5455	0.1	6.4672e-002
29476	12.604	3.4545	0.1	-7.9401e-002
29477	12.512	3.7273	0.1	0.23003
29478	12.604	3.6364	0.1	0.10417
29479	12.512	3.9091	0.1	0.33498
29480	12.604	3.8182	0.1	0.23791
29481	12.512	4.0909	0.1	0.35614
29482	12.604	4.	0.1	0.33739
29483	12.512	4.2727	0.1	0.33194
29484	12.604	4.1818	0.1	0.37277
29485	12.512	4.4545	0.1	0.2907
29486	12.604	4.3636	0.1	0.33523
29487	12.512	4.6364	0.1	0.2425
29488	12.604	4.5455	0.1	0.30715
29489	12.512	4.8182	0.1	0.19549
29490	12.604	4.7273	0.1	0.26382
29491	12.512	5.	0.1	0.14448
29492	12.604	4.9091	0.1	0.20797
29493	12.512	5.1818	0.1	8.9933e-002
29494	12.604	5.0909	0.1	0.14356
29495	12.512	5.3636	0.1	1.5706e-002
29496	12.604	5.2727	0.1	7.9195e-002
29497	12.512	5.5455	0.1	2.2464e-002
29498	12.604	5.4545	0.1	-2.7401e-002
29499	12.512	5.7273	0.1	-8.4343e-002
29500	12.604	5.6364	0.1	5.9486e-002
29501	12.604	5.8182	0.1	-0.28125
29502	12.512	5.9091	0.1	2.2702e-003
29503	12.696	0.27273	0.1	-0.17181
29504	12.788	0.18182	0.1	-0.42616
29505	12.696	9.0909e-002	0.1	-2.5694e-002
29506	12.696	0.45455	0.1	6.3067e-003
29507	12.788	0.36364	0.1	2.2242e-002
29508	12.696	0.63636	0.1	3.678e-002
29509	12.788	0.54545	0.1	-5.3254e-003
29510	12.696	0.81818	0.1	0.13425
29511	12.788	0.72727	0.1	0.1244
29512	12.696	1.	0.1	0.2085
29513	12.788	0.90909	0.1	0.21357
29514	12.696	1.1818	0.1	0.27741
29515	12.788	1.0909	0.1	0.30382
29516	12.696	1.3636	0.1	0.32829
29517	12.788	1.2727	0.1	0.37463
29518	12.696	1.5455	0.1	0.3487
29519	12.788	1.4545	0.1	0.44634
29520	12.696	1.7273	0.1	0.36955
29521	12.788	1.6364	0.1	0.56816
29522	12.696	1.9091	0.1	0.34558
29523	12.788	1.8182	0.1	0.5085
29524	12.696	2.0909	0.1	0.23275
29525	12.788	2.	0.1	0.53257
29526	12.696	2.2727	0.1	0.10548
29527	12.788	2.1818	0.1	0.38397
29528	12.696	2.4545	0.1	-4.8071e-002
29529	12.788	2.3636	0.1	-4.9914e-002
29530	12.696	2.6364	0.1	-0.21861
29531	12.788	2.5455	0.1	-0.26348
29532	12.696	2.8182	0.1	-0.32095
29533	12.788	2.7273	0.1	-0.3518
29534	12.696	3.	0.1	-0.34865
29535	12.788	2.9091	0.1	-0.38771
29536	12.696	3.1818	0.1	-0.32095
29537	12.788	3.0909	0.1	-0.38771
29538	12.696	3.3636	0.1	-0.21861
29539	12.788	3.2727	0.1	-0.3518
29540	12.696	3.5455	0.1	-4.8071e-002
29541	12.788	3.4545	0.1	-0.26348
29542	12.696	3.7273	0.1	0.10548
29543	12.788	3.6364	0.1	-4.9914e-002
29544	12.696	3.9091	0.1	0.23275
29545	12.788	3.8182	0.1	0.38397
29546	12.696	4.0909	0.1	0.34558
29547	12.788	4.	0.1	0.53257
29548	12.696	4.2727	0.1	0.36955
29549	12.788	4.1818	0.1	0.5085
29550	12.696	4.4545	0.1	0.34871
29551	12.788	4.3636	0.1	0.56816
29552	12.696	4.6364	0.1	0.32829
29553	12.788	4.5455	0.1	0.44634
29554	12.696	4.8182	0.1	0.27741
29555	12.788	4.7273	0.1	0.37464
29556	12.696	5.	0.1	0.20851
29557	12.788	4.9091	0.1	0.30382
29558	12.696	5.1818	0.1	0.13425
29559	12.788	5.0909	0.1	0.21358
29560	12.696	5.3636	0.1	3.6781e-002
29561	12.788	5.2727	0.1	0.1244
29562	12.696	5.5455	0.1	6.3078e-003
29563	12.788	5.4545	0.1	-5.3238e-003
29564	12.696	5.7273	0.1	-0.17181
29565	12.788	5.6364	0.1	2.2243e-002
29566	12.788	5.8182	0.1	-0.42616
29567	12.696	5.9091	0.1	-2.5693e-002
29568	12.88	0.27273	0.1	-0.22546
29569	12.972	0.18182	0.1	-0.49458
29570	12.88	9.0909e-002	0.1	-4.374e-002
29571	12.88	0.45455	0.1	1.8993e-002
29572	12.972	0.36364	0.1	-1.4216e-004
29573	12.88	0.63636	0.1	8.8765e-002
29574	12.972	0.54545	0.1	2.9528e-002
29575	12.88	0.81818	0.1	0.20796
29576	12.972	0.72727	0.1	0.15899
29577	12.88	1.	0.1	0.31199
29578	12.972	0.90909	0.1	0.26246
29579	12.88	1.1818	0.1	0.40384
29580	12.972	1.0909	0.1	0.3681
29581	12.88	1.3636	0.1	0.49466
29582	12.972	1.2727	0.1	0.51592
29583	12.88	1.5455	0.1	0.66429
29584	12.972	1.4545	0.1	0.68239
29585	12.88	1.7273	0.1	0.69935
29586	12.972	1.6364	0.1	0.30748
29587	12.88	1.9091	0.1	0.68383
29588	12.972	1.8182	0.1	0.53457
29589	12.88	2.0909	0.1	0.67246
29590	12.972	2.	0.1	-0.21588
29591	12.88	2.2727	0.1	0.21585
29592	12.972	2.1818	0.1	-0.75117
29593	12.88	2.4545	0.1	-0.27927
29594	12.972	2.3636	0.1	-0.25063
29595	12.88	2.6364	0.1	-0.40721
29596	12.972	2.5455	0.1	-0.51442
29597	12.88	2.8182	0.1	-0.42756
29598	12.972	2.7273	0.1	-0.48252
29599	12.88	3.	0.1	-0.43611
29600	12.972	2.9091	0.1	-0.44286
29601	12.88	3.1818	0.1	-0.42756
29602	12.972	3.0909	0.1	-0.44286
29603	12.88	3.3636	0.1	-0.40721
29604	12.972	3.2727	0.1	-0.48252
29605	12.88	3.5455	0.1	-0.27927
29606	12.972	3.4545	0.1	-0.51442
29607	12.88	3.7273	0.1	0.21585
29608	12.972	3.6364	0.1	-0.25063
29609	12.88	3.9091	0.1	0.67246
29610	12.972	3.8182	0.1	-0.75117
29611	12.88	4.0909	0.1	0.68383
29612	12.972	4.	0.1	-0.21588
29613	12.88	4.2727	0.1	0.69935
29614	12.972	4.1818	0.1	0.53457
29615	12.88	4.4545	0.1	0.6643
29616	12.972	4.3636	0.1	0.30749
29617	12.88	4.6364	0.1	0.49466
29618	12.972	4.5455	0.1	0.68239
29619	12.88	4.8182	0.1	0.40384
29620	12.972	4.7273	0.1	0.51592
29621	12.88	5.	0.1	0.312
29622	12.972	4.9091	0.1	0.3681
29623	12.88	5.1818	0.1	0.20796
29624	12.972	5.0909	0.1	0.26246
29625	12.88	5.3636	0.1	8.8766e-002
29626	12.972	5.2727	0.1	0.159
29627	12.88	5.5455	0.1	1.8995e-002
29628	12.972	5.4545	0.1	2.953e-002
29629	12.88	5.7273	0.1	-0.22546
29630	12.972	5.6364	0.1	-1.4058e-004
29631	12.972	5.8182	0.1	-0.49458
29632	12.88	5.9091	0.1	-4.3739e-002
29633	13.064	0.27273	0.1	-0.20864
29634	13.156	0.18182	0.1	-0.10879
29635	13.064	9.0909e-002	0.1	-0.10217
29636	13.064	0.45455	0.1	3.8907e-002
29637	13.156	0.36364	0.1	0.23668
29638	13.064	0.63636	0.1	0.11411
29639	13.156	0.54545	0.1	0.24749
29640	13.064	0.81818	0.1	0.22041
29641	13.156	0.72727	0.1	0.32535
29642	13.064	1.	0.1	0.32262
29643	13.156	0.90909	0.1	0.41289
29644	13.064	1.1818	0.1	0.48394
29645	13.156	1.0909	0.1	0.60023
29646	13.064	1.3636	0.1	0.70804
29647	13.156	1.2727	0.1	0.79506
29648	13.064	1.5455	0.1	0.32774
29649	13.156	1.4545	0.1	0.91534
29650	13.064	1.7273	0.1	0.13577
29651	13.156	1.6364	0.1	2.7163
29652	13.064	1.9091	0.1	-0.38134
29653	13.156	1.8182	0.1	1.6751
29654	13.064	2.0909	0.1	-1.6598
29655	13.156	2.	0.1	3.304
29656	13.064	2.2727	0.1	-1.2441
29657	13.156	2.1818	0.1	1.614
29658	13.064	2.4545	0.1	-0.50662
29659	13.156	2.3636	0.1	-1.8801
29660	13.064	2.6364	0.1	-0.59274
29661	13.156	2.5455	0.1	-0.57185
29662	13.064	2.8182	0.1	-0.49905
29663	13.156	2.7273	0.1	-0.51937
29664	13.064	3.	0.1	-0.45235
29665	13.156	2.9091	0.1	-0.3823
29666	13.064	3.1818	0.1	-0.49906
29667	13.156	3.0909	0.1	-0.3823
29668	13.064	3.3636	0.1	-0.59274
29669	13.156	3.2727	0.1	-0.51937
29670	13.064	3.5455	0.1	-0.50662
29671	13.156	3.4545	0.1	-0.57185
29672	13.064	3.7273	0.1	-1.2441
29673	13.156	3.6364	0.1	-1.8801
29674	13.064	3.9091	0.1	-1.6598
29675	13.156	3.8182	0.1	1.614
29676	13.064	4.0909	0.1	-0.38134
29677	13.156	4.	0.1	3.304
29678	13.064	4.2727	0.1	0.13577
29679	13.156	4.1818	0.1	1.6751
29680	13.064	4.4545	0.1	0.32774
29681	13.156	4.3636	0.1	2.7163
29682	13.064	4.6364	0.1	0.70804
29683	13.156	4.5455	0.1	0.91535
29684	13.064	4.8182	0.1	0.48394
29685	13.156	4.7273	0.1	0.79506
29686	13.064	5.	0.1	0.32262
29687	13.156	4.9091	0.1	0.60023
29688	13.064	5.1818	0.1	0.22041
29689	13.156	5.0909	0.1	0.4129
29690	13.064	5.3636	0.1	0.11411
29691	13.156	5.2727	0.1	0.32536
29692	13.064	5.5455	0.1	3.8909e-002
29693	13.156	5.4545	0.1	0.24749
29694	13.064	5.7273	0.1	-0.20864
29695	13.156	5.6364	0.1	0.23669
29696	13.156	5.8182	0.1	-0.10878
29697	13.064	5.9091	0.1	-0.10217
29698	13.248	0.27273	0.1	0.46933
29699	13.34	0.18182	0.1	0.88851
29700	13.248	9.0909e-002	0.1	0.21481
29701	13.248	0.45455	0.1	0.49191
29702	13.34	0.36364	0.1	0.48992
29703	13.248	0.63636	0.1	0.47402
29704	13.34	0.54545	0.1	0.19831
29705	13.248	0.81818	0.1	0.52378
29706	13.34	0.72727	0.1	9.6171e-003
29707	13.248	1.	0.1	0.69322
29708	13.34	0.90909	0.1	-3.8948e-002
29709	13.248	1.1818	0.1	0.91395
29710	13.34	1.0909	0.1	-2.0329e-002
29711	13.248	1.3636	0.1	1.0072
29712	13.34	1.2727	0.1	0.13435
29713	13.248	1.5455	0.1	3.3062
29714	13.34	1.4545	0.1	0.25631
29715	13.248	1.7273	0.1	4.2715
29716	13.34	1.6364	0.1	1.026
29717	13.248	1.9091	0.1	5.3348
29718	13.34	1.8182	0.1	-3.6493
29719	13.248	2.0909	0.1	6.5251
29720	13.34	2.	0.1	-17.087
29721	13.248	2.2727	0.1	0.87433
29722	13.34	2.1818	0.1	-8.0032
29723	13.248	2.4545	0.1	-1.9488
29724	13.34	2.3636	0.1	-0.12265
29725	13.248	2.6364	0.1	-0.4855
29726	13.34	2.5455	0.1	-0.68487
29727	13.248	2.8182	0.1	-0.39863
29728	13.34	2.7273	0.1	-0.21015
29729	13.248	3.	0.1	-0.31279
29730	13.34	2.9091	0.1	-8.8238e-002
29731	13.248	3.1818	0.1	-0.39863
29732	13.34	3.0909	0.1	-8.8238e-002
29733	13.248	3.3636	0.1	-0.4855
29734	13.34	3.2727	0.1	-0.21015
29735	13.248	3.5455	0.1	-1.9488
29736	13.34	3.4545	0.1	-0.68487
29737	13.248	3.7273	0.1	0.87433
29738	13.34	3.6364	0.1	-0.12265
29739	13.248	3.9091	0.1	6.5251
29740	13.34	3.8182	0.1	-8.0032
29741	13.248	4.0909	0.1	5.3348
29742	13.34	4.	0.1	-17.087
29743	13.248	4.2727	0.1	4.2715
29744	13.34	4.1818	0.1	-3.6493
29745	13.248	4.4545	0.1	3.3062
29746	13.34	4.3636	0.1	1.026
29747	13.248	4.6364	0.1	1.0072
29748	13.34	4.5455	0.1	0.25631
29749	13.248	4.8182	0.1	0.91395
29750	13.34	4.7273	0.1	0.13435
29751	13.248	5.	0.1	0.69322
29752	13.34	4.9091	0.1	-2.0326e-002
29753	13.248	5.1818	0.1	0.52378
29754	13.34	5.0909	0.1	-3.8944e-002
29755	13.248	5.3636	0.1	0.47402
29756	13.34	5.2727	0.1	9.6206e-003
29757	13.248	5.5455	0.1	0.49191
29758	13.34	5.4545	0.1	0.19831
29759	13.248	5.7273	0.1	0.46933
29760	13.34	5.6364	0.1	0.48992
29761	13.34	5.8182	0.1	0.88852
29762	13.248	5.9091	0.1	0.21481
29763	13.432	0.27273	0.1	1.0632
29764	13.524	0.18182	0.1	7.0464
29765	13.432	9.0909e-002	0.1	0.10903
29766	13.432	0.45455	0.1	0.15005
29767	13.524	0.36364	0.1	3.2384
29768	13.432	0.63636	0.1	-0.29085
29769	13.524	0.54545	0.1	2.1473
29770	13.432	0.81818	0.1	-0.55851
29771	13.524	0.72727	0.1	1.654
29772	13.432	1.	0.1	-0.74817
29773	13.524	0.90909	0.1	1.5048
29774	13.432	1.1818	0.1	-0.79481
29775	13.524	1.0909	0.1	1.8971
29776	13.432	1.3636	0.1	-0.6186
29777	13.524	1.2727	0.1	1.1917
29778	13.432	1.5455	0.1	-2.0033
29779	13.524	1.4545	0.1	6.6419
29780	13.432	1.7273	0.1	-6.957
29781	13.524	1.6364	0.1	-8.0675
29782	13.432	1.9091	0.1	-26.043
29783	13.524	1.8182	0.1	34.518
29784	13.432	2.0909	0.1	-31.761
29785	13.524	2.	0.1	148.66
29786	13.432	2.2727	0.1	-9.2088
29787	13.524	2.1818	0.1	-19.898
29788	13.432	2.4545	0.1	1.2069
29789	13.524	2.3636	0.1	6.5734
29790	13.432	2.6364	0.1	-0.38365
29791	13.524	2.5455	0.1	-2.0623
29792	13.432	2.8182	0.1	9.8656e-002
29793	13.524	2.7273	0.1	1.0572
29794	13.432	3.	0.1	0.12953
29795	13.524	2.9091	0.1	0.2923
29796	13.432	3.1818	0.1	9.8656e-002
29797	13.524	3.0909	0.1	0.2923
29798	13.432	3.3636	0.1	-0.38365
29799	13.524	3.2727	0.1	1.0572
29800	13.432	3.5455	0.1	1.2069
29801	13.524	3.4545	0.1	-2.0623
29802	13.432	3.7273	0.1	-9.2088
29803	13.524	3.6364	0.1	6.5734
29804	13.432	3.9091	0.1	-31.761
29805	13.524	3.8182	0.1	-19.898
29806	13.432	4.0909	0.1	-26.043
29807	13.524	4.	0.1	148.66
29808	13.432	4.2727	0.1	-6.957
29809	13.524	4.1818	0.1	34.518
29810	13.432	4.4545	0.1	-2.0033
29811	13.524	4.3636	0.1	-8.0675
29812	13.432	4.6364	0.1	-0.6186
29813	13.524	4.5455	0.1	6.6419
29814	13.432	4.8182	0.1	-0.7948
29815	13.524	4.7273	0.1	1.1917
29816	13.432	5.	0.1	-0.74817
29817	13.524	4.9091	0.1	1.8971
29818	13.432	5.1818	0.1	-0.5585
29819	13.524	5.0909	0.1	1.5048
29820	13.432	5.3636	0.1	-0.29085
29821	13.524	5.2727	0.1	1.654
29822	13.432	5.5455	0.1	0.15005
29823	13.524	5.4545	0.1	2.1473
29824	13.432	5.7273	0.1	1.0632
29825	13.524	5.6364	0.1	3.2384
29826	13.524	5.8182	0.1	7.0464
29827	13.432	5.9091	0.1	0.10904
29828	13.616	0.27273	0.1	7.6027
29829	13.708	0.18182	0.1	-1.3937
29830	13.616	9.0909e-002	0.1	7.5379
29831	13.616	0.45455	0.1	4.437
29832	13.708	0.36364	0.1	-1.9424
29833	13.616	0.63636	0.1	3.7943
29834	13.708	0.54545	0.1	-1.2614
29835	13.616	0.81818	0.1	3.5939
29836	13.708	0.72727	0.1	-1.2306
29837	13.616	1.	0.1	4.1179
29838	13.708	0.90909	0.1	-1.4538
29839	13.616	1.1818	0.1	3.9486
29840	13.708	1.0909	0.1	-0.46947
29841	13.616	1.3636	0.1	8.5661
29842	13.708	1.2727	0.1	-4.0143
29843	13.616	1.5455	0.1	0.88853
29844	13.708	1.4545	0.1	10.731
29845	13.616	1.7273	0.1	33.499
29846	13.708	1.6364	0.1	-43.787
29847	13.616	1.9091	0.1	212.69
29848	13.708	1.8182	0.1	194.52
29849	13.616	2.0909	0.1	150.66
29850	13.708	2.	0.1	210.83
29851	13.616	2.2727	0.1	-2.8988
29852	13.708	2.1818	0.1	-62.203
29853	13.616	2.4545	0.1	3.3985
29854	13.708	2.3636	0.1	15.722
29855	13.616	2.6364	0.1	-0.63654
29856	13.708	2.5455	0.1	-1.8502
29857	13.616	2.8182	0.1	1.2315
29858	13.708	2.7273	0.1	2.2328
29859	13.616	3.	0.1	0.43444
29860	13.708	2.9091	0.1	0.86802
29861	13.616	3.1818	0.1	1.2315
29862	13.708	3.0909	0.1	0.86802
29863	13.616	3.3636	0.1	-0.63654
29864	13.708	3.2727	0.1	2.2328
29865	13.616	3.5455	0.1	3.3985
29866	13.708	3.4545	0.1	-1.8502
29867	13.616	3.7273	0.1	-2.8988
29868	13.708	3.6364	0.1	15.722
29869	13.616	3.9091	0.1	150.66
29870	13.708	3.8182	0.1	-62.203
29871	13.616	4.0909	0.1	212.69
29872	13.708	4.	0.1	210.83
29873	13.616	4.2727	0.1	33.499
29874	13.708	4.1818	0.1	194.52
29875	13.616	4.4545	0.1	0.88854
29876	13.708	4.3636	0.1	-43.787
29877	13.616	4.6364	0.1	8.5661
29878	13.708	4.5455	0.1	10.731
29879	13.616	4.8182	0.1	3.9486
29880	13.708	4.7273	0.1	-4.0143
29881	13.616	5.	0.1	4.1179
29882	13.708	4.9091	0.1	-0.46947
29883	13.616	5.1818	0.1	3.5939
29884	13.708	5.0909	0.1	-1.4538
29885	13.616	5.3636	0.1	3.7943
29886	13.708	5.2727	0.1	-1.2306
29887	13.616	5.5455	0.1	4.437
29888	13.708	5.4545	0.1	-1.2614
29889	13.616	5.7273	0.1	7.6027
29890	13.708	5.6364	0.1	-1.9424
29891	13.708	5.8182	0.1	-1.3937
29892	13.616	5.9091	0.1	7.5379
29893	13.967	3.7273	0.1	-8.1489
29894	13.883	3.8182	0.1	-73.239
29895	13.967	3.9091	0.1	382.66
29896	13.967	3.5455	0.1	11.096
29897	13.883	3.6364	0.1	22.444
29898	13.967	3.3636	0.1	0.7906
29899	13.883	3.4545	0.1	-0.63049
29900	13.967	3.1818	0.1	1.8216
29901	13.883	3.2727	0.1	2.4597
29902	13.967	3.	0.1	1.1837
29903	13.883	3.0909	0.1	1.2474
29904	13.967	2.8182	0.1	1.8216
29905	13.883	2.9091	0.1	1.2474
29906	13.967	2.6364	0.1	0.7906
29907	13.883	2.7273	0.1	2.4597
29908	13.967	2.4545	0.1	11.096
29909	13.883	2.5455	0.1	-0.63049
29910	13.967	2.2727	0.1	-8.1488
29911	13.883	2.3636	0.1	22.444
29912	13.883	2.1818	0.1	-73.239
29913	13.967	2.0909	0.1	382.66
29914	13.8	3.7273	0.1	-42.149
29915	13.8	3.9091	0.1	185.49
29916	13.8	3.5455	0.1	10.361
29917	13.8	3.3636	0.1	0.97038
29918	13.8	3.1818	0.1	1.8294
29919	13.8	3.	0.1	1.2658
29920	13.8	2.8182	0.1	1.8294
29921	13.8	2.6364	0.1	0.97038
29922	13.8	2.4545	0.1	10.361
29923	13.8	2.2727	0.1	-42.149
29924	13.8	2.0909	0.1	185.49
29925	13.967	5.7273	0.1	-7.1893
29926	13.967	5.9091	0.1	-3.9118e-003
29927	13.967	5.8182	5.e-002	2.9398e-006
29928	13.967	5.5455	0.1	-8.2684
29929	13.967	5.6364	5.e-002	4.5588e-006
29930	13.967	5.3636	0.1	-8.8192
29931	13.967	5.4545	5.e-002	3.2224e-006
29932	13.967	5.1818	0.1	-10.111
29933	13.967	5.2727	5.e-002	4.6631e-006
29934	13.967	5.	0.1	-11.633
29935	13.967	5.0909	5.e-002	2.2935e-006
29936	13.967	4.8182	0.1	-15.301
29937	13.967	4.9091	5.e-002	3.6942e-008
29938	13.967	4.6364	0.1	-17.404
29939	13.967	4.7273	5.e-002	1.4966e-007
29940	13.967	4.4545	0.1	-42.278
29941	13.967	4.5455	5.e-002	1.1467e-005
29942	13.967	4.2727	0.1	-36.647
29943	13.967	4.3636	5.e-002	-1.3418e-005
29944	13.967	4.0909	0.1	765.09
29945	13.967	4.1818	5.e-002	1.3626e-004
29946	13.883	4.	0.1	1130.3
29947	13.967	4.	5.e-002	-9.2727e-004
29948	13.8	4.0909	0.1	614.6
29949	13.8	4.	5.e-002	-6.5869e-004
29950	13.8	4.2727	0.1	-34.386
29951	13.8	4.1818	5.e-002	1.3461e-004
29952	13.8	4.4545	0.1	-45.777
29953	13.8	4.3636	5.e-002	-6.2476e-006
29954	13.8	4.6364	0.1	-19.882
29955	13.8	4.5455	5.e-002	1.4228e-005
29956	13.8	4.8182	0.1	-18.128
29957	13.8	4.7273	5.e-002	-1.9563e-006
29958	13.8	5.	0.1	-14.145
29959	13.8	4.9091	5.e-002	5.7473e-006
29960	13.8	5.1818	0.1	-12.59
29961	13.8	5.0909	5.e-002	4.3463e-006
29962	13.8	5.3636	0.1	-11.201
29963	13.8	5.2727	5.e-002	4.8369e-006
29964	13.8	5.5455	0.1	-10.583
29965	13.8	5.4545	5.e-002	2.3662e-006
29966	13.8	5.7273	0.1	-9.4753
29967	13.8	5.6364	5.e-002	8.9568e-006
29968	13.8	5.9091	0.1	-3.1267
29969	13.8	5.8182	5.e-002	5.3119e-008
29970	13.967	0.27273	0.1	-7.1893
29971	13.967	9.0909e-002	0.1	-3.9081e-003
29972	13.967	0.18182	5.e-002	-2.8096e-006
29973	13.967	0.45455	0.1	-8.2684
29974	13.967	0.36364	5.e-002	3.6909e-006
29975	13.967	0.63636	0.1	-8.8192
29976	13.967	0.54545	5.e-002	2.5189e-006
29977	13.967	0.81818	0.1	-10.111
29978	13.967	0.72727	5.e-002	3.2643e-006
29979	13.967	1.	0.1	-11.633
29980	13.967	0.90909	5.e-002	2.8459e-006
29981	13.967	1.1818	0.1	-15.301
29982	13.967	1.0909	5.e-002	-2.1184e-006
29983	13.967	1.3636	0.1	-17.404
29984	13.967	1.2727	5.e-002	-9.705e-014
29985	13.967	1.5455	0.1	-42.278
29986	13.967	1.4545	5.e-002	-9.3503e-008
29987	13.967	1.7273	0.1	-36.647
29988	13.967	1.6364	5.e-002	1.8102e-005
29989	13.967	1.9091	0.1	765.09
29990	13.967	1.8182	5.e-002	-6.8074e-005
29991	13.883	2.	0.1	1130.3
29992	13.967	2.	5.e-002	6.7102e-004
29993	13.8	1.9091	0.1	614.6
29994	13.8	2.	5.e-002	5.7896e-004
29995	13.8	1.7273	0.1	-34.386
29996	13.8	1.8182	5.e-002	-1.0426e-004
29997	13.8	1.5455	0.1	-45.777
29998	13.8	1.6364	5.e-002	1.5488e-005
29999	13.8	1.3636	0.1	-19.882
30000	13.8	1.4545	5.e-002	1.0745e-007
30001	13.8	1.1818	0.1	-18.128
30002	13.8	1.2727	5.e-002	5.695e-008
30003	13.8	1.	0.1	-14.145
30004	13.8	1.0909	5.e-002	-9.6562e-014
30005	13.8	0.81818	0.1	-12.59
30006	13.8	0.90909	5.e-002	3.7766e-006
30007	13.8	0.63636	0.1	-11.201
30008	13.8	0.72727	5.e-002	3.316e-006
30009	13.8	0.45455	0.1	-10.583
30010	13.8	0.54545	5.e-002	3.3042e-006
30011	13.8	0.27273	0.1	-9.4753
30012	13.8	0.36364	5.e-002	4.9817e-006
30013	13.8	9.0909e-002	0.1	-3.1267
30014	13.8	0.18182	5.e-002	2.2837e-006
30015	14.058	6.	0.1	9.5546
30016	13.967	6.	5.e-002	-6.0442e-007
30017	14.24	6.	0.1	-0.33768
30018	14.149	6.	5.e-002	-9.9994e-007
30019	14.423	6.	0.1	-1.1983
30020	14.332	6.	5.e-002	5.4433e-006
30021	14.605	6.	0.1	-0.40879
30022	14.514	6.	5.e-002	3.3522e-006
30023	14.788	6.	0.1	-6.7165e-002
30024	14.696	6.	5.e-002	3.1294e-006
30025	14.97	6.	0.1	0.21626
30026	14.879	6.	5.e-002	3.5761e-006
30027	15.152	6.	0.1	0.36393
30028	15.061	6.	5.e-002	4.2974e-006
30029	15.335	6.	0.1	0.42645
30030	15.244	6.	5.e-002	3.8134e-006
30031	15.517	6.	0.1	0.42627
30032	15.426	6.	5.e-002	4.0515e-006
30033	15.7	6.	0.1	0.38848
30034	15.608	6.	5.e-002	3.7517e-006
30035	15.882	6.	0.1	0.33053
30036	15.791	6.	5.e-002	3.6497e-006
30037	16.065	6.	0.1	0.26483
30038	15.973	6.	5.e-002	3.8079e-006
30039	16.247	6.	0.1	0.19932
30040	16.156	6.	5.e-002	3.5898e-006
30041	16.429	6.	0.1	0.13874
30042	16.338	6.	5.e-002	4.6092e-006
30043	16.612	6.	0.1	8.5591e-002
30044	16.521	6.	5.e-002	4.4601e-006
30045	16.794	6.	0.1	4.0862e-002
30046	16.703	6.	5.e-002	3.9468e-006
30047	16.977	6.	0.1	4.6359e-003
30048	16.885	6.	5.e-002	4.1723e-006
30049	17.159	6.	0.1	-2.3538e-002
30050	17.068	6.	5.e-002	4.4435e-006
30051	17.342	6.	0.1	-4.4445e-002
30052	17.25	6.	5.e-002	3.9056e-006
30053	17.524	6.	0.1	-5.8978e-002
30054	17.433	6.	5.e-002	5.6922e-006
30055	17.706	6.	0.1	-6.8017e-002
30056	17.615	6.	5.e-002	3.9863e-006
30057	17.889	6.	0.1	-7.242e-002
30058	17.798	6.	5.e-002	4.3892e-006
30059	18.071	6.	0.1	-7.2972e-002
30060	17.98	6.	5.e-002	4.2409e-006
30061	18.254	6.	0.1	-7.0355e-002
30062	18.162	6.	5.e-002	5.5935e-006
30063	18.436	6.	0.1	-6.5145e-002
30064	18.345	6.	5.e-002	5.7219e-006
30065	18.618	6.	0.1	-5.7832e-002
30066	18.527	6.	5.e-002	4.8796e-006
30067	18.801	6.	0.1	-4.8842e-002
30068	18.71	6.	5.e-002	4.6491e-006
30069	18.983	6.	0.1	-3.8503e-002
30070	18.892	6.	5.e-002	6.6104e-006
30071	19.166	6.	0.1	-2.7065e-002
30072	19.075	6.	5.e-002	4.2319e-006
30073	19.348	6.	0.1	-1.475e-002
30074	19.257	6.	5.e-002	6.9737e-006
30075	19.531	6.	0.1	-1.7203e-003
30076	19.439	6.	5.e-002	4.7088e-006
30077	19.713	6.	0.1	1.1926e-002
30078	19.622	6.	5.e-002	6.4977e-006
30079	19.895	6.	0.1	2.6113e-002
30080	19.804	6.	5.e-002	4.6492e-006
30081	20.078	6.	0.1	4.079e-002
30082	19.987	6.	5.e-002	6.4326e-006
30083	20.26	6.	0.1	5.5946e-002
30084	20.169	6.	5.e-002	5.7816e-006
30085	20.443	6.	0.1	7.16e-002
30086	20.352	6.	5.e-002	5.6623e-006
30087	20.625	6.	0.1	8.7791e-002
30088	20.534	6.	5.e-002	6.9254e-006
30089	20.808	6.	0.1	0.10457
30090	20.716	6.	5.e-002	4.9467e-006
30091	20.99	6.	0.1	0.12201
30092	20.899	6.	5.e-002	7.9108e-006
30093	21.172	6.	0.1	0.14025
30094	21.081	6.	5.e-002	5.6429e-006
30095	21.355	6.	0.1	0.15938
30096	21.264	6.	5.e-002	6.1981e-006
30097	21.537	6.	0.1	0.17959
30098	21.446	6.	5.e-002	8.3107e-006
30099	21.72	6.	0.1	0.20107
30100	21.628	6.	5.e-002	5.886e-006
30101	21.902	6.	0.1	0.22407
30102	21.811	6.	5.e-002	6.4964e-006
30103	22.085	6.	0.1	0.24892
30104	21.993	6.	5.e-002	7.7677e-006
30105	22.267	6.	0.1	0.27601
30106	22.176	6.	5.e-002	7.4888e-006
30107	22.449	6.	0.1	0.3059
30108	22.358	6.	5.e-002	6.4063e-006
30109	22.632	6.	0.1	0.33934
30110	22.541	6.	5.e-002	6.3987e-006
30111	22.814	6.	0.1	0.37728
30112	22.723	6.	5.e-002	6.9581e-006
30113	22.997	6.	0.1	0.42163
30114	22.905	6.	5.e-002	7.0764e-006
30115	23.179	6.	0.1	0.47324
30116	23.088	6.	5.e-002	7.2768e-006
30117	23.362	6.	0.1	0.54339
30118	23.27	6.	5.e-002	8.8224e-006
30119	23.544	6.	0.1	0.6225
30120	23.453	6.	5.e-002	7.678e-006
30121	23.726	6.	0.1	0.84085
30122	23.635	6.	5.e-002	7.044e-006
30123	23.909	6.	0.1	0.61487
30124	23.818	6.	5.e-002	3.2721e-006
30125	24.	5.9091	0.1	-2.4164
30126	24.	6.	5.e-002	3.5956e-005
30127	24.	5.7273	0.1	-2.2321
30128	24.	5.8182	5.e-002	1.4093e-005
30129	24.	5.5455	0.1	-2.3207
30130	24.	5.6364	5.e-002	1.3208e-005
30131	24.	5.3636	0.1	-2.431
30132	24.	5.4545	5.e-002	1.3484e-005
30133	24.	5.1818	0.1	-2.4626
30134	24.	5.2727	5.e-002	1.3275e-005
30135	24.	5.	0.1	-2.489
30136	24.	5.0909	5.e-002	1.0112e-005
30137	24.	4.8182	0.1	-2.5059
30138	24.	4.9091	5.e-002	1.0735e-005
30139	24.	4.6364	0.1	-2.5187
30140	24.	4.7273	5.e-002	1.1658e-005
30141	24.	4.4545	0.1	-2.5281
30142	24.	4.5455	5.e-002	8.7643e-006
30143	24.	4.2727	0.1	-2.5353
30144	24.	4.3636	5.e-002	1.5057e-005
30145	24.	4.0909	0.1	-2.5408
30146	24.	4.1818	5.e-002	9.0169e-006
30147	24.	3.9091	0.1	-2.5449
30148	24.	4.	5.e-002	1.2089e-005
30149	24.	3.7273	0.1	-2.548
30150	24.	3.8182	5.e-002	9.7718e-006
30151	24.	3.5455	0.1	-2.5502
30152	24.	3.6364	5.e-002	1.0282e-005
30153	24.	3.3636	0.1	-2.5517
30154	24.	3.4545	5.e-002	1.0406e-005
30155	24.	3.1818	0.1	-2.5526
30156	24.	3.2727	5.e-002	7.0915e-006
30157	24.	3.	0.1	-2.5529
30158	24.	3.0909	5.e-002	7.4364e-006
30159	24.	2.8182	0.1	-2.5526
30160	24.	2.9091	5.e-002	4.0279e-006
30161	24.	2.6364	0.1	-2.5517
30162	24.	2.7273	5.e-002	8.3125e-006
30163	24.	2.4545	0.1	-2.5502
30164	24.	2.5455	5.e-002	8.8526e-006
30165	24.	2.2727	0.1	-2.548
30166	24.	2.3636	5.e-002	9.1948e-006
30167	24.	2.0909	0.1	-2.5449
30168	24.	2.1818	5.e-002	9.6336e-006
30169	24.	1.9091	0.1	-2.5408
30170	24.	2.	5.e-002	6.4733e-006
30171	24.	1.7273	0.1	-2.5353
30172	24.	1.8182	5.e-002	4.4875e-006
30173	24.	1.5455	0.1	-2.5281
30174	24.	1.6364	5.e-002	7.9928e-006
30175	24.	1.3636	0.1	-2.5187
30176	24.	1.4545	5.e-002	7.8199e-006
30177	24.	1.1818	0.1	-2.5059
30178	24.	1.2727	5.e-002	8.2436e-006
30179	24.	1.	0.1	-2.489
30180	24.	1.0909	5.e-002	1.1038e-005
30181	24.	0.81818	0.1	-2.4626
30182	24.	0.90909	5.e-002	9.2201e-006
30183	24.	0.63636	0.1	-2.431
30184	24.	0.72727	5.e-002	1.1494e-005
30185	24.	0.45455	0.1	-2.3207
30186	24.	0.54545	5.e-002	1.0633e-005
30187	24.	0.27273	0.1	-2.2321
30188	24.	0.36364	5.e-002	7.8728e-006
30189	24.	9.0909e-002	0.1	-2.4164
30190	24.	0.18182	5.e-002	-1.1732e-007
30191	2.3842e-015	0.27273	0.1	1763.6
30192	7.9472e-016	9.0909e-002	0.1	377.04
30193	1.6109e-015	0.18182	5.e-002	1.0738e-004
30194	3.9736e-015	0.45455	0.1	2566.7
30195	3.2219e-015	0.36364	5.e-002	1.9527e-004
30196	5.563e-015	0.63636	0.1	2980.
30197	4.8328e-015	0.54545	5.e-002	1.3722e-004
30198	7.1525e-015	0.81818	0.1	3238.4
30199	6.4438e-015	0.72727	5.e-002	7.4193e-005
30200	8.7419e-015	1.	0.1	3416.5
30201	8.0547e-015	0.90909	5.e-002	1.1085e-005
30202	1.0331e-014	1.1818	0.1	3546.1
30203	9.6657e-015	1.0909	5.e-002	6.6142e-005
30204	1.1921e-014	1.3636	0.1	3643.2
30205	1.1277e-014	1.2727	5.e-002	6.425e-005
30206	1.351e-014	1.5455	0.1	3717.5
30207	1.2888e-014	1.4545	5.e-002	7.0756e-007
30208	1.51e-014	1.7273	0.1	3774.9
30209	1.4498e-014	1.6364	5.e-002	6.0245e-005
30210	1.6689e-014	1.9091	0.1	3819.4
30211	1.6109e-014	1.8182	5.e-002	6.1806e-005
30212	1.8279e-014	2.0909	0.1	3853.8
30213	1.772e-014	2.	5.e-002	1.0044e-006
30214	1.9868e-014	2.2727	0.1	3879.9
30215	1.9331e-014	2.1818	5.e-002	5.4376e-007
30216	2.1457e-014	2.4545	0.1	3898.9
30217	2.0942e-014	2.3636	5.e-002	-3.187e-007
30218	2.3047e-014	2.6364	0.1	3911.9
30219	2.2553e-014	2.5455	5.e-002	-2.589e-007
30220	2.4636e-014	2.8182	0.1	3919.5
30221	2.4164e-014	2.7273	5.e-002	-1.6677e-007
30222	2.6226e-014	3.	0.1	3921.9
30223	2.5775e-014	2.9091	5.e-002	-5.4585e-008
30224	2.7815e-014	3.1818	0.1	3919.5
30225	2.7386e-014	3.0909	5.e-002	4.9888e-008
30226	2.9405e-014	3.3636	0.1	3911.9
30227	2.8997e-014	3.2727	5.e-002	1.5942e-008
30228	3.0994e-014	3.5455	0.1	3898.9
30229	3.0608e-014	3.4545	5.e-002	-6.0744e-005
30230	3.2583e-014	3.7273	0.1	3879.9
30231	3.2219e-014	3.6364	5.e-002	9.5611e-008
30232	3.4173e-014	3.9091	0.1	3853.8
30233	3.383e-014	3.8182	5.e-002	-6.0643e-005
30234	3.5762e-014	4.0909	0.1	3819.4
30235	3.5441e-014	4.	5.e-002	-1.2237e-004
30236	3.7352e-014	4.2727	0.1	3774.9
30237	3.7052e-014	4.1818	5.e-002	-6.2522e-005
30238	3.8941e-014	4.4545	0.1	3717.5
30239	3.8663e-014	4.3636	5.e-002	-6.1247e-005
30240	4.0531e-014	4.6364	0.1	3643.2
30241	4.0274e-014	4.5455	5.e-002	-1.2412e-004
30242	4.212e-014	4.8182	0.1	3546.1
30243	4.1885e-014	4.7273	5.e-002	-6.6092e-005
30244	4.371e-014	5.	0.1	3416.5
30245	4.3495e-014	4.9091	5.e-002	-7.3051e-005
30246	4.5299e-014	5.1818	0.1	3238.4
30247	4.5106e-014	5.0909	5.e-002	-1.3617e-004
30248	4.6888e-014	5.3636	0.1	2980.
30249	4.6717e-014	5.2727	5.e-002	-7.7915e-005
30250	4.8478e-014	5.5455	0.1	2566.7
30251	4.8328e-014	5.4545	5.e-002	-1.6485e-004
30252	5.0067e-014	5.7273	0.1	1763.6
30253	4.9939e-014	5.6364	5.e-002	-2.0641e-004
30254	5.1657e-014	5.9091	0.1	377.03
30255	5.155e-014	5.8182	5.e-002	-1.3809e-004
30256	23.909	0.	0.1	0.61487
30257	24.	0.	5.e-002	2.7054e-005
30258	23.726	0.	0.1	0.84085
30259	23.818	0.	5.e-002	8.4846e-006
30260	23.544	0.	0.1	0.6225
30261	23.635	0.	5.e-002	8.9334e-006
30262	23.362	0.	0.1	0.54339
30263	23.453	0.	5.e-002	9.3102e-006
30264	23.179	0.	0.1	0.47324
30265	23.27	0.	5.e-002	6.0188e-006
30266	22.997	0.	0.1	0.42164
30267	23.088	0.	5.e-002	7.9772e-006
30268	22.814	0.	0.1	0.37728
30269	22.905	0.	5.e-002	8.1508e-006
30270	22.632	0.	0.1	0.33934
30271	22.723	0.	5.e-002	6.1647e-006
30272	22.449	0.	0.1	0.3059
30273	22.541	0.	5.e-002	6.7968e-006
30274	22.267	0.	0.1	0.27601
30275	22.358	0.	5.e-002	7.336e-006
30276	22.085	0.	0.1	0.24892
30277	22.176	0.	5.e-002	6.4201e-006
30278	21.902	0.	0.1	0.22408
30279	21.993	0.	5.e-002	1.0044e-005
30280	21.72	0.	0.1	0.20107
30281	21.811	0.	5.e-002	5.305e-006
30282	21.537	0.	0.1	0.17959
30283	21.628	0.	5.e-002	7.5993e-006
30284	21.355	0.	0.1	0.15938
30285	21.446	0.	5.e-002	6.501e-006
30286	21.172	0.	0.1	0.14024
30287	21.264	0.	5.e-002	4.9475e-006
30288	20.99	0.	0.1	0.12201
30289	21.081	0.	5.e-002	7.5301e-006
30290	20.808	0.	0.1	0.10457
30291	20.899	0.	5.e-002	5.8119e-006
30292	20.625	0.	0.1	8.7792e-002
30293	20.716	0.	5.e-002	8.1982e-006
30294	20.443	0.	0.1	7.16e-002
30295	20.534	0.	5.e-002	3.7553e-006
30296	20.26	0.	0.1	5.5948e-002
30297	20.352	0.	5.e-002	7.6295e-006
30298	20.078	0.	0.1	4.0792e-002
30299	20.169	0.	5.e-002	6.2586e-006
30300	19.895	0.	0.1	2.6114e-002
30301	19.987	0.	5.e-002	6.3824e-006
30302	19.713	0.	0.1	1.1927e-002
30303	19.804	0.	5.e-002	6.2585e-006
30304	19.531	0.	0.1	-1.7191e-003
30305	19.622	0.	5.e-002	4.7684e-006
30306	19.348	0.	0.1	-1.4747e-002
30307	19.439	0.	5.e-002	5.0048e-006
30308	19.166	0.	0.1	-2.7064e-002
30309	19.257	0.	5.e-002	5.4783e-006
30310	18.983	0.	0.1	-3.8503e-002
30311	19.075	0.	5.e-002	7.2122e-006
30312	18.801	0.	0.1	-4.8841e-002
30313	18.892	0.	5.e-002	5.6028e-006
30314	18.618	0.	0.1	-5.783e-002
30315	18.71	0.	5.e-002	5.3117e-006
30316	18.436	0.	0.1	-6.5143e-002
30317	18.527	0.	5.e-002	4.9472e-006
30318	18.254	0.	0.1	-7.0353e-002
30319	18.345	0.	5.e-002	5.7222e-006
30320	18.071	0.	0.1	-7.2971e-002
30321	18.162	0.	5.e-002	5.126e-006
30322	17.889	0.	0.1	-7.2419e-002
30323	17.98	0.	5.e-002	4.4703e-006
30324	17.706	0.	0.1	-6.8015e-002
30325	17.798	0.	5.e-002	4.0318e-006
30326	17.524	0.	0.1	-5.8977e-002
30327	17.615	0.	5.e-002	5.4467e-006
30328	17.342	0.	0.1	-4.4445e-002
30329	17.433	0.	5.e-002	5.1309e-006
30330	17.159	0.	0.1	-2.3539e-002
30331	17.25	0.	5.e-002	4.1143e-006
30332	16.977	0.	0.1	4.6355e-003
30333	17.068	0.	5.e-002	4.4436e-006
30334	16.794	0.	0.1	4.0863e-002
30335	16.885	0.	5.e-002	4.2917e-006
30336	16.612	0.	0.1	8.5593e-002
30337	16.703	0.	5.e-002	4.3218e-006
30338	16.429	0.	0.1	0.13874
30339	16.521	0.	5.e-002	4.9794e-006
30340	16.247	0.	0.1	0.19932
30341	16.338	0.	5.e-002	3.6379e-006
30342	16.065	0.	0.1	0.26483
30343	16.156	0.	5.e-002	4.1761e-006
30344	15.882	0.	0.1	0.33053
30345	15.973	0.	5.e-002	2.5233e-006
30346	15.7	0.	0.1	0.38848
30347	15.791	0.	5.e-002	4.0343e-006
30348	15.517	0.	0.1	0.42627
30349	15.608	0.	5.e-002	4.2006e-006
30350	15.335	0.	0.1	0.42645
30351	15.426	0.	5.e-002	3.8251e-006
30352	15.152	0.	0.1	0.36393
30353	15.244	0.	5.e-002	3.1686e-006
30354	14.97	0.	0.1	0.21626
30355	15.061	0.	5.e-002	3.6947e-006
30356	14.788	0.	0.1	-6.7167e-002
30357	14.879	0.	5.e-002	3.4569e-006
30358	14.605	0.	0.1	-0.40879
30359	14.696	0.	5.e-002	3.8145e-006
30360	14.423	0.	0.1	-1.1983
30361	14.514	0.	5.e-002	3.9424e-006
30362	14.24	0.	0.1	-0.33768
30363	14.332	0.	5.e-002	4.2434e-006
30364	14.058	0.	0.1	9.5546
30365	14.149	0.	5.e-002	1.2142e-006
30366	13.967	0.	5.e-002	-7.8051e-007
30367	13.708	-6.0255e-030	0.1	11.297
30368	13.8	-6.0659e-030	5.e-002	4.1529e-006
30369	13.524	-5.9446e-030	0.1	0.54251
30370	13.616	0.	5.e-002	1.2366e-006
30371	13.34	-5.8637e-030	0.1	-0.48013
30372	13.432	0.	5.e-002	2.5859e-006
30373	13.156	-5.7828e-030	0.1	0.47235
30374	13.248	0.	5.e-002	2.3801e-006
30375	12.972	-5.702e-030	0.1	0.88139
30376	13.064	0.	5.e-002	2.8471e-006
30377	12.788	-5.6211e-030	0.1	1.2185
30378	12.88	0.	5.e-002	1.8759e-006
30379	12.604	-5.5402e-030	0.1	1.3835
30380	12.696	0.	5.e-002	3.1364e-006
30381	12.42	-5.4593e-030	0.1	1.4365
30382	12.512	0.	5.e-002	1.2231e-005
30383	12.236	-5.3785e-030	0.1	1.4039
30384	12.328	0.	5.e-002	2.3307e-005
30385	12.052	-5.2976e-030	0.1	1.3169
30386	12.144	0.	5.e-002	8.3581e-006
30387	11.868	-5.2167e-030	0.1	1.1987
30388	11.96	0.	5.e-002	1.9946e-006
30389	11.684	-5.1358e-030	0.1	1.0664
30390	11.776	0.	5.e-002	2.5057e-006
30391	11.5	-5.0549e-030	0.1	0.9319
30392	11.592	0.	5.e-002	2.4611e-006
30393	11.316	-4.9741e-030	0.1	0.80256
30394	11.408	0.	5.e-002	2.6734e-006
30395	11.132	-4.8932e-030	0.1	0.68252
30396	11.224	0.	5.e-002	2.0941e-006
30397	10.948	-4.8123e-030	0.1	0.57369
30398	11.04	0.	5.e-002	2.4501e-006
30399	10.764	-4.7314e-030	0.1	0.47651
30400	10.856	0.	5.e-002	1.5966e-006
30401	10.58	-4.6505e-030	0.1	0.39053
30402	10.672	0.	5.e-002	2.0261e-006
30403	10.396	-4.5697e-030	0.1	0.31481
30404	10.488	0.	5.e-002	1.737e-006
30405	10.212	-4.4888e-030	0.1	0.24819
30406	10.304	0.	5.e-002	2.1508e-006
30407	10.028	-4.4079e-030	0.1	0.18942
30408	10.12	0.	5.e-002	1.794e-006
30409	9.844	-4.327e-030	0.1	0.1373
30410	9.936	0.	5.e-002	1.6525e-006
30411	9.66	-4.2461e-030	0.1	9.0693e-002
30412	9.752	0.	5.e-002	1.2992e-006
30413	9.476	-4.1653e-030	0.1	4.8567e-002
30414	9.568	0.	5.e-002	1.4907e-006
30415	9.292	-4.0844e-030	0.1	9.9934e-003
30416	9.384	0.	5.e-002	1.4902e-006
30417	9.108	-4.0035e-030	0.1	-2.5848e-002
30418	9.2	0.	5.e-002	1.5501e-006
30419	8.924	-3.9226e-030	0.1	-5.9681e-002
30420	9.016	0.	5.e-002	1.1922e-006
30421	8.74	-3.8417e-030	0.1	-9.2145e-002
30422	8.832	0.	5.e-002	1.3714e-006
30423	8.556	-3.7609e-030	0.1	-0.12381
30424	8.648	0.	5.e-002	1.3236e-006
30425	8.372	-3.68e-030	0.1	-0.15516
30426	8.464	0.	5.e-002	1.0749e-006
30427	8.188	-3.5991e-030	0.1	-0.18666
30428	8.28	0.	5.e-002	1.1952e-006
30429	8.004	-3.5182e-030	0.1	-0.21871
30430	8.096	0.	5.e-002	1.1114e-006
30431	7.82	-3.4374e-030	0.1	-0.25169
30432	7.912	0.	5.e-002	1.1071e-006
30433	7.636	-3.3565e-030	0.1	-0.28595
30434	7.728	0.	5.e-002	1.0222e-006
30435	7.452	-3.2756e-030	0.1	-0.3218
30436	7.544	0.	5.e-002	1.085e-006
30437	7.268	-3.1947e-030	0.1	-0.35956
30438	7.36	0.	5.e-002	9.7012e-007
30439	7.084	-3.1138e-030	0.1	-0.39942
30440	7.176	0.	5.e-002	9.1636e-007
30441	6.9	-3.033e-030	0.1	-0.22669
30442	6.992	0.	5.e-002	8.9613e-007
30443	6.716	-2.9521e-030	0.1	0.11079
30444	6.808	0.	5.e-002	8.9394e-007
30445	6.532	-2.8712e-030	0.1	0.45476
30446	6.624	0.	5.e-002	8.7379e-007
30447	6.348	-2.7903e-030	0.1	0.80256
30448	6.44	0.	5.e-002	8.816e-007
30449	6.164	-2.7094e-030	0.1	1.151
30450	6.256	0.	5.e-002	8.9979e-007
30451	5.98	-2.6286e-030	0.1	1.4963
30452	6.072	0.	5.e-002	7.2928e-007
30453	5.796	-2.5477e-030	0.1	1.8335
30454	5.888	0.	5.e-002	1.131e-006
30455	5.612	-2.4668e-030	0.1	2.1569
30456	5.704	0.	5.e-002	7.1605e-007
30457	5.428	-2.3859e-030	0.1	2.4596
30458	5.52	0.	5.e-002	1.5891e-006
30459	5.244	-2.3051e-030	0.1	2.7332
30460	5.336	0.	5.e-002	6.628e-006
30461	5.06	-2.2242e-030	0.1	2.9678
30462	5.152	0.	5.e-002	1.9476e-005
30463	4.876	-2.1433e-030	0.1	3.1517
30464	4.968	0.	5.e-002	4.8874e-005
30465	4.692	-2.0624e-030	0.1	3.271
30466	4.784	0.	5.e-002	6.3137e-006
30467	4.508	-1.9815e-030	0.1	3.3095
30468	4.6	0.	5.e-002	4.4781e-006
30469	4.324	-1.9007e-030	0.1	3.248
30470	4.416	0.	5.e-002	1.3301e-006
30471	4.14	-1.8198e-030	0.1	3.0647
30472	4.232	0.	5.e-002	7.2356e-007
30473	3.956	-1.7389e-030	0.1	2.7341
30474	4.048	0.	5.e-002	1.0302e-006
30475	3.772	-1.658e-030	0.1	2.2279
30476	3.864	0.	5.e-002	7.8539e-007
30477	3.588	-1.5771e-030	0.1	1.5158
30478	3.68	0.	5.e-002	-1.4639e-014
30479	3.404	-1.4963e-030	0.1	0.5726
30480	3.496	0.	5.e-002	5.2083e-007
30481	3.22	-1.4154e-030	0.1	-0.58766
30482	3.312	0.	5.e-002	2.2184e-007
30483	3.036	-1.3345e-030	0.1	-1.7328
30484	3.128	0.	5.e-002	3.8624e-007
30485	2.852	-1.2536e-030	0.1	-2.3977
30486	2.944	0.	5.e-002	3.4218e-007
30487	2.668	-1.1727e-030	0.1	-2.7751
30488	2.76	0.	5.e-002	-3.0849e-014
30489	2.484	-1.0919e-030	0.1	-3.0888
30490	2.576	0.	5.e-002	2.7999e-007
30491	2.3	-1.011e-030	0.1	-3.3983
30492	2.392	0.	5.e-002	2.5761e-007
30493	2.116	-9.3011e-031	0.1	-3.7244
30494	2.208	0.	5.e-002	1.1966e-007
30495	1.932	-8.4923e-031	0.1	-4.0789
30496	2.024	0.	5.e-002	2.2425e-007
30497	1.748	-7.6835e-031	0.1	-4.4736
30498	1.84	0.	5.e-002	2.1183e-007
30499	1.564	-6.8747e-031	0.1	-4.916
30500	1.656	0.	5.e-002	1.0079e-007
30501	1.38	-6.0659e-031	0.1	-5.4378
30502	1.472	0.	5.e-002	1.9312e-007
30503	1.196	-5.2571e-031	0.1	-6.0057
30504	1.288	0.	5.e-002	1.8604e-007
30505	1.012	-4.4483e-031	0.1	-6.82
30506	1.104	0.	5.e-002	1.7972e-007
30507	0.828	-3.6396e-031	0.1	-7.4366
30508	0.92	0.	5.e-002	8.6834e-008
30509	0.644	-2.8308e-031	0.1	-8.8851
30510	0.736	0.	5.e-002	8.1554e-008
30511	0.46	-2.022e-031	0.1	-13.421
30512	0.552	0.	5.e-002	1.5262e-007
30513	0.276	-1.2132e-031	0.1	19.153
30514	0.368	0.	5.e-002	1.4077e-007
30515	9.2e-002	-4.0439e-032	0.1	-165.99
30516	0.184	0.	5.e-002	-1.7166e-005
30517	0.	0.	5.e-002	1.6394e-004
30518	9.2e-002	6.	0.1	-165.99
30519	5.2451e-014	6.	5.e-002	-2.0975e-004
30520	0.276	6.	0.1	19.153
30521	0.184	6.	5.e-002	2.4814e-005
30522	0.46	6.	0.1	-13.421
30523	0.368	6.	5.e-002	-1.4077e-007
30524	0.644	6.	0.1	-8.8851
30525	0.552	6.	5.e-002	-1.5262e-007
30526	0.828	6.	0.1	-7.4366
30527	0.736	6.	5.e-002	-1.6311e-007
30528	1.012	6.	0.1	-6.82
30529	0.92	6.	5.e-002	-1.7367e-007
30530	1.196	6.	0.1	-6.0057
30531	1.104	6.	5.e-002	-8.9861e-008
30532	1.38	6.	0.1	-5.4378
30533	1.288	6.	5.e-002	-1.8604e-007
30534	1.564	6.	0.1	-4.916
30535	1.472	6.	5.e-002	-1.9312e-007
30536	1.748	6.	0.1	-4.4736
30537	1.656	6.	5.e-002	-2.0158e-007
30538	1.932	6.	0.1	-4.0789
30539	1.84	6.	5.e-002	-2.1183e-007
30540	2.116	6.	0.1	-3.7244
30541	2.024	6.	5.e-002	-2.2425e-007
30542	2.3	6.	0.1	-3.3983
30543	2.208	6.	5.e-002	-2.3931e-007
30544	2.484	6.	0.1	-3.0888
30545	2.392	6.	5.e-002	-2.5761e-007
30546	2.668	6.	0.1	-2.7751
30547	2.576	6.	5.e-002	-2.7999e-007
30548	2.852	6.	0.1	-2.3977
30549	2.76	6.	5.e-002	-3.0761e-007
30550	3.036	6.	0.1	-1.7328
30551	2.944	6.	5.e-002	-3.4218e-007
30552	3.22	6.	0.1	-0.58768
30553	3.128	6.	5.e-002	-3.8623e-007
30554	3.404	6.	0.1	0.57258
30555	3.312	6.	5.e-002	-2.2184e-007
30556	3.588	6.	0.1	1.5157
30557	3.496	6.	5.e-002	-5.2082e-007
30558	3.772	6.	0.1	2.2278
30559	3.68	6.	5.e-002	-6.2829e-007
30560	3.956	6.	0.1	2.7341
30561	3.864	6.	5.e-002	-7.8538e-007
30562	4.14	6.	0.1	3.0647
30563	4.048	6.	5.e-002	-5.1508e-007
30564	4.324	6.	0.1	3.248
30565	4.232	6.	5.e-002	-1.4471e-006
30566	4.508	6.	0.1	3.3095
30567	4.416	6.	5.e-002	-2.2576e-006
30568	4.692	6.	0.1	3.271
30569	4.6	6.	5.e-002	-4.0821e-006
30570	4.876	6.	0.1	3.1517
30571	4.784	6.	5.e-002	-1.1145e-005
30572	5.06	6.	0.1	2.9678
30573	4.968	6.	5.e-002	-9.722e-005
30574	5.244	6.	0.1	2.7332
30575	5.152	6.	5.e-002	-3.7563e-005
30576	5.428	6.	0.1	2.4596
30577	5.336	6.	5.e-002	-5.7278e-006
30578	5.612	6.	0.1	2.1569
30579	5.52	6.	5.e-002	-6.1459e-007
30580	5.796	6.	0.1	1.8335
30581	5.704	6.	5.e-002	5.7106e-008
30582	5.98	6.	0.1	1.4963
30583	5.888	6.	5.e-002	-1.2028e-007
30584	6.164	6.	0.1	1.151
30585	6.072	6.	5.e-002	2.056e-007
30586	6.348	6.	0.1	0.80257
30587	6.256	6.	5.e-002	3.5065e-007
30588	6.532	6.	0.1	0.45477
30589	6.44	6.	5.e-002	5.4794e-007
30590	6.716	6.	0.1	0.11081
30591	6.624	6.	5.e-002	5.978e-007
30592	6.9	6.	0.1	-0.22668
30593	6.808	6.	5.e-002	6.3103e-007
30594	7.084	6.	0.1	-0.39942
30595	6.992	6.	5.e-002	5.3402e-007
30596	7.268	6.	0.1	-0.35956
30597	7.176	6.	5.e-002	8.4114e-007
30598	7.452	6.	0.1	-0.3218
30599	7.36	6.	5.e-002	8.1778e-007
30600	7.636	6.	0.1	-0.28594
30601	7.544	6.	5.e-002	1.0391e-006
30602	7.82	6.	0.1	-0.25169
30603	7.728	6.	5.e-002	9.1773e-007
30604	8.004	6.	0.1	-0.21871
30605	7.912	6.	5.e-002	9.439e-007
30606	8.188	6.	0.1	-0.18666
30607	8.096	6.	5.e-002	1.066e-006
30608	8.372	6.	0.1	-0.15516
30609	8.28	6.	5.e-002	1.0505e-006
30610	8.556	6.	0.1	-0.1238
30611	8.464	6.	5.e-002	9.9585e-007
30612	8.74	6.	0.1	-9.2145e-002
30613	8.648	6.	5.e-002	1.2622e-006
30614	8.924	6.	0.1	-5.968e-002
30615	8.832	6.	5.e-002	1.2512e-006
30616	9.108	6.	0.1	-2.5847e-002
30617	9.016	6.	5.e-002	1.375e-006
30618	9.292	6.	0.1	9.9938e-003
30619	9.2	6.	5.e-002	1.4309e-006
30620	9.476	6.	0.1	4.8567e-002
30621	9.384	6.	5.e-002	1.3708e-006
30622	9.66	6.	0.1	9.0694e-002
30623	9.568	6.	5.e-002	1.3703e-006
30624	9.844	6.	0.1	0.1373
30625	9.752	6.	5.e-002	1.6077e-006
30626	10.028	6.	0.1	0.18942
30627	9.936	6.	5.e-002	1.4672e-006
30628	10.212	6.	0.1	0.24819
30629	10.12	6.	5.e-002	1.4841e-006
30630	10.396	6.	0.1	0.31481
30631	10.304	6.	5.e-002	1.6231e-006
30632	10.58	6.	0.1	0.39053
30633	10.488	6.	5.e-002	1.6512e-006
30634	10.764	6.	0.1	0.47651
30635	10.672	6.	5.e-002	2.0857e-006
30636	10.948	6.	0.1	0.57369
30637	10.856	6.	5.e-002	1.6364e-006
30638	11.132	6.	0.1	0.68252
30639	11.04	6.	5.e-002	2.0546e-006
30640	11.316	6.	0.1	0.80256
30641	11.224	6.	5.e-002	1.5379e-006
30642	11.5	6.	0.1	0.9319
30643	11.408	6.	5.e-002	1.6695e-006
30644	11.684	6.	0.1	1.0664
30645	11.592	6.	5.e-002	1.7168e-006
30646	11.868	6.	0.1	1.1986
30647	11.776	6.	5.e-002	1.677e-006
30648	12.052	6.	0.1	1.3169
30649	11.96	6.	5.e-002	2.8174e-006
30650	12.236	6.	0.1	1.4039
30651	12.144	6.	5.e-002	1.5371e-007
30652	12.42	6.	0.1	1.4365
30653	12.328	6.	5.e-002	2.3858e-006
30654	12.604	6.	0.1	1.3835
30655	12.512	6.	5.e-002	2.0925e-006
30656	12.788	6.	0.1	1.2185
30657	12.696	6.	5.e-002	3.1364e-006
30658	12.972	6.	0.1	0.88139
30659	12.88	6.	5.e-002	3.5344e-006
30660	13.156	6.	0.1	0.47235
30661	13.064	6.	5.e-002	2.9674e-006
30662	13.34	6.	0.1	-0.48013
30663	13.248	6.	5.e-002	2.3836e-006
30664	13.524	6.	0.1	0.54251
30665	13.432	6.	5.e-002	2.8374e-006
30666	13.708	6.	0.1	11.297
30667	13.616	6.	5.e-002	6.0502e-006
30668	13.8	6.	5.e-002	8.8651e-007
30669	13.524	6.	0.	-0.54251
30670	13.708	6.	0.	-11.297
30671	13.34	6.	0.	0.48013
30672	13.156	6.	0.	-0.47235
30673	12.972	6.	0.	-0.88139
30674	12.788	6.	0.	-1.2185
30675	12.604	6.	0.	-1.3835
30676	12.42	6.	0.	-1.4365
30677	12.236	6.	0.	-1.4039
30678	12.052	6.	0.	-1.3169
30679	11.868	6.	0.	-1.1986
30680	11.684	6.	0.	-1.0664
30681	11.5	6.	0.	-0.9319
30682	11.316	6.	0.	-0.80256
30683	11.132	6.	0.	-0.68252
30684	10.948	6.	0.	-0.57369
30685	10.764	6.	0.	-0.47651
30686	10.58	6.	0.	-0.39053
30687	10.396	6.	0.	-0.31481
30688	10.212	6.	0.	-0.24819
30689	10.028	6.	0.	-0.18942
30690	9.844	6.	0.	-0.1373
30691	9.66	6.	0.	-9.0694e-002
30692	9.476	6.	0.	-4.8567e-002
30693	9.292	6.	0.	-9.9936e-003
30694	9.108	6.	0.	2.5847e-002
30695	8.924	6.	0.	5.9681e-002
30696	8.74	6.	0.	9.2145e-002
30697	8.556	6.	0.	0.1238
30698	8.372	6.	0.	0.15516
30699	8.188	6.	0.	0.18666
30700	8.004	6.	0.	0.21871
30701	7.82	6.	0.	0.25169
30702	7.636	6.	0.	0.28594
30703	7.452	6.	0.	0.3218
30704	7.268	6.	0.	0.35956
30705	7.084	6.	0.	0.39942
30706	6.9	6.	0.	0.22668
30707	6.716	6.	0.	-0.1108
30708	6.532	6.	0.	-0.45477
30709	6.348	6.	0.	-0.80257
30710	6.164	6.	0.	-1.151
30711	5.98	6.	0.	-1.4963
30712	5.796	6.	0.	-1.8335
30713	5.612	6.	0.	-2.1569
30714	5.428	6.	0.	-2.4596
30715	5.244	6.	0.	-2.7332
30716	5.06	6.	0.	-2.9678
30717	4.876	6.	0.	-3.1517
30718	4.692	6.	0.	-3.271
30719	4.508	6.	0.	-3.3095
30720	4.324	6.	0.	-3.248
30721	4.14	6.	0.	-3.0647
30722	3.956	6.	0.	-2.7341
30723	3.772	6.	0.	-2.2278
30724	3.588	6.	0.	-1.5157
30725	3.404	6.	0.	-0.57258
30726	3.22	6.	0.	0.58768
30727	3.036	6.	0.	1.7328
30728	2.852	6.	0.	2.3977
30729	2.668	6.	0.	2.7751
30730	2.484	6.	0.	3.0888
30731	2.3	6.	0.	3.3983
30732	2.116	6.	0.	3.7244
30733	1.932	6.	0.	4.0789
30734	1.748	6.	0.	4.4736
30735	1.564	6.	0.	4.916
30736	1.38	6.	0.	5.4378
30737	1.196	6.	0.	6.0057
30738	1.012	6.	0.	6.82
30739	0.828	6.	0.	7.4366
30740	0.644	6.	0.	8.8851
30741	0.46	6.	0.	13.421
30742	0.276	6.	0.	-19.153
30743	9.2e-002	6.	0.	165.99
30744	13.8	5.9091	0.	3.1267
30745	5.1657e-014	5.9091	0.	-377.03
30746	0.276	-1.2132e-031	0.	-19.153
30747	9.2e-002	-4.0439e-032	0.	165.99
30748	0.46	-2.022e-031	0.	13.421
30749	0.644	-2.8308e-031	0.	8.8851
30750	0.828	-3.6396e-031	0.	7.4366
30751	1.012	-4.4483e-031	0.	6.82
30752	1.196	-5.2571e-031	0.	6.0057
30753	1.38	-6.0659e-031	0.	5.4378
30754	1.564	-6.8747e-031	0.	4.916
30755	1.748	-7.6835e-031	0.	4.4736
30756	1.932	-8.4923e-031	0.	4.0789
30757	2.116	-9.3011e-031	0.	3.7244
30758	2.3	-1.011e-030	0.	3.3983
30759	2.484	-1.0919e-030	0.	3.0888
30760	2.668	-1.1727e-030	0.	2.7751
30761	2.852	-1.2536e-030	0.	2.3977
30762	3.036	-1.3345e-030	0.	1.7328
30763	3.22	-1.4154e-030	0.	0.58766
30764	3.404	-1.4963e-030	0.	-0.5726
30765	3.588	-1.5771e-030	0.	-1.5158
30766	3.772	-1.658e-030	0.	-2.2279
30767	3.956	-1.7389e-030	0.	-2.7341
30768	4.14	-1.8198e-030	0.	-3.0647
30769	4.324	-1.9007e-030	0.	-3.248
30770	4.508	-1.9815e-030	0.	-3.3095
30771	4.692	-2.0624e-030	0.	-3.271
30772	4.876	-2.1433e-030	0.	-3.1517
30773	5.06	-2.2242e-030	0.	-2.9678
30774	5.244	-2.3051e-030	0.	-2.7332
30775	5.428	-2.3859e-030	0.	-2.4596
30776	5.612	-2.4668e-030	0.	-2.1569
30777	5.796	-2.5477e-030	0.	-1.8335
30778	5.98	-2.6286e-030	0.	-1.4963
30779	6.164	-2.7094e-030	0.	-1.151
30780	6.348	-2.7903e-030	0.	-0.80256
30781	6.532	-2.8712e-030	0.	-0.45476
30782	6.716	-2.9521e-030	0.	-0.11079
30783	6.9	-3.033e-030	0.	0.22669
30784	7.084	-3.1138e-030	0.	0.39942
30785	7.268	-3.1947e-030	0.	0.35956
30786	7.452	-3.2756e-030	0.	0.3218
30787	7.636	-3.3565e-030	0.	0.28595
30788	7.82	-3.4374e-030	0.	0.25169
30789	8.004	-3.5182e-030	0.	0.21872
30790	8.188	-3.5991e-030	0.	0.18666
30791	8.372	-3.68e-030	0.	0.15516
30792	8.556	-3.7609e-030	0.	0.12381
30793	8.74	-3.8417e-030	0.	9.2146e-002
30794	8.924	-3.9226e-030	0.	5.9681e-002
30795	9.108	-4.0035e-030	0.	2.5848e-002
30796	9.292	-4.0844e-030	0.	-9.993e-003
30797	9.476	-4.1653e-030	0.	-4.8566e-002
30798	9.66	-4.2461e-030	0.	-9.0693e-002
30799	9.844	-4.327e-030	0.	-0.1373
30800	10.028	-4.4079e-030	0.	-0.18942
30801	10.212	-4.4888e-030	0.	-0.24819
30802	10.396	-4.5697e-030	0.	-0.31481
30803	10.58	-4.6505e-030	0.	-0.39053
30804	10.764	-4.7314e-030	0.	-0.47651
30805	10.948	-4.8123e-030	0.	-0.57369
30806	11.132	-4.8932e-030	0.	-0.68252
30807	11.316	-4.9741e-030	0.	-0.80256
30808	11.5	-5.0549e-030	0.	-0.9319
30809	11.684	-5.1358e-030	0.	-1.0664
30810	11.868	-5.2167e-030	0.	-1.1987
30811	12.052	-5.2976e-030	0.	-1.3169
30812	12.236	-5.3785e-030	0.	-1.4039
30813	12.42	-5.4593e-030	0.	-1.4365
30814	12.604	-5.5402e-030	0.	-1.3835
30815	12.788	-5.6211e-030	0.	-1.2185
30816	12.972	-5.702e-030	0.	-0.88139
30817	13.156	-5.7828e-030	0.	-0.47235
30818	13.34	-5.8637e-030	0.	0.48013
30819	13.524	-5.9446e-030	0.	-0.54251
30820	13.708	-6.0255e-030	0.	-11.297
30821	13.8	9.0909e-002	0.	3.1268
30822	7.9472e-016	9.0909e-002	0.	-377.04
30823	14.24	0.	0.	0.33768
30824	14.058	0.	0.	-9.5546
30825	14.423	0.	0.	1.1983
30826	14.605	0.	0.	0.40879
30827	14.788	0.	0.	6.7167e-002
30828	14.97	0.	0.	-0.21626
30829	15.152	0.	0.	-0.36393
30830	15.335	0.	0.	-0.42645
30831	15.517	0.	0.	-0.42627
30832	15.7	0.	0.	-0.38848
30833	15.882	0.	0.	-0.33053
30834	16.065	0.	0.	-0.26483
30835	16.247	0.	0.	-0.19932
30836	16.429	0.	0.	-0.13874
30837	16.612	0.	0.	-8.5591e-002
30838	16.794	0.	0.	-4.0862e-002
30839	16.977	0.	0.	-4.6359e-003
30840	17.159	0.	0.	2.3538e-002
30841	17.342	0.	0.	4.4444e-002
30842	17.524	0.	0.	5.8977e-002
30843	17.706	0.	0.	6.8017e-002
30844	17.889	0.	0.	7.242e-002
30845	18.071	0.	0.	7.2973e-002
30846	18.254	0.	0.	7.0355e-002
30847	18.436	0.	0.	6.5144e-002
30848	18.618	0.	0.	5.7831e-002
30849	18.801	0.	0.	4.8842e-002
30850	18.983	0.	0.	3.8504e-002
30851	19.166	0.	0.	2.7066e-002
30852	19.348	0.	0.	1.4748e-002
30853	19.531	0.	0.	1.718e-003
30854	19.713	0.	0.	-1.1927e-002
30855	19.895	0.	0.	-2.6114e-002
30856	20.078	0.	0.	-4.0791e-002
30857	20.26	0.	0.	-5.5946e-002
30858	20.443	0.	0.	-7.1599e-002
30859	20.625	0.	0.	-8.7791e-002
30860	20.808	0.	0.	-0.10457
30861	20.99	0.	0.	-0.12202
30862	21.172	0.	0.	-0.14025
30863	21.355	0.	0.	-0.15938
30864	21.537	0.	0.	-0.17959
30865	21.72	0.	0.	-0.20107
30866	21.902	0.	0.	-0.22407
30867	22.085	0.	0.	-0.24892
30868	22.267	0.	0.	-0.27601
30869	22.449	0.	0.	-0.3059
30870	22.632	0.	0.	-0.33934
30871	22.814	0.	0.	-0.37728
30872	22.997	0.	0.	-0.42163
30873	23.179	0.	0.	-0.47324
30874	23.362	0.	0.	-0.54339
30875	23.544	0.	0.	-0.62249
30876	23.726	0.	0.	-0.84085
30877	23.909	0.	0.	-0.61486
30878	13.967	9.0909e-002	0.	3.911e-003
30879	24.	9.0909e-002	0.	2.4164
30880	5.0067e-014	5.7273	0.	-1763.6
30881	4.8478e-014	5.5455	0.	-2566.7
30882	4.6888e-014	5.3636	0.	-2980.
30883	4.5299e-014	5.1818	0.	-3238.4
30884	4.371e-014	5.	0.	-3416.5
30885	4.212e-014	4.8182	0.	-3546.1
30886	4.0531e-014	4.6364	0.	-3643.2
30887	3.8941e-014	4.4545	0.	-3717.5
30888	3.7352e-014	4.2727	0.	-3774.9
30889	3.5762e-014	4.0909	0.	-3819.4
30890	3.4173e-014	3.9091	0.	-3853.8
30891	3.2583e-014	3.7273	0.	-3879.9
30892	3.0994e-014	3.5455	0.	-3898.9
30893	2.9405e-014	3.3636	0.	-3911.9
30894	2.7815e-014	3.1818	0.	-3919.5
30895	2.6226e-014	3.	0.	-3921.9
30896	2.4636e-014	2.8182	0.	-3919.5
30897	2.3047e-014	2.6364	0.	-3911.9
30898	2.1457e-014	2.4545	0.	-3898.9
30899	1.9868e-014	2.2727	0.	-3879.9
30900	1.8279e-014	2.0909	0.	-3853.8
30901	1.6689e-014	1.9091	0.	-3819.4
30902	1.51e-014	1.7273	0.	-3774.9
30903	1.351e-014	1.5455	0.	-3717.5
30904	1.1921e-014	1.3636	0.	-3643.2
30905	1.0331e-014	1.1818	0.	-3546.1
30906	8.7419e-015	1.	0.	-3416.5
30907	7.1525e-015	0.81818	0.	-3238.4
30908	5.563e-015	0.63636	0.	-2980.
30909	3.9736e-015	0.45455	0.	-2566.7
30910	2.3842e-015	0.27273	0.	-1763.6
30911	24.	0.27273	0.	2.2321
30912	24.	0.45455	0.	2.3207
30913	24.	0.63636	0.	2.431
30914	24.	0.81818	0.	2.4626
30915	24.	1.	0.	2.489
30916	24.	1.1818	0.	2.5059
30917	24.	1.3636	0.	2.5187
30918	24.	1.5455	0.	2.5281
30919	24.	1.7273	0.	2.5353
30920	24.	1.9091	0.	2.5408
30921	24.	2.0909	0.	2.5449
30922	24.	2.2727	0.	2.548
30923	24.	2.4545	0.	2.5502
30924	24.	2.6364	0.	2.5517
30925	24.	2.8182	0.	2.5526
30926	24.	3.	0.	2.5529
30927	24.	3.1818	0.	2.5526
30928	24.	3.3636	0.	2.5517
30929	24.	3.5455	0.	2.5502
30930	24.	3.7273	0.	2.548
30931	24.	3.9091	0.	2.5449
30932	24.	4.0909	0.	2.5408
30933	24.	4.2727	0.	2.5353
30934	24.	4.4545	0.	2.5281
30935	24.	4.6364	0.	2.5187
30936	24.	4.8182	0.	2.5059
30937	24.	5.	0.	2.489
30938	24.	5.1818	0.	2.4626
30939	24.	5.3636	0.	2.431
30940	24.	5.5455	0.	2.3207
30941	24.	5.7273	0.	2.2321
30942	24.	5.9091	0.	2.4164
30943	23.909	6.	0.	-0.61486
30944	23.726	6.	0.	-0.84086
30945	23.544	6.	0.	-0.6225
30946	23.362	6.	0.	-0.54339
30947	23.179	6.	0.	-0.47324
30948	22.997	6.	0.	-0.42163
30949	22.814	6.	0.	-0.37728
30950	22.632	6.	0.	-0.33934
30951	22.449	6.	0.	-0.3059
30952	22.267	6.	0.	-0.27601
30953	22.085	6.	0.	-0.24892
30954	21.902	6.	0.	-0.22407
30955	21.72	6.	0.	-0.20107
30956	21.537	6.	0.	-0.17959
30957	21.355	6.	0.	-0.15938
30958	21.172	6.	0.	-0.14024
30959	20.99	6.	0.	-0.12201
30960	20.808	6.	0.	-0.10457
30961	20.625	6.	0.	-8.779e-002
30962	20.443	6.	0.	-7.1599e-002
30963	20.26	6.	0.	-5.5945e-002
30964	20.078	6.	0.	-4.0789e-002
30965	19.895	6.	0.	-2.6112e-002
30966	19.713	6.	0.	-1.1926e-002
30967	19.531	6.	0.	1.7213e-003
30968	19.348	6.	0.	1.4751e-002
30969	19.166	6.	0.	2.7066e-002
30970	18.983	6.	0.	3.8504e-002
30971	18.801	6.	0.	4.8843e-002
30972	18.618	6.	0.	5.7832e-002
30973	18.436	6.	0.	6.5146e-002
30974	18.254	6.	0.	7.0356e-002
30975	18.071	6.	0.	7.2972e-002
30976	17.889	6.	0.	7.2419e-002
30977	17.706	6.	0.	6.8017e-002
30978	17.524	6.	0.	5.8979e-002
30979	17.342	6.	0.	4.4446e-002
30980	17.159	6.	0.	2.3539e-002
30981	16.977	6.	0.	-4.635e-003
30982	16.794	6.	0.	-4.0862e-002
30983	16.612	6.	0.	-8.5592e-002
30984	16.429	6.	0.	-0.13874
30985	16.247	6.	0.	-0.19932
30986	16.065	6.	0.	-0.26483
30987	15.882	6.	0.	-0.33053
30988	15.7	6.	0.	-0.38848
30989	15.517	6.	0.	-0.42627
30990	15.335	6.	0.	-0.42645
30991	15.152	6.	0.	-0.36393
30992	14.97	6.	0.	-0.21626
30993	14.788	6.	0.	6.7165e-002
30994	14.605	6.	0.	0.40879
30995	14.423	6.	0.	1.1983
30996	14.24	6.	0.	0.33768
30997	14.058	6.	0.	-9.5546
30998	13.967	5.9091	0.	3.9181e-003
30999	13.8	1.7273	0.	34.386
31000	13.8	1.9091	0.	-614.6
31001	13.8	1.5455	0.	45.777
31002	13.8	1.3636	0.	19.882
31003	13.8	1.1818	0.	18.128
31004	13.8	1.	0.	14.145
31005	13.8	0.81818	0.	12.59
31006	13.8	0.63636	0.	11.201
31007	13.8	0.45455	0.	10.583
31008	13.8	0.27273	0.	9.4753
31009	13.883	2.	0.	-1130.3
31010	13.967	0.27273	0.	7.1893
31011	13.967	0.45455	0.	8.2684
31012	13.967	0.63636	0.	8.8192
31013	13.967	0.81818	0.	10.111
31014	13.967	1.	0.	11.633
31015	13.967	1.1818	0.	15.301
31016	13.967	1.3636	0.	17.404
31017	13.967	1.5455	0.	42.278
31018	13.967	1.7273	0.	36.647
31019	13.967	1.9091	0.	-765.09
31020	13.8	4.2727	0.	34.386
31021	13.8	4.0909	0.	-614.6
31022	13.8	4.4545	0.	45.777
31023	13.8	4.6364	0.	19.882
31024	13.8	4.8182	0.	18.128
31025	13.8	5.	0.	14.145
31026	13.8	5.1818	0.	12.59
31027	13.8	5.3636	0.	11.201
31028	13.8	5.5455	0.	10.583
31029	13.8	5.7273	0.	9.4753
31030	13.883	4.	0.	-1130.3
31031	13.967	5.7273	0.	7.1893
31032	13.967	5.5455	0.	8.2684
31033	13.967	5.3636	0.	8.8192
31034	13.967	5.1818	0.	10.111
31035	13.967	5.	0.	11.633
31036	13.967	4.8182	0.	15.301
31037	13.967	4.6364	0.	17.404
31038	13.967	4.4545	0.	42.278
31039	13.967	4.2727	0.	36.647
31040	13.967	4.0909	0.	-765.09
