Node Numbers,X Locations (inches),Y Locations (inches),Z Locations (inches),Equivalent Elastic Strains (in/in),Equivalent Stress (psi),Max Principal Elastic Strain (in/in),Max Principal Stress (psi),Middle Principal Elastic Strain (in/in),Middle Principal Stress (psi),Min Principal Elastic Strain (in/in),Min Principal Stress (psi),Total Deformation (in)
1,6.137,3.3334,0,0.00013817,1380.8,6.412e-05,288.35,3.9911e-05,106.46,-0.00013055,-1174.4,0.051378
2,7.1119,1.7472,0,8.7269e-05,872.08,3.4146e-05,-30.385,1.6312e-05,-164.38,-8.9806e-05,-961.71,0.069144
3,4.29,2.8373,0,0.00012079,1207,4.7365e-05,-28.062,2.3764e-05,-205.39,-0.00012378,-1313.9,0.024987
4,7.3168,3.392,0,9.8318e-05,982.5,3.7129e-05,-26.213,2.1689e-05,-142.22,-0.00010067,-1061.6,0.073596
5,4.3357,0.65575,0,8.0897e-05,808.41,3.3573e-05,64.414,2.0592e-05,-33.118,-7.9922e-05,-788.34,0.023561
6,6.5285,0.48093,0,6.4966e-05,649.21,2.9613e-05,112.87,1.7545e-05,22.198,-6.2191e-05,-576.91,0.05641
7,4.5968,4.6533,0,0.0001179,1178.2,5.5489e-05,207.8,2.8794e-05,7.2231,-0.00011296,-1057.9,0.027427
8,6.7241,4.7166,0,9.1891e-05,918.28,4.1721e-05,120.75,2.1279e-05,-32.837,-8.9426e-05,-864.63,0.061161
9,6.3231,5.0634,0,6.2651e-05,626.08,2.8018e-05,86.831,1.5773e-05,-5.1735,-6.0752e-05,-580.16,0.053076
10,3.8611,1.8454,0,0.00010954,1094.7,4.2619e-05,73.09,3.1711e-05,-8.8681,-0.00010822,-1060.2,0.020032
11,4.6578,5.4028,0,8.6565e-05,865.05,4.0875e-05,158.72,2.1493e-05,13.093,-8.2717e-05,-769.9,0.026956
12,6.5086,5.4598,0,6.361e-05,635.66,2.8997e-05,103.05,1.6439e-05,8.6944,-6.1181e-05,-574.51,0.056147
13,3.322,0.92335,0,0.00012088,1208,4.3763e-05,70.557,3.9787e-05,40.68,-0.00011896,-1152.1,0.014218
14,3.7755,5.1673,0,0.00010476,1046.8,3.6913e-05,18.723,3.2289e-05,-16.023,-0.00010467,-1045.1,0.018217
15,2.746,4.5615,0,0.00012116,1210.8,4.6072e-05,-41.665,2.5224e-05,-198.31,-0.00012448,-1323.1,0.010069
16,1.3242,4.6882,0,0.00014112,1410.2,7.6953e-05,256.24,1.3202e-05,-222.76,-0.0001343,-1331,0.0023183
17,1.1557,1.183,0,0.00014186,1417.6,7.762e-05,265.54,1.3565e-05,-215.74,-0.00013475,-1330.1,0.0017317
18,2.2935,1.1047,0,0.00012808,1279.9,4.7031e-05,-49.458,2.9241e-05,-183.13,-0.00013151,-1391,0.00684
19,7.5105,0.703,0,6.5479e-05,654.34,2.4004e-05,-7.4118,1.6737e-05,-62.021,-6.6489e-05,-687.35,0.076456
20,8.4174,1.1987,0,6.761e-05,675.63,2.2155e-05,-20.384,2.0705e-05,-31.277,-6.8482e-05,-701.4,0.096258
21,9.9077,1.1895,0,5.8358e-05,583.18,2.0826e-05,8.458,1.7348e-05,-17.668,-5.8471e-05,-587.34,0.13045
22,11.188,1.2007,0,4.8086e-05,480.53,1.5826e-05,-3.9725,1.5576e-05,-5.8513,-4.8253e-05,-485.44,0.16192
23,12.395,1.2069,0,3.9861e-05,398.34,1.3277e-05,1.2874,1.3065e-05,-0.30287,-3.9844e-05,-397.84,0.19304
24,13.591,1.1966,0,3.232e-05,322.97,1.1003e-05,3.5464,1.0418e-05,-0.84629,-3.2272e-05,-321.6,0.225
25,14.77,1.1868,0,2.5641e-05,256.23,8.9739e-06,5.7357,8.1163e-06,-0.70808,-2.5549e-05,-253.66,0.25743
26,15.935,1.1855,0,1.9807e-05,197.94,7.1529e-06,7.0321,6.1293e-06,-0.65937,-1.9688e-05,-194.64,0.29015
27,17.083,1.1865,0,1.4788e-05,147.78,5.5708e-06,7.9124,4.4215e-06,-0.72248,-1.4647e-05,-143.99,0.3229
28,18.236,1.1867,0,1.0544e-05,105.37,4.1935e-06,8.2916,3.008e-06,-0.61585,-1.0385e-05,-101.25,0.35619
29,19.39,1.1944,0,7.0569e-06,70.521,3.0507e-06,8.4732,1.8469e-06,-0.57136,-6.8789e-06,-66.133,0.38978
30,20.539,1.1957,0,4.3426e-06,43.396,2.1477e-06,8.462,9.3706e-07,-0.63463,-4.1373e-06,-38.761,0.42339
31,21.696,1.1934,0,2.4041e-06,24.025,1.4667e-06,8.1809,2.952e-07,-0.62162,-2.1513e-06,-19.004,0.45733
32,22.847,1.1959,0,1.2478e-06,12.47,1.0046e-06,7.5999,-9.2719e-08,-0.64468,-9.0472e-07,-6.7458,0.49116
33,1.3452,3.5056,0,0.0001468,1467,8.4746e-05,287.96,5.1506e-06,-310.1,-0.00013773,-1383.6,0.0025395
34,1.2575,2.3444,0,0.00014802,1479.1,8.5317e-05,285.85,4.9869e-06,-317.72,-0.00013901,-1399.6,0.002208
35,22.841,2.3946,0,1.5799e-06,15.788,1.3449e-06,10.606,-2.3665e-07,-1.2767,-1.0395e-06,-7.3088,0.49102
36,22.841,3.6,0,1.5804e-06,15.794,1.3454e-06,10.608,-2.3755e-07,-1.2862,-1.0395e-06,-7.3117,0.49102
37,22.842,4.8062,0,1.2502e-06,12.494,1.0044e-06,7.5769,-9.132e-08,-0.65589,-9.0893e-07,-6.7991,0.491
38,21.686,4.8069,0,2.4114e-06,24.098,1.4675e-06,8.1433,2.9769e-07,-0.64586,-2.1604e-06,-19.115,0.45703
39,20.535,4.7975,0,4.3572e-06,43.542,2.1507e-06,8.4513,9.4466e-07,-0.61075,-4.1524e-06,-38.908,0.42326
40,19.383,4.8003,0,7.0736e-06,70.687,3.0509e-06,8.3741,1.8527e-06,-0.62859,-6.8986e-06,-66.383,0.38954
41,18.233,4.7842,0,1.0563e-05,105.55,4.1987e-06,8.2678,3.0136e-06,-0.63606,-1.0405e-05,-101.45,0.35609
42,17.083,4.7511,0,1.4802e-05,147.92,5.5713e-06,7.9406,4.4359e-06,-0.59054,-1.4658e-05,-144.06,0.32291
43,15.93,4.7261,0,1.9815e-05,198.01,7.1674e-06,7.2039,6.1269e-06,-0.61407,-1.9691e-05,-194.6,0.29002
44,14.775,4.7725,0,2.5605e-05,255.87,8.9621e-06,5.7412,8.1045e-06,-0.70209,-2.5513e-05,-253.29,0.25756
45,13.608,4.7714,0,3.2211e-05,321.89,1.0994e-05,3.8828,1.0368e-05,-0.81709,-3.2156e-05,-320.33,0.22546
46,12.415,4.7692,0,3.9736e-05,397.09,1.3234e-05,1.1813,1.3017e-05,-0.44318,-3.9724e-05,-396.72,0.19357
47,11.192,4.7664,0,4.8001e-05,479.68,1.5843e-05,-3.7439,1.5492e-05,-6.382,-4.8172e-05,-484.73,0.16203
48,9.9192,4.7659,0,5.8172e-05,581.31,2.0817e-05,6.714,1.703e-05,-21.744,-5.8375e-05,-588.31,0.13074
49,8.4385,4.7489,0,6.7822e-05,677.75,2.3282e-05,-11.356,1.979e-05,-37.586,-6.8616e-05,-701.84,0.096745
50,7.5674,5.2613,0,6.9579e-05,695.31,2.454e-05,2.4509,2.0476e-05,-28.085,-6.9965e-05,-707.63,0.077678
51,2.7203,3.2755,0,0.00012212,1220.4,5.1321e-05,-52.597,1.4832e-05,-326.76,-0.00012624,-1386.7,0.010269
52,2.5588,2.1836,0,0.0001253,1252.1,5.2942e-05,-32.891,1.6812e-05,-304.36,-0.00012881,-1398.5,0.0090177
53,8.611,3.5161,0,6.7717e-05,676.71,2.4757e-05,-14.416,1.6786e-05,-74.303,-6.9027e-05,-719.07,0.10107
54,8.5873,2.3545,0,6.7507e-05,674.6,2.363e-05,-19.165,1.8161e-05,-60.256,-6.8764e-05,-713.38,0.10052
55,9.8199,2.3401,0,5.8054e-05,580.14,2.0454e-05,2.9796,1.7211e-05,-21.386,-5.8329e-05,-588.96,0.12884
56,11.093,2.3839,0,4.8371e-05,483.37,1.6378e-05,-2.1477,1.5059e-05,-12.058,-4.8605e-05,-490.4,0.15997
57,12.353,2.3843,0,3.9925e-05,398.97,1.3264e-05,-0.24659,1.3002e-05,-2.2172,-3.9966e-05,-400.2,0.19231
58,13.568,2.3748,0,3.2291e-05,322.69,1.1009e-05,3.2891,1.036e-05,-1.5869,-3.2259e-05,-321.81,0.22469
59,14.756,2.3741,0,2.5651e-05,256.34,9.0686e-06,6.5577,8.0385e-06,-1.1819,-2.5551e-05,-253.56,0.25729
60,15.929,2.3728,0,1.9834e-05,198.2,7.2891e-06,8.2744,6.0314e-06,-1.175,-1.9696e-05,-194.48,0.29017
61,17.081,2.3736,0,1.482e-05,148.1,5.7338e-06,9.4422,4.3058e-06,-1.2874,-1.4652e-05,-143.73,0.323
62,18.231,2.3765,0,1.0613e-05,106.06,4.3822e-06,9.976,2.8905e-06,-1.2318,-1.042e-05,-101.24,0.35617
63,19.377,2.3906,0,7.1683e-06,71.633,3.2639e-06,10.287,1.7284e-06,-1.2494,-6.9444e-06,-66.414,0.38949
64,20.527,2.3995,0,4.4987e-06,44.956,2.385e-06,10.495,8.2162e-07,-1.2517,-4.2247e-06,-39.168,0.42309
65,21.685,2.3921,0,2.6262e-06,26.243,1.7433e-06,10.584,1.7111e-07,-1.2291,-2.2593e-06,-19.49,0.45706
66,21.682,3.599,0,2.6303e-06,26.285,1.7448e-06,10.593,1.7377e-07,-1.2106,-2.2636e-06,-19.524,0.45697
67,20.524,3.5979,0,4.5045e-06,45.014,2.3859e-06,10.464,8.2261e-07,-1.2816,-4.2318e-06,-39.258,0.42301
68,19.373,3.5912,0,7.1765e-06,71.715,3.2719e-06,10.313,1.7236e-06,-1.3203,-6.9523e-06,-66.508,0.38936
69,18.23,3.5798,0,1.0619e-05,106.11,4.3783e-06,9.9147,2.897e-06,-1.215,-1.0427e-05,-101.32,0.35614
70,17.078,3.5586,0,1.4845e-05,148.35,5.7309e-06,9.3643,4.3268e-06,-1.1854,-1.4678e-05,-143.98,0.32292
71,15.926,3.5514,0,1.9828e-05,198.14,7.2952e-06,8.3038,6.0184e-06,-1.2901,-1.9691e-05,-194.46,0.29008
72,14.756,3.5649,0,2.5643e-05,256.25,9.0649e-06,6.508,8.0324e-06,-1.2492,-2.5544e-05,-253.53,0.25729
73,13.567,3.5714,0,3.2293e-05,322.71,1.0995e-05,3.1499,1.0372e-05,-1.5365,-3.2263e-05,-321.88,0.22468
74,12.36,3.5719,0,3.986e-05,398.32,1.3224e-05,-0.50849,1.2989e-05,-2.2698,-3.9907e-05,-399.71,0.1925
75,11.102,3.5672,0,4.8303e-05,482.7,1.6372e-05,-1.9309,1.5028e-05,-12.027,-4.8533e-05,-489.6,0.16018
76,9.8407,3.5698,0,5.7792e-05,577.52,2.0387e-05,2.6824,1.7061e-05,-22.307,-5.8085e-05,-586.92,0.12935
77,7.1302,4.1474,0,8.8141e-05,880.8,3.37e-05,-41.383,1.6918e-05,-167.47,-9.1014e-05,-978.43,0.069584
78,4.5383,1.1299,0,8.0015e-05,799.6,3.6033e-05,114.81,2.0057e-05,-5.225,-7.7472e-05,-738.02,0.02646
79,4.8466,5.0291,0,7.1179e-05,711.3,4.2786e-05,239.86,9.9497e-06,-6.8601,-6.3928e-05,-561.95,0.029736
80,4.0735,3.9389,0,0.00012236,1222.7,4.6443e-05,18.912,3.1532e-05,-93.126,-0.00012323,-1256,0.022329
81,6.2885,0.89672,0,5.8106e-05,580.66,3.0518e-05,142.24,1.1911e-05,2.4337,-5.4367e-05,-495.56,0.052317
82,6.5708,1.2289,0,9.3081e-05,930.17,4.2061e-05,124.21,2.2129e-05,-25.548,-9.0494e-05,-871.75,0.058106
83,5.4424,2.687,0,0.00019032,1901.9,9.373e-05,412.06,4.6052e-05,53.821,-0.00017985,-1643.5,0.040016
84,5.1689,3.2009,0,0.00018683,1867,9.3795e-05,477.43,4.9059e-05,141.31,-0.00017402,-1534.8,0.036103
85,7.4498,2.4084,0,9.2654e-05,925.91,3.7273e-05,10.938,1.9646e-05,-121.51,-9.3822e-05,-974.06,0.07625
86,6.1443,2.4621,0,0.00013484,1347.4,7.0771e-05,380.88,3.2985e-05,96.969,-0.00012444,-1085.9,0.051399
87,6.1443,2.4621,0.1,0.00013484,1347.4,0.00012444,1085.9,-3.2985e-05,-96.969,-7.0771e-05,-380.88,0.051399
88,7.4498,2.4084,0.1,9.2654e-05,925.91,9.3822e-05,974.06,-1.9646e-05,121.51,-3.7273e-05,-10.938,0.07625
89,5.1689,3.2009,0.1,0.00018683,1867,0.00017402,1534.8,-4.9059e-05,-141.31,-9.3795e-05,-477.43,0.036103
90,5.4424,2.687,0.1,0.00019032,1901.9,0.00017985,1643.5,-4.6052e-05,-53.821,-9.373e-05,-412.06,0.040016
91,6.5708,1.2289,0.1,9.3081e-05,930.17,9.0494e-05,871.75,-2.2129e-05,25.548,-4.2061e-05,-124.21,0.058106
92,6.2885,0.89672,0.1,5.8106e-05,580.66,5.4367e-05,495.56,-1.1911e-05,-2.4337,-3.0518e-05,-142.24,0.052317
93,4.0735,3.9389,0.1,0.00012236,1222.7,0.00012323,1256,-3.1532e-05,93.126,-4.6443e-05,-18.912,0.022329
94,4.8466,5.0291,0.1,7.1179e-05,711.3,6.3928e-05,561.95,-9.9497e-06,6.8601,-4.2786e-05,-239.86,0.029736
95,4.5383,1.1299,0.1,8.0015e-05,799.6,7.7472e-05,738.02,-2.0057e-05,5.225,-3.6033e-05,-114.81,0.02646
96,7.1302,4.1474,0.1,8.8141e-05,880.8,9.1014e-05,978.43,-1.6918e-05,167.47,-3.37e-05,41.383,0.069584
97,9.8407,3.5698,0.1,5.7792e-05,577.52,5.8085e-05,586.92,-1.7061e-05,22.307,-2.0387e-05,-2.6824,0.12935
98,11.102,3.5672,0.1,4.8303e-05,482.7,4.8533e-05,489.6,-1.5028e-05,12.027,-1.6372e-05,1.9309,0.16018
99,12.36,3.5719,0.1,3.986e-05,398.32,3.9907e-05,399.71,-1.2989e-05,2.2698,-1.3224e-05,0.50849,0.1925
100,13.567,3.5714,0.1,3.2293e-05,322.71,3.2263e-05,321.88,-1.0372e-05,1.5365,-1.0995e-05,-3.1499,0.22468
101,14.756,3.5649,0.1,2.5643e-05,256.25,2.5544e-05,253.53,-8.0324e-06,1.2492,-9.0649e-06,-6.508,0.25729
102,15.926,3.5514,0.1,1.9828e-05,198.14,1.9691e-05,194.46,-6.0184e-06,1.2901,-7.2952e-06,-8.3038,0.29008
103,17.078,3.5586,0.1,1.4845e-05,148.35,1.4678e-05,143.98,-4.3268e-06,1.1854,-5.7309e-06,-9.3643,0.32292
104,18.23,3.5798,0.1,1.0619e-05,106.11,1.0427e-05,101.32,-2.897e-06,1.215,-4.3783e-06,-9.9147,0.35614
105,19.373,3.5912,0.1,7.1765e-06,71.715,6.9523e-06,66.508,-1.7236e-06,1.3203,-3.2719e-06,-10.313,0.38936
106,20.524,3.5979,0.1,4.5045e-06,45.014,4.2318e-06,39.258,-8.2261e-07,1.2816,-2.3859e-06,-10.464,0.42301
107,21.682,3.599,0.1,2.6303e-06,26.285,2.2636e-06,19.524,-1.7377e-07,1.2106,-1.7448e-06,-10.593,0.45697
108,21.685,2.3921,0.1,2.6262e-06,26.243,2.2593e-06,19.49,-1.7111e-07,1.2291,-1.7433e-06,-10.584,0.45706
109,20.527,2.3995,0.1,4.4987e-06,44.956,4.2247e-06,39.168,-8.2162e-07,1.2517,-2.385e-06,-10.495,0.42309
110,19.377,2.3906,0.1,7.1683e-06,71.633,6.9444e-06,66.414,-1.7284e-06,1.2494,-3.2639e-06,-10.287,0.38949
111,18.231,2.3765,0.1,1.0613e-05,106.06,1.042e-05,101.24,-2.8905e-06,1.2318,-4.3822e-06,-9.976,0.35617
112,17.081,2.3736,0.1,1.482e-05,148.1,1.4652e-05,143.73,-4.3058e-06,1.2874,-5.7338e-06,-9.4422,0.323
113,15.929,2.3728,0.1,1.9834e-05,198.2,1.9696e-05,194.48,-6.0314e-06,1.175,-7.2891e-06,-8.2744,0.29017
114,14.756,2.3741,0.1,2.5651e-05,256.34,2.5551e-05,253.56,-8.0385e-06,1.1819,-9.0686e-06,-6.5577,0.25729
115,13.568,2.3748,0.1,3.2291e-05,322.69,3.2259e-05,321.81,-1.036e-05,1.5869,-1.1009e-05,-3.2891,0.22469
116,12.353,2.3843,0.1,3.9925e-05,398.97,3.9966e-05,400.2,-1.3002e-05,2.2172,-1.3264e-05,0.24659,0.19231
117,11.093,2.3839,0.1,4.8371e-05,483.37,4.8605e-05,490.4,-1.5059e-05,12.058,-1.6378e-05,2.1477,0.15997
118,9.8199,2.3401,0.1,5.8054e-05,580.14,5.8329e-05,588.96,-1.7211e-05,21.386,-2.0454e-05,-2.9796,0.12884
119,8.5873,2.3545,0.1,6.7507e-05,674.6,6.8764e-05,713.38,-1.8161e-05,60.256,-2.363e-05,19.165,0.10052
120,8.611,3.5161,0.1,6.7717e-05,676.71,6.9027e-05,719.07,-1.6786e-05,74.303,-2.4757e-05,14.416,0.10107
121,2.5588,2.1836,0.1,0.0001253,1252.1,0.00012881,1398.5,-1.6812e-05,304.36,-5.2942e-05,32.891,0.0090177
122,2.7203,3.2755,0.1,0.00012212,1220.4,0.00012624,1386.7,-1.4832e-05,326.76,-5.1321e-05,52.597,0.010269
123,7.5674,5.2613,0.1,6.9579e-05,695.31,6.9965e-05,707.63,-2.0476e-05,28.085,-2.454e-05,-2.4509,0.077678
124,8.4385,4.7489,0.1,6.7822e-05,677.75,6.8616e-05,701.84,-1.979e-05,37.586,-2.3282e-05,11.356,0.096745
125,9.9192,4.7659,0.1,5.8172e-05,581.31,5.8375e-05,588.31,-1.703e-05,21.744,-2.0817e-05,-6.714,0.13074
126,11.192,4.7664,0.1,4.8001e-05,479.68,4.8172e-05,484.73,-1.5492e-05,6.382,-1.5843e-05,3.7439,0.16203
127,12.415,4.7692,0.1,3.9736e-05,397.09,3.9724e-05,396.72,-1.3017e-05,0.44318,-1.3234e-05,-1.1813,0.19357
128,13.608,4.7714,0.1,3.2211e-05,321.89,3.2156e-05,320.33,-1.0368e-05,0.81709,-1.0994e-05,-3.8828,0.22546
129,14.775,4.7725,0.1,2.5605e-05,255.87,2.5513e-05,253.29,-8.1045e-06,0.70209,-8.9621e-06,-5.7412,0.25756
130,15.93,4.7261,0.1,1.9815e-05,198.01,1.9691e-05,194.6,-6.1269e-06,0.61407,-7.1674e-06,-7.2038,0.29002
131,17.083,4.7511,0.1,1.4802e-05,147.92,1.4658e-05,144.06,-4.4359e-06,0.59054,-5.5713e-06,-7.9406,0.32291
132,18.233,4.7842,0.1,1.0563e-05,105.55,1.0405e-05,101.45,-3.0136e-06,0.63606,-4.1987e-06,-8.2678,0.35609
133,19.383,4.8003,0.1,7.0736e-06,70.687,6.8986e-06,66.383,-1.8527e-06,0.62859,-3.0509e-06,-8.3741,0.38954
134,20.535,4.7975,0.1,4.3572e-06,43.542,4.1524e-06,38.908,-9.4466e-07,0.61075,-2.1507e-06,-8.4513,0.42326
135,21.686,4.8069,0.1,2.4114e-06,24.098,2.1604e-06,19.115,-2.9769e-07,0.64586,-1.4675e-06,-8.1433,0.45703
136,22.842,4.8062,0.1,1.2502e-06,12.494,9.0893e-07,6.7991,9.132e-08,0.65589,-1.0044e-06,-7.5769,0.491
137,22.841,3.6,0.1,1.5804e-06,15.794,1.0395e-06,7.3117,2.3755e-07,1.2862,-1.3454e-06,-10.608,0.49102
138,22.841,2.3946,0.1,1.5799e-06,15.788,1.0395e-06,7.3088,2.3665e-07,1.2767,-1.3449e-06,-10.606,0.49102
139,1.2575,2.3444,0.1,0.00014802,1479.1,0.00013901,1399.6,-4.9869e-06,317.72,-8.5317e-05,-285.85,0.002208
140,1.3452,3.5056,0.1,0.0001468,1467,0.00013773,1383.6,-5.1506e-06,310.1,-8.4746e-05,-287.96,0.0025395
141,22.847,1.1959,0.1,1.2478e-06,12.47,9.0472e-07,6.7458,9.2719e-08,0.64468,-1.0046e-06,-7.5999,0.49116
142,21.696,1.1934,0.1,2.4041e-06,24.025,2.1513e-06,19.004,-2.952e-07,0.62162,-1.4667e-06,-8.1809,0.45733
143,20.539,1.1957,0.1,4.3426e-06,43.396,4.1373e-06,38.761,-9.3706e-07,0.63463,-2.1477e-06,-8.462,0.42339
144,19.39,1.1944,0.1,7.0569e-06,70.521,6.8789e-06,66.133,-1.8469e-06,0.57137,-3.0507e-06,-8.4732,0.38978
145,18.236,1.1867,0.1,1.0544e-05,105.37,1.0385e-05,101.25,-3.008e-06,0.61585,-4.1935e-06,-8.2916,0.35619
146,17.083,1.1865,0.1,1.4788e-05,147.78,1.4647e-05,143.99,-4.4215e-06,0.72248,-5.5708e-06,-7.9124,0.3229
147,15.935,1.1855,0.1,1.9807e-05,197.94,1.9688e-05,194.64,-6.1293e-06,0.65937,-7.1529e-06,-7.0321,0.29015
148,14.77,1.1868,0.1,2.5641e-05,256.23,2.5549e-05,253.66,-8.1163e-06,0.70808,-8.9739e-06,-5.7357,0.25743
149,13.591,1.1966,0.1,3.232e-05,322.97,3.2272e-05,321.6,-1.0418e-05,0.84629,-1.1003e-05,-3.5464,0.225
150,12.395,1.2069,0.1,3.9861e-05,398.34,3.9844e-05,397.84,-1.3065e-05,0.30287,-1.3277e-05,-1.2874,0.19304
151,11.188,1.2007,0.1,4.8086e-05,480.53,4.8253e-05,485.44,-1.5576e-05,5.8513,-1.5826e-05,3.9725,0.16192
152,9.9077,1.1895,0.1,5.8358e-05,583.18,5.8471e-05,587.34,-1.7348e-05,17.668,-2.0826e-05,-8.458,0.13045
153,8.4174,1.1987,0.1,6.761e-05,675.63,6.8482e-05,701.4,-2.0705e-05,31.277,-2.2155e-05,20.384,0.096258
154,7.5105,0.703,0.1,6.5479e-05,654.34,6.6489e-05,687.35,-1.6737e-05,62.021,-2.4004e-05,7.4118,0.076456
155,2.2935,1.1047,0.1,0.00012808,1279.9,0.00013151,1391,-2.9241e-05,183.13,-4.7031e-05,49.458,0.00684
156,1.1557,1.183,0.1,0.00014186,1417.6,0.00013475,1330.1,-1.3565e-05,215.74,-7.762e-05,-265.54,0.0017317
157,1.3242,4.6882,0.1,0.00014112,1410.2,0.0001343,1331,-1.3202e-05,222.76,-7.6953e-05,-256.24,0.0023183
158,2.746,4.5615,0.1,0.00012116,1210.8,0.00012448,1323.1,-2.5224e-05,198.31,-4.6072e-05,41.665,0.010069
159,3.7755,5.1673,0.1,0.00010476,1046.8,0.00010467,1045.1,-3.2289e-05,16.023,-3.6913e-05,-18.723,0.018217
160,3.322,0.92335,0.1,0.00012088,1208,0.00011896,1152.1,-3.9787e-05,-40.68,-4.3763e-05,-70.557,0.014218
161,6.5086,5.4598,0.1,6.361e-05,635.66,6.1181e-05,574.51,-1.6439e-05,-8.6944,-2.8997e-05,-103.05,0.056147
162,4.6578,5.4028,0.1,8.6565e-05,865.05,8.2717e-05,769.9,-2.1493e-05,-13.093,-4.0875e-05,-158.72,0.026956
163,3.8611,1.8454,0.1,0.00010954,1094.7,0.00010822,1060.2,-3.1711e-05,8.8681,-4.2619e-05,-73.09,0.020032
164,6.3231,5.0634,0.1,6.2651e-05,626.08,6.0752e-05,580.16,-1.5773e-05,5.1735,-2.8018e-05,-86.831,0.053076
165,6.7241,4.7166,0.1,9.1891e-05,918.28,8.9426e-05,864.63,-2.1279e-05,32.837,-4.1721e-05,-120.75,0.061161
166,4.5968,4.6533,0.1,0.0001179,1178.2,0.00011296,1057.9,-2.8794e-05,-7.2231,-5.5489e-05,-207.8,0.027427
167,6.5285,0.48093,0.1,6.4966e-05,649.21,6.2191e-05,576.91,-1.7545e-05,-22.198,-2.9613e-05,-112.87,0.05641
168,4.3357,0.65575,0.1,8.0897e-05,808.41,7.9922e-05,788.34,-2.0592e-05,33.118,-3.3573e-05,-64.414,0.023561
169,7.3168,3.392,0.1,9.8318e-05,982.5,0.00010067,1061.6,-2.1689e-05,142.22,-3.7129e-05,26.213,0.073596
170,4.29,2.8373,0.1,0.00012079,1207,0.00012378,1313.9,-2.3764e-05,205.39,-4.7365e-05,28.062,0.024987
171,7.1119,1.7472,0.1,8.7269e-05,872.08,8.9806e-05,961.71,-1.6312e-05,164.38,-3.4146e-05,30.385,0.069144
172,6.137,3.3334,0.1,0.00013817,1380.8,0.00013055,1174.4,-3.9911e-05,-106.46,-6.412e-05,-288.35,0.051378
173,5.6067,5.5,0.1,3.3631e-05,336.08,3.6972e-05,456.28,3.9996e-07,181.48,-1.2898e-05,81.566,0.038815
174,5.6067,5,0.1,0.00011609,1160.1,0.00010567,959.6,-1.4499e-05,56.683,-6.8462e-05,-348.77,0.039759
175,5.6067,4.5,0.1,0.0001292,1291.1,0.00011715,1026,-2.2399e-05,-22.549,-7.4771e-05,-416.05,0.040794
176,5.6067,4,0.1,0.00025949,2593.1,0.00027232,2981.4,-5.8889e-05,492.79,-8.5188e-05,295.19,0.041762
177,5.44,4,0.1,0.00028529,2850.9,0.00029034,3038.2,-6.052e-05,401.96,-0.00011235,12.569,0.039188
178,5.44,4.5,0.1,0.00017965,1795.2,0.00015259,1294.3,-1.0675e-05,67.569,-0.00012165,-766.24,0.038028
179,5.44,5,0.1,0.00010098,1009.1,9.087e-05,841.31,-6.8624e-06,106.98,-6.2268e-05,-309.31,0.036777
180,5.44,5.5,0.1,2.7276e-05,272.57,3.0584e-05,396.11,2.6326e-06,186.09,-1.0411e-05,88.088,0.035606
181,5.6067,0.5,0.1,3.068e-05,306.59,3.3642e-05,419.86,1.5497e-06,178.73,-1.228e-05,74.816,0.038719
182,5.6067,1,0.1,9.342e-05,933.56,8.5986e-05,805.72,-9.6425e-06,87.204,-5.4451e-05,-249.47,0.039652
183,5.6067,1.5,0.1,0.00013828,1381.8,0.00011975,991.58,-1.8077e-05,-43.994,-8.908e-05,-577.48,0.040687
184,5.6067,2,0.1,0.00024044,2402.7,0.00025245,2772.1,-5.0763e-05,493.86,-8.1666e-05,261.66,0.041689
185,5.44,2,0.1,0.00036171,3614.6,0.00037525,4023.9,-8.9208e-05,534.13,-0.00012089,296.11,0.039079
186,5.44,1.5,0.1,0.00014075,1406.6,0.00014215,1470.5,-2.9563e-05,180.29,-5.7411e-05,-28.956,0.037902
187,5.44,1,0.1,0.00015312,1530.1,0.00014588,1370.8,-3.1879e-05,35.221,-7.6322e-05,-298.7,0.036701
188,5.44,0.5,0.1,6.2685e-05,626.41,6.714e-05,763.9,-1.0797e-05,178.31,-2.0767e-05,103.4,0.035498
189,5.6067,6,0.1,3.4902e-05,348.78,3.6877e-05,423.81,-2.4105e-06,128.62,-1.4345e-05,38.949,0.037943
190,6.7563,6,0.1,5.3492e-05,534.55,5.3959e-05,548.3,-1.6902e-05,15.874,-1.7466e-05,11.64,0.060292
191,7.9058,6,0.1,6.7463e-05,674.17,6.6651e-05,651.49,-2.0779e-05,-5.4245,-2.5207e-05,-38.691,0.084009
192,9.0554,6,0.1,6.5743e-05,656.98,6.4595e-05,625.7,-1.9544e-05,-6.4928,-2.5805e-05,-53.534,0.10947
193,10.205,6,0.1,5.6254e-05,562.15,5.6287e-05,563.19,-1.8056e-05,4.6024,-1.8997e-05,-2.4677,0.13663
194,11.355,6,0.1,4.8049e-05,480.16,4.7979e-05,478.21,-1.5335e-05,2.4965,-1.6502e-05,-6.2783,0.16526
195,12.504,6,0.1,3.9585e-05,395.58,3.9443e-05,391.56,-1.2579e-05,0.68471,-1.3811e-05,-8.5712,0.19515
196,13.654,6,0.1,3.2261e-05,322.39,3.2104e-05,317.95,-1.0198e-05,0.11312,-1.1384e-05,-8.7982,0.22607
197,14.803,6,0.1,2.5634e-05,256.17,2.5463e-05,251.37,-8.0063e-06,-0.10772,-9.2225e-06,-9.2458,0.25782
198,15.953,6,0.1,1.9777e-05,197.63,1.9585e-05,192.34,-6.0479e-06,-0.25206,-7.3405e-06,-9.9641,0.29022
199,17.103,6,0.1,1.4814e-05,148.04,1.46e-05,142.31,-4.3571e-06,-0.12917,-5.7716e-06,-10.757,0.32313
200,18.252,6,0.1,1.0558e-05,105.5,1.033e-05,99.581,-2.9575e-06,-0.25484,-4.3604e-06,-10.796,0.35639
201,19.402,6,0.1,7.0413e-06,70.364,6.8021e-06,64.4,-1.8156e-06,-0.34997,-3.1639e-06,-10.481,0.38992
202,20.551,6,0.1,4.2853e-06,42.823,4.0246e-06,36.789,-9.1546e-07,-0.32916,-2.2111e-06,-10.064,0.4236
203,21.701,6,0.1,2.3072e-06,23.056,2.0073e-06,16.912,-2.7547e-07,-0.23974,-1.4809e-06,-9.2967,0.45737
204,22.85,6,0.1,1.0454e-06,10.447,6.9946e-07,4.4015,7.6829e-08,-0.27666,-8.9338e-07,-7.5665,0.49117
205,24,6,0.1,4.6112e-07,4.608,1.6517e-07,-0.25208,1.0575e-07,-0.69857,-4.7566e-07,-5.0671,0.52499
206,24,4.8,0.1,8.3055e-07,8.2998,4.2761e-07,2.2613,2.1115e-07,0.63493,-7.6923e-07,-6.7312,0.52505
207,24,3.6,0.1,1.2392e-06,12.383,6.0503e-07,3.1785,3.5952e-07,1.3338,-1.1521e-06,-10.024,0.52509
208,24,2.4,0.1,1.24e-06,12.391,6.0495e-07,3.1753,3.6014e-07,1.3358,-1.153e-06,-10.033,0.52509
209,24,1.2,0.1,8.2877e-07,8.282,4.26e-07,2.2475,2.1115e-07,0.63315,-7.6787e-07,-6.7228,0.52507
210,1.049e-14,1.2,0.1,9.9019e-05,989.51,0.00013195,1957.3,8.8871e-07,972.63,-3.7842e-07,963.11,0
211,2.0981e-14,2.4,0.1,0.00010358,1035.1,0.00013809,2049.6,6.953e-07,1017.2,-2.1387e-08,1011.8,0
212,3.1471e-14,3.6,0.1,0.0001048,1047.3,0.00013967,2072.1,6.4974e-07,1027.5,-8.6997e-08,1022,0
213,4.1961e-14,4.8,0.1,0.00010012,1000.6,0.00013354,1982.9,1.2419e-06,988.84,-4.6979e-07,975.98,0
214,24,0,0.1,4.6251e-07,4.6219,1.6421e-07,-0.25535,1.0848e-07,-0.67407,-4.769e-07,-5.0724,0.52502
215,22.85,0,0.1,1.0454e-06,10.447,6.9848e-07,4.403,7.9514e-08,-0.24767,-8.9388e-07,-7.5614,0.4912
216,21.701,0,0.1,2.3058e-06,23.043,2.0107e-06,16.972,-2.8214e-07,-0.25514,-1.4729e-06,-9.2018,0.45739
217,20.551,0,0.1,4.2945e-06,42.915,4.033e-06,36.871,-9.1503e-07,-0.30661,-2.2173e-06,-10.091,0.42363
218,19.402,0,0.1,7.0209e-06,70.161,6.7866e-06,64.326,-1.8102e-06,-0.26703,-3.1479e-06,-10.318,0.38994
219,18.252,0,0.1,1.0526e-05,105.18,1.0305e-05,99.415,-2.9647e-06,-0.28617,-4.3246e-06,-10.504,0.35642
220,17.103,0,0.1,1.4784e-05,147.74,1.4577e-05,142.17,-4.377e-06,-0.24504,-5.7241e-06,-10.366,0.32316
221,15.953,0,0.1,1.9816e-05,198.02,1.9632e-05,192.93,-6.0683e-06,-0.16488,-7.3336e-06,-9.6718,0.29025
222,14.803,0,0.1,2.5634e-05,256.16,2.5465e-05,251.44,-7.9977e-06,0.015031,-9.225e-06,-9.2062,0.25785
223,13.654,0,0.1,3.2269e-05,322.47,3.2093e-05,317.51,-1.0177e-05,-0.090876,-1.1444e-05,-9.6071,0.2261
224,12.504,0,0.1,3.9579e-05,395.52,3.9402e-05,390.55,-1.2473e-05,0.78253,-1.3971e-05,-10.473,0.19518
225,11.355,0,0.1,4.7985e-05,479.52,4.7882e-05,476.65,-1.5249e-05,2.3105,-1.6606e-05,-7.8882,0.16529
226,10.205,0,0.1,5.5832e-05,557.93,5.5935e-05,561.15,-1.7532e-05,9.1459,-1.9085e-05,-2.5195,0.13665
227,9.0554,0,0.1,6.6282e-05,662.37,6.4848e-05,622.16,-2.0384e-05,-18.246,-2.5965e-05,-60.181,0.10948
228,7.9058,0,0.1,6.603e-05,659.85,6.5522e-05,645.45,-2.077e-05,-2.9142,-2.3751e-05,-25.311,0.084014
229,6.7563,0,0.1,5.2587e-05,525.51,5.3344e-05,548.66,-1.4818e-05,36.521,-1.8251e-05,10.729,0.060262
230,5.6067,0,0.1,3.5944e-05,359.19,3.7435e-05,422.47,-2.5613e-06,121.95,-1.5511e-05,24.65,0.037844
231,5.44,0,0.1,3.9731e-05,397.04,4.3779e-05,532.99,-1.5312e-06,192.55,-1.4267e-05,96.852,0.034357
232,4.352,3.8822e-31,0.1,7.4616e-05,745.64,7.3439e-05,713.77,-2.2108e-05,-4.1313,-2.912e-05,-56.821,0.022538
233,3.264,2.9116e-31,0.1,0.00011881,1187.3,0.00011802,1164,-3.9732e-05,-21.243,-4.0264e-05,-25.237,0.012452
234,2.176,1.9411e-31,0.1,0.00013958,1394.8,0.00014188,1463.7,-4.0489e-05,93.461,-4.6859e-05,45.601,0.0051286
235,1.088,9.7055e-32,0.1,0.00014191,1418.1,0.00013814,1337.8,-3.2337e-05,56.95,-6.4676e-05,-186.03,0.0010907
236,0,0,0.1,7.5453e-05,754.01,9.6223e-05,1368.2,2.4576e-07,647.04,-7.9963e-06,585.11,0
237,3.937e-14,6,0.1,7.3997e-05,739.46,9.6438e-05,1401.1,1.2228e-06,685.71,-4.8924e-06,639.77,0
238,1.088,6,0.1,0.00014085,1407.6,0.00013654,1302.2,-3.5781e-05,7.4838,-6.2866e-05,-196.02,0.0011114
239,2.176,6,0.1,0.00014495,1448.5,0.00014558,1467.6,-4.4685e-05,38.008,-4.9639e-05,0.78578,0.0051468
240,3.264,6,0.1,0.00011499,1149.1,0.00011494,1148.1,-3.6209e-05,12.414,-3.9722e-05,-13.981,0.012509
241,4.352,6,0.1,7.4018e-05,739.67,7.6229e-05,805.93,-1.9727e-05,84.954,-2.4528e-05,48.884,0.022618
242,5.44,6,0.1,4.5947e-05,459.16,4.8226e-05,548.27,-3.5531e-06,159.22,-1.918e-05,41.807,0.03449
243,4.352,6,0,7.4018e-05,739.67,2.4528e-05,-48.884,1.9727e-05,-84.954,-7.6229e-05,-805.93,0.022618
244,3.264,6,0,0.00011499,1149.1,3.9722e-05,13.981,3.6209e-05,-12.414,-0.00011494,-1148.1,0.012509
245,2.176,6,0,0.00014495,1448.5,4.9639e-05,-0.78578,4.4685e-05,-38.008,-0.00014558,-1467.6,0.0051468
246,1.088,6,0,0.00014085,1407.6,6.2866e-05,196.02,3.5781e-05,-7.4838,-0.00013654,-1302.2,0.0011114
247,5.44,6,0,4.5947e-05,459.16,1.918e-05,-41.807,3.5531e-06,-159.22,-4.8226e-05,-548.27,0.03449
248,3.937e-14,6,0,7.3997e-05,739.46,4.8924e-06,-639.77,-1.2228e-06,-685.71,-9.6438e-05,-1401.1,0
249,1.088,9.7055e-32,0,0.00014191,1418.1,6.4676e-05,186.03,3.2337e-05,-56.95,-0.00013814,-1337.8,0.0010907
250,2.176,1.9411e-31,0,0.00013958,1394.8,4.6859e-05,-45.601,4.0489e-05,-93.461,-0.00014188,-1463.7,0.0051286
251,3.264,2.9116e-31,0,0.00011881,1187.3,4.0264e-05,25.237,3.9732e-05,21.243,-0.00011802,-1164,0.012452
252,4.352,3.8822e-31,0,7.4616e-05,745.64,2.912e-05,56.821,2.2108e-05,4.1313,-7.3439e-05,-713.77,0.022538
253,5.44,0,0,3.9731e-05,397.04,1.4267e-05,-96.852,1.5312e-06,-192.55,-4.3779e-05,-532.99,0.034357
254,0,0,0,7.5453e-05,754.01,7.9963e-06,-585.11,-2.4576e-07,-647.04,-9.6223e-05,-1368.2,0
255,6.7563,0,0,5.2587e-05,525.51,1.8251e-05,-10.729,1.4818e-05,-36.521,-5.3344e-05,-548.66,0.060262
256,7.9058,0,0,6.603e-05,659.85,2.3751e-05,25.311,2.077e-05,2.9142,-6.5522e-05,-645.45,0.084014
257,9.0554,0,0,6.6282e-05,662.37,2.5965e-05,60.181,2.0384e-05,18.246,-6.4848e-05,-622.16,0.10948
258,10.205,0,0,5.5832e-05,557.93,1.9085e-05,2.5195,1.7532e-05,-9.1459,-5.5935e-05,-561.15,0.13665
259,11.355,0,0,4.7985e-05,479.52,1.6606e-05,7.8882,1.5249e-05,-2.3105,-4.7882e-05,-476.65,0.16529
260,12.504,0,0,3.9579e-05,395.52,1.3971e-05,10.473,1.2473e-05,-0.78253,-3.9402e-05,-390.55,0.19518
261,13.654,0,0,3.2269e-05,322.47,1.1444e-05,9.6071,1.0177e-05,0.090876,-3.2093e-05,-317.51,0.2261
262,14.803,0,0,2.5634e-05,256.16,9.225e-06,9.2062,7.9977e-06,-0.015031,-2.5465e-05,-251.44,0.25785
263,15.953,0,0,1.9816e-05,198.02,7.3336e-06,9.6718,6.0683e-06,0.16488,-1.9632e-05,-192.93,0.29025
264,17.103,0,0,1.4784e-05,147.74,5.7241e-06,10.366,4.377e-06,0.24504,-1.4577e-05,-142.17,0.32316
265,18.252,0,0,1.0526e-05,105.18,4.3246e-06,10.504,2.9647e-06,0.28617,-1.0305e-05,-99.415,0.35642
266,19.402,0,0,7.0209e-06,70.161,3.1479e-06,10.318,1.8102e-06,0.26703,-6.7866e-06,-64.326,0.38994
267,20.551,0,0,4.2945e-06,42.915,2.2173e-06,10.091,9.1503e-07,0.30661,-4.033e-06,-36.871,0.42363
268,21.701,0,0,2.3058e-06,23.043,1.4729e-06,9.2018,2.8214e-07,0.25514,-2.0107e-06,-16.972,0.45739
269,22.85,0,0,1.0454e-06,10.447,8.9388e-07,7.5614,-7.9515e-08,0.24767,-6.9848e-07,-4.403,0.4912
270,5.6067,0,0,3.5944e-05,359.19,1.5511e-05,-24.65,2.5613e-06,-121.95,-3.7435e-05,-422.47,0.037844
271,24,0,0,4.6251e-07,4.6219,4.769e-07,5.0724,-1.0848e-07,0.67408,-1.6421e-07,0.25535,0.52502
272,4.1961e-14,4.8,0,0.00010012,1000.6,4.6979e-07,-975.98,-1.2419e-06,-988.84,-0.00013354,-1982.9,0
273,3.1471e-14,3.6,0,0.0001048,1047.3,8.6997e-08,-1022,-6.4974e-07,-1027.5,-0.00013967,-2072.1,0
274,2.0981e-14,2.4,0,0.00010358,1035.1,2.1387e-08,-1011.8,-6.953e-07,-1017.2,-0.00013809,-2049.6,0
275,1.049e-14,1.2,0,9.9019e-05,989.51,3.7842e-07,-963.11,-8.8871e-07,-972.63,-0.00013195,-1957.3,0
276,24,1.2,0,8.2877e-07,8.282,7.6787e-07,6.7228,-2.1115e-07,-0.63315,-4.26e-07,-2.2475,0.52507
277,24,2.4,0,1.24e-06,12.391,1.153e-06,10.033,-3.6014e-07,-1.3358,-6.0495e-07,-3.1753,0.52509
278,24,3.6,0,1.2392e-06,12.383,1.1521e-06,10.024,-3.5952e-07,-1.3338,-6.0503e-07,-3.1785,0.52509
279,24,4.8,0,8.3055e-07,8.2998,7.6923e-07,6.7312,-2.1115e-07,-0.63493,-4.2761e-07,-2.2613,0.52505
280,24,6,0,4.6112e-07,4.608,4.7566e-07,5.0671,-1.0575e-07,0.69858,-1.6517e-07,0.25208,0.52499
281,22.85,6,0,1.0454e-06,10.447,8.9338e-07,7.5665,-7.6829e-08,0.27666,-6.9946e-07,-4.4015,0.49117
282,21.701,6,0,2.3072e-06,23.056,1.4809e-06,9.2968,2.7547e-07,0.23974,-2.0073e-06,-16.912,0.45737
283,20.551,6,0,4.2853e-06,42.823,2.2111e-06,10.064,9.1546e-07,0.32916,-4.0246e-06,-36.789,0.4236
284,19.402,6,0,7.0413e-06,70.364,3.1639e-06,10.481,1.8156e-06,0.34997,-6.8021e-06,-64.4,0.38992
285,18.252,6,0,1.0558e-05,105.5,4.3604e-06,10.796,2.9575e-06,0.25484,-1.033e-05,-99.581,0.35639
286,17.103,6,0,1.4814e-05,148.04,5.7716e-06,10.757,4.3571e-06,0.12917,-1.46e-05,-142.31,0.32313
287,15.953,6,0,1.9777e-05,197.63,7.3405e-06,9.9641,6.0479e-06,0.25206,-1.9585e-05,-192.34,0.29022
288,14.803,6,0,2.5634e-05,256.17,9.2225e-06,9.2458,8.0063e-06,0.10772,-2.5463e-05,-251.37,0.25782
289,13.654,6,0,3.2261e-05,322.39,1.1384e-05,8.7983,1.0198e-05,-0.11312,-3.2104e-05,-317.95,0.22607
290,12.504,6,0,3.9585e-05,395.58,1.3811e-05,8.5712,1.2579e-05,-0.68471,-3.9443e-05,-391.56,0.19515
291,11.355,6,0,4.8049e-05,480.16,1.6502e-05,6.2783,1.5335e-05,-2.4965,-4.7979e-05,-478.21,0.16526
292,10.205,6,0,5.6254e-05,562.15,1.8997e-05,2.4677,1.8056e-05,-4.6024,-5.6287e-05,-563.19,0.13663
293,9.0554,6,0,6.5743e-05,656.98,2.5805e-05,53.534,1.9544e-05,6.4928,-6.4595e-05,-625.7,0.10947
294,7.9058,6,0,6.7463e-05,674.17,2.5207e-05,38.691,2.0779e-05,5.4245,-6.6651e-05,-651.49,0.084009
295,6.7563,6,0,5.3492e-05,534.55,1.7466e-05,-11.64,1.6902e-05,-15.874,-5.3959e-05,-548.3,0.060292
296,5.6067,6,0,3.4902e-05,348.78,1.4345e-05,-38.949,2.4105e-06,-128.62,-3.6877e-05,-423.81,0.037943
297,5.44,1.5,0,0.00014075,1406.6,5.7411e-05,28.956,2.9563e-05,-180.29,-0.00014215,-1470.5,0.037902
298,5.44,1,0,0.00015312,1530.1,7.6322e-05,298.7,3.1879e-05,-35.221,-0.00014588,-1370.8,0.036701
299,5.44,0.5,0,6.2685e-05,626.41,2.0767e-05,-103.4,1.0797e-05,-178.31,-6.714e-05,-763.9,0.035498
300,5.44,2,0,0.00036171,3614.6,0.00012089,-296.11,8.9208e-05,-534.13,-0.00037525,-4023.9,0.039079
301,5.6067,0.5,0,3.068e-05,306.59,1.228e-05,-74.816,-1.5497e-06,-178.73,-3.3642e-05,-419.86,0.038719
302,5.6067,1,0,9.342e-05,933.56,5.4451e-05,249.47,9.6425e-06,-87.204,-8.5986e-05,-805.72,0.039652
303,5.6067,1.5,0,0.00013828,1381.8,8.908e-05,577.48,1.8077e-05,43.994,-0.00011975,-991.58,0.040687
304,5.6067,2,0,0.00024044,2402.7,8.1666e-05,-261.66,5.0763e-05,-493.86,-0.00025245,-2772.1,0.041689
305,5.44,4.5,0,0.00017965,1795.2,0.00012165,766.24,1.0675e-05,-67.569,-0.00015259,-1294.3,0.038028
306,5.44,5,0,0.00010098,1009.1,6.2268e-05,309.31,6.8624e-06,-106.98,-9.087e-05,-841.31,0.036777
307,5.44,5.5,0,2.7276e-05,272.57,1.0411e-05,-88.088,-2.6326e-06,-186.09,-3.0584e-05,-396.11,0.035606
308,5.44,4,0,0.00028529,2850.9,0.00011235,-12.569,6.052e-05,-401.96,-0.00029034,-3038.2,0.039188
309,5.6067,5.5,0,3.3631e-05,336.08,1.2898e-05,-81.566,-3.9996e-07,-181.48,-3.6972e-05,-456.28,0.038815
310,5.6067,5,0,0.00011609,1160.1,6.8462e-05,348.77,1.4499e-05,-56.683,-0.00010567,-959.6,0.039759
311,5.6067,4.5,0,0.0001292,1291.1,7.4771e-05,416.05,2.2399e-05,22.549,-0.00011715,-1026,0.040794
312,5.6067,4,0,0.00025949,2593.1,8.5188e-05,-295.19,5.8889e-05,-492.79,-0.00027232,-2981.4,0.041762
313,6.7269,3.3627,0,0.00011752,1174.4,4.2959e-05,73.47,3.8423e-05,39.387,-0.00011557,-1117.6,0.062069
314,5.6529,3.2672,0,0.00016132,1612.1,7.7919e-05,375.09,4.4584e-05,124.62,-0.00015135,-1347.5,0.043357
315,6.1407,2.8977,0,0.00013328,1331.9,6.4678e-05,313.82,3.6644e-05,103.19,-0.00012493,-1110.8,0.051504
316,6.137,3.3334,0.05,2.737e-06,27.351,2.1017e-06,15.791,-4.458e-22,-3.3496e-15,-2.1017e-06,-15.791,0.05137
317,5.8719,3.6667,0,0.00019329,1931.5,7.0003e-05,-38.367,4.9375e-05,-193.36,-0.00019676,-2042.7,0.046626
318,7.7647,1.473,0,7.7071e-05,770.18,2.8081e-05,-25.91,1.8369e-05,-98.882,-7.8934e-05,-829.98,0.082393
319,6.8414,1.4881,0,8.9818e-05,897.56,3.6401e-05,34.119,2.0846e-05,-82.751,-9.0072e-05,-916.15,0.063614
320,7.2808,2.0778,0,8.983e-05,897.68,3.5519e-05,-11.16,1.8074e-05,-142.23,-9.1718e-05,-967.17,0.072702
321,7.1119,1.7472,0.05,6.1659e-06,61.616,4.7346e-06,35.574,9.9781e-13,2.0978e-07,-4.7346e-06,-35.574,0.069136
322,6.3593,1.8736,0,0.00015872,1586.1,4.8078e-05,-219.87,3.9445e-05,-284.74,-0.00016721,-1837.4,0.054756
323,4.0756,2.3413,0,0.00011463,1145.5,4.2816e-05,6.1634,2.9695e-05,-92.424,-0.00011578,-1185.4,0.022526
324,3.5052,3.0564,0,0.00012122,1211.4,4.9019e-05,-42.764,1.9526e-05,-264.36,-0.00012491,-1349.6,0.01688
325,4.1818,3.3881,0,0.0001205,1204.2,4.4632e-05,-21.643,2.9208e-05,-137.53,-0.00012279,-1279.6,0.023732
326,4.7295,3.0191,0,0.00015208,1519.7,5.9661e-05,142.65,4.7048e-05,47.875,-0.00014862,-1422.3,0.030254
327,4.29,2.8373,0.05,6.1927e-06,61.885,4.7552e-06,35.729,-1.1644e-14,1.1328e-05,-4.7552e-06,-35.729,0.02498
328,4.865,2.4186,0,0.00023917,2390.1,7.4216e-05,-236.54,6.5186e-05,-304.39,-0.0002483,-2659.8,0.031775
329,7.9639,3.4541,0,8.289e-05,828.32,3.0861e-05,-20.934,1.9215e-05,-108.43,-8.4743e-05,-889.53,0.087009
330,7.2235,3.7697,0,9.3075e-05,930.11,3.4887e-05,-37.766,1.9762e-05,-151.4,-9.5771e-05,-1019.5,0.071615
331,7.3833,2.9002,0,9.4927e-05,948.61,3.7178e-05,-7.8158,2.0165e-05,-135.64,-9.6719e-05,-1013.9,0.074964
332,7.3168,3.392,0.05,3.6e-06,35.975,2.7644e-06,20.77,-4.464e-13,-1.3025e-14,-2.7644e-06,-20.77,0.073588
333,3.8288,0.78955,0,0.00010054,1004.7,3.6873e-05,53.998,3.1831e-05,16.118,-9.929e-05,-969.08,0.018664
334,4.437,0.89282,0,8.0421e-05,803.66,3.4787e-05,89.493,2.0316e-05,-19.235,-7.8672e-05,-762.99,0.025015
335,4.3357,0.65575,0.05,6.6291e-06,66.246,5.0903e-06,38.247,-1.0797e-21,-8.1127e-15,-5.0903e-06,-38.247,0.023555
336,4.3438,0.32787,0,7.7401e-05,773.48,3.0985e-05,57.903,2.1432e-05,-13.874,-7.6402e-05,-748.96,0.02308
337,4.8878,0.57787,0,6.738e-05,673.33,2.1798e-05,-59.855,1.7448e-05,-92.539,-6.9913e-05,-748.94,0.029403
338,7.0195,0.59196,0,6.3544e-05,635.01,2.204e-05,16.897,2.0704e-05,6.8589,-6.3134e-05,-623.07,0.066298
339,6.4085,0.68883,0,6.1278e-05,612.35,2.9937e-05,126.59,1.4688e-05,12.012,-5.811e-05,-534.96,0.054358
340,6.5285,0.48093,0.05,5.0831e-06,50.796,3.9032e-06,29.327,-1.7717e-13,-6.2208e-15,-3.9032e-06,-29.327,0.056401
341,6.6424,0.24046,0,5.8215e-05,581.75,2.3367e-05,46.823,1.6321e-05,-6.1129,-5.7342e-05,-559.59,0.058331
342,6.0676,0.49046,0,4.5932e-05,459.01,1.4989e-05,-25.736,1.3075e-05,-40.12,-4.7036e-05,-491.77,0.0475
343,4.1861,4.9103,0,0.00011074,1106.7,4.5293e-05,106.44,3.1181e-05,0.40398,-0.00010854,-1049.4,0.022631
344,4.7217,4.8412,0,9.0621e-05,905.59,4.33e-05,179.97,2.2893e-05,26.638,-8.6127e-05,-792.5,0.028615
345,4.3351,4.2961,0,0.00011952,1194.4,5.0053e-05,106.5,3.0689e-05,-38.998,-0.00011771,-1154,0.024902
346,4.5968,4.6533,0.05,1.8302e-05,182.89,1.4054e-05,105.59,-2.981e-21,5.346e-06,-1.4054e-05,-105.59,0.02742
347,5.0184,4.5767,0,0.00013083,1307.4,7.1139e-05,356.06,2.5516e-05,13.269,-0.00012113,-1088.5,0.032563
348,6.5236,4.89,0,7.6273e-05,762.2,3.2335e-05,84.746,2.0485e-05,-4.2909,-7.4513e-05,-718.06,0.057127
349,7.1457,4.989,0,8.023e-05,801.75,3.1316e-05,47.966,2.2515e-05,-18.157,-7.9518e-05,-784.8,0.069292
350,6.9272,4.432,0,8.9764e-05,897.02,3.6842e-05,33.162,1.9869e-05,-94.369,-9.0122e-05,-920.8,0.065377
351,6.7241,4.7166,0.05,1.3438e-05,134.29,1.0319e-05,77.534,1.3038e-13,9.7773e-07,-1.0319e-05,-77.534,0.061152
352,6.1654,4.6083,0,0.00010029,1002.2,4.7048e-05,184.27,2.5536e-05,22.633,-9.579e-05,-888.96,0.050691
353,6.4159,5.2616,0,6.3053e-05,630.09,2.8465e-05,94.62,1.6081e-05,1.5684,-6.0899e-05,-576.82,0.054612
354,6.3231,5.0634,0.05,7.4245e-07,7.4194,5.7011e-07,4.2836,-2.3694e-13,4.7833e-07,-5.7011e-07,-4.2836,0.053067
355,5.9649,5.0317,0,8.1682e-05,816.26,4.2876e-05,177.5,1.444e-05,-36.158,-7.7151e-05,-724.34,0.046367
356,3.5916,1.3844,0,0.00011511,1150.3,4.1569e-05,59.634,3.7363e-05,28.03,-0.00011358,-1106.1,0.017074
357,3.21,2.0145,0,0.00011655,1164.7,4.4589e-05,-3.8802,2.7289e-05,-133.86,-0.00011835,-1228.1,0.014032
358,4.1997,1.4877,0,9.4441e-05,943.76,3.753e-05,80.455,2.7588e-05,5.7551,-9.2753e-05,-898.44,0.02326
359,3.8611,1.8454,0.05,7.5383e-06,75.331,5.7885e-06,43.492,2.5939e-13,5.4491e-06,-5.7885e-06,-43.492,0.020024
360,4.6505,1.6727,0,0.00012024,1201.6,4.7002e-05,28.382,2.9438e-05,-103.59,-0.00012097,-1233.7,0.028464
361,4.2167,5.2851,0,9.334e-05,932.76,3.5008e-05,59.52,2.9078e-05,14.97,-9.1993e-05,-894.71,0.022443
362,4.7522,5.216,0,7.7988e-05,779.34,4.1313e-05,195.4,1.5726e-05,3.1524,-7.281e-05,-662.07,0.028344
363,4.6578,5.4028,0.05,8.0971e-06,80.915,6.2176e-06,46.717,1.2488e-13,-9.9093e-15,-6.2176e-06,-46.717,0.026949
364,4.5049,5.7014,0,7.8445e-05,783.91,2.9318e-05,29.494,2.2691e-05,-20.299,-7.817e-05,-778.13,0.024774
365,5.0489,5.4514,0,5.4943e-05,549.05,1.8511e-05,-18.27,1.5795e-05,-38.682,-5.5883e-05,-577.24,0.031244
366,7.038,5.3605,0,6.5002e-05,649.57,2.4425e-05,35.142,1.9578e-05,-1.28,-6.435e-05,-631.88,0.066744
367,6.5086,5.4598,0.05,5.6384e-06,56.346,4.3296e-06,32.531,-9.1838e-22,-6.9003e-15,-4.3296e-06,-32.531,0.056138
368,6.6324,5.7299,0,5.7871e-05,578.31,2.266e-05,41.409,1.6761e-05,-2.9097,-5.7089e-05,-557.79,0.058215
369,6.0576,5.4799,0,4.6108e-05,460.76,1.4915e-05,-34.586,1.2538e-05,-52.447,-4.7562e-05,-504.01,0.047424
370,2.8077,1.014,0,0.00012438,1242.9,4.5292e-05,9.7583,3.4599e-05,-70.586,-0.00012522,-1271.4,0.010219
371,3.322,0.92335,0.05,2.7522e-06,27.503,2.1134e-06,15.879,-4.4827e-22,1.9726e-06,-2.1134e-06,-15.879,0.01421
372,3.293,0.46167,0,0.00011979,1197.1,4.189e-05,46.972,3.9836e-05,31.533,-0.00011844,-1157.7,0.013409
373,3.2608,4.8644,0,0.00011281,1127.3,4.1423e-05,-11.993,2.8784e-05,-106.96,-0.00011453,-1183.8,0.013926
374,3.7755,5.1673,0.05,5.5057e-06,55.019,4.2277e-06,31.765,-8.9676e-22,2.8083e-07,-4.2277e-06,-31.765,0.01821
375,3.5198,5.5837,0,0.00010972,1096.5,3.7281e-05,8.5643,3.5175e-05,-7.2585,-0.00010969,-1095.7,0.015336
376,2.0351,4.6249,0,0.00013055,1304.6,6.1488e-05,107.1,1.9221e-05,-210.47,-0.00012937,-1327,0.0055021
377,2.7331,3.9185,0,0.00012136,1212.7,4.8662e-05,-47.391,1.9896e-05,-263.53,-0.00012519,-1353.7,0.010243
378,3.4097,4.2502,0,0.00012163,1215.5,4.5434e-05,-17.565,2.919e-05,-139.62,-0.00012384,-1289.4,0.015662
379,2.746,4.5615,0.05,3.0039e-06,30.018,2.3066e-06,17.331,9.0833e-14,7.6196e-07,-2.3066e-06,-17.331,0.010061
380,2.461,5.2808,0,0.00013258,1324.9,4.5524e-05,-38.747,3.7121e-05,-101.88,-0.00013486,-1394.1,0.00761
381,1.3347,4.0969,0,0.0001437,1436,8.0841e-05,272.03,8.9656e-06,-268.01,-0.00013579,-1355.7,0.0024515
382,1.3242,4.6882,0.05,2.8151e-06,28.132,2.1617e-06,16.242,-8.206e-14,-3.4451e-15,-2.1617e-06,-16.242,0.0023099
383,1.2061,5.3441,0,0.00013973,1396.4,6.9895e-05,226.02,2.3758e-05,-120.63,-0.00013467,-1311,0.001745
384,0.66212,4.7441,0,0.00011898,1189,3.8484e-05,-361.57,5.8253e-06,-606.96,-0.00013354,-1654.1,0.00058406
385,1.7246,1.1439,0,0.00013424,1341.4,6.2325e-05,108.04,2.1395e-05,-199.5,-0.00013312,-1360.5,0.0038538
386,1.2066,1.7637,0,0.00014465,1445.5,8.146e-05,275.63,9.0343e-06,-268.55,-0.00013663,-1363,0.0019827
387,1.1557,1.183,0.05,2.9405e-06,29.385,2.258e-06,16.965,-4.7895e-22,7.7675e-06,-2.258e-06,-16.965,0.0017234
388,1.1219,0.59149,0,0.00014085,1407.5,7.1104e-05,225.46,2.2341e-05,-140.93,-0.00013579,-1329.1,0.0014649
389,0.57785,1.1915,0,0.00011864,1185.6,3.8864e-05,-349.81,5.9281e-06,-597.27,-0.0001328,-1639.6,0.00043886
390,2.4261,1.6442,0,0.00012641,1263.2,4.9986e-05,-41.178,2.2901e-05,-244.69,-0.00013003,-1393.8,0.0079497
391,2.2935,1.1047,0.05,1.5168e-06,15.157,1.1647e-06,8.7511,-1.1193e-15,-1.8562e-15,-1.1647e-06,-8.7511,0.0068321
392,2.2347,0.55237,0,0.00013369,1336,4.6811e-05,-48.54,3.4941e-05,-137.72,-0.00013664,-1426.9,0.0060766
393,7.9639,0.95085,0,6.6442e-05,663.97,2.2916e-05,-15.131,1.8826e-05,-45.861,-6.7427e-05,-693.93,0.08624
394,7.0406,0.96597,0,7.8799e-05,787.45,3.1213e-05,44.727,2.1059e-05,-31.567,-7.8298e-05,-778.09,0.067117
395,7.5105,0.703,0.05,2.0413e-06,20.399,1.5675e-06,11.778,5.6887e-15,1.1891e-07,-1.5675e-06,-11.778,0.076449
396,7.7082,0.3515,0,6.5626e-05,655.81,2.2697e-05,0.077586,1.9886e-05,-21.045,-6.5957e-05,-666.03,0.080233
397,9.1625,1.1941,0,6.2974e-05,629.3,2.1316e-05,-7.2716,1.9201e-05,-23.164,-6.3477e-05,-644.37,0.113
398,8.5023,1.7766,0,6.7497e-05,674.51,2.2811e-05,-20.383,1.9473e-05,-45.464,-6.8583e-05,-707.08,0.098455
399,8.4174,1.1987,0.05,8.7751e-07,8.7691,6.7382e-07,5.0628,-3.6399e-14,5.3274e-06,-6.7382e-07,-5.0628,0.096251
400,8.7364,0.59935,0,6.683e-05,667.84,2.3359e-05,14.63,2.1176e-05,-1.769,-6.6596e-05,-661.26,0.10287
401,10.548,1.1951,0,5.3209e-05,531.72,1.8284e-05,1.9305,1.65e-05,-11.473,-5.3358e-05,-536.37,0.14597
402,9.8638,1.7648,0,5.8194e-05,581.54,2.0637e-05,5.7032,1.7271e-05,-19.592,-5.8389e-05,-588.07,0.12971
403,9.9077,1.1895,0.05,4.4735e-07,4.4704,3.4351e-07,2.581,2.5719e-14,1.4812e-06,-3.4351e-07,-2.581,0.13045
404,10.056,0.59474,0,5.7088e-05,570.49,1.9943e-05,5.3941,1.745e-05,-13.333,-5.72e-05,-574.23,0.1336
405,11.791,1.2038,0,4.3972e-05,439.42,1.4459e-05,-2.0353,1.4412e-05,-2.3935,-4.4047e-05,-441.63,0.17732
406,11.14,1.7923,0,4.8205e-05,481.72,1.6075e-05,-3.2637,1.5325e-05,-8.8974,-4.8409e-05,-487.77,0.16099
407,11.188,1.2007,0.05,5.2418e-07,5.2382,4.0251e-07,3.0243,3.1611e-14,1.1273e-06,-4.0251e-07,-3.0243,0.16191
408,11.271,0.60036,0,4.801e-05,479.77,1.6105e-05,1.1211,1.5503e-05,-3.3986,-4.8047e-05,-480.89,0.16365
409,12.993,1.2018,0,3.6088e-05,360.63,1.2132e-05,2.3545,1.1748e-05,-0.52892,-3.6056e-05,-359.71,0.20889
410,12.374,1.7956,0,3.987e-05,398.43,1.3213e-05,0.08999,1.3071e-05,-0.97917,-3.9885e-05,-398.87,0.19272
411,12.395,1.2069,0.05,6.0287e-07,6.0245,4.6293e-07,3.4782,1.1725e-13,1.1312e-06,-4.6293e-07,-3.4782,0.19303
412,12.449,0.60344,0,3.9682e-05,396.54,1.3585e-05,5.5859,1.2777e-05,-0.4861,-3.9592e-05,-393.96,0.19415
413,14.181,1.1917,0,2.8978e-05,289.58,9.9864e-06,4.6256,9.2675e-06,-0.77595,-2.8909e-05,-287.62,0.24112
414,13.579,1.7857,0,3.2278e-05,322.56,1.0981e-05,3.2347,1.0389e-05,-1.2139,-3.2241e-05,-321.52,0.22488
415,13.591,1.1966,0.05,5.1591e-07,5.1555,3.9615e-07,2.9765,1.1299e-13,1.459e-06,-3.9615e-07,-2.9765,0.225
416,13.622,0.59831,0,3.2259e-05,322.36,1.1193e-05,6.3495,1.0297e-05,-0.38014,-3.2152e-05,-319.33,0.22559
417,15.353,1.1861,0,2.2722e-05,227.06,8.0618e-06,6.3717,7.1228e-06,-0.68337,-2.2617e-05,-224.14,0.27372
418,14.763,1.7805,0,2.5615e-05,255.98,8.9935e-06,5.9381,8.078e-06,-0.94006,-2.5523e-05,-253.41,0.25739
419,14.77,1.1868,0.05,4.7078e-07,4.7045,3.615e-07,2.7162,1.0824e-13,1.5259e-06,-3.615e-07,-2.7162,0.25743
420,14.787,0.59341,0,2.5603e-05,255.85,9.0698e-06,7.2483,8.057e-06,-0.36167,-2.5477e-05,-252.33,0.25767
421,16.509,1.186,0,1.7295e-05,172.83,6.3602e-06,7.4599,5.2754e-06,-0.69095,-1.7166e-05,-169.3,0.30647
422,15.932,1.7791,0,1.9787e-05,197.74,7.1921e-06,7.4357,6.0807e-06,-0.91444,-1.9663e-05,-194.34,0.29018
423,15.935,1.1855,0.05,4.0741e-07,4.0713,3.1284e-07,2.3505,1.209e-13,1.8026e-06,-3.1284e-07,-2.3505,0.29015
424,15.944,0.59274,0,1.9778e-05,197.64,7.2138e-06,8.1303,6.0989e-06,-0.24645,-1.963e-05,-193.57,0.29023
425,17.66,1.1866,0,1.2663e-05,126.54,4.8803e-06,8.0885,3.7147e-06,-0.66917,-1.2514e-05,-122.61,0.33951
426,17.082,1.7801,0,1.4769e-05,147.59,5.6221e-06,8.4506,4.3639e-06,-1.0027,-1.462e-05,-143.64,0.32297
427,17.083,1.1865,0.05,3.5143e-07,3.5118,2.6985e-07,2.0276,1.2226e-13,1.8354e-06,-2.6985e-07,-2.0276,0.3229
428,17.093,0.59327,0,1.4751e-05,147.41,5.6174e-06,8.9134,4.3993e-06,-0.23834,-1.4582e-05,-142.86,0.32305
429,18.813,1.1906,0,8.7967e-06,87.906,3.6202e-06,8.3683,2.4274e-06,-0.59369,-8.63e-06,-83.675,0.37296
430,18.234,1.7816,0,1.0542e-05,105.34,4.2567e-06,8.9002,2.9496e-06,-0.92134,-1.0372e-05,-101.01,0.3562
431,18.236,1.1867,0.05,2.9169e-07,2.9149,2.2399e-07,1.6829,1.1369e-13,2.127e-06,-2.2399e-07,-1.6829,0.35619
432,18.244,0.59336,0,1.0498e-05,104.91,4.228e-06,9.1645,2.9866e-06,-0.16328,-1.0314e-05,-100.1,0.35632
433,19.965,1.1951,0,5.694e-06,56.901,2.5973e-06,8.4534,1.392e-06,-0.60314,-5.5061e-06,-52.433,0.40657
434,19.384,1.7925,0,7.0755e-06,70.707,3.1267e-06,9.1504,1.788e-06,-0.90766,-6.8814e-06,-66.047,0.38965
435,19.39,1.1944,0.05,2.3515e-07,2.3499,1.8057e-07,1.3567,1.4141e-13,2.4121e-06,-1.8057e-07,-1.3567,0.38978
436,19.396,0.59722,0,7.0018e-06,69.97,3.068e-06,9.1606,1.829e-06,-0.14924,-6.8019e-06,-64.998,0.38987
437,21.118,1.1945,0,3.3639e-06,33.616,1.8058e-06,8.3103,6.161e-07,-0.62836,-3.1428e-06,-28.871,0.44035
438,20.533,1.7976,0,4.3845e-06,43.815,2.2378e-06,9.2638,8.7969e-07,-0.94047,-4.1528e-06,-38.753,0.42325
439,20.539,1.1957,0.05,1.7746e-07,1.7734,1.3627e-07,1.0239,1.4478e-13,2.787e-06,-1.3627e-07,-1.0239,0.42339
440,20.545,0.59784,0,4.2789e-06,42.759,2.1501e-06,9.0333,9.2638e-07,-0.1615,-4.0531e-06,-37.575,0.42351
441,22.271,1.1947,0,1.809e-06,18.078,1.2356e-06,7.8903,1.0108e-07,-0.63431,-1.5278e-06,-12.873,0.47424
442,21.691,1.7928,0,2.4813e-06,24.795,1.5799e-06,9.1937,2.3347e-07,-0.92301,-2.1805e-06,-19.061,0.4572
443,21.696,1.1934,0.05,1.2092e-07,1.2084,9.2854e-08,0.69767,1.903e-13,2.9289e-06,-9.2854e-08,-0.69766,0.45733
444,21.698,0.5967,0,2.3135e-06,23.119,1.4373e-06,8.4472,2.8888e-07,-0.18163,-2.0487e-06,-17.746,0.45736
445,22.844,1.7953,0,1.3922e-06,13.912,1.1591e-06,8.9858,-1.643e-07,-0.95777,-9.5686e-07,-6.9128,0.4911
446,22.847,1.1959,0.05,7.933e-08,0.79275,6.0916e-08,0.4577,1.87e-13,3.1299e-06,-6.0916e-08,-0.45769,0.49116
447,22.849,0.59797,0,1.1078e-06,11.07,9.1928e-07,7.3557,-8.5805e-08,-0.19616,-7.7197e-07,-5.3518,0.49118
448,23.424,1.198,0,1.0225e-06,10.218,8.8112e-07,7.123,-1.5279e-07,-0.64533,-6.5941e-07,-4.4519,0.50811
449,1.3014,2.925,0,0.0001473,1471.9,8.503e-05,286.89,4.9334e-06,-314.92,-0.00013823,-1390.6,0.002383
450,2.0327,3.3906,0,0.000134,1339.1,6.8033e-05,117.67,9.9874e-06,-318.46,-0.00013198,-1385.1,0.0057694
451,1.3452,3.5056,0.05,1.6601e-06,16.589,1.2747e-06,9.5779,-1.6322e-13,9.6587e-08,-1.2747e-06,-9.5779,0.0025304
452,0.6726,3.5528,0,0.00012381,1237.3,4.2371e-05,-367.37,2.2525e-06,-668.8,-0.00013865,-1727.5,0.00063701
453,1.9082,2.264,0,0.00013614,1360.5,6.9113e-05,126.36,1.091e-05,-310.96,-0.0001339,-1399,0.0050527
454,1.2575,2.3444,0.05,1.5998e-06,15.987,1.2284e-06,9.2301,1.4381e-13,2.7245e-07,-1.2284e-06,-9.2301,0.0021989
455,0.62877,2.3722,0,0.00012381,1237.2,4.2656e-05,-363.08,2.1033e-06,-667.78,-0.00013849,-1724.2,0.00055365
456,22.841,2.9973,0,1.5684e-06,15.673,1.3358e-06,10.537,-2.3672e-07,-1.2786,-1.0305e-06,-7.2429,0.49102
457,22.263,2.3934,0,2.0792e-06,20.778,1.5441e-06,10.595,-3.3079e-08,-1.2552,-1.649e-06,-13.397,0.47404
458,22.841,2.3946,0.05,7.5991e-08,0.75939,5.8352e-08,0.43844,1.5709e-13,2.7925e-06,-5.8352e-08,-0.43843,0.49102
459,23.421,2.3973,0,1.4015e-06,14.006,1.2485e-06,10.316,-2.9944e-07,-1.3141,-8.2072e-07,-5.2308,0.50806
460,22.842,4.2031,0,1.3932e-06,13.923,1.159e-06,8.9731,-1.6405e-07,-0.96819,-9.5873e-07,-6.9391,0.49101
461,22.262,3.5995,0,2.0813e-06,20.799,1.5451e-06,10.6,-3.2183e-08,-1.2506,-1.6512e-06,-13.416,0.47399
462,22.841,3.6,0.05,7.5446e-08,0.75394,5.7933e-08,0.43529,1.7616e-13,2.9242e-06,-5.7933e-08,-0.43528,0.49101
463,23.421,3.6,0,1.4014e-06,14.005,1.2483e-06,10.312,-2.9968e-07,-1.3186,-8.2066e-07,-5.2331,0.50805
464,22.264,4.8066,0,1.8139e-06,18.126,1.2359e-06,7.8599,1.0305e-07,-0.65188,-1.5345e-06,-12.956,0.47401
465,22.842,4.8062,0.05,7.8688e-08,0.78634,6.0423e-08,0.454,1.9357e-13,3.0245e-06,-6.0423e-08,-0.45399,0.491
466,23.421,4.8031,0,1.0247e-06,10.24,8.8191e-07,7.1172,-1.5217e-07,-0.65245,-6.6242e-07,-4.4863,0.50803
467,22.846,5.4031,0,1.1092e-06,11.085,9.192e-07,7.3486,-8.3836e-08,-0.18782,-7.7474e-07,-5.379,0.49109
468,21.111,4.8022,0,3.375e-06,33.727,1.8078e-06,8.2872,6.2115e-07,-0.62852,-3.1551e-06,-29.001,0.44014
469,21.684,4.203,0,2.4872e-06,24.854,1.5812e-06,9.1808,2.3608e-07,-0.92558,-2.1874e-06,-19.135,0.45701
470,21.686,4.8069,0.05,1.2232e-07,1.2224,9.3928e-08,0.70574,1.9319e-13,2.6608e-06,-9.3928e-08,-0.70573,0.45703
471,21.694,5.4034,0,2.3175e-06,23.159,1.4415e-06,8.4746,2.8678e-07,-0.20157,-2.0514e-06,-17.77,0.4572
472,19.959,4.7989,0,5.7094e-06,57.054,2.5986e-06,8.3963,1.3987e-06,-0.61982,-5.5233e-06,-52.629,0.40638
473,20.53,4.1977,0,4.3936e-06,43.905,2.2388e-06,9.2364,8.8401e-07,-0.94335,-4.163e-06,-38.865,0.42314
474,20.535,4.7975,0.05,1.8137e-07,1.8125,1.3927e-07,1.0464,1.5189e-13,2.5304e-06,-1.3927e-07,-1.0464,0.42326
475,20.543,5.3987,0,4.2826e-06,42.796,2.1494e-06,9.0209,9.3033e-07,-0.13877,-4.0573e-06,-37.614,0.42343
476,18.808,4.7923,0,8.8139e-06,88.079,3.6226e-06,8.3043,2.4332e-06,-0.63242,-8.6493e-06,-83.902,0.37279
477,19.378,4.1958,0,7.0879e-06,70.831,3.1308e-06,9.1139,1.7885e-06,-0.97144,-6.8953e-06,-66.219,0.38946
478,19.383,4.8003,0.05,2.3857e-07,2.3841,1.8319e-07,1.3764,1.4439e-13,2.6272e-06,-1.8319e-07,-1.3764,0.38954
479,19.392,5.4002,0,7.0182e-06,70.133,3.0746e-06,9.1806,1.8343e-06,-0.13795,-6.8177e-06,-65.146,0.38974
480,17.658,4.7677,0,1.2679e-05,126.7,4.8829e-06,8.0884,3.7248e-06,-0.61333,-1.2529e-05,-122.74,0.33946
481,18.232,4.182,0,1.0554e-05,105.47,4.2576e-06,8.8591,2.9557e-06,-0.92295,-1.0385e-05,-101.16,0.35613
482,18.233,4.7842,0.05,2.9454e-07,2.9433,2.2617e-07,1.6993,1.7158e-13,2.0626e-06,-2.2617e-07,-1.6993,0.35609
483,18.243,5.3921,0,1.052e-05,105.13,4.2458e-06,9.2782,2.9855e-06,-0.19064,-1.0333e-05,-100.26,0.35626
484,16.507,4.7386,0,1.7306e-05,172.94,6.3678e-06,7.5608,5.2814e-06,-0.60232,-1.7173e-05,-169.32,0.30641
485,17.081,4.1548,0,1.4789e-05,147.79,5.6211e-06,8.4271,4.3816e-06,-0.8858,-1.4639e-05,-143.8,0.32294
486,17.083,4.7511,0.05,3.519e-07,3.5166,2.7022e-07,2.0303,1.6313e-13,1.6853e-06,-2.7022e-07,-2.0303,0.32291
487,17.093,5.3756,0,1.4769e-05,147.59,5.6385e-06,9.1011,4.3965e-06,-0.23084,-1.4596e-05,-142.93,0.32304
488,15.353,4.7493,0,2.2708e-05,226.92,8.0635e-06,6.4628,7.1157e-06,-0.65794,-2.2601e-05,-223.94,0.27372
489,15.928,4.1387,0,1.9787e-05,197.73,7.2014e-06,7.5292,6.0729e-06,-0.95004,-1.9662e-05,-194.31,0.29007
490,15.93,4.7261,0.05,4.1069e-07,4.1041,3.1536e-07,2.3695,5.3592e-14,2.0471e-06,-3.1536e-07,-2.3695,0.29001
491,15.942,5.363,0,1.976e-05,197.47,7.2233e-06,8.3536,6.0875e-06,-0.1803,-1.9607e-05,-193.24,0.29015
492,14.191,4.772,0,2.8906e-05,288.86,9.9764e-06,4.8009,9.2364e-06,-0.75935,-2.8833e-05,-286.8,0.24141
493,14.766,4.1687,0,2.5593e-05,255.75,8.9861e-06,5.919,8.0689e-06,-0.9728,-2.5502e-05,-253.21,0.25746
494,14.775,4.7725,0.05,4.6644e-07,4.6612,3.5817e-07,2.6911,3.6558e-15,1.4483e-06,-3.5817e-07,-2.6911,0.25756
495,14.789,5.3863,0,2.558e-05,255.63,9.058e-06,7.2358,8.0558e-06,-0.29456,-2.5454e-05,-252.07,0.25772
496,13.012,4.7703,0,3.5971e-05,359.46,1.2105e-05,2.4672,1.1699e-05,-0.58074,-3.5938e-05,-358.51,0.20939
497,13.588,4.1714,0,3.2223e-05,322.01,1.0969e-05,3.3253,1.037e-05,-1.1765,-3.2184e-05,-320.91,0.22511
498,13.608,4.7714,0.05,5.1013e-07,5.0977,3.9171e-07,2.9432,1.117e-13,1.6886e-06,-3.9171e-07,-2.9432,0.22546
499,13.631,5.3857,0,3.22e-05,321.78,1.1158e-05,6.1056,1.0283e-05,-0.46558,-3.2099e-05,-318.91,0.22581
500,11.804,4.7678,0,4.3866e-05,438.36,1.4435e-05,-2.0593,1.4356e-05,-2.6495,-4.3946e-05,-440.71,0.17764
501,12.388,4.1705,0,3.9774e-05,397.47,1.3169e-05,-0.10799,1.3042e-05,-1.0691,-3.9794e-05,-398.06,0.19308
502,12.415,4.7692,0.05,6.0001e-07,5.996,4.6073e-07,3.4618,4.5309e-15,1.2562e-06,-4.6073e-07,-3.4618,0.19357
503,12.46,5.3846,0,3.9624e-05,395.97,1.3486e-05,4.6052,1.2803e-05,-0.52552,-3.9552e-05,-393.91,0.19441
504,10.556,4.7662,0,5.3071e-05,530.34,1.8316e-05,1.3798,1.627e-05,-13.994,-5.3269e-05,-536.48,0.14617
505,11.147,4.1668,0,4.8133e-05,480.99,1.6104e-05,-2.8662,1.5248e-05,-9.2975,-4.8336e-05,-487.04,0.16116
506,11.192,4.7664,0.05,5.1916e-07,5.188,3.9865e-07,2.9953,2.6245e-14,1.1166e-06,-3.9865e-07,-2.9953,0.16203
507,11.273,5.3832,0,4.7996e-05,479.63,1.5979e-05,-0.18588,1.5583e-05,-3.1625,-4.8052e-05,-481.29,0.1637
508,9.1789,4.7574,0,6.2988e-05,629.45,2.1888e-05,-3.5341,1.8571e-05,-28.455,-6.3495e-05,-645.07,0.1134
509,9.88,4.1679,0,5.7975e-05,579.35,2.06e-05,4.6839,1.7041e-05,-22.056,-5.8224e-05,-587.57,0.13011
510,9.9192,4.7659,0.05,5.6304e-07,5.6265,4.3235e-07,3.2485,3.6258e-13,3.6158e-06,-4.3235e-07,-3.2485,0.13074
511,10.062,5.383,0,5.7198e-05,571.59,1.9907e-05,4.5866,1.7537e-05,-13.219,-5.7324e-05,-575.7,0.13374
512,8.0029,5.0051,0,6.8626e-05,685.79,2.3315e-05,-8.9283,2.0684e-05,-28.702,-6.9245e-05,-704.39,0.087106
513,8.5248,4.1325,0,6.7711e-05,676.64,2.3962e-05,-13.314,1.831e-05,-55.782,-6.8786e-05,-710.19,0.098975
514,7.7844,4.4481,0,7.7777e-05,777.23,2.8467e-05,-26.548,1.8263e-05,-103.22,-7.97e-05,-839.27,0.08285
515,8.4385,4.7489,0.05,1.5718e-06,15.707,1.2069e-06,9.0684,6.0186e-13,-1.2397e-07,-1.2069e-06,-9.0684,0.096738
516,8.747,5.3744,0,6.664e-05,665.94,2.2819e-05,8.1326,2.1332e-05,-3.0366,-6.6546e-05,-663.32,0.10312
517,7.5674,5.2613,0.05,2.5095e-06,25.077,1.9269e-06,14.478,-4.797e-14,5.4589e-06,-1.9269e-06,-14.478,0.07767
518,7.7366,5.6307,0,6.8485e-05,684.37,2.4436e-05,17.28,2.1052e-05,-8.1451,-6.8294e-05,-679.45,0.080851
519,2.6395,2.7296,0,0.00012357,1234.9,5.2108e-05,-42.923,1.5713e-05,-316.38,-0.00012739,-1391.6,0.0096811
520,2.7203,3.2755,0.05,1.679e-06,16.778,1.2892e-06,9.6869,-2.8515e-13,-3.4647e-06,-1.2892e-06,-9.6869,0.010261
521,2.5588,2.1836,0.05,3.1138e-06,31.117,2.391e-06,17.965,-1.0368e-13,4.4196e-07,-2.391e-06,-17.965,0.0090096
522,8.5991,2.9353,0,6.7588e-05,675.41,2.3987e-05,-18.337,1.7677e-05,-65.75,-6.8893e-05,-716.21,0.10085
523,9.2259,3.543,0,6.2731e-05,626.87,2.2531e-05,-6.1714,1.6956e-05,-48.061,-6.3548e-05,-652.94,0.11497
524,8.611,3.5161,0.05,2.4882e-06,24.865,1.9106e-06,14.356,3.3383e-13,2.9473e-06,-1.9106e-06,-14.356,0.10106
525,9.2036,2.3473,0,6.2765e-05,627.22,2.1992e-05,-8.463,1.7726e-05,-40.521,-6.3537e-05,-651.1,0.11444
526,8.0185,2.3814,0,7.9863e-05,798.08,3.0426e-05,-4.3019,1.8773e-05,-91.858,-8.1138e-05,-842.55,0.088145
527,8.5873,2.3545,0.05,2.6021e-06,26.003,1.9981e-06,15.013,-4.7445e-14,1.6931e-06,-1.9981e-06,-15.013,0.10052
528,10.457,2.362,0,5.321e-05,531.73,1.8413e-05,0.39743,1.6137e-05,-16.708,-5.3466e-05,-539.68,0.14419
529,9.8303,2.9549,0,5.7913e-05,578.73,2.042e-05,2.8259,1.7128e-05,-21.907,-5.8198e-05,-587.88,0.12916
530,9.8199,2.3401,0.05,3.0898e-07,3.0876,2.3726e-07,1.7827,6.1869e-15,6.859e-07,-2.3726e-07,-1.7826,0.12884
531,11.723,2.3841,0,4.4146e-05,441.16,1.4813e-05,-1.255,1.4038e-05,-7.0825,-4.4285e-05,-445.3,0.17596
532,11.097,2.9756,0,4.8324e-05,482.91,1.6369e-05,-2.0838,1.5038e-05,-12.083,-4.8558e-05,-489.91,0.16013
533,11.093,2.3839,0.05,6.8578e-07,6.853,5.2659e-07,3.9566,3.0825e-14,4.3608e-07,-5.2659e-07,-3.9566,0.15996
534,12.96,2.3795,0,3.6106e-05,360.81,1.2018e-05,0.63032,1.1799e-05,-1.0136,-3.6112e-05,-361,0.20837
535,12.357,2.9781,0,3.9874e-05,398.46,1.3234e-05,-0.45476,1.299e-05,-2.2888,-3.992e-05,-399.83,0.19245
536,12.353,2.3843,0.05,6.5809e-07,6.5763,5.0533e-07,3.7969,3.405e-15,9.4653e-07,-5.0533e-07,-3.7969,0.19231
537,14.162,2.3744,0,2.897e-05,289.5,1.0038e-05,4.9203,9.1992e-06,-1.3833,-2.8905e-05,-287.68,0.24089
538,13.568,2.9731,0,3.2267e-05,322.45,1.0979e-05,3.0464,1.0367e-05,-1.5516,-3.224e-05,-321.68,0.22472
539,13.568,2.3748,0.05,5.1664e-07,5.1628,3.9671e-07,2.9807,1.6815e-15,1.4458e-06,-3.9671e-07,-2.9807,0.22468
540,15.342,2.3735,0,2.2742e-05,227.26,8.1786e-06,7.4145,7.035e-06,-1.1786,-2.2623e-05,-224.02,0.27365
541,14.756,2.9695,0,2.5618e-05,256,9.0406e-06,6.3364,8.0358e-06,-1.213,-2.5522e-05,-253.35,0.25732
542,14.756,2.3741,0.05,4.629e-07,4.6258,3.5545e-07,2.6707,-3.7469e-16,1.4327e-06,-3.5545e-07,-2.6707,0.25729
543,16.505,2.3732,0,1.7326e-05,173.14,6.5113e-06,8.857,5.1686e-06,-1.2313,-1.7174e-05,-169.1,0.30653
544,15.927,2.9621,0,1.9801e-05,197.87,7.2655e-06,8.0891,6.0253e-06,-1.2293,-1.9667e-05,-194.27,0.29015
545,15.929,2.3728,0.05,4.1423e-07,4.1394,3.1808e-07,2.3899,1.1331e-13,1.4432e-06,-3.1808e-07,-2.3899,0.29016
546,17.656,2.375,0,1.2715e-05,127.06,5.0578e-06,9.7079,3.5981e-06,-1.2597,-1.2536e-05,-122.48,0.33955
547,17.08,2.9661,0,1.4801e-05,147.9,5.704e-06,9.1902,4.317e-06,-1.2308,-1.4638e-05,-143.65,0.32298
548,17.081,2.3736,0.05,3.5555e-07,3.553,2.7302e-07,2.0513,5.8806e-14,1.8613e-06,-2.7302e-07,-2.0513,0.323
549,18.804,2.3835,0,8.8879e-06,88.818,3.8229e-06,10.13,2.3094e-06,-1.2409,-8.6819e-06,-83.825,0.3728
550,18.231,2.9781,0,1.0583e-05,105.76,4.3519e-06,9.7324,2.8943e-06,-1.2192,-1.0395e-05,-101.07,0.35617
551,18.231,2.3765,0.05,2.9122e-07,2.9102,2.2362e-07,1.6802,5.8621e-14,1.9503e-06,-2.2362e-07,-1.6802,0.35617
552,19.952,2.3951,0,5.8278e-06,58.238,2.8243e-06,10.39,1.275e-06,-1.251,-5.5844e-06,-52.789,0.40627
553,19.375,2.9909,0,7.1398e-06,71.348,3.2405e-06,10.095,1.7264e-06,-1.2819,-6.9215e-06,-66.259,0.38944
554,19.377,2.3906,0.05,2.3648e-07,2.3631,1.8158e-07,1.3643,1.1488e-13,2.4658e-06,-1.8158e-07,-1.3643,0.38948
555,21.106,2.3958,0,3.55e-06,35.475,2.0641e-06,10.539,4.9628e-07,-1.2411,-3.2419e-06,-29.328,0.44007
556,20.526,2.9987,0,4.4721e-06,44.69,2.3614e-06,10.299,8.2251e-07,-1.2637,-4.2047e-06,-39.036,0.42306
557,20.527,2.3995,0.05,1.7966e-07,1.7954,1.3796e-07,1.0366,1.1482e-13,2.5848e-06,-1.3796e-07,-1.0366,0.42309
558,21.684,2.9956,0,2.6052e-06,26.034,1.726e-06,10.453,1.7284e-07,-1.2169,-2.2438e-06,-19.374,0.45702
559,21.685,2.3921,0.05,1.2182e-07,1.2173,9.3541e-08,0.70283,1.5752e-13,2.4075e-06,-9.3541e-08,-0.70283,0.45706
560,21.103,3.5984,0,3.555e-06,35.526,2.0653e-06,10.528,4.981e-07,-1.2468,-3.2475e-06,-29.39,0.43998
561,21.682,3.599,0.05,1.2214e-07,1.2205,9.3787e-08,0.70468,1.6004e-13,2.5584e-06,-9.3787e-08,-0.70468,0.45697
562,19.949,3.5946,0,5.835e-06,58.31,2.8287e-06,10.388,1.273e-06,-1.3014,-5.5919e-06,-52.882,0.40617
563,20.524,3.5979,0.05,1.8036e-07,1.8024,1.385e-07,1.0406,1.1565e-13,2.1439e-06,-1.385e-07,-1.0406,0.42301
564,18.802,3.5855,0,8.8946e-06,88.884,3.8248e-06,10.112,2.3103e-06,-1.2679,-8.6893e-06,-83.914,0.37272
565,19.373,3.5912,0.05,2.3482e-07,2.3465,1.8031e-07,1.3548,1.1554e-13,2.0278e-06,-1.8031e-07,-1.3548,0.38936
566,17.654,3.5692,0,1.273e-05,127.22,5.0544e-06,9.6377,3.6119e-06,-1.2003,-1.2552e-05,-122.65,0.33949
567,18.23,3.5798,0.05,2.8569e-07,2.8549,2.1937e-07,1.6483,5.7249e-14,1.9585e-06,-2.1937e-07,-1.6483,0.35614
568,16.502,3.555,0,1.7336e-05,173.24,6.5128e-06,8.8324,5.1726e-06,-1.2379,-1.7184e-05,-169.22,0.30645
569,17.078,3.5586,0.05,3.6121e-07,3.6096,2.7736e-07,2.084,1.1692e-13,1.8445e-06,-2.7736e-07,-2.084,0.32292
570,15.341,3.5582,0,2.2735e-05,227.19,8.18e-06,7.4055,7.0254e-06,-1.2699,-2.2618e-05,-224,0.27361
571,15.926,3.5514,0.05,4.2618e-07,4.2589,3.2726e-07,2.4589,1.1429e-13,1.6711e-06,-3.2725e-07,-2.4589,0.29008
572,14.162,3.5682,0,2.8967e-05,289.47,1.003e-05,4.8262,9.2021e-06,-1.3919,-2.8904e-05,-287.7,0.24089
573,14.756,3.5649,0.05,4.621e-07,4.6178,3.5484e-07,2.6661,1.1421e-13,1.4378e-06,-3.5484e-07,-2.6661,0.25729
574,12.964,3.5716,0,3.6075e-05,360.5,1.2003e-05,0.51996,1.1787e-05,-1.1041,-3.6085e-05,-360.79,0.20846
575,13.567,3.5714,0.05,5.0744e-07,5.0709,3.8965e-07,2.9277,6.5086e-16,1.1996e-06,-3.8965e-07,-2.9277,0.22468
576,11.731,3.5696,0,4.408e-05,440.5,1.479e-05,-1.2764,1.4016e-05,-7.0934,-4.4219e-05,-444.65,0.17617
577,12.36,3.5719,0.05,6.3139e-07,6.3096,4.8483e-07,3.6428,2.8118e-15,9.7136e-07,-4.8483e-07,-3.6428,0.19249
578,10.471,3.5685,0,5.3044e-05,530.08,1.8375e-05,0.34256,1.6049e-05,-17.136,-5.3309e-05,-538.26,0.14455
579,11.102,3.5672,0.05,6.7777e-07,6.773,5.2044e-07,3.9104,-1.1039e-22,6.856e-07,-5.2044e-07,-3.9104,0.16018
580,9.8407,3.5698,0.05,5.074e-07,5.0705,3.8962e-07,2.9274,-2.1454e-13,3.2768e-07,-3.8962e-07,-2.9274,0.12934
581,7.1302,4.1474,0.05,6.7878e-06,67.832,5.2122e-06,39.163,2.9913e-14,2.2412e-05,-5.2122e-06,-39.163,0.069576
582,6.3685,4.0737,0,0.00017006,1699.4,5.0737e-05,-233.71,4.378e-05,-285.98,-0.00017884,-1958.6,0.054998
583,4.5383,1.1299,0.05,4.3841e-06,43.811,3.3664e-06,25.294,4.1228e-14,2.8258e-07,-3.3664e-06,-25.294,0.026454
584,4.9891,1.0649,0,0.0001085,1084.3,5.0525e-05,164.29,2.4848e-05,-28.643,-0.0001049,-1003.5,0.031477
585,4.8466,5.0291,0.05,2.8069e-06,28.05,2.1554e-06,16.195,4.3431e-15,-3.4351e-15,-2.1554e-06,-16.195,0.02973
586,5.1433,5.0146,0,8.2611e-05,825.54,4.9853e-05,254.49,8.3985e-06,-56.978,-7.4717e-05,-681.48,0.033233
587,4.0735,3.9389,0.05,8.8752e-06,88.691,6.815e-06,51.206,-1.4456e-21,1.4016e-05,-6.815e-06,-51.206,0.022321
588,4.7568,3.9695,0,0.00020176,2016.2,7.2957e-05,-45.192,5.1257e-05,-208.24,-0.00020558,-2138,0.030146
589,6.4297,1.0628,0,7.3657e-05,736.06,3.294e-05,108.06,1.9133e-05,4.3212,-7.1194e-05,-674.37,0.05523
590,6.2885,0.89672,0.05,6.863e-07,6.8583,5.27e-07,3.9596,-1.1178e-22,9.8008e-08,-5.27e-07,-3.9596,0.052308
591,5.9476,0.94836,0,7.0729e-05,706.8,3.8697e-05,167.4,1.0605e-05,-43.673,-6.6218e-05,-620.89,0.045941
592,6.5708,1.2289,0.05,1.3454e-05,134.45,1.0331e-05,77.622,3.811e-13,6.5003e-07,-1.0331e-05,-77.622,0.058098
593,6.0887,1.3645,0,0.00010014,1000.7,5.0257e-05,235.79,2.4295e-05,40.722,-9.4e-05,-848.11,0.049185
594,5.3056,2.944,0,0.00018843,1883,9.3207e-05,440.57,4.8083e-05,101.53,-0.00017691,-1589,0.038089
595,5.7934,2.5745,0,0.00016147,1613.5,8.0727e-05,385.02,4.0269e-05,81.034,-0.00015137,-1358.9,0.04551
596,5.4424,2.687,0.05,1.1786e-05,117.77,9.0499e-06,67.997,4.1836e-14,-3.3254e-07,-9.0499e-06,-67.997,0.040008
597,5.4412,2.3435,0,0.00027127,2710.8,0.00010369,30.791,6.7516e-05,-241.01,-0.00027382,-2805.7,0.039685
598,5.1689,3.2009,0.05,2.4377e-06,24.36,1.8719e-06,14.064,4.9329e-14,5.3785e-07,-1.8719e-06,-14.064,0.036095
599,5.3044,3.6005,0,0.00023207,2319.1,9.9926e-05,208.81,5.4625e-05,-131.56,-0.00022887,-2261.7,0.037817
600,6.797,2.4352,0,0.00011227,1122,4.5469e-05,131.65,3.4689e-05,50.646,-0.00010895,-1028.6,0.063335
601,7.4498,2.4084,0.05,4.1784e-06,41.755,3.2085e-06,24.107,-1.439e-13,-1.248e-06,-3.2085e-06,-24.107,0.076243
602,6.1443,2.4621,0.05,3.8302e-06,38.275,2.9411e-06,22.098,-6.2385e-22,7.629e-06,-2.9411e-06,-22.098,0.051391
603,5.8755,2.231,0,0.00018097,1808.5,7.0876e-05,19.467,4.1801e-05,-198.99,-0.00018303,-1888.3,0.046552
604,6.797,2.4352,0.1,0.00011227,1122,0.00010895,1028.6,-3.4689e-05,-50.646,-4.5469e-05,-131.65,0.063335
605,5.7934,2.5745,0.1,0.00016147,1613.5,0.00015137,1358.9,-4.0269e-05,-81.034,-8.0727e-05,-385.02,0.04551
606,6.1407,2.8977,0.1,0.00013328,1331.9,0.00012493,1110.8,-3.6644e-05,-103.19,-6.4678e-05,-313.82,0.051504
607,5.8755,2.231,0.1,0.00018097,1808.5,0.00018303,1888.3,-4.1801e-05,198.99,-7.0876e-05,-19.467,0.046552
608,8.0185,2.3814,0.1,7.9863e-05,798.08,8.1138e-05,842.55,-1.8773e-05,91.858,-3.0426e-05,4.3019,0.088145
609,7.3833,2.9002,0.1,9.4927e-05,948.61,9.6719e-05,1013.9,-2.0165e-05,135.64,-3.7178e-05,7.8158,0.074964
610,7.2808,2.0778,0.1,8.983e-05,897.68,9.1718e-05,967.17,-1.8074e-05,142.23,-3.5519e-05,11.16,0.072702
611,5.3056,2.944,0.1,0.00018843,1883,0.00017691,1589,-4.8083e-05,-101.53,-9.3207e-05,-440.57,0.038089
612,4.7295,3.0191,0.1,0.00015208,1519.7,0.00014862,1422.3,-4.7048e-05,-47.875,-5.9661e-05,-142.65,0.030254
613,5.6529,3.2672,0.1,0.00016132,1612.1,0.00015135,1347.5,-4.4584e-05,-124.62,-7.7919e-05,-375.09,0.043357
614,5.3044,3.6005,0.1,0.00023207,2319.1,0.00022887,2261.7,-5.4625e-05,131.56,-9.9926e-05,-208.81,0.037817
615,5.4412,2.3435,0.1,0.00027127,2710.8,0.00027382,2805.7,-6.7516e-05,241.01,-0.00010369,-30.791,0.039685
616,6.4297,1.0628,0.1,7.3657e-05,736.06,7.1194e-05,674.37,-1.9133e-05,-4.3212,-3.294e-05,-108.06,0.05523
617,7.0406,0.96597,0.1,7.8799e-05,787.45,7.8298e-05,778.09,-2.1059e-05,31.567,-3.1213e-05,-44.727,0.067117
618,6.8414,1.4881,0.1,8.9818e-05,897.56,9.0072e-05,916.15,-2.0846e-05,82.751,-3.6401e-05,-34.119,0.063614
619,6.0887,1.3645,0.1,0.00010014,1000.7,9.4e-05,848.11,-2.4295e-05,-40.722,-5.0257e-05,-235.79,0.049185
620,6.4085,0.68883,0.1,6.1278e-05,612.35,5.811e-05,534.96,-1.4688e-05,-12.012,-2.9937e-05,-126.59,0.054358
621,5.9476,0.94836,0.1,7.0729e-05,706.8,6.6218e-05,620.89,-1.0605e-05,43.673,-3.8697e-05,-167.4,0.045941
622,3.4097,4.2502,0.1,0.00012163,1215.5,0.00012384,1289.4,-2.919e-05,139.62,-4.5434e-05,17.565,0.015662
623,4.3351,4.2961,0.1,0.00011952,1194.4,0.00011771,1154,-3.0689e-05,38.998,-5.0053e-05,-106.5,0.024902
624,4.1818,3.3881,0.1,0.0001205,1204.2,0.00012279,1279.6,-2.9208e-05,137.53,-4.4632e-05,21.643,0.023732
625,4.7568,3.9695,0.1,0.00020176,2016.2,0.00020558,2138,-5.1257e-05,208.24,-7.2957e-05,45.192,0.030146
626,4.7522,5.216,0.1,7.7988e-05,779.34,7.281e-05,662.07,-1.5726e-05,-3.1524,-4.1313e-05,-195.4,0.028344
627,4.7217,4.8412,0.1,9.0621e-05,905.59,8.6127e-05,792.5,-2.2893e-05,-26.638,-4.33e-05,-179.97,0.028615
628,5.1433,5.0146,0.1,8.2611e-05,825.54,7.4717e-05,681.48,-8.3985e-06,56.978,-4.9853e-05,-254.49,0.033233
629,4.1997,1.4877,0.1,9.4441e-05,943.76,9.2753e-05,898.44,-2.7588e-05,-5.7551,-3.753e-05,-80.455,0.02326
630,4.437,0.89282,0.1,8.0421e-05,803.66,7.8672e-05,762.99,-2.0316e-05,19.235,-3.4787e-05,-89.493,0.025015
631,4.9891,1.0649,0.1,0.0001085,1084.3,0.0001049,1003.5,-2.4848e-05,28.643,-5.0525e-05,-164.29,0.031477
632,7.7844,4.4481,0.1,7.7777e-05,777.23,7.97e-05,839.27,-1.8263e-05,103.22,-2.8467e-05,26.548,0.08285
633,6.9272,4.432,0.1,8.9764e-05,897.02,9.0122e-05,920.8,-1.9869e-05,94.369,-3.6842e-05,-33.162,0.065377
634,7.2235,3.7697,0.1,9.3075e-05,930.11,9.5771e-05,1019.5,-1.9762e-05,151.4,-3.4887e-05,37.766,0.071615
635,6.3685,4.0737,0.1,0.00017006,1699.4,0.00017884,1958.6,-4.378e-05,285.98,-5.0737e-05,233.71,0.054998
636,10.471,3.5685,0.1,5.3044e-05,530.08,5.3309e-05,538.26,-1.6049e-05,17.136,-1.8375e-05,-0.34256,0.14455
637,9.8303,2.9549,0.1,5.7913e-05,578.73,5.8198e-05,587.88,-1.7128e-05,21.907,-2.042e-05,-2.8259,0.12916
638,9.2259,3.543,0.1,6.2731e-05,626.87,6.3548e-05,652.94,-1.6956e-05,48.061,-2.2531e-05,6.1714,0.11497
639,9.88,4.1679,0.1,5.7975e-05,579.35,5.8224e-05,587.57,-1.7041e-05,22.056,-2.06e-05,-4.6839,0.13011
640,11.731,3.5696,0.1,4.408e-05,440.5,4.4219e-05,444.65,-1.4016e-05,7.0934,-1.479e-05,1.2764,0.17617
641,11.097,2.9756,0.1,4.8324e-05,482.91,4.8558e-05,489.91,-1.5038e-05,12.083,-1.6369e-05,2.0838,0.16013
642,11.147,4.1668,0.1,4.8133e-05,480.99,4.8336e-05,487.04,-1.5248e-05,9.2975,-1.6104e-05,2.8662,0.16116
643,12.964,3.5716,0.1,3.6075e-05,360.5,3.6085e-05,360.79,-1.1787e-05,1.1041,-1.2003e-05,-0.51996,0.20846
644,12.357,2.9781,0.1,3.9874e-05,398.46,3.992e-05,399.83,-1.299e-05,2.2888,-1.3234e-05,0.45476,0.19245
645,12.388,4.1705,0.1,3.9774e-05,397.47,3.9794e-05,398.06,-1.3042e-05,1.0691,-1.3169e-05,0.10799,0.19308
646,14.162,3.5682,0.1,2.8967e-05,289.47,2.8904e-05,287.7,-9.2021e-06,1.3919,-1.003e-05,-4.8262,0.24089
647,13.568,2.9731,0.1,3.2267e-05,322.45,3.224e-05,321.68,-1.0367e-05,1.5516,-1.0979e-05,-3.0464,0.22472
648,13.588,4.1714,0.1,3.2223e-05,322.01,3.2184e-05,320.91,-1.037e-05,1.1765,-1.0969e-05,-3.3253,0.22511
649,15.341,3.5582,0.1,2.2735e-05,227.19,2.2618e-05,224,-7.0254e-06,1.2699,-8.18e-06,-7.4055,0.27361
650,14.756,2.9695,0.1,2.5618e-05,256,2.5522e-05,253.35,-8.0358e-06,1.213,-9.0406e-06,-6.3364,0.25732
651,14.766,4.1687,0.1,2.5593e-05,255.75,2.5502e-05,253.21,-8.0689e-06,0.9728,-8.9861e-06,-5.9189,0.25746
652,16.502,3.555,0.1,1.7336e-05,173.24,1.7184e-05,169.22,-5.1726e-06,1.2379,-6.5128e-06,-8.8324,0.30645
653,15.927,2.9621,0.1,1.9801e-05,197.87,1.9667e-05,194.27,-6.0253e-06,1.2293,-7.2655e-06,-8.0891,0.29015
654,15.928,4.1387,0.1,1.9787e-05,197.73,1.9662e-05,194.31,-6.0729e-06,0.95004,-7.2014e-06,-7.5292,0.29007
655,17.654,3.5692,0.1,1.273e-05,127.22,1.2552e-05,122.65,-3.6119e-06,1.2003,-5.0544e-06,-9.6377,0.33949
656,17.08,2.9661,0.1,1.4801e-05,147.9,1.4638e-05,143.65,-4.317e-06,1.2308,-5.704e-06,-9.1902,0.32298
657,17.081,4.1548,0.1,1.4789e-05,147.79,1.4639e-05,143.8,-4.3816e-06,0.8858,-5.6211e-06,-8.4271,0.32294
658,18.802,3.5855,0.1,8.8946e-06,88.884,8.6893e-06,83.914,-2.3103e-06,1.2679,-3.8248e-06,-10.112,0.37272
659,18.231,2.9781,0.1,1.0583e-05,105.76,1.0395e-05,101.07,-2.8943e-06,1.2192,-4.3519e-06,-9.7323,0.35617
660,18.232,4.182,0.1,1.0554e-05,105.47,1.0385e-05,101.16,-2.9557e-06,0.92295,-4.2576e-06,-8.8591,0.35613
661,19.949,3.5946,0.1,5.835e-06,58.31,5.5919e-06,52.882,-1.273e-06,1.3014,-2.8287e-06,-10.388,0.40617
662,19.375,2.9909,0.1,7.1398e-06,71.348,6.9215e-06,66.259,-1.7264e-06,1.2819,-3.2405e-06,-10.095,0.38944
663,19.378,4.1958,0.1,7.0879e-06,70.831,6.8953e-06,66.219,-1.7886e-06,0.97144,-3.1308e-06,-9.1139,0.38946
664,21.103,3.5984,0.1,3.555e-06,35.526,3.2475e-06,29.39,-4.981e-07,1.2468,-2.0653e-06,-10.528,0.43998
665,20.526,2.9987,0.1,4.4721e-06,44.69,4.2047e-06,39.036,-8.2251e-07,1.2637,-2.3614e-06,-10.299,0.42306
666,20.53,4.1977,0.1,4.3936e-06,43.905,4.163e-06,38.865,-8.8401e-07,0.94335,-2.2388e-06,-9.2364,0.42314
667,21.684,2.9956,0.1,2.6052e-06,26.034,2.2438e-06,19.374,-1.7284e-07,1.2169,-1.726e-06,-10.453,0.45702
668,21.684,4.203,0.1,2.4872e-06,24.854,2.1874e-06,19.135,-2.3609e-07,0.92558,-1.5812e-06,-9.1808,0.45701
669,22.262,3.5995,0.1,2.0813e-06,20.799,1.6512e-06,13.416,3.2183e-08,1.2506,-1.5451e-06,-10.6,0.47399
670,21.106,2.3958,0.1,3.55e-06,35.475,3.2419e-06,29.328,-4.9628e-07,1.2411,-2.0641e-06,-10.539,0.44007
671,22.263,2.3934,0.1,2.0792e-06,20.778,1.649e-06,13.397,3.3079e-08,1.2552,-1.5441e-06,-10.595,0.47404
672,21.691,1.7928,0.1,2.4813e-06,24.795,2.1805e-06,19.061,-2.3347e-07,0.92301,-1.5799e-06,-9.1937,0.4572
673,19.952,2.3951,0.1,5.8278e-06,58.238,5.5844e-06,52.789,-1.275e-06,1.251,-2.8243e-06,-10.39,0.40627
674,20.533,1.7976,0.1,4.3845e-06,43.815,4.1528e-06,38.753,-8.7969e-07,0.94047,-2.2378e-06,-9.2638,0.42325
675,18.804,2.3835,0.1,8.8879e-06,88.818,8.6819e-06,83.825,-2.3094e-06,1.2409,-3.8229e-06,-10.13,0.3728
676,19.384,1.7925,0.1,7.0755e-06,70.707,6.8814e-06,66.047,-1.788e-06,0.90766,-3.1267e-06,-9.1504,0.38965
677,17.656,2.375,0.1,1.2715e-05,127.06,1.2536e-05,122.48,-3.5981e-06,1.2597,-5.0578e-06,-9.7079,0.33955
678,18.234,1.7816,0.1,1.0542e-05,105.34,1.0372e-05,101.01,-2.9496e-06,0.92134,-4.2567e-06,-8.9002,0.3562
679,16.505,2.3732,0.1,1.7326e-05,173.14,1.7174e-05,169.1,-5.1686e-06,1.2313,-6.5113e-06,-8.857,0.30653
680,17.082,1.7801,0.1,1.4769e-05,147.59,1.462e-05,143.64,-4.3639e-06,1.0027,-5.6221e-06,-8.4505,0.32297
681,15.342,2.3735,0.1,2.2742e-05,227.26,2.2623e-05,224.02,-7.035e-06,1.1786,-8.1786e-06,-7.4145,0.27365
682,15.932,1.7791,0.1,1.9787e-05,197.74,1.9663e-05,194.34,-6.0807e-06,0.91444,-7.1921e-06,-7.4357,0.29018
683,14.162,2.3744,0.1,2.897e-05,289.5,2.8905e-05,287.68,-9.1992e-06,1.3833,-1.0038e-05,-4.9203,0.24089
684,14.763,1.7805,0.1,2.5615e-05,255.98,2.5523e-05,253.41,-8.078e-06,0.94006,-8.9935e-06,-5.9381,0.25739
685,12.96,2.3795,0.1,3.6106e-05,360.81,3.6112e-05,361,-1.1799e-05,1.0136,-1.2018e-05,-0.63032,0.20837
686,13.579,1.7857,0.1,3.2278e-05,322.56,3.2241e-05,321.52,-1.0389e-05,1.2139,-1.0981e-05,-3.2347,0.22488
687,11.723,2.3841,0.1,4.4146e-05,441.16,4.4285e-05,445.3,-1.4038e-05,7.0825,-1.4813e-05,1.255,0.17596
688,12.374,1.7956,0.1,3.987e-05,398.43,3.9885e-05,398.87,-1.3071e-05,0.97917,-1.3213e-05,-0.089989,0.19272
689,10.457,2.362,0.1,5.321e-05,531.73,5.3466e-05,539.68,-1.6137e-05,16.708,-1.8413e-05,-0.39743,0.14419
690,11.14,1.7923,0.1,4.8205e-05,481.72,4.8409e-05,487.77,-1.5325e-05,8.8974,-1.6075e-05,3.2637,0.16099
691,9.2036,2.3473,0.1,6.2765e-05,627.22,6.3537e-05,651.1,-1.7726e-05,40.521,-2.1992e-05,8.463,0.11444
692,9.8638,1.7648,0.1,5.8194e-05,581.54,5.8389e-05,588.07,-1.7271e-05,19.592,-2.0637e-05,-5.7032,0.12971
693,8.5991,2.9353,0.1,6.7588e-05,675.41,6.8893e-05,716.21,-1.7677e-05,65.75,-2.3987e-05,18.337,0.10085
694,8.5023,1.7766,0.1,6.7497e-05,674.51,6.8583e-05,707.08,-1.9473e-05,45.464,-2.2811e-05,20.383,0.098455
695,8.5248,4.1325,0.1,6.7711e-05,676.64,6.8786e-05,710.19,-1.831e-05,55.782,-2.3962e-05,13.314,0.098975
696,7.9639,3.4541,0.1,8.289e-05,828.32,8.4743e-05,889.53,-1.9215e-05,108.43,-3.0861e-05,20.934,0.087009
697,2.6395,2.7296,0.1,0.00012357,1234.9,0.00012739,1391.6,-1.5713e-05,316.38,-5.2108e-05,42.923,0.0096811
698,1.9082,2.264,0.1,0.00013614,1360.5,0.0001339,1399,-1.091e-05,310.96,-6.9113e-05,-126.36,0.0050527
699,2.4261,1.6442,0.1,0.00012641,1263.2,0.00013003,1393.8,-2.2901e-05,244.69,-4.9986e-05,41.178,0.0079497
700,3.21,2.0145,0.1,0.00011655,1164.7,0.00011835,1228.1,-2.7289e-05,133.86,-4.4589e-05,3.8802,0.014032
701,2.0327,3.3906,0.1,0.000134,1339.1,0.00013198,1385.1,-9.9874e-06,318.46,-6.8033e-05,-117.67,0.0057694
702,2.7331,3.9185,0.1,0.00012136,1212.7,0.00012519,1353.7,-1.9896e-05,263.53,-4.8662e-05,47.391,0.010243
703,3.5052,3.0564,0.1,0.00012122,1211.4,0.00012491,1349.6,-1.9526e-05,264.36,-4.9019e-05,42.764,0.01688
704,8.0029,5.0051,0.1,6.8626e-05,685.79,6.9245e-05,704.39,-2.0684e-05,28.702,-2.3315e-05,8.9283,0.087106
705,7.038,5.3605,0.1,6.5002e-05,649.57,6.435e-05,631.88,-1.9578e-05,1.28,-2.4425e-05,-35.142,0.066744
706,7.1457,4.989,0.1,8.023e-05,801.75,7.9518e-05,784.8,-2.2515e-05,18.157,-3.1316e-05,-47.966,0.069292
707,7.7366,5.6307,0.1,6.8485e-05,684.37,6.8294e-05,679.45,-2.1052e-05,8.1451,-2.4436e-05,-17.28,0.080851
708,9.1789,4.7574,0.1,6.2988e-05,629.45,6.3495e-05,645.07,-1.8571e-05,28.455,-2.1888e-05,3.5341,0.1134
709,8.747,5.3744,0.1,6.664e-05,665.94,6.6546e-05,663.32,-2.1332e-05,3.0366,-2.2819e-05,-8.1326,0.10312
710,10.556,4.7662,0.1,5.3071e-05,530.34,5.3269e-05,536.48,-1.627e-05,13.994,-1.8316e-05,-1.3798,0.14617
711,10.062,5.383,0.1,5.7198e-05,571.59,5.7324e-05,575.7,-1.7537e-05,13.219,-1.9907e-05,-4.5866,0.13374
712,11.804,4.7678,0.1,4.3866e-05,438.36,4.3946e-05,440.71,-1.4356e-05,2.6495,-1.4435e-05,2.0593,0.17764
713,11.273,5.3832,0.1,4.7996e-05,479.63,4.8052e-05,481.29,-1.5583e-05,3.1625,-1.5979e-05,0.18588,0.1637
714,13.012,4.7703,0.1,3.5971e-05,359.46,3.5938e-05,358.51,-1.1699e-05,0.58074,-1.2105e-05,-2.4672,0.20939
715,12.46,5.3846,0.1,3.9624e-05,395.97,3.9552e-05,393.91,-1.2803e-05,0.52552,-1.3486e-05,-4.6052,0.19441
716,14.191,4.772,0.1,2.8906e-05,288.86,2.8833e-05,286.8,-9.2364e-06,0.75935,-9.9764e-06,-4.8009,0.24141
717,13.631,5.3857,0.1,3.22e-05,321.78,3.2099e-05,318.91,-1.0283e-05,0.46558,-1.1158e-05,-6.1056,0.22581
718,15.353,4.7493,0.1,2.2708e-05,226.92,2.2601e-05,223.94,-7.1157e-06,0.65794,-8.0635e-06,-6.4628,0.27372
719,14.789,5.3863,0.1,2.558e-05,255.63,2.5454e-05,252.07,-8.0558e-06,0.29456,-9.058e-06,-7.2358,0.25772
720,16.507,4.7386,0.1,1.7306e-05,172.94,1.7173e-05,169.32,-5.2814e-06,0.60232,-6.3678e-06,-7.5608,0.30641
721,15.942,5.363,0.1,1.976e-05,197.47,1.9607e-05,193.24,-6.0875e-06,0.1803,-7.2233e-06,-8.3536,0.29015
722,17.658,4.7677,0.1,1.2679e-05,126.7,1.2529e-05,122.74,-3.7248e-06,0.61333,-4.8829e-06,-8.0884,0.33946
723,17.093,5.3756,0.1,1.4769e-05,147.59,1.4596e-05,142.93,-4.3965e-06,0.23084,-5.6385e-06,-9.1011,0.32304
724,18.808,4.7923,0.1,8.8139e-06,88.079,8.6493e-06,83.902,-2.4332e-06,0.63242,-3.6226e-06,-8.3043,0.37279
725,18.243,5.3921,0.1,1.052e-05,105.13,1.0333e-05,100.26,-2.9855e-06,0.19064,-4.2458e-06,-9.2782,0.35626
726,19.959,4.7989,0.1,5.7094e-06,57.054,5.5233e-06,52.629,-1.3987e-06,0.61982,-2.5986e-06,-8.3963,0.40638
727,19.392,5.4002,0.1,7.0182e-06,70.133,6.8177e-06,65.146,-1.8343e-06,0.13795,-3.0746e-06,-9.1806,0.38974
728,21.111,4.8022,0.1,3.375e-06,33.727,3.1551e-06,29.001,-6.2115e-07,0.62852,-1.8078e-06,-8.2872,0.44014
729,20.543,5.3987,0.1,4.2826e-06,42.796,4.0573e-06,37.614,-9.3033e-07,0.13877,-2.1494e-06,-9.0209,0.42343
730,22.264,4.8066,0.1,1.8139e-06,18.126,1.5345e-06,12.956,-1.0305e-07,0.65188,-1.2359e-06,-7.8599,0.47401
731,21.694,5.4034,0.1,2.3175e-06,23.159,2.0514e-06,17.77,-2.8678e-07,0.20157,-1.4415e-06,-8.4746,0.4572
732,22.842,4.2031,0.1,1.3932e-06,13.923,9.5873e-07,6.9391,1.6405e-07,0.96819,-1.159e-06,-8.9731,0.49101
733,22.846,5.4031,0.1,1.1092e-06,11.085,7.7474e-07,5.379,8.3836e-08,0.18782,-9.192e-07,-7.3486,0.49109
734,23.421,4.8031,0.1,1.0247e-06,10.24,6.6242e-07,4.4863,1.5217e-07,0.65245,-8.8191e-07,-7.1172,0.50803
735,22.841,2.9973,0.1,1.5684e-06,15.673,1.0305e-06,7.2429,2.3672e-07,1.2786,-1.3358e-06,-10.537,0.49102
736,23.421,3.6,0.1,1.4014e-06,14.005,8.2066e-07,5.2331,2.9968e-07,1.3186,-1.2483e-06,-10.312,0.50805
737,22.844,1.7953,0.1,1.3922e-06,13.912,9.5686e-07,6.9128,1.643e-07,0.95777,-1.1591e-06,-8.9858,0.4911
738,23.421,2.3973,0.1,1.4015e-06,14.006,8.2072e-07,5.2308,2.9944e-07,1.3141,-1.2485e-06,-10.316,0.50806
739,1.3014,2.925,0.1,0.0001473,1471.9,0.00013823,1390.6,-4.9334e-06,314.92,-8.503e-05,-286.89,0.002383
740,1.2066,1.7637,0.1,0.00014465,1445.5,0.00013663,1363,-9.0343e-06,268.55,-8.146e-05,-275.63,0.0019827
741,0.62877,2.3722,0.1,0.00012381,1237.2,0.00013849,1724.2,-2.1033e-06,667.78,-4.2656e-05,363.08,0.00055365
742,1.3347,4.0969,0.1,0.0001437,1436,0.00013579,1355.7,-8.9656e-06,268.01,-8.0841e-05,-272.03,0.0024515
743,0.6726,3.5528,0.1,0.00012381,1237.3,0.00013865,1727.5,-2.2525e-06,668.8,-4.2371e-05,367.37,0.00063701
744,22.271,1.1947,0.1,1.809e-06,18.078,1.5278e-06,12.873,-1.0109e-07,0.63431,-1.2356e-06,-7.8903,0.47424
745,23.424,1.198,0.1,1.0225e-06,10.218,6.5941e-07,4.4519,1.5279e-07,0.64533,-8.8112e-07,-7.123,0.50811
746,22.849,0.59797,0.1,1.1078e-06,11.07,7.7197e-07,5.3518,8.5805e-08,0.19616,-9.1928e-07,-7.3557,0.49118
747,21.118,1.1945,0.1,3.3639e-06,33.616,3.1428e-06,28.871,-6.161e-07,0.62836,-1.8058e-06,-8.3103,0.44035
748,21.698,0.5967,0.1,2.3135e-06,23.119,2.0487e-06,17.746,-2.8888e-07,0.18163,-1.4373e-06,-8.4472,0.45736
749,19.965,1.1951,0.1,5.694e-06,56.901,5.5062e-06,52.433,-1.392e-06,0.60314,-2.5973e-06,-8.4534,0.40657
750,20.545,0.59784,0.1,4.2789e-06,42.759,4.0531e-06,37.575,-9.2638e-07,0.1615,-2.1501e-06,-9.0333,0.42351
751,18.813,1.1906,0.1,8.7967e-06,87.906,8.63e-06,83.675,-2.4274e-06,0.59369,-3.6202e-06,-8.3683,0.37296
752,19.396,0.59722,0.1,7.0018e-06,69.97,6.8019e-06,64.998,-1.829e-06,0.14924,-3.068e-06,-9.1606,0.38987
753,17.66,1.1866,0.1,1.2663e-05,126.54,1.2514e-05,122.61,-3.7147e-06,0.66917,-4.8803e-06,-8.0885,0.33951
754,18.244,0.59336,0.1,1.0498e-05,104.91,1.0314e-05,100.1,-2.9866e-06,0.16328,-4.228e-06,-9.1645,0.35632
755,16.509,1.186,0.1,1.7295e-05,172.83,1.7166e-05,169.3,-5.2754e-06,0.69095,-6.3602e-06,-7.4599,0.30647
756,17.093,0.59327,0.1,1.4751e-05,147.41,1.4582e-05,142.86,-4.3993e-06,0.23834,-5.6174e-06,-8.9134,0.32305
757,15.353,1.1861,0.1,2.2722e-05,227.06,2.2617e-05,224.14,-7.1228e-06,0.68337,-8.0618e-06,-6.3717,0.27372
758,15.944,0.59274,0.1,1.9778e-05,197.64,1.963e-05,193.57,-6.0989e-06,0.24645,-7.2138e-06,-8.1303,0.29023
759,14.181,1.1917,0.1,2.8978e-05,289.58,2.8909e-05,287.62,-9.2675e-06,0.77595,-9.9864e-06,-4.6256,0.24112
760,14.787,0.59341,0.1,2.5603e-05,255.85,2.5477e-05,252.33,-8.057e-06,0.36167,-9.0698e-06,-7.2483,0.25767
761,12.993,1.2018,0.1,3.6088e-05,360.63,3.6056e-05,359.71,-1.1748e-05,0.52892,-1.2132e-05,-2.3545,0.20889
762,13.622,0.59831,0.1,3.2259e-05,322.36,3.2152e-05,319.33,-1.0297e-05,0.38014,-1.1193e-05,-6.3495,0.22559
763,11.791,1.2038,0.1,4.3972e-05,439.42,4.4047e-05,441.63,-1.4412e-05,2.3935,-1.4459e-05,2.0353,0.17732
764,12.449,0.60344,0.1,3.9682e-05,396.54,3.9592e-05,393.96,-1.2777e-05,0.4861,-1.3585e-05,-5.5859,0.19415
765,10.548,1.1951,0.1,5.3209e-05,531.72,5.3358e-05,536.37,-1.65e-05,11.473,-1.8284e-05,-1.9305,0.14597
766,11.271,0.60036,0.1,4.801e-05,479.77,4.8047e-05,480.89,-1.5503e-05,3.3986,-1.6105e-05,-1.1211,0.16365
767,9.1625,1.1941,0.1,6.2974e-05,629.3,6.3477e-05,644.37,-1.9201e-05,23.164,-2.1316e-05,7.2716,0.113
768,10.056,0.59474,0.1,5.7088e-05,570.49,5.72e-05,574.23,-1.745e-05,13.333,-1.9943e-05,-5.3941,0.1336
769,7.9639,0.95085,0.1,6.6442e-05,663.97,6.7427e-05,693.93,-1.8826e-05,45.861,-2.2916e-05,15.131,0.08624
770,7.7647,1.473,0.1,7.7071e-05,770.18,7.8934e-05,829.98,-1.8369e-05,98.882,-2.8081e-05,25.91,0.082393
771,8.7364,0.59935,0.1,6.683e-05,667.84,6.6596e-05,661.26,-2.1176e-05,1.769,-2.3359e-05,-14.63,0.10287
772,7.0195,0.59196,0.1,6.3544e-05,635.01,6.3134e-05,623.07,-2.0704e-05,-6.8589,-2.204e-05,-16.897,0.066298
773,7.7082,0.3515,0.1,6.5626e-05,655.81,6.5957e-05,666.03,-1.9886e-05,21.045,-2.2697e-05,-0.077587,0.080233
774,1.7246,1.1439,0.1,0.00013424,1341.4,0.00013312,1360.5,-2.1395e-05,199.5,-6.2325e-05,-108.04,0.0038538
775,2.8077,1.014,0.1,0.00012438,1242.9,0.00012522,1271.4,-3.4599e-05,70.586,-4.5292e-05,-9.7583,0.010219
776,2.2347,0.55237,0.1,0.00013369,1336,0.00013664,1426.9,-3.4941e-05,137.72,-4.6811e-05,48.54,0.0060766
777,0.57785,1.1915,0.1,0.00011864,1185.6,0.0001328,1639.6,-5.9281e-06,597.27,-3.8864e-05,349.81,0.00043886
778,1.1219,0.59149,0.1,0.00014085,1407.5,0.00013579,1329.1,-2.2341e-05,140.93,-7.1104e-05,-225.46,0.0014649
779,2.0351,4.6249,0.1,0.00013055,1304.6,0.00012937,1327,-1.9221e-05,210.47,-6.1488e-05,-107.1,0.0055021
780,0.66212,4.7441,0.1,0.00011898,1189,0.00013354,1654.1,-5.8253e-06,606.96,-3.8484e-05,361.57,0.00058406
781,1.2061,5.3441,0.1,0.00013973,1396.4,0.00013467,1311,-2.3758e-05,120.63,-6.9895e-05,-226.02,0.001745
782,3.2608,4.8644,0.1,0.00011281,1127.3,0.00011453,1183.8,-2.8784e-05,106.96,-4.1423e-05,11.993,0.013926
783,2.461,5.2808,0.1,0.00013258,1324.9,0.00013486,1394.1,-3.7121e-05,101.88,-4.5524e-05,38.747,0.00761
784,4.2167,5.2851,0.1,9.334e-05,932.76,9.1993e-05,894.71,-2.9078e-05,-14.97,-3.5008e-05,-59.52,0.022443
785,4.1861,4.9103,0.1,0.00011074,1106.7,0.00010854,1049.4,-3.1181e-05,-0.40398,-4.5293e-05,-106.44,0.022631
786,3.5198,5.5837,0.1,0.00010972,1096.5,0.00010969,1095.7,-3.5175e-05,7.2585,-3.7281e-05,-8.5643,0.015336
787,3.5916,1.3844,0.1,0.00011511,1150.3,0.00011358,1106.1,-3.7363e-05,-28.03,-4.1569e-05,-59.634,0.017074
788,3.8288,0.78955,0.1,0.00010054,1004.7,9.929e-05,969.08,-3.1831e-05,-16.118,-3.6873e-05,-53.998,0.018664
789,3.293,0.46167,0.1,0.00011979,1197.1,0.00011844,1157.7,-3.9836e-05,-31.533,-4.189e-05,-46.972,0.013409
790,6.4159,5.2616,0.1,6.3053e-05,630.09,6.0899e-05,576.82,-1.6081e-05,-1.5684,-2.8465e-05,-94.62,0.054612
791,6.0576,5.4799,0.1,4.6108e-05,460.76,4.7562e-05,504.01,-1.2538e-05,52.447,-1.4915e-05,34.586,0.047424
792,6.6324,5.7299,0.1,5.7871e-05,578.31,5.7089e-05,557.79,-1.6761e-05,2.9097,-2.266e-05,-41.409,0.058215
793,5.0489,5.4514,0.1,5.4943e-05,549.05,5.5883e-05,577.24,-1.5795e-05,38.682,-1.8511e-05,18.27,0.031244
794,4.5049,5.7014,0.1,7.8445e-05,783.91,7.817e-05,778.13,-2.2691e-05,20.299,-2.9318e-05,-29.494,0.024774
795,4.0756,2.3413,0.1,0.00011463,1145.5,0.00011578,1185.4,-2.9695e-05,92.424,-4.2816e-05,-6.1634,0.022526
796,4.6505,1.6727,0.1,0.00012024,1201.6,0.00012097,1233.7,-2.9438e-05,103.59,-4.7002e-05,-28.382,0.028464
797,6.5236,4.89,0.1,7.6273e-05,762.2,7.4513e-05,718.06,-2.0485e-05,4.2909,-3.2335e-05,-84.746,0.057127
798,5.9649,5.0317,0.1,8.1682e-05,816.26,7.7151e-05,724.34,-1.444e-05,36.158,-4.2876e-05,-177.5,0.046367
799,6.1654,4.6083,0.1,0.00010029,1002.2,9.579e-05,888.96,-2.5536e-05,-22.633,-4.7048e-05,-184.27,0.050691
800,5.0184,4.5767,0.1,0.00013083,1307.4,0.00012113,1088.5,-2.5516e-05,-13.269,-7.1139e-05,-356.06,0.032563
801,6.0676,0.49046,0.1,4.5932e-05,459.01,4.7036e-05,491.77,-1.3075e-05,40.12,-1.4989e-05,25.736,0.0475
802,6.6424,0.24046,0.1,5.8215e-05,581.75,5.7342e-05,559.59,-1.6321e-05,6.1129,-2.3367e-05,-46.823,0.058331
803,4.8878,0.57787,0.1,6.738e-05,673.33,6.9913e-05,748.94,-1.7448e-05,92.539,-2.1798e-05,59.855,0.029403
804,4.3438,0.32787,0.1,7.7401e-05,773.48,7.6402e-05,748.96,-2.1432e-05,13.874,-3.0985e-05,-57.903,0.02308
805,6.7269,3.3627,0.1,0.00011752,1174.4,0.00011557,1117.6,-3.8423e-05,-39.387,-4.2959e-05,-73.47,0.062069
806,4.865,2.4186,0.1,0.00023917,2390.1,0.0002483,2659.8,-6.5186e-05,304.39,-7.4216e-05,236.54,0.031775
807,6.3593,1.8736,0.1,0.00015872,1586.1,0.00016721,1837.4,-3.9445e-05,284.74,-4.8078e-05,219.87,0.054756
808,5.8719,3.6667,0.1,0.00019329,1931.5,0.00019676,2042.7,-4.9375e-05,193.36,-7.0003e-05,38.367,0.046626
809,5.6067,5.25,0.1,7.2736e-05,726.86,7.1116e-05,706.39,-1.2858e-05,75.445,-3.4666e-05,-88.412,0.039274
810,5.6067,5.75,0.1,3.2366e-05,323.44,3.4967e-05,425.33,6.6996e-07,167.64,-1.3339e-05,62.38,0.038378
811,5.6067,5.5,0.05,5.108e-06,51.044,3.9223e-06,29.471,-8.3198e-22,-6.2511e-15,-3.9223e-06,-29.471,0.038803
812,5.6067,4.75,0.1,0.00012063,1205.5,0.00011029,984.39,-2.0065e-05,4.9211,-6.8881e-05,-361.86,0.040295
813,5.6067,5,0.05,2.6803e-05,267.85,2.0582e-05,154.64,-4.3657e-21,-1.5972e-07,-2.0582e-05,-154.64,0.039748
814,5.6067,4.25,0.1,0.00018873,1886,0.00019079,1974.1,-4.0642e-05,235.14,-7.6037e-05,-30.807,0.041315
815,5.6067,4.5,0.05,8.6549e-06,86.489,6.6459e-06,49.935,-1.4097e-21,-1.0592e-14,-6.6459e-06,-49.935,0.040784
816,5.5233,4,0.1,0.00023331,2331.5,0.00024773,2757.3,-5.7021e-05,467.54,-6.7849e-05,386.18,0.040454
817,5.6067,4,0.05,1.6701e-05,166.9,1.2825e-05,96.358,-1.3251e-20,5.5305e-06,-1.2825e-05,-96.358,0.041753
818,5.44,4.25,0.1,0.00021065,2105.1,0.00020582,2048.7,-3.553e-05,235.27,-0.00010142,-259.8,0.038675
819,5.44,4,0.05,2.2911e-05,228.95,1.7593e-05,132.19,-1.2067e-20,-5.7291e-06,-1.7593e-05,-132.19,0.03918
820,5.44,4.75,0.1,0.00013959,1394.9,0.00012143,1065.6,-9.3741e-06,82.728,-9.1057e-05,-531,0.037411
821,5.44,4.5,0.05,2.2317e-05,223.01,1.7136e-05,128.76,-3.6349e-21,-2.7311e-14,-1.7136e-05,-128.76,0.038022
822,5.44,5.25,0.1,6.1453e-05,614.11,6.0409e-05,616.32,-8.0601e-06,101.87,-3.0076e-05,-63.552,0.036181
823,5.44,5,0.05,2.691e-05,268.92,2.0664e-05,155.26,-4.3831e-21,-3.2933e-14,-2.0664e-05,-155.26,0.036772
824,5.44,5.75,0.1,3.4715e-05,346.91,3.7442e-05,457.44,1.2705e-06,185.66,-1.4563e-05,66.696,0.035049
825,5.44,5.5,0.05,3.8717e-06,38.69,2.973e-06,22.338,9.9013e-14,-4.7382e-15,-2.973e-06,-22.338,0.035601
826,5.6067,0.75,0.1,5.9579e-05,595.38,5.9343e-05,609.25,-9.8319e-06,89.496,-2.7109e-05,-40.32,0.039175
827,5.6067,0.25,0.1,3.1868e-05,318.46,3.4051e-05,409.99,7.4251e-07,159.72,-1.3657e-05,51.528,0.038281
828,5.6067,0.5,0.05,4.3532e-06,43.502,3.3427e-06,25.116,-7.0904e-22,-5.3275e-15,-3.3427e-06,-25.116,0.038706
829,5.6067,1.25,0.1,0.00011524,1151.6,0.00010266,897.06,-1.4663e-05,15.569,-7.075e-05,-405.84,0.040175
830,5.6067,1,0.05,2.2628e-05,226.13,1.7376e-05,130.55,-3.6856e-21,-2.7693e-14,-1.7376e-05,-130.55,0.03964
831,5.6067,1.75,0.1,0.00018193,1818,0.00018122,1845.1,-3.4488e-05,224.42,-8.0423e-05,-120.71,0.041232
832,5.6067,1.5,0.05,1.3826e-05,138.16,1.0616e-05,79.767,-4.4779e-13,-1.692e-14,-1.0616e-05,-79.767,0.040676
833,5.5233,2,0.1,0.00025925,2590.7,0.00027718,3122.5,-5.8756e-05,598.36,-7.5838e-05,470.02,0.04035
834,5.6067,2,0.05,6.1853e-06,61.811,4.7496e-06,35.686,-1.0075e-21,6.4213e-05,-4.7496e-06,-35.686,0.041679
835,5.44,1.75,0.1,0.00024556,2453.9,0.0002543,2714.1,-6.5039e-05,314.73,-7.9097e-05,209.1,0.0385
836,5.44,2,0.05,2.6597e-05,265.79,2.0423e-05,153.45,-4.332e-21,-3.2549e-14,-2.0423e-05,-153.45,0.039069
837,5.44,1.25,0.1,0.00014395,1438.5,0.00014226,1407.4,-3.5149e-05,74.483,-6.068e-05,-117.35,0.037347
838,5.44,1.5,0.05,1.3853e-05,138.44,1.0637e-05,79.926,-2.2564e-21,-1.6953e-14,-1.0637e-05,-79.926,0.037895
839,5.44,0.75,0.1,0.00010712,1070.5,0.00010649,1067.2,-2.4995e-05,79.295,-4.4872e-05,-70.055,0.036092
840,5.44,1,0.05,2.7362e-05,273.43,2.1011e-05,157.87,-4.4567e-21,-3.3486e-14,-2.1011e-05,-157.87,0.036695
841,5.44,0.25,0.1,4.933e-05,492.96,5.3846e-05,636.32,-5.4034e-06,191.15,-1.6664e-05,106.54,0.034924
842,5.44,0.5,0.05,1.1503e-05,114.95,8.8328e-06,66.366,-1.8736e-21,-1.4077e-14,-8.8328e-06,-66.366,0.035493
843,6.1815,6,0.1,4.3892e-05,438.62,4.5385e-05,485.81,-9.797e-06,71.192,-1.5732e-05,26.598,0.04899
844,5.6067,6,0.05,4.2369e-06,42.34,3.2534e-06,24.445,-3.9813e-13,-1.9073e-06,-3.2534e-06,-24.445,0.037931
845,7.331,6,0.1,6.0246e-05,602.04,6.011e-05,598.43,-1.8825e-05,5.3421,-2.1157e-05,-12.181,0.071937
846,6.7563,6,0.05,8.2345e-07,8.2288,6.3231e-07,4.7509,-1.3412e-22,-1.0077e-15,-6.3231e-07,-4.7509,0.060283
847,8.4806,6,0.1,6.6574e-05,665.28,6.5605e-05,638.46,-2.0236e-05,-6.5149,-2.5414e-05,-45.419,0.096516
848,7.9058,6,0.05,2.4047e-06,24.03,1.8465e-06,13.874,3.8964e-14,4.2409e-07,-1.8465e-06,-13.874,0.084002
849,9.6302,6,0.1,6.0928e-05,608.86,6.0414e-05,594.24,-1.922e-05,-4.0982,-2.1954e-05,-24.64,0.12285
850,9.0554,6,0.05,2.9335e-06,29.314,2.2525e-06,16.925,-1.999e-13,-3.59e-15,-2.2525e-06,-16.925,0.10947
851,10.78,6,0.1,5.2122e-05,520.86,5.211e-05,520.53,-1.711e-05,0.4323,-1.7312e-05,-1.0874,0.15077
852,10.205,6,0.05,7.0139e-07,7.0091,5.3858e-07,4.0467,2.5179e-14,1.0504e-06,-5.3858e-07,-4.0467,0.13662
853,11.929,6,0.1,4.3809e-05,437.79,4.3704e-05,434.83,-1.3957e-05,1.5873,-1.5149e-05,-7.3697,0.18007
854,11.355,6,0.05,9.8442e-07,9.8374,7.5591e-07,5.6796,-1.0799e-14,1.5351e-06,-7.5591e-07,-5.6796,0.16526
855,13.079,6,0.1,3.5918e-05,358.94,3.5769e-05,354.72,-1.1388e-05,0.39833,-1.2593e-05,-8.6533,0.2105
856,12.504,6,0.05,1.1301e-06,11.293,8.6776e-07,6.52,2.0956e-13,8.0937e-07,-8.6776e-07,-6.52,0.19515
857,14.229,6,0.1,2.8943e-05,289.23,2.8779e-05,284.63,-9.1021e-06,0.0026882,-1.0299e-05,-8.9895,0.24185
858,13.654,6,0.05,1.088e-06,10.872,8.3543e-07,6.2771,8.4672e-16,1.4292e-06,-8.3543e-07,-6.2771,0.22607
859,15.378,6,0.1,2.2702e-05,226.87,2.2522e-05,221.84,-7.0273e-06,-0.18126,-8.2789e-06,-9.5854,0.27395
860,14.803,6,0.05,1.0083e-06,10.076,7.7425e-07,5.8174,-1.6423e-22,1.9096e-06,-7.7425e-07,-5.8174,0.25782
861,16.528,6,0.1,1.7289e-05,172.77,1.7087e-05,167.29,-5.2024e-06,-0.19045,-6.551e-06,-10.323,0.30662
862,15.953,6,0.05,8.185e-07,8.1794,6.2851e-07,4.7224,5.3258e-15,1.91e-06,-6.2851e-07,-4.7224,0.29022
863,17.677,6,0.1,1.2678e-05,126.69,1.2459e-05,120.9,-3.6572e-06,-0.19155,-5.06e-06,-10.732,0.33972
864,17.103,6,0.05,7.2733e-07,7.2683,5.585e-07,4.1963,2.2353e-13,1.9112e-06,-5.585e-07,-4.1963,0.32312
865,18.827,6,0.1,8.7904e-06,87.843,8.5597e-06,81.943,-2.3865e-06,-0.30217,-3.7559e-06,-10.591,0.37313
866,18.252,6,0.05,6.4874e-07,6.4829,4.9815e-07,3.7429,1.14e-13,2.6219e-06,-4.9815e-07,-3.7429,0.35639
867,19.976,6,0.1,5.6512e-06,56.473,5.4063e-06,50.541,-1.3655e-06,-0.33927,-2.6805e-06,-10.22,0.40674
868,19.402,6,0.05,5.2486e-07,5.245,4.0303e-07,3.0282,1.1394e-13,2.4553e-06,-4.0303e-07,-3.0282,0.38991
869,21.126,6,0.1,3.2779e-06,32.756,3.0079e-06,26.79,-5.9536e-07,-0.28368,-1.838e-06,-9.6207,0.44047
870,20.551,6,0.05,3.8478e-07,3.8451,2.9546e-07,2.22,1.988e-13,2.8584e-06,-2.9546e-07,-2.22,0.42359
871,22.276,6,0.1,1.6554e-06,16.542,1.3496e-06,10.628,-9.8741e-08,-0.25383,-1.1839e-06,-8.4076,0.47427
872,21.701,6,0.05,2.5344e-07,2.5326,1.9461e-07,1.4622,1.9895e-13,2.8831e-06,-1.9461e-07,-1.4622,0.45736
873,23.425,6,0.1,7.3159e-07,7.3108,4.0375e-07,1.8601,1.1601e-07,-0.30185,-6.8068e-07,-6.2879,0.50808
874,22.85,6,0.05,1.3864e-07,1.3855,1.0646e-07,0.7999,2.9531e-13,4.1506e-06,-1.0646e-07,-0.79989,0.49117
875,24,5.4,0.1,6.275e-07,6.2707,2.6181e-07,0.74484,1.8087e-07,0.13663,-6.1029e-07,-5.8078,0.52502
876,24,6,0.05,2.8209e-08,0.28189,2.166e-08,0.16275,8.0152e-13,7.2422e-06,-2.1661e-08,-0.16275,0.52499
877,24,4.2,0.1,1.0314e-06,10.307,5.1385e-07,2.7013,2.8509e-07,0.98252,-9.5793e-07,-8.3571,0.52507
878,24,4.8,0.05,5.3134e-08,0.53097,4.08e-08,0.30656,1.8241e-13,3.1962e-06,-4.08e-08,-0.30656,0.52505
879,24,3,0.1,1.2373e-06,12.365,6.0331e-07,3.1642,3.596e-07,1.3331,-1.1506e-06,-10.014,0.5251
880,24,3.6,0.05,5.7961e-08,0.57921,4.4507e-08,0.33441,1.7417e-13,3.1207e-06,-4.4507e-08,-0.3344,0.52509
881,24,1.8,0.1,1.0312e-06,10.305,5.1323e-07,2.6945,2.854e-07,0.98267,-9.5793e-07,-8.3592,0.52508
882,24,2.4,0.05,5.649e-08,0.56451,4.3377e-08,0.32592,1.7163e-13,2.6312e-06,-4.3377e-08,-0.32592,0.52509
883,24,0.6,0.1,6.263e-07,6.2587,2.6152e-07,0.74371,1.8017e-07,0.13249,-6.0915e-07,-5.7982,0.52504
884,24,1.2,0.05,5.2504e-08,0.52467,4.0316e-08,0.30292,1.7845e-13,3.1264e-06,-4.0316e-08,-0.30292,0.52506
885,1.5735e-14,1.8,0.1,0.0001012,1011.3,0.00013494,2002.8,7.452e-07,994.56,-7.0674e-08,988.43,0
886,5.2451e-15,0.6,0.1,8.3716e-05,836.58,0.00011104,1639.9,5.5932e-07,809.78,-1.1377e-06,797.03,0
887,1.0632e-14,1.2,0.05,6.6108e-06,66.062,5.0763e-06,38.141,1.2556e-14,-7.9766e-08,-5.0763e-06,-38.141,0
888,2.6226e-14,3,0.1,0.00010419,1041.2,0.00013888,2060.8,6.4371e-07,1022.1,-2.4006e-08,1017.1,0
889,2.1264e-14,2.4,0.05,1.9887e-06,19.873,1.5271e-06,11.474,-1.8868e-15,-1.1607e-08,-1.5271e-06,-11.474,0
890,3.6716e-14,4.2,0.1,0.00010243,1023.6,0.00013657,2027.2,7.8739e-07,1007,-8.9483e-08,1000.4,0
891,3.1897e-14,3.6,0.05,1.536e-06,15.349,1.1794e-06,8.8618,-6.4601e-22,-8.7894e-08,-1.1794e-06,-8.8618,0
892,4.7206e-14,5.4,0.1,8.5092e-05,850.34,0.00011328,1679.2,1.286e-06,837.68,-1.0281e-06,820.29,0
893,4.2529e-14,4.8,0.05,3.7652e-06,37.626,2.8912e-06,21.723,-5.7241e-14,1.7431e-06,-2.8912e-06,-21.723,0
894,23.425,0,0.1,7.3335e-07,7.3285,4.0528e-07,1.878,1.1653e-07,-0.29155,-6.8186e-07,-6.2903,0.50811
895,24,0,0.05,2.8296e-08,0.28276,2.1728e-08,0.16325,7.4716e-13,6.8719e-06,-2.1728e-08,-0.16326,0.52502
896,22.276,0,0.1,1.654e-06,16.529,1.3508e-06,10.659,-1.0074e-07,-0.2471,-1.1802e-06,-8.3577,0.4743
897,22.85,0,0.05,1.3875e-07,1.3866,1.0654e-07,0.80053,2.8152e-13,4.088e-06,-1.0654e-07,-0.80053,0.4912
898,21.126,0,0.1,3.2824e-06,32.801,3.0139e-06,26.862,-5.9847e-07,-0.28004,-1.8372e-06,-9.5875,0.4405
899,21.701,0,0.05,2.5366e-07,2.5349,1.9478e-07,1.4635,1.8518e-13,2.9458e-06,-1.9478e-07,-1.4635,0.45739
900,19.976,0,0.1,5.6447e-06,56.408,5.4022e-06,50.541,-1.3626e-06,-0.28649,-2.675e-06,-10.147,0.40677
901,20.551,0,0.05,3.8288e-07,3.8261,2.94e-07,2.209,1.6177e-13,2.8579e-06,-2.94e-07,-2.209,0.42362
902,18.827,0,0.1,8.7644e-06,87.584,8.5396e-06,81.825,-2.3875e-06,-0.27644,-3.7303e-06,-10.366,0.37316
903,19.402,0,0.05,5.1108e-07,5.1073,3.9245e-07,2.9487,1.1416e-13,2.7423e-06,-3.9245e-07,-2.9487,0.38994
904,17.677,0,0.1,1.2647e-05,126.39,1.2436e-05,120.75,-3.6709e-06,-0.26548,-5.019e-06,-10.395,0.33975
905,18.252,0,0.05,6.4293e-07,6.4249,4.9369e-07,3.7094,1.1391e-13,2.667e-06,-4.9369e-07,-3.7094,0.35642
906,16.528,0,0.1,1.7294e-05,172.82,1.71e-05,167.52,-5.2227e-06,-0.2049,-6.5244e-06,-9.9856,0.30665
907,17.103,0,0.05,7.6756e-07,7.6703,5.8939e-07,4.4285,1.143e-13,2.1808e-06,-5.8939e-07,-4.4285,0.32315
908,15.378,0,0.1,2.272e-05,227.05,2.2545e-05,222.16,-7.033e-06,-0.074998,-8.2756e-06,-9.4113,0.27398
909,15.953,0,0.05,8.9017e-07,8.8955,6.8354e-07,5.1358,-3.2304e-24,1.9108e-06,-6.8354e-07,-5.1358,0.29025
910,14.229,0,0.1,2.8947e-05,289.27,2.8775e-05,284.45,-9.0875e-06,-0.039082,-1.033e-05,-9.378,0.24188
911,14.803,0,0.05,1.015e-06,10.143,7.794e-07,5.8561,2.2758e-13,9.5283e-07,-7.794e-07,-5.8561,0.25785
912,13.079,0,0.1,3.592e-05,358.95,3.5744e-05,354,-1.1325e-05,0.34603,-1.2703e-05,-10.012,0.21053
913,13.654,0,0.05,1.0947e-06,10.94,8.406e-07,6.316,-1.6023e-15,1.4304e-06,-8.406e-07,-6.316,0.2261
914,11.929,0,0.1,4.3774e-05,437.44,4.3635e-05,433.55,-1.3861e-05,1.5457,-1.5281e-05,-9.1263,0.18009
915,12.504,0,0.05,1.0992e-06,10.985,8.4408e-07,6.3421,-1.4306e-14,1.4248e-06,-8.4408e-07,-6.3421,0.19518
916,10.78,0,0.1,5.1873e-05,518.37,5.1884e-05,518.72,-1.6902e-05,1.8829,-1.7309e-05,-1.1729,0.1508
917,11.355,0,0.05,9.3883e-07,9.3818,7.209e-07,5.4166,-1.5291e-22,1.5376e-06,-7.209e-07,-5.4166,0.16528
918,9.6302,0,0.1,6.0977e-05,609.35,6.0352e-05,591.36,-1.9556e-05,-9.0388,-2.1888e-05,-26.564,0.12287
919,10.205,0,0.05,8.0951e-07,8.0895,6.216e-07,4.6705,4.653e-14,5.7053e-07,-6.216e-07,-4.6705,0.13664
920,8.4806,0,0.1,6.6091e-05,660.45,6.5134e-05,633.42,-2.0609e-05,-10.82,-2.4775e-05,-42.126,0.096522
921,9.0554,0,0.05,3.344e-06,33.417,2.5678e-06,19.293,-5.4467e-22,-4.0924e-15,-2.5678e-06,-19.293,0.10948
922,7.331,0,0.1,5.889e-05,588.5,5.9067e-05,594.31,-1.7715e-05,17.401,-2.0714e-05,-5.1388,0.071936
923,7.9058,0,0.05,1.5995e-06,15.984,1.2282e-06,9.2284,-2.3845e-14,1.7331e-08,-1.2282e-06,-9.2284,0.084007
924,6.1815,0,0.1,4.3826e-05,437.96,4.5359e-05,485.34,-1.0284e-05,67.258,-1.5257e-05,29.894,0.048923
925,6.7563,0,0.05,1.7701e-06,17.689,1.3592e-06,10.213,-2.8832e-22,-2.1663e-15,-1.3592e-06,-10.213,0.060253
926,5.6067,0,0.05,4.6777e-06,46.744,3.5919e-06,26.988,-7.6189e-22,-5.7245e-15,-3.5919e-06,-26.988,0.037831
927,4.896,4.3675e-31,0.1,5.6232e-05,561.93,5.8139e-05,619.85,-1.3991e-05,77.889,-1.9051e-05,39.87,0.028315
928,5.44,4.8527e-31,0.05,6.1858e-06,61.815,4.7499e-06,35.689,-1.0075e-21,-7.5702e-15,-4.7499e-06,-35.689,0.034352
929,3.808,3.3969e-31,0.1,9.663e-05,965.63,9.5694e-05,938.64,-3.1058e-05,-13.727,-3.4519e-05,-39.727,0.017186
930,4.352,0,0.05,2.6481e-06,26.462,2.0334e-06,15.278,-4.3131e-22,-3.2407e-15,-2.0334e-06,-15.278,0.022531
931,2.72,2.4264e-31,0.1,0.00012911,1290.2,0.00012989,1313.4,-4.0158e-05,35.753,-4.3455e-05,10.977,0.008407
932,3.264,0,0.05,2.3871e-06,23.855,1.833e-06,13.773,-3.8881e-22,-2.9214e-15,-1.833e-06,-13.773,0.012444
933,1.632,1.4558e-31,0.1,0.00013991,1398.2,0.00013949,1396.9,-3.6098e-05,77.569,-5.5562e-05,-68.669,0.002685
934,2.176,0,0.05,2.812e-06,28.101,2.1593e-06,16.224,-4.5802e-22,-3.4414e-15,-2.1593e-06,-16.224,0.0051202
935,0.544,4.8527e-32,0.1,0.00010491,1048.3,0.00011402,1329.3,-1.554e-05,355.79,-3.3685e-05,219.46,0.00024869
936,1.088,0,0.05,4.5868e-06,45.836,3.5221e-06,26.464,-8.7311e-14,-5.6133e-15,-3.5221e-06,-26.464,0.0010834
937,0,0,0.05,3.548e-05,354.56,2.7245e-05,204.71,-5.779e-21,-4.3421e-14,-2.7245e-05,-204.71,0
938,0.544,6,0.1,0.0001048,1047.3,0.00011426,1334.9,-1.6576e-05,351.88,-3.235e-05,233.36,0.00026054
939,5.2451e-14,6,0.05,2.7385e-05,273.67,2.1029e-05,158,-6.0693e-14,-5.0913e-07,-2.1029e-05,-158,0
940,1.632,6,0.1,0.00014205,1419.5,0.00014062,1381.6,-4.207e-05,8.947,-5.398e-05,-80.538,0.0027096
941,1.088,6,0.05,3.8158e-06,38.131,2.93e-06,22.015,-2.8928e-13,5.5523e-06,-2.93e-06,-22.015,0.0011041
942,2.72,6,0.1,0.00012958,1294.9,0.00012992,1305.3,-4.062e-05,23.917,-4.4173e-05,-2.7817,0.0084283
943,2.176,6,0.05,3.2329e-06,32.307,2.4825e-06,18.652,-5.2657e-22,-3.9564e-15,-2.4825e-06,-18.652,0.0051384
944,3.808,6,0.1,9.4349e-05,942.84,9.5466e-05,976.12,-2.8369e-05,45.675,-3.1606e-05,21.35,0.017276
945,3.264,6,0.05,3.4574e-06,34.55,2.6549e-06,19.948,-5.6313e-22,-4.2312e-15,-2.6549e-06,-19.948,0.012501
946,4.896,6,0.1,5.9688e-05,596.47,6.2202e-05,676.91,-1.1868e-05,120.37,-2.16e-05,47.25,0.028402
947,4.352,6,0.05,2.649e-06,26.471,2.0341e-06,15.283,1.8976e-14,1.5919e-07,-2.0341e-06,-15.283,0.022611
948,5.44,6,0.05,6.7678e-06,67.631,5.1968e-06,39.047,-1.1023e-21,-8.2824e-15,-5.1968e-06,-39.047,0.034484
949,3.808,6,0,9.4349e-05,942.84,3.1606e-05,-21.35,2.8369e-05,-45.675,-9.5466e-05,-976.12,0.017276
950,4.896,6,0,5.9688e-05,596.47,2.16e-05,-47.25,1.1868e-05,-120.37,-6.2202e-05,-676.91,0.028402
951,2.72,6,0,0.00012958,1294.9,4.4173e-05,2.7817,4.062e-05,-23.917,-0.00012992,-1305.3,0.0084283
952,1.632,6,0,0.00014205,1419.5,5.398e-05,80.538,4.207e-05,-8.947,-0.00014062,-1381.6,0.0027096
953,0.544,6,0,0.0001048,1047.3,3.235e-05,-233.36,1.6576e-05,-351.88,-0.00011426,-1334.9,0.00026054
954,5.44,5.75,0,3.4715e-05,346.91,1.4563e-05,-66.696,-1.2705e-06,-185.66,-3.7442e-05,-457.44,0.035049
955,4.7206e-14,5.4,0,8.5092e-05,850.34,1.0281e-06,-820.29,-1.286e-06,-837.68,-0.00011328,-1679.2,0
956,1.632,1.4558e-31,0,0.00013991,1398.2,5.5562e-05,68.669,3.6098e-05,-77.569,-0.00013949,-1396.9,0.002685
957,0.544,4.8527e-32,0,0.00010491,1048.3,3.3685e-05,-219.46,1.554e-05,-355.79,-0.00011402,-1329.3,0.00024869
958,2.72,2.4264e-31,0,0.00012911,1290.2,4.3455e-05,-10.977,4.0158e-05,-35.753,-0.00012989,-1313.4,0.008407
959,3.808,3.3969e-31,0,9.663e-05,965.63,3.4519e-05,39.727,3.1058e-05,13.727,-9.5694e-05,-938.64,0.017186
960,4.896,4.3675e-31,0,5.6232e-05,561.93,1.9051e-05,-39.87,1.3991e-05,-77.889,-5.8139e-05,-619.85,0.028315
961,5.44,0.25,0,4.933e-05,492.96,1.6664e-05,-106.54,5.4034e-06,-191.15,-5.3846e-05,-636.32,0.034924
962,5.2451e-15,0.6,0,8.3716e-05,836.58,1.1377e-06,-797.03,-5.5932e-07,-809.78,-0.00011104,-1639.9,0
963,7.331,0,0,5.889e-05,588.5,2.0714e-05,5.1388,1.7715e-05,-17.401,-5.9067e-05,-594.31,0.071936
964,6.1815,0,0,4.3826e-05,437.96,1.5257e-05,-29.894,1.0284e-05,-67.258,-4.5359e-05,-485.34,0.048923
965,8.4806,0,0,6.6091e-05,660.45,2.4775e-05,42.126,2.0609e-05,10.82,-6.5134e-05,-633.42,0.096522
966,9.6302,0,0,6.0977e-05,609.35,2.1888e-05,26.564,1.9556e-05,9.0388,-6.0352e-05,-591.36,0.12287
967,10.78,0,0,5.1873e-05,518.37,1.7309e-05,1.1729,1.6902e-05,-1.8829,-5.1884e-05,-518.72,0.1508
968,11.929,0,0,4.3774e-05,437.44,1.5281e-05,9.1263,1.3861e-05,-1.5457,-4.3635e-05,-433.55,0.18009
969,13.079,0,0,3.592e-05,358.95,1.2703e-05,10.012,1.1325e-05,-0.34603,-3.5744e-05,-354,0.21053
970,14.229,0,0,2.8947e-05,289.27,1.033e-05,9.378,9.0875e-06,0.039082,-2.8775e-05,-284.45,0.24188
971,15.378,0,0,2.272e-05,227.05,8.2756e-06,9.4113,7.033e-06,0.074998,-2.2545e-05,-222.16,0.27398
972,16.528,0,0,1.7294e-05,172.82,6.5244e-06,9.9856,5.2227e-06,0.2049,-1.71e-05,-167.52,0.30665
973,17.677,0,0,1.2647e-05,126.39,5.019e-06,10.395,3.6709e-06,0.26548,-1.2436e-05,-120.75,0.33975
974,18.827,0,0,8.7644e-06,87.584,3.7303e-06,10.366,2.3875e-06,0.27644,-8.5396e-06,-81.825,0.37316
975,19.976,0,0,5.6447e-06,56.408,2.675e-06,10.147,1.3626e-06,0.28649,-5.4022e-06,-50.541,0.40677
976,21.126,0,0,3.2824e-06,32.801,1.8372e-06,9.5875,5.9847e-07,0.28004,-3.0139e-06,-26.862,0.4405
977,22.276,0,0,1.654e-06,16.529,1.1802e-06,8.3577,1.0074e-07,0.2471,-1.3508e-06,-10.659,0.4743
978,23.425,0,0,7.3335e-07,7.3285,6.8186e-07,6.2903,-1.1653e-07,0.29155,-4.0528e-07,-1.8779,0.50811
979,5.6067,0.25,0,3.1868e-05,318.46,1.3657e-05,-51.528,-7.4251e-07,-159.72,-3.4051e-05,-409.99,0.038281
980,24,0.6,0,6.263e-07,6.2587,6.0915e-07,5.7982,-1.8017e-07,-0.13248,-2.6152e-07,-0.7437,0.52504
981,3.6716e-14,4.2,0,0.00010243,1023.6,8.9483e-08,-1000.4,-7.8739e-07,-1007,-0.00013657,-2027.2,0
982,2.6226e-14,3,0,0.00010419,1041.2,2.4006e-08,-1017.1,-6.4371e-07,-1022.1,-0.00013888,-2060.8,0
983,1.5735e-14,1.8,0,0.0001012,1011.3,7.0674e-08,-988.43,-7.452e-07,-994.56,-0.00013494,-2002.8,0
984,24,1.8,0,1.0312e-06,10.305,9.5793e-07,8.3592,-2.854e-07,-0.98267,-5.1323e-07,-2.6945,0.52508
985,24,3,0,1.2373e-06,12.365,1.1506e-06,10.014,-3.596e-07,-1.3331,-6.0331e-07,-3.1642,0.5251
986,24,4.2,0,1.0314e-06,10.307,9.5793e-07,8.3571,-2.8509e-07,-0.98252,-5.1385e-07,-2.7013,0.52507
987,24,5.4,0,6.275e-07,6.2707,6.1029e-07,5.8078,-1.8087e-07,-0.13663,-2.6181e-07,-0.74483,0.52502
988,23.425,6,0,7.3159e-07,7.3108,6.8068e-07,6.2879,-1.1601e-07,0.30185,-4.0375e-07,-1.8601,0.50808
989,22.276,6,0,1.6554e-06,16.542,1.1839e-06,8.4076,9.874e-08,0.25383,-1.3496e-06,-10.628,0.47427
990,21.126,6,0,3.2779e-06,32.756,1.838e-06,9.6207,5.9536e-07,0.28368,-3.0079e-06,-26.79,0.44047
991,19.976,6,0,5.6512e-06,56.473,2.6805e-06,10.22,1.3655e-06,0.33927,-5.4063e-06,-50.541,0.40674
992,18.827,6,0,8.7904e-06,87.843,3.7559e-06,10.591,2.3865e-06,0.30217,-8.5597e-06,-81.943,0.37313
993,17.677,6,0,1.2678e-05,126.69,5.06e-06,10.732,3.6572e-06,0.19155,-1.2459e-05,-120.9,0.33972
994,16.528,6,0,1.7289e-05,172.77,6.551e-06,10.323,5.2024e-06,0.19045,-1.7087e-05,-167.29,0.30662
995,15.378,6,0,2.2702e-05,226.87,8.2789e-06,9.5854,7.0273e-06,0.18126,-2.2522e-05,-221.84,0.27395
996,14.229,6,0,2.8943e-05,289.23,1.0299e-05,8.9895,9.1021e-06,-0.0026887,-2.8779e-05,-284.63,0.24185
997,13.079,6,0,3.5918e-05,358.94,1.2593e-05,8.6533,1.1388e-05,-0.39833,-3.5769e-05,-354.72,0.2105
998,11.929,6,0,4.3809e-05,437.79,1.5149e-05,7.3697,1.3957e-05,-1.5873,-4.3704e-05,-434.83,0.18007
999,10.78,6,0,5.2122e-05,520.86,1.7312e-05,1.0874,1.711e-05,-0.4323,-5.211e-05,-520.53,0.15077
1000,9.6302,6,0,6.0928e-05,608.86,2.1954e-05,24.64,1.922e-05,4.0982,-6.0414e-05,-594.24,0.12285
1001,8.4806,6,0,6.6574e-05,665.28,2.5414e-05,45.419,2.0236e-05,6.5149,-6.5605e-05,-638.46,0.096516
1002,7.331,6,0,6.0246e-05,602.04,2.1157e-05,12.181,1.8825e-05,-5.3421,-6.011e-05,-598.43,0.071937
1003,6.1815,6,0,4.3892e-05,438.62,1.5732e-05,-26.598,9.797e-06,-71.192,-4.5385e-05,-485.81,0.04899
1004,5.6067,5.75,0,3.2366e-05,323.44,1.3339e-05,-62.38,-6.6996e-07,-167.64,-3.4967e-05,-425.33,0.038378
1005,5.44,1.25,0,0.00014395,1438.5,6.068e-05,117.35,3.5149e-05,-74.483,-0.00014226,-1407.4,0.037347
1006,5.44,1.75,0,0.00024556,2453.9,7.9097e-05,-209.1,6.5039e-05,-314.73,-0.0002543,-2714.1,0.0385
1007,5.44,0.75,0,0.00010712,1070.5,4.4872e-05,70.055,2.4995e-05,-79.295,-0.00010649,-1067.2,0.036092
1008,5.5233,2,0,0.00025925,2590.7,7.5838e-05,-470.02,5.8756e-05,-598.36,-0.00027718,-3122.5,0.04035
1009,5.6067,0.75,0,5.9579e-05,595.38,2.7109e-05,40.32,9.8319e-06,-89.496,-5.9343e-05,-609.25,0.039175
1010,5.6067,1.25,0,0.00011524,1151.6,7.075e-05,405.84,1.4663e-05,-15.569,-0.00010266,-897.06,0.040175
1011,5.6067,1.75,0,0.00018193,1818,8.0423e-05,120.71,3.4488e-05,-224.42,-0.00018122,-1845.1,0.041232
1012,5.44,4.75,0,0.00013959,1394.9,9.1057e-05,531,9.3741e-06,-82.728,-0.00012143,-1065.6,0.037411
1013,5.44,4.25,0,0.00021065,2105.1,0.00010142,259.8,3.553e-05,-235.27,-0.00020582,-2048.7,0.038675
1014,5.44,5.25,0,6.1453e-05,614.11,3.0076e-05,63.552,8.0601e-06,-101.87,-6.0409e-05,-616.32,0.036181
1015,5.5233,4,0,0.00023331,2331.5,6.7849e-05,-386.18,5.7021e-05,-467.54,-0.00024773,-2757.3,0.040454
1016,5.6067,5.25,0,7.2736e-05,726.86,3.4666e-05,88.412,1.2858e-05,-75.445,-7.1116e-05,-706.39,0.039274
1017,5.6067,4.75,0,0.00012063,1205.5,6.8881e-05,361.86,2.0065e-05,-4.9211,-0.00011029,-984.39,0.040295
1018,5.6067,4.25,0,0.00018873,1886,7.6037e-05,30.807,4.0642e-05,-235.14,-0.00019079,-1974.1,0.041315
