Node Numbers,X Locations (inches),Y Locations (inches),Z Locations (inches),Equivalent Elastic Strains (in/in),Equivalent Stress (psi),Max Principal Elastic Strain (in/in),Max Principal Stress (psi),Middle Principal Elastic Strain (in/in),Middle Principal Stress (psi),Min Principal Elastic Strain (in/in),Min Principal Stress (psi),Total Deformation (in)
1,2.7256,3.0963,0,0.00028303,2828.3,9.5881e-05,-32.464,8.6181e-05,-105.35,-0.0002853,-2896.5,0.011562
2,3.8117,2.908,0,0.00014468,1445.8,6.8775e-05,275.09,3.601e-05,28.908,-0.00013792,-1277.9,0.024237
3,1.8253,0.82454,0,0.00010825,1081.8,3.6009e-05,-67.281,2.9006e-05,-119.9,-0.00011134,-1174.4,0.0039628
4,1.8678,2.5338,0,0.0001435,1434,5.3204e-05,-87.515,2.8698e-05,-271.64,-0.00014872,-1604.7,0.0051818
5,4.132,0.62871,0,7.5648e-05,755.96,3.0924e-05,75.601,2.1605e-05,5.5779,-7.4023e-05,-712.93,0.026111
6,2.0098,5.0214,0,0.00012487,1247.9,4.2911e-05,12.789,3.9487e-05,-12.94,-0.00012486,-1247.8,0.0050687
7,4.4587,4.5772,0,0.00011873,1186.5,5.0242e-05,156.81,3.4466e-05,38.28,-0.00011497,-1084.5,0.033416
8,3.8832,5.01,0,7.6404e-05,763.51,3.3648e-05,96.283,1.9277e-05,-11.688,-7.4389e-05,-715.46,0.024248
9,1.1058,4.5264,0,0.00013722,1371.3,7.974e-05,308.38,8.1091e-06,-229.82,-0.00012772,-1250.4,0.0016965
10,4.0539,5.4554,0,8.0642e-05,805.87,3.2363e-05,96.999,2.5673e-05,46.736,-7.8079e-05,-732.82,0.026325
11,0.88128,2.106,0,0.00015648,1563.7,9.2545e-05,348.69,4.9668e-06,-309.34,-0.00014505,-1436.5,0.0011108
12,0.88256,1.0328,0,0.0001372,1371.1,7.7875e-05,295.42,1.1006e-05,-207.01,-0.00012861,-1256,0.00095997
13,0.93129,3.2309,0,0.00016219,1620.7,9.6431e-05,380.2,6.1081e-06,-298.45,-0.00014976,-1469.6,0.0013067
14,5.1925,0.96185,0,9.2464e-05,924,3.4172e-05,38.022,2.7731e-05,-10.373,-9.1898e-05,-909.22,0.044112
15,6.1519,1.2399,0,9.1237e-05,911.74,3.0521e-05,-8.3834,2.8638e-05,-22.537,-9.1755e-05,-927.12,0.061983
16,7.3473,1.3147,0,8.0529e-05,804.74,2.9563e-05,9.2839,2.2259e-05,-45.593,-8.1007e-05,-821.49,0.086229
17,8.649,1.2523,0,6.8618e-05,685.71,2.2919e-05,-7.651,2.1475e-05,-18.498,-6.9057e-05,-698.72,0.11511
18,9.9105,1.2109,0,5.8288e-05,582.48,1.9325e-05,-2.3726,1.8866e-05,-5.8238,-5.8427e-05,-586.57,0.14536
19,11.15,1.199,0,4.8854e-05,488.2,1.6183e-05,-0.003203,1.6019e-05,-1.2334,-4.8875e-05,-488.82,0.17693
20,12.34,1.1942,0,4.0416e-05,403.88,1.3681e-05,3.6004,1.3084e-05,-0.88661,-4.0368e-05,-402.5,0.20864
21,13.524,1.1828,0,3.2847e-05,328.24,1.1352e-05,5.8035,1.0502e-05,-0.58058,-3.2754e-05,-325.59,0.24133
22,14.688,1.1814,0,2.614e-05,261.22,9.266e-06,7.2715,8.2038e-06,-0.70976,-2.6019e-05,-257.85,0.27434
23,15.851,1.1823,0,2.0245e-05,202.31,7.3745e-06,7.9842,6.2281e-06,-0.62914,-2.0106e-05,-198.49,0.30805
24,17.011,1.1853,0,1.5123e-05,151.13,5.7191e-06,8.3987,4.5118e-06,-0.67224,-1.4972e-05,-147.06,0.34218
25,18.176,1.1864,0,1.0776e-05,107.69,4.2912e-06,8.5496,3.0721e-06,-0.6104,-1.0612e-05,-103.43,0.37687
26,19.338,1.1897,0,7.215e-06,72.1,3.1182e-06,8.6236,1.8859e-06,-0.63559,-7.0343e-06,-67.658,0.41176
27,20.5,1.1915,0,4.4347e-06,44.316,2.1827e-06,8.5013,9.6393e-07,-0.65575,-4.2296e-06,-39.678,0.44682
28,21.672,1.1968,0,2.445e-06,24.433,1.485e-06,8.2316,3.0565e-07,-0.62972,-2.1919e-06,-19.396,0.48229
29,22.835,1.1964,0,1.2638e-06,12.629,1.0145e-06,7.6424,-9.2045e-08,-0.67148,-9.1966e-07,-6.8899,0.51756
30,22.832,2.3954,0,1.5957e-06,15.946,1.3564e-06,10.676,-2.3722e-07,-1.2982,-1.0528e-06,-7.4258,0.51787
31,22.831,3.6017,0,1.5952e-06,15.941,1.355e-06,10.66,-2.351e-07,-1.2867,-1.0541e-06,-7.4401,0.51821
32,22.831,4.8044,0,1.2645e-06,12.637,1.0134e-06,7.6191,-9.0531e-08,-0.67552,-9.2224e-07,-6.9247,0.51853
33,21.667,4.7994,0,2.4513e-06,24.496,1.4887e-06,8.2526,3.0672e-07,-0.62844,-2.1976e-06,-19.445,0.48325
34,20.501,4.8006,0,4.4439e-06,44.408,2.1879e-06,8.5236,9.6488e-07,-0.66596,-4.2382e-06,-39.76,0.44794
35,19.337,4.7921,0,7.2156e-06,72.106,3.1189e-06,8.6032,1.8833e-06,-0.68033,-7.0358e-06,-67.695,0.41282
36,18.174,4.7639,0,1.0788e-05,107.8,4.2976e-06,8.5972,3.0756e-06,-0.58436,-1.0622e-05,-103.5,0.37791
37,17.009,4.7369,0,1.514e-05,151.29,5.723e-06,8.4184,4.5215e-06,-0.60933,-1.4987e-05,-147.19,0.34323
38,15.849,4.7229,0,2.0256e-05,202.42,7.3754e-06,7.9788,6.2365e-06,-0.57859,-2.0117e-05,-198.59,0.3091
39,14.687,4.7165,0,2.6163e-05,261.45,9.2755e-06,7.354,8.2151e-06,-0.61342,-2.6039e-05,-257.98,0.27542
40,13.527,4.7139,0,3.2818e-05,327.95,1.1381e-05,6.3472,1.0476e-05,-0.45457,-3.2712e-05,-324.95,0.24253
41,12.356,4.7445,0,4.0282e-05,402.54,1.3685e-05,4.1805,1.3012e-05,-0.87364,-4.0224e-05,-400.87,0.21019
42,11.178,4.7769,0,4.8717e-05,486.83,1.6228e-05,1.1084,1.5922e-05,-1.1854,-4.8718e-05,-486.86,0.17877
43,9.947,4.7671,0,5.7958e-05,579.18,1.9194e-05,-1.1265,1.8909e-05,-3.2662,-5.8032e-05,-581.37,0.14737
44,8.704,4.7604,0,6.7947e-05,679,2.2197e-05,-11.236,2.1775e-05,-14.409,-6.8383e-05,-691.82,0.11745
45,7.4813,4.7665,0,7.9833e-05,797.77,2.9363e-05,17.894,2.2787e-05,-31.522,-7.9949e-05,-803.44,0.090072
46,6.2221,4.8977,0,9.2232e-05,921.68,3.3839e-05,23.111,2.6707e-05,-30.476,-9.224e-05,-924.19,0.064332
47,5.1848,5.1739,0,9.0873e-05,908.11,3.2677e-05,16.363,2.6879e-05,-27.203,-9.0979e-05,-912.74,0.045105
48,5.4337,2.571,0,0.00010067,1006,4.2439e-05,3.77,1.6783e-05,-189,-0.00010243,-1084.7,0.049753
49,7.09,2.5192,0,8.2094e-05,820.37,2.9939e-05,-6.7469,2.1507e-05,-70.1,-8.3217e-05,-856.96,0.08174
50,8.5369,2.4467,0,6.9109e-05,690.61,2.4674e-05,1.9216,1.9765e-05,-34.966,-6.9597e-05,-706.39,0.11344
51,9.8575,2.4014,0,5.8036e-05,579.96,1.9724e-05,-0.92855,1.8094e-05,-13.175,-5.8266e-05,-586.91,0.14493
52,11.129,2.3762,0,4.8678e-05,486.45,1.6107e-05,-0.81322,1.5917e-05,-2.244,-4.873e-05,-487.98,0.1772
53,12.338,2.3751,0,4.0227e-05,401.99,1.3647e-05,3.7415,1.2988e-05,-1.2085,-4.0182e-05,-400.7,0.20935
54,13.524,2.3698,0,3.2776e-05,327.54,1.1456e-05,7.073,1.0377e-05,-1.035,-3.2666e-05,-324.44,0.24202
55,14.688,2.3677,0,2.6132e-05,261.14,9.405e-06,8.634,8.0818e-06,-1.3079,-2.5993e-05,-257.33,0.27497
56,15.85,2.3699,0,2.0265e-05,202.51,7.5349e-06,9.5433,6.1111e-06,-1.154,-2.0101e-05,-198.1,0.30861
57,17.011,2.3716,0,1.5161e-05,151.51,5.8995e-06,10.108,4.387e-06,-1.256,-1.4979e-05,-146.76,0.34271
58,18.175,2.3754,0,1.0835e-05,108.27,4.4942e-06,10.425,2.9364e-06,-1.2806,-1.0632e-05,-103.22,0.37735
59,19.337,2.3801,0,7.3029e-06,72.979,3.3311e-06,10.567,1.7581e-06,-1.252,-7.0723e-06,-67.6,0.41219
60,20.499,2.3944,0,4.5737e-06,45.705,2.4232e-06,10.655,8.3708e-07,-1.262,-4.2957e-06,-39.828,0.44723
61,21.668,2.401,0,2.6617e-06,26.599,1.7657e-06,10.711,1.7456e-07,-1.2444,-2.2908e-06,-19.768,0.48258
62,21.661,3.6003,0,2.6693e-06,26.674,1.7666e-06,10.683,1.786e-07,-1.2483,-2.3004e-06,-19.874,0.48274
63,20.496,3.5982,0,4.5778e-06,45.747,2.4219e-06,10.589,8.3718e-07,-1.3175,-4.3023e-06,-39.933,0.4475
64,19.331,3.5742,0,7.3189e-06,73.139,3.3343e-06,10.51,1.7618e-06,-1.3057,-7.0904e-06,-67.817,0.41237
65,18.17,3.5634,0,1.0854e-05,108.47,4.491e-06,10.317,2.9501e-06,-1.2603,-1.0653e-05,-103.47,0.37756
66,17.009,3.5563,0,1.517e-05,151.6,5.8966e-06,10.032,4.3931e-06,-1.265,-1.4989e-05,-146.9,0.34302
67,15.847,3.5457,0,2.0276e-05,202.62,7.5426e-06,9.5286,6.1065e-06,-1.2618,-2.0114e-05,-198.27,0.30889
68,14.686,3.541,0,2.6148e-05,261.3,9.3885e-06,8.4444,8.1079e-06,-1.178,-2.6011e-05,-257.54,0.27528
69,13.513,3.5453,0,3.283e-05,328.08,1.146e-05,6.8356,1.0397e-05,-1.1523,-3.2726e-05,-325.16,0.24209
70,12.339,3.5495,0,4.0213e-05,401.85,1.3708e-05,4.1979,1.2912e-05,-1.7892,-4.0168e-05,-400.61,0.20973
71,11.164,3.5647,0,4.848e-05,484.47,1.6031e-05,-0.2698,1.592e-05,-1.1037,-4.8504e-05,-485.15,0.17848
72,9.8777,3.5805,0,5.7792e-05,577.52,1.9459e-05,-1.6727,1.826e-05,-10.678,-5.7997e-05,-583.65,0.14579
73,8.5495,3.5929,0,6.8975e-05,689.27,2.4512e-05,0.40748,1.9786e-05,-35.1,-6.9496e-05,-705.93,0.11407
74,7.0737,3.635,0,8.3206e-05,831.48,3.0452e-05,0.47744,2.2301e-05,-60.764,-8.4062e-05,-859.93,0.081707
75,5.3318,3.7934,0,9.8394e-05,983.26,4.057e-05,-14.378,1.6366e-05,-196.23,-0.00010071,-1075.9,0.048243
76,1.8187,1.6575,0,0.00012197,1218.9,4.6707e-05,-82.642,2.076e-05,-277.6,-0.00012692,-1387.2,0.0045004
77,2.0089,3.3214,0,0.00015143,1513.2,5.0124e-05,-40.821,4.5959e-05,-72.112,-0.00015332,-1569.4,0.0061356
78,2.2641,4.0076,0,0.00016281,1627,5.7387e-05,38.807,5.1056e-05,-8.7674,-0.00016225,-1611.4,0.0074677
79,3.2204,2.9006,0,0.00020002,1998.9,9.6265e-05,354.73,4.4899e-05,-31.209,-0.0001917,-1808.9,0.016676
80,3.9495,1.1912,0,9.8686e-05,986.18,4.9004e-05,183.39,1.9985e-05,-34.645,-9.433e-05,-893.56,0.024273
81,4.7164,1.7395,0,0.00011186,1117.8,4.4238e-05,59.613,2.9647e-05,-50.016,-0.00011129,-1109,0.036937
82,3.7863,2.0605,0,0.00014205,1419.5,5.6858e-05,27.394,3.1703e-05,-161.61,-0.00014338,-1477.1,0.023116
83,2.6135,3.9753,0,0.00023065,2304.9,0.00012482,668.83,5.0549e-05,110.78,-0.00021226,-1863.9,0.010065
84,2.7513,3.6913,0,0.00030279,3025.8,0.000124,64.296,6.2838e-05,-395.28,-0.00030579,-3165,0.011554
85,3.6243,1.5851,0,0.00012199,1219.1,5.6318e-05,195.42,2.9957e-05,-2.6402,-0.0001175,-1110.6,0.020166
86,3.6243,1.5851,0.1,0.00012199,1219.1,0.0001175,1110.6,-2.9957e-05,2.6402,-5.6318e-05,-195.42,0.020166
87,2.7513,3.6913,0.1,0.00030279,3025.8,0.00030579,3165,-6.2838e-05,395.28,-0.000124,-64.296,0.011554
88,2.6135,3.9753,0.1,0.00023065,2304.9,0.00021226,1863.9,-5.0549e-05,-110.78,-0.00012482,-668.83,0.010065
89,3.7863,2.0605,0.1,0.00014205,1419.5,0.00014338,1477.1,-3.1703e-05,161.61,-5.6858e-05,-27.394,0.023116
90,4.7164,1.7395,0.1,0.00011186,1117.8,0.00011129,1109,-2.9647e-05,50.016,-4.4238e-05,-59.613,0.036937
91,3.9495,1.1912,0.1,9.8686e-05,986.18,9.433e-05,893.56,-1.9985e-05,34.645,-4.9004e-05,-183.39,0.024273
92,3.2204,2.9006,0.1,0.00020002,1998.9,0.0001917,1808.9,-4.4899e-05,31.209,-9.6265e-05,-354.73,0.016676
93,2.2641,4.0076,0.1,0.00016281,1627,0.00016225,1611.4,-5.1056e-05,8.7674,-5.7387e-05,-38.807,0.0074677
94,2.0089,3.3214,0.1,0.00015143,1513.2,0.00015332,1569.4,-4.5959e-05,72.112,-5.0124e-05,40.821,0.0061356
95,1.8187,1.6575,0.1,0.00012197,1218.9,0.00012692,1387.2,-2.076e-05,277.6,-4.6707e-05,82.642,0.0045004
96,5.3318,3.7934,0.1,9.8394e-05,983.26,0.00010071,1075.9,-1.6366e-05,196.23,-4.057e-05,14.378,0.048243
97,7.0737,3.635,0.1,8.3206e-05,831.48,8.4062e-05,859.93,-2.2301e-05,60.764,-3.0452e-05,-0.47744,0.081707
98,8.5495,3.5929,0.1,6.8975e-05,689.27,6.9496e-05,705.93,-1.9786e-05,35.1,-2.4512e-05,-0.40748,0.11407
99,9.8777,3.5805,0.1,5.7792e-05,577.52,5.7997e-05,583.65,-1.826e-05,10.678,-1.9459e-05,1.6727,0.14579
100,11.164,3.5647,0.1,4.848e-05,484.47,4.8504e-05,485.15,-1.592e-05,1.1037,-1.6031e-05,0.2698,0.17848
101,12.339,3.5495,0.1,4.0213e-05,401.85,4.0168e-05,400.61,-1.2912e-05,1.7892,-1.3708e-05,-4.1979,0.20973
102,13.513,3.5453,0.1,3.283e-05,328.08,3.2726e-05,325.16,-1.0397e-05,1.1523,-1.146e-05,-6.8356,0.24209
103,14.686,3.541,0.1,2.6148e-05,261.3,2.6011e-05,257.54,-8.1079e-06,1.178,-9.3885e-06,-8.4444,0.27528
104,15.847,3.5457,0.1,2.0276e-05,202.62,2.0114e-05,198.27,-6.1065e-06,1.2618,-7.5426e-06,-9.5286,0.30889
105,17.009,3.5563,0.1,1.517e-05,151.6,1.4989e-05,146.9,-4.3931e-06,1.265,-5.8966e-06,-10.032,0.34302
106,18.17,3.5634,0.1,1.0854e-05,108.47,1.0653e-05,103.47,-2.9501e-06,1.2603,-4.491e-06,-10.317,0.37756
107,19.331,3.5742,0.1,7.3189e-06,73.139,7.0904e-06,67.817,-1.7618e-06,1.3057,-3.3343e-06,-10.51,0.41237
108,20.496,3.5982,0.1,4.5778e-06,45.747,4.3023e-06,39.933,-8.3718e-07,1.3175,-2.4219e-06,-10.589,0.4475
109,21.661,3.6003,0.1,2.6693e-06,26.674,2.3004e-06,19.874,-1.786e-07,1.2483,-1.7666e-06,-10.683,0.48274
110,21.668,2.401,0.1,2.6617e-06,26.599,2.2908e-06,19.768,-1.7456e-07,1.2444,-1.7657e-06,-10.711,0.48258
111,20.499,2.3944,0.1,4.5737e-06,45.705,4.2957e-06,39.828,-8.3708e-07,1.262,-2.4232e-06,-10.655,0.44723
112,19.337,2.3801,0.1,7.3029e-06,72.979,7.0723e-06,67.6,-1.7581e-06,1.252,-3.3311e-06,-10.567,0.41219
113,18.175,2.3754,0.1,1.0835e-05,108.27,1.0632e-05,103.22,-2.9364e-06,1.2806,-4.4942e-06,-10.425,0.37735
114,17.011,2.3716,0.1,1.5161e-05,151.51,1.4979e-05,146.76,-4.387e-06,1.256,-5.8995e-06,-10.108,0.34271
115,15.85,2.3699,0.1,2.0265e-05,202.51,2.0101e-05,198.1,-6.1111e-06,1.154,-7.5349e-06,-9.5433,0.30861
116,14.688,2.3677,0.1,2.6132e-05,261.14,2.5993e-05,257.33,-8.0818e-06,1.3079,-9.405e-06,-8.634,0.27497
117,13.524,2.3698,0.1,3.2776e-05,327.54,3.2666e-05,324.44,-1.0377e-05,1.035,-1.1456e-05,-7.0729,0.24202
118,12.338,2.3751,0.1,4.0227e-05,401.99,4.0182e-05,400.7,-1.2988e-05,1.2085,-1.3647e-05,-3.7415,0.20935
119,11.129,2.3762,0.1,4.8678e-05,486.45,4.873e-05,487.98,-1.5917e-05,2.244,-1.6107e-05,0.81321,0.1772
120,9.8575,2.4014,0.1,5.8036e-05,579.96,5.8266e-05,586.91,-1.8094e-05,13.175,-1.9724e-05,0.92855,0.14493
121,8.5369,2.4467,0.1,6.9109e-05,690.61,6.9597e-05,706.39,-1.9765e-05,34.966,-2.4674e-05,-1.9216,0.11344
122,7.09,2.5192,0.1,8.2094e-05,820.37,8.3217e-05,856.96,-2.1507e-05,70.1,-2.9939e-05,6.7469,0.08174
123,5.4337,2.571,0.1,0.00010067,1006,0.00010243,1084.7,-1.6783e-05,189,-4.2439e-05,-3.77,0.049753
124,5.1848,5.1739,0.1,9.0873e-05,908.11,9.0979e-05,912.74,-2.6879e-05,27.203,-3.2677e-05,-16.363,0.045105
125,6.2221,4.8977,0.1,9.2232e-05,921.68,9.224e-05,924.19,-2.6707e-05,30.476,-3.3839e-05,-23.111,0.064332
126,7.4813,4.7665,0.1,7.9833e-05,797.77,7.9949e-05,803.44,-2.2787e-05,31.522,-2.9363e-05,-17.894,0.090072
127,8.704,4.7604,0.1,6.7947e-05,679,6.8383e-05,691.82,-2.1775e-05,14.409,-2.2197e-05,11.236,0.11745
128,9.947,4.7671,0.1,5.7958e-05,579.18,5.8032e-05,581.37,-1.8909e-05,3.2662,-1.9194e-05,1.1265,0.14737
129,11.178,4.7769,0.1,4.8717e-05,486.83,4.8718e-05,486.86,-1.5922e-05,1.1854,-1.6228e-05,-1.1084,0.17877
130,12.356,4.7445,0.1,4.0282e-05,402.54,4.0224e-05,400.87,-1.3012e-05,0.87364,-1.3685e-05,-4.1805,0.21019
131,13.527,4.7139,0.1,3.2818e-05,327.95,3.2712e-05,324.95,-1.0476e-05,0.45457,-1.1381e-05,-6.3472,0.24253
132,14.687,4.7165,0.1,2.6163e-05,261.45,2.6039e-05,257.98,-8.2151e-06,0.61342,-9.2755e-06,-7.354,0.27542
133,15.849,4.7229,0.1,2.0256e-05,202.42,2.0117e-05,198.59,-6.2365e-06,0.57859,-7.3754e-06,-7.9788,0.3091
134,17.009,4.7369,0.1,1.514e-05,151.29,1.4987e-05,147.19,-4.5215e-06,0.60933,-5.723e-06,-8.4184,0.34323
135,18.174,4.7639,0.1,1.0788e-05,107.8,1.0622e-05,103.5,-3.0756e-06,0.58436,-4.2976e-06,-8.5972,0.37791
136,19.337,4.7921,0.1,7.2156e-06,72.106,7.0358e-06,67.695,-1.8833e-06,0.68033,-3.1189e-06,-8.6032,0.41282
137,20.501,4.8006,0.1,4.4439e-06,44.408,4.2382e-06,39.76,-9.6488e-07,0.66596,-2.1879e-06,-8.5236,0.44794
138,21.667,4.7994,0.1,2.4513e-06,24.496,2.1976e-06,19.445,-3.0672e-07,0.62844,-1.4887e-06,-8.2526,0.48325
139,22.831,4.8044,0.1,1.2645e-06,12.637,9.2224e-07,6.9247,9.0531e-08,0.67552,-1.0134e-06,-7.6191,0.51853
140,22.831,3.6017,0.1,1.5952e-06,15.941,1.0541e-06,7.4401,2.351e-07,1.2867,-1.355e-06,-10.66,0.51821
141,22.832,2.3954,0.1,1.5957e-06,15.946,1.0528e-06,7.4258,2.3722e-07,1.2982,-1.3564e-06,-10.676,0.51787
142,22.835,1.1964,0.1,1.2638e-06,12.629,9.1966e-07,6.8899,9.2044e-08,0.67148,-1.0145e-06,-7.6424,0.51756
143,21.672,1.1968,0.1,2.445e-06,24.433,2.1919e-06,19.396,-3.0565e-07,0.62972,-1.485e-06,-8.2316,0.48229
144,20.5,1.1915,0.1,4.4347e-06,44.316,4.2296e-06,39.678,-9.6393e-07,0.65575,-2.1827e-06,-8.5013,0.44682
145,19.338,1.1897,0.1,7.215e-06,72.1,7.0343e-06,67.658,-1.8859e-06,0.63559,-3.1182e-06,-8.6236,0.41176
146,18.176,1.1864,0.1,1.0776e-05,107.69,1.0612e-05,103.43,-3.0721e-06,0.6104,-4.2912e-06,-8.5496,0.37687
147,17.011,1.1853,0.1,1.5123e-05,151.13,1.4972e-05,147.06,-4.5118e-06,0.67224,-5.7191e-06,-8.3987,0.34218
148,15.851,1.1823,0.1,2.0245e-05,202.31,2.0106e-05,198.49,-6.2281e-06,0.62914,-7.3745e-06,-7.9842,0.30805
149,14.688,1.1814,0.1,2.614e-05,261.22,2.6019e-05,257.85,-8.2038e-06,0.70976,-9.266e-06,-7.2715,0.27434
150,13.524,1.1828,0.1,3.2847e-05,328.24,3.2754e-05,325.59,-1.0502e-05,0.58058,-1.1352e-05,-5.8035,0.24133
151,12.34,1.1942,0.1,4.0416e-05,403.88,4.0368e-05,402.5,-1.3084e-05,0.88661,-1.3681e-05,-3.6004,0.20864
152,11.15,1.199,0.1,4.8854e-05,488.2,4.8875e-05,488.82,-1.6019e-05,1.2334,-1.6183e-05,0.0032048,0.17693
153,9.9105,1.2109,0.1,5.8288e-05,582.48,5.8427e-05,586.57,-1.8866e-05,5.8238,-1.9325e-05,2.3726,0.14536
154,8.649,1.2523,0.1,6.8618e-05,685.71,6.9057e-05,698.72,-2.1475e-05,18.498,-2.2919e-05,7.651,0.11511
155,7.3473,1.3147,0.1,8.0529e-05,804.74,8.1007e-05,821.49,-2.2259e-05,45.593,-2.9563e-05,-9.2839,0.086229
156,6.1519,1.2399,0.1,9.1237e-05,911.74,9.1755e-05,927.12,-2.8638e-05,22.537,-3.0521e-05,8.3834,0.061983
157,5.1925,0.96185,0.1,9.2464e-05,924,9.1898e-05,909.22,-2.7731e-05,10.373,-3.4172e-05,-38.022,0.044112
158,0.93129,3.2309,0.1,0.00016219,1620.7,0.00014976,1469.6,-6.1081e-06,298.45,-9.6431e-05,-380.2,0.0013067
159,0.88256,1.0328,0.1,0.0001372,1371.1,0.00012861,1256,-1.1006e-05,207.01,-7.7875e-05,-295.42,0.00095997
160,0.88128,2.106,0.1,0.00015648,1563.7,0.00014505,1436.5,-4.9668e-06,309.34,-9.2545e-05,-348.69,0.0011108
161,4.0539,5.4554,0.1,8.0642e-05,805.87,7.8079e-05,732.82,-2.5673e-05,-46.736,-3.2363e-05,-96.999,0.026325
162,1.1058,4.5264,0.1,0.00013722,1371.3,0.00012772,1250.4,-8.1091e-06,229.82,-7.974e-05,-308.38,0.0016965
163,3.8832,5.01,0.1,7.6404e-05,763.51,7.4389e-05,715.46,-1.9277e-05,11.688,-3.3648e-05,-96.283,0.024248
164,4.4587,4.5772,0.1,0.00011873,1186.5,0.00011497,1084.5,-3.4466e-05,-38.28,-5.0242e-05,-156.81,0.033416
165,2.0098,5.0214,0.1,0.00012487,1247.9,0.00012486,1247.8,-3.9487e-05,12.94,-4.2911e-05,-12.789,0.0050687
166,4.132,0.62871,0.1,7.5648e-05,755.96,7.4023e-05,712.93,-2.1605e-05,-5.5779,-3.0924e-05,-75.601,0.026111
167,1.8678,2.5338,0.1,0.0001435,1434,0.00014872,1604.7,-2.8698e-05,271.64,-5.3204e-05,87.515,0.0051818
168,1.8253,0.82454,0.1,0.00010825,1081.8,0.00011134,1174.4,-2.9006e-05,119.9,-3.6009e-05,67.281,0.0039628
169,3.8117,2.908,0.1,0.00014468,1445.8,0.00013792,1277.9,-3.601e-05,-28.908,-6.8775e-05,-275.09,0.024237
170,2.7256,3.0963,0.1,0.00028303,2828.3,0.0002853,2896.5,-8.6181e-05,105.35,-9.5881e-05,32.464,0.011562
171,3.0667,5.5,0.1,4.4013e-05,439.83,4.9282e-05,604.93,-3.3327e-06,209.61,-1.3773e-05,131.16,0.011575
172,3.0667,5,0.1,0.00014745,1473.5,0.00013268,1228,-1.0087e-05,155.22,-9.0919e-05,-452.12,0.012522
173,3.0667,4.5,0.1,0.00015433,1542.3,0.00014459,1296.4,-3.848e-05,-79.138,-7.7317e-05,-370.95,0.013498
174,3.0667,4,0.1,0.00025546,2552.8,0.00028319,3372.5,-4.7763e-05,885.86,-6.4741e-05,758.3,0.014291
175,2.9,4,0.1,0.00057331,5729.1,0.00058725,6323.4,-8.2767e-05,1289.1,-0.00024244,89.445,0.012471
176,2.9,4.5,0.1,0.00022649,2263.3,0.00018854,1343.5,-4.7986e-05,-433.67,-0.00015058,-1204.6,0.011248
177,2.9,5,0.1,0.00014107,1409.7,0.00012299,1049.1,-1.5247e-05,10.445,-9.0598e-05,-555.71,0.010083
178,2.9,5.5,0.1,4.7531e-05,474.99,5.257e-05,623.87,-9.0884e-06,160.59,-1.2097e-05,137.98,0.0091009
179,3.0667,0.5,0.1,5.378e-05,537.43,5.7238e-05,656.75,-5.509e-06,185.29,-2.0646e-05,71.558,0.0097663
180,3.0667,1,0.1,8.6424e-05,863.65,8.9531e-05,958.2,-2.107e-05,127.18,-2.9312e-05,65.256,0.011019
181,3.0667,1.5,0.1,0.0002208,2206.4,0.00019921,1785.1,-2.6994e-05,85.56,-0.00013267,-708.43,0.012389
182,3.0667,2,0.1,0.00033237,3321.4,0.00033874,3513.3,-9.3384e-05,266.44,-0.00011261,121.98,0.013739
183,2.9,2,0.1,0.00043743,4371.3,0.00045924,5105.5,-6.6509e-05,1155.2,-0.0001658,409.15,0.012009
184,2.9,1.5,0.1,0.00026516,2649.8,0.00027501,2997,-4.3299e-05,605.35,-0.0001041,148.54,0.010984
185,2.9,1,0.1,0.00016704,1669.2,0.00017273,1850.3,-3.6744e-05,276.35,-6.0239e-05,99.813,0.010002
186,2.9,0.5,0.1,0.00010484,1047.6,0.00010865,1162.6,-2.6245e-05,149.05,-3.4922e-05,83.851,0.0090751
187,3.0667,6,0.1,3.8042e-05,380.15,4.1638e-05,503.55,-1.3841e-06,180.3,-1.4104e-05,84.728,0.010693
188,4.2296,6,0.1,7.1411e-05,713.62,7.1013e-05,703.29,-2.1439e-05,8.6355,-2.6301e-05,-27.895,0.028334
189,5.3926,6,0.1,9.4502e-05,944.36,9.3087e-05,903.7,-3.0256e-05,-23.055,-3.482e-05,-57.346,0.047844
190,6.5556,6,0.1,8.9577e-05,895.15,8.8593e-05,866.58,-2.9154e-05,-18.124,-3.1887e-05,-38.664,0.069872
191,7.7185,6,0.1,7.7024e-05,769.71,7.7312e-05,778.84,-2.3326e-05,22.688,-2.6842e-05,-3.7343,0.094278
192,8.8815,6,0.1,6.8329e-05,682.82,6.8134e-05,677.19,-2.2125e-05,-0.98656,-2.3349e-05,-10.183,0.12077
193,10.044,6,0.1,5.8259e-05,582.19,5.81e-05,577.55,-1.9071e-05,-2.2916,-1.9694e-05,-6.9712,0.14909
194,11.207,6,0.1,4.8818e-05,487.84,4.8724e-05,485.15,-1.5796e-05,0.37117,-1.6603e-05,-5.6953,0.17897
195,12.37,6,0.1,4.0479e-05,404.51,4.0348e-05,400.77,-1.2986e-05,0.038155,-1.3977e-05,-7.4038,0.21015
196,13.533,6,0.1,3.2936e-05,329.13,3.2778e-05,324.67,-1.041e-05,0.16975,-1.1619e-05,-8.9129,0.24241
197,14.696,6,0.1,2.6228e-05,262.1,2.6037e-05,256.79,-8.137e-06,0.016207,-9.5146e-06,-10.334,0.27553
198,15.859,6,0.1,2.0297e-05,202.83,2.009e-05,197.15,-6.1765e-06,-0.20469,-7.578e-06,-10.736,0.30934
199,17.022,6,0.1,1.5135e-05,151.25,1.4916e-05,145.36,-4.4607e-06,-0.22589,-5.8905e-06,-10.969,0.34367
200,18.185,6,0.1,1.0778e-05,107.7,1.0549e-05,101.74,-3.0204e-06,-0.21,-4.4451e-06,-10.915,0.37838
201,19.348,6,0.1,7.2068e-06,72.018,6.9647e-06,65.982,-1.8601e-06,-0.32364,-3.2326e-06,-10.637,0.41335
202,20.511,6,0.1,4.3931e-06,43.901,4.1307e-06,37.803,-9.4807e-07,-0.35726,-2.2548e-06,-10.176,0.4485
203,21.674,6,0.1,2.3413e-06,23.396,2.0441e-06,17.295,-2.8625e-07,-0.21486,-1.4924e-06,-9.2774,0.48373
204,22.837,6,0.1,1.0654e-06,10.646,7.1601e-07,4.5525,7.8265e-08,-0.2393,-9.0773e-07,-7.6477,0.51901
205,24,6,0.1,4.6507e-07,4.6475,1.6563e-07,-0.23645,1.1011e-07,-0.65355,-4.7881e-07,-5.0785,0.55429
206,24,4.8,0.1,8.3444e-07,8.3386,4.3174e-07,2.3051,2.1128e-07,0.64869,-7.7175e-07,-6.7374,0.55398
207,24,3.6,0.1,1.2485e-06,12.476,6.1078e-07,3.2329,3.6296e-07,1.3709,-1.1597e-06,-10.07,0.55365
208,24,2.4,0.1,1.2477e-06,12.468,6.1097e-07,3.2302,3.6156e-07,1.3562,-1.1591e-06,-10.069,0.55329
209,24,1.2,0.1,8.3387e-07,8.333,4.3157e-07,2.3005,2.1058e-07,0.64008,-7.7134e-07,-6.7377,0.55289
210,1.049e-14,1.2,0.1,9.4584e-05,945.19,0.00012586,1864.7,1.1834e-06,927.94,-1.0221e-06,911.37,0
211,2.0981e-14,2.4,0.1,0.00010493,1048.6,0.00013982,2074.1,6.48e-07,1028.4,-1.1704e-07,1022.6,0
212,3.1471e-14,3.6,0.1,0.00011177,1116.9,0.00014888,2208,1.4724e-06,1100.4,-9.7835e-07,1082,0
213,4.1961e-14,4.8,0.1,0.00010429,1042.2,0.00013893,2060.4,6.2037e-07,1021.2,-1.6029e-07,1015.3,0
214,24,0,0.1,4.6608e-07,4.6576,1.664e-07,-0.22663,1.1059e-07,-0.64596,-4.795e-07,-5.0797,0.55247
215,22.837,0,0.1,1.064e-06,10.633,7.1691e-07,4.5733,7.6772e-08,-0.23638,-9.0519e-07,-7.6145,0.51718
216,21.674,0,0.1,2.3434e-06,23.418,2.0496e-06,17.359,-2.935e-07,-0.24657,-1.4876e-06,-9.2183,0.48191
217,20.511,0,0.1,4.3888e-06,43.858,4.1249e-06,37.753,-9.3806e-07,-0.28769,-2.2598e-06,-10.218,0.44667
218,19.348,0,0.1,7.185e-06,71.801,6.9459e-06,65.846,-1.8528e-06,-0.26392,-3.2203e-06,-10.539,0.41153
219,18.185,0,0.1,1.0764e-05,107.56,1.0541e-05,101.75,-3.0367e-06,-0.27407,-4.4133e-06,-10.617,0.37655
220,17.022,0,0.1,1.5122e-05,151.11,1.491e-05,145.41,-4.4775e-06,-0.25732,-5.8548e-06,-10.605,0.34184
221,15.859,0,0.1,2.027e-05,202.56,2.0074e-05,197.17,-6.1942e-06,-0.20171,-7.526e-06,-10.208,0.30751
222,14.696,0,0.1,2.6214e-05,261.96,2.6036e-05,256.99,-8.1731e-06,-0.047734,-9.4489e-06,-9.6338,0.27371
223,13.533,0,0.1,3.2965e-05,329.42,3.281e-05,325.04,-1.0419e-05,0.2354,-1.1624e-05,-8.8172,0.24058
224,12.37,0,0.1,4.049e-05,404.62,4.0356e-05,400.82,-1.293e-05,0.44504,-1.4044e-05,-7.926,0.20833
225,11.207,0,0.1,4.8895e-05,488.62,4.8793e-05,485.67,-1.5813e-05,0.243,-1.6655e-05,-6.0811,0.17715
226,10.044,0,0.1,5.829e-05,582.5,5.8163e-05,578.8,-1.9003e-05,-0.99954,-1.9718e-05,-6.375,0.14727
227,8.8815,0,0.1,6.855e-05,685.03,6.8376e-05,679.95,-2.2372e-05,-1.8901,-2.3214e-05,-8.2183,0.11895
228,7.7185,0,0.1,7.7681e-05,776.28,7.7811e-05,780.5,-2.4077e-05,14.953,-2.6876e-05,-6.0753,0.092473
229,6.5556,0,0.1,8.7111e-05,870.51,8.6626e-05,856.53,-2.8034e-05,-4.9788,-3.0392e-05,-22.695,0.068099
230,5.3926,0,0.1,9.0645e-05,905.82,8.8889e-05,854.26,-3.1135e-05,-47.555,-3.2195e-05,-55.518,0.04606
231,4.2296,0,0.1,6.8087e-05,680.4,6.7331e-05,659.35,-2.0957e-05,-4.0146,-2.5332e-05,-36.884,0.02641
232,3.0667,0,0.1,4.089e-05,408.62,4.4357e-05,521.98,-3.9249e-06,159.21,-1.4557e-05,79.325,0.0085598
233,2.9,0,0.1,6.2324e-05,622.81,6.698e-05,771.62,-8.3815e-06,205.38,-2.1801e-05,104.55,0.0081953
234,1.9333,2.022e-31,0.1,0.00010571,1056.4,0.00010678,1090.1,-2.9787e-05,64.039,-3.7521e-05,5.9232,0.0035701
235,0.96667,1.011e-31,0.1,0.00012921,1291.2,0.00012496,1204.1,-2.718e-05,60.925,-6.1426e-05,-196.38,0.00077262
236,0,0,0.1,6.7227e-05,671.8,8.5144e-05,1203.3,5.132e-07,567.39,-8.3826e-06,500.55,0
237,3.937e-14,6,0.1,7.4874e-05,748.22,9.5988e-05,1371.1,-2.239e-07,648.17,-6.6532e-06,599.86,0
238,0.96667,6,0.1,0.00012387,1237.8,0.00011969,1139.2,-2.9946e-05,14.896,-5.6849e-05,-187.24,0.00084118
239,1.9333,6,0.1,0.00010609,1060.2,0.0001085,1137.1,-2.5804e-05,128.05,-3.8548e-05,32.298,0.0036441
240,2.9,6,0.1,7.0089e-05,700.4,7.1044e-05,785.44,-2.8518e-06,230.22,-3.3685e-05,-1.4467,0.0082158
241,1.9333,6,0,0.00010609,1060.2,3.8548e-05,-32.298,2.5804e-05,-128.05,-0.0001085,-1137.1,0.0036441
242,0.96667,6,0,0.00012387,1237.8,5.6849e-05,187.24,2.9946e-05,-14.896,-0.00011969,-1139.2,0.00084118
243,2.9,6,0,7.0089e-05,700.4,3.3685e-05,1.4467,2.8518e-06,-230.22,-7.1044e-05,-785.44,0.0082158
244,3.937e-14,6,0,7.4874e-05,748.22,6.6532e-06,-599.86,2.239e-07,-648.17,-9.5988e-05,-1371.1,0
245,0.96667,1.011e-31,0,0.00012921,1291.2,6.1426e-05,196.38,2.718e-05,-60.925,-0.00012496,-1204.1,0.00077262
246,1.9333,2.022e-31,0,0.00010571,1056.4,3.7521e-05,-5.9232,2.9787e-05,-64.039,-0.00010678,-1090.1,0.0035701
247,2.9,0,0,6.2324e-05,622.81,2.1801e-05,-104.55,8.3815e-06,-205.38,-6.698e-05,-771.62,0.0081953
248,0,0,0,6.7227e-05,671.8,8.3826e-06,-500.55,-5.132e-07,-567.39,-8.5144e-05,-1203.3,0
249,4.2296,0,0,6.8087e-05,680.4,2.5332e-05,36.884,2.0957e-05,4.0146,-6.7331e-05,-659.35,0.02641
250,5.3926,0,0,9.0645e-05,905.82,3.2195e-05,55.518,3.1135e-05,47.555,-8.8889e-05,-854.26,0.04606
251,6.5556,0,0,8.7111e-05,870.51,3.0392e-05,22.695,2.8034e-05,4.9788,-8.6626e-05,-856.53,0.068099
252,7.7185,0,0,7.7681e-05,776.28,2.6876e-05,6.0753,2.4077e-05,-14.953,-7.7811e-05,-780.5,0.092473
253,8.8815,0,0,6.855e-05,685.03,2.3214e-05,8.2183,2.2372e-05,1.8901,-6.8376e-05,-679.95,0.11895
254,10.044,0,0,5.829e-05,582.5,1.9718e-05,6.375,1.9003e-05,0.99954,-5.8163e-05,-578.8,0.14727
255,11.207,0,0,4.8895e-05,488.62,1.6655e-05,6.0811,1.5813e-05,-0.243,-4.8793e-05,-485.67,0.17715
256,12.37,0,0,4.049e-05,404.62,1.4044e-05,7.926,1.293e-05,-0.44504,-4.0356e-05,-400.82,0.20833
257,13.533,0,0,3.2965e-05,329.42,1.1624e-05,8.8172,1.0419e-05,-0.2354,-3.281e-05,-325.04,0.24058
258,14.696,0,0,2.6214e-05,261.96,9.4489e-06,9.6338,8.1731e-06,0.047734,-2.6036e-05,-256.99,0.27371
259,15.859,0,0,2.027e-05,202.56,7.526e-06,10.208,6.1942e-06,0.20171,-2.0074e-05,-197.17,0.30751
260,17.022,0,0,1.5122e-05,151.11,5.8548e-06,10.605,4.4775e-06,0.25732,-1.491e-05,-145.41,0.34184
261,18.185,0,0,1.0764e-05,107.56,4.4133e-06,10.617,3.0367e-06,0.27407,-1.0541e-05,-101.75,0.37655
262,19.348,0,0,7.185e-06,71.801,3.2203e-06,10.539,1.8528e-06,0.26392,-6.9459e-06,-65.846,0.41153
263,20.511,0,0,4.3888e-06,43.858,2.2598e-06,10.218,9.3806e-07,0.28769,-4.1249e-06,-37.753,0.44667
264,21.674,0,0,2.3434e-06,23.418,1.4876e-06,9.2183,2.935e-07,0.24656,-2.0496e-06,-17.359,0.48191
265,22.837,0,0,1.064e-06,10.633,9.0519e-07,7.6145,-7.6773e-08,0.23638,-7.1691e-07,-4.5733,0.51718
266,3.0667,0,0,4.089e-05,408.62,1.4557e-05,-79.325,3.9249e-06,-159.21,-4.4357e-05,-521.98,0.0085598
267,24,0,0,4.6608e-07,4.6576,4.795e-07,5.0797,-1.1059e-07,0.64597,-1.664e-07,0.22663,0.55247
268,4.1961e-14,4.8,0,0.00010429,1042.2,1.6029e-07,-1015.3,-6.2037e-07,-1021.2,-0.00013893,-2060.4,0
269,3.1471e-14,3.6,0,0.00011177,1116.9,9.7835e-07,-1082,-1.4724e-06,-1100.4,-0.00014888,-2208,0
270,2.0981e-14,2.4,0,0.00010493,1048.6,1.1704e-07,-1022.6,-6.48e-07,-1028.4,-0.00013982,-2074.1,0
271,1.049e-14,1.2,0,9.4584e-05,945.19,1.0221e-06,-911.37,-1.1834e-06,-927.94,-0.00012586,-1864.7,0
272,24,1.2,0,8.3387e-07,8.333,7.7134e-07,6.7377,-2.1058e-07,-0.64008,-4.3157e-07,-2.3005,0.55289
273,24,2.4,0,1.2477e-06,12.468,1.1591e-06,10.069,-3.6156e-07,-1.3562,-6.1097e-07,-3.2302,0.55329
274,24,3.6,0,1.2485e-06,12.476,1.1597e-06,10.07,-3.6296e-07,-1.3709,-6.1078e-07,-3.2329,0.55365
275,24,4.8,0,8.3444e-07,8.3386,7.7175e-07,6.7374,-2.1128e-07,-0.64869,-4.3174e-07,-2.3051,0.55398
276,24,6,0,4.6507e-07,4.6475,4.7881e-07,5.0785,-1.1011e-07,0.65356,-1.6563e-07,0.23645,0.55429
277,22.837,6,0,1.0654e-06,10.646,9.0773e-07,7.6477,-7.8266e-08,0.2393,-7.1601e-07,-4.5525,0.51901
278,21.674,6,0,2.3413e-06,23.396,1.4924e-06,9.2774,2.8625e-07,0.21486,-2.0441e-06,-17.295,0.48373
279,20.511,6,0,4.3931e-06,43.901,2.2548e-06,10.176,9.4807e-07,0.35725,-4.1307e-06,-37.803,0.4485
280,19.348,6,0,7.2068e-06,72.018,3.2326e-06,10.637,1.8601e-06,0.32364,-6.9647e-06,-65.982,0.41335
281,18.185,6,0,1.0778e-05,107.7,4.4451e-06,10.915,3.0204e-06,0.21,-1.0549e-05,-101.74,0.37838
282,17.022,6,0,1.5135e-05,151.25,5.8905e-06,10.969,4.4607e-06,0.22589,-1.4916e-05,-145.36,0.34367
283,15.859,6,0,2.0297e-05,202.83,7.578e-06,10.736,6.1765e-06,0.20469,-2.009e-05,-197.15,0.30934
284,14.696,6,0,2.6228e-05,262.1,9.5146e-06,10.334,8.137e-06,-0.016208,-2.6037e-05,-256.79,0.27553
285,13.533,6,0,3.2936e-05,329.13,1.1619e-05,8.9129,1.041e-05,-0.16975,-3.2778e-05,-324.67,0.24241
286,12.37,6,0,4.0479e-05,404.51,1.3977e-05,7.4038,1.2986e-05,-0.038155,-4.0348e-05,-400.77,0.21015
287,11.207,6,0,4.8818e-05,487.84,1.6603e-05,5.6953,1.5796e-05,-0.37117,-4.8724e-05,-485.15,0.17897
288,10.044,6,0,5.8259e-05,582.19,1.9694e-05,6.9712,1.9071e-05,2.2916,-5.81e-05,-577.55,0.14909
289,8.8815,6,0,6.8329e-05,682.82,2.3349e-05,10.183,2.2125e-05,0.98656,-6.8134e-05,-677.19,0.12077
290,7.7185,6,0,7.7024e-05,769.71,2.6842e-05,3.7343,2.3326e-05,-22.688,-7.7312e-05,-778.84,0.094278
291,6.5556,6,0,8.9577e-05,895.15,3.1887e-05,38.664,2.9154e-05,18.124,-8.8593e-05,-866.58,0.069872
292,5.3926,6,0,9.4502e-05,944.36,3.482e-05,57.346,3.0256e-05,23.055,-9.3087e-05,-903.7,0.047844
293,4.2296,6,0,7.1411e-05,713.62,2.6301e-05,27.895,2.1439e-05,-8.6355,-7.1013e-05,-703.29,0.028334
294,3.0667,6,0,3.8042e-05,380.15,1.4104e-05,-84.728,1.3841e-06,-180.3,-4.1638e-05,-503.55,0.010693
295,2.9,1.5,0,0.00026516,2649.8,0.0001041,-148.54,4.3299e-05,-605.35,-0.00027501,-2997,0.010984
296,2.9,1,0,0.00016704,1669.2,6.0239e-05,-99.813,3.6744e-05,-276.35,-0.00017273,-1850.3,0.010002
297,2.9,0.5,0,0.00010484,1047.6,3.4922e-05,-83.851,2.6245e-05,-149.05,-0.00010865,-1162.6,0.0090751
298,2.9,2,0,0.00043743,4371.3,0.0001658,-409.15,6.6509e-05,-1155.2,-0.00045924,-5105.5,0.012009
299,3.0667,0.5,0,5.378e-05,537.43,2.0646e-05,-71.558,5.509e-06,-185.29,-5.7238e-05,-656.75,0.0097663
300,3.0667,1,0,8.6424e-05,863.65,2.9312e-05,-65.256,2.107e-05,-127.18,-8.9531e-05,-958.2,0.011019
301,3.0667,1.5,0,0.0002208,2206.4,0.00013267,708.43,2.6994e-05,-85.56,-0.00019921,-1785.1,0.012389
302,3.0667,2,0,0.00033237,3321.4,0.00011261,-121.98,9.3384e-05,-266.44,-0.00033874,-3513.3,0.013739
303,2.9,4.5,0,0.00022649,2263.3,0.00015058,1204.6,4.7986e-05,433.67,-0.00018854,-1343.5,0.011248
304,2.9,5,0,0.00014107,1409.7,9.0598e-05,555.71,1.5247e-05,-10.445,-0.00012299,-1049.1,0.010083
305,2.9,5.5,0,4.7531e-05,474.99,1.2097e-05,-137.98,9.0884e-06,-160.59,-5.257e-05,-623.87,0.0091009
306,2.9,4,0,0.00057331,5729.1,0.00024244,-89.445,8.2767e-05,-1289.1,-0.00058725,-6323.4,0.012471
307,3.0667,5.5,0,4.4013e-05,439.83,1.3773e-05,-131.16,3.3327e-06,-209.61,-4.9282e-05,-604.93,0.011575
308,3.0667,5,0,0.00014745,1473.5,9.0919e-05,452.12,1.0087e-05,-155.22,-0.00013268,-1228,0.012522
309,3.0667,4.5,0,0.00015433,1542.3,7.7317e-05,370.95,3.848e-05,79.138,-0.00014459,-1296.4,0.013498
310,3.0667,4,0,0.00025546,2552.8,6.4741e-05,-758.3,4.7763e-05,-885.86,-0.00028319,-3372.5,0.014291
311,2.4948,3.552,0,0.00021624,2160.9,7.2281e-05,-29.536,6.7082e-05,-68.603,-0.00021788,-2209.7,0.0094923
312,2.973,2.9985,0,0.00024057,2404.1,9.5021e-05,153.23,6.6384e-05,-61.939,-0.00023829,-2351.2,0.013971
313,2.7384,3.3938,0,0.00028752,2873.2,0.00010514,-20.2,7.5151e-05,-245.49,-0.00029138,-2999.5,0.01163
314,2.7256,3.0963,0.05,9.8808e-06,98.74,7.5872e-06,57.008,-1.4948e-13,8.059e-06,-7.5872e-06,-57.008,0.011551
315,2.8128,2.5482,0,0.00035498,3547.3,0.00012607,-256.64,7.7358e-05,-622.67,-0.00036851,-3972.8,0.012028
316,4.6227,2.7395,0,0.00012121,1211.2,4.2794e-05,43.158,3.9207e-05,16.208,-0.00012017,-1181.3,0.036173
317,3.5161,2.9043,0,0.0001721,1719.8,8.2333e-05,313.51,4.0439e-05,-1.2673,-0.00016461,-1541.9,0.02031
318,3.799,2.4843,0,0.00013939,1393,4.9275e-05,49.499,4.4974e-05,17.185,-0.00013823,-1359.3,0.023764
319,3.8117,2.908,0.05,4.1842e-06,41.813,3.2129e-06,24.141,-1.6175e-13,2.6347e-05,-3.2129e-06,-24.141,0.024226
320,3.4392,3.454,0,0.00018977,1896.4,5.6442e-05,-319.11,4.3724e-05,-414.67,-0.00020208,-2261.5,0.019359
321,1.3539,0.92869,0,0.00012114,1210.5,5.6611e-05,111.58,2.0015e-05,-163.39,-0.00011965,-1212.8,0.0022177
322,1.822,1.241,0,0.00011493,1148.5,4.1124e-05,-76.723,2.5099e-05,-197.13,-0.00011911,-1280.7,0.0042558
323,1.8253,0.82454,0.05,4.4524e-06,44.494,3.4189e-06,25.688,-7.2521e-22,3.0971e-06,-3.4189e-06,-25.688,0.0039556
324,1.8793,0.41227,0,0.00010684,1067.6,3.3325e-05,-62.447,3.2803e-05,-66.369,-0.00010903,-1132,0.0038251
325,2.3627,0.66227,0,0.0001043,1042.3,3.5068e-05,-78.556,2.5997e-05,-146.71,-0.00010797,-1153.3,0.0063665
326,1.3996,2.8823,0,0.00015058,1504.8,7.4813e-05,146.31,1.6357e-05,-292.9,-0.00014819,-1529.2,0.0029404
327,1.8432,2.0956,0,0.00013232,1322.3,4.994e-05,-85.196,2.4363e-05,-277.37,-0.00013744,-1493.1,0.0048624
328,1.9384,2.9276,0,0.00014525,1451.5,5.1292e-05,-66.96,3.5835e-05,-183.1,-0.00014916,-1573,0.0057006
329,1.8678,2.5338,0.05,7.046e-06,70.412,5.4105e-06,40.652,-2.6385e-13,1.9478e-06,-5.4105e-06,-40.652,0.0051726
330,2.3839,2.0169,0,0.00020004,1999.1,7.8516e-05,-119.04,3.2e-05,-468.54,-0.00020773,-2269.8,0.0080251
331,4.6623,0.79528,0,8.3242e-05,831.84,3.1594e-05,49.64,2.4951e-05,-0.27195,-8.2289e-05,-806.03,0.034892
332,4.0408,0.90994,0,8.6758e-05,866.98,3.9486e-05,125.9,2.1091e-05,-12.307,-8.3995e-05,-801.88,0.025196
333,4.132,0.62871,0.05,4.8953e-06,48.919,3.759e-06,28.243,-7.9734e-22,-5.9909e-15,-3.759e-06,-28.243,0.026099
334,4.1808,0.31435,0,7.1479e-05,714.29,2.7812e-05,53.869,2.1274e-05,4.7456,-7.0355e-05,-683.72,0.026279
335,3.5994,0.56435,0,6.2131e-05,620.88,2.1644e-05,-29.09,1.5816e-05,-72.878,-6.375e-05,-670.71,0.017819
336,1.5578,4.7739,0,0.00012759,1275,6.0703e-05,155.91,2.2851e-05,-128.49,-0.00012472,-1237.3,0.0032172
337,2.1369,4.5145,0,0.00014357,1434.7,4.9606e-05,21.717,4.558e-05,-8.5306,-0.00014332,-1427.8,0.0062256
338,2.0098,5.0214,0.05,2.6357e-06,26.338,2.0239e-06,15.206,-4.2929e-22,3.6331e-06,-2.0239e-06,-15.206,0.0050613
339,1.9716,5.5107,0,0.0001153,1152.2,3.9357e-05,-20.072,3.3963e-05,-60.595,-0.00011662,-1192,0.0043947
340,2.4549,5.2607,0,8.1536e-05,814.8,2.6834e-05,-67.635,2.0762e-05,-113.25,-8.4517e-05,-904.28,0.0070827
341,4.171,4.7936,0,9.6716e-05,966.49,3.8503e-05,100.69,2.9865e-05,35.786,-9.4231e-05,-896.62,0.028812
342,4.8218,4.8755,0,0.00010451,1044.4,3.8506e-05,64.399,3.3558e-05,27.223,-0.00010291,-998.12,0.039152
343,4.8953,4.1853,0,0.000108,1079.2,4.1875e-05,44.689,2.8913e-05,-52.701,-0.0001078,-1079.9,0.04071
344,4.4587,4.5772,0.05,1.1983e-05,119.74,9.2012e-06,69.134,1.6951e-13,5.6524e-06,-9.2012e-06,-69.134,0.033405
345,3.7627,4.5386,0,0.00012485,1247.6,5.3133e-05,183.89,3.751e-05,66.502,-0.00012017,-1118.2,0.022963
346,3.9686,5.2327,0,7.8245e-05,781.91,3.2109e-05,89.909,2.3243e-05,23.29,-7.6106e-05,-723.18,0.025291
347,3.8832,5.01,0.05,8.6105e-06,86.045,6.6118e-06,49.678,-1.0967e-22,1.9787e-07,-6.6118e-06,-49.678,0.024236
348,3.475,5.005,0,9.9475e-05,994.06,5.414e-05,213.01,1.3106e-05,-95.303,-9.3817e-05,-898.67,0.018305
349,1.0186,3.8787,0,0.00014923,1491.3,8.8067e-05,344.15,6.572e-06,-268.17,-0.00013818,-1355.8,0.0015307
350,1.5574,3.9239,0,0.00014202,1419.3,6.4589e-05,131.21,2.7095e-05,-150.51,-0.00014024,-1407.8,0.0035437
351,1.1058,4.5264,0.05,5.8246e-06,58.206,4.4726e-06,33.605,1.5809e-13,3.6552e-06,-4.4726e-06,-33.605,0.0016877
352,1.0363,5.2632,0,0.00012929,1292,6.8258e-05,247.54,1.8455e-05,-126.66,-0.0001231,-1190.2,0.0013182
353,0.55292,4.6632,0,0.00011828,1182,3.9864e-05,-354.12,3.0853e-06,-630.46,-0.00013258,-1649.8,0.00042448
354,4.6194,5.3146,0,8.4111e-05,840.53,2.9689e-05,35.406,2.7726e-05,20.661,-8.3148e-05,-812.4,0.035428
355,4.0539,5.4554,0.05,7.9128e-06,79.074,6.0761e-06,45.653,-1.2888e-21,3.8142e-06,-6.0761e-06,-45.653,0.026313
356,4.1418,5.7277,0,7.5444e-05,753.92,2.8781e-05,58.308,2.3607e-05,19.432,-7.4046e-05,-714.3,0.027337
357,3.5603,5.4777,0,5.9432e-05,593.91,1.9725e-05,-42.202,1.5509e-05,-73.88,-6.1343e-05,-651.31,0.018857
358,0.88192,1.5694,0,0.00014656,1464.6,8.5196e-05,321.95,7.7268e-06,-260.13,-0.00013655,-1344.2,0.0010474
359,0.90628,2.6685,0,0.00015904,1589.3,9.4483e-05,364.41,5.185e-06,-306.54,-0.00014705,-1450.3,0.0012203
360,1.35,1.8818,0,0.00013741,1373.1,6.9589e-05,132.74,1.1949e-05,-300.34,-0.00013503,-1404.7,0.0025487
361,0.88128,2.106,0.05,3.134e-06,31.318,2.4065e-06,18.082,-1.0002e-13,-1.2693e-07,-2.4065e-06,-18.082,0.0011011
362,0.44064,2.253,0,0.00012834,1282.5,4.6262e-05,-337.49,1.9989e-06,-670.07,-0.0001422,-1753.6,0.0002799
363,0.88256,1.0328,0.05,3.8957e-06,38.93,2.9914e-06,22.476,1.9636e-13,-4.7676e-15,-2.9914e-06,-22.476,0.0009518
364,0.92461,0.51642,0,0.00013231,1322.2,6.9597e-05,245.5,1.8603e-05,-137.65,-0.00012624,-1226,0.00091433
365,0.44128,1.1164,0,0.00011351,1134.4,3.8995e-05,-311.38,4.4025e-06,-571.3,-0.00012627,-1553.1,0.00024564
366,0.93129,3.2309,0.05,6.0292e-06,60.25,4.6297e-06,34.785,-2.0032e-13,-7.3785e-15,-4.6297e-06,-34.785,0.0012967
367,0.46564,3.4155,0,0.00013462,1345.3,4.818e-05,-354.85,2.7288e-06,-696.35,-0.00014921,-1837.9,0.00032706
368,5.6722,1.1009,0,9.1797e-05,917.34,3.1713e-05,10.056,2.88e-05,-11.833,-9.1808e-05,-918.03,0.052844
369,4.9545,1.3507,0,0.00010191,1018.4,3.5991e-05,24.667,3.1874e-05,-6.2634,-0.00010156,-1008.9,0.040513
370,5.1925,0.96185,0.05,2.5468e-06,25.45,1.9556e-06,14.694,-1.1258e-13,3.4021e-06,-1.9556e-06,-14.694,0.044103
371,5.2926,0.48092,0,9.1509e-05,914.45,3.2708e-05,43.195,2.9896e-05,22.065,-9.038e-05,-881.64,0.045141
372,6.7496,1.2773,0,8.5802e-05,857.43,2.9948e-05,-0.25297,2.5493e-05,-33.732,-8.6332e-05,-873.93,0.073795
373,5.7928,1.9055,0,9.5648e-05,955.82,3.6351e-05,-3.2762,2.2829e-05,-104.87,-9.7082e-05,-1005.8,0.055858
374,6.1519,1.2399,0.05,1.1602e-06,11.594,8.9089e-07,6.6938,1.0873e-13,1.1786e-06,-8.9089e-07,-6.6938,0.061975
375,6.3537,0.61995,0,8.9168e-05,891.06,3.0238e-05,5.5151,2.8552e-05,-7.1519,-8.9189e-05,-891.81,0.065105
376,7.9981,1.2835,0,7.454e-05,744.89,2.6238e-05,0.7937,2.1857e-05,-32.119,-7.5019e-05,-760.01,0.10036
377,7.2186,1.917,0,8.1304e-05,812.48,2.9749e-05,1.2557,2.1878e-05,-57.881,-8.2106e-05,-839.18,0.084049
378,7.3473,1.3147,0.05,1.0738e-06,10.73,8.2452e-07,6.1951,7.8106e-14,-3.1817e-07,-8.2452e-07,-6.1951,0.086222
379,7.5329,0.65735,0,7.8998e-05,789.43,2.7117e-05,-0.60359,2.4227e-05,-22.317,-7.9365e-05,-800.67,0.089429
380,9.2797,1.2316,0,6.3442e-05,633.99,2.1101e-05,-5.1666,2.0182e-05,-12.073,-6.3733e-05,-642.58,0.12999
381,8.5929,1.8495,0,6.8849e-05,688.02,2.3796e-05,-2.8662,2.0615e-05,-26.765,-6.9322e-05,-702.52,0.11435
382,8.649,1.2523,0.05,2.6902e-07,2.6884,2.0657e-07,1.5521,3.9745e-13,4.1877e-06,-2.0657e-07,-1.5521,0.11511
383,8.7652,0.62617,0,6.8536e-05,684.89,2.267e-05,-2.6921,2.228e-05,-5.6241,-6.8677e-05,-689.04,0.1171
384,10.53,1.2049,0,5.3567e-05,535.3,1.7699e-05,-1.5974,1.7493e-05,-3.1466,-5.3647e-05,-537.67,0.16094
385,9.884,1.8062,0,5.8139e-05,580.98,1.9515e-05,-1.7232,1.847e-05,-9.5748,-5.8327e-05,-586.59,0.14521
386,9.9105,1.2109,0.05,6.2009e-07,6.1966,4.7615e-07,3.5776,-2.1204e-22,9.1979e-07,-4.7615e-07,-3.5776,0.14536
387,9.9775,0.60546,0,5.8252e-05,582.12,1.9325e-05,0.52557,1.9098e-05,-1.1795,-5.8263e-05,-582.44,0.14638
388,11.745,1.1966,0,4.4633e-05,446.02,1.4928e-05,1.767,1.4554e-05,-1.041,-4.462e-05,-445.65,0.19263
389,11.14,1.7876,0,4.8738e-05,487.04,1.6088e-05,-0.83533,1.6e-05,-1.4994,-4.8778e-05,-488.21,0.17712
390,11.15,1.199,0.05,6.3381e-07,6.3338,4.8669e-07,3.6568,6.7868e-16,9.5225e-07,-4.8669e-07,-3.6568,0.17693
391,11.179,0.59949,0,4.8844e-05,488.11,1.639e-05,2.8209,1.5919e-05,-0.71792,-4.8808e-05,-487.05,0.17709
392,12.932,1.1885,0,3.6629e-05,366.04,1.2515e-05,4.6902,1.1793e-05,-0.73282,-3.6559e-05,-364.03,0.22486
393,12.339,1.7847,0,4.0292e-05,402.65,1.3638e-05,3.4759,1.3036e-05,-1.0443,-4.0249e-05,-401.41,0.20904
394,12.34,1.1942,0.05,6.1747e-07,6.1704,4.7414e-07,3.5625,3.0715e-15,1.4229e-06,-4.7414e-07,-3.5625,0.20863
395,12.355,0.5971,0,4.0421e-05,403.93,1.3835e-05,5.5566,1.3007e-05,-0.66783,-4.0334e-05,-401.45,0.20853
396,14.106,1.1821,0,2.9492e-05,294.71,1.0307e-05,6.5265,9.3529e-06,-0.64474,-2.9385e-05,-291.71,0.25774
397,13.524,1.7763,0,3.2781e-05,327.58,1.1376e-05,6.2289,1.044e-05,-0.80357,-3.2683e-05,-324.81,0.24171
398,13.524,1.1828,0.05,5.3629e-07,5.3592,4.1181e-07,3.0942,3.9429e-15,1.6977e-06,-4.1181e-07,-3.0942,0.24132
399,13.529,0.59142,0,3.2872e-05,328.5,1.1459e-05,7.0911,1.046e-05,-0.41,-3.2752e-05,-325.09,0.24099
400,15.269,1.1819,0,2.3191e-05,231.75,8.3189e-06,7.6178,7.2159e-06,-0.66946,-2.3061e-05,-228.16,0.29112
401,14.688,1.7746,0,2.6102e-05,260.84,9.3057e-06,7.7289,8.1431e-06,-1.0065,-2.5977e-05,-257.37,0.27469
402,14.688,1.1814,0.05,4.7256e-07,4.7223,3.6287e-07,2.7264,1.2081e-13,1.5718e-06,-3.6287e-07,-2.7264,0.27434
403,14.692,0.59072,0,2.6143e-05,261.25,9.3275e-06,8.2272,8.1886e-06,-0.3297,-2.5998e-05,-257.19,0.27405
404,16.431,1.1838,0,1.7682e-05,176.7,6.5453e-06,8.1805,5.3699e-06,-0.65073,-1.7537e-05,-172.77,0.32506
405,15.851,1.7761,0,2.0219e-05,202.05,7.4237e-06,8.531,6.1699e-06,-0.88932,-2.0072e-05,-198.06,0.30836
406,15.851,1.1823,0.05,4.1082e-07,4.1053,3.1546e-07,2.3702,5.3155e-14,2.0847e-06,-3.1546e-07,-2.3702,0.30805
407,15.855,0.59116,0,2.0222e-05,202.08,7.4199e-06,8.868,6.2113e-06,-0.2124,-2.006e-05,-197.6,0.30781
408,17.593,1.1859,0,1.2947e-05,129.38,5.0034e-06,8.4614,3.7919e-06,-0.64138,-1.279e-05,-125.23,0.35948
409,17.011,1.7785,0,1.5106e-05,150.95,5.7776e-06,9.0153,4.4497e-06,-0.96195,-1.4944e-05,-146.68,0.34246
410,17.011,1.1853,0.05,3.5439e-07,3.5415,2.7213e-07,2.0447,1.1369e-13,2.0953e-06,-2.7213e-07,-2.0447,0.34217
411,17.016,0.59266,0,1.5087e-05,150.76,5.7562e-06,9.2711,4.4948e-06,-0.20605,-1.491e-05,-146.01,0.34203
412,18.757,1.1881,0,8.9918e-06,89.856,3.7027e-06,8.5716,2.479e-06,-0.6231,-8.8212e-06,-85.528,0.39429
413,18.175,1.7809,0,1.0768e-05,107.61,4.3613e-06,9.2512,3.0045e-06,-0.94333,-1.0591e-05,-103.09,0.37712
414,18.176,1.1864,0.05,2.9627e-07,2.9607,2.275e-07,1.7094,1.3429e-13,2.3074e-06,-2.275e-07,-1.7093,0.37687
415,18.18,0.59321,0,1.0734e-05,107.26,4.3211e-06,9.3496,3.0546e-06,-0.16681,-1.0546e-05,-102.35,0.37672
416,19.919,1.1906,0,5.8193e-06,58.153,2.6485e-06,8.5481,1.4249e-06,-0.64578,-5.6301e-06,-53.654,0.42928
417,19.338,1.7849,0,7.2212e-06,72.162,3.1935e-06,9.3613,1.8224e-06,-0.9409,-7.0226e-06,-67.398,0.41199
418,19.338,1.1897,0.05,2.4005e-07,2.3988,1.8433e-07,1.385,1.9976e-13,2.4638e-06,-1.8433e-07,-1.385,0.41176
419,19.343,0.59487,0,7.1626e-06,71.576,3.1379e-06,9.3458,1.8696e-06,-0.18423,-6.959e-06,-66.518,0.41166
420,21.086,1.1942,0,3.4304e-06,34.28,1.8324e-06,8.3559,6.3476e-07,-0.64297,-3.2094e-06,-29.526,0.46455
421,20.5,1.793,0,4.4669e-06,44.638,2.2735e-06,9.3572,9.009e-07,-0.95592,-4.2337e-06,-39.535,0.44703
422,20.5,1.1915,0.05,1.7876e-07,1.7863,1.3726e-07,1.0313,1.5366e-13,2.5491e-06,-1.3726e-07,-1.0313,0.44682
423,20.506,0.59576,0,4.3717e-06,43.687,2.1885e-06,9.1144,9.5125e-07,-0.18216,-4.1448e-06,-38.472,0.44675
424,22.254,1.1966,0,1.8371e-06,18.358,1.2497e-06,7.9368,1.0665e-07,-0.65177,-1.5556e-06,-13.141,0.49992
425,21.67,1.7989,0,2.5191e-06,25.174,1.6001e-06,9.2815,2.4042e-07,-0.93465,-2.2164e-06,-19.394,0.48244
426,21.672,1.1968,0.05,1.217e-07,1.2161,9.3448e-08,0.70214,1.588e-13,2.9193e-06,-9.3448e-08,-0.70213,0.48229
427,21.673,0.5984,0,2.3529e-06,23.513,1.4539e-06,8.4817,2.9976e-07,-0.19016,-2.0886e-06,-18.135,0.4821
428,22.834,1.7959,0,1.4073e-06,14.064,1.1693e-06,9.0378,-1.6425e-07,-0.98194,-9.7047e-07,-7.0396,0.51772
429,22.835,1.1964,0.05,8.0306e-08,0.8025,6.1665e-08,0.46333,2.0072e-13,3.1432e-06,-6.1665e-08,-0.46332,0.51756
430,22.836,0.59822,0,1.125e-06,11.242,9.2983e-07,7.4031,-8.4133e-08,-0.21547,-7.8857e-07,-5.5083,0.51737
431,23.418,1.1982,0,1.0328e-06,10.321,8.8769e-07,7.1509,-1.5221e-07,-0.66252,-6.695e-07,-4.5493,0.53522
432,22.832,2.9985,0,1.5835e-06,15.824,1.3462e-06,10.597,-2.3577e-07,-1.2894,-1.0444e-06,-7.3649,0.51804
433,22.25,2.3982,0,2.1049e-06,21.034,1.561e-06,10.693,-3.1644e-08,-1.2736,-1.6714e-06,-13.594,0.50022
434,22.832,2.3954,0.05,7.7151e-08,0.77098,5.9242e-08,0.44513,1.7458e-13,2.7931e-06,-5.9242e-08,-0.44512,0.51786
435,23.416,2.3977,0,1.4132e-06,14.122,1.2573e-06,10.369,-3.0044e-07,-1.3351,-8.3037e-07,-5.3168,0.53557
436,22.831,4.2031,0,1.4078e-06,14.068,1.1683e-06,9.0207,-1.6244e-07,-0.97825,-9.7269e-07,-7.0662,0.51838
437,22.246,3.601,0,2.1083e-06,21.069,1.5608e-06,10.672,-2.8529e-08,-1.2696,-1.6769e-06,-13.655,0.50047
438,22.831,3.6017,0.05,7.6325e-08,0.76273,5.8608e-08,0.44036,1.7667e-13,3.0813e-06,-5.8608e-08,-0.44036,0.51821
439,23.416,3.6008,0,1.4131e-06,14.121,1.2569e-06,10.362,-3.0014e-07,-1.3371,-8.3085e-07,-5.3247,0.53593
440,22.249,4.8019,0,1.8409e-06,18.396,1.251e-06,7.9357,1.0796e-07,-0.65297,-1.5598e-06,-13.184,0.50088
441,22.831,4.8044,0.05,7.9861e-08,0.79806,6.1323e-08,0.46076,2.1326e-13,3.2037e-06,-6.1323e-08,-0.46076,0.51853
442,23.416,4.8022,0,1.0335e-06,10.328,8.8755e-07,7.1404,-1.5183e-07,-0.66906,-6.7103e-07,-4.5701,0.53626
443,22.834,5.4022,0,1.1257e-06,11.25,9.3038e-07,7.4065,-8.4126e-08,-0.21606,-7.892e-07,-5.5137,0.51877
444,21.084,4.8,0,3.4381e-06,34.358,1.8369e-06,8.3775,6.3576e-07,-0.64749,-3.2165e-06,-29.592,0.46558
445,21.664,4.1998,0,2.5259e-06,25.242,1.6022e-06,9.2769,2.43e-07,-0.93584,-2.2239e-06,-19.471,0.483
446,21.667,4.7994,0.05,1.2542e-07,1.2533,9.6308e-08,0.72362,1.8596e-13,2.9797e-06,-9.6308e-08,-0.72362,0.48324
447,21.671,5.3997,0,2.3552e-06,23.536,1.4584e-06,8.5231,2.9672e-07,-0.20503,-2.0889e-06,-18.13,0.48349
448,19.919,4.7963,0,5.8236e-06,58.195,2.651e-06,8.5452,1.4241e-06,-0.67331,-5.6346e-06,-53.709,0.43036
449,20.498,4.1994,0,4.4726e-06,44.695,2.2747e-06,9.3299,9.0136e-07,-0.98924,-4.2404e-06,-39.623,0.44772
450,20.501,4.8006,0.05,1.8277e-07,1.8265,1.4035e-07,1.0545,1.6498e-13,2.7288e-06,-1.4035e-07,-1.0545,0.44793
451,20.506,5.4003,0,4.3784e-06,43.753,2.1887e-06,9.1037,9.5669e-07,-0.15271,-4.152e-06,-38.537,0.44822
452,18.755,4.778,0,8.9976e-06,89.914,3.7061e-06,8.5839,2.4794e-06,-0.63242,-8.8268e-06,-85.583,0.39534
453,19.334,4.1831,0,7.2298e-06,72.248,3.1957e-06,9.3243,1.8229e-06,-0.99046,-7.0325e-06,-67.527,0.4126
454,19.337,4.7921,0.05,2.3852e-07,2.3836,1.8316e-07,1.3762,1.5192e-13,2.7034e-06,-1.8316e-07,-1.3762,0.41282
455,19.342,5.396,0,7.1707e-06,71.658,3.1418e-06,9.3652,1.8719e-06,-0.17694,-6.9666e-06,-66.585,0.4131
456,17.592,4.7504,0,1.2961e-05,129.52,5.0084e-06,8.4938,3.7985e-06,-0.59689,-1.2802e-05,-125.33,0.36053
457,18.172,4.1637,0,1.0784e-05,107.76,4.3627e-06,9.2197,3.0132e-06,-0.9197,-1.0607e-05,-103.25,0.37775
458,18.174,4.7639,0.05,2.9915e-07,2.9894,2.2971e-07,1.7259,1.1565e-13,2.2936e-06,-2.2971e-07,-1.7259,0.37791
459,18.18,5.3819,0,1.0743e-05,107.35,4.3375e-06,9.5017,3.0481e-06,-0.18642,-1.0552e-05,-102.37,0.37816
460,16.429,4.7299,0,1.7696e-05,176.83,6.5476e-06,8.1867,5.379e-06,-0.59402,-1.755e-05,-172.87,0.32611
461,17.009,4.1466,0,1.5118e-05,151.08,5.7784e-06,8.9891,4.4576e-06,-0.93463,-1.4957e-05,-146.81,0.34315
462,17.009,4.7369,0.05,3.6187e-07,3.6162,2.7787e-07,2.0878,1.7119e-13,2.0173e-06,-2.7787e-07,-2.0878,0.34323
463,17.016,5.3684,0,1.5097e-05,150.87,5.7724e-06,9.4355,4.4911e-06,-0.19142,-1.4917e-05,-146.02,0.34347
464,15.268,4.7197,0,2.3208e-05,231.92,8.3241e-06,7.6566,7.2258e-06,-0.59601,-2.3076e-05,-228.27,0.29218
465,15.848,4.1343,0,2.0231e-05,202.17,7.4289e-06,8.5278,6.1718e-06,-0.91792,-2.0085e-05,-198.2,0.30902
466,15.849,4.7229,0.05,4.1512e-07,4.1483,3.1876e-07,2.395,5.8129e-14,1.9486e-06,-3.1876e-07,-2.395,0.3091
467,15.854,5.3615,0,2.0235e-05,202.21,7.4411e-06,9.0901,6.2065e-06,-0.1869,-2.0068e-05,-197.6,0.30925
468,14.107,4.7152,0,2.9489e-05,294.68,1.0327e-05,6.8434,9.3454e-06,-0.53396,-2.9375e-05,-291.46,0.25888
469,14.686,4.1287,0,2.6123e-05,261.05,9.3034e-06,7.6839,8.1617e-06,-0.89416,-2.5997e-05,-257.55,0.27538
470,14.687,4.7165,0.05,4.7525e-07,4.7492,3.6493e-07,2.7419,1.4708e-15,1.5632e-06,-3.6493e-07,-2.7419,0.27541
471,14.691,5.3582,0,2.6154e-05,261.36,9.3592e-06,8.5748,8.1764e-06,-0.31254,-2.6003e-05,-257.12,0.27551
472,12.942,4.7292,0,3.6549e-05,365.23,1.2532e-05,5.2559,1.1744e-05,-0.66373,-3.6467e-05,-362.9,0.22624
473,13.52,4.1296,0,3.2791e-05,327.69,1.1392e-05,6.3758,1.0436e-05,-0.80322,-3.2691e-05,-324.84,0.24235
474,13.527,4.7139,0.05,5.4415e-07,5.4378,4.1784e-07,3.1395,1.1267e-13,1.2013e-06,-4.1784e-07,-3.1395,0.24253
475,13.53,5.357,0,3.284e-05,328.17,1.1467e-05,7.3809,1.0444e-05,-0.30589,-3.2713e-05,-324.57,0.24252
476,11.767,4.7607,0,4.4498e-05,444.67,1.4952e-05,2.6088,1.4471e-05,-1.0033,-4.4469e-05,-443.86,0.19433
477,12.347,4.147,0,4.0216e-05,401.88,1.3669e-05,3.9811,1.2962e-05,-1.3315,-4.0168e-05,-400.53,0.21001
478,12.356,4.7445,0.05,6.1086e-07,6.1043,4.6906e-07,3.5243,1.2251e-15,1.4316e-06,-4.6906e-07,-3.5243,0.21019
479,12.363,5.3722,0,4.0345e-05,403.17,1.3799e-05,5.5555,1.3e-05,-0.45368,-4.0255e-05,-400.59,0.21023
480,10.563,4.772,0,5.3334e-05,532.97,1.7696e-05,-0.12295,1.7428e-05,-2.1324,-5.3372e-05,-534.1,0.16287
481,11.171,4.1708,0,4.8567e-05,485.34,1.6064e-05,-0.068987,1.5958e-05,-0.86409,-4.8583e-05,-485.8,0.17868
482,11.178,4.7769,0.05,6.2069e-07,6.2026,4.7661e-07,3.5811,4.1121e-15,1.1813e-06,-4.7661e-07,-3.5811,0.17876
483,11.193,5.3884,0,4.8732e-05,486.99,1.6383e-05,3.1561,1.5861e-05,-0.76028,-4.8691e-05,-485.78,0.17893
484,9.3255,4.7637,0,6.294e-05,628.96,2.0604e-05,-6.8661,2.0422e-05,-8.2366,-6.3197e-05,-636.51,0.13217
485,9.9123,4.1738,0,5.7846e-05,578.06,1.9239e-05,-2.0586,1.8648e-05,-6.499,-5.799e-05,-582.32,0.14665
486,9.947,4.7671,0.05,5.1853e-07,5.1817,3.9817e-07,2.9917,1.4442e-13,7.2533e-07,-3.9817e-07,-2.9917,0.14736
487,9.9957,5.3836,0,5.8068e-05,580.28,1.9382e-05,2.457,1.9016e-05,-0.29156,-5.8031e-05,-579.19,0.1483
488,8.0926,4.7635,0,7.3861e-05,738.1,2.5774e-05,3.2771,2.2282e-05,-22.958,-7.4161e-05,-747.59,0.10349
489,8.6267,4.1766,0,6.8444e-05,683.97,2.3353e-05,-5.4255,2.078e-05,-24.762,-6.8937e-05,-698.86,0.11583
490,8.704,4.7604,0.05,9.9654e-08,0.99585,7.6522e-08,0.57496,8.5761e-13,1.4402e-05,-7.6522e-08,-0.57495,0.11744
491,8.7927,5.3802,0,6.8081e-05,680.34,2.253e-05,-2.3517,2.2144e-05,-5.255,-6.821e-05,-684.14,0.11918
492,6.8517,4.8321,0,8.5845e-05,857.86,2.8733e-05,-1.0494,2.7549e-05,-9.944,-8.6029e-05,-863.32,0.076859
493,7.2775,4.2008,0,8.1515e-05,814.59,2.988e-05,8.9758,2.2571e-05,-45.937,-8.2005e-05,-831.68,0.085928
494,7.4813,4.7665,0.05,1.4615e-06,14.605,1.1222e-06,8.4321,-2.7766e-14,-2.5621e-07,-1.1222e-06,-8.4321,0.090065
495,7.5999,5.3833,0,7.8355e-05,783.01,2.7123e-05,3.4502,2.4014e-05,-19.909,-7.8609e-05,-790.97,0.092257
496,5.7035,5.0358,0,9.1445e-05,913.81,3.2286e-05,12.436,2.7712e-05,-21.931,-9.1558e-05,-918.08,0.054485
497,5.777,4.3456,0,9.4756e-05,946.9,3.3665e-05,-22.228,2.505e-05,-86.958,-9.6447e-05,-999.84,0.056196
498,6.2221,4.8977,0.05,2.055e-06,20.535,1.578e-06,11.856,6.9439e-13,6.6494e-08,-1.578e-06,-11.856,0.064324
499,6.3888,5.4489,0,9.0876e-05,908.13,3.273e-05,29.89,2.8052e-05,-5.2578,-9.0406e-05,-895.31,0.067155
500,5.1848,5.1739,0.05,3.5152e-06,35.127,2.6992e-06,20.281,-2.3123e-14,-1.4986e-07,-2.6992e-06,-20.281,0.045096
501,5.2887,5.5869,0,9.2646e-05,925.82,3.2797e-05,29.706,2.9516e-05,5.0521,-9.203e-05,-908.2,0.046513
502,6.2618,2.5451,0,9.1262e-05,911.99,3.6173e-05,-1.6065,1.9154e-05,-129.48,-9.2816e-05,-970.78,0.065129
503,5.3828,3.1822,0,9.9393e-05,993.25,4.1274e-05,-7.0326,1.6713e-05,-191.57,-0.00010148,-1079.6,0.049076
504,5.075,2.1553,0,0.00010603,1059.6,4.3271e-05,31.186,2.3151e-05,-119.99,-0.00010673,-1095.9,0.043263
505,5.4337,2.571,0.05,2.4278e-06,24.262,1.8643e-06,14.007,3.5518e-14,6.1072e-06,-1.8643e-06,-14.007,0.049744
506,7.8134,2.483,0,7.5593e-05,755.41,2.7297e-05,-2.4862,2.0643e-05,-52.48,-7.6404e-05,-781.65,0.097191
507,7.0818,3.0771,0,8.263e-05,825.73,3.0135e-05,-3.5841,2.1951e-05,-65.081,-8.3626e-05,-858.35,0.081791
508,7.09,2.5192,0.05,1.6044e-06,16.033,1.232e-06,9.2569,-2.3083e-13,-3.2183e-08,-1.232e-06,-9.2569,0.081733
509,9.1972,2.4241,0,6.3565e-05,635.21,2.2192e-05,0.4438,1.8935e-05,-24.026,-6.393e-05,-646.65,0.12891
510,8.5432,3.0198,0,6.9033e-05,689.86,2.4553e-05,0.86229,1.981e-05,-34.771,-6.9541e-05,-706.12,0.11381
511,8.5369,2.4467,0.05,6.4873e-07,6.4828,4.9814e-07,3.7428,-7.2435e-14,2.0666e-07,-4.9814e-07,-3.7428,0.11343
512,10.493,2.3888,0,5.3354e-05,533.18,1.7914e-05,-0.88455,1.7006e-05,-7.7026,-5.3497e-05,-537.44,0.16085
513,9.8676,2.9909,0,5.7909e-05,578.69,1.9591e-05,-1.3046,1.8173e-05,-11.956,-5.8127e-05,-585.25,0.14542
514,9.8575,2.4014,0.05,9.5563e-07,9.5497,7.338e-07,5.5135,8.8376e-16,8.4727e-07,-7.338e-07,-5.5135,0.14493
515,11.734,2.3757,0,4.4451e-05,444.2,1.4786e-05,0.78138,1.4542e-05,-1.0481,-4.4455e-05,-444.33,0.19311
516,11.147,2.9705,0,4.8564e-05,485.31,1.6065e-05,-0.57117,1.5909e-05,-1.7451,-4.8603e-05,-486.46,0.17789
517,11.129,2.3762,0.05,6.1076e-07,6.1034,4.6899e-07,3.5238,2.0054e-15,9.6838e-07,-4.6899e-07,-3.5238,0.17719
518,12.931,2.3724,0,3.6501e-05,364.76,1.2551e-05,5.4047,1.1682e-05,-1.1213,-3.6424e-05,-362.57,0.22556
519,12.339,2.9623,0,4.0195e-05,401.67,1.3654e-05,3.7962,1.2951e-05,-1.4898,-4.0153e-05,-400.49,0.20959
520,12.338,2.3751,0.05,5.7779e-07,5.7739,4.4367e-07,3.3336,-3.8504e-22,9.7045e-07,-4.4367e-07,-3.3336,0.20934
521,14.106,2.3687,0,2.9453e-05,294.33,1.043e-05,7.8523,9.2293e-06,-1.1715,-2.9329e-05,-290.89,0.2584
522,13.519,2.9575,0,3.2774e-05,327.51,1.1431e-05,6.7549,1.0387e-05,-1.0888,-3.267e-05,-324.61,0.24209
523,13.524,2.3698,0.05,5.2718e-07,5.2682,4.0481e-07,3.0416,1.8068e-16,1.5515e-06,-4.0481e-07,-3.0416,0.24201
524,15.269,2.3688,0,2.3197e-05,231.81,8.4698e-06,9.0876,7.0964e-06,-1.2311,-2.3047e-05,-227.71,0.29171
525,14.687,2.9544,0,2.6108e-05,260.9,9.3681e-06,8.3237,8.0954e-06,-1.2388,-2.5974e-05,-257.22,0.27516
526,14.688,2.3677,0.05,4.7011e-07,4.6979,3.6099e-07,2.7123,-8.2931e-16,1.1936e-06,-3.6099e-07,-2.7123,0.27497
527,16.43,2.3707,0,1.7712e-05,177,6.717e-06,9.8246,5.2491e-06,-1.2052,-1.754e-05,-172.43,0.3256
528,15.849,2.9578,0,2.0237e-05,202.23,7.5095e-06,9.3161,6.1094e-06,-1.2038,-2.0078e-05,-197.97,0.30878
529,15.85,2.3699,0.05,4.1536e-07,4.1507,3.1895e-07,2.3964,5.7901e-14,1.7171e-06,-3.1895e-07,-2.3964,0.30861
530,17.593,2.3735,0,1.2996e-05,129.88,5.1967e-06,10.265,3.6617e-06,-1.2685,-1.2805e-05,-124.99,0.35999
531,17.01,2.9639,0,1.5133e-05,151.22,5.8691e-06,9.8521,4.3906e-06,-1.2562,-1.4956e-05,-146.62,0.34288
532,17.011,2.3716,0.05,3.5844e-07,3.5819,2.7524e-07,2.068,1.117e-13,1.9178e-06,-2.7524e-07,-2.068,0.34271
533,18.756,2.3778,0,9.0662e-06,90.599,3.9125e-06,10.494,2.3472e-06,-1.2666,-8.8517e-06,-85.411,0.39474
534,18.173,2.9694,0,1.081e-05,108.03,4.4635e-06,10.152,2.9438e-06,-1.2663,-1.0614e-05,-103.13,0.37747
535,18.175,2.3754,0.05,3.0117e-07,3.0097,2.3126e-07,1.7376,1.113e-13,2.1832e-06,-2.3126e-07,-1.7376,0.37735
536,19.918,2.3873,0,5.9328e-06,59.287,2.877e-06,10.61,1.2976e-06,-1.2574,-5.6839e-06,-53.713,0.42969
537,19.334,2.9772,0,7.2776e-06,72.726,3.3047e-06,10.328,1.7604e-06,-1.2755,-7.0538e-06,-67.502,0.41229
538,19.337,2.3801,0.05,2.4065e-07,2.4049,1.8479e-07,1.3884,1.1514e-13,2.3364e-06,-1.8479e-07,-1.3884,0.41219
539,21.083,2.3977,0,3.6051e-06,36.026,2.0944e-06,10.683,5.0573e-07,-1.2539,-3.2931e-06,-29.797,0.46489
540,20.497,2.9963,0,4.5459e-06,45.428,2.3983e-06,10.44,8.3753e-07,-1.2867,-4.2752e-06,-39.702,0.44737
541,20.499,2.3944,0.05,1.7985e-07,1.7972,1.381e-07,1.0376,1.3957e-13,2.13e-06,-1.381e-07,-1.0376,0.44723
542,21.664,3.0007,0,2.642e-06,26.402,1.7477e-06,10.559,1.7697e-07,-1.2434,-2.2775e-06,-19.686,0.48267
543,21.668,2.401,0.05,1.2259e-07,1.2251,9.4134e-08,0.70729,1.4092e-13,2.3331e-06,-9.4134e-08,-0.70728,0.48258
544,21.078,3.5992,0,3.6111e-06,36.086,2.0941e-06,10.636,5.0778e-07,-1.2837,-3.3011e-06,-29.902,0.46511
545,21.661,3.6003,0.05,1.2592e-07,1.2583,9.6689e-08,0.72649,1.6096e-13,2.659e-06,-9.6689e-08,-0.72648,0.48274
546,19.913,3.5862,0,5.9428e-06,59.387,2.8779e-06,10.548,1.2994e-06,-1.3121,-5.6961e-06,-53.874,0.42991
547,20.496,3.5982,0.05,1.8059e-07,1.8046,1.3867e-07,1.0419,1.4662e-13,2.3971e-06,-1.3867e-07,-1.0419,0.44749
548,18.75,3.5688,0,9.0837e-06,90.774,3.9124e-06,10.412,2.3559e-06,-1.2832,-8.8717e-06,-85.643,0.39494
549,19.331,3.5742,0.05,2.3389e-07,2.3373,1.796e-07,1.3494,1.4285e-13,2.3514e-06,-1.796e-07,-1.3494,0.41237
550,17.589,3.5599,0,1.3011e-05,130.02,5.1936e-06,10.173,3.6716e-06,-1.2628,-1.2821e-05,-125.18,0.36025
551,18.17,3.5634,0.05,2.9662e-07,2.9641,2.2777e-07,1.7114,1.7147e-13,2.0103e-06,-2.2777e-07,-1.7113,0.37756
552,16.428,3.551,0,1.7722e-05,177.1,6.7195e-06,9.7794,5.2498e-06,-1.2635,-1.7551e-05,-172.58,0.32589
553,17.009,3.5563,0.05,3.6031e-07,3.6007,2.7668e-07,2.0788,2.2729e-15,1.4325e-06,-2.7668e-07,-2.0788,0.34301
554,15.267,3.5433,0,2.3211e-05,231.95,8.4655e-06,8.9856,7.1072e-06,-1.2201,-2.3062e-05,-227.9,0.29201
555,15.847,3.5457,0.05,4.2256e-07,4.2227,3.2448e-07,2.438,1.1461e-13,1.2659e-06,-3.2448e-07,-2.438,0.30889
556,14.099,3.5431,0,2.9489e-05,294.68,1.0424e-05,7.6386,9.2523e-06,-1.1651,-2.9369e-05,-291.35,0.25858
557,14.686,3.541,0.05,4.8049e-07,4.8015,3.6895e-07,2.7722,1.1388e-13,1.4313e-06,-3.6895e-07,-2.7722,0.27528
558,12.926,3.5474,0,3.6521e-05,364.96,1.2584e-05,5.5152,1.1654e-05,-1.4705,-3.6447e-05,-362.89,0.22578
559,13.513,3.5453,0.05,5.3604e-07,5.3567,4.1161e-07,3.0927,-3.0941e-22,1.5751e-06,-4.1161e-07,-3.0927,0.24208
560,11.751,3.5571,0,4.4345e-05,443.14,1.4817e-05,1.5675,1.4468e-05,-1.0531,-4.4336e-05,-442.88,0.19395
561,12.339,3.5495,0.05,5.8598e-07,5.8558,4.4996e-07,3.3808,-1.1918e-16,9.6325e-07,-4.4996e-07,-3.3808,0.20972
562,10.521,3.5726,0,5.3134e-05,530.98,1.7742e-05,-0.99121,1.7092e-05,-5.8769,-5.325e-05,-534.39,0.16192
563,11.164,3.5647,0.05,5.7783e-07,5.7743,4.437e-07,3.3338,-8.7298e-16,9.4911e-07,-4.437e-07,-3.3338,0.17847
564,9.2136,3.5867,0,6.3375e-05,633.31,2.1983e-05,-0.64677,1.9024e-05,-22.882,-6.3746e-05,-644.78,0.12965
565,9.8777,3.5805,0.05,8.0104e-07,8.0049,6.151e-07,4.6216,7.7291e-15,2.3589e-07,-6.151e-07,-4.6216,0.14579
566,7.8116,3.6139,0,7.6082e-05,760.29,2.7473e-05,0.37349,2.1049e-05,-47.892,-7.6775e-05,-782.9,0.097474
567,8.5495,3.5929,0.05,6.2729e-07,6.2686,4.8168e-07,3.6192,-2.0831e-14,4.1735e-08,-4.8168e-07,-3.6192,0.11406
568,6.2028,3.7142,0,9.0655e-05,905.93,3.5484e-05,-7.1504,1.9327e-05,-128.55,-9.2351e-05,-967.65,0.064289
569,7.0737,3.635,0.05,2.6532e-06,26.513,2.0373e-06,15.307,-4.3214e-22,-1.4678e-07,-2.0373e-06,-15.307,0.081699
570,5.3318,3.7934,0.05,4.1174e-06,41.145,3.1616e-06,23.755,2.2946e-14,1.0135e-05,-3.1616e-06,-23.755,0.048234
571,4.1993,3.8967,0,0.00017196,1718.4,5.1549e-05,-394.65,2.8871e-05,-565.04,-0.00018765,-2191.9,0.029745
572,1.8187,1.6575,0.05,4.2994e-06,42.964,3.3014e-06,24.805,-7.0028e-22,9.4762e-07,-3.3014e-06,-24.805,0.0044923
573,2.3593,1.3287,0,0.00014189,1417.9,5.3338e-05,-92.241,2.6439e-05,-294.35,-0.00014738,-1600.4,0.0071358
574,2.1365,3.6645,0,0.00015438,1542.8,5.3465e-05,-3.1875,4.6343e-05,-56.702,-0.00015533,-1572,0.006847
575,2.0089,3.3214,0.05,6.9053e-06,69.006,5.3024e-06,39.84,5.7228e-14,4.8007e-07,-5.3024e-06,-39.84,0.0061261
576,2.4545,2.6607,0,0.00028883,2886.3,0.00010773,-226.76,5.1588e-05,-648.56,-0.0003014,-3300.8,0.0090907
577,2.4388,3.9915,0,0.00019526,1951.3,8.7983e-05,330.37,5.3786e-05,73.425,-0.00018712,-1736.6,0.0087177
578,2.2641,4.0076,0.05,1.1939e-06,11.931,9.1679e-07,6.8884,-3.5675e-13,1.6317e-07,-9.1679e-07,-6.8884,0.0074583
579,2.582,4.5038,0,0.00012723,1271.4,5.3885e-05,146.18,3.473e-05,2.2503,-0.00012409,-1191,0.009024
580,3.2204,2.9006,0.05,2.2293e-05,222.78,1.7118e-05,128.62,5.7034e-13,-2.7282e-14,-1.7118e-05,-128.62,0.016664
581,3.1435,2.4503,0,0.00026381,2636.2,0.00010268,103.19,6.9336e-05,-147.36,-0.00026366,-2649.4,0.015388
582,3.0602,3.4503,0,0.00038232,3820.5,0.00014554,-46.248,8.7592e-05,-481.66,-0.00038943,-4065.8,0.014839
583,4.3329,1.4653,0,0.00010256,1024.9,3.8073e-05,57.276,3.1878e-05,10.728,-0.00010132,-990.09,0.030539
584,3.7869,1.3881,0,0.00010966,1095.9,5.1396e-05,179.91,2.586e-05,-11.964,-0.00010554,-999.25,0.022193
585,3.9495,1.1912,0.05,9.7456e-06,97.389,7.4834e-06,56.227,2.1175e-13,1.7763e-06,-7.4834e-06,-56.227,0.02426
586,3.5081,1.0956,0,8.5655e-05,855.96,3.2663e-05,10.271,2.1514e-05,-73.501,-8.6422e-05,-884.49,0.017592
587,4.2513,1.9,0,0.00012589,1258,5.0539e-05,43.437,2.9688e-05,-113.23,-0.00012634,-1285.6,0.029764
588,4.7164,1.7395,0.05,3.5728e-06,35.703,2.7435e-06,20.613,1.2535e-13,1.4996e-05,-2.7435e-06,-20.613,0.036927
589,3.7053,1.8228,0,0.00013071,1306.2,4.9614e-05,59.013,3.7387e-05,-32.854,-0.00013003,-1290.7,0.021674
590,3.7863,2.0605,0.05,1.2588e-05,125.8,9.6662e-06,72.628,-5.8098e-13,6.2416e-06,-9.6662e-06,-72.628,0.023104
591,3.4265,2.0303,0,0.00023603,2358.7,7.7335e-05,-102.88,6.9369e-05,-162.73,-0.00024049,-2490.9,0.018211
592,2.6824,3.8333,0,0.00026504,2648.6,0.00012333,358.43,5.6541e-05,-143.39,-0.00025779,-2505.2,0.010798
593,2.6135,3.9753,0.05,1.9211e-05,191.98,1.4752e-05,110.84,-1.0041e-12,1.1172e-06,-1.4752e-05,-110.84,0.010056
594,2.7568,4.2377,0,0.00019468,1945.4,0.00011707,781.66,4.0892e-05,209.29,-0.00017139,-1385.7,0.01077
595,2.7513,3.6913,0.05,1.6945e-05,169.34,1.3012e-05,97.767,-2.76e-21,-2.0738e-14,-1.3012e-05,-97.767,0.011543
596,2.8257,3.8456,0,0.00042981,4295.2,0.00015297,-239.87,9.9899e-05,-638.62,-0.00044337,-4720.5,0.012039
597,3.6243,1.5851,0.05,1.1437e-05,114.29,8.7822e-06,65.986,1.3203e-14,5.5376e-08,-8.7822e-06,-65.986,0.020153
598,3.3455,1.5425,0,0.00016239,1622.8,8.7982e-05,403.01,2.822e-05,-46.016,-0.00015159,-1397,0.016236
599,3.7053,1.8228,0.1,0.00013071,1306.2,0.00013003,1290.7,-3.7387e-05,32.854,-4.9614e-05,-59.013,0.021674
600,3.7869,1.3881,0.1,0.00010966,1095.9,0.00010554,999.25,-2.586e-05,11.964,-5.1396e-05,-179.91,0.022193
601,3.3455,1.5425,0.1,0.00016239,1622.8,0.00015159,1397,-2.822e-05,46.016,-8.7982e-05,-403.01,0.016236
602,2.6824,3.8333,0.1,0.00026504,2648.6,0.00025779,2505.2,-5.6541e-05,143.39,-0.00012333,-358.43,0.010798
603,2.7384,3.3938,0.1,0.00028752,2873.2,0.00029138,2999.5,-7.5151e-05,245.49,-0.00010514,20.2,0.01163
604,2.8257,3.8456,0.1,0.00042981,4295.2,0.00044337,4720.5,-9.9899e-05,638.62,-0.00015297,239.87,0.012039
605,2.4388,3.9915,0.1,0.00019526,1951.3,0.00018712,1736.6,-5.3786e-05,-73.425,-8.7983e-05,-330.37,0.0087177
606,2.7568,4.2377,0.1,0.00019468,1945.4,0.00017139,1385.7,-4.0892e-05,-209.29,-0.00011707,-781.66,0.01077
607,4.2513,1.9,0.1,0.00012589,1258,0.00012634,1285.6,-2.9688e-05,113.23,-5.0539e-05,-43.437,0.029764
608,3.799,2.4843,0.1,0.00013939,1393,0.00013823,1359.3,-4.4974e-05,-17.185,-4.9275e-05,-49.499,0.023764
609,3.4265,2.0303,0.1,0.00023603,2358.7,0.00024049,2490.9,-6.9369e-05,162.73,-7.7335e-05,102.88,0.018211
610,4.3329,1.4653,0.1,0.00010256,1024.9,0.00010132,990.09,-3.1878e-05,-10.728,-3.8073e-05,-57.276,0.030539
611,5.075,2.1553,0.1,0.00010603,1059.6,0.00010673,1095.9,-2.3151e-05,119.99,-4.3271e-05,-31.186,0.043263
612,4.9545,1.3507,0.1,0.00010191,1018.4,0.00010156,1008.9,-3.1874e-05,6.2634,-3.5991e-05,-24.667,0.040513
613,4.0408,0.90994,0.1,8.6758e-05,866.98,8.3995e-05,801.88,-2.1091e-05,12.307,-3.9486e-05,-125.9,0.025196
614,3.5081,1.0956,0.1,8.5655e-05,855.96,8.6422e-05,884.49,-2.1514e-05,73.501,-3.2663e-05,-10.271,0.017592
615,3.5161,2.9043,0.1,0.0001721,1719.8,0.00016461,1541.9,-4.0439e-05,1.2673,-8.2333e-05,-313.51,0.02031
616,2.973,2.9985,0.1,0.00024057,2404.1,0.00023829,2351.2,-6.6384e-05,61.939,-9.5021e-05,-153.23,0.013971
617,3.0602,3.4503,0.1,0.00038232,3820.5,0.00038943,4065.8,-8.7592e-05,481.66,-0.00014554,46.248,0.014839
618,3.1435,2.4503,0.1,0.00026381,2636.2,0.00026366,2649.4,-6.9336e-05,147.36,-0.00010268,-103.19,0.015388
619,2.1365,3.6645,0.1,0.00015438,1542.8,0.00015533,1572,-4.6343e-05,56.702,-5.3465e-05,3.1875,0.006847
620,2.1369,4.5145,0.1,0.00014357,1434.7,0.00014332,1427.8,-4.558e-05,8.5306,-4.9606e-05,-21.717,0.0062256
621,2.4948,3.552,0.1,0.00021624,2160.9,0.00021788,2209.7,-6.7082e-05,68.603,-7.2281e-05,29.536,0.0094923
622,2.582,4.5038,0.1,0.00012723,1271.4,0.00012409,1191,-3.473e-05,-2.2503,-5.3885e-05,-146.18,0.009024
623,1.5574,3.9239,0.1,0.00014202,1419.3,0.00014024,1407.8,-2.7095e-05,150.51,-6.4589e-05,-131.21,0.0035437
624,1.9384,2.9276,0.1,0.00014525,1451.5,0.00014916,1573,-3.5835e-05,183.1,-5.1292e-05,66.96,0.0057006
625,2.4545,2.6607,0.1,0.00028883,2886.3,0.0003014,3300.8,-5.1588e-05,648.56,-0.00010773,226.76,0.0090907
626,1.35,1.8818,0.1,0.00013741,1373.1,0.00013503,1404.7,-1.1949e-05,300.34,-6.9589e-05,-132.74,0.0025487
627,1.8432,2.0956,0.1,0.00013232,1322.3,0.00013744,1493.1,-2.4363e-05,277.37,-4.994e-05,85.196,0.0048624
628,1.822,1.241,0.1,0.00011493,1148.5,0.00011911,1280.7,-2.5099e-05,197.13,-4.1124e-05,76.723,0.0042558
629,2.3593,1.3287,0.1,0.00014189,1417.9,0.00014738,1600.4,-2.6439e-05,294.35,-5.3338e-05,92.241,0.0071358
630,6.2028,3.7142,0.1,9.0655e-05,905.93,9.2351e-05,967.65,-1.9327e-05,128.55,-3.5484e-05,7.1504,0.064289
631,5.3828,3.1822,0.1,9.9393e-05,993.25,0.00010148,1079.6,-1.6713e-05,191.57,-4.1274e-05,7.0326,0.049076
632,5.777,4.3456,0.1,9.4756e-05,946.9,9.6447e-05,999.84,-2.505e-05,86.958,-3.3665e-05,22.228,0.056196
633,4.8953,4.1853,0.1,0.000108,1079.2,0.0001078,1079.9,-2.8913e-05,52.701,-4.1875e-05,-44.689,0.04071
634,4.1993,3.8967,0.1,0.00017196,1718.4,0.00018765,2191.9,-2.8871e-05,565.04,-5.1549e-05,394.65,0.029745
635,7.8116,3.6139,0.1,7.6082e-05,760.29,7.6775e-05,782.9,-2.1049e-05,47.892,-2.7473e-05,-0.37349,0.097474
636,7.0818,3.0771,0.1,8.263e-05,825.73,8.3626e-05,858.35,-2.1951e-05,65.081,-3.0135e-05,3.5841,0.081791
637,7.2775,4.2008,0.1,8.1515e-05,814.59,8.2005e-05,831.68,-2.2571e-05,45.937,-2.988e-05,-8.9758,0.085928
638,9.2136,3.5867,0.1,6.3375e-05,633.31,6.3746e-05,644.78,-1.9024e-05,22.882,-2.1983e-05,0.64677,0.12965
639,8.5432,3.0198,0.1,6.9033e-05,689.86,6.9541e-05,706.12,-1.981e-05,34.771,-2.4553e-05,-0.86229,0.11381
640,8.6267,4.1766,0.1,6.8444e-05,683.97,6.8937e-05,698.86,-2.078e-05,24.762,-2.3353e-05,5.4255,0.11583
641,10.521,3.5726,0.1,5.3134e-05,530.98,5.325e-05,534.39,-1.7092e-05,5.8769,-1.7742e-05,0.99121,0.16192
642,9.8676,2.9909,0.1,5.7909e-05,578.69,5.8127e-05,585.25,-1.8173e-05,11.956,-1.9591e-05,1.3046,0.14542
643,9.9123,4.1738,0.1,5.7846e-05,578.06,5.799e-05,582.32,-1.8648e-05,6.499,-1.9239e-05,2.0586,0.14665
644,11.751,3.5571,0.1,4.4345e-05,443.14,4.4336e-05,442.88,-1.4468e-05,1.0531,-1.4817e-05,-1.5675,0.19395
645,11.147,2.9705,0.1,4.8564e-05,485.31,4.8603e-05,486.46,-1.5909e-05,1.7451,-1.6065e-05,0.57117,0.17789
646,11.171,4.1708,0.1,4.8567e-05,485.34,4.8583e-05,485.8,-1.5958e-05,0.86409,-1.6064e-05,0.068988,0.17868
647,12.926,3.5474,0.1,3.6521e-05,364.96,3.6447e-05,362.89,-1.1654e-05,1.4705,-1.2584e-05,-5.5152,0.22578
648,12.339,2.9623,0.1,4.0195e-05,401.67,4.0153e-05,400.49,-1.2951e-05,1.4898,-1.3654e-05,-3.7962,0.20959
649,12.347,4.147,0.1,4.0216e-05,401.88,4.0168e-05,400.53,-1.2962e-05,1.3315,-1.3669e-05,-3.9811,0.21001
650,14.099,3.5431,0.1,2.9489e-05,294.68,2.9369e-05,291.35,-9.2523e-06,1.1651,-1.0424e-05,-7.6386,0.25858
651,13.519,2.9575,0.1,3.2774e-05,327.51,3.267e-05,324.61,-1.0387e-05,1.0888,-1.1431e-05,-6.7549,0.24209
652,13.52,4.1296,0.1,3.2791e-05,327.69,3.2691e-05,324.84,-1.0436e-05,0.80322,-1.1392e-05,-6.3758,0.24235
653,15.267,3.5433,0.1,2.3211e-05,231.95,2.3062e-05,227.9,-7.1072e-06,1.2201,-8.4655e-06,-8.9856,0.29201
654,14.687,2.9544,0.1,2.6108e-05,260.9,2.5974e-05,257.22,-8.0954e-06,1.2388,-9.3681e-06,-8.3237,0.27516
655,14.686,4.1287,0.1,2.6123e-05,261.05,2.5997e-05,257.55,-8.1617e-06,0.89416,-9.3034e-06,-7.6839,0.27538
656,16.428,3.551,0.1,1.7722e-05,177.1,1.7551e-05,172.58,-5.2498e-06,1.2635,-6.7195e-06,-9.7794,0.32589
657,15.849,2.9578,0.1,2.0237e-05,202.23,2.0078e-05,197.97,-6.1094e-06,1.2038,-7.5095e-06,-9.3161,0.30878
658,15.848,4.1343,0.1,2.0231e-05,202.17,2.0085e-05,198.2,-6.1718e-06,0.91792,-7.4289e-06,-8.5278,0.30902
659,17.589,3.5599,0.1,1.3011e-05,130.02,1.2821e-05,125.18,-3.6716e-06,1.2628,-5.1936e-06,-10.173,0.36025
660,17.01,2.9639,0.1,1.5133e-05,151.22,1.4956e-05,146.62,-4.3906e-06,1.2562,-5.8691e-06,-9.8521,0.34288
661,17.009,4.1466,0.1,1.5118e-05,151.08,1.4957e-05,146.81,-4.4576e-06,0.93463,-5.7784e-06,-8.989,0.34315
662,18.75,3.5688,0.1,9.0837e-06,90.774,8.8717e-06,85.643,-2.3559e-06,1.2832,-3.9124e-06,-10.412,0.39494
663,18.173,2.9694,0.1,1.081e-05,108.03,1.0614e-05,103.13,-2.9438e-06,1.2663,-4.4635e-06,-10.152,0.37747
664,18.172,4.1637,0.1,1.0784e-05,107.76,1.0607e-05,103.25,-3.0132e-06,0.9197,-4.3627e-06,-9.2197,0.37775
665,19.913,3.5862,0.1,5.9428e-06,59.387,5.6961e-06,53.874,-1.2994e-06,1.3121,-2.8779e-06,-10.548,0.42991
666,19.334,2.9772,0.1,7.2776e-06,72.726,7.0538e-06,67.502,-1.7604e-06,1.2755,-3.3047e-06,-10.328,0.41229
667,19.334,4.1831,0.1,7.2298e-06,72.248,7.0325e-06,67.527,-1.8229e-06,0.99046,-3.1957e-06,-9.3243,0.4126
668,21.078,3.5992,0.1,3.6111e-06,36.086,3.3011e-06,29.902,-5.0778e-07,1.2837,-2.0941e-06,-10.636,0.46511
669,20.497,2.9963,0.1,4.5459e-06,45.428,4.2752e-06,39.702,-8.3753e-07,1.2867,-2.3983e-06,-10.44,0.44737
670,20.498,4.1994,0.1,4.4726e-06,44.696,4.2404e-06,39.623,-9.0136e-07,0.98924,-2.2747e-06,-9.3299,0.44772
671,21.664,3.0007,0.1,2.642e-06,26.402,2.2775e-06,19.686,-1.7697e-07,1.2434,-1.7477e-06,-10.559,0.48267
672,21.664,4.1998,0.1,2.5259e-06,25.242,2.2239e-06,19.471,-2.43e-07,0.93584,-1.6022e-06,-9.2769,0.483
673,22.246,3.601,0.1,2.1083e-06,21.069,1.6769e-06,13.655,2.8529e-08,1.2696,-1.5608e-06,-10.672,0.50047
674,21.083,2.3977,0.1,3.6051e-06,36.026,3.2931e-06,29.797,-5.0573e-07,1.2539,-2.0944e-06,-10.683,0.46489
675,22.25,2.3982,0.1,2.1049e-06,21.034,1.6714e-06,13.594,3.1644e-08,1.2736,-1.561e-06,-10.693,0.50022
676,21.67,1.7989,0.1,2.5191e-06,25.174,2.2164e-06,19.394,-2.4042e-07,0.93465,-1.6001e-06,-9.2815,0.48244
677,19.918,2.3873,0.1,5.9328e-06,59.287,5.6839e-06,53.713,-1.2976e-06,1.2574,-2.877e-06,-10.61,0.42969
678,20.5,1.793,0.1,4.4669e-06,44.638,4.2337e-06,39.535,-9.009e-07,0.95592,-2.2735e-06,-9.3572,0.44703
679,18.756,2.3778,0.1,9.0662e-06,90.599,8.8517e-06,85.411,-2.3472e-06,1.2666,-3.9125e-06,-10.494,0.39474
680,19.338,1.7849,0.1,7.2212e-06,72.162,7.0226e-06,67.398,-1.8224e-06,0.9409,-3.1935e-06,-9.3613,0.41199
681,17.593,2.3735,0.1,1.2996e-05,129.88,1.2805e-05,124.99,-3.6617e-06,1.2685,-5.1967e-06,-10.265,0.35999
682,18.175,1.7809,0.1,1.0768e-05,107.61,1.0591e-05,103.09,-3.0045e-06,0.94333,-4.3613e-06,-9.2512,0.37712
683,16.43,2.3707,0.1,1.7712e-05,177,1.754e-05,172.43,-5.2491e-06,1.2052,-6.717e-06,-9.8246,0.3256
684,17.011,1.7785,0.1,1.5106e-05,150.95,1.4944e-05,146.68,-4.4497e-06,0.96195,-5.7776e-06,-9.0153,0.34246
685,15.269,2.3688,0.1,2.3197e-05,231.81,2.3047e-05,227.71,-7.0964e-06,1.2311,-8.4698e-06,-9.0876,0.29171
686,15.851,1.7761,0.1,2.0219e-05,202.05,2.0072e-05,198.06,-6.1699e-06,0.88932,-7.4237e-06,-8.531,0.30836
687,14.106,2.3687,0.1,2.9453e-05,294.33,2.9329e-05,290.89,-9.2293e-06,1.1715,-1.043e-05,-7.8523,0.2584
688,14.688,1.7746,0.1,2.6102e-05,260.84,2.5977e-05,257.37,-8.1431e-06,1.0065,-9.3057e-06,-7.7289,0.27469
689,12.931,2.3724,0.1,3.6501e-05,364.76,3.6424e-05,362.57,-1.1682e-05,1.1213,-1.2551e-05,-5.4047,0.22556
690,13.524,1.7763,0.1,3.2781e-05,327.58,3.2683e-05,324.81,-1.044e-05,0.80358,-1.1376e-05,-6.2289,0.24171
691,11.734,2.3757,0.1,4.4451e-05,444.2,4.4455e-05,444.33,-1.4542e-05,1.0481,-1.4786e-05,-0.78138,0.19311
692,12.339,1.7847,0.1,4.0292e-05,402.65,4.0249e-05,401.41,-1.3036e-05,1.0443,-1.3638e-05,-3.4759,0.20904
693,10.493,2.3888,0.1,5.3354e-05,533.18,5.3497e-05,537.44,-1.7006e-05,7.7026,-1.7914e-05,0.88455,0.16085
694,11.14,1.7876,0.1,4.8738e-05,487.04,4.8778e-05,488.21,-1.6e-05,1.4994,-1.6088e-05,0.83533,0.17712
695,9.1972,2.4241,0.1,6.3565e-05,635.21,6.393e-05,646.65,-1.8935e-05,24.026,-2.2192e-05,-0.4438,0.12891
696,9.884,1.8062,0.1,5.8139e-05,580.98,5.8327e-05,586.59,-1.847e-05,9.5748,-1.9515e-05,1.7232,0.14521
697,7.8134,2.483,0.1,7.5593e-05,755.41,7.6404e-05,781.65,-2.0643e-05,52.48,-2.7297e-05,2.4862,0.097191
698,8.5929,1.8495,0.1,6.8849e-05,688.02,6.9322e-05,702.52,-2.0615e-05,26.765,-2.3796e-05,2.8662,0.11435
699,6.2618,2.5451,0.1,9.1262e-05,911.99,9.2816e-05,970.78,-1.9154e-05,129.48,-3.6173e-05,1.6065,0.065129
700,7.2186,1.917,0.1,8.1304e-05,812.48,8.2106e-05,839.18,-2.1878e-05,57.881,-2.9749e-05,-1.2557,0.084049
701,5.7928,1.9055,0.1,9.5648e-05,955.82,9.7082e-05,1005.8,-2.2829e-05,104.87,-3.6351e-05,3.2762,0.055858
702,4.6227,2.7395,0.1,0.00012121,1211.2,0.00012017,1181.3,-3.9207e-05,-16.208,-4.2794e-05,-43.158,0.036173
703,5.7035,5.0358,0.1,9.1445e-05,913.81,9.1558e-05,918.08,-2.7712e-05,21.931,-3.2286e-05,-12.436,0.054485
704,4.6194,5.3146,0.1,8.4111e-05,840.53,8.3148e-05,812.4,-2.7726e-05,-20.661,-2.9689e-05,-35.406,0.035428
705,4.8218,4.8755,0.1,0.00010451,1044.4,0.00010291,998.12,-3.3558e-05,-27.223,-3.8506e-05,-64.399,0.039152
706,5.2887,5.5869,0.1,9.2646e-05,925.82,9.203e-05,908.2,-2.9516e-05,-5.0521,-3.2797e-05,-29.706,0.046513
707,6.8517,4.8321,0.1,8.5845e-05,857.86,8.6029e-05,863.32,-2.7549e-05,9.944,-2.8733e-05,1.0494,0.076859
708,6.3888,5.4489,0.1,9.0876e-05,908.13,9.0406e-05,895.31,-2.8052e-05,5.2578,-3.273e-05,-29.89,0.067155
709,8.0926,4.7635,0.1,7.3861e-05,738.1,7.4161e-05,747.59,-2.2282e-05,22.958,-2.5774e-05,-3.2771,0.10349
710,7.5999,5.3833,0.1,7.8355e-05,783.01,7.8609e-05,790.97,-2.4014e-05,19.909,-2.7123e-05,-3.4502,0.092257
711,9.3255,4.7637,0.1,6.294e-05,628.96,6.3197e-05,636.51,-2.0422e-05,8.2366,-2.0604e-05,6.8661,0.13217
712,8.7927,5.3802,0.1,6.8081e-05,680.34,6.821e-05,684.14,-2.2144e-05,5.255,-2.253e-05,2.3517,0.11918
713,10.563,4.772,0.1,5.3334e-05,532.97,5.3372e-05,534.1,-1.7428e-05,2.1324,-1.7696e-05,0.12295,0.16287
714,9.9957,5.3836,0.1,5.8068e-05,580.28,5.8031e-05,579.19,-1.9016e-05,0.29156,-1.9382e-05,-2.457,0.1483
715,11.767,4.7607,0.1,4.4498e-05,444.67,4.4469e-05,443.86,-1.4471e-05,1.0033,-1.4952e-05,-2.6088,0.19433
716,11.193,5.3884,0.1,4.8732e-05,486.99,4.8691e-05,485.78,-1.5861e-05,0.76028,-1.6383e-05,-3.1561,0.17893
717,12.942,4.7292,0.1,3.6549e-05,365.23,3.6467e-05,362.9,-1.1744e-05,0.66373,-1.2532e-05,-5.2559,0.22624
718,12.363,5.3722,0.1,4.0345e-05,403.17,4.0255e-05,400.59,-1.3e-05,0.45368,-1.3799e-05,-5.5555,0.21023
719,14.107,4.7152,0.1,2.9489e-05,294.68,2.9375e-05,291.46,-9.3454e-06,0.53396,-1.0327e-05,-6.8434,0.25888
720,13.53,5.357,0.1,3.284e-05,328.17,3.2713e-05,324.57,-1.0444e-05,0.30589,-1.1467e-05,-7.3809,0.24252
721,15.268,4.7197,0.1,2.3208e-05,231.92,2.3076e-05,228.27,-7.2258e-06,0.59601,-8.3241e-06,-7.6566,0.29218
722,14.691,5.3582,0.1,2.6154e-05,261.36,2.6003e-05,257.12,-8.1764e-06,0.31254,-9.3592e-06,-8.5748,0.27551
723,16.429,4.7299,0.1,1.7696e-05,176.83,1.755e-05,172.87,-5.379e-06,0.59402,-6.5476e-06,-8.1867,0.32611
724,15.854,5.3615,0.1,2.0235e-05,202.21,2.0068e-05,197.6,-6.2065e-06,0.1869,-7.4411e-06,-9.0901,0.30925
725,17.592,4.7504,0.1,1.2961e-05,129.52,1.2802e-05,125.33,-3.7985e-06,0.59689,-5.0084e-06,-8.4938,0.36053
726,17.016,5.3684,0.1,1.5097e-05,150.87,1.4917e-05,146.02,-4.4911e-06,0.19142,-5.7724e-06,-9.4355,0.34347
727,18.755,4.778,0.1,8.9976e-06,89.914,8.8268e-06,85.583,-2.4794e-06,0.63242,-3.7061e-06,-8.5839,0.39534
728,18.18,5.3819,0.1,1.0743e-05,107.35,1.0552e-05,102.37,-3.0481e-06,0.18642,-4.3375e-06,-9.5017,0.37816
729,19.919,4.7963,0.1,5.8236e-06,58.195,5.6346e-06,53.709,-1.4241e-06,0.67331,-2.651e-06,-8.5452,0.43036
730,19.342,5.396,0.1,7.1707e-06,71.658,6.9666e-06,66.585,-1.8719e-06,0.17694,-3.1418e-06,-9.3652,0.4131
731,21.084,4.8,0.1,3.4381e-06,34.358,3.2165e-06,29.592,-6.3576e-07,0.64749,-1.8369e-06,-8.3775,0.46558
732,20.506,5.4003,0.1,4.3784e-06,43.753,4.152e-06,38.537,-9.5669e-07,0.15271,-2.1887e-06,-9.1037,0.44822
733,22.249,4.8019,0.1,1.8409e-06,18.396,1.5598e-06,13.184,-1.0796e-07,0.65297,-1.251e-06,-7.9357,0.50088
734,21.671,5.3997,0.1,2.3552e-06,23.536,2.0889e-06,18.13,-2.9672e-07,0.20503,-1.4584e-06,-8.5231,0.48349
735,22.831,4.2031,0.1,1.4078e-06,14.068,9.7269e-07,7.0662,1.6244e-07,0.97825,-1.1683e-06,-9.0207,0.51838
736,22.834,5.4022,0.1,1.1257e-06,11.25,7.8921e-07,5.5138,8.4125e-08,0.21606,-9.3038e-07,-7.4065,0.51877
737,23.416,4.8022,0.1,1.0335e-06,10.328,6.7103e-07,4.5701,1.5183e-07,0.66906,-8.8755e-07,-7.1404,0.53626
738,22.832,2.9985,0.1,1.5835e-06,15.824,1.0444e-06,7.3649,2.3577e-07,1.2894,-1.3462e-06,-10.597,0.51804
739,23.416,3.6008,0.1,1.4131e-06,14.121,8.3085e-07,5.3247,3.0014e-07,1.3371,-1.2569e-06,-10.362,0.53593
740,22.834,1.7959,0.1,1.4073e-06,14.064,9.7047e-07,7.0396,1.6425e-07,0.98194,-1.1693e-06,-9.0378,0.51772
741,23.416,2.3977,0.1,1.4132e-06,14.122,8.3037e-07,5.3168,3.0044e-07,1.3351,-1.2573e-06,-10.369,0.53557
742,22.254,1.1966,0.1,1.8371e-06,18.358,1.5556e-06,13.141,-1.0665e-07,0.65177,-1.2497e-06,-7.9368,0.49992
743,23.418,1.1982,0.1,1.0328e-06,10.321,6.695e-07,4.5493,1.5221e-07,0.66252,-8.8769e-07,-7.1509,0.53522
744,22.836,0.59822,0.1,1.125e-06,11.242,7.8857e-07,5.5083,8.4132e-08,0.21547,-9.2983e-07,-7.4031,0.51737
745,21.086,1.1942,0.1,3.4304e-06,34.28,3.2094e-06,29.526,-6.3476e-07,0.64297,-1.8324e-06,-8.3559,0.46455
746,21.673,0.5984,0.1,2.3529e-06,23.513,2.0886e-06,18.135,-2.9976e-07,0.19016,-1.4539e-06,-8.4817,0.4821
747,19.919,1.1906,0.1,5.8193e-06,58.153,5.6301e-06,53.654,-1.4249e-06,0.64578,-2.6485e-06,-8.5481,0.42928
748,20.506,0.59576,0.1,4.3717e-06,43.687,4.1448e-06,38.472,-9.5125e-07,0.18216,-2.1885e-06,-9.1144,0.44675
749,18.757,1.1881,0.1,8.9918e-06,89.856,8.8212e-06,85.528,-2.479e-06,0.6231,-3.7027e-06,-8.5716,0.39429
750,19.343,0.59487,0.1,7.1626e-06,71.576,6.959e-06,66.518,-1.8696e-06,0.18423,-3.1379e-06,-9.3458,0.41166
751,17.593,1.1859,0.1,1.2947e-05,129.38,1.279e-05,125.23,-3.7919e-06,0.64138,-5.0034e-06,-8.4614,0.35948
752,18.18,0.59321,0.1,1.0734e-05,107.26,1.0546e-05,102.35,-3.0546e-06,0.16681,-4.3211e-06,-9.3496,0.37672
753,16.431,1.1838,0.1,1.7682e-05,176.7,1.7537e-05,172.77,-5.3699e-06,0.65073,-6.5453e-06,-8.1805,0.32506
754,17.016,0.59266,0.1,1.5087e-05,150.76,1.491e-05,146.01,-4.4948e-06,0.20605,-5.7562e-06,-9.2711,0.34203
755,15.269,1.1819,0.1,2.3191e-05,231.75,2.3061e-05,228.16,-7.2159e-06,0.66946,-8.3189e-06,-7.6178,0.29112
756,15.855,0.59116,0.1,2.0222e-05,202.08,2.006e-05,197.6,-6.2113e-06,0.2124,-7.4199e-06,-8.868,0.30781
757,14.106,1.1821,0.1,2.9492e-05,294.71,2.9385e-05,291.71,-9.3529e-06,0.64474,-1.0307e-05,-6.5265,0.25774
758,14.692,0.59072,0.1,2.6143e-05,261.25,2.5998e-05,257.19,-8.1886e-06,0.3297,-9.3275e-06,-8.2271,0.27405
759,12.932,1.1885,0.1,3.6629e-05,366.04,3.6559e-05,364.03,-1.1793e-05,0.73282,-1.2515e-05,-4.6902,0.22486
760,13.529,0.59142,0.1,3.2872e-05,328.5,3.2752e-05,325.09,-1.046e-05,0.41,-1.1459e-05,-7.0911,0.24099
761,11.745,1.1966,0.1,4.4633e-05,446.02,4.462e-05,445.65,-1.4554e-05,1.041,-1.4928e-05,-1.767,0.19263
762,12.355,0.5971,0.1,4.0421e-05,403.93,4.0334e-05,401.45,-1.3007e-05,0.66783,-1.3835e-05,-5.5566,0.20853
763,10.53,1.2049,0.1,5.3567e-05,535.3,5.3647e-05,537.67,-1.7493e-05,3.1466,-1.7699e-05,1.5974,0.16094
764,11.179,0.59949,0.1,4.8844e-05,488.11,4.8808e-05,487.05,-1.5919e-05,0.71792,-1.639e-05,-2.8209,0.17709
765,9.2797,1.2316,0.1,6.3442e-05,633.99,6.3733e-05,642.58,-2.0182e-05,12.073,-2.1101e-05,5.1666,0.12999
766,9.9775,0.60546,0.1,5.8252e-05,582.12,5.8263e-05,582.44,-1.9098e-05,1.1795,-1.9325e-05,-0.52556,0.14638
767,7.9981,1.2835,0.1,7.454e-05,744.89,7.5019e-05,760.01,-2.1857e-05,32.119,-2.6238e-05,-0.7937,0.10036
768,8.7652,0.62617,0.1,6.8536e-05,684.89,6.8677e-05,689.04,-2.228e-05,5.6241,-2.267e-05,2.6921,0.1171
769,6.7496,1.2773,0.1,8.5802e-05,857.43,8.6332e-05,873.93,-2.5493e-05,33.732,-2.9948e-05,0.25297,0.073795
770,7.5329,0.65735,0.1,7.8998e-05,789.43,7.9365e-05,800.67,-2.4227e-05,22.317,-2.7117e-05,0.60359,0.089429
771,5.6722,1.1009,0.1,9.1797e-05,917.34,9.1808e-05,918.03,-2.88e-05,11.833,-3.1713e-05,-10.056,0.052844
772,6.3537,0.61995,0.1,8.9168e-05,891.06,8.9189e-05,891.81,-2.8552e-05,7.1519,-3.0238e-05,-5.5151,0.065105
773,4.6623,0.79528,0.1,8.3242e-05,831.84,8.2289e-05,806.03,-2.4951e-05,0.27195,-3.1594e-05,-49.64,0.034892
774,5.2926,0.48092,0.1,9.1509e-05,914.45,9.038e-05,881.64,-2.9896e-05,-22.065,-3.2708e-05,-43.195,0.045141
775,0.90628,2.6685,0.1,0.00015904,1589.3,0.00014705,1450.3,-5.185e-06,306.54,-9.4483e-05,-364.41,0.0012203
776,1.0186,3.8787,0.1,0.00014923,1491.3,0.00013818,1355.8,-6.572e-06,268.17,-8.8067e-05,-344.15,0.0015307
777,1.3996,2.8823,0.1,0.00015058,1504.8,0.00014819,1529.2,-1.6357e-05,292.9,-7.4813e-05,-146.31,0.0029404
778,0.46564,3.4155,0.1,0.00013462,1345.3,0.00014921,1837.9,-2.7288e-06,696.35,-4.818e-05,354.85,0.00032706
779,0.88192,1.5694,0.1,0.00014656,1464.6,0.00013655,1344.2,-7.7268e-06,260.13,-8.5196e-05,-321.95,0.0010474
780,1.3539,0.92869,0.1,0.00012114,1210.5,0.00011965,1212.8,-2.0015e-05,163.39,-5.6611e-05,-111.58,0.0022177
781,0.44128,1.1164,0.1,0.00011351,1134.4,0.00012627,1553.1,-4.4025e-06,571.3,-3.8995e-05,311.38,0.00024564
782,0.92461,0.51642,0.1,0.00013231,1322.2,0.00012624,1226,-1.8603e-05,137.65,-6.9597e-05,-245.5,0.00091433
783,0.44064,2.253,0.1,0.00012834,1282.5,0.0001422,1753.6,-1.9989e-06,670.07,-4.6262e-05,337.49,0.0002799
784,3.9686,5.2327,0.1,7.8245e-05,781.91,7.6106e-05,723.18,-2.3243e-05,-23.29,-3.2109e-05,-89.909,0.025291
785,3.5603,5.4777,0.1,5.9432e-05,593.91,6.1343e-05,651.31,-1.5509e-05,73.88,-1.9725e-05,42.202,0.018857
786,4.1418,5.7277,0.1,7.5444e-05,753.92,7.4046e-05,714.3,-2.3607e-05,-19.432,-2.8781e-05,-58.308,0.027337
787,1.5578,4.7739,0.1,0.00012759,1275,0.00012472,1237.3,-2.2851e-05,128.49,-6.0703e-05,-155.91,0.0032172
788,0.55292,4.6632,0.1,0.00011828,1182,0.00013258,1649.8,-3.0853e-06,630.46,-3.9864e-05,354.12,0.00042448
789,1.0363,5.2632,0.1,0.00012929,1292,0.0001231,1190.2,-1.8455e-05,126.66,-6.8258e-05,-247.54,0.0013182
790,4.171,4.7936,0.1,9.6716e-05,966.49,9.4231e-05,896.62,-2.9865e-05,-35.786,-3.8503e-05,-100.69,0.028812
791,3.475,5.005,0.1,9.9475e-05,994.06,9.3817e-05,898.67,-1.3106e-05,95.303,-5.414e-05,-213.01,0.018305
792,3.7627,4.5386,0.1,0.00012485,1247.6,0.00012017,1118.2,-3.751e-05,-66.502,-5.3133e-05,-183.89,0.022963
793,2.4549,5.2607,0.1,8.1536e-05,814.8,8.4517e-05,904.28,-2.0762e-05,113.25,-2.6834e-05,67.635,0.0070827
794,1.9716,5.5107,0.1,0.0001153,1152.2,0.00011662,1192,-3.3963e-05,60.595,-3.9357e-05,20.072,0.0043947
795,3.5994,0.56435,0.1,6.2131e-05,620.88,6.375e-05,670.71,-1.5816e-05,72.878,-2.1644e-05,29.09,0.017819
796,4.1808,0.31435,0.1,7.1479e-05,714.29,7.0355e-05,683.72,-2.1274e-05,-4.7456,-2.7812e-05,-53.869,0.026279
797,2.3839,2.0169,0.1,0.00020004,1999.1,0.00020773,2269.8,-3.2e-05,468.54,-7.8516e-05,119.04,0.0080251
798,2.3627,0.66227,0.1,0.0001043,1042.3,0.00010797,1153.3,-2.5997e-05,146.71,-3.5068e-05,78.556,0.0063665
799,1.8793,0.41227,0.1,0.00010684,1067.6,0.00010903,1132,-3.2803e-05,66.369,-3.3325e-05,62.447,0.0038251
800,3.4392,3.454,0.1,0.00018977,1896.4,0.00020208,2261.5,-4.3724e-05,414.67,-5.6442e-05,319.11,0.019359
801,2.8128,2.5482,0.1,0.00035498,3547.3,0.00036851,3972.8,-7.7358e-05,622.67,-0.00012607,256.64,0.012028
802,3.0667,5.25,0.1,9.3601e-05,935.36,9.0741e-05,914.63,-1.0594e-05,153.23,-4.822e-05,-129.48,0.01204
803,3.0667,5.75,0.1,3.8781e-05,387.55,4.338e-05,538.61,-1.0151e-06,205.05,-1.3202e-05,113.48,0.011133
804,3.0667,5.5,0.05,9.997e-06,99.901,7.6765e-06,57.678,-1.6283e-21,-1.2234e-14,-7.6765e-06,-57.678,0.011551
805,3.0667,4.75,0.1,0.00014707,1469.7,0.00013639,1245.3,-2.5e-05,32.661,-8.1154e-05,-389.26,0.013059
806,3.0667,5,0.05,3.8072e-05,380.46,2.9235e-05,219.66,-6.2011e-21,-4.6593e-14,-2.9235e-05,-219.66,0.012502
807,3.0667,4.25,0.1,0.00020208,2019.4,0.00021218,2321.6,-4.8246e-05,364.86,-6.42e-05,244.99,0.013975
808,3.0667,4.5,0.05,3.8737e-06,38.71,2.9745e-06,22.349,-6.3093e-22,1.129e-06,-2.9745e-06,-22.349,0.013481
809,2.9833,4,0.1,0.00039451,3942.3,0.00041801,4718.6,-5.5661e-05,1159.7,-0.00014598,481.04,0.013336
810,3.0667,4,0.05,1.5724e-05,157.14,1.2074e-05,90.723,-2.6609e-13,1.5047e-05,-1.2074e-05,-90.723,0.014276
811,2.9,4.25,0.1,0.00032459,3243.6,0.00032285,3344.7,-4.3968e-05,588.6,-0.00015287,-229.66,0.011889
812,2.9,4,0.05,9.9586e-05,995.18,7.647e-05,574.56,-1.622e-20,5.7457e-05,-7.647e-05,-574.56,0.012457
813,2.9,4.75,0.1,0.00018143,1813,0.0001533,1177.8,-2.954e-05,-196.01,-0.0001202,-877.2,0.010643
814,2.9,4.5,0.05,9.1564e-05,915.01,7.031e-05,528.28,-1.4914e-20,-4.8759e-06,-7.031e-05,-528.28,0.011241
815,2.9,5.25,0.1,9.2626e-05,925.62,8.7495e-05,834.34,-1.3457e-05,75.83,-4.9774e-05,-197.04,0.0095668
816,2.9,5,0.05,1.8848e-05,188.35,1.4473e-05,108.75,-2.2079e-13,-5.5564e-06,-1.4473e-05,-108.75,0.010077
817,2.9,5.75,0.1,4.6419e-05,463.87,4.8682e-05,606.04,6.4334e-06,288.6,-2.217e-05,73.686,0.0086503
818,2.9,5.5,0.05,2.4045e-06,24.028,1.8463e-06,13.873,-1.3734e-14,-9.988e-15,-1.8463e-06,-13.873,0.009096
819,3.0667,0.75,0.1,6.8985e-05,689.38,7.2665e-05,802.06,-1.4413e-05,147.8,-2.3136e-05,82.257,0.010381
820,3.0667,0.25,0.1,4.6075e-05,460.43,4.9607e-05,580.42,-3.8625e-06,178.67,-1.7265e-05,77.972,0.0091609
821,3.0667,0.5,0.05,7.9463e-06,79.408,6.1018e-06,45.846,-1.2943e-21,-9.7247e-15,-6.1018e-06,-45.846,0.0097375
822,3.0667,1.25,0.1,0.00015156,1514.6,0.00014407,1369.4,-2.6231e-05,89.848,-7.849e-05,-302.81,0.01169
823,3.0667,1,0.05,1.1362e-05,113.55,8.725e-06,65.556,-1.8507e-21,-1.3905e-14,-8.725e-06,-65.556,0.010995
824,3.0667,1.75,0.1,0.00024512,2449.5,0.00024474,2467.1,-5.8642e-05,187.62,-9.9957e-05,-122.8,0.013101
825,3.0667,1.5,0.05,3.8573e-05,385.46,2.9619e-05,222.55,-8.8642e-13,-4.7206e-14,-2.9619e-05,-222.55,0.01237
826,2.9833,2,0.1,0.00036825,3679.9,0.00038444,4200,-7.0877e-05,778.96,-0.00013372,306.78,0.01284
827,3.0667,2,0.05,1.1799e-05,117.9,9.0599e-06,68.072,-2.3711e-13,1.0984e-06,-9.0599e-06,-68.072,0.013724
828,2.9,1.75,0.1,0.00034682,3465.8,0.00036285,4019.1,-5.1322e-05,907.19,-0.00013425,284.07,0.011492
829,2.9,2,0.05,3.6795e-05,367.69,2.8254e-05,212.29,-5.993e-21,-4.5029e-14,-2.8254e-05,-212.29,0.011995
830,2.9,1.25,0.1,0.00021575,2156,0.00022362,2421.7,-3.9771e-05,442.73,-8.2163e-05,124.21,0.010486
831,2.9,1.5,0.05,2.9022e-05,290.02,2.2285e-05,167.44,-4.7271e-21,1.4556e-05,-2.2285e-05,-167.44,0.010974
832,2.9,0.75,0.1,0.00013588,1357.8,0.00014066,1506.2,-3.1469e-05,212.89,-4.7574e-05,91.883,0.0095336
833,2.9,1,0.05,1.6252e-05,162.41,1.2479e-05,93.765,-2.6471e-21,-1.9889e-14,-1.2479e-05,-93.765,0.0099944
834,2.9,0.25,0.1,8.113e-05,810.74,8.5606e-05,950.51,-1.5384e-05,191.71,-2.8084e-05,96.29,0.0086323
835,2.9,0.5,0.05,1.1607e-05,115.99,8.9124e-06,66.964,-1.8905e-21,5.6454e-06,-8.9124e-06,-66.964,0.0090691
836,3.6481,6,0.1,5.4169e-05,541.32,5.6202e-05,602.49,-1.3581e-05,78.171,-1.791e-05,45.639,0.019358
837,3.0667,6,0.05,5.0076e-06,50.041,3.8452e-06,28.891,3.0546e-14,-1.902e-06,-3.8452e-06,-28.891,0.010667
838,4.8111,6,0.1,8.2726e-05,826.69,8.1894e-05,802.32,-2.7491e-05,-19.556,-2.8761e-05,-29.103,0.037783
839,4.2296,6,0.05,6.8654e-07,6.8607,5.2718e-07,3.961,-1.1182e-22,2.0491e-07,-5.2718e-07,-3.961,0.028322
840,5.9741,6,0.1,9.1925e-05,918.61,9.0764e-05,884.56,-3.0821e-05,-28.979,-3.2161e-05,-39.041,0.058535
841,5.3926,6,0.05,1.7352e-06,17.34,1.3324e-06,10.011,-2.8263e-22,1.8942e-07,-1.3324e-06,-10.011,0.047834
842,7.137,6,0.1,8.3254e-05,831.97,8.2913e-05,822.42,-2.6238e-05,2.2948,-2.9327e-05,-20.917,0.081803
843,6.5556,6,0.05,2.5161e-06,25.144,1.9321e-06,14.517,-2.138e-13,-1.14e-15,-1.9321e-06,-14.517,0.069864
844,8.3,6,0.1,7.265e-05,726,7.2703e-05,727.86,-2.2747e-05,10.69,-2.5054e-05,-6.6466,0.10727
845,7.7185,6,0.05,2.262e-06,22.605,1.737e-06,13.051,-3.6844e-22,4.7519e-08,-1.737e-06,-13.051,0.094271
846,9.463,6,0.1,6.3285e-05,632.41,6.3109e-05,627.31,-2.0612e-05,-1.7459,-2.1499e-05,-8.4089,0.13472
847,8.8815,6,0.05,1.6963e-06,16.951,1.3025e-06,9.7866,-2.7628e-22,2.4775e-06,-1.3025e-06,-9.7866,0.12076
848,10.626,6,0.1,5.3535e-05,534.98,5.3409e-05,531.33,-1.7434e-05,-0.96254,-1.8145e-05,-6.3085,0.16385
849,10.044,6,0.05,1.6671e-06,16.66,1.2801e-06,9.6184,-2.7154e-22,4.7665e-07,-1.2801e-06,-9.6184,0.14909
850,11.789,6,0.1,4.4645e-05,446.14,4.4533e-05,442.94,-1.4391e-05,0.20391,-1.5287e-05,-6.5262,0.19442
851,11.207,6,0.05,1.377e-06,13.761,1.0574e-06,7.9449,-3.6663e-22,1.4858e-06,-1.0574e-06,-7.9449,0.17897
852,12.952,6,0.1,3.6704e-05,366.79,3.656e-05,362.7,-1.1698e-05,0.10394,-1.2795e-05,-8.1373,0.22616
853,12.37,6,0.05,1.1963e-06,11.955,9.186e-07,6.902,1.5622e-15,1.9073e-06,-9.186e-07,-6.902,0.21015
854,14.115,6,0.1,2.9578e-05,295.57,2.9404e-05,290.7,-9.2736e-06,0.09261,-1.0563e-05,-9.5961,0.25887
855,13.533,6,0.05,1.0649e-06,10.642,8.1773e-07,6.1441,2.2714e-13,1.9054e-06,-8.1773e-07,-6.1441,0.24241
856,15.278,6,0.1,2.3258e-05,232.42,2.306e-05,226.94,-7.1567e-06,-0.094231,-8.5427e-06,-10.508,0.29236
857,14.696,6,0.05,9.7027e-07,9.696,7.4504e-07,5.598,-2.3198e-22,1.6676e-06,-7.4504e-07,-5.598,0.27553
858,16.441,6,0.1,1.7711e-05,176.98,1.7499e-05,171.23,-5.3185e-06,-0.21512,-6.7303e-06,-10.822,0.32645
859,15.859,6,0.05,8.643e-07,8.637,6.6367e-07,4.9866,2.3113e-13,1.9068e-06,-6.6367e-07,-4.9866,0.30933
860,17.604,6,0.1,1.2949e-05,129.41,1.2727e-05,123.51,-3.7405e-06,-0.21772,-5.1627e-06,-10.904,0.36098
861,17.022,6,0.05,7.542e-07,7.5368,5.7913e-07,4.3514,1.0783e-13,2.5991e-06,-5.7913e-07,-4.3514,0.34366
862,18.767,6,0.1,8.9828e-06,89.766,8.75e-06,83.812,-2.4402e-06,-0.26645,-3.8322e-06,-10.726,0.39584
863,18.185,6,0.05,6.4407e-07,6.4362,4.9456e-07,3.716,1.1e-13,2.6242e-06,-4.9456e-07,-3.716,0.37838
864,19.93,6,0.1,5.7872e-06,57.832,5.54e-06,51.834,-1.404e-06,-0.34,-2.736e-06,-10.348,0.43091
865,19.348,6,0.05,5.3187e-07,5.3151,4.0841e-07,3.0687,1.6567e-13,2.742e-06,-4.0841e-07,-3.0687,0.41335
866,21.093,6,0.1,3.3495e-06,33.472,3.0799e-06,27.492,-6.1708e-07,-0.28544,-1.8662e-06,-9.6706,0.46611
867,20.511,6,0.05,3.9859e-07,3.9831,3.0607e-07,2.2997,2.2719e-13,2.9814e-06,-3.0607e-07,-2.2997,0.44849
868,22.256,6,0.1,1.6815e-06,16.804,1.3761e-06,10.894,-1.0343e-07,-0.22284,-1.1967e-06,-8.437,0.50137
869,21.674,6,0.05,2.5467e-07,2.545,1.9556e-07,1.4693,2.2708e-13,3.0822e-06,-1.9556e-07,-1.4693,0.48373
870,23.419,6,0.1,7.4435e-07,7.4384,4.154e-07,1.9671,1.1605e-07,-0.2822,-6.8971e-07,-6.3364,0.53665
871,22.837,6,0.05,1.401e-07,1.4,1.0758e-07,0.80829,2.9459e-13,3.9748e-06,-1.0758e-07,-0.80828,0.51901
872,24,5.4,0.1,6.3056e-07,6.3012,2.6606e-07,0.7892,1.8024e-07,0.1444,-6.122e-07,-5.8096,0.55414
873,24,6,0.05,2.9337e-08,0.29317,2.2527e-08,0.16926,7.9435e-13,7.2154e-06,-2.2528e-08,-0.16926,0.55429
874,24,4.2,0.1,1.0381e-06,10.374,5.1888e-07,2.7511,2.8687e-07,1.008,-9.631e-07,-8.3839,0.55382
875,24,4.8,0.05,5.3707e-08,0.5367,4.1241e-08,0.30987,1.956e-13,3.465e-06,-4.1241e-08,-0.30986,0.55398
876,24,3,0.1,1.2458e-06,12.45,6.0918e-07,3.2188,3.6203e-07,1.3618,-1.1575e-06,-10.055,0.55347
877,24,3.6,0.05,5.7532e-08,0.57493,4.4178e-08,0.33194,2.0278e-13,3.3659e-06,-4.4178e-08,-0.33193,0.55365
878,24,1.8,0.1,1.0375e-06,10.368,5.1895e-07,2.7479,2.8583e-07,0.99633,-9.6264e-07,-8.3842,0.55309
879,24,2.4,0.05,5.727e-08,0.57231,4.3976e-08,0.33042,2.2746e-13,3.3409e-06,-4.3976e-08,-0.33042,0.55328
880,24,0.6,0.1,6.3026e-07,6.2983,2.657e-07,0.78683,1.8039e-07,0.14589,-6.1195e-07,-5.8074,0.55268
881,24,1.2,0.05,5.3611e-08,0.53574,4.1167e-08,0.30931,2.0661e-13,3.514e-06,-4.1167e-08,-0.30931,0.55289
882,1.5735e-14,1.8,0.1,9.9654e-05,995.85,0.00013275,1968.7,9.1375e-07,978.15,-4.7819e-07,967.69,0
883,5.2451e-15,0.6,0.1,7.7311e-05,772.57,0.00010242,1510.8,8.3576e-07,747.57,-1.6035e-06,729.24,0
884,1.0632e-14,1.2,0.05,6.7929e-06,67.882,5.2161e-06,39.192,-4.9141e-14,1.4169e-05,-5.2161e-06,-39.192,0
885,2.6226e-14,3,0.1,0.00010834,1082.6,0.00014434,2141,1.0381e-06,1064.2,-5.1773e-07,1052.6,0
886,2.1264e-14,2.4,0.05,2.0585e-06,20.571,1.5807e-06,11.877,2.0976e-14,1.9551e-07,-1.5807e-06,-11.877,0
887,3.6716e-14,4.2,0.1,0.000108,1079.2,0.00014388,2134,1.0427e-06,1060.8,-5.3733e-07,1048.9,0
888,3.1897e-14,3.6,0.05,4.9673e-06,49.639,3.8143e-06,28.659,-4.9663e-14,-3.1245e-07,-3.8143e-06,-28.659,0
889,4.7206e-14,5.4,0.1,8.7087e-05,870.27,0.00011529,1699.5,4.067e-07,836.25,-1.4488e-06,822.31,0
890,4.2529e-14,4.8,0.05,7.462e-07,7.4569,5.7299e-07,4.3052,1.4184e-13,1.0703e-06,-5.7299e-07,-4.3052,0
891,23.419,0,0.1,7.4409e-07,7.4358,4.1609e-07,1.9813,1.1581e-07,-0.27487,-6.8891e-07,-6.3213,0.53483
892,24,0,0.05,2.9304e-08,0.29283,2.2501e-08,0.16907,7.3473e-13,6.7932e-06,-2.2502e-08,-0.16907,0.55247
893,22.256,0,0.1,1.6817e-06,16.806,1.3793e-06,10.936,-1.0778e-07,-0.23712,-1.193e-06,-8.3909,0.49954
894,22.837,0,0.05,1.4044e-07,1.4035,1.0784e-07,0.81029,2.955e-13,4.4382e-06,-1.0784e-07,-0.81029,0.51718
895,21.093,0,0.1,3.3489e-06,33.466,3.0796e-06,27.498,-6.1568e-07,-0.26639,-1.8661e-06,-9.6614,0.46428
896,21.674,0,0.05,2.5486e-07,2.5468,1.957e-07,1.4704,2.2712e-13,3.0248e-06,-1.957e-07,-1.4704,0.48191
897,19.93,0,0.1,5.7738e-06,57.698,5.5276e-06,51.741,-1.3954e-06,-0.27544,-2.7323e-06,-10.32,0.42908
898,20.511,0,0.05,3.914e-07,3.9113,3.0055e-07,2.2582,1.9081e-13,3.2218e-06,-3.0055e-07,-2.2582,0.44667
899,18.767,0,0.1,8.9652e-06,89.59,8.7372e-06,83.748,-2.4447e-06,-0.26875,-3.8105e-06,-10.531,0.39401
900,19.348,0,0.05,5.2352e-07,5.2316,4.02e-07,3.0204,1.768e-13,2.7449e-06,-4.02e-07,-3.0204,0.41153
901,17.604,0,0.1,1.2936e-05,129.27,1.2721e-05,123.54,-3.7571e-06,-0.26557,-5.129e-06,-10.573,0.35916
902,18.185,0,0.05,6.5141e-07,6.5096,5.002e-07,3.7583,1.0949e-13,2.7434e-06,-5.002e-07,-3.7583,0.37655
903,16.441,0,0.1,1.769e-05,176.78,1.7488e-05,171.26,-5.3359e-06,-0.22945,-6.6863e-06,-10.376,0.32462
904,17.022,0,0.05,7.8182e-07,7.8128,6.0034e-07,4.5107,2.1992e-13,2.5906e-06,-6.0034e-07,-4.5107,0.34184
905,15.278,0,0.1,2.3238e-05,232.22,2.3052e-05,227.05,-7.1836e-06,-0.12468,-8.4839e-06,-9.8946,0.29054
906,15.859,0,0.05,9.1288e-07,9.1225,7.0098e-07,5.2669,5.9785e-15,1.9085e-06,-7.0098e-07,-5.2669,0.30751
907,14.115,0,0.1,2.9586e-05,295.65,2.942e-05,290.99,-9.296e-06,0.093772,-1.0533e-05,-9.2003,0.25705
908,14.696,0,0.05,1.0397e-06,10.39,7.9837e-07,5.9986,4.6166e-15,1.9066e-06,-7.9837e-07,-5.9986,0.2737
909,12.952,0,0.1,3.6723e-05,366.98,3.6579e-05,362.9,-1.1674e-05,0.34027,-1.283e-05,-8.3445,0.22433
910,13.533,0,0.05,1.1384e-06,11.376,8.7416e-07,6.5681,1.1575e-17,9.5365e-07,-8.7416e-07,-6.5681,0.24058
911,11.789,0,0.1,4.4688e-05,446.58,4.4571e-05,443.21,-1.4371e-05,0.34379,-1.5346e-05,-6.9755,0.19259
912,12.37,0,0.05,1.2285e-06,12.277,9.4337e-07,7.0881,-1.2683e-15,9.6503e-07,-9.4337e-07,-7.0881,0.20832
913,10.626,0,0.1,5.3589e-05,535.52,5.3475e-05,532.21,-1.7409e-05,-0.38323,-1.8182e-05,-6.1973,0.16203
914,11.207,0,0.05,1.3279e-06,13.27,1.0197e-06,7.6613,-2.1628e-22,1.4298e-06,-1.0197e-06,-7.6613,0.17714
915,9.463,0,0.1,6.3411e-05,633.67,6.3261e-05,629.31,-2.0691e-05,-1.4701,-2.1454e-05,-7.2077,0.1329
916,10.044,0,0.05,1.5374e-06,15.363,1.1805e-06,8.87,1.6667e-15,1.4304e-06,-1.1805e-06,-8.87,0.14726
917,8.3,0,0.1,7.3099e-05,730.49,7.3081e-05,730.13,-2.3232e-05,6.4742,-2.5025e-05,-6.9981,0.10546
918,8.8815,0,0.05,1.5561e-06,15.55,1.1949e-06,8.9779,-2.5345e-22,1.4071e-06,-1.1949e-06,-8.9779,0.11894
919,7.137,0,0.1,8.2393e-05,823.36,8.2217e-05,818.5,-2.6072e-05,4.8652,-2.8616e-05,-14.248,0.08001
920,7.7185,0,0.05,1.659e-06,16.579,1.2739e-06,9.5718,-1.4953e-13,7.6162e-07,-1.2739e-06,-9.5718,0.092466
921,5.9741,0,0.1,8.886e-05,887.98,8.7748e-05,855.32,-3.0108e-05,-30.198,-3.0761e-05,-35.103,0.056773
922,6.5556,0,0.05,1.7958e-06,17.946,1.379e-06,10.361,-2.925e-22,-7.42e-07,-1.379e-06,-10.361,0.06809
923,4.8111,0,0.1,7.9308e-05,792.53,7.8076e-05,756.55,-2.632e-05,-27.843,-2.8455e-05,-43.884,0.035945
924,5.3926,0,0.05,1.4407e-06,14.397,1.1063e-06,8.3123,-2.3466e-22,7.3549e-06,-1.1063e-06,-8.3123,0.04605
925,3.6481,0,0.1,5.3928e-05,538.91,5.5558e-05,588.51,-1.3685e-05,68.25,-1.8414e-05,32.723,0.017325
926,4.2296,0,0.05,9.6675e-07,9.6608,7.4234e-07,5.5777,2.8588e-15,1.1991e-08,-7.4234e-07,-5.5777,0.026397
927,3.0667,0,0.05,5.1387e-06,51.352,3.9459e-06,29.648,-1.1995e-12,-6.2888e-15,-3.9459e-06,-29.648,0.0085264
928,2.4167,2.5275e-31,0.1,8.3436e-05,833.78,8.6671e-05,929.32,-2.2794e-05,106.83,-2.5743e-05,84.677,0.005709
929,2.9,3.033e-31,0.05,7.7879e-06,77.825,5.9801e-06,44.932,-1.2685e-21,-9.5308e-15,-5.9801e-06,-44.932,0.0081898
930,1.45,1.5165e-31,0.1,0.00011675,1166.7,0.00011585,1146.9,-3.2088e-05,35.398,-4.5845e-05,-67.969,0.0018981
931,1.9333,0,0.05,3.7365e-06,37.339,2.8691e-06,21.558,2.9019e-13,-4.5727e-15,-2.8691e-06,-21.558,0.003563
932,0.48333,5.0549e-32,0.1,9.4066e-05,940.01,0.0001016,1177.7,-1.274e-05,318.62,-3.2039e-05,173.61,0.00017321
933,0.96667,0,0.05,4.7962e-06,47.928,3.6829e-06,27.672,-7.8119e-22,-5.8695e-15,-3.6829e-06,-27.672,0.0007658
934,0,0,0.05,3.3318e-05,332.95,2.5584e-05,192.23,-5.4267e-21,-4.0774e-14,-2.5584e-05,-192.23,0
935,0.48333,6,0.1,9.5443e-05,953.77,0.00010451,1230.1,-1.4171e-05,338.4,-2.9332e-05,224.49,0.00019245
936,5.2451e-14,6,0.05,3.2759e-05,327.37,2.5155e-05,189.01,1.2304e-14,-4.0091e-14,-2.5155e-05,-189.01,0
937,1.45,6,0.1,0.0001142,1141.2,0.00011399,1137.4,-3.3817e-05,26.826,-4.1655e-05,-32.063,0.0019966
938,0.96667,6,0.05,3.8795e-06,38.769,2.979e-06,22.383,8.4234e-13,-4.7478e-15,-2.979e-06,-22.383,0.00083428
939,2.4167,6,0.1,8.1282e-05,812.26,8.4717e-05,923.32,-1.5641e-05,169.27,-2.975e-05,63.262,0.0057412
940,1.9333,6,0.05,5.2917e-06,52.881,4.0634e-06,30.531,-8.6191e-22,-6.476e-15,-4.0634e-06,-30.531,0.0036375
941,2.9,6,0.05,1.8823e-05,188.1,1.4454e-05,108.6,-3.0659e-21,-2.3036e-14,-1.4454e-05,-108.6,0.00821
942,1.45,6,0,0.0001142,1141.2,4.1655e-05,32.063,3.3817e-05,-26.826,-0.00011399,-1137.4,0.0019966
943,2.4167,6,0,8.1282e-05,812.26,2.975e-05,-63.262,1.5641e-05,-169.27,-8.4717e-05,-923.32,0.0057412
944,0.48333,6,0,9.5443e-05,953.77,2.9332e-05,-224.49,1.4171e-05,-338.4,-0.00010451,-1230.1,0.00019245
945,2.9,5.75,0,4.6419e-05,463.87,2.217e-05,-73.686,-6.4334e-06,-288.6,-4.8682e-05,-606.04,0.0086503
946,4.7206e-14,5.4,0,8.7087e-05,870.27,1.4488e-06,-822.31,-4.067e-07,-836.25,-0.00011529,-1699.5,0
947,1.45,1.5165e-31,0,0.00011675,1166.7,4.5845e-05,67.969,3.2088e-05,-35.398,-0.00011585,-1146.9,0.0018981
948,0.48333,5.0549e-32,0,9.4066e-05,940.01,3.2039e-05,-173.61,1.274e-05,-318.62,-0.0001016,-1177.7,0.00017321
949,2.4167,2.5275e-31,0,8.3436e-05,833.78,2.5743e-05,-84.677,2.2794e-05,-106.83,-8.6671e-05,-929.32,0.005709
950,2.9,0.25,0,8.113e-05,810.74,2.8084e-05,-96.29,1.5384e-05,-191.71,-8.5606e-05,-950.51,0.0086323
951,5.2451e-15,0.6,0,7.7311e-05,772.57,1.6035e-06,-729.24,-8.3576e-07,-747.57,-0.00010242,-1510.8,0
952,4.8111,0,0,7.9308e-05,792.53,2.8455e-05,43.884,2.632e-05,27.843,-7.8076e-05,-756.55,0.035945
953,3.6481,0,0,5.3928e-05,538.91,1.8414e-05,-32.723,1.3685e-05,-68.25,-5.5558e-05,-588.51,0.017325
954,5.9741,0,0,8.886e-05,887.98,3.0761e-05,35.103,3.0108e-05,30.198,-8.7748e-05,-855.32,0.056773
955,7.137,0,0,8.2393e-05,823.36,2.8616e-05,14.248,2.6072e-05,-4.8652,-8.2217e-05,-818.5,0.08001
956,8.3,0,0,7.3099e-05,730.49,2.5025e-05,6.9981,2.3232e-05,-6.4742,-7.3081e-05,-730.13,0.10546
957,9.463,0,0,6.3411e-05,633.67,2.1454e-05,7.2077,2.0691e-05,1.4701,-6.3261e-05,-629.31,0.1329
958,10.626,0,0,5.3589e-05,535.52,1.8182e-05,6.1973,1.7409e-05,0.38323,-5.3475e-05,-532.21,0.16203
959,11.789,0,0,4.4688e-05,446.58,1.5346e-05,6.9755,1.4371e-05,-0.34379,-4.4571e-05,-443.21,0.19259
960,12.952,0,0,3.6723e-05,366.98,1.283e-05,8.3445,1.1674e-05,-0.34027,-3.6579e-05,-362.9,0.22433
961,14.115,0,0,2.9586e-05,295.65,1.0533e-05,9.2003,9.296e-06,-0.093772,-2.942e-05,-290.99,0.25705
962,15.278,0,0,2.3238e-05,232.22,8.4839e-06,9.8946,7.1836e-06,0.12468,-2.3052e-05,-227.05,0.29054
963,16.441,0,0,1.769e-05,176.78,6.6863e-06,10.376,5.3359e-06,0.22945,-1.7488e-05,-171.26,0.32462
964,17.604,0,0,1.2936e-05,129.27,5.129e-06,10.573,3.7571e-06,0.26557,-1.2721e-05,-123.54,0.35916
965,18.767,0,0,8.9652e-06,89.59,3.8105e-06,10.531,2.4447e-06,0.26875,-8.7372e-06,-83.748,0.39401
966,19.93,0,0,5.7738e-06,57.698,2.7323e-06,10.32,1.3954e-06,0.27544,-5.5276e-06,-51.741,0.42908
967,21.093,0,0,3.3489e-06,33.466,1.8661e-06,9.6614,6.1568e-07,0.26639,-3.0796e-06,-27.498,0.46428
968,22.256,0,0,1.6817e-06,16.806,1.193e-06,8.3909,1.0778e-07,0.23712,-1.3793e-06,-10.936,0.49954
969,23.419,0,0,7.4409e-07,7.4358,6.8891e-07,6.3213,-1.1581e-07,0.27487,-4.1609e-07,-1.9813,0.53483
970,3.0667,0.25,0,4.6075e-05,460.43,1.7265e-05,-77.972,3.8625e-06,-178.67,-4.9607e-05,-580.42,0.0091609
971,24,0.6,0,6.3026e-07,6.2983,6.1195e-07,5.8074,-1.8039e-07,-0.14589,-2.657e-07,-0.78682,0.55268
972,3.6716e-14,4.2,0,0.000108,1079.2,5.3733e-07,-1048.9,-1.0427e-06,-1060.8,-0.00014388,-2134,0
973,2.6226e-14,3,0,0.00010834,1082.6,5.1773e-07,-1052.6,-1.0381e-06,-1064.2,-0.00014434,-2141,0
974,1.5735e-14,1.8,0,9.9654e-05,995.85,4.7819e-07,-967.69,-9.1375e-07,-978.15,-0.00013275,-1968.7,0
975,24,1.8,0,1.0375e-06,10.368,9.6264e-07,8.3842,-2.8583e-07,-0.99633,-5.1895e-07,-2.7479,0.55309
976,24,3,0,1.2458e-06,12.45,1.1575e-06,10.055,-3.6203e-07,-1.3618,-6.0918e-07,-3.2188,0.55347
977,24,4.2,0,1.0381e-06,10.374,9.631e-07,8.3839,-2.8687e-07,-1.008,-5.1888e-07,-2.7511,0.55382
978,24,5.4,0,6.3056e-07,6.3012,6.122e-07,5.8097,-1.8024e-07,-0.1444,-2.6606e-07,-0.78919,0.55414
979,23.419,6,0,7.4435e-07,7.4384,6.8971e-07,6.3364,-1.1605e-07,0.2822,-4.154e-07,-1.9671,0.53665
980,22.256,6,0,1.6815e-06,16.804,1.1967e-06,8.437,1.0343e-07,0.22284,-1.3761e-06,-10.894,0.50137
981,21.093,6,0,3.3495e-06,33.472,1.8662e-06,9.6706,6.1708e-07,0.28544,-3.0799e-06,-27.492,0.46611
982,19.93,6,0,5.7872e-06,57.832,2.736e-06,10.348,1.404e-06,0.34,-5.54e-06,-51.834,0.43091
983,18.767,6,0,8.9828e-06,89.766,3.8322e-06,10.726,2.4402e-06,0.26645,-8.75e-06,-83.812,0.39584
984,17.604,6,0,1.2949e-05,129.41,5.1627e-06,10.904,3.7405e-06,0.21772,-1.2727e-05,-123.51,0.36098
985,16.441,6,0,1.7711e-05,176.98,6.7303e-06,10.822,5.3185e-06,0.21512,-1.7499e-05,-171.23,0.32645
986,15.278,6,0,2.3258e-05,232.42,8.5427e-06,10.508,7.1567e-06,0.09423,-2.306e-05,-226.94,0.29236
987,14.115,6,0,2.9578e-05,295.57,1.0563e-05,9.5961,9.2736e-06,-0.09261,-2.9404e-05,-290.7,0.25887
988,12.952,6,0,3.6704e-05,366.79,1.2795e-05,8.1373,1.1698e-05,-0.10394,-3.656e-05,-362.7,0.22616
989,11.789,6,0,4.4645e-05,446.14,1.5287e-05,6.5262,1.4391e-05,-0.20391,-4.4533e-05,-442.94,0.19442
990,10.626,6,0,5.3535e-05,534.98,1.8145e-05,6.3085,1.7434e-05,0.96254,-5.3409e-05,-531.33,0.16385
991,9.463,6,0,6.3285e-05,632.41,2.1499e-05,8.4089,2.0612e-05,1.7459,-6.3109e-05,-627.31,0.13472
992,8.3,6,0,7.265e-05,726,2.5054e-05,6.6466,2.2747e-05,-10.69,-7.2703e-05,-727.86,0.10727
993,7.137,6,0,8.3254e-05,831.97,2.9327e-05,20.917,2.6238e-05,-2.2948,-8.2913e-05,-822.42,0.081803
994,5.9741,6,0,9.1925e-05,918.61,3.2161e-05,39.041,3.0821e-05,28.979,-9.0764e-05,-884.56,0.058535
995,4.8111,6,0,8.2726e-05,826.69,2.8761e-05,29.103,2.7491e-05,19.556,-8.1894e-05,-802.32,0.037783
996,3.6481,6,0,5.4169e-05,541.32,1.791e-05,-45.639,1.3581e-05,-78.171,-5.6202e-05,-602.49,0.019358
997,3.0667,5.75,0,3.8781e-05,387.55,1.3202e-05,-113.48,1.0151e-06,-205.05,-4.338e-05,-538.61,0.011133
998,2.9,1.25,0,0.00021575,2156,8.2163e-05,-124.21,3.9771e-05,-442.73,-0.00022362,-2421.7,0.010486
999,2.9,1.75,0,0.00034682,3465.8,0.00013425,-284.07,5.1322e-05,-907.19,-0.00036285,-4019.1,0.011492
1000,2.9,0.75,0,0.00013588,1357.8,4.7574e-05,-91.883,3.1469e-05,-212.89,-0.00014066,-1506.2,0.0095336
1001,2.9833,2,0,0.00036825,3679.9,0.00013372,-306.78,7.0877e-05,-778.96,-0.00038444,-4200,0.01284
1002,3.0667,0.75,0,6.8985e-05,689.38,2.3136e-05,-82.257,1.4413e-05,-147.8,-7.2665e-05,-802.06,0.010381
1003,3.0667,1.25,0,0.00015156,1514.6,7.849e-05,302.81,2.6231e-05,-89.848,-0.00014407,-1369.4,0.01169
1004,3.0667,1.75,0,0.00024512,2449.5,9.9957e-05,122.8,5.8642e-05,-187.62,-0.00024474,-2467.1,0.013101
1005,2.9,4.75,0,0.00018143,1813,0.0001202,877.2,2.954e-05,196.01,-0.0001533,-1177.8,0.010643
1006,2.9,4.25,0,0.00032459,3243.6,0.00015287,229.66,4.3968e-05,-588.6,-0.00032285,-3344.7,0.011889
1007,2.9,5.25,0,9.2626e-05,925.62,4.9774e-05,197.04,1.3457e-05,-75.83,-8.7495e-05,-834.34,0.0095668
1008,2.9833,4,0,0.00039451,3942.3,0.00014598,-481.04,5.5661e-05,-1159.7,-0.00041801,-4718.6,0.013336
1009,3.0667,5.25,0,9.3601e-05,935.36,4.822e-05,129.48,1.0594e-05,-153.23,-9.0741e-05,-914.63,0.01204
1010,3.0667,4.75,0,0.00014707,1469.7,8.1154e-05,389.26,2.5e-05,-32.661,-0.00013639,-1245.3,0.013059
1011,3.0667,4.25,0,0.00020208,2019.4,6.42e-05,-244.99,4.8246e-05,-364.86,-0.00021218,-2321.6,0.013975
